# vtk DataFile Version 3.0
vtk output
ASCII
DATASET UNSTRUCTURED_GRID
POINTS      5151 double 
  0.00000000E+00  1.00000000E+02  0.00000000E+00
  0.00000000E+00  9.80000000E+01  0.00000000E+00
  0.00000000E+00  9.60000000E+01  0.00000000E+00
  0.00000000E+00  9.40000000E+01  0.00000000E+00
  0.00000000E+00  9.20000000E+01  0.00000000E+00
  0.00000000E+00  9.00000000E+01  0.00000000E+00
  0.00000000E+00  8.80000000E+01  0.00000000E+00
  0.00000000E+00  8.60000000E+01  0.00000000E+00
  0.00000000E+00  8.40000000E+01  0.00000000E+00
  0.00000000E+00  8.20000000E+01  0.00000000E+00
  0.00000000E+00  8.00000000E+01  0.00000000E+00
  0.00000000E+00  7.80000000E+01  0.00000000E+00
  0.00000000E+00  7.60000000E+01  0.00000000E+00
  0.00000000E+00  7.40000000E+01  0.00000000E+00
  0.00000000E+00  7.20000000E+01  0.00000000E+00
  0.00000000E+00  7.00000000E+01  0.00000000E+00
  0.00000000E+00  6.80000000E+01  0.00000000E+00
  0.00000000E+00  6.60000000E+01  0.00000000E+00
  0.00000000E+00  6.40000000E+01  0.00000000E+00
  0.00000000E+00  6.20000000E+01  0.00000000E+00
  0.00000000E+00  6.00000000E+01  0.00000000E+00
  0.00000000E+00  5.80000000E+01  0.00000000E+00
  0.00000000E+00  5.60000000E+01  0.00000000E+00
  0.00000000E+00  5.40000000E+01  0.00000000E+00
  0.00000000E+00  5.20000000E+01  0.00000000E+00
  0.00000000E+00  5.00000000E+01  0.00000000E+00
  0.00000000E+00  4.80000000E+01  0.00000000E+00
  0.00000000E+00  4.60000000E+01  0.00000000E+00
  0.00000000E+00  4.40000000E+01  0.00000000E+00
  0.00000000E+00  4.20000000E+01  0.00000000E+00
  0.00000000E+00  4.00000000E+01  0.00000000E+00
  0.00000000E+00  3.80000000E+01  0.00000000E+00
  0.00000000E+00  3.60000000E+01  0.00000000E+00
  0.00000000E+00  3.40000000E+01  0.00000000E+00
  0.00000000E+00  3.20000000E+01  0.00000000E+00
  0.00000000E+00  3.00000000E+01  0.00000000E+00
  0.00000000E+00  2.80000000E+01  0.00000000E+00
  0.00000000E+00  2.60000000E+01  0.00000000E+00
  0.00000000E+00  2.40000000E+01  0.00000000E+00
  0.00000000E+00  2.20000000E+01  0.00000000E+00
  0.00000000E+00  2.00000000E+01  0.00000000E+00
  0.00000000E+00  1.80000000E+01  0.00000000E+00
  0.00000000E+00  1.60000000E+01  0.00000000E+00
  0.00000000E+00  1.40000000E+01  0.00000000E+00
  0.00000000E+00  1.20000000E+01  0.00000000E+00
  0.00000000E+00  1.00000000E+01  0.00000000E+00
  0.00000000E+00  8.00000000E+00  0.00000000E+00
  0.00000000E+00  6.00000000E+00  0.00000000E+00
  0.00000000E+00  4.00000000E+00  0.00000000E+00
  0.00000000E+00  2.00000000E+00  0.00000000E+00
  0.00000000E+00 -3.33066907E-14  0.00000000E+00
  1.00000000E+01  1.00000000E+02  0.00000000E+00
  1.00000000E+01  9.80000000E+01  0.00000000E+00
  1.00000000E+01  9.60000000E+01  0.00000000E+00
  1.00000000E+01  9.40000000E+01  0.00000000E+00
  1.00000000E+01  9.20000000E+01  0.00000000E+00
  1.00000000E+01  9.00000000E+01  0.00000000E+00
  1.00000000E+01  8.80000000E+01  0.00000000E+00
  1.00000000E+01  8.60000000E+01  0.00000000E+00
  1.00000000E+01  8.40000000E+01  0.00000000E+00
  1.00000000E+01  8.20000000E+01  0.00000000E+00
  1.00000000E+01  8.00000000E+01  0.00000000E+00
  1.00000000E+01  7.80000000E+01  0.00000000E+00
  1.00000000E+01  7.60000000E+01  0.00000000E+00
  1.00000000E+01  7.40000000E+01  0.00000000E+00
  1.00000000E+01  7.20000000E+01  0.00000000E+00
  1.00000000E+01  7.00000000E+01  0.00000000E+00
  1.00000000E+01  6.80000000E+01  0.00000000E+00
  1.00000000E+01  6.60000000E+01  0.00000000E+00
  1.00000000E+01  6.40000000E+01  0.00000000E+00
  1.00000000E+01  6.20000000E+01  0.00000000E+00
  1.00000000E+01  6.00000000E+01  0.00000000E+00
  1.00000000E+01  5.80000000E+01  0.00000000E+00
  1.00000000E+01  5.60000000E+01  0.00000000E+00
  1.00000000E+01  5.40000000E+01  0.00000000E+00
  1.00000000E+01  5.20000000E+01  0.00000000E+00
  1.00000000E+01  5.00000000E+01  0.00000000E+00
  1.00000000E+01  4.80000000E+01  0.00000000E+00
  1.00000000E+01  4.60000000E+01  0.00000000E+00
  1.00000000E+01  4.40000000E+01  0.00000000E+00
  1.00000000E+01  4.20000000E+01  0.00000000E+00
  1.00000000E+01  4.00000000E+01  0.00000000E+00
  1.00000000E+01  3.80000000E+01  0.00000000E+00
  1.00000000E+01  3.60000000E+01  0.00000000E+00
  1.00000000E+01  3.40000000E+01  0.00000000E+00
  1.00000000E+01  3.20000000E+01  0.00000000E+00
  1.00000000E+01  3.00000000E+01  0.00000000E+00
  1.00000000E+01  2.80000000E+01  0.00000000E+00
  1.00000000E+01  2.60000000E+01  0.00000000E+00
  1.00000000E+01  2.40000000E+01  0.00000000E+00
  1.00000000E+01  2.20000000E+01  0.00000000E+00
  1.00000000E+01  2.00000000E+01  0.00000000E+00
  1.00000000E+01  1.80000000E+01  0.00000000E+00
  1.00000000E+01  1.60000000E+01  0.00000000E+00
  1.00000000E+01  1.40000000E+01  0.00000000E+00
  1.00000000E+01  1.20000000E+01  0.00000000E+00
  1.00000000E+01  1.00000000E+01  0.00000000E+00
  1.00000000E+01  8.00000000E+00  0.00000000E+00
  1.00000000E+01  6.00000000E+00  0.00000000E+00
  1.00000000E+01  4.00000000E+00  0.00000000E+00
  1.00000000E+01  2.00000000E+00  0.00000000E+00
  1.00000000E+01 -3.33066907E-14  0.00000000E+00
  2.00000000E+01  1.00000000E+02  0.00000000E+00
  2.00000000E+01  9.80000000E+01  0.00000000E+00
  2.00000000E+01  9.60000000E+01  0.00000000E+00
  2.00000000E+01  9.40000000E+01  0.00000000E+00
  2.00000000E+01  9.20000000E+01  0.00000000E+00
  2.00000000E+01  9.00000000E+01  0.00000000E+00
  2.00000000E+01  8.80000000E+01  0.00000000E+00
  2.00000000E+01  8.60000000E+01  0.00000000E+00
  2.00000000E+01  8.40000000E+01  0.00000000E+00
  2.00000000E+01  8.20000000E+01  0.00000000E+00
  2.00000000E+01  8.00000000E+01  0.00000000E+00
  2.00000000E+01  7.80000000E+01  0.00000000E+00
  2.00000000E+01  7.60000000E+01  0.00000000E+00
  2.00000000E+01  7.40000000E+01  0.00000000E+00
  2.00000000E+01  7.20000000E+01  0.00000000E+00
  2.00000000E+01  7.00000000E+01  0.00000000E+00
  2.00000000E+01  6.80000000E+01  0.00000000E+00
  2.00000000E+01  6.60000000E+01  0.00000000E+00
  2.00000000E+01  6.40000000E+01  0.00000000E+00
  2.00000000E+01  6.20000000E+01  0.00000000E+00
  2.00000000E+01  6.00000000E+01  0.00000000E+00
  2.00000000E+01  5.80000000E+01  0.00000000E+00
  2.00000000E+01  5.60000000E+01  0.00000000E+00
  2.00000000E+01  5.40000000E+01  0.00000000E+00
  2.00000000E+01  5.20000000E+01  0.00000000E+00
  2.00000000E+01  5.00000000E+01  0.00000000E+00
  2.00000000E+01  4.80000000E+01  0.00000000E+00
  2.00000000E+01  4.60000000E+01  0.00000000E+00
  2.00000000E+01  4.40000000E+01  0.00000000E+00
  2.00000000E+01  4.20000000E+01  0.00000000E+00
  2.00000000E+01  4.00000000E+01  0.00000000E+00
  2.00000000E+01  3.80000000E+01  0.00000000E+00
  2.00000000E+01  3.60000000E+01  0.00000000E+00
  2.00000000E+01  3.40000000E+01  0.00000000E+00
  2.00000000E+01  3.20000000E+01  0.00000000E+00
  2.00000000E+01  3.00000000E+01  0.00000000E+00
  2.00000000E+01  2.80000000E+01  0.00000000E+00
  2.00000000E+01  2.60000000E+01  0.00000000E+00
  2.00000000E+01  2.40000000E+01  0.00000000E+00
  2.00000000E+01  2.20000000E+01  0.00000000E+00
  2.00000000E+01  2.00000000E+01  0.00000000E+00
  2.00000000E+01  1.80000000E+01  0.00000000E+00
  2.00000000E+01  1.60000000E+01  0.00000000E+00
  2.00000000E+01  1.40000000E+01  0.00000000E+00
  2.00000000E+01  1.20000000E+01  0.00000000E+00
  2.00000000E+01  1.00000000E+01  0.00000000E+00
  2.00000000E+01  8.00000000E+00  0.00000000E+00
  2.00000000E+01  6.00000000E+00  0.00000000E+00
  2.00000000E+01  4.00000000E+00  0.00000000E+00
  2.00000000E+01  2.00000000E+00  0.00000000E+00
  2.00000000E+01 -3.33066907E-14  0.00000000E+00
  3.00000000E+01  1.00000000E+02  0.00000000E+00
  3.00000000E+01  9.80000000E+01  0.00000000E+00
  3.00000000E+01  9.60000000E+01  0.00000000E+00
  3.00000000E+01  9.40000000E+01  0.00000000E+00
  3.00000000E+01  9.20000000E+01  0.00000000E+00
  3.00000000E+01  9.00000000E+01  0.00000000E+00
  3.00000000E+01  8.80000000E+01  0.00000000E+00
  3.00000000E+01  8.60000000E+01  0.00000000E+00
  3.00000000E+01  8.40000000E+01  0.00000000E+00
  3.00000000E+01  8.20000000E+01  0.00000000E+00
  3.00000000E+01  8.00000000E+01  0.00000000E+00
  3.00000000E+01  7.80000000E+01  0.00000000E+00
  3.00000000E+01  7.60000000E+01  0.00000000E+00
  3.00000000E+01  7.40000000E+01  0.00000000E+00
  3.00000000E+01  7.20000000E+01  0.00000000E+00
  3.00000000E+01  7.00000000E+01  0.00000000E+00
  3.00000000E+01  6.80000000E+01  0.00000000E+00
  3.00000000E+01  6.60000000E+01  0.00000000E+00
  3.00000000E+01  6.40000000E+01  0.00000000E+00
  3.00000000E+01  6.20000000E+01  0.00000000E+00
  3.00000000E+01  6.00000000E+01  0.00000000E+00
  3.00000000E+01  5.80000000E+01  0.00000000E+00
  3.00000000E+01  5.60000000E+01  0.00000000E+00
  3.00000000E+01  5.40000000E+01  0.00000000E+00
  3.00000000E+01  5.20000000E+01  0.00000000E+00
  3.00000000E+01  5.00000000E+01  0.00000000E+00
  3.00000000E+01  4.80000000E+01  0.00000000E+00
  3.00000000E+01  4.60000000E+01  0.00000000E+00
  3.00000000E+01  4.40000000E+01  0.00000000E+00
  3.00000000E+01  4.20000000E+01  0.00000000E+00
  3.00000000E+01  4.00000000E+01  0.00000000E+00
  3.00000000E+01  3.80000000E+01  0.00000000E+00
  3.00000000E+01  3.60000000E+01  0.00000000E+00
  3.00000000E+01  3.40000000E+01  0.00000000E+00
  3.00000000E+01  3.20000000E+01  0.00000000E+00
  3.00000000E+01  3.00000000E+01  0.00000000E+00
  3.00000000E+01  2.80000000E+01  0.00000000E+00
  3.00000000E+01  2.60000000E+01  0.00000000E+00
  3.00000000E+01  2.40000000E+01  0.00000000E+00
  3.00000000E+01  2.20000000E+01  0.00000000E+00
  3.00000000E+01  2.00000000E+01  0.00000000E+00
  3.00000000E+01  1.80000000E+01  0.00000000E+00
  3.00000000E+01  1.60000000E+01  0.00000000E+00
  3.00000000E+01  1.40000000E+01  0.00000000E+00
  3.00000000E+01  1.20000000E+01  0.00000000E+00
  3.00000000E+01  1.00000000E+01  0.00000000E+00
  3.00000000E+01  8.00000000E+00  0.00000000E+00
  3.00000000E+01  6.00000000E+00  0.00000000E+00
  3.00000000E+01  4.00000000E+00  0.00000000E+00
  3.00000000E+01  2.00000000E+00  0.00000000E+00
  3.00000000E+01 -3.33066907E-14  0.00000000E+00
  4.00000000E+01  1.00000000E+02  0.00000000E+00
  4.00000000E+01  9.80000000E+01  0.00000000E+00
  4.00000000E+01  9.60000000E+01  0.00000000E+00
  4.00000000E+01  9.40000000E+01  0.00000000E+00
  4.00000000E+01  9.20000000E+01  0.00000000E+00
  4.00000000E+01  9.00000000E+01  0.00000000E+00
  4.00000000E+01  8.80000000E+01  0.00000000E+00
  4.00000000E+01  8.60000000E+01  0.00000000E+00
  4.00000000E+01  8.40000000E+01  0.00000000E+00
  4.00000000E+01  8.20000000E+01  0.00000000E+00
  4.00000000E+01  8.00000000E+01  0.00000000E+00
  4.00000000E+01  7.80000000E+01  0.00000000E+00
  4.00000000E+01  7.60000000E+01  0.00000000E+00
  4.00000000E+01  7.40000000E+01  0.00000000E+00
  4.00000000E+01  7.20000000E+01  0.00000000E+00
  4.00000000E+01  7.00000000E+01  0.00000000E+00
  4.00000000E+01  6.80000000E+01  0.00000000E+00
  4.00000000E+01  6.60000000E+01  0.00000000E+00
  4.00000000E+01  6.40000000E+01  0.00000000E+00
  4.00000000E+01  6.20000000E+01  0.00000000E+00
  4.00000000E+01  6.00000000E+01  0.00000000E+00
  4.00000000E+01  5.80000000E+01  0.00000000E+00
  4.00000000E+01  5.60000000E+01  0.00000000E+00
  4.00000000E+01  5.40000000E+01  0.00000000E+00
  4.00000000E+01  5.20000000E+01  0.00000000E+00
  4.00000000E+01  5.00000000E+01  0.00000000E+00
  4.00000000E+01  4.80000000E+01  0.00000000E+00
  4.00000000E+01  4.60000000E+01  0.00000000E+00
  4.00000000E+01  4.40000000E+01  0.00000000E+00
  4.00000000E+01  4.20000000E+01  0.00000000E+00
  4.00000000E+01  4.00000000E+01  0.00000000E+00
  4.00000000E+01  3.80000000E+01  0.00000000E+00
  4.00000000E+01  3.60000000E+01  0.00000000E+00
  4.00000000E+01  3.40000000E+01  0.00000000E+00
  4.00000000E+01  3.20000000E+01  0.00000000E+00
  4.00000000E+01  3.00000000E+01  0.00000000E+00
  4.00000000E+01  2.80000000E+01  0.00000000E+00
  4.00000000E+01  2.60000000E+01  0.00000000E+00
  4.00000000E+01  2.40000000E+01  0.00000000E+00
  4.00000000E+01  2.20000000E+01  0.00000000E+00
  4.00000000E+01  2.00000000E+01  0.00000000E+00
  4.00000000E+01  1.80000000E+01  0.00000000E+00
  4.00000000E+01  1.60000000E+01  0.00000000E+00
  4.00000000E+01  1.40000000E+01  0.00000000E+00
  4.00000000E+01  1.20000000E+01  0.00000000E+00
  4.00000000E+01  1.00000000E+01  0.00000000E+00
  4.00000000E+01  8.00000000E+00  0.00000000E+00
  4.00000000E+01  6.00000000E+00  0.00000000E+00
  4.00000000E+01  4.00000000E+00  0.00000000E+00
  4.00000000E+01  2.00000000E+00  0.00000000E+00
  4.00000000E+01 -3.33066907E-14  0.00000000E+00
  5.00000000E+01  1.00000000E+02  0.00000000E+00
  5.00000000E+01  9.80000000E+01  0.00000000E+00
  5.00000000E+01  9.60000000E+01  0.00000000E+00
  5.00000000E+01  9.40000000E+01  0.00000000E+00
  5.00000000E+01  9.20000000E+01  0.00000000E+00
  5.00000000E+01  9.00000000E+01  0.00000000E+00
  5.00000000E+01  8.80000000E+01  0.00000000E+00
  5.00000000E+01  8.60000000E+01  0.00000000E+00
  5.00000000E+01  8.40000000E+01  0.00000000E+00
  5.00000000E+01  8.20000000E+01  0.00000000E+00
  5.00000000E+01  8.00000000E+01  0.00000000E+00
  5.00000000E+01  7.80000000E+01  0.00000000E+00
  5.00000000E+01  7.60000000E+01  0.00000000E+00
  5.00000000E+01  7.40000000E+01  0.00000000E+00
  5.00000000E+01  7.20000000E+01  0.00000000E+00
  5.00000000E+01  7.00000000E+01  0.00000000E+00
  5.00000000E+01  6.80000000E+01  0.00000000E+00
  5.00000000E+01  6.60000000E+01  0.00000000E+00
  5.00000000E+01  6.40000000E+01  0.00000000E+00
  5.00000000E+01  6.20000000E+01  0.00000000E+00
  5.00000000E+01  6.00000000E+01  0.00000000E+00
  5.00000000E+01  5.80000000E+01  0.00000000E+00
  5.00000000E+01  5.60000000E+01  0.00000000E+00
  5.00000000E+01  5.40000000E+01  0.00000000E+00
  5.00000000E+01  5.20000000E+01  0.00000000E+00
  5.00000000E+01  5.00000000E+01  0.00000000E+00
  5.00000000E+01  4.80000000E+01  0.00000000E+00
  5.00000000E+01  4.60000000E+01  0.00000000E+00
  5.00000000E+01  4.40000000E+01  0.00000000E+00
  5.00000000E+01  4.20000000E+01  0.00000000E+00
  5.00000000E+01  4.00000000E+01  0.00000000E+00
  5.00000000E+01  3.80000000E+01  0.00000000E+00
  5.00000000E+01  3.60000000E+01  0.00000000E+00
  5.00000000E+01  3.40000000E+01  0.00000000E+00
  5.00000000E+01  3.20000000E+01  0.00000000E+00
  5.00000000E+01  3.00000000E+01  0.00000000E+00
  5.00000000E+01  2.80000000E+01  0.00000000E+00
  5.00000000E+01  2.60000000E+01  0.00000000E+00
  5.00000000E+01  2.40000000E+01  0.00000000E+00
  5.00000000E+01  2.20000000E+01  0.00000000E+00
  5.00000000E+01  2.00000000E+01  0.00000000E+00
  5.00000000E+01  1.80000000E+01  0.00000000E+00
  5.00000000E+01  1.60000000E+01  0.00000000E+00
  5.00000000E+01  1.40000000E+01  0.00000000E+00
  5.00000000E+01  1.20000000E+01  0.00000000E+00
  5.00000000E+01  1.00000000E+01  0.00000000E+00
  5.00000000E+01  8.00000000E+00  0.00000000E+00
  5.00000000E+01  6.00000000E+00  0.00000000E+00
  5.00000000E+01  4.00000000E+00  0.00000000E+00
  5.00000000E+01  2.00000000E+00  0.00000000E+00
  5.00000000E+01 -3.33066907E-14  0.00000000E+00
  6.00000000E+01  1.00000000E+02  0.00000000E+00
  6.00000000E+01  9.80000000E+01  0.00000000E+00
  6.00000000E+01  9.60000000E+01  0.00000000E+00
  6.00000000E+01  9.40000000E+01  0.00000000E+00
  6.00000000E+01  9.20000000E+01  0.00000000E+00
  6.00000000E+01  9.00000000E+01  0.00000000E+00
  6.00000000E+01  8.80000000E+01  0.00000000E+00
  6.00000000E+01  8.60000000E+01  0.00000000E+00
  6.00000000E+01  8.40000000E+01  0.00000000E+00
  6.00000000E+01  8.20000000E+01  0.00000000E+00
  6.00000000E+01  8.00000000E+01  0.00000000E+00
  6.00000000E+01  7.80000000E+01  0.00000000E+00
  6.00000000E+01  7.60000000E+01  0.00000000E+00
  6.00000000E+01  7.40000000E+01  0.00000000E+00
  6.00000000E+01  7.20000000E+01  0.00000000E+00
  6.00000000E+01  7.00000000E+01  0.00000000E+00
  6.00000000E+01  6.80000000E+01  0.00000000E+00
  6.00000000E+01  6.60000000E+01  0.00000000E+00
  6.00000000E+01  6.40000000E+01  0.00000000E+00
  6.00000000E+01  6.20000000E+01  0.00000000E+00
  6.00000000E+01  6.00000000E+01  0.00000000E+00
  6.00000000E+01  5.80000000E+01  0.00000000E+00
  6.00000000E+01  5.60000000E+01  0.00000000E+00
  6.00000000E+01  5.40000000E+01  0.00000000E+00
  6.00000000E+01  5.20000000E+01  0.00000000E+00
  6.00000000E+01  5.00000000E+01  0.00000000E+00
  6.00000000E+01  4.80000000E+01  0.00000000E+00
  6.00000000E+01  4.60000000E+01  0.00000000E+00
  6.00000000E+01  4.40000000E+01  0.00000000E+00
  6.00000000E+01  4.20000000E+01  0.00000000E+00
  6.00000000E+01  4.00000000E+01  0.00000000E+00
  6.00000000E+01  3.80000000E+01  0.00000000E+00
  6.00000000E+01  3.60000000E+01  0.00000000E+00
  6.00000000E+01  3.40000000E+01  0.00000000E+00
  6.00000000E+01  3.20000000E+01  0.00000000E+00
  6.00000000E+01  3.00000000E+01  0.00000000E+00
  6.00000000E+01  2.80000000E+01  0.00000000E+00
  6.00000000E+01  2.60000000E+01  0.00000000E+00
  6.00000000E+01  2.40000000E+01  0.00000000E+00
  6.00000000E+01  2.20000000E+01  0.00000000E+00
  6.00000000E+01  2.00000000E+01  0.00000000E+00
  6.00000000E+01  1.80000000E+01  0.00000000E+00
  6.00000000E+01  1.60000000E+01  0.00000000E+00
  6.00000000E+01  1.40000000E+01  0.00000000E+00
  6.00000000E+01  1.20000000E+01  0.00000000E+00
  6.00000000E+01  1.00000000E+01  0.00000000E+00
  6.00000000E+01  8.00000000E+00  0.00000000E+00
  6.00000000E+01  6.00000000E+00  0.00000000E+00
  6.00000000E+01  4.00000000E+00  0.00000000E+00
  6.00000000E+01  2.00000000E+00  0.00000000E+00
  6.00000000E+01 -3.33066907E-14  0.00000000E+00
  7.00000000E+01  1.00000000E+02  0.00000000E+00
  7.00000000E+01  9.80000000E+01  0.00000000E+00
  7.00000000E+01  9.60000000E+01  0.00000000E+00
  7.00000000E+01  9.40000000E+01  0.00000000E+00
  7.00000000E+01  9.20000000E+01  0.00000000E+00
  7.00000000E+01  9.00000000E+01  0.00000000E+00
  7.00000000E+01  8.80000000E+01  0.00000000E+00
  7.00000000E+01  8.60000000E+01  0.00000000E+00
  7.00000000E+01  8.40000000E+01  0.00000000E+00
  7.00000000E+01  8.20000000E+01  0.00000000E+00
  7.00000000E+01  8.00000000E+01  0.00000000E+00
  7.00000000E+01  7.80000000E+01  0.00000000E+00
  7.00000000E+01  7.60000000E+01  0.00000000E+00
  7.00000000E+01  7.40000000E+01  0.00000000E+00
  7.00000000E+01  7.20000000E+01  0.00000000E+00
  7.00000000E+01  7.00000000E+01  0.00000000E+00
  7.00000000E+01  6.80000000E+01  0.00000000E+00
  7.00000000E+01  6.60000000E+01  0.00000000E+00
  7.00000000E+01  6.40000000E+01  0.00000000E+00
  7.00000000E+01  6.20000000E+01  0.00000000E+00
  7.00000000E+01  6.00000000E+01  0.00000000E+00
  7.00000000E+01  5.80000000E+01  0.00000000E+00
  7.00000000E+01  5.60000000E+01  0.00000000E+00
  7.00000000E+01  5.40000000E+01  0.00000000E+00
  7.00000000E+01  5.20000000E+01  0.00000000E+00
  7.00000000E+01  5.00000000E+01  0.00000000E+00
  7.00000000E+01  4.80000000E+01  0.00000000E+00
  7.00000000E+01  4.60000000E+01  0.00000000E+00
  7.00000000E+01  4.40000000E+01  0.00000000E+00
  7.00000000E+01  4.20000000E+01  0.00000000E+00
  7.00000000E+01  4.00000000E+01  0.00000000E+00
  7.00000000E+01  3.80000000E+01  0.00000000E+00
  7.00000000E+01  3.60000000E+01  0.00000000E+00
  7.00000000E+01  3.40000000E+01  0.00000000E+00
  7.00000000E+01  3.20000000E+01  0.00000000E+00
  7.00000000E+01  3.00000000E+01  0.00000000E+00
  7.00000000E+01  2.80000000E+01  0.00000000E+00
  7.00000000E+01  2.60000000E+01  0.00000000E+00
  7.00000000E+01  2.40000000E+01  0.00000000E+00
  7.00000000E+01  2.20000000E+01  0.00000000E+00
  7.00000000E+01  2.00000000E+01  0.00000000E+00
  7.00000000E+01  1.80000000E+01  0.00000000E+00
  7.00000000E+01  1.60000000E+01  0.00000000E+00
  7.00000000E+01  1.40000000E+01  0.00000000E+00
  7.00000000E+01  1.20000000E+01  0.00000000E+00
  7.00000000E+01  1.00000000E+01  0.00000000E+00
  7.00000000E+01  8.00000000E+00  0.00000000E+00
  7.00000000E+01  6.00000000E+00  0.00000000E+00
  7.00000000E+01  4.00000000E+00  0.00000000E+00
  7.00000000E+01  2.00000000E+00  0.00000000E+00
  7.00000000E+01 -3.33066907E-14  0.00000000E+00
  8.00000000E+01  1.00000000E+02  0.00000000E+00
  8.00000000E+01  9.80000000E+01  0.00000000E+00
  8.00000000E+01  9.60000000E+01  0.00000000E+00
  8.00000000E+01  9.40000000E+01  0.00000000E+00
  8.00000000E+01  9.20000000E+01  0.00000000E+00
  8.00000000E+01  9.00000000E+01  0.00000000E+00
  8.00000000E+01  8.80000000E+01  0.00000000E+00
  8.00000000E+01  8.60000000E+01  0.00000000E+00
  8.00000000E+01  8.40000000E+01  0.00000000E+00
  8.00000000E+01  8.20000000E+01  0.00000000E+00
  8.00000000E+01  8.00000000E+01  0.00000000E+00
  8.00000000E+01  7.80000000E+01  0.00000000E+00
  8.00000000E+01  7.60000000E+01  0.00000000E+00
  8.00000000E+01  7.40000000E+01  0.00000000E+00
  8.00000000E+01  7.20000000E+01  0.00000000E+00
  8.00000000E+01  7.00000000E+01  0.00000000E+00
  8.00000000E+01  6.80000000E+01  0.00000000E+00
  8.00000000E+01  6.60000000E+01  0.00000000E+00
  8.00000000E+01  6.40000000E+01  0.00000000E+00
  8.00000000E+01  6.20000000E+01  0.00000000E+00
  8.00000000E+01  6.00000000E+01  0.00000000E+00
  8.00000000E+01  5.80000000E+01  0.00000000E+00
  8.00000000E+01  5.60000000E+01  0.00000000E+00
  8.00000000E+01  5.40000000E+01  0.00000000E+00
  8.00000000E+01  5.20000000E+01  0.00000000E+00
  8.00000000E+01  5.00000000E+01  0.00000000E+00
  8.00000000E+01  4.80000000E+01  0.00000000E+00
  8.00000000E+01  4.60000000E+01  0.00000000E+00
  8.00000000E+01  4.40000000E+01  0.00000000E+00
  8.00000000E+01  4.20000000E+01  0.00000000E+00
  8.00000000E+01  4.00000000E+01  0.00000000E+00
  8.00000000E+01  3.80000000E+01  0.00000000E+00
  8.00000000E+01  3.60000000E+01  0.00000000E+00
  8.00000000E+01  3.40000000E+01  0.00000000E+00
  8.00000000E+01  3.20000000E+01  0.00000000E+00
  8.00000000E+01  3.00000000E+01  0.00000000E+00
  8.00000000E+01  2.80000000E+01  0.00000000E+00
  8.00000000E+01  2.60000000E+01  0.00000000E+00
  8.00000000E+01  2.40000000E+01  0.00000000E+00
  8.00000000E+01  2.20000000E+01  0.00000000E+00
  8.00000000E+01  2.00000000E+01  0.00000000E+00
  8.00000000E+01  1.80000000E+01  0.00000000E+00
  8.00000000E+01  1.60000000E+01  0.00000000E+00
  8.00000000E+01  1.40000000E+01  0.00000000E+00
  8.00000000E+01  1.20000000E+01  0.00000000E+00
  8.00000000E+01  1.00000000E+01  0.00000000E+00
  8.00000000E+01  8.00000000E+00  0.00000000E+00
  8.00000000E+01  6.00000000E+00  0.00000000E+00
  8.00000000E+01  4.00000000E+00  0.00000000E+00
  8.00000000E+01  2.00000000E+00  0.00000000E+00
  8.00000000E+01 -3.33066907E-14  0.00000000E+00
  9.00000000E+01  1.00000000E+02  0.00000000E+00
  9.00000000E+01  9.80000000E+01  0.00000000E+00
  9.00000000E+01  9.60000000E+01  0.00000000E+00
  9.00000000E+01  9.40000000E+01  0.00000000E+00
  9.00000000E+01  9.20000000E+01  0.00000000E+00
  9.00000000E+01  9.00000000E+01  0.00000000E+00
  9.00000000E+01  8.80000000E+01  0.00000000E+00
  9.00000000E+01  8.60000000E+01  0.00000000E+00
  9.00000000E+01  8.40000000E+01  0.00000000E+00
  9.00000000E+01  8.20000000E+01  0.00000000E+00
  9.00000000E+01  8.00000000E+01  0.00000000E+00
  9.00000000E+01  7.80000000E+01  0.00000000E+00
  9.00000000E+01  7.60000000E+01  0.00000000E+00
  9.00000000E+01  7.40000000E+01  0.00000000E+00
  9.00000000E+01  7.20000000E+01  0.00000000E+00
  9.00000000E+01  7.00000000E+01  0.00000000E+00
  9.00000000E+01  6.80000000E+01  0.00000000E+00
  9.00000000E+01  6.60000000E+01  0.00000000E+00
  9.00000000E+01  6.40000000E+01  0.00000000E+00
  9.00000000E+01  6.20000000E+01  0.00000000E+00
  9.00000000E+01  6.00000000E+01  0.00000000E+00
  9.00000000E+01  5.80000000E+01  0.00000000E+00
  9.00000000E+01  5.60000000E+01  0.00000000E+00
  9.00000000E+01  5.40000000E+01  0.00000000E+00
  9.00000000E+01  5.20000000E+01  0.00000000E+00
  9.00000000E+01  5.00000000E+01  0.00000000E+00
  9.00000000E+01  4.80000000E+01  0.00000000E+00
  9.00000000E+01  4.60000000E+01  0.00000000E+00
  9.00000000E+01  4.40000000E+01  0.00000000E+00
  9.00000000E+01  4.20000000E+01  0.00000000E+00
  9.00000000E+01  4.00000000E+01  0.00000000E+00
  9.00000000E+01  3.80000000E+01  0.00000000E+00
  9.00000000E+01  3.60000000E+01  0.00000000E+00
  9.00000000E+01  3.40000000E+01  0.00000000E+00
  9.00000000E+01  3.20000000E+01  0.00000000E+00
  9.00000000E+01  3.00000000E+01  0.00000000E+00
  9.00000000E+01  2.80000000E+01  0.00000000E+00
  9.00000000E+01  2.60000000E+01  0.00000000E+00
  9.00000000E+01  2.40000000E+01  0.00000000E+00
  9.00000000E+01  2.20000000E+01  0.00000000E+00
  9.00000000E+01  2.00000000E+01  0.00000000E+00
  9.00000000E+01  1.80000000E+01  0.00000000E+00
  9.00000000E+01  1.60000000E+01  0.00000000E+00
  9.00000000E+01  1.40000000E+01  0.00000000E+00
  9.00000000E+01  1.20000000E+01  0.00000000E+00
  9.00000000E+01  1.00000000E+01  0.00000000E+00
  9.00000000E+01  8.00000000E+00  0.00000000E+00
  9.00000000E+01  6.00000000E+00  0.00000000E+00
  9.00000000E+01  4.00000000E+00  0.00000000E+00
  9.00000000E+01  2.00000000E+00  0.00000000E+00
  9.00000000E+01 -3.33066907E-14  0.00000000E+00
  1.00000000E+02  1.00000000E+02  0.00000000E+00
  1.00000000E+02  9.80000000E+01  0.00000000E+00
  1.00000000E+02  9.60000000E+01  0.00000000E+00
  1.00000000E+02  9.40000000E+01  0.00000000E+00
  1.00000000E+02  9.20000000E+01  0.00000000E+00
  1.00000000E+02  9.00000000E+01  0.00000000E+00
  1.00000000E+02  8.80000000E+01  0.00000000E+00
  1.00000000E+02  8.60000000E+01  0.00000000E+00
  1.00000000E+02  8.40000000E+01  0.00000000E+00
  1.00000000E+02  8.20000000E+01  0.00000000E+00
  1.00000000E+02  8.00000000E+01  0.00000000E+00
  1.00000000E+02  7.80000000E+01  0.00000000E+00
  1.00000000E+02  7.60000000E+01  0.00000000E+00
  1.00000000E+02  7.40000000E+01  0.00000000E+00
  1.00000000E+02  7.20000000E+01  0.00000000E+00
  1.00000000E+02  7.00000000E+01  0.00000000E+00
  1.00000000E+02  6.80000000E+01  0.00000000E+00
  1.00000000E+02  6.60000000E+01  0.00000000E+00
  1.00000000E+02  6.40000000E+01  0.00000000E+00
  1.00000000E+02  6.20000000E+01  0.00000000E+00
  1.00000000E+02  6.00000000E+01  0.00000000E+00
  1.00000000E+02  5.80000000E+01  0.00000000E+00
  1.00000000E+02  5.60000000E+01  0.00000000E+00
  1.00000000E+02  5.40000000E+01  0.00000000E+00
  1.00000000E+02  5.20000000E+01  0.00000000E+00
  1.00000000E+02  5.00000000E+01  0.00000000E+00
  1.00000000E+02  4.80000000E+01  0.00000000E+00
  1.00000000E+02  4.60000000E+01  0.00000000E+00
  1.00000000E+02  4.40000000E+01  0.00000000E+00
  1.00000000E+02  4.20000000E+01  0.00000000E+00
  1.00000000E+02  4.00000000E+01  0.00000000E+00
  1.00000000E+02  3.80000000E+01  0.00000000E+00
  1.00000000E+02  3.60000000E+01  0.00000000E+00
  1.00000000E+02  3.40000000E+01  0.00000000E+00
  1.00000000E+02  3.20000000E+01  0.00000000E+00
  1.00000000E+02  3.00000000E+01  0.00000000E+00
  1.00000000E+02  2.80000000E+01  0.00000000E+00
  1.00000000E+02  2.60000000E+01  0.00000000E+00
  1.00000000E+02  2.40000000E+01  0.00000000E+00
  1.00000000E+02  2.20000000E+01  0.00000000E+00
  1.00000000E+02  2.00000000E+01  0.00000000E+00
  1.00000000E+02  1.80000000E+01  0.00000000E+00
  1.00000000E+02  1.60000000E+01  0.00000000E+00
  1.00000000E+02  1.40000000E+01  0.00000000E+00
  1.00000000E+02  1.20000000E+01  0.00000000E+00
  1.00000000E+02  1.00000000E+01  0.00000000E+00
  1.00000000E+02  8.00000000E+00  0.00000000E+00
  1.00000000E+02  6.00000000E+00  0.00000000E+00
  1.00000000E+02  4.00000000E+00  0.00000000E+00
  1.00000000E+02  2.00000000E+00  0.00000000E+00
  1.00000000E+02 -3.33066907E-14  0.00000000E+00
  1.10000000E+02  1.00000000E+02  0.00000000E+00
  1.10000000E+02  9.80000000E+01  0.00000000E+00
  1.10000000E+02  9.60000000E+01  0.00000000E+00
  1.10000000E+02  9.40000000E+01  0.00000000E+00
  1.10000000E+02  9.20000000E+01  0.00000000E+00
  1.10000000E+02  9.00000000E+01  0.00000000E+00
  1.10000000E+02  8.80000000E+01  0.00000000E+00
  1.10000000E+02  8.60000000E+01  0.00000000E+00
  1.10000000E+02  8.40000000E+01  0.00000000E+00
  1.10000000E+02  8.20000000E+01  0.00000000E+00
  1.10000000E+02  8.00000000E+01  0.00000000E+00
  1.10000000E+02  7.80000000E+01  0.00000000E+00
  1.10000000E+02  7.60000000E+01  0.00000000E+00
  1.10000000E+02  7.40000000E+01  0.00000000E+00
  1.10000000E+02  7.20000000E+01  0.00000000E+00
  1.10000000E+02  7.00000000E+01  0.00000000E+00
  1.10000000E+02  6.80000000E+01  0.00000000E+00
  1.10000000E+02  6.60000000E+01  0.00000000E+00
  1.10000000E+02  6.40000000E+01  0.00000000E+00
  1.10000000E+02  6.20000000E+01  0.00000000E+00
  1.10000000E+02  6.00000000E+01  0.00000000E+00
  1.10000000E+02  5.80000000E+01  0.00000000E+00
  1.10000000E+02  5.60000000E+01  0.00000000E+00
  1.10000000E+02  5.40000000E+01  0.00000000E+00
  1.10000000E+02  5.20000000E+01  0.00000000E+00
  1.10000000E+02  5.00000000E+01  0.00000000E+00
  1.10000000E+02  4.80000000E+01  0.00000000E+00
  1.10000000E+02  4.60000000E+01  0.00000000E+00
  1.10000000E+02  4.40000000E+01  0.00000000E+00
  1.10000000E+02  4.20000000E+01  0.00000000E+00
  1.10000000E+02  4.00000000E+01  0.00000000E+00
  1.10000000E+02  3.80000000E+01  0.00000000E+00
  1.10000000E+02  3.60000000E+01  0.00000000E+00
  1.10000000E+02  3.40000000E+01  0.00000000E+00
  1.10000000E+02  3.20000000E+01  0.00000000E+00
  1.10000000E+02  3.00000000E+01  0.00000000E+00
  1.10000000E+02  2.80000000E+01  0.00000000E+00
  1.10000000E+02  2.60000000E+01  0.00000000E+00
  1.10000000E+02  2.40000000E+01  0.00000000E+00
  1.10000000E+02  2.20000000E+01  0.00000000E+00
  1.10000000E+02  2.00000000E+01  0.00000000E+00
  1.10000000E+02  1.80000000E+01  0.00000000E+00
  1.10000000E+02  1.60000000E+01  0.00000000E+00
  1.10000000E+02  1.40000000E+01  0.00000000E+00
  1.10000000E+02  1.20000000E+01  0.00000000E+00
  1.10000000E+02  1.00000000E+01  0.00000000E+00
  1.10000000E+02  8.00000000E+00  0.00000000E+00
  1.10000000E+02  6.00000000E+00  0.00000000E+00
  1.10000000E+02  4.00000000E+00  0.00000000E+00
  1.10000000E+02  2.00000000E+00  0.00000000E+00
  1.10000000E+02 -3.33066907E-14  0.00000000E+00
  1.20000000E+02  1.00000000E+02  0.00000000E+00
  1.20000000E+02  9.80000000E+01  0.00000000E+00
  1.20000000E+02  9.60000000E+01  0.00000000E+00
  1.20000000E+02  9.40000000E+01  0.00000000E+00
  1.20000000E+02  9.20000000E+01  0.00000000E+00
  1.20000000E+02  9.00000000E+01  0.00000000E+00
  1.20000000E+02  8.80000000E+01  0.00000000E+00
  1.20000000E+02  8.60000000E+01  0.00000000E+00
  1.20000000E+02  8.40000000E+01  0.00000000E+00
  1.20000000E+02  8.20000000E+01  0.00000000E+00
  1.20000000E+02  8.00000000E+01  0.00000000E+00
  1.20000000E+02  7.80000000E+01  0.00000000E+00
  1.20000000E+02  7.60000000E+01  0.00000000E+00
  1.20000000E+02  7.40000000E+01  0.00000000E+00
  1.20000000E+02  7.20000000E+01  0.00000000E+00
  1.20000000E+02  7.00000000E+01  0.00000000E+00
  1.20000000E+02  6.80000000E+01  0.00000000E+00
  1.20000000E+02  6.60000000E+01  0.00000000E+00
  1.20000000E+02  6.40000000E+01  0.00000000E+00
  1.20000000E+02  6.20000000E+01  0.00000000E+00
  1.20000000E+02  6.00000000E+01  0.00000000E+00
  1.20000000E+02  5.80000000E+01  0.00000000E+00
  1.20000000E+02  5.60000000E+01  0.00000000E+00
  1.20000000E+02  5.40000000E+01  0.00000000E+00
  1.20000000E+02  5.20000000E+01  0.00000000E+00
  1.20000000E+02  5.00000000E+01  0.00000000E+00
  1.20000000E+02  4.80000000E+01  0.00000000E+00
  1.20000000E+02  4.60000000E+01  0.00000000E+00
  1.20000000E+02  4.40000000E+01  0.00000000E+00
  1.20000000E+02  4.20000000E+01  0.00000000E+00
  1.20000000E+02  4.00000000E+01  0.00000000E+00
  1.20000000E+02  3.80000000E+01  0.00000000E+00
  1.20000000E+02  3.60000000E+01  0.00000000E+00
  1.20000000E+02  3.40000000E+01  0.00000000E+00
  1.20000000E+02  3.20000000E+01  0.00000000E+00
  1.20000000E+02  3.00000000E+01  0.00000000E+00
  1.20000000E+02  2.80000000E+01  0.00000000E+00
  1.20000000E+02  2.60000000E+01  0.00000000E+00
  1.20000000E+02  2.40000000E+01  0.00000000E+00
  1.20000000E+02  2.20000000E+01  0.00000000E+00
  1.20000000E+02  2.00000000E+01  0.00000000E+00
  1.20000000E+02  1.80000000E+01  0.00000000E+00
  1.20000000E+02  1.60000000E+01  0.00000000E+00
  1.20000000E+02  1.40000000E+01  0.00000000E+00
  1.20000000E+02  1.20000000E+01  0.00000000E+00
  1.20000000E+02  1.00000000E+01  0.00000000E+00
  1.20000000E+02  8.00000000E+00  0.00000000E+00
  1.20000000E+02  6.00000000E+00  0.00000000E+00
  1.20000000E+02  4.00000000E+00  0.00000000E+00
  1.20000000E+02  2.00000000E+00  0.00000000E+00
  1.20000000E+02 -3.33066907E-14  0.00000000E+00
  1.30000000E+02  1.00000000E+02  0.00000000E+00
  1.30000000E+02  9.80000000E+01  0.00000000E+00
  1.30000000E+02  9.60000000E+01  0.00000000E+00
  1.30000000E+02  9.40000000E+01  0.00000000E+00
  1.30000000E+02  9.20000000E+01  0.00000000E+00
  1.30000000E+02  9.00000000E+01  0.00000000E+00
  1.30000000E+02  8.80000000E+01  0.00000000E+00
  1.30000000E+02  8.60000000E+01  0.00000000E+00
  1.30000000E+02  8.40000000E+01  0.00000000E+00
  1.30000000E+02  8.20000000E+01  0.00000000E+00
  1.30000000E+02  8.00000000E+01  0.00000000E+00
  1.30000000E+02  7.80000000E+01  0.00000000E+00
  1.30000000E+02  7.60000000E+01  0.00000000E+00
  1.30000000E+02  7.40000000E+01  0.00000000E+00
  1.30000000E+02  7.20000000E+01  0.00000000E+00
  1.30000000E+02  7.00000000E+01  0.00000000E+00
  1.30000000E+02  6.80000000E+01  0.00000000E+00
  1.30000000E+02  6.60000000E+01  0.00000000E+00
  1.30000000E+02  6.40000000E+01  0.00000000E+00
  1.30000000E+02  6.20000000E+01  0.00000000E+00
  1.30000000E+02  6.00000000E+01  0.00000000E+00
  1.30000000E+02  5.80000000E+01  0.00000000E+00
  1.30000000E+02  5.60000000E+01  0.00000000E+00
  1.30000000E+02  5.40000000E+01  0.00000000E+00
  1.30000000E+02  5.20000000E+01  0.00000000E+00
  1.30000000E+02  5.00000000E+01  0.00000000E+00
  1.30000000E+02  4.80000000E+01  0.00000000E+00
  1.30000000E+02  4.60000000E+01  0.00000000E+00
  1.30000000E+02  4.40000000E+01  0.00000000E+00
  1.30000000E+02  4.20000000E+01  0.00000000E+00
  1.30000000E+02  4.00000000E+01  0.00000000E+00
  1.30000000E+02  3.80000000E+01  0.00000000E+00
  1.30000000E+02  3.60000000E+01  0.00000000E+00
  1.30000000E+02  3.40000000E+01  0.00000000E+00
  1.30000000E+02  3.20000000E+01  0.00000000E+00
  1.30000000E+02  3.00000000E+01  0.00000000E+00
  1.30000000E+02  2.80000000E+01  0.00000000E+00
  1.30000000E+02  2.60000000E+01  0.00000000E+00
  1.30000000E+02  2.40000000E+01  0.00000000E+00
  1.30000000E+02  2.20000000E+01  0.00000000E+00
  1.30000000E+02  2.00000000E+01  0.00000000E+00
  1.30000000E+02  1.80000000E+01  0.00000000E+00
  1.30000000E+02  1.60000000E+01  0.00000000E+00
  1.30000000E+02  1.40000000E+01  0.00000000E+00
  1.30000000E+02  1.20000000E+01  0.00000000E+00
  1.30000000E+02  1.00000000E+01  0.00000000E+00
  1.30000000E+02  8.00000000E+00  0.00000000E+00
  1.30000000E+02  6.00000000E+00  0.00000000E+00
  1.30000000E+02  4.00000000E+00  0.00000000E+00
  1.30000000E+02  2.00000000E+00  0.00000000E+00
  1.30000000E+02 -3.33066907E-14  0.00000000E+00
  1.40000000E+02  1.00000000E+02  0.00000000E+00
  1.40000000E+02  9.80000000E+01  0.00000000E+00
  1.40000000E+02  9.60000000E+01  0.00000000E+00
  1.40000000E+02  9.40000000E+01  0.00000000E+00
  1.40000000E+02  9.20000000E+01  0.00000000E+00
  1.40000000E+02  9.00000000E+01  0.00000000E+00
  1.40000000E+02  8.80000000E+01  0.00000000E+00
  1.40000000E+02  8.60000000E+01  0.00000000E+00
  1.40000000E+02  8.40000000E+01  0.00000000E+00
  1.40000000E+02  8.20000000E+01  0.00000000E+00
  1.40000000E+02  8.00000000E+01  0.00000000E+00
  1.40000000E+02  7.80000000E+01  0.00000000E+00
  1.40000000E+02  7.60000000E+01  0.00000000E+00
  1.40000000E+02  7.40000000E+01  0.00000000E+00
  1.40000000E+02  7.20000000E+01  0.00000000E+00
  1.40000000E+02  7.00000000E+01  0.00000000E+00
  1.40000000E+02  6.80000000E+01  0.00000000E+00
  1.40000000E+02  6.60000000E+01  0.00000000E+00
  1.40000000E+02  6.40000000E+01  0.00000000E+00
  1.40000000E+02  6.20000000E+01  0.00000000E+00
  1.40000000E+02  6.00000000E+01  0.00000000E+00
  1.40000000E+02  5.80000000E+01  0.00000000E+00
  1.40000000E+02  5.60000000E+01  0.00000000E+00
  1.40000000E+02  5.40000000E+01  0.00000000E+00
  1.40000000E+02  5.20000000E+01  0.00000000E+00
  1.40000000E+02  5.00000000E+01  0.00000000E+00
  1.40000000E+02  4.80000000E+01  0.00000000E+00
  1.40000000E+02  4.60000000E+01  0.00000000E+00
  1.40000000E+02  4.40000000E+01  0.00000000E+00
  1.40000000E+02  4.20000000E+01  0.00000000E+00
  1.40000000E+02  4.00000000E+01  0.00000000E+00
  1.40000000E+02  3.80000000E+01  0.00000000E+00
  1.40000000E+02  3.60000000E+01  0.00000000E+00
  1.40000000E+02  3.40000000E+01  0.00000000E+00
  1.40000000E+02  3.20000000E+01  0.00000000E+00
  1.40000000E+02  3.00000000E+01  0.00000000E+00
  1.40000000E+02  2.80000000E+01  0.00000000E+00
  1.40000000E+02  2.60000000E+01  0.00000000E+00
  1.40000000E+02  2.40000000E+01  0.00000000E+00
  1.40000000E+02  2.20000000E+01  0.00000000E+00
  1.40000000E+02  2.00000000E+01  0.00000000E+00
  1.40000000E+02  1.80000000E+01  0.00000000E+00
  1.40000000E+02  1.60000000E+01  0.00000000E+00
  1.40000000E+02  1.40000000E+01  0.00000000E+00
  1.40000000E+02  1.20000000E+01  0.00000000E+00
  1.40000000E+02  1.00000000E+01  0.00000000E+00
  1.40000000E+02  8.00000000E+00  0.00000000E+00
  1.40000000E+02  6.00000000E+00  0.00000000E+00
  1.40000000E+02  4.00000000E+00  0.00000000E+00
  1.40000000E+02  2.00000000E+00  0.00000000E+00
  1.40000000E+02 -3.33066907E-14  0.00000000E+00
  1.50000000E+02  1.00000000E+02  0.00000000E+00
  1.50000000E+02  9.80000000E+01  0.00000000E+00
  1.50000000E+02  9.60000000E+01  0.00000000E+00
  1.50000000E+02  9.40000000E+01  0.00000000E+00
  1.50000000E+02  9.20000000E+01  0.00000000E+00
  1.50000000E+02  9.00000000E+01  0.00000000E+00
  1.50000000E+02  8.80000000E+01  0.00000000E+00
  1.50000000E+02  8.60000000E+01  0.00000000E+00
  1.50000000E+02  8.40000000E+01  0.00000000E+00
  1.50000000E+02  8.20000000E+01  0.00000000E+00
  1.50000000E+02  8.00000000E+01  0.00000000E+00
  1.50000000E+02  7.80000000E+01  0.00000000E+00
  1.50000000E+02  7.60000000E+01  0.00000000E+00
  1.50000000E+02  7.40000000E+01  0.00000000E+00
  1.50000000E+02  7.20000000E+01  0.00000000E+00
  1.50000000E+02  7.00000000E+01  0.00000000E+00
  1.50000000E+02  6.80000000E+01  0.00000000E+00
  1.50000000E+02  6.60000000E+01  0.00000000E+00
  1.50000000E+02  6.40000000E+01  0.00000000E+00
  1.50000000E+02  6.20000000E+01  0.00000000E+00
  1.50000000E+02  6.00000000E+01  0.00000000E+00
  1.50000000E+02  5.80000000E+01  0.00000000E+00
  1.50000000E+02  5.60000000E+01  0.00000000E+00
  1.50000000E+02  5.40000000E+01  0.00000000E+00
  1.50000000E+02  5.20000000E+01  0.00000000E+00
  1.50000000E+02  5.00000000E+01  0.00000000E+00
  1.50000000E+02  4.80000000E+01  0.00000000E+00
  1.50000000E+02  4.60000000E+01  0.00000000E+00
  1.50000000E+02  4.40000000E+01  0.00000000E+00
  1.50000000E+02  4.20000000E+01  0.00000000E+00
  1.50000000E+02  4.00000000E+01  0.00000000E+00
  1.50000000E+02  3.80000000E+01  0.00000000E+00
  1.50000000E+02  3.60000000E+01  0.00000000E+00
  1.50000000E+02  3.40000000E+01  0.00000000E+00
  1.50000000E+02  3.20000000E+01  0.00000000E+00
  1.50000000E+02  3.00000000E+01  0.00000000E+00
  1.50000000E+02  2.80000000E+01  0.00000000E+00
  1.50000000E+02  2.60000000E+01  0.00000000E+00
  1.50000000E+02  2.40000000E+01  0.00000000E+00
  1.50000000E+02  2.20000000E+01  0.00000000E+00
  1.50000000E+02  2.00000000E+01  0.00000000E+00
  1.50000000E+02  1.80000000E+01  0.00000000E+00
  1.50000000E+02  1.60000000E+01  0.00000000E+00
  1.50000000E+02  1.40000000E+01  0.00000000E+00
  1.50000000E+02  1.20000000E+01  0.00000000E+00
  1.50000000E+02  1.00000000E+01  0.00000000E+00
  1.50000000E+02  8.00000000E+00  0.00000000E+00
  1.50000000E+02  6.00000000E+00  0.00000000E+00
  1.50000000E+02  4.00000000E+00  0.00000000E+00
  1.50000000E+02  2.00000000E+00  0.00000000E+00
  1.50000000E+02 -3.33066907E-14  0.00000000E+00
  1.60000000E+02  1.00000000E+02  0.00000000E+00
  1.60000000E+02  9.80000000E+01  0.00000000E+00
  1.60000000E+02  9.60000000E+01  0.00000000E+00
  1.60000000E+02  9.40000000E+01  0.00000000E+00
  1.60000000E+02  9.20000000E+01  0.00000000E+00
  1.60000000E+02  9.00000000E+01  0.00000000E+00
  1.60000000E+02  8.80000000E+01  0.00000000E+00
  1.60000000E+02  8.60000000E+01  0.00000000E+00
  1.60000000E+02  8.40000000E+01  0.00000000E+00
  1.60000000E+02  8.20000000E+01  0.00000000E+00
  1.60000000E+02  8.00000000E+01  0.00000000E+00
  1.60000000E+02  7.80000000E+01  0.00000000E+00
  1.60000000E+02  7.60000000E+01  0.00000000E+00
  1.60000000E+02  7.40000000E+01  0.00000000E+00
  1.60000000E+02  7.20000000E+01  0.00000000E+00
  1.60000000E+02  7.00000000E+01  0.00000000E+00
  1.60000000E+02  6.80000000E+01  0.00000000E+00
  1.60000000E+02  6.60000000E+01  0.00000000E+00
  1.60000000E+02  6.40000000E+01  0.00000000E+00
  1.60000000E+02  6.20000000E+01  0.00000000E+00
  1.60000000E+02  6.00000000E+01  0.00000000E+00
  1.60000000E+02  5.80000000E+01  0.00000000E+00
  1.60000000E+02  5.60000000E+01  0.00000000E+00
  1.60000000E+02  5.40000000E+01  0.00000000E+00
  1.60000000E+02  5.20000000E+01  0.00000000E+00
  1.60000000E+02  5.00000000E+01  0.00000000E+00
  1.60000000E+02  4.80000000E+01  0.00000000E+00
  1.60000000E+02  4.60000000E+01  0.00000000E+00
  1.60000000E+02  4.40000000E+01  0.00000000E+00
  1.60000000E+02  4.20000000E+01  0.00000000E+00
  1.60000000E+02  4.00000000E+01  0.00000000E+00
  1.60000000E+02  3.80000000E+01  0.00000000E+00
  1.60000000E+02  3.60000000E+01  0.00000000E+00
  1.60000000E+02  3.40000000E+01  0.00000000E+00
  1.60000000E+02  3.20000000E+01  0.00000000E+00
  1.60000000E+02  3.00000000E+01  0.00000000E+00
  1.60000000E+02  2.80000000E+01  0.00000000E+00
  1.60000000E+02  2.60000000E+01  0.00000000E+00
  1.60000000E+02  2.40000000E+01  0.00000000E+00
  1.60000000E+02  2.20000000E+01  0.00000000E+00
  1.60000000E+02  2.00000000E+01  0.00000000E+00
  1.60000000E+02  1.80000000E+01  0.00000000E+00
  1.60000000E+02  1.60000000E+01  0.00000000E+00
  1.60000000E+02  1.40000000E+01  0.00000000E+00
  1.60000000E+02  1.20000000E+01  0.00000000E+00
  1.60000000E+02  1.00000000E+01  0.00000000E+00
  1.60000000E+02  8.00000000E+00  0.00000000E+00
  1.60000000E+02  6.00000000E+00  0.00000000E+00
  1.60000000E+02  4.00000000E+00  0.00000000E+00
  1.60000000E+02  2.00000000E+00  0.00000000E+00
  1.60000000E+02 -3.33066907E-14  0.00000000E+00
  1.70000000E+02  1.00000000E+02  0.00000000E+00
  1.70000000E+02  9.80000000E+01  0.00000000E+00
  1.70000000E+02  9.60000000E+01  0.00000000E+00
  1.70000000E+02  9.40000000E+01  0.00000000E+00
  1.70000000E+02  9.20000000E+01  0.00000000E+00
  1.70000000E+02  9.00000000E+01  0.00000000E+00
  1.70000000E+02  8.80000000E+01  0.00000000E+00
  1.70000000E+02  8.60000000E+01  0.00000000E+00
  1.70000000E+02  8.40000000E+01  0.00000000E+00
  1.70000000E+02  8.20000000E+01  0.00000000E+00
  1.70000000E+02  8.00000000E+01  0.00000000E+00
  1.70000000E+02  7.80000000E+01  0.00000000E+00
  1.70000000E+02  7.60000000E+01  0.00000000E+00
  1.70000000E+02  7.40000000E+01  0.00000000E+00
  1.70000000E+02  7.20000000E+01  0.00000000E+00
  1.70000000E+02  7.00000000E+01  0.00000000E+00
  1.70000000E+02  6.80000000E+01  0.00000000E+00
  1.70000000E+02  6.60000000E+01  0.00000000E+00
  1.70000000E+02  6.40000000E+01  0.00000000E+00
  1.70000000E+02  6.20000000E+01  0.00000000E+00
  1.70000000E+02  6.00000000E+01  0.00000000E+00
  1.70000000E+02  5.80000000E+01  0.00000000E+00
  1.70000000E+02  5.60000000E+01  0.00000000E+00
  1.70000000E+02  5.40000000E+01  0.00000000E+00
  1.70000000E+02  5.20000000E+01  0.00000000E+00
  1.70000000E+02  5.00000000E+01  0.00000000E+00
  1.70000000E+02  4.80000000E+01  0.00000000E+00
  1.70000000E+02  4.60000000E+01  0.00000000E+00
  1.70000000E+02  4.40000000E+01  0.00000000E+00
  1.70000000E+02  4.20000000E+01  0.00000000E+00
  1.70000000E+02  4.00000000E+01  0.00000000E+00
  1.70000000E+02  3.80000000E+01  0.00000000E+00
  1.70000000E+02  3.60000000E+01  0.00000000E+00
  1.70000000E+02  3.40000000E+01  0.00000000E+00
  1.70000000E+02  3.20000000E+01  0.00000000E+00
  1.70000000E+02  3.00000000E+01  0.00000000E+00
  1.70000000E+02  2.80000000E+01  0.00000000E+00
  1.70000000E+02  2.60000000E+01  0.00000000E+00
  1.70000000E+02  2.40000000E+01  0.00000000E+00
  1.70000000E+02  2.20000000E+01  0.00000000E+00
  1.70000000E+02  2.00000000E+01  0.00000000E+00
  1.70000000E+02  1.80000000E+01  0.00000000E+00
  1.70000000E+02  1.60000000E+01  0.00000000E+00
  1.70000000E+02  1.40000000E+01  0.00000000E+00
  1.70000000E+02  1.20000000E+01  0.00000000E+00
  1.70000000E+02  1.00000000E+01  0.00000000E+00
  1.70000000E+02  8.00000000E+00  0.00000000E+00
  1.70000000E+02  6.00000000E+00  0.00000000E+00
  1.70000000E+02  4.00000000E+00  0.00000000E+00
  1.70000000E+02  2.00000000E+00  0.00000000E+00
  1.70000000E+02 -3.33066907E-14  0.00000000E+00
  1.80000000E+02  1.00000000E+02  0.00000000E+00
  1.80000000E+02  9.80000000E+01  0.00000000E+00
  1.80000000E+02  9.60000000E+01  0.00000000E+00
  1.80000000E+02  9.40000000E+01  0.00000000E+00
  1.80000000E+02  9.20000000E+01  0.00000000E+00
  1.80000000E+02  9.00000000E+01  0.00000000E+00
  1.80000000E+02  8.80000000E+01  0.00000000E+00
  1.80000000E+02  8.60000000E+01  0.00000000E+00
  1.80000000E+02  8.40000000E+01  0.00000000E+00
  1.80000000E+02  8.20000000E+01  0.00000000E+00
  1.80000000E+02  8.00000000E+01  0.00000000E+00
  1.80000000E+02  7.80000000E+01  0.00000000E+00
  1.80000000E+02  7.60000000E+01  0.00000000E+00
  1.80000000E+02  7.40000000E+01  0.00000000E+00
  1.80000000E+02  7.20000000E+01  0.00000000E+00
  1.80000000E+02  7.00000000E+01  0.00000000E+00
  1.80000000E+02  6.80000000E+01  0.00000000E+00
  1.80000000E+02  6.60000000E+01  0.00000000E+00
  1.80000000E+02  6.40000000E+01  0.00000000E+00
  1.80000000E+02  6.20000000E+01  0.00000000E+00
  1.80000000E+02  6.00000000E+01  0.00000000E+00
  1.80000000E+02  5.80000000E+01  0.00000000E+00
  1.80000000E+02  5.60000000E+01  0.00000000E+00
  1.80000000E+02  5.40000000E+01  0.00000000E+00
  1.80000000E+02  5.20000000E+01  0.00000000E+00
  1.80000000E+02  5.00000000E+01  0.00000000E+00
  1.80000000E+02  4.80000000E+01  0.00000000E+00
  1.80000000E+02  4.60000000E+01  0.00000000E+00
  1.80000000E+02  4.40000000E+01  0.00000000E+00
  1.80000000E+02  4.20000000E+01  0.00000000E+00
  1.80000000E+02  4.00000000E+01  0.00000000E+00
  1.80000000E+02  3.80000000E+01  0.00000000E+00
  1.80000000E+02  3.60000000E+01  0.00000000E+00
  1.80000000E+02  3.40000000E+01  0.00000000E+00
  1.80000000E+02  3.20000000E+01  0.00000000E+00
  1.80000000E+02  3.00000000E+01  0.00000000E+00
  1.80000000E+02  2.80000000E+01  0.00000000E+00
  1.80000000E+02  2.60000000E+01  0.00000000E+00
  1.80000000E+02  2.40000000E+01  0.00000000E+00
  1.80000000E+02  2.20000000E+01  0.00000000E+00
  1.80000000E+02  2.00000000E+01  0.00000000E+00
  1.80000000E+02  1.80000000E+01  0.00000000E+00
  1.80000000E+02  1.60000000E+01  0.00000000E+00
  1.80000000E+02  1.40000000E+01  0.00000000E+00
  1.80000000E+02  1.20000000E+01  0.00000000E+00
  1.80000000E+02  1.00000000E+01  0.00000000E+00
  1.80000000E+02  8.00000000E+00  0.00000000E+00
  1.80000000E+02  6.00000000E+00  0.00000000E+00
  1.80000000E+02  4.00000000E+00  0.00000000E+00
  1.80000000E+02  2.00000000E+00  0.00000000E+00
  1.80000000E+02 -3.33066907E-14  0.00000000E+00
  1.90000000E+02  1.00000000E+02  0.00000000E+00
  1.90000000E+02  9.80000000E+01  0.00000000E+00
  1.90000000E+02  9.60000000E+01  0.00000000E+00
  1.90000000E+02  9.40000000E+01  0.00000000E+00
  1.90000000E+02  9.20000000E+01  0.00000000E+00
  1.90000000E+02  9.00000000E+01  0.00000000E+00
  1.90000000E+02  8.80000000E+01  0.00000000E+00
  1.90000000E+02  8.60000000E+01  0.00000000E+00
  1.90000000E+02  8.40000000E+01  0.00000000E+00
  1.90000000E+02  8.20000000E+01  0.00000000E+00
  1.90000000E+02  8.00000000E+01  0.00000000E+00
  1.90000000E+02  7.80000000E+01  0.00000000E+00
  1.90000000E+02  7.60000000E+01  0.00000000E+00
  1.90000000E+02  7.40000000E+01  0.00000000E+00
  1.90000000E+02  7.20000000E+01  0.00000000E+00
  1.90000000E+02  7.00000000E+01  0.00000000E+00
  1.90000000E+02  6.80000000E+01  0.00000000E+00
  1.90000000E+02  6.60000000E+01  0.00000000E+00
  1.90000000E+02  6.40000000E+01  0.00000000E+00
  1.90000000E+02  6.20000000E+01  0.00000000E+00
  1.90000000E+02  6.00000000E+01  0.00000000E+00
  1.90000000E+02  5.80000000E+01  0.00000000E+00
  1.90000000E+02  5.60000000E+01  0.00000000E+00
  1.90000000E+02  5.40000000E+01  0.00000000E+00
  1.90000000E+02  5.20000000E+01  0.00000000E+00
  1.90000000E+02  5.00000000E+01  0.00000000E+00
  1.90000000E+02  4.80000000E+01  0.00000000E+00
  1.90000000E+02  4.60000000E+01  0.00000000E+00
  1.90000000E+02  4.40000000E+01  0.00000000E+00
  1.90000000E+02  4.20000000E+01  0.00000000E+00
  1.90000000E+02  4.00000000E+01  0.00000000E+00
  1.90000000E+02  3.80000000E+01  0.00000000E+00
  1.90000000E+02  3.60000000E+01  0.00000000E+00
  1.90000000E+02  3.40000000E+01  0.00000000E+00
  1.90000000E+02  3.20000000E+01  0.00000000E+00
  1.90000000E+02  3.00000000E+01  0.00000000E+00
  1.90000000E+02  2.80000000E+01  0.00000000E+00
  1.90000000E+02  2.60000000E+01  0.00000000E+00
  1.90000000E+02  2.40000000E+01  0.00000000E+00
  1.90000000E+02  2.20000000E+01  0.00000000E+00
  1.90000000E+02  2.00000000E+01  0.00000000E+00
  1.90000000E+02  1.80000000E+01  0.00000000E+00
  1.90000000E+02  1.60000000E+01  0.00000000E+00
  1.90000000E+02  1.40000000E+01  0.00000000E+00
  1.90000000E+02  1.20000000E+01  0.00000000E+00
  1.90000000E+02  1.00000000E+01  0.00000000E+00
  1.90000000E+02  8.00000000E+00  0.00000000E+00
  1.90000000E+02  6.00000000E+00  0.00000000E+00
  1.90000000E+02  4.00000000E+00  0.00000000E+00
  1.90000000E+02  2.00000000E+00  0.00000000E+00
  1.90000000E+02 -3.33066907E-14  0.00000000E+00
  2.00000000E+02  1.00000000E+02  0.00000000E+00
  2.00000000E+02  9.80000000E+01  0.00000000E+00
  2.00000000E+02  9.60000000E+01  0.00000000E+00
  2.00000000E+02  9.40000000E+01  0.00000000E+00
  2.00000000E+02  9.20000000E+01  0.00000000E+00
  2.00000000E+02  9.00000000E+01  0.00000000E+00
  2.00000000E+02  8.80000000E+01  0.00000000E+00
  2.00000000E+02  8.60000000E+01  0.00000000E+00
  2.00000000E+02  8.40000000E+01  0.00000000E+00
  2.00000000E+02  8.20000000E+01  0.00000000E+00
  2.00000000E+02  8.00000000E+01  0.00000000E+00
  2.00000000E+02  7.80000000E+01  0.00000000E+00
  2.00000000E+02  7.60000000E+01  0.00000000E+00
  2.00000000E+02  7.40000000E+01  0.00000000E+00
  2.00000000E+02  7.20000000E+01  0.00000000E+00
  2.00000000E+02  7.00000000E+01  0.00000000E+00
  2.00000000E+02  6.80000000E+01  0.00000000E+00
  2.00000000E+02  6.60000000E+01  0.00000000E+00
  2.00000000E+02  6.40000000E+01  0.00000000E+00
  2.00000000E+02  6.20000000E+01  0.00000000E+00
  2.00000000E+02  6.00000000E+01  0.00000000E+00
  2.00000000E+02  5.80000000E+01  0.00000000E+00
  2.00000000E+02  5.60000000E+01  0.00000000E+00
  2.00000000E+02  5.40000000E+01  0.00000000E+00
  2.00000000E+02  5.20000000E+01  0.00000000E+00
  2.00000000E+02  5.00000000E+01  0.00000000E+00
  2.00000000E+02  4.80000000E+01  0.00000000E+00
  2.00000000E+02  4.60000000E+01  0.00000000E+00
  2.00000000E+02  4.40000000E+01  0.00000000E+00
  2.00000000E+02  4.20000000E+01  0.00000000E+00
  2.00000000E+02  4.00000000E+01  0.00000000E+00
  2.00000000E+02  3.80000000E+01  0.00000000E+00
  2.00000000E+02  3.60000000E+01  0.00000000E+00
  2.00000000E+02  3.40000000E+01  0.00000000E+00
  2.00000000E+02  3.20000000E+01  0.00000000E+00
  2.00000000E+02  3.00000000E+01  0.00000000E+00
  2.00000000E+02  2.80000000E+01  0.00000000E+00
  2.00000000E+02  2.60000000E+01  0.00000000E+00
  2.00000000E+02  2.40000000E+01  0.00000000E+00
  2.00000000E+02  2.20000000E+01  0.00000000E+00
  2.00000000E+02  2.00000000E+01  0.00000000E+00
  2.00000000E+02  1.80000000E+01  0.00000000E+00
  2.00000000E+02  1.60000000E+01  0.00000000E+00
  2.00000000E+02  1.40000000E+01  0.00000000E+00
  2.00000000E+02  1.20000000E+01  0.00000000E+00
  2.00000000E+02  1.00000000E+01  0.00000000E+00
  2.00000000E+02  8.00000000E+00  0.00000000E+00
  2.00000000E+02  6.00000000E+00  0.00000000E+00
  2.00000000E+02  4.00000000E+00  0.00000000E+00
  2.00000000E+02  2.00000000E+00  0.00000000E+00
  2.00000000E+02 -3.33066907E-14  0.00000000E+00
  2.10000000E+02  1.00000000E+02  0.00000000E+00
  2.10000000E+02  9.80000000E+01  0.00000000E+00
  2.10000000E+02  9.60000000E+01  0.00000000E+00
  2.10000000E+02  9.40000000E+01  0.00000000E+00
  2.10000000E+02  9.20000000E+01  0.00000000E+00
  2.10000000E+02  9.00000000E+01  0.00000000E+00
  2.10000000E+02  8.80000000E+01  0.00000000E+00
  2.10000000E+02  8.60000000E+01  0.00000000E+00
  2.10000000E+02  8.40000000E+01  0.00000000E+00
  2.10000000E+02  8.20000000E+01  0.00000000E+00
  2.10000000E+02  8.00000000E+01  0.00000000E+00
  2.10000000E+02  7.80000000E+01  0.00000000E+00
  2.10000000E+02  7.60000000E+01  0.00000000E+00
  2.10000000E+02  7.40000000E+01  0.00000000E+00
  2.10000000E+02  7.20000000E+01  0.00000000E+00
  2.10000000E+02  7.00000000E+01  0.00000000E+00
  2.10000000E+02  6.80000000E+01  0.00000000E+00
  2.10000000E+02  6.60000000E+01  0.00000000E+00
  2.10000000E+02  6.40000000E+01  0.00000000E+00
  2.10000000E+02  6.20000000E+01  0.00000000E+00
  2.10000000E+02  6.00000000E+01  0.00000000E+00
  2.10000000E+02  5.80000000E+01  0.00000000E+00
  2.10000000E+02  5.60000000E+01  0.00000000E+00
  2.10000000E+02  5.40000000E+01  0.00000000E+00
  2.10000000E+02  5.20000000E+01  0.00000000E+00
  2.10000000E+02  5.00000000E+01  0.00000000E+00
  2.10000000E+02  4.80000000E+01  0.00000000E+00
  2.10000000E+02  4.60000000E+01  0.00000000E+00
  2.10000000E+02  4.40000000E+01  0.00000000E+00
  2.10000000E+02  4.20000000E+01  0.00000000E+00
  2.10000000E+02  4.00000000E+01  0.00000000E+00
  2.10000000E+02  3.80000000E+01  0.00000000E+00
  2.10000000E+02  3.60000000E+01  0.00000000E+00
  2.10000000E+02  3.40000000E+01  0.00000000E+00
  2.10000000E+02  3.20000000E+01  0.00000000E+00
  2.10000000E+02  3.00000000E+01  0.00000000E+00
  2.10000000E+02  2.80000000E+01  0.00000000E+00
  2.10000000E+02  2.60000000E+01  0.00000000E+00
  2.10000000E+02  2.40000000E+01  0.00000000E+00
  2.10000000E+02  2.20000000E+01  0.00000000E+00
  2.10000000E+02  2.00000000E+01  0.00000000E+00
  2.10000000E+02  1.80000000E+01  0.00000000E+00
  2.10000000E+02  1.60000000E+01  0.00000000E+00
  2.10000000E+02  1.40000000E+01  0.00000000E+00
  2.10000000E+02  1.20000000E+01  0.00000000E+00
  2.10000000E+02  1.00000000E+01  0.00000000E+00
  2.10000000E+02  8.00000000E+00  0.00000000E+00
  2.10000000E+02  6.00000000E+00  0.00000000E+00
  2.10000000E+02  4.00000000E+00  0.00000000E+00
  2.10000000E+02  2.00000000E+00  0.00000000E+00
  2.10000000E+02 -3.33066907E-14  0.00000000E+00
  2.20000000E+02  1.00000000E+02  0.00000000E+00
  2.20000000E+02  9.80000000E+01  0.00000000E+00
  2.20000000E+02  9.60000000E+01  0.00000000E+00
  2.20000000E+02  9.40000000E+01  0.00000000E+00
  2.20000000E+02  9.20000000E+01  0.00000000E+00
  2.20000000E+02  9.00000000E+01  0.00000000E+00
  2.20000000E+02  8.80000000E+01  0.00000000E+00
  2.20000000E+02  8.60000000E+01  0.00000000E+00
  2.20000000E+02  8.40000000E+01  0.00000000E+00
  2.20000000E+02  8.20000000E+01  0.00000000E+00
  2.20000000E+02  8.00000000E+01  0.00000000E+00
  2.20000000E+02  7.80000000E+01  0.00000000E+00
  2.20000000E+02  7.60000000E+01  0.00000000E+00
  2.20000000E+02  7.40000000E+01  0.00000000E+00
  2.20000000E+02  7.20000000E+01  0.00000000E+00
  2.20000000E+02  7.00000000E+01  0.00000000E+00
  2.20000000E+02  6.80000000E+01  0.00000000E+00
  2.20000000E+02  6.60000000E+01  0.00000000E+00
  2.20000000E+02  6.40000000E+01  0.00000000E+00
  2.20000000E+02  6.20000000E+01  0.00000000E+00
  2.20000000E+02  6.00000000E+01  0.00000000E+00
  2.20000000E+02  5.80000000E+01  0.00000000E+00
  2.20000000E+02  5.60000000E+01  0.00000000E+00
  2.20000000E+02  5.40000000E+01  0.00000000E+00
  2.20000000E+02  5.20000000E+01  0.00000000E+00
  2.20000000E+02  5.00000000E+01  0.00000000E+00
  2.20000000E+02  4.80000000E+01  0.00000000E+00
  2.20000000E+02  4.60000000E+01  0.00000000E+00
  2.20000000E+02  4.40000000E+01  0.00000000E+00
  2.20000000E+02  4.20000000E+01  0.00000000E+00
  2.20000000E+02  4.00000000E+01  0.00000000E+00
  2.20000000E+02  3.80000000E+01  0.00000000E+00
  2.20000000E+02  3.60000000E+01  0.00000000E+00
  2.20000000E+02  3.40000000E+01  0.00000000E+00
  2.20000000E+02  3.20000000E+01  0.00000000E+00
  2.20000000E+02  3.00000000E+01  0.00000000E+00
  2.20000000E+02  2.80000000E+01  0.00000000E+00
  2.20000000E+02  2.60000000E+01  0.00000000E+00
  2.20000000E+02  2.40000000E+01  0.00000000E+00
  2.20000000E+02  2.20000000E+01  0.00000000E+00
  2.20000000E+02  2.00000000E+01  0.00000000E+00
  2.20000000E+02  1.80000000E+01  0.00000000E+00
  2.20000000E+02  1.60000000E+01  0.00000000E+00
  2.20000000E+02  1.40000000E+01  0.00000000E+00
  2.20000000E+02  1.20000000E+01  0.00000000E+00
  2.20000000E+02  1.00000000E+01  0.00000000E+00
  2.20000000E+02  8.00000000E+00  0.00000000E+00
  2.20000000E+02  6.00000000E+00  0.00000000E+00
  2.20000000E+02  4.00000000E+00  0.00000000E+00
  2.20000000E+02  2.00000000E+00  0.00000000E+00
  2.20000000E+02 -3.33066907E-14  0.00000000E+00
  2.30000000E+02  1.00000000E+02  0.00000000E+00
  2.30000000E+02  9.80000000E+01  0.00000000E+00
  2.30000000E+02  9.60000000E+01  0.00000000E+00
  2.30000000E+02  9.40000000E+01  0.00000000E+00
  2.30000000E+02  9.20000000E+01  0.00000000E+00
  2.30000000E+02  9.00000000E+01  0.00000000E+00
  2.30000000E+02  8.80000000E+01  0.00000000E+00
  2.30000000E+02  8.60000000E+01  0.00000000E+00
  2.30000000E+02  8.40000000E+01  0.00000000E+00
  2.30000000E+02  8.20000000E+01  0.00000000E+00
  2.30000000E+02  8.00000000E+01  0.00000000E+00
  2.30000000E+02  7.80000000E+01  0.00000000E+00
  2.30000000E+02  7.60000000E+01  0.00000000E+00
  2.30000000E+02  7.40000000E+01  0.00000000E+00
  2.30000000E+02  7.20000000E+01  0.00000000E+00
  2.30000000E+02  7.00000000E+01  0.00000000E+00
  2.30000000E+02  6.80000000E+01  0.00000000E+00
  2.30000000E+02  6.60000000E+01  0.00000000E+00
  2.30000000E+02  6.40000000E+01  0.00000000E+00
  2.30000000E+02  6.20000000E+01  0.00000000E+00
  2.30000000E+02  6.00000000E+01  0.00000000E+00
  2.30000000E+02  5.80000000E+01  0.00000000E+00
  2.30000000E+02  5.60000000E+01  0.00000000E+00
  2.30000000E+02  5.40000000E+01  0.00000000E+00
  2.30000000E+02  5.20000000E+01  0.00000000E+00
  2.30000000E+02  5.00000000E+01  0.00000000E+00
  2.30000000E+02  4.80000000E+01  0.00000000E+00
  2.30000000E+02  4.60000000E+01  0.00000000E+00
  2.30000000E+02  4.40000000E+01  0.00000000E+00
  2.30000000E+02  4.20000000E+01  0.00000000E+00
  2.30000000E+02  4.00000000E+01  0.00000000E+00
  2.30000000E+02  3.80000000E+01  0.00000000E+00
  2.30000000E+02  3.60000000E+01  0.00000000E+00
  2.30000000E+02  3.40000000E+01  0.00000000E+00
  2.30000000E+02  3.20000000E+01  0.00000000E+00
  2.30000000E+02  3.00000000E+01  0.00000000E+00
  2.30000000E+02  2.80000000E+01  0.00000000E+00
  2.30000000E+02  2.60000000E+01  0.00000000E+00
  2.30000000E+02  2.40000000E+01  0.00000000E+00
  2.30000000E+02  2.20000000E+01  0.00000000E+00
  2.30000000E+02  2.00000000E+01  0.00000000E+00
  2.30000000E+02  1.80000000E+01  0.00000000E+00
  2.30000000E+02  1.60000000E+01  0.00000000E+00
  2.30000000E+02  1.40000000E+01  0.00000000E+00
  2.30000000E+02  1.20000000E+01  0.00000000E+00
  2.30000000E+02  1.00000000E+01  0.00000000E+00
  2.30000000E+02  8.00000000E+00  0.00000000E+00
  2.30000000E+02  6.00000000E+00  0.00000000E+00
  2.30000000E+02  4.00000000E+00  0.00000000E+00
  2.30000000E+02  2.00000000E+00  0.00000000E+00
  2.30000000E+02 -3.33066907E-14  0.00000000E+00
  2.40000000E+02  1.00000000E+02  0.00000000E+00
  2.40000000E+02  9.80000000E+01  0.00000000E+00
  2.40000000E+02  9.60000000E+01  0.00000000E+00
  2.40000000E+02  9.40000000E+01  0.00000000E+00
  2.40000000E+02  9.20000000E+01  0.00000000E+00
  2.40000000E+02  9.00000000E+01  0.00000000E+00
  2.40000000E+02  8.80000000E+01  0.00000000E+00
  2.40000000E+02  8.60000000E+01  0.00000000E+00
  2.40000000E+02  8.40000000E+01  0.00000000E+00
  2.40000000E+02  8.20000000E+01  0.00000000E+00
  2.40000000E+02  8.00000000E+01  0.00000000E+00
  2.40000000E+02  7.80000000E+01  0.00000000E+00
  2.40000000E+02  7.60000000E+01  0.00000000E+00
  2.40000000E+02  7.40000000E+01  0.00000000E+00
  2.40000000E+02  7.20000000E+01  0.00000000E+00
  2.40000000E+02  7.00000000E+01  0.00000000E+00
  2.40000000E+02  6.80000000E+01  0.00000000E+00
  2.40000000E+02  6.60000000E+01  0.00000000E+00
  2.40000000E+02  6.40000000E+01  0.00000000E+00
  2.40000000E+02  6.20000000E+01  0.00000000E+00
  2.40000000E+02  6.00000000E+01  0.00000000E+00
  2.40000000E+02  5.80000000E+01  0.00000000E+00
  2.40000000E+02  5.60000000E+01  0.00000000E+00
  2.40000000E+02  5.40000000E+01  0.00000000E+00
  2.40000000E+02  5.20000000E+01  0.00000000E+00
  2.40000000E+02  5.00000000E+01  0.00000000E+00
  2.40000000E+02  4.80000000E+01  0.00000000E+00
  2.40000000E+02  4.60000000E+01  0.00000000E+00
  2.40000000E+02  4.40000000E+01  0.00000000E+00
  2.40000000E+02  4.20000000E+01  0.00000000E+00
  2.40000000E+02  4.00000000E+01  0.00000000E+00
  2.40000000E+02  3.80000000E+01  0.00000000E+00
  2.40000000E+02  3.60000000E+01  0.00000000E+00
  2.40000000E+02  3.40000000E+01  0.00000000E+00
  2.40000000E+02  3.20000000E+01  0.00000000E+00
  2.40000000E+02  3.00000000E+01  0.00000000E+00
  2.40000000E+02  2.80000000E+01  0.00000000E+00
  2.40000000E+02  2.60000000E+01  0.00000000E+00
  2.40000000E+02  2.40000000E+01  0.00000000E+00
  2.40000000E+02  2.20000000E+01  0.00000000E+00
  2.40000000E+02  2.00000000E+01  0.00000000E+00
  2.40000000E+02  1.80000000E+01  0.00000000E+00
  2.40000000E+02  1.60000000E+01  0.00000000E+00
  2.40000000E+02  1.40000000E+01  0.00000000E+00
  2.40000000E+02  1.20000000E+01  0.00000000E+00
  2.40000000E+02  1.00000000E+01  0.00000000E+00
  2.40000000E+02  8.00000000E+00  0.00000000E+00
  2.40000000E+02  6.00000000E+00  0.00000000E+00
  2.40000000E+02  4.00000000E+00  0.00000000E+00
  2.40000000E+02  2.00000000E+00  0.00000000E+00
  2.40000000E+02 -3.33066907E-14  0.00000000E+00
  2.50000000E+02  1.00000000E+02  0.00000000E+00
  2.50000000E+02  9.80000000E+01  0.00000000E+00
  2.50000000E+02  9.60000000E+01  0.00000000E+00
  2.50000000E+02  9.40000000E+01  0.00000000E+00
  2.50000000E+02  9.20000000E+01  0.00000000E+00
  2.50000000E+02  9.00000000E+01  0.00000000E+00
  2.50000000E+02  8.80000000E+01  0.00000000E+00
  2.50000000E+02  8.60000000E+01  0.00000000E+00
  2.50000000E+02  8.40000000E+01  0.00000000E+00
  2.50000000E+02  8.20000000E+01  0.00000000E+00
  2.50000000E+02  8.00000000E+01  0.00000000E+00
  2.50000000E+02  7.80000000E+01  0.00000000E+00
  2.50000000E+02  7.60000000E+01  0.00000000E+00
  2.50000000E+02  7.40000000E+01  0.00000000E+00
  2.50000000E+02  7.20000000E+01  0.00000000E+00
  2.50000000E+02  7.00000000E+01  0.00000000E+00
  2.50000000E+02  6.80000000E+01  0.00000000E+00
  2.50000000E+02  6.60000000E+01  0.00000000E+00
  2.50000000E+02  6.40000000E+01  0.00000000E+00
  2.50000000E+02  6.20000000E+01  0.00000000E+00
  2.50000000E+02  6.00000000E+01  0.00000000E+00
  2.50000000E+02  5.80000000E+01  0.00000000E+00
  2.50000000E+02  5.60000000E+01  0.00000000E+00
  2.50000000E+02  5.40000000E+01  0.00000000E+00
  2.50000000E+02  5.20000000E+01  0.00000000E+00
  2.50000000E+02  5.00000000E+01  0.00000000E+00
  2.50000000E+02  4.80000000E+01  0.00000000E+00
  2.50000000E+02  4.60000000E+01  0.00000000E+00
  2.50000000E+02  4.40000000E+01  0.00000000E+00
  2.50000000E+02  4.20000000E+01  0.00000000E+00
  2.50000000E+02  4.00000000E+01  0.00000000E+00
  2.50000000E+02  3.80000000E+01  0.00000000E+00
  2.50000000E+02  3.60000000E+01  0.00000000E+00
  2.50000000E+02  3.40000000E+01  0.00000000E+00
  2.50000000E+02  3.20000000E+01  0.00000000E+00
  2.50000000E+02  3.00000000E+01  0.00000000E+00
  2.50000000E+02  2.80000000E+01  0.00000000E+00
  2.50000000E+02  2.60000000E+01  0.00000000E+00
  2.50000000E+02  2.40000000E+01  0.00000000E+00
  2.50000000E+02  2.20000000E+01  0.00000000E+00
  2.50000000E+02  2.00000000E+01  0.00000000E+00
  2.50000000E+02  1.80000000E+01  0.00000000E+00
  2.50000000E+02  1.60000000E+01  0.00000000E+00
  2.50000000E+02  1.40000000E+01  0.00000000E+00
  2.50000000E+02  1.20000000E+01  0.00000000E+00
  2.50000000E+02  1.00000000E+01  0.00000000E+00
  2.50000000E+02  8.00000000E+00  0.00000000E+00
  2.50000000E+02  6.00000000E+00  0.00000000E+00
  2.50000000E+02  4.00000000E+00  0.00000000E+00
  2.50000000E+02  2.00000000E+00  0.00000000E+00
  2.50000000E+02 -3.33066907E-14  0.00000000E+00
  2.60000000E+02  1.00000000E+02  0.00000000E+00
  2.60000000E+02  9.80000000E+01  0.00000000E+00
  2.60000000E+02  9.60000000E+01  0.00000000E+00
  2.60000000E+02  9.40000000E+01  0.00000000E+00
  2.60000000E+02  9.20000000E+01  0.00000000E+00
  2.60000000E+02  9.00000000E+01  0.00000000E+00
  2.60000000E+02  8.80000000E+01  0.00000000E+00
  2.60000000E+02  8.60000000E+01  0.00000000E+00
  2.60000000E+02  8.40000000E+01  0.00000000E+00
  2.60000000E+02  8.20000000E+01  0.00000000E+00
  2.60000000E+02  8.00000000E+01  0.00000000E+00
  2.60000000E+02  7.80000000E+01  0.00000000E+00
  2.60000000E+02  7.60000000E+01  0.00000000E+00
  2.60000000E+02  7.40000000E+01  0.00000000E+00
  2.60000000E+02  7.20000000E+01  0.00000000E+00
  2.60000000E+02  7.00000000E+01  0.00000000E+00
  2.60000000E+02  6.80000000E+01  0.00000000E+00
  2.60000000E+02  6.60000000E+01  0.00000000E+00
  2.60000000E+02  6.40000000E+01  0.00000000E+00
  2.60000000E+02  6.20000000E+01  0.00000000E+00
  2.60000000E+02  6.00000000E+01  0.00000000E+00
  2.60000000E+02  5.80000000E+01  0.00000000E+00
  2.60000000E+02  5.60000000E+01  0.00000000E+00
  2.60000000E+02  5.40000000E+01  0.00000000E+00
  2.60000000E+02  5.20000000E+01  0.00000000E+00
  2.60000000E+02  5.00000000E+01  0.00000000E+00
  2.60000000E+02  4.80000000E+01  0.00000000E+00
  2.60000000E+02  4.60000000E+01  0.00000000E+00
  2.60000000E+02  4.40000000E+01  0.00000000E+00
  2.60000000E+02  4.20000000E+01  0.00000000E+00
  2.60000000E+02  4.00000000E+01  0.00000000E+00
  2.60000000E+02  3.80000000E+01  0.00000000E+00
  2.60000000E+02  3.60000000E+01  0.00000000E+00
  2.60000000E+02  3.40000000E+01  0.00000000E+00
  2.60000000E+02  3.20000000E+01  0.00000000E+00
  2.60000000E+02  3.00000000E+01  0.00000000E+00
  2.60000000E+02  2.80000000E+01  0.00000000E+00
  2.60000000E+02  2.60000000E+01  0.00000000E+00
  2.60000000E+02  2.40000000E+01  0.00000000E+00
  2.60000000E+02  2.20000000E+01  0.00000000E+00
  2.60000000E+02  2.00000000E+01  0.00000000E+00
  2.60000000E+02  1.80000000E+01  0.00000000E+00
  2.60000000E+02  1.60000000E+01  0.00000000E+00
  2.60000000E+02  1.40000000E+01  0.00000000E+00
  2.60000000E+02  1.20000000E+01  0.00000000E+00
  2.60000000E+02  1.00000000E+01  0.00000000E+00
  2.60000000E+02  8.00000000E+00  0.00000000E+00
  2.60000000E+02  6.00000000E+00  0.00000000E+00
  2.60000000E+02  4.00000000E+00  0.00000000E+00
  2.60000000E+02  2.00000000E+00  0.00000000E+00
  2.60000000E+02 -3.33066907E-14  0.00000000E+00
  2.70000000E+02  1.00000000E+02  0.00000000E+00
  2.70000000E+02  9.80000000E+01  0.00000000E+00
  2.70000000E+02  9.60000000E+01  0.00000000E+00
  2.70000000E+02  9.40000000E+01  0.00000000E+00
  2.70000000E+02  9.20000000E+01  0.00000000E+00
  2.70000000E+02  9.00000000E+01  0.00000000E+00
  2.70000000E+02  8.80000000E+01  0.00000000E+00
  2.70000000E+02  8.60000000E+01  0.00000000E+00
  2.70000000E+02  8.40000000E+01  0.00000000E+00
  2.70000000E+02  8.20000000E+01  0.00000000E+00
  2.70000000E+02  8.00000000E+01  0.00000000E+00
  2.70000000E+02  7.80000000E+01  0.00000000E+00
  2.70000000E+02  7.60000000E+01  0.00000000E+00
  2.70000000E+02  7.40000000E+01  0.00000000E+00
  2.70000000E+02  7.20000000E+01  0.00000000E+00
  2.70000000E+02  7.00000000E+01  0.00000000E+00
  2.70000000E+02  6.80000000E+01  0.00000000E+00
  2.70000000E+02  6.60000000E+01  0.00000000E+00
  2.70000000E+02  6.40000000E+01  0.00000000E+00
  2.70000000E+02  6.20000000E+01  0.00000000E+00
  2.70000000E+02  6.00000000E+01  0.00000000E+00
  2.70000000E+02  5.80000000E+01  0.00000000E+00
  2.70000000E+02  5.60000000E+01  0.00000000E+00
  2.70000000E+02  5.40000000E+01  0.00000000E+00
  2.70000000E+02  5.20000000E+01  0.00000000E+00
  2.70000000E+02  5.00000000E+01  0.00000000E+00
  2.70000000E+02  4.80000000E+01  0.00000000E+00
  2.70000000E+02  4.60000000E+01  0.00000000E+00
  2.70000000E+02  4.40000000E+01  0.00000000E+00
  2.70000000E+02  4.20000000E+01  0.00000000E+00
  2.70000000E+02  4.00000000E+01  0.00000000E+00
  2.70000000E+02  3.80000000E+01  0.00000000E+00
  2.70000000E+02  3.60000000E+01  0.00000000E+00
  2.70000000E+02  3.40000000E+01  0.00000000E+00
  2.70000000E+02  3.20000000E+01  0.00000000E+00
  2.70000000E+02  3.00000000E+01  0.00000000E+00
  2.70000000E+02  2.80000000E+01  0.00000000E+00
  2.70000000E+02  2.60000000E+01  0.00000000E+00
  2.70000000E+02  2.40000000E+01  0.00000000E+00
  2.70000000E+02  2.20000000E+01  0.00000000E+00
  2.70000000E+02  2.00000000E+01  0.00000000E+00
  2.70000000E+02  1.80000000E+01  0.00000000E+00
  2.70000000E+02  1.60000000E+01  0.00000000E+00
  2.70000000E+02  1.40000000E+01  0.00000000E+00
  2.70000000E+02  1.20000000E+01  0.00000000E+00
  2.70000000E+02  1.00000000E+01  0.00000000E+00
  2.70000000E+02  8.00000000E+00  0.00000000E+00
  2.70000000E+02  6.00000000E+00  0.00000000E+00
  2.70000000E+02  4.00000000E+00  0.00000000E+00
  2.70000000E+02  2.00000000E+00  0.00000000E+00
  2.70000000E+02 -3.33066907E-14  0.00000000E+00
  2.80000000E+02  1.00000000E+02  0.00000000E+00
  2.80000000E+02  9.80000000E+01  0.00000000E+00
  2.80000000E+02  9.60000000E+01  0.00000000E+00
  2.80000000E+02  9.40000000E+01  0.00000000E+00
  2.80000000E+02  9.20000000E+01  0.00000000E+00
  2.80000000E+02  9.00000000E+01  0.00000000E+00
  2.80000000E+02  8.80000000E+01  0.00000000E+00
  2.80000000E+02  8.60000000E+01  0.00000000E+00
  2.80000000E+02  8.40000000E+01  0.00000000E+00
  2.80000000E+02  8.20000000E+01  0.00000000E+00
  2.80000000E+02  8.00000000E+01  0.00000000E+00
  2.80000000E+02  7.80000000E+01  0.00000000E+00
  2.80000000E+02  7.60000000E+01  0.00000000E+00
  2.80000000E+02  7.40000000E+01  0.00000000E+00
  2.80000000E+02  7.20000000E+01  0.00000000E+00
  2.80000000E+02  7.00000000E+01  0.00000000E+00
  2.80000000E+02  6.80000000E+01  0.00000000E+00
  2.80000000E+02  6.60000000E+01  0.00000000E+00
  2.80000000E+02  6.40000000E+01  0.00000000E+00
  2.80000000E+02  6.20000000E+01  0.00000000E+00
  2.80000000E+02  6.00000000E+01  0.00000000E+00
  2.80000000E+02  5.80000000E+01  0.00000000E+00
  2.80000000E+02  5.60000000E+01  0.00000000E+00
  2.80000000E+02  5.40000000E+01  0.00000000E+00
  2.80000000E+02  5.20000000E+01  0.00000000E+00
  2.80000000E+02  5.00000000E+01  0.00000000E+00
  2.80000000E+02  4.80000000E+01  0.00000000E+00
  2.80000000E+02  4.60000000E+01  0.00000000E+00
  2.80000000E+02  4.40000000E+01  0.00000000E+00
  2.80000000E+02  4.20000000E+01  0.00000000E+00
  2.80000000E+02  4.00000000E+01  0.00000000E+00
  2.80000000E+02  3.80000000E+01  0.00000000E+00
  2.80000000E+02  3.60000000E+01  0.00000000E+00
  2.80000000E+02  3.40000000E+01  0.00000000E+00
  2.80000000E+02  3.20000000E+01  0.00000000E+00
  2.80000000E+02  3.00000000E+01  0.00000000E+00
  2.80000000E+02  2.80000000E+01  0.00000000E+00
  2.80000000E+02  2.60000000E+01  0.00000000E+00
  2.80000000E+02  2.40000000E+01  0.00000000E+00
  2.80000000E+02  2.20000000E+01  0.00000000E+00
  2.80000000E+02  2.00000000E+01  0.00000000E+00
  2.80000000E+02  1.80000000E+01  0.00000000E+00
  2.80000000E+02  1.60000000E+01  0.00000000E+00
  2.80000000E+02  1.40000000E+01  0.00000000E+00
  2.80000000E+02  1.20000000E+01  0.00000000E+00
  2.80000000E+02  1.00000000E+01  0.00000000E+00
  2.80000000E+02  8.00000000E+00  0.00000000E+00
  2.80000000E+02  6.00000000E+00  0.00000000E+00
  2.80000000E+02  4.00000000E+00  0.00000000E+00
  2.80000000E+02  2.00000000E+00  0.00000000E+00
  2.80000000E+02 -3.33066907E-14  0.00000000E+00
  2.90000000E+02  1.00000000E+02  0.00000000E+00
  2.90000000E+02  9.80000000E+01  0.00000000E+00
  2.90000000E+02  9.60000000E+01  0.00000000E+00
  2.90000000E+02  9.40000000E+01  0.00000000E+00
  2.90000000E+02  9.20000000E+01  0.00000000E+00
  2.90000000E+02  9.00000000E+01  0.00000000E+00
  2.90000000E+02  8.80000000E+01  0.00000000E+00
  2.90000000E+02  8.60000000E+01  0.00000000E+00
  2.90000000E+02  8.40000000E+01  0.00000000E+00
  2.90000000E+02  8.20000000E+01  0.00000000E+00
  2.90000000E+02  8.00000000E+01  0.00000000E+00
  2.90000000E+02  7.80000000E+01  0.00000000E+00
  2.90000000E+02  7.60000000E+01  0.00000000E+00
  2.90000000E+02  7.40000000E+01  0.00000000E+00
  2.90000000E+02  7.20000000E+01  0.00000000E+00
  2.90000000E+02  7.00000000E+01  0.00000000E+00
  2.90000000E+02  6.80000000E+01  0.00000000E+00
  2.90000000E+02  6.60000000E+01  0.00000000E+00
  2.90000000E+02  6.40000000E+01  0.00000000E+00
  2.90000000E+02  6.20000000E+01  0.00000000E+00
  2.90000000E+02  6.00000000E+01  0.00000000E+00
  2.90000000E+02  5.80000000E+01  0.00000000E+00
  2.90000000E+02  5.60000000E+01  0.00000000E+00
  2.90000000E+02  5.40000000E+01  0.00000000E+00
  2.90000000E+02  5.20000000E+01  0.00000000E+00
  2.90000000E+02  5.00000000E+01  0.00000000E+00
  2.90000000E+02  4.80000000E+01  0.00000000E+00
  2.90000000E+02  4.60000000E+01  0.00000000E+00
  2.90000000E+02  4.40000000E+01  0.00000000E+00
  2.90000000E+02  4.20000000E+01  0.00000000E+00
  2.90000000E+02  4.00000000E+01  0.00000000E+00
  2.90000000E+02  3.80000000E+01  0.00000000E+00
  2.90000000E+02  3.60000000E+01  0.00000000E+00
  2.90000000E+02  3.40000000E+01  0.00000000E+00
  2.90000000E+02  3.20000000E+01  0.00000000E+00
  2.90000000E+02  3.00000000E+01  0.00000000E+00
  2.90000000E+02  2.80000000E+01  0.00000000E+00
  2.90000000E+02  2.60000000E+01  0.00000000E+00
  2.90000000E+02  2.40000000E+01  0.00000000E+00
  2.90000000E+02  2.20000000E+01  0.00000000E+00
  2.90000000E+02  2.00000000E+01  0.00000000E+00
  2.90000000E+02  1.80000000E+01  0.00000000E+00
  2.90000000E+02  1.60000000E+01  0.00000000E+00
  2.90000000E+02  1.40000000E+01  0.00000000E+00
  2.90000000E+02  1.20000000E+01  0.00000000E+00
  2.90000000E+02  1.00000000E+01  0.00000000E+00
  2.90000000E+02  8.00000000E+00  0.00000000E+00
  2.90000000E+02  6.00000000E+00  0.00000000E+00
  2.90000000E+02  4.00000000E+00  0.00000000E+00
  2.90000000E+02  2.00000000E+00  0.00000000E+00
  2.90000000E+02 -3.33066907E-14  0.00000000E+00
  3.00000000E+02  1.00000000E+02  0.00000000E+00
  3.00000000E+02  9.80000000E+01  0.00000000E+00
  3.00000000E+02  9.60000000E+01  0.00000000E+00
  3.00000000E+02  9.40000000E+01  0.00000000E+00
  3.00000000E+02  9.20000000E+01  0.00000000E+00
  3.00000000E+02  9.00000000E+01  0.00000000E+00
  3.00000000E+02  8.80000000E+01  0.00000000E+00
  3.00000000E+02  8.60000000E+01  0.00000000E+00
  3.00000000E+02  8.40000000E+01  0.00000000E+00
  3.00000000E+02  8.20000000E+01  0.00000000E+00
  3.00000000E+02  8.00000000E+01  0.00000000E+00
  3.00000000E+02  7.80000000E+01  0.00000000E+00
  3.00000000E+02  7.60000000E+01  0.00000000E+00
  3.00000000E+02  7.40000000E+01  0.00000000E+00
  3.00000000E+02  7.20000000E+01  0.00000000E+00
  3.00000000E+02  7.00000000E+01  0.00000000E+00
  3.00000000E+02  6.80000000E+01  0.00000000E+00
  3.00000000E+02  6.60000000E+01  0.00000000E+00
  3.00000000E+02  6.40000000E+01  0.00000000E+00
  3.00000000E+02  6.20000000E+01  0.00000000E+00
  3.00000000E+02  6.00000000E+01  0.00000000E+00
  3.00000000E+02  5.80000000E+01  0.00000000E+00
  3.00000000E+02  5.60000000E+01  0.00000000E+00
  3.00000000E+02  5.40000000E+01  0.00000000E+00
  3.00000000E+02  5.20000000E+01  0.00000000E+00
  3.00000000E+02  5.00000000E+01  0.00000000E+00
  3.00000000E+02  4.80000000E+01  0.00000000E+00
  3.00000000E+02  4.60000000E+01  0.00000000E+00
  3.00000000E+02  4.40000000E+01  0.00000000E+00
  3.00000000E+02  4.20000000E+01  0.00000000E+00
  3.00000000E+02  4.00000000E+01  0.00000000E+00
  3.00000000E+02  3.80000000E+01  0.00000000E+00
  3.00000000E+02  3.60000000E+01  0.00000000E+00
  3.00000000E+02  3.40000000E+01  0.00000000E+00
  3.00000000E+02  3.20000000E+01  0.00000000E+00
  3.00000000E+02  3.00000000E+01  0.00000000E+00
  3.00000000E+02  2.80000000E+01  0.00000000E+00
  3.00000000E+02  2.60000000E+01  0.00000000E+00
  3.00000000E+02  2.40000000E+01  0.00000000E+00
  3.00000000E+02  2.20000000E+01  0.00000000E+00
  3.00000000E+02  2.00000000E+01  0.00000000E+00
  3.00000000E+02  1.80000000E+01  0.00000000E+00
  3.00000000E+02  1.60000000E+01  0.00000000E+00
  3.00000000E+02  1.40000000E+01  0.00000000E+00
  3.00000000E+02  1.20000000E+01  0.00000000E+00
  3.00000000E+02  1.00000000E+01  0.00000000E+00
  3.00000000E+02  8.00000000E+00  0.00000000E+00
  3.00000000E+02  6.00000000E+00  0.00000000E+00
  3.00000000E+02  4.00000000E+00  0.00000000E+00
  3.00000000E+02  2.00000000E+00  0.00000000E+00
  3.00000000E+02 -3.33066907E-14  0.00000000E+00
  3.10000000E+02  1.00000000E+02  0.00000000E+00
  3.10000000E+02  9.80000000E+01  0.00000000E+00
  3.10000000E+02  9.60000000E+01  0.00000000E+00
  3.10000000E+02  9.40000000E+01  0.00000000E+00
  3.10000000E+02  9.20000000E+01  0.00000000E+00
  3.10000000E+02  9.00000000E+01  0.00000000E+00
  3.10000000E+02  8.80000000E+01  0.00000000E+00
  3.10000000E+02  8.60000000E+01  0.00000000E+00
  3.10000000E+02  8.40000000E+01  0.00000000E+00
  3.10000000E+02  8.20000000E+01  0.00000000E+00
  3.10000000E+02  8.00000000E+01  0.00000000E+00
  3.10000000E+02  7.80000000E+01  0.00000000E+00
  3.10000000E+02  7.60000000E+01  0.00000000E+00
  3.10000000E+02  7.40000000E+01  0.00000000E+00
  3.10000000E+02  7.20000000E+01  0.00000000E+00
  3.10000000E+02  7.00000000E+01  0.00000000E+00
  3.10000000E+02  6.80000000E+01  0.00000000E+00
  3.10000000E+02  6.60000000E+01  0.00000000E+00
  3.10000000E+02  6.40000000E+01  0.00000000E+00
  3.10000000E+02  6.20000000E+01  0.00000000E+00
  3.10000000E+02  6.00000000E+01  0.00000000E+00
  3.10000000E+02  5.80000000E+01  0.00000000E+00
  3.10000000E+02  5.60000000E+01  0.00000000E+00
  3.10000000E+02  5.40000000E+01  0.00000000E+00
  3.10000000E+02  5.20000000E+01  0.00000000E+00
  3.10000000E+02  5.00000000E+01  0.00000000E+00
  3.10000000E+02  4.80000000E+01  0.00000000E+00
  3.10000000E+02  4.60000000E+01  0.00000000E+00
  3.10000000E+02  4.40000000E+01  0.00000000E+00
  3.10000000E+02  4.20000000E+01  0.00000000E+00
  3.10000000E+02  4.00000000E+01  0.00000000E+00
  3.10000000E+02  3.80000000E+01  0.00000000E+00
  3.10000000E+02  3.60000000E+01  0.00000000E+00
  3.10000000E+02  3.40000000E+01  0.00000000E+00
  3.10000000E+02  3.20000000E+01  0.00000000E+00
  3.10000000E+02  3.00000000E+01  0.00000000E+00
  3.10000000E+02  2.80000000E+01  0.00000000E+00
  3.10000000E+02  2.60000000E+01  0.00000000E+00
  3.10000000E+02  2.40000000E+01  0.00000000E+00
  3.10000000E+02  2.20000000E+01  0.00000000E+00
  3.10000000E+02  2.00000000E+01  0.00000000E+00
  3.10000000E+02  1.80000000E+01  0.00000000E+00
  3.10000000E+02  1.60000000E+01  0.00000000E+00
  3.10000000E+02  1.40000000E+01  0.00000000E+00
  3.10000000E+02  1.20000000E+01  0.00000000E+00
  3.10000000E+02  1.00000000E+01  0.00000000E+00
  3.10000000E+02  8.00000000E+00  0.00000000E+00
  3.10000000E+02  6.00000000E+00  0.00000000E+00
  3.10000000E+02  4.00000000E+00  0.00000000E+00
  3.10000000E+02  2.00000000E+00  0.00000000E+00
  3.10000000E+02 -3.33066907E-14  0.00000000E+00
  3.20000000E+02  1.00000000E+02  0.00000000E+00
  3.20000000E+02  9.80000000E+01  0.00000000E+00
  3.20000000E+02  9.60000000E+01  0.00000000E+00
  3.20000000E+02  9.40000000E+01  0.00000000E+00
  3.20000000E+02  9.20000000E+01  0.00000000E+00
  3.20000000E+02  9.00000000E+01  0.00000000E+00
  3.20000000E+02  8.80000000E+01  0.00000000E+00
  3.20000000E+02  8.60000000E+01  0.00000000E+00
  3.20000000E+02  8.40000000E+01  0.00000000E+00
  3.20000000E+02  8.20000000E+01  0.00000000E+00
  3.20000000E+02  8.00000000E+01  0.00000000E+00
  3.20000000E+02  7.80000000E+01  0.00000000E+00
  3.20000000E+02  7.60000000E+01  0.00000000E+00
  3.20000000E+02  7.40000000E+01  0.00000000E+00
  3.20000000E+02  7.20000000E+01  0.00000000E+00
  3.20000000E+02  7.00000000E+01  0.00000000E+00
  3.20000000E+02  6.80000000E+01  0.00000000E+00
  3.20000000E+02  6.60000000E+01  0.00000000E+00
  3.20000000E+02  6.40000000E+01  0.00000000E+00
  3.20000000E+02  6.20000000E+01  0.00000000E+00
  3.20000000E+02  6.00000000E+01  0.00000000E+00
  3.20000000E+02  5.80000000E+01  0.00000000E+00
  3.20000000E+02  5.60000000E+01  0.00000000E+00
  3.20000000E+02  5.40000000E+01  0.00000000E+00
  3.20000000E+02  5.20000000E+01  0.00000000E+00
  3.20000000E+02  5.00000000E+01  0.00000000E+00
  3.20000000E+02  4.80000000E+01  0.00000000E+00
  3.20000000E+02  4.60000000E+01  0.00000000E+00
  3.20000000E+02  4.40000000E+01  0.00000000E+00
  3.20000000E+02  4.20000000E+01  0.00000000E+00
  3.20000000E+02  4.00000000E+01  0.00000000E+00
  3.20000000E+02  3.80000000E+01  0.00000000E+00
  3.20000000E+02  3.60000000E+01  0.00000000E+00
  3.20000000E+02  3.40000000E+01  0.00000000E+00
  3.20000000E+02  3.20000000E+01  0.00000000E+00
  3.20000000E+02  3.00000000E+01  0.00000000E+00
  3.20000000E+02  2.80000000E+01  0.00000000E+00
  3.20000000E+02  2.60000000E+01  0.00000000E+00
  3.20000000E+02  2.40000000E+01  0.00000000E+00
  3.20000000E+02  2.20000000E+01  0.00000000E+00
  3.20000000E+02  2.00000000E+01  0.00000000E+00
  3.20000000E+02  1.80000000E+01  0.00000000E+00
  3.20000000E+02  1.60000000E+01  0.00000000E+00
  3.20000000E+02  1.40000000E+01  0.00000000E+00
  3.20000000E+02  1.20000000E+01  0.00000000E+00
  3.20000000E+02  1.00000000E+01  0.00000000E+00
  3.20000000E+02  8.00000000E+00  0.00000000E+00
  3.20000000E+02  6.00000000E+00  0.00000000E+00
  3.20000000E+02  4.00000000E+00  0.00000000E+00
  3.20000000E+02  2.00000000E+00  0.00000000E+00
  3.20000000E+02 -3.33066907E-14  0.00000000E+00
  3.30000000E+02  1.00000000E+02  0.00000000E+00
  3.30000000E+02  9.80000000E+01  0.00000000E+00
  3.30000000E+02  9.60000000E+01  0.00000000E+00
  3.30000000E+02  9.40000000E+01  0.00000000E+00
  3.30000000E+02  9.20000000E+01  0.00000000E+00
  3.30000000E+02  9.00000000E+01  0.00000000E+00
  3.30000000E+02  8.80000000E+01  0.00000000E+00
  3.30000000E+02  8.60000000E+01  0.00000000E+00
  3.30000000E+02  8.40000000E+01  0.00000000E+00
  3.30000000E+02  8.20000000E+01  0.00000000E+00
  3.30000000E+02  8.00000000E+01  0.00000000E+00
  3.30000000E+02  7.80000000E+01  0.00000000E+00
  3.30000000E+02  7.60000000E+01  0.00000000E+00
  3.30000000E+02  7.40000000E+01  0.00000000E+00
  3.30000000E+02  7.20000000E+01  0.00000000E+00
  3.30000000E+02  7.00000000E+01  0.00000000E+00
  3.30000000E+02  6.80000000E+01  0.00000000E+00
  3.30000000E+02  6.60000000E+01  0.00000000E+00
  3.30000000E+02  6.40000000E+01  0.00000000E+00
  3.30000000E+02  6.20000000E+01  0.00000000E+00
  3.30000000E+02  6.00000000E+01  0.00000000E+00
  3.30000000E+02  5.80000000E+01  0.00000000E+00
  3.30000000E+02  5.60000000E+01  0.00000000E+00
  3.30000000E+02  5.40000000E+01  0.00000000E+00
  3.30000000E+02  5.20000000E+01  0.00000000E+00
  3.30000000E+02  5.00000000E+01  0.00000000E+00
  3.30000000E+02  4.80000000E+01  0.00000000E+00
  3.30000000E+02  4.60000000E+01  0.00000000E+00
  3.30000000E+02  4.40000000E+01  0.00000000E+00
  3.30000000E+02  4.20000000E+01  0.00000000E+00
  3.30000000E+02  4.00000000E+01  0.00000000E+00
  3.30000000E+02  3.80000000E+01  0.00000000E+00
  3.30000000E+02  3.60000000E+01  0.00000000E+00
  3.30000000E+02  3.40000000E+01  0.00000000E+00
  3.30000000E+02  3.20000000E+01  0.00000000E+00
  3.30000000E+02  3.00000000E+01  0.00000000E+00
  3.30000000E+02  2.80000000E+01  0.00000000E+00
  3.30000000E+02  2.60000000E+01  0.00000000E+00
  3.30000000E+02  2.40000000E+01  0.00000000E+00
  3.30000000E+02  2.20000000E+01  0.00000000E+00
  3.30000000E+02  2.00000000E+01  0.00000000E+00
  3.30000000E+02  1.80000000E+01  0.00000000E+00
  3.30000000E+02  1.60000000E+01  0.00000000E+00
  3.30000000E+02  1.40000000E+01  0.00000000E+00
  3.30000000E+02  1.20000000E+01  0.00000000E+00
  3.30000000E+02  1.00000000E+01  0.00000000E+00
  3.30000000E+02  8.00000000E+00  0.00000000E+00
  3.30000000E+02  6.00000000E+00  0.00000000E+00
  3.30000000E+02  4.00000000E+00  0.00000000E+00
  3.30000000E+02  2.00000000E+00  0.00000000E+00
  3.30000000E+02 -3.33066907E-14  0.00000000E+00
  3.40000000E+02  1.00000000E+02  0.00000000E+00
  3.40000000E+02  9.80000000E+01  0.00000000E+00
  3.40000000E+02  9.60000000E+01  0.00000000E+00
  3.40000000E+02  9.40000000E+01  0.00000000E+00
  3.40000000E+02  9.20000000E+01  0.00000000E+00
  3.40000000E+02  9.00000000E+01  0.00000000E+00
  3.40000000E+02  8.80000000E+01  0.00000000E+00
  3.40000000E+02  8.60000000E+01  0.00000000E+00
  3.40000000E+02  8.40000000E+01  0.00000000E+00
  3.40000000E+02  8.20000000E+01  0.00000000E+00
  3.40000000E+02  8.00000000E+01  0.00000000E+00
  3.40000000E+02  7.80000000E+01  0.00000000E+00
  3.40000000E+02  7.60000000E+01  0.00000000E+00
  3.40000000E+02  7.40000000E+01  0.00000000E+00
  3.40000000E+02  7.20000000E+01  0.00000000E+00
  3.40000000E+02  7.00000000E+01  0.00000000E+00
  3.40000000E+02  6.80000000E+01  0.00000000E+00
  3.40000000E+02  6.60000000E+01  0.00000000E+00
  3.40000000E+02  6.40000000E+01  0.00000000E+00
  3.40000000E+02  6.20000000E+01  0.00000000E+00
  3.40000000E+02  6.00000000E+01  0.00000000E+00
  3.40000000E+02  5.80000000E+01  0.00000000E+00
  3.40000000E+02  5.60000000E+01  0.00000000E+00
  3.40000000E+02  5.40000000E+01  0.00000000E+00
  3.40000000E+02  5.20000000E+01  0.00000000E+00
  3.40000000E+02  5.00000000E+01  0.00000000E+00
  3.40000000E+02  4.80000000E+01  0.00000000E+00
  3.40000000E+02  4.60000000E+01  0.00000000E+00
  3.40000000E+02  4.40000000E+01  0.00000000E+00
  3.40000000E+02  4.20000000E+01  0.00000000E+00
  3.40000000E+02  4.00000000E+01  0.00000000E+00
  3.40000000E+02  3.80000000E+01  0.00000000E+00
  3.40000000E+02  3.60000000E+01  0.00000000E+00
  3.40000000E+02  3.40000000E+01  0.00000000E+00
  3.40000000E+02  3.20000000E+01  0.00000000E+00
  3.40000000E+02  3.00000000E+01  0.00000000E+00
  3.40000000E+02  2.80000000E+01  0.00000000E+00
  3.40000000E+02  2.60000000E+01  0.00000000E+00
  3.40000000E+02  2.40000000E+01  0.00000000E+00
  3.40000000E+02  2.20000000E+01  0.00000000E+00
  3.40000000E+02  2.00000000E+01  0.00000000E+00
  3.40000000E+02  1.80000000E+01  0.00000000E+00
  3.40000000E+02  1.60000000E+01  0.00000000E+00
  3.40000000E+02  1.40000000E+01  0.00000000E+00
  3.40000000E+02  1.20000000E+01  0.00000000E+00
  3.40000000E+02  1.00000000E+01  0.00000000E+00
  3.40000000E+02  8.00000000E+00  0.00000000E+00
  3.40000000E+02  6.00000000E+00  0.00000000E+00
  3.40000000E+02  4.00000000E+00  0.00000000E+00
  3.40000000E+02  2.00000000E+00  0.00000000E+00
  3.40000000E+02 -3.33066907E-14  0.00000000E+00
  3.50000000E+02  1.00000000E+02  0.00000000E+00
  3.50000000E+02  9.80000000E+01  0.00000000E+00
  3.50000000E+02  9.60000000E+01  0.00000000E+00
  3.50000000E+02  9.40000000E+01  0.00000000E+00
  3.50000000E+02  9.20000000E+01  0.00000000E+00
  3.50000000E+02  9.00000000E+01  0.00000000E+00
  3.50000000E+02  8.80000000E+01  0.00000000E+00
  3.50000000E+02  8.60000000E+01  0.00000000E+00
  3.50000000E+02  8.40000000E+01  0.00000000E+00
  3.50000000E+02  8.20000000E+01  0.00000000E+00
  3.50000000E+02  8.00000000E+01  0.00000000E+00
  3.50000000E+02  7.80000000E+01  0.00000000E+00
  3.50000000E+02  7.60000000E+01  0.00000000E+00
  3.50000000E+02  7.40000000E+01  0.00000000E+00
  3.50000000E+02  7.20000000E+01  0.00000000E+00
  3.50000000E+02  7.00000000E+01  0.00000000E+00
  3.50000000E+02  6.80000000E+01  0.00000000E+00
  3.50000000E+02  6.60000000E+01  0.00000000E+00
  3.50000000E+02  6.40000000E+01  0.00000000E+00
  3.50000000E+02  6.20000000E+01  0.00000000E+00
  3.50000000E+02  6.00000000E+01  0.00000000E+00
  3.50000000E+02  5.80000000E+01  0.00000000E+00
  3.50000000E+02  5.60000000E+01  0.00000000E+00
  3.50000000E+02  5.40000000E+01  0.00000000E+00
  3.50000000E+02  5.20000000E+01  0.00000000E+00
  3.50000000E+02  5.00000000E+01  0.00000000E+00
  3.50000000E+02  4.80000000E+01  0.00000000E+00
  3.50000000E+02  4.60000000E+01  0.00000000E+00
  3.50000000E+02  4.40000000E+01  0.00000000E+00
  3.50000000E+02  4.20000000E+01  0.00000000E+00
  3.50000000E+02  4.00000000E+01  0.00000000E+00
  3.50000000E+02  3.80000000E+01  0.00000000E+00
  3.50000000E+02  3.60000000E+01  0.00000000E+00
  3.50000000E+02  3.40000000E+01  0.00000000E+00
  3.50000000E+02  3.20000000E+01  0.00000000E+00
  3.50000000E+02  3.00000000E+01  0.00000000E+00
  3.50000000E+02  2.80000000E+01  0.00000000E+00
  3.50000000E+02  2.60000000E+01  0.00000000E+00
  3.50000000E+02  2.40000000E+01  0.00000000E+00
  3.50000000E+02  2.20000000E+01  0.00000000E+00
  3.50000000E+02  2.00000000E+01  0.00000000E+00
  3.50000000E+02  1.80000000E+01  0.00000000E+00
  3.50000000E+02  1.60000000E+01  0.00000000E+00
  3.50000000E+02  1.40000000E+01  0.00000000E+00
  3.50000000E+02  1.20000000E+01  0.00000000E+00
  3.50000000E+02  1.00000000E+01  0.00000000E+00
  3.50000000E+02  8.00000000E+00  0.00000000E+00
  3.50000000E+02  6.00000000E+00  0.00000000E+00
  3.50000000E+02  4.00000000E+00  0.00000000E+00
  3.50000000E+02  2.00000000E+00  0.00000000E+00
  3.50000000E+02 -3.33066907E-14  0.00000000E+00
  3.60000000E+02  1.00000000E+02  0.00000000E+00
  3.60000000E+02  9.80000000E+01  0.00000000E+00
  3.60000000E+02  9.60000000E+01  0.00000000E+00
  3.60000000E+02  9.40000000E+01  0.00000000E+00
  3.60000000E+02  9.20000000E+01  0.00000000E+00
  3.60000000E+02  9.00000000E+01  0.00000000E+00
  3.60000000E+02  8.80000000E+01  0.00000000E+00
  3.60000000E+02  8.60000000E+01  0.00000000E+00
  3.60000000E+02  8.40000000E+01  0.00000000E+00
  3.60000000E+02  8.20000000E+01  0.00000000E+00
  3.60000000E+02  8.00000000E+01  0.00000000E+00
  3.60000000E+02  7.80000000E+01  0.00000000E+00
  3.60000000E+02  7.60000000E+01  0.00000000E+00
  3.60000000E+02  7.40000000E+01  0.00000000E+00
  3.60000000E+02  7.20000000E+01  0.00000000E+00
  3.60000000E+02  7.00000000E+01  0.00000000E+00
  3.60000000E+02  6.80000000E+01  0.00000000E+00
  3.60000000E+02  6.60000000E+01  0.00000000E+00
  3.60000000E+02  6.40000000E+01  0.00000000E+00
  3.60000000E+02  6.20000000E+01  0.00000000E+00
  3.60000000E+02  6.00000000E+01  0.00000000E+00
  3.60000000E+02  5.80000000E+01  0.00000000E+00
  3.60000000E+02  5.60000000E+01  0.00000000E+00
  3.60000000E+02  5.40000000E+01  0.00000000E+00
  3.60000000E+02  5.20000000E+01  0.00000000E+00
  3.60000000E+02  5.00000000E+01  0.00000000E+00
  3.60000000E+02  4.80000000E+01  0.00000000E+00
  3.60000000E+02  4.60000000E+01  0.00000000E+00
  3.60000000E+02  4.40000000E+01  0.00000000E+00
  3.60000000E+02  4.20000000E+01  0.00000000E+00
  3.60000000E+02  4.00000000E+01  0.00000000E+00
  3.60000000E+02  3.80000000E+01  0.00000000E+00
  3.60000000E+02  3.60000000E+01  0.00000000E+00
  3.60000000E+02  3.40000000E+01  0.00000000E+00
  3.60000000E+02  3.20000000E+01  0.00000000E+00
  3.60000000E+02  3.00000000E+01  0.00000000E+00
  3.60000000E+02  2.80000000E+01  0.00000000E+00
  3.60000000E+02  2.60000000E+01  0.00000000E+00
  3.60000000E+02  2.40000000E+01  0.00000000E+00
  3.60000000E+02  2.20000000E+01  0.00000000E+00
  3.60000000E+02  2.00000000E+01  0.00000000E+00
  3.60000000E+02  1.80000000E+01  0.00000000E+00
  3.60000000E+02  1.60000000E+01  0.00000000E+00
  3.60000000E+02  1.40000000E+01  0.00000000E+00
  3.60000000E+02  1.20000000E+01  0.00000000E+00
  3.60000000E+02  1.00000000E+01  0.00000000E+00
  3.60000000E+02  8.00000000E+00  0.00000000E+00
  3.60000000E+02  6.00000000E+00  0.00000000E+00
  3.60000000E+02  4.00000000E+00  0.00000000E+00
  3.60000000E+02  2.00000000E+00  0.00000000E+00
  3.60000000E+02 -3.33066907E-14  0.00000000E+00
  3.70000000E+02  1.00000000E+02  0.00000000E+00
  3.70000000E+02  9.80000000E+01  0.00000000E+00
  3.70000000E+02  9.60000000E+01  0.00000000E+00
  3.70000000E+02  9.40000000E+01  0.00000000E+00
  3.70000000E+02  9.20000000E+01  0.00000000E+00
  3.70000000E+02  9.00000000E+01  0.00000000E+00
  3.70000000E+02  8.80000000E+01  0.00000000E+00
  3.70000000E+02  8.60000000E+01  0.00000000E+00
  3.70000000E+02  8.40000000E+01  0.00000000E+00
  3.70000000E+02  8.20000000E+01  0.00000000E+00
  3.70000000E+02  8.00000000E+01  0.00000000E+00
  3.70000000E+02  7.80000000E+01  0.00000000E+00
  3.70000000E+02  7.60000000E+01  0.00000000E+00
  3.70000000E+02  7.40000000E+01  0.00000000E+00
  3.70000000E+02  7.20000000E+01  0.00000000E+00
  3.70000000E+02  7.00000000E+01  0.00000000E+00
  3.70000000E+02  6.80000000E+01  0.00000000E+00
  3.70000000E+02  6.60000000E+01  0.00000000E+00
  3.70000000E+02  6.40000000E+01  0.00000000E+00
  3.70000000E+02  6.20000000E+01  0.00000000E+00
  3.70000000E+02  6.00000000E+01  0.00000000E+00
  3.70000000E+02  5.80000000E+01  0.00000000E+00
  3.70000000E+02  5.60000000E+01  0.00000000E+00
  3.70000000E+02  5.40000000E+01  0.00000000E+00
  3.70000000E+02  5.20000000E+01  0.00000000E+00
  3.70000000E+02  5.00000000E+01  0.00000000E+00
  3.70000000E+02  4.80000000E+01  0.00000000E+00
  3.70000000E+02  4.60000000E+01  0.00000000E+00
  3.70000000E+02  4.40000000E+01  0.00000000E+00
  3.70000000E+02  4.20000000E+01  0.00000000E+00
  3.70000000E+02  4.00000000E+01  0.00000000E+00
  3.70000000E+02  3.80000000E+01  0.00000000E+00
  3.70000000E+02  3.60000000E+01  0.00000000E+00
  3.70000000E+02  3.40000000E+01  0.00000000E+00
  3.70000000E+02  3.20000000E+01  0.00000000E+00
  3.70000000E+02  3.00000000E+01  0.00000000E+00
  3.70000000E+02  2.80000000E+01  0.00000000E+00
  3.70000000E+02  2.60000000E+01  0.00000000E+00
  3.70000000E+02  2.40000000E+01  0.00000000E+00
  3.70000000E+02  2.20000000E+01  0.00000000E+00
  3.70000000E+02  2.00000000E+01  0.00000000E+00
  3.70000000E+02  1.80000000E+01  0.00000000E+00
  3.70000000E+02  1.60000000E+01  0.00000000E+00
  3.70000000E+02  1.40000000E+01  0.00000000E+00
  3.70000000E+02  1.20000000E+01  0.00000000E+00
  3.70000000E+02  1.00000000E+01  0.00000000E+00
  3.70000000E+02  8.00000000E+00  0.00000000E+00
  3.70000000E+02  6.00000000E+00  0.00000000E+00
  3.70000000E+02  4.00000000E+00  0.00000000E+00
  3.70000000E+02  2.00000000E+00  0.00000000E+00
  3.70000000E+02 -3.33066907E-14  0.00000000E+00
  3.80000000E+02  1.00000000E+02  0.00000000E+00
  3.80000000E+02  9.80000000E+01  0.00000000E+00
  3.80000000E+02  9.60000000E+01  0.00000000E+00
  3.80000000E+02  9.40000000E+01  0.00000000E+00
  3.80000000E+02  9.20000000E+01  0.00000000E+00
  3.80000000E+02  9.00000000E+01  0.00000000E+00
  3.80000000E+02  8.80000000E+01  0.00000000E+00
  3.80000000E+02  8.60000000E+01  0.00000000E+00
  3.80000000E+02  8.40000000E+01  0.00000000E+00
  3.80000000E+02  8.20000000E+01  0.00000000E+00
  3.80000000E+02  8.00000000E+01  0.00000000E+00
  3.80000000E+02  7.80000000E+01  0.00000000E+00
  3.80000000E+02  7.60000000E+01  0.00000000E+00
  3.80000000E+02  7.40000000E+01  0.00000000E+00
  3.80000000E+02  7.20000000E+01  0.00000000E+00
  3.80000000E+02  7.00000000E+01  0.00000000E+00
  3.80000000E+02  6.80000000E+01  0.00000000E+00
  3.80000000E+02  6.60000000E+01  0.00000000E+00
  3.80000000E+02  6.40000000E+01  0.00000000E+00
  3.80000000E+02  6.20000000E+01  0.00000000E+00
  3.80000000E+02  6.00000000E+01  0.00000000E+00
  3.80000000E+02  5.80000000E+01  0.00000000E+00
  3.80000000E+02  5.60000000E+01  0.00000000E+00
  3.80000000E+02  5.40000000E+01  0.00000000E+00
  3.80000000E+02  5.20000000E+01  0.00000000E+00
  3.80000000E+02  5.00000000E+01  0.00000000E+00
  3.80000000E+02  4.80000000E+01  0.00000000E+00
  3.80000000E+02  4.60000000E+01  0.00000000E+00
  3.80000000E+02  4.40000000E+01  0.00000000E+00
  3.80000000E+02  4.20000000E+01  0.00000000E+00
  3.80000000E+02  4.00000000E+01  0.00000000E+00
  3.80000000E+02  3.80000000E+01  0.00000000E+00
  3.80000000E+02  3.60000000E+01  0.00000000E+00
  3.80000000E+02  3.40000000E+01  0.00000000E+00
  3.80000000E+02  3.20000000E+01  0.00000000E+00
  3.80000000E+02  3.00000000E+01  0.00000000E+00
  3.80000000E+02  2.80000000E+01  0.00000000E+00
  3.80000000E+02  2.60000000E+01  0.00000000E+00
  3.80000000E+02  2.40000000E+01  0.00000000E+00
  3.80000000E+02  2.20000000E+01  0.00000000E+00
  3.80000000E+02  2.00000000E+01  0.00000000E+00
  3.80000000E+02  1.80000000E+01  0.00000000E+00
  3.80000000E+02  1.60000000E+01  0.00000000E+00
  3.80000000E+02  1.40000000E+01  0.00000000E+00
  3.80000000E+02  1.20000000E+01  0.00000000E+00
  3.80000000E+02  1.00000000E+01  0.00000000E+00
  3.80000000E+02  8.00000000E+00  0.00000000E+00
  3.80000000E+02  6.00000000E+00  0.00000000E+00
  3.80000000E+02  4.00000000E+00  0.00000000E+00
  3.80000000E+02  2.00000000E+00  0.00000000E+00
  3.80000000E+02 -3.33066907E-14  0.00000000E+00
  3.90000000E+02  1.00000000E+02  0.00000000E+00
  3.90000000E+02  9.80000000E+01  0.00000000E+00
  3.90000000E+02  9.60000000E+01  0.00000000E+00
  3.90000000E+02  9.40000000E+01  0.00000000E+00
  3.90000000E+02  9.20000000E+01  0.00000000E+00
  3.90000000E+02  9.00000000E+01  0.00000000E+00
  3.90000000E+02  8.80000000E+01  0.00000000E+00
  3.90000000E+02  8.60000000E+01  0.00000000E+00
  3.90000000E+02  8.40000000E+01  0.00000000E+00
  3.90000000E+02  8.20000000E+01  0.00000000E+00
  3.90000000E+02  8.00000000E+01  0.00000000E+00
  3.90000000E+02  7.80000000E+01  0.00000000E+00
  3.90000000E+02  7.60000000E+01  0.00000000E+00
  3.90000000E+02  7.40000000E+01  0.00000000E+00
  3.90000000E+02  7.20000000E+01  0.00000000E+00
  3.90000000E+02  7.00000000E+01  0.00000000E+00
  3.90000000E+02  6.80000000E+01  0.00000000E+00
  3.90000000E+02  6.60000000E+01  0.00000000E+00
  3.90000000E+02  6.40000000E+01  0.00000000E+00
  3.90000000E+02  6.20000000E+01  0.00000000E+00
  3.90000000E+02  6.00000000E+01  0.00000000E+00
  3.90000000E+02  5.80000000E+01  0.00000000E+00
  3.90000000E+02  5.60000000E+01  0.00000000E+00
  3.90000000E+02  5.40000000E+01  0.00000000E+00
  3.90000000E+02  5.20000000E+01  0.00000000E+00
  3.90000000E+02  5.00000000E+01  0.00000000E+00
  3.90000000E+02  4.80000000E+01  0.00000000E+00
  3.90000000E+02  4.60000000E+01  0.00000000E+00
  3.90000000E+02  4.40000000E+01  0.00000000E+00
  3.90000000E+02  4.20000000E+01  0.00000000E+00
  3.90000000E+02  4.00000000E+01  0.00000000E+00
  3.90000000E+02  3.80000000E+01  0.00000000E+00
  3.90000000E+02  3.60000000E+01  0.00000000E+00
  3.90000000E+02  3.40000000E+01  0.00000000E+00
  3.90000000E+02  3.20000000E+01  0.00000000E+00
  3.90000000E+02  3.00000000E+01  0.00000000E+00
  3.90000000E+02  2.80000000E+01  0.00000000E+00
  3.90000000E+02  2.60000000E+01  0.00000000E+00
  3.90000000E+02  2.40000000E+01  0.00000000E+00
  3.90000000E+02  2.20000000E+01  0.00000000E+00
  3.90000000E+02  2.00000000E+01  0.00000000E+00
  3.90000000E+02  1.80000000E+01  0.00000000E+00
  3.90000000E+02  1.60000000E+01  0.00000000E+00
  3.90000000E+02  1.40000000E+01  0.00000000E+00
  3.90000000E+02  1.20000000E+01  0.00000000E+00
  3.90000000E+02  1.00000000E+01  0.00000000E+00
  3.90000000E+02  8.00000000E+00  0.00000000E+00
  3.90000000E+02  6.00000000E+00  0.00000000E+00
  3.90000000E+02  4.00000000E+00  0.00000000E+00
  3.90000000E+02  2.00000000E+00  0.00000000E+00
  3.90000000E+02 -3.33066907E-14  0.00000000E+00
  4.00000000E+02  1.00000000E+02  0.00000000E+00
  4.00000000E+02  9.80000000E+01  0.00000000E+00
  4.00000000E+02  9.60000000E+01  0.00000000E+00
  4.00000000E+02  9.40000000E+01  0.00000000E+00
  4.00000000E+02  9.20000000E+01  0.00000000E+00
  4.00000000E+02  9.00000000E+01  0.00000000E+00
  4.00000000E+02  8.80000000E+01  0.00000000E+00
  4.00000000E+02  8.60000000E+01  0.00000000E+00
  4.00000000E+02  8.40000000E+01  0.00000000E+00
  4.00000000E+02  8.20000000E+01  0.00000000E+00
  4.00000000E+02  8.00000000E+01  0.00000000E+00
  4.00000000E+02  7.80000000E+01  0.00000000E+00
  4.00000000E+02  7.60000000E+01  0.00000000E+00
  4.00000000E+02  7.40000000E+01  0.00000000E+00
  4.00000000E+02  7.20000000E+01  0.00000000E+00
  4.00000000E+02  7.00000000E+01  0.00000000E+00
  4.00000000E+02  6.80000000E+01  0.00000000E+00
  4.00000000E+02  6.60000000E+01  0.00000000E+00
  4.00000000E+02  6.40000000E+01  0.00000000E+00
  4.00000000E+02  6.20000000E+01  0.00000000E+00
  4.00000000E+02  6.00000000E+01  0.00000000E+00
  4.00000000E+02  5.80000000E+01  0.00000000E+00
  4.00000000E+02  5.60000000E+01  0.00000000E+00
  4.00000000E+02  5.40000000E+01  0.00000000E+00
  4.00000000E+02  5.20000000E+01  0.00000000E+00
  4.00000000E+02  5.00000000E+01  0.00000000E+00
  4.00000000E+02  4.80000000E+01  0.00000000E+00
  4.00000000E+02  4.60000000E+01  0.00000000E+00
  4.00000000E+02  4.40000000E+01  0.00000000E+00
  4.00000000E+02  4.20000000E+01  0.00000000E+00
  4.00000000E+02  4.00000000E+01  0.00000000E+00
  4.00000000E+02  3.80000000E+01  0.00000000E+00
  4.00000000E+02  3.60000000E+01  0.00000000E+00
  4.00000000E+02  3.40000000E+01  0.00000000E+00
  4.00000000E+02  3.20000000E+01  0.00000000E+00
  4.00000000E+02  3.00000000E+01  0.00000000E+00
  4.00000000E+02  2.80000000E+01  0.00000000E+00
  4.00000000E+02  2.60000000E+01  0.00000000E+00
  4.00000000E+02  2.40000000E+01  0.00000000E+00
  4.00000000E+02  2.20000000E+01  0.00000000E+00
  4.00000000E+02  2.00000000E+01  0.00000000E+00
  4.00000000E+02  1.80000000E+01  0.00000000E+00
  4.00000000E+02  1.60000000E+01  0.00000000E+00
  4.00000000E+02  1.40000000E+01  0.00000000E+00
  4.00000000E+02  1.20000000E+01  0.00000000E+00
  4.00000000E+02  1.00000000E+01  0.00000000E+00
  4.00000000E+02  8.00000000E+00  0.00000000E+00
  4.00000000E+02  6.00000000E+00  0.00000000E+00
  4.00000000E+02  4.00000000E+00  0.00000000E+00
  4.00000000E+02  2.00000000E+00  0.00000000E+00
  4.00000000E+02 -3.33066907E-14  0.00000000E+00
  4.10000000E+02  1.00000000E+02  0.00000000E+00
  4.10000000E+02  9.80000000E+01  0.00000000E+00
  4.10000000E+02  9.60000000E+01  0.00000000E+00
  4.10000000E+02  9.40000000E+01  0.00000000E+00
  4.10000000E+02  9.20000000E+01  0.00000000E+00
  4.10000000E+02  9.00000000E+01  0.00000000E+00
  4.10000000E+02  8.80000000E+01  0.00000000E+00
  4.10000000E+02  8.60000000E+01  0.00000000E+00
  4.10000000E+02  8.40000000E+01  0.00000000E+00
  4.10000000E+02  8.20000000E+01  0.00000000E+00
  4.10000000E+02  8.00000000E+01  0.00000000E+00
  4.10000000E+02  7.80000000E+01  0.00000000E+00
  4.10000000E+02  7.60000000E+01  0.00000000E+00
  4.10000000E+02  7.40000000E+01  0.00000000E+00
  4.10000000E+02  7.20000000E+01  0.00000000E+00
  4.10000000E+02  7.00000000E+01  0.00000000E+00
  4.10000000E+02  6.80000000E+01  0.00000000E+00
  4.10000000E+02  6.60000000E+01  0.00000000E+00
  4.10000000E+02  6.40000000E+01  0.00000000E+00
  4.10000000E+02  6.20000000E+01  0.00000000E+00
  4.10000000E+02  6.00000000E+01  0.00000000E+00
  4.10000000E+02  5.80000000E+01  0.00000000E+00
  4.10000000E+02  5.60000000E+01  0.00000000E+00
  4.10000000E+02  5.40000000E+01  0.00000000E+00
  4.10000000E+02  5.20000000E+01  0.00000000E+00
  4.10000000E+02  5.00000000E+01  0.00000000E+00
  4.10000000E+02  4.80000000E+01  0.00000000E+00
  4.10000000E+02  4.60000000E+01  0.00000000E+00
  4.10000000E+02  4.40000000E+01  0.00000000E+00
  4.10000000E+02  4.20000000E+01  0.00000000E+00
  4.10000000E+02  4.00000000E+01  0.00000000E+00
  4.10000000E+02  3.80000000E+01  0.00000000E+00
  4.10000000E+02  3.60000000E+01  0.00000000E+00
  4.10000000E+02  3.40000000E+01  0.00000000E+00
  4.10000000E+02  3.20000000E+01  0.00000000E+00
  4.10000000E+02  3.00000000E+01  0.00000000E+00
  4.10000000E+02  2.80000000E+01  0.00000000E+00
  4.10000000E+02  2.60000000E+01  0.00000000E+00
  4.10000000E+02  2.40000000E+01  0.00000000E+00
  4.10000000E+02  2.20000000E+01  0.00000000E+00
  4.10000000E+02  2.00000000E+01  0.00000000E+00
  4.10000000E+02  1.80000000E+01  0.00000000E+00
  4.10000000E+02  1.60000000E+01  0.00000000E+00
  4.10000000E+02  1.40000000E+01  0.00000000E+00
  4.10000000E+02  1.20000000E+01  0.00000000E+00
  4.10000000E+02  1.00000000E+01  0.00000000E+00
  4.10000000E+02  8.00000000E+00  0.00000000E+00
  4.10000000E+02  6.00000000E+00  0.00000000E+00
  4.10000000E+02  4.00000000E+00  0.00000000E+00
  4.10000000E+02  2.00000000E+00  0.00000000E+00
  4.10000000E+02 -3.33066907E-14  0.00000000E+00
  4.20000000E+02  1.00000000E+02  0.00000000E+00
  4.20000000E+02  9.80000000E+01  0.00000000E+00
  4.20000000E+02  9.60000000E+01  0.00000000E+00
  4.20000000E+02  9.40000000E+01  0.00000000E+00
  4.20000000E+02  9.20000000E+01  0.00000000E+00
  4.20000000E+02  9.00000000E+01  0.00000000E+00
  4.20000000E+02  8.80000000E+01  0.00000000E+00
  4.20000000E+02  8.60000000E+01  0.00000000E+00
  4.20000000E+02  8.40000000E+01  0.00000000E+00
  4.20000000E+02  8.20000000E+01  0.00000000E+00
  4.20000000E+02  8.00000000E+01  0.00000000E+00
  4.20000000E+02  7.80000000E+01  0.00000000E+00
  4.20000000E+02  7.60000000E+01  0.00000000E+00
  4.20000000E+02  7.40000000E+01  0.00000000E+00
  4.20000000E+02  7.20000000E+01  0.00000000E+00
  4.20000000E+02  7.00000000E+01  0.00000000E+00
  4.20000000E+02  6.80000000E+01  0.00000000E+00
  4.20000000E+02  6.60000000E+01  0.00000000E+00
  4.20000000E+02  6.40000000E+01  0.00000000E+00
  4.20000000E+02  6.20000000E+01  0.00000000E+00
  4.20000000E+02  6.00000000E+01  0.00000000E+00
  4.20000000E+02  5.80000000E+01  0.00000000E+00
  4.20000000E+02  5.60000000E+01  0.00000000E+00
  4.20000000E+02  5.40000000E+01  0.00000000E+00
  4.20000000E+02  5.20000000E+01  0.00000000E+00
  4.20000000E+02  5.00000000E+01  0.00000000E+00
  4.20000000E+02  4.80000000E+01  0.00000000E+00
  4.20000000E+02  4.60000000E+01  0.00000000E+00
  4.20000000E+02  4.40000000E+01  0.00000000E+00
  4.20000000E+02  4.20000000E+01  0.00000000E+00
  4.20000000E+02  4.00000000E+01  0.00000000E+00
  4.20000000E+02  3.80000000E+01  0.00000000E+00
  4.20000000E+02  3.60000000E+01  0.00000000E+00
  4.20000000E+02  3.40000000E+01  0.00000000E+00
  4.20000000E+02  3.20000000E+01  0.00000000E+00
  4.20000000E+02  3.00000000E+01  0.00000000E+00
  4.20000000E+02  2.80000000E+01  0.00000000E+00
  4.20000000E+02  2.60000000E+01  0.00000000E+00
  4.20000000E+02  2.40000000E+01  0.00000000E+00
  4.20000000E+02  2.20000000E+01  0.00000000E+00
  4.20000000E+02  2.00000000E+01  0.00000000E+00
  4.20000000E+02  1.80000000E+01  0.00000000E+00
  4.20000000E+02  1.60000000E+01  0.00000000E+00
  4.20000000E+02  1.40000000E+01  0.00000000E+00
  4.20000000E+02  1.20000000E+01  0.00000000E+00
  4.20000000E+02  1.00000000E+01  0.00000000E+00
  4.20000000E+02  8.00000000E+00  0.00000000E+00
  4.20000000E+02  6.00000000E+00  0.00000000E+00
  4.20000000E+02  4.00000000E+00  0.00000000E+00
  4.20000000E+02  2.00000000E+00  0.00000000E+00
  4.20000000E+02 -3.33066907E-14  0.00000000E+00
  4.30000000E+02  1.00000000E+02  0.00000000E+00
  4.30000000E+02  9.80000000E+01  0.00000000E+00
  4.30000000E+02  9.60000000E+01  0.00000000E+00
  4.30000000E+02  9.40000000E+01  0.00000000E+00
  4.30000000E+02  9.20000000E+01  0.00000000E+00
  4.30000000E+02  9.00000000E+01  0.00000000E+00
  4.30000000E+02  8.80000000E+01  0.00000000E+00
  4.30000000E+02  8.60000000E+01  0.00000000E+00
  4.30000000E+02  8.40000000E+01  0.00000000E+00
  4.30000000E+02  8.20000000E+01  0.00000000E+00
  4.30000000E+02  8.00000000E+01  0.00000000E+00
  4.30000000E+02  7.80000000E+01  0.00000000E+00
  4.30000000E+02  7.60000000E+01  0.00000000E+00
  4.30000000E+02  7.40000000E+01  0.00000000E+00
  4.30000000E+02  7.20000000E+01  0.00000000E+00
  4.30000000E+02  7.00000000E+01  0.00000000E+00
  4.30000000E+02  6.80000000E+01  0.00000000E+00
  4.30000000E+02  6.60000000E+01  0.00000000E+00
  4.30000000E+02  6.40000000E+01  0.00000000E+00
  4.30000000E+02  6.20000000E+01  0.00000000E+00
  4.30000000E+02  6.00000000E+01  0.00000000E+00
  4.30000000E+02  5.80000000E+01  0.00000000E+00
  4.30000000E+02  5.60000000E+01  0.00000000E+00
  4.30000000E+02  5.40000000E+01  0.00000000E+00
  4.30000000E+02  5.20000000E+01  0.00000000E+00
  4.30000000E+02  5.00000000E+01  0.00000000E+00
  4.30000000E+02  4.80000000E+01  0.00000000E+00
  4.30000000E+02  4.60000000E+01  0.00000000E+00
  4.30000000E+02  4.40000000E+01  0.00000000E+00
  4.30000000E+02  4.20000000E+01  0.00000000E+00
  4.30000000E+02  4.00000000E+01  0.00000000E+00
  4.30000000E+02  3.80000000E+01  0.00000000E+00
  4.30000000E+02  3.60000000E+01  0.00000000E+00
  4.30000000E+02  3.40000000E+01  0.00000000E+00
  4.30000000E+02  3.20000000E+01  0.00000000E+00
  4.30000000E+02  3.00000000E+01  0.00000000E+00
  4.30000000E+02  2.80000000E+01  0.00000000E+00
  4.30000000E+02  2.60000000E+01  0.00000000E+00
  4.30000000E+02  2.40000000E+01  0.00000000E+00
  4.30000000E+02  2.20000000E+01  0.00000000E+00
  4.30000000E+02  2.00000000E+01  0.00000000E+00
  4.30000000E+02  1.80000000E+01  0.00000000E+00
  4.30000000E+02  1.60000000E+01  0.00000000E+00
  4.30000000E+02  1.40000000E+01  0.00000000E+00
  4.30000000E+02  1.20000000E+01  0.00000000E+00
  4.30000000E+02  1.00000000E+01  0.00000000E+00
  4.30000000E+02  8.00000000E+00  0.00000000E+00
  4.30000000E+02  6.00000000E+00  0.00000000E+00
  4.30000000E+02  4.00000000E+00  0.00000000E+00
  4.30000000E+02  2.00000000E+00  0.00000000E+00
  4.30000000E+02 -3.33066907E-14  0.00000000E+00
  4.40000000E+02  1.00000000E+02  0.00000000E+00
  4.40000000E+02  9.80000000E+01  0.00000000E+00
  4.40000000E+02  9.60000000E+01  0.00000000E+00
  4.40000000E+02  9.40000000E+01  0.00000000E+00
  4.40000000E+02  9.20000000E+01  0.00000000E+00
  4.40000000E+02  9.00000000E+01  0.00000000E+00
  4.40000000E+02  8.80000000E+01  0.00000000E+00
  4.40000000E+02  8.60000000E+01  0.00000000E+00
  4.40000000E+02  8.40000000E+01  0.00000000E+00
  4.40000000E+02  8.20000000E+01  0.00000000E+00
  4.40000000E+02  8.00000000E+01  0.00000000E+00
  4.40000000E+02  7.80000000E+01  0.00000000E+00
  4.40000000E+02  7.60000000E+01  0.00000000E+00
  4.40000000E+02  7.40000000E+01  0.00000000E+00
  4.40000000E+02  7.20000000E+01  0.00000000E+00
  4.40000000E+02  7.00000000E+01  0.00000000E+00
  4.40000000E+02  6.80000000E+01  0.00000000E+00
  4.40000000E+02  6.60000000E+01  0.00000000E+00
  4.40000000E+02  6.40000000E+01  0.00000000E+00
  4.40000000E+02  6.20000000E+01  0.00000000E+00
  4.40000000E+02  6.00000000E+01  0.00000000E+00
  4.40000000E+02  5.80000000E+01  0.00000000E+00
  4.40000000E+02  5.60000000E+01  0.00000000E+00
  4.40000000E+02  5.40000000E+01  0.00000000E+00
  4.40000000E+02  5.20000000E+01  0.00000000E+00
  4.40000000E+02  5.00000000E+01  0.00000000E+00
  4.40000000E+02  4.80000000E+01  0.00000000E+00
  4.40000000E+02  4.60000000E+01  0.00000000E+00
  4.40000000E+02  4.40000000E+01  0.00000000E+00
  4.40000000E+02  4.20000000E+01  0.00000000E+00
  4.40000000E+02  4.00000000E+01  0.00000000E+00
  4.40000000E+02  3.80000000E+01  0.00000000E+00
  4.40000000E+02  3.60000000E+01  0.00000000E+00
  4.40000000E+02  3.40000000E+01  0.00000000E+00
  4.40000000E+02  3.20000000E+01  0.00000000E+00
  4.40000000E+02  3.00000000E+01  0.00000000E+00
  4.40000000E+02  2.80000000E+01  0.00000000E+00
  4.40000000E+02  2.60000000E+01  0.00000000E+00
  4.40000000E+02  2.40000000E+01  0.00000000E+00
  4.40000000E+02  2.20000000E+01  0.00000000E+00
  4.40000000E+02  2.00000000E+01  0.00000000E+00
  4.40000000E+02  1.80000000E+01  0.00000000E+00
  4.40000000E+02  1.60000000E+01  0.00000000E+00
  4.40000000E+02  1.40000000E+01  0.00000000E+00
  4.40000000E+02  1.20000000E+01  0.00000000E+00
  4.40000000E+02  1.00000000E+01  0.00000000E+00
  4.40000000E+02  8.00000000E+00  0.00000000E+00
  4.40000000E+02  6.00000000E+00  0.00000000E+00
  4.40000000E+02  4.00000000E+00  0.00000000E+00
  4.40000000E+02  2.00000000E+00  0.00000000E+00
  4.40000000E+02 -3.33066907E-14  0.00000000E+00
  4.50000000E+02  1.00000000E+02  0.00000000E+00
  4.50000000E+02  9.80000000E+01  0.00000000E+00
  4.50000000E+02  9.60000000E+01  0.00000000E+00
  4.50000000E+02  9.40000000E+01  0.00000000E+00
  4.50000000E+02  9.20000000E+01  0.00000000E+00
  4.50000000E+02  9.00000000E+01  0.00000000E+00
  4.50000000E+02  8.80000000E+01  0.00000000E+00
  4.50000000E+02  8.60000000E+01  0.00000000E+00
  4.50000000E+02  8.40000000E+01  0.00000000E+00
  4.50000000E+02  8.20000000E+01  0.00000000E+00
  4.50000000E+02  8.00000000E+01  0.00000000E+00
  4.50000000E+02  7.80000000E+01  0.00000000E+00
  4.50000000E+02  7.60000000E+01  0.00000000E+00
  4.50000000E+02  7.40000000E+01  0.00000000E+00
  4.50000000E+02  7.20000000E+01  0.00000000E+00
  4.50000000E+02  7.00000000E+01  0.00000000E+00
  4.50000000E+02  6.80000000E+01  0.00000000E+00
  4.50000000E+02  6.60000000E+01  0.00000000E+00
  4.50000000E+02  6.40000000E+01  0.00000000E+00
  4.50000000E+02  6.20000000E+01  0.00000000E+00
  4.50000000E+02  6.00000000E+01  0.00000000E+00
  4.50000000E+02  5.80000000E+01  0.00000000E+00
  4.50000000E+02  5.60000000E+01  0.00000000E+00
  4.50000000E+02  5.40000000E+01  0.00000000E+00
  4.50000000E+02  5.20000000E+01  0.00000000E+00
  4.50000000E+02  5.00000000E+01  0.00000000E+00
  4.50000000E+02  4.80000000E+01  0.00000000E+00
  4.50000000E+02  4.60000000E+01  0.00000000E+00
  4.50000000E+02  4.40000000E+01  0.00000000E+00
  4.50000000E+02  4.20000000E+01  0.00000000E+00
  4.50000000E+02  4.00000000E+01  0.00000000E+00
  4.50000000E+02  3.80000000E+01  0.00000000E+00
  4.50000000E+02  3.60000000E+01  0.00000000E+00
  4.50000000E+02  3.40000000E+01  0.00000000E+00
  4.50000000E+02  3.20000000E+01  0.00000000E+00
  4.50000000E+02  3.00000000E+01  0.00000000E+00
  4.50000000E+02  2.80000000E+01  0.00000000E+00
  4.50000000E+02  2.60000000E+01  0.00000000E+00
  4.50000000E+02  2.40000000E+01  0.00000000E+00
  4.50000000E+02  2.20000000E+01  0.00000000E+00
  4.50000000E+02  2.00000000E+01  0.00000000E+00
  4.50000000E+02  1.80000000E+01  0.00000000E+00
  4.50000000E+02  1.60000000E+01  0.00000000E+00
  4.50000000E+02  1.40000000E+01  0.00000000E+00
  4.50000000E+02  1.20000000E+01  0.00000000E+00
  4.50000000E+02  1.00000000E+01  0.00000000E+00
  4.50000000E+02  8.00000000E+00  0.00000000E+00
  4.50000000E+02  6.00000000E+00  0.00000000E+00
  4.50000000E+02  4.00000000E+00  0.00000000E+00
  4.50000000E+02  2.00000000E+00  0.00000000E+00
  4.50000000E+02 -3.33066907E-14  0.00000000E+00
  4.60000000E+02  1.00000000E+02  0.00000000E+00
  4.60000000E+02  9.80000000E+01  0.00000000E+00
  4.60000000E+02  9.60000000E+01  0.00000000E+00
  4.60000000E+02  9.40000000E+01  0.00000000E+00
  4.60000000E+02  9.20000000E+01  0.00000000E+00
  4.60000000E+02  9.00000000E+01  0.00000000E+00
  4.60000000E+02  8.80000000E+01  0.00000000E+00
  4.60000000E+02  8.60000000E+01  0.00000000E+00
  4.60000000E+02  8.40000000E+01  0.00000000E+00
  4.60000000E+02  8.20000000E+01  0.00000000E+00
  4.60000000E+02  8.00000000E+01  0.00000000E+00
  4.60000000E+02  7.80000000E+01  0.00000000E+00
  4.60000000E+02  7.60000000E+01  0.00000000E+00
  4.60000000E+02  7.40000000E+01  0.00000000E+00
  4.60000000E+02  7.20000000E+01  0.00000000E+00
  4.60000000E+02  7.00000000E+01  0.00000000E+00
  4.60000000E+02  6.80000000E+01  0.00000000E+00
  4.60000000E+02  6.60000000E+01  0.00000000E+00
  4.60000000E+02  6.40000000E+01  0.00000000E+00
  4.60000000E+02  6.20000000E+01  0.00000000E+00
  4.60000000E+02  6.00000000E+01  0.00000000E+00
  4.60000000E+02  5.80000000E+01  0.00000000E+00
  4.60000000E+02  5.60000000E+01  0.00000000E+00
  4.60000000E+02  5.40000000E+01  0.00000000E+00
  4.60000000E+02  5.20000000E+01  0.00000000E+00
  4.60000000E+02  5.00000000E+01  0.00000000E+00
  4.60000000E+02  4.80000000E+01  0.00000000E+00
  4.60000000E+02  4.60000000E+01  0.00000000E+00
  4.60000000E+02  4.40000000E+01  0.00000000E+00
  4.60000000E+02  4.20000000E+01  0.00000000E+00
  4.60000000E+02  4.00000000E+01  0.00000000E+00
  4.60000000E+02  3.80000000E+01  0.00000000E+00
  4.60000000E+02  3.60000000E+01  0.00000000E+00
  4.60000000E+02  3.40000000E+01  0.00000000E+00
  4.60000000E+02  3.20000000E+01  0.00000000E+00
  4.60000000E+02  3.00000000E+01  0.00000000E+00
  4.60000000E+02  2.80000000E+01  0.00000000E+00
  4.60000000E+02  2.60000000E+01  0.00000000E+00
  4.60000000E+02  2.40000000E+01  0.00000000E+00
  4.60000000E+02  2.20000000E+01  0.00000000E+00
  4.60000000E+02  2.00000000E+01  0.00000000E+00
  4.60000000E+02  1.80000000E+01  0.00000000E+00
  4.60000000E+02  1.60000000E+01  0.00000000E+00
  4.60000000E+02  1.40000000E+01  0.00000000E+00
  4.60000000E+02  1.20000000E+01  0.00000000E+00
  4.60000000E+02  1.00000000E+01  0.00000000E+00
  4.60000000E+02  8.00000000E+00  0.00000000E+00
  4.60000000E+02  6.00000000E+00  0.00000000E+00
  4.60000000E+02  4.00000000E+00  0.00000000E+00
  4.60000000E+02  2.00000000E+00  0.00000000E+00
  4.60000000E+02 -3.33066907E-14  0.00000000E+00
  4.70000000E+02  1.00000000E+02  0.00000000E+00
  4.70000000E+02  9.80000000E+01  0.00000000E+00
  4.70000000E+02  9.60000000E+01  0.00000000E+00
  4.70000000E+02  9.40000000E+01  0.00000000E+00
  4.70000000E+02  9.20000000E+01  0.00000000E+00
  4.70000000E+02  9.00000000E+01  0.00000000E+00
  4.70000000E+02  8.80000000E+01  0.00000000E+00
  4.70000000E+02  8.60000000E+01  0.00000000E+00
  4.70000000E+02  8.40000000E+01  0.00000000E+00
  4.70000000E+02  8.20000000E+01  0.00000000E+00
  4.70000000E+02  8.00000000E+01  0.00000000E+00
  4.70000000E+02  7.80000000E+01  0.00000000E+00
  4.70000000E+02  7.60000000E+01  0.00000000E+00
  4.70000000E+02  7.40000000E+01  0.00000000E+00
  4.70000000E+02  7.20000000E+01  0.00000000E+00
  4.70000000E+02  7.00000000E+01  0.00000000E+00
  4.70000000E+02  6.80000000E+01  0.00000000E+00
  4.70000000E+02  6.60000000E+01  0.00000000E+00
  4.70000000E+02  6.40000000E+01  0.00000000E+00
  4.70000000E+02  6.20000000E+01  0.00000000E+00
  4.70000000E+02  6.00000000E+01  0.00000000E+00
  4.70000000E+02  5.80000000E+01  0.00000000E+00
  4.70000000E+02  5.60000000E+01  0.00000000E+00
  4.70000000E+02  5.40000000E+01  0.00000000E+00
  4.70000000E+02  5.20000000E+01  0.00000000E+00
  4.70000000E+02  5.00000000E+01  0.00000000E+00
  4.70000000E+02  4.80000000E+01  0.00000000E+00
  4.70000000E+02  4.60000000E+01  0.00000000E+00
  4.70000000E+02  4.40000000E+01  0.00000000E+00
  4.70000000E+02  4.20000000E+01  0.00000000E+00
  4.70000000E+02  4.00000000E+01  0.00000000E+00
  4.70000000E+02  3.80000000E+01  0.00000000E+00
  4.70000000E+02  3.60000000E+01  0.00000000E+00
  4.70000000E+02  3.40000000E+01  0.00000000E+00
  4.70000000E+02  3.20000000E+01  0.00000000E+00
  4.70000000E+02  3.00000000E+01  0.00000000E+00
  4.70000000E+02  2.80000000E+01  0.00000000E+00
  4.70000000E+02  2.60000000E+01  0.00000000E+00
  4.70000000E+02  2.40000000E+01  0.00000000E+00
  4.70000000E+02  2.20000000E+01  0.00000000E+00
  4.70000000E+02  2.00000000E+01  0.00000000E+00
  4.70000000E+02  1.80000000E+01  0.00000000E+00
  4.70000000E+02  1.60000000E+01  0.00000000E+00
  4.70000000E+02  1.40000000E+01  0.00000000E+00
  4.70000000E+02  1.20000000E+01  0.00000000E+00
  4.70000000E+02  1.00000000E+01  0.00000000E+00
  4.70000000E+02  8.00000000E+00  0.00000000E+00
  4.70000000E+02  6.00000000E+00  0.00000000E+00
  4.70000000E+02  4.00000000E+00  0.00000000E+00
  4.70000000E+02  2.00000000E+00  0.00000000E+00
  4.70000000E+02 -3.33066907E-14  0.00000000E+00
  4.80000000E+02  1.00000000E+02  0.00000000E+00
  4.80000000E+02  9.80000000E+01  0.00000000E+00
  4.80000000E+02  9.60000000E+01  0.00000000E+00
  4.80000000E+02  9.40000000E+01  0.00000000E+00
  4.80000000E+02  9.20000000E+01  0.00000000E+00
  4.80000000E+02  9.00000000E+01  0.00000000E+00
  4.80000000E+02  8.80000000E+01  0.00000000E+00
  4.80000000E+02  8.60000000E+01  0.00000000E+00
  4.80000000E+02  8.40000000E+01  0.00000000E+00
  4.80000000E+02  8.20000000E+01  0.00000000E+00
  4.80000000E+02  8.00000000E+01  0.00000000E+00
  4.80000000E+02  7.80000000E+01  0.00000000E+00
  4.80000000E+02  7.60000000E+01  0.00000000E+00
  4.80000000E+02  7.40000000E+01  0.00000000E+00
  4.80000000E+02  7.20000000E+01  0.00000000E+00
  4.80000000E+02  7.00000000E+01  0.00000000E+00
  4.80000000E+02  6.80000000E+01  0.00000000E+00
  4.80000000E+02  6.60000000E+01  0.00000000E+00
  4.80000000E+02  6.40000000E+01  0.00000000E+00
  4.80000000E+02  6.20000000E+01  0.00000000E+00
  4.80000000E+02  6.00000000E+01  0.00000000E+00
  4.80000000E+02  5.80000000E+01  0.00000000E+00
  4.80000000E+02  5.60000000E+01  0.00000000E+00
  4.80000000E+02  5.40000000E+01  0.00000000E+00
  4.80000000E+02  5.20000000E+01  0.00000000E+00
  4.80000000E+02  5.00000000E+01  0.00000000E+00
  4.80000000E+02  4.80000000E+01  0.00000000E+00
  4.80000000E+02  4.60000000E+01  0.00000000E+00
  4.80000000E+02  4.40000000E+01  0.00000000E+00
  4.80000000E+02  4.20000000E+01  0.00000000E+00
  4.80000000E+02  4.00000000E+01  0.00000000E+00
  4.80000000E+02  3.80000000E+01  0.00000000E+00
  4.80000000E+02  3.60000000E+01  0.00000000E+00
  4.80000000E+02  3.40000000E+01  0.00000000E+00
  4.80000000E+02  3.20000000E+01  0.00000000E+00
  4.80000000E+02  3.00000000E+01  0.00000000E+00
  4.80000000E+02  2.80000000E+01  0.00000000E+00
  4.80000000E+02  2.60000000E+01  0.00000000E+00
  4.80000000E+02  2.40000000E+01  0.00000000E+00
  4.80000000E+02  2.20000000E+01  0.00000000E+00
  4.80000000E+02  2.00000000E+01  0.00000000E+00
  4.80000000E+02  1.80000000E+01  0.00000000E+00
  4.80000000E+02  1.60000000E+01  0.00000000E+00
  4.80000000E+02  1.40000000E+01  0.00000000E+00
  4.80000000E+02  1.20000000E+01  0.00000000E+00
  4.80000000E+02  1.00000000E+01  0.00000000E+00
  4.80000000E+02  8.00000000E+00  0.00000000E+00
  4.80000000E+02  6.00000000E+00  0.00000000E+00
  4.80000000E+02  4.00000000E+00  0.00000000E+00
  4.80000000E+02  2.00000000E+00  0.00000000E+00
  4.80000000E+02 -3.33066907E-14  0.00000000E+00
  4.90000000E+02  1.00000000E+02  0.00000000E+00
  4.90000000E+02  9.80000000E+01  0.00000000E+00
  4.90000000E+02  9.60000000E+01  0.00000000E+00
  4.90000000E+02  9.40000000E+01  0.00000000E+00
  4.90000000E+02  9.20000000E+01  0.00000000E+00
  4.90000000E+02  9.00000000E+01  0.00000000E+00
  4.90000000E+02  8.80000000E+01  0.00000000E+00
  4.90000000E+02  8.60000000E+01  0.00000000E+00
  4.90000000E+02  8.40000000E+01  0.00000000E+00
  4.90000000E+02  8.20000000E+01  0.00000000E+00
  4.90000000E+02  8.00000000E+01  0.00000000E+00
  4.90000000E+02  7.80000000E+01  0.00000000E+00
  4.90000000E+02  7.60000000E+01  0.00000000E+00
  4.90000000E+02  7.40000000E+01  0.00000000E+00
  4.90000000E+02  7.20000000E+01  0.00000000E+00
  4.90000000E+02  7.00000000E+01  0.00000000E+00
  4.90000000E+02  6.80000000E+01  0.00000000E+00
  4.90000000E+02  6.60000000E+01  0.00000000E+00
  4.90000000E+02  6.40000000E+01  0.00000000E+00
  4.90000000E+02  6.20000000E+01  0.00000000E+00
  4.90000000E+02  6.00000000E+01  0.00000000E+00
  4.90000000E+02  5.80000000E+01  0.00000000E+00
  4.90000000E+02  5.60000000E+01  0.00000000E+00
  4.90000000E+02  5.40000000E+01  0.00000000E+00
  4.90000000E+02  5.20000000E+01  0.00000000E+00
  4.90000000E+02  5.00000000E+01  0.00000000E+00
  4.90000000E+02  4.80000000E+01  0.00000000E+00
  4.90000000E+02  4.60000000E+01  0.00000000E+00
  4.90000000E+02  4.40000000E+01  0.00000000E+00
  4.90000000E+02  4.20000000E+01  0.00000000E+00
  4.90000000E+02  4.00000000E+01  0.00000000E+00
  4.90000000E+02  3.80000000E+01  0.00000000E+00
  4.90000000E+02  3.60000000E+01  0.00000000E+00
  4.90000000E+02  3.40000000E+01  0.00000000E+00
  4.90000000E+02  3.20000000E+01  0.00000000E+00
  4.90000000E+02  3.00000000E+01  0.00000000E+00
  4.90000000E+02  2.80000000E+01  0.00000000E+00
  4.90000000E+02  2.60000000E+01  0.00000000E+00
  4.90000000E+02  2.40000000E+01  0.00000000E+00
  4.90000000E+02  2.20000000E+01  0.00000000E+00
  4.90000000E+02  2.00000000E+01  0.00000000E+00
  4.90000000E+02  1.80000000E+01  0.00000000E+00
  4.90000000E+02  1.60000000E+01  0.00000000E+00
  4.90000000E+02  1.40000000E+01  0.00000000E+00
  4.90000000E+02  1.20000000E+01  0.00000000E+00
  4.90000000E+02  1.00000000E+01  0.00000000E+00
  4.90000000E+02  8.00000000E+00  0.00000000E+00
  4.90000000E+02  6.00000000E+00  0.00000000E+00
  4.90000000E+02  4.00000000E+00  0.00000000E+00
  4.90000000E+02  2.00000000E+00  0.00000000E+00
  4.90000000E+02 -3.33066907E-14  0.00000000E+00
  5.00000000E+02  1.00000000E+02  0.00000000E+00
  5.00000000E+02  9.80000000E+01  0.00000000E+00
  5.00000000E+02  9.60000000E+01  0.00000000E+00
  5.00000000E+02  9.40000000E+01  0.00000000E+00
  5.00000000E+02  9.20000000E+01  0.00000000E+00
  5.00000000E+02  9.00000000E+01  0.00000000E+00
  5.00000000E+02  8.80000000E+01  0.00000000E+00
  5.00000000E+02  8.60000000E+01  0.00000000E+00
  5.00000000E+02  8.40000000E+01  0.00000000E+00
  5.00000000E+02  8.20000000E+01  0.00000000E+00
  5.00000000E+02  8.00000000E+01  0.00000000E+00
  5.00000000E+02  7.80000000E+01  0.00000000E+00
  5.00000000E+02  7.60000000E+01  0.00000000E+00
  5.00000000E+02  7.40000000E+01  0.00000000E+00
  5.00000000E+02  7.20000000E+01  0.00000000E+00
  5.00000000E+02  7.00000000E+01  0.00000000E+00
  5.00000000E+02  6.80000000E+01  0.00000000E+00
  5.00000000E+02  6.60000000E+01  0.00000000E+00
  5.00000000E+02  6.40000000E+01  0.00000000E+00
  5.00000000E+02  6.20000000E+01  0.00000000E+00
  5.00000000E+02  6.00000000E+01  0.00000000E+00
  5.00000000E+02  5.80000000E+01  0.00000000E+00
  5.00000000E+02  5.60000000E+01  0.00000000E+00
  5.00000000E+02  5.40000000E+01  0.00000000E+00
  5.00000000E+02  5.20000000E+01  0.00000000E+00
  5.00000000E+02  5.00000000E+01  0.00000000E+00
  5.00000000E+02  4.80000000E+01  0.00000000E+00
  5.00000000E+02  4.60000000E+01  0.00000000E+00
  5.00000000E+02  4.40000000E+01  0.00000000E+00
  5.00000000E+02  4.20000000E+01  0.00000000E+00
  5.00000000E+02  4.00000000E+01  0.00000000E+00
  5.00000000E+02  3.80000000E+01  0.00000000E+00
  5.00000000E+02  3.60000000E+01  0.00000000E+00
  5.00000000E+02  3.40000000E+01  0.00000000E+00
  5.00000000E+02  3.20000000E+01  0.00000000E+00
  5.00000000E+02  3.00000000E+01  0.00000000E+00
  5.00000000E+02  2.80000000E+01  0.00000000E+00
  5.00000000E+02  2.60000000E+01  0.00000000E+00
  5.00000000E+02  2.40000000E+01  0.00000000E+00
  5.00000000E+02  2.20000000E+01  0.00000000E+00
  5.00000000E+02  2.00000000E+01  0.00000000E+00
  5.00000000E+02  1.80000000E+01  0.00000000E+00
  5.00000000E+02  1.60000000E+01  0.00000000E+00
  5.00000000E+02  1.40000000E+01  0.00000000E+00
  5.00000000E+02  1.20000000E+01  0.00000000E+00
  5.00000000E+02  1.00000000E+01  0.00000000E+00
  5.00000000E+02  8.00000000E+00  0.00000000E+00
  5.00000000E+02  6.00000000E+00  0.00000000E+00
  5.00000000E+02  4.00000000E+00  0.00000000E+00
  5.00000000E+02  2.00000000E+00  0.00000000E+00
  5.00000000E+02 -3.33066907E-14  0.00000000E+00
  5.10000000E+02  1.00000000E+02  0.00000000E+00
  5.10000000E+02  9.80000000E+01  0.00000000E+00
  5.10000000E+02  9.60000000E+01  0.00000000E+00
  5.10000000E+02  9.40000000E+01  0.00000000E+00
  5.10000000E+02  9.20000000E+01  0.00000000E+00
  5.10000000E+02  9.00000000E+01  0.00000000E+00
  5.10000000E+02  8.80000000E+01  0.00000000E+00
  5.10000000E+02  8.60000000E+01  0.00000000E+00
  5.10000000E+02  8.40000000E+01  0.00000000E+00
  5.10000000E+02  8.20000000E+01  0.00000000E+00
  5.10000000E+02  8.00000000E+01  0.00000000E+00
  5.10000000E+02  7.80000000E+01  0.00000000E+00
  5.10000000E+02  7.60000000E+01  0.00000000E+00
  5.10000000E+02  7.40000000E+01  0.00000000E+00
  5.10000000E+02  7.20000000E+01  0.00000000E+00
  5.10000000E+02  7.00000000E+01  0.00000000E+00
  5.10000000E+02  6.80000000E+01  0.00000000E+00
  5.10000000E+02  6.60000000E+01  0.00000000E+00
  5.10000000E+02  6.40000000E+01  0.00000000E+00
  5.10000000E+02  6.20000000E+01  0.00000000E+00
  5.10000000E+02  6.00000000E+01  0.00000000E+00
  5.10000000E+02  5.80000000E+01  0.00000000E+00
  5.10000000E+02  5.60000000E+01  0.00000000E+00
  5.10000000E+02  5.40000000E+01  0.00000000E+00
  5.10000000E+02  5.20000000E+01  0.00000000E+00
  5.10000000E+02  5.00000000E+01  0.00000000E+00
  5.10000000E+02  4.80000000E+01  0.00000000E+00
  5.10000000E+02  4.60000000E+01  0.00000000E+00
  5.10000000E+02  4.40000000E+01  0.00000000E+00
  5.10000000E+02  4.20000000E+01  0.00000000E+00
  5.10000000E+02  4.00000000E+01  0.00000000E+00
  5.10000000E+02  3.80000000E+01  0.00000000E+00
  5.10000000E+02  3.60000000E+01  0.00000000E+00
  5.10000000E+02  3.40000000E+01  0.00000000E+00
  5.10000000E+02  3.20000000E+01  0.00000000E+00
  5.10000000E+02  3.00000000E+01  0.00000000E+00
  5.10000000E+02  2.80000000E+01  0.00000000E+00
  5.10000000E+02  2.60000000E+01  0.00000000E+00
  5.10000000E+02  2.40000000E+01  0.00000000E+00
  5.10000000E+02  2.20000000E+01  0.00000000E+00
  5.10000000E+02  2.00000000E+01  0.00000000E+00
  5.10000000E+02  1.80000000E+01  0.00000000E+00
  5.10000000E+02  1.60000000E+01  0.00000000E+00
  5.10000000E+02  1.40000000E+01  0.00000000E+00
  5.10000000E+02  1.20000000E+01  0.00000000E+00
  5.10000000E+02  1.00000000E+01  0.00000000E+00
  5.10000000E+02  8.00000000E+00  0.00000000E+00
  5.10000000E+02  6.00000000E+00  0.00000000E+00
  5.10000000E+02  4.00000000E+00  0.00000000E+00
  5.10000000E+02  2.00000000E+00  0.00000000E+00
  5.10000000E+02 -3.33066907E-14  0.00000000E+00
  5.20000000E+02  1.00000000E+02  0.00000000E+00
  5.20000000E+02  9.80000000E+01  0.00000000E+00
  5.20000000E+02  9.60000000E+01  0.00000000E+00
  5.20000000E+02  9.40000000E+01  0.00000000E+00
  5.20000000E+02  9.20000000E+01  0.00000000E+00
  5.20000000E+02  9.00000000E+01  0.00000000E+00
  5.20000000E+02  8.80000000E+01  0.00000000E+00
  5.20000000E+02  8.60000000E+01  0.00000000E+00
  5.20000000E+02  8.40000000E+01  0.00000000E+00
  5.20000000E+02  8.20000000E+01  0.00000000E+00
  5.20000000E+02  8.00000000E+01  0.00000000E+00
  5.20000000E+02  7.80000000E+01  0.00000000E+00
  5.20000000E+02  7.60000000E+01  0.00000000E+00
  5.20000000E+02  7.40000000E+01  0.00000000E+00
  5.20000000E+02  7.20000000E+01  0.00000000E+00
  5.20000000E+02  7.00000000E+01  0.00000000E+00
  5.20000000E+02  6.80000000E+01  0.00000000E+00
  5.20000000E+02  6.60000000E+01  0.00000000E+00
  5.20000000E+02  6.40000000E+01  0.00000000E+00
  5.20000000E+02  6.20000000E+01  0.00000000E+00
  5.20000000E+02  6.00000000E+01  0.00000000E+00
  5.20000000E+02  5.80000000E+01  0.00000000E+00
  5.20000000E+02  5.60000000E+01  0.00000000E+00
  5.20000000E+02  5.40000000E+01  0.00000000E+00
  5.20000000E+02  5.20000000E+01  0.00000000E+00
  5.20000000E+02  5.00000000E+01  0.00000000E+00
  5.20000000E+02  4.80000000E+01  0.00000000E+00
  5.20000000E+02  4.60000000E+01  0.00000000E+00
  5.20000000E+02  4.40000000E+01  0.00000000E+00
  5.20000000E+02  4.20000000E+01  0.00000000E+00
  5.20000000E+02  4.00000000E+01  0.00000000E+00
  5.20000000E+02  3.80000000E+01  0.00000000E+00
  5.20000000E+02  3.60000000E+01  0.00000000E+00
  5.20000000E+02  3.40000000E+01  0.00000000E+00
  5.20000000E+02  3.20000000E+01  0.00000000E+00
  5.20000000E+02  3.00000000E+01  0.00000000E+00
  5.20000000E+02  2.80000000E+01  0.00000000E+00
  5.20000000E+02  2.60000000E+01  0.00000000E+00
  5.20000000E+02  2.40000000E+01  0.00000000E+00
  5.20000000E+02  2.20000000E+01  0.00000000E+00
  5.20000000E+02  2.00000000E+01  0.00000000E+00
  5.20000000E+02  1.80000000E+01  0.00000000E+00
  5.20000000E+02  1.60000000E+01  0.00000000E+00
  5.20000000E+02  1.40000000E+01  0.00000000E+00
  5.20000000E+02  1.20000000E+01  0.00000000E+00
  5.20000000E+02  1.00000000E+01  0.00000000E+00
  5.20000000E+02  8.00000000E+00  0.00000000E+00
  5.20000000E+02  6.00000000E+00  0.00000000E+00
  5.20000000E+02  4.00000000E+00  0.00000000E+00
  5.20000000E+02  2.00000000E+00  0.00000000E+00
  5.20000000E+02 -3.33066907E-14  0.00000000E+00
  5.30000000E+02  1.00000000E+02  0.00000000E+00
  5.30000000E+02  9.80000000E+01  0.00000000E+00
  5.30000000E+02  9.60000000E+01  0.00000000E+00
  5.30000000E+02  9.40000000E+01  0.00000000E+00
  5.30000000E+02  9.20000000E+01  0.00000000E+00
  5.30000000E+02  9.00000000E+01  0.00000000E+00
  5.30000000E+02  8.80000000E+01  0.00000000E+00
  5.30000000E+02  8.60000000E+01  0.00000000E+00
  5.30000000E+02  8.40000000E+01  0.00000000E+00
  5.30000000E+02  8.20000000E+01  0.00000000E+00
  5.30000000E+02  8.00000000E+01  0.00000000E+00
  5.30000000E+02  7.80000000E+01  0.00000000E+00
  5.30000000E+02  7.60000000E+01  0.00000000E+00
  5.30000000E+02  7.40000000E+01  0.00000000E+00
  5.30000000E+02  7.20000000E+01  0.00000000E+00
  5.30000000E+02  7.00000000E+01  0.00000000E+00
  5.30000000E+02  6.80000000E+01  0.00000000E+00
  5.30000000E+02  6.60000000E+01  0.00000000E+00
  5.30000000E+02  6.40000000E+01  0.00000000E+00
  5.30000000E+02  6.20000000E+01  0.00000000E+00
  5.30000000E+02  6.00000000E+01  0.00000000E+00
  5.30000000E+02  5.80000000E+01  0.00000000E+00
  5.30000000E+02  5.60000000E+01  0.00000000E+00
  5.30000000E+02  5.40000000E+01  0.00000000E+00
  5.30000000E+02  5.20000000E+01  0.00000000E+00
  5.30000000E+02  5.00000000E+01  0.00000000E+00
  5.30000000E+02  4.80000000E+01  0.00000000E+00
  5.30000000E+02  4.60000000E+01  0.00000000E+00
  5.30000000E+02  4.40000000E+01  0.00000000E+00
  5.30000000E+02  4.20000000E+01  0.00000000E+00
  5.30000000E+02  4.00000000E+01  0.00000000E+00
  5.30000000E+02  3.80000000E+01  0.00000000E+00
  5.30000000E+02  3.60000000E+01  0.00000000E+00
  5.30000000E+02  3.40000000E+01  0.00000000E+00
  5.30000000E+02  3.20000000E+01  0.00000000E+00
  5.30000000E+02  3.00000000E+01  0.00000000E+00
  5.30000000E+02  2.80000000E+01  0.00000000E+00
  5.30000000E+02  2.60000000E+01  0.00000000E+00
  5.30000000E+02  2.40000000E+01  0.00000000E+00
  5.30000000E+02  2.20000000E+01  0.00000000E+00
  5.30000000E+02  2.00000000E+01  0.00000000E+00
  5.30000000E+02  1.80000000E+01  0.00000000E+00
  5.30000000E+02  1.60000000E+01  0.00000000E+00
  5.30000000E+02  1.40000000E+01  0.00000000E+00
  5.30000000E+02  1.20000000E+01  0.00000000E+00
  5.30000000E+02  1.00000000E+01  0.00000000E+00
  5.30000000E+02  8.00000000E+00  0.00000000E+00
  5.30000000E+02  6.00000000E+00  0.00000000E+00
  5.30000000E+02  4.00000000E+00  0.00000000E+00
  5.30000000E+02  2.00000000E+00  0.00000000E+00
  5.30000000E+02 -3.33066907E-14  0.00000000E+00
  5.40000000E+02  1.00000000E+02  0.00000000E+00
  5.40000000E+02  9.80000000E+01  0.00000000E+00
  5.40000000E+02  9.60000000E+01  0.00000000E+00
  5.40000000E+02  9.40000000E+01  0.00000000E+00
  5.40000000E+02  9.20000000E+01  0.00000000E+00
  5.40000000E+02  9.00000000E+01  0.00000000E+00
  5.40000000E+02  8.80000000E+01  0.00000000E+00
  5.40000000E+02  8.60000000E+01  0.00000000E+00
  5.40000000E+02  8.40000000E+01  0.00000000E+00
  5.40000000E+02  8.20000000E+01  0.00000000E+00
  5.40000000E+02  8.00000000E+01  0.00000000E+00
  5.40000000E+02  7.80000000E+01  0.00000000E+00
  5.40000000E+02  7.60000000E+01  0.00000000E+00
  5.40000000E+02  7.40000000E+01  0.00000000E+00
  5.40000000E+02  7.20000000E+01  0.00000000E+00
  5.40000000E+02  7.00000000E+01  0.00000000E+00
  5.40000000E+02  6.80000000E+01  0.00000000E+00
  5.40000000E+02  6.60000000E+01  0.00000000E+00
  5.40000000E+02  6.40000000E+01  0.00000000E+00
  5.40000000E+02  6.20000000E+01  0.00000000E+00
  5.40000000E+02  6.00000000E+01  0.00000000E+00
  5.40000000E+02  5.80000000E+01  0.00000000E+00
  5.40000000E+02  5.60000000E+01  0.00000000E+00
  5.40000000E+02  5.40000000E+01  0.00000000E+00
  5.40000000E+02  5.20000000E+01  0.00000000E+00
  5.40000000E+02  5.00000000E+01  0.00000000E+00
  5.40000000E+02  4.80000000E+01  0.00000000E+00
  5.40000000E+02  4.60000000E+01  0.00000000E+00
  5.40000000E+02  4.40000000E+01  0.00000000E+00
  5.40000000E+02  4.20000000E+01  0.00000000E+00
  5.40000000E+02  4.00000000E+01  0.00000000E+00
  5.40000000E+02  3.80000000E+01  0.00000000E+00
  5.40000000E+02  3.60000000E+01  0.00000000E+00
  5.40000000E+02  3.40000000E+01  0.00000000E+00
  5.40000000E+02  3.20000000E+01  0.00000000E+00
  5.40000000E+02  3.00000000E+01  0.00000000E+00
  5.40000000E+02  2.80000000E+01  0.00000000E+00
  5.40000000E+02  2.60000000E+01  0.00000000E+00
  5.40000000E+02  2.40000000E+01  0.00000000E+00
  5.40000000E+02  2.20000000E+01  0.00000000E+00
  5.40000000E+02  2.00000000E+01  0.00000000E+00
  5.40000000E+02  1.80000000E+01  0.00000000E+00
  5.40000000E+02  1.60000000E+01  0.00000000E+00
  5.40000000E+02  1.40000000E+01  0.00000000E+00
  5.40000000E+02  1.20000000E+01  0.00000000E+00
  5.40000000E+02  1.00000000E+01  0.00000000E+00
  5.40000000E+02  8.00000000E+00  0.00000000E+00
  5.40000000E+02  6.00000000E+00  0.00000000E+00
  5.40000000E+02  4.00000000E+00  0.00000000E+00
  5.40000000E+02  2.00000000E+00  0.00000000E+00
  5.40000000E+02 -3.33066907E-14  0.00000000E+00
  5.50000000E+02  1.00000000E+02  0.00000000E+00
  5.50000000E+02  9.80000000E+01  0.00000000E+00
  5.50000000E+02  9.60000000E+01  0.00000000E+00
  5.50000000E+02  9.40000000E+01  0.00000000E+00
  5.50000000E+02  9.20000000E+01  0.00000000E+00
  5.50000000E+02  9.00000000E+01  0.00000000E+00
  5.50000000E+02  8.80000000E+01  0.00000000E+00
  5.50000000E+02  8.60000000E+01  0.00000000E+00
  5.50000000E+02  8.40000000E+01  0.00000000E+00
  5.50000000E+02  8.20000000E+01  0.00000000E+00
  5.50000000E+02  8.00000000E+01  0.00000000E+00
  5.50000000E+02  7.80000000E+01  0.00000000E+00
  5.50000000E+02  7.60000000E+01  0.00000000E+00
  5.50000000E+02  7.40000000E+01  0.00000000E+00
  5.50000000E+02  7.20000000E+01  0.00000000E+00
  5.50000000E+02  7.00000000E+01  0.00000000E+00
  5.50000000E+02  6.80000000E+01  0.00000000E+00
  5.50000000E+02  6.60000000E+01  0.00000000E+00
  5.50000000E+02  6.40000000E+01  0.00000000E+00
  5.50000000E+02  6.20000000E+01  0.00000000E+00
  5.50000000E+02  6.00000000E+01  0.00000000E+00
  5.50000000E+02  5.80000000E+01  0.00000000E+00
  5.50000000E+02  5.60000000E+01  0.00000000E+00
  5.50000000E+02  5.40000000E+01  0.00000000E+00
  5.50000000E+02  5.20000000E+01  0.00000000E+00
  5.50000000E+02  5.00000000E+01  0.00000000E+00
  5.50000000E+02  4.80000000E+01  0.00000000E+00
  5.50000000E+02  4.60000000E+01  0.00000000E+00
  5.50000000E+02  4.40000000E+01  0.00000000E+00
  5.50000000E+02  4.20000000E+01  0.00000000E+00
  5.50000000E+02  4.00000000E+01  0.00000000E+00
  5.50000000E+02  3.80000000E+01  0.00000000E+00
  5.50000000E+02  3.60000000E+01  0.00000000E+00
  5.50000000E+02  3.40000000E+01  0.00000000E+00
  5.50000000E+02  3.20000000E+01  0.00000000E+00
  5.50000000E+02  3.00000000E+01  0.00000000E+00
  5.50000000E+02  2.80000000E+01  0.00000000E+00
  5.50000000E+02  2.60000000E+01  0.00000000E+00
  5.50000000E+02  2.40000000E+01  0.00000000E+00
  5.50000000E+02  2.20000000E+01  0.00000000E+00
  5.50000000E+02  2.00000000E+01  0.00000000E+00
  5.50000000E+02  1.80000000E+01  0.00000000E+00
  5.50000000E+02  1.60000000E+01  0.00000000E+00
  5.50000000E+02  1.40000000E+01  0.00000000E+00
  5.50000000E+02  1.20000000E+01  0.00000000E+00
  5.50000000E+02  1.00000000E+01  0.00000000E+00
  5.50000000E+02  8.00000000E+00  0.00000000E+00
  5.50000000E+02  6.00000000E+00  0.00000000E+00
  5.50000000E+02  4.00000000E+00  0.00000000E+00
  5.50000000E+02  2.00000000E+00  0.00000000E+00
  5.50000000E+02 -3.33066907E-14  0.00000000E+00
  5.60000000E+02  1.00000000E+02  0.00000000E+00
  5.60000000E+02  9.80000000E+01  0.00000000E+00
  5.60000000E+02  9.60000000E+01  0.00000000E+00
  5.60000000E+02  9.40000000E+01  0.00000000E+00
  5.60000000E+02  9.20000000E+01  0.00000000E+00
  5.60000000E+02  9.00000000E+01  0.00000000E+00
  5.60000000E+02  8.80000000E+01  0.00000000E+00
  5.60000000E+02  8.60000000E+01  0.00000000E+00
  5.60000000E+02  8.40000000E+01  0.00000000E+00
  5.60000000E+02  8.20000000E+01  0.00000000E+00
  5.60000000E+02  8.00000000E+01  0.00000000E+00
  5.60000000E+02  7.80000000E+01  0.00000000E+00
  5.60000000E+02  7.60000000E+01  0.00000000E+00
  5.60000000E+02  7.40000000E+01  0.00000000E+00
  5.60000000E+02  7.20000000E+01  0.00000000E+00
  5.60000000E+02  7.00000000E+01  0.00000000E+00
  5.60000000E+02  6.80000000E+01  0.00000000E+00
  5.60000000E+02  6.60000000E+01  0.00000000E+00
  5.60000000E+02  6.40000000E+01  0.00000000E+00
  5.60000000E+02  6.20000000E+01  0.00000000E+00
  5.60000000E+02  6.00000000E+01  0.00000000E+00
  5.60000000E+02  5.80000000E+01  0.00000000E+00
  5.60000000E+02  5.60000000E+01  0.00000000E+00
  5.60000000E+02  5.40000000E+01  0.00000000E+00
  5.60000000E+02  5.20000000E+01  0.00000000E+00
  5.60000000E+02  5.00000000E+01  0.00000000E+00
  5.60000000E+02  4.80000000E+01  0.00000000E+00
  5.60000000E+02  4.60000000E+01  0.00000000E+00
  5.60000000E+02  4.40000000E+01  0.00000000E+00
  5.60000000E+02  4.20000000E+01  0.00000000E+00
  5.60000000E+02  4.00000000E+01  0.00000000E+00
  5.60000000E+02  3.80000000E+01  0.00000000E+00
  5.60000000E+02  3.60000000E+01  0.00000000E+00
  5.60000000E+02  3.40000000E+01  0.00000000E+00
  5.60000000E+02  3.20000000E+01  0.00000000E+00
  5.60000000E+02  3.00000000E+01  0.00000000E+00
  5.60000000E+02  2.80000000E+01  0.00000000E+00
  5.60000000E+02  2.60000000E+01  0.00000000E+00
  5.60000000E+02  2.40000000E+01  0.00000000E+00
  5.60000000E+02  2.20000000E+01  0.00000000E+00
  5.60000000E+02  2.00000000E+01  0.00000000E+00
  5.60000000E+02  1.80000000E+01  0.00000000E+00
  5.60000000E+02  1.60000000E+01  0.00000000E+00
  5.60000000E+02  1.40000000E+01  0.00000000E+00
  5.60000000E+02  1.20000000E+01  0.00000000E+00
  5.60000000E+02  1.00000000E+01  0.00000000E+00
  5.60000000E+02  8.00000000E+00  0.00000000E+00
  5.60000000E+02  6.00000000E+00  0.00000000E+00
  5.60000000E+02  4.00000000E+00  0.00000000E+00
  5.60000000E+02  2.00000000E+00  0.00000000E+00
  5.60000000E+02 -3.33066907E-14  0.00000000E+00
  5.70000000E+02  1.00000000E+02  0.00000000E+00
  5.70000000E+02  9.80000000E+01  0.00000000E+00
  5.70000000E+02  9.60000000E+01  0.00000000E+00
  5.70000000E+02  9.40000000E+01  0.00000000E+00
  5.70000000E+02  9.20000000E+01  0.00000000E+00
  5.70000000E+02  9.00000000E+01  0.00000000E+00
  5.70000000E+02  8.80000000E+01  0.00000000E+00
  5.70000000E+02  8.60000000E+01  0.00000000E+00
  5.70000000E+02  8.40000000E+01  0.00000000E+00
  5.70000000E+02  8.20000000E+01  0.00000000E+00
  5.70000000E+02  8.00000000E+01  0.00000000E+00
  5.70000000E+02  7.80000000E+01  0.00000000E+00
  5.70000000E+02  7.60000000E+01  0.00000000E+00
  5.70000000E+02  7.40000000E+01  0.00000000E+00
  5.70000000E+02  7.20000000E+01  0.00000000E+00
  5.70000000E+02  7.00000000E+01  0.00000000E+00
  5.70000000E+02  6.80000000E+01  0.00000000E+00
  5.70000000E+02  6.60000000E+01  0.00000000E+00
  5.70000000E+02  6.40000000E+01  0.00000000E+00
  5.70000000E+02  6.20000000E+01  0.00000000E+00
  5.70000000E+02  6.00000000E+01  0.00000000E+00
  5.70000000E+02  5.80000000E+01  0.00000000E+00
  5.70000000E+02  5.60000000E+01  0.00000000E+00
  5.70000000E+02  5.40000000E+01  0.00000000E+00
  5.70000000E+02  5.20000000E+01  0.00000000E+00
  5.70000000E+02  5.00000000E+01  0.00000000E+00
  5.70000000E+02  4.80000000E+01  0.00000000E+00
  5.70000000E+02  4.60000000E+01  0.00000000E+00
  5.70000000E+02  4.40000000E+01  0.00000000E+00
  5.70000000E+02  4.20000000E+01  0.00000000E+00
  5.70000000E+02  4.00000000E+01  0.00000000E+00
  5.70000000E+02  3.80000000E+01  0.00000000E+00
  5.70000000E+02  3.60000000E+01  0.00000000E+00
  5.70000000E+02  3.40000000E+01  0.00000000E+00
  5.70000000E+02  3.20000000E+01  0.00000000E+00
  5.70000000E+02  3.00000000E+01  0.00000000E+00
  5.70000000E+02  2.80000000E+01  0.00000000E+00
  5.70000000E+02  2.60000000E+01  0.00000000E+00
  5.70000000E+02  2.40000000E+01  0.00000000E+00
  5.70000000E+02  2.20000000E+01  0.00000000E+00
  5.70000000E+02  2.00000000E+01  0.00000000E+00
  5.70000000E+02  1.80000000E+01  0.00000000E+00
  5.70000000E+02  1.60000000E+01  0.00000000E+00
  5.70000000E+02  1.40000000E+01  0.00000000E+00
  5.70000000E+02  1.20000000E+01  0.00000000E+00
  5.70000000E+02  1.00000000E+01  0.00000000E+00
  5.70000000E+02  8.00000000E+00  0.00000000E+00
  5.70000000E+02  6.00000000E+00  0.00000000E+00
  5.70000000E+02  4.00000000E+00  0.00000000E+00
  5.70000000E+02  2.00000000E+00  0.00000000E+00
  5.70000000E+02 -3.33066907E-14  0.00000000E+00
  5.80000000E+02  1.00000000E+02  0.00000000E+00
  5.80000000E+02  9.80000000E+01  0.00000000E+00
  5.80000000E+02  9.60000000E+01  0.00000000E+00
  5.80000000E+02  9.40000000E+01  0.00000000E+00
  5.80000000E+02  9.20000000E+01  0.00000000E+00
  5.80000000E+02  9.00000000E+01  0.00000000E+00
  5.80000000E+02  8.80000000E+01  0.00000000E+00
  5.80000000E+02  8.60000000E+01  0.00000000E+00
  5.80000000E+02  8.40000000E+01  0.00000000E+00
  5.80000000E+02  8.20000000E+01  0.00000000E+00
  5.80000000E+02  8.00000000E+01  0.00000000E+00
  5.80000000E+02  7.80000000E+01  0.00000000E+00
  5.80000000E+02  7.60000000E+01  0.00000000E+00
  5.80000000E+02  7.40000000E+01  0.00000000E+00
  5.80000000E+02  7.20000000E+01  0.00000000E+00
  5.80000000E+02  7.00000000E+01  0.00000000E+00
  5.80000000E+02  6.80000000E+01  0.00000000E+00
  5.80000000E+02  6.60000000E+01  0.00000000E+00
  5.80000000E+02  6.40000000E+01  0.00000000E+00
  5.80000000E+02  6.20000000E+01  0.00000000E+00
  5.80000000E+02  6.00000000E+01  0.00000000E+00
  5.80000000E+02  5.80000000E+01  0.00000000E+00
  5.80000000E+02  5.60000000E+01  0.00000000E+00
  5.80000000E+02  5.40000000E+01  0.00000000E+00
  5.80000000E+02  5.20000000E+01  0.00000000E+00
  5.80000000E+02  5.00000000E+01  0.00000000E+00
  5.80000000E+02  4.80000000E+01  0.00000000E+00
  5.80000000E+02  4.60000000E+01  0.00000000E+00
  5.80000000E+02  4.40000000E+01  0.00000000E+00
  5.80000000E+02  4.20000000E+01  0.00000000E+00
  5.80000000E+02  4.00000000E+01  0.00000000E+00
  5.80000000E+02  3.80000000E+01  0.00000000E+00
  5.80000000E+02  3.60000000E+01  0.00000000E+00
  5.80000000E+02  3.40000000E+01  0.00000000E+00
  5.80000000E+02  3.20000000E+01  0.00000000E+00
  5.80000000E+02  3.00000000E+01  0.00000000E+00
  5.80000000E+02  2.80000000E+01  0.00000000E+00
  5.80000000E+02  2.60000000E+01  0.00000000E+00
  5.80000000E+02  2.40000000E+01  0.00000000E+00
  5.80000000E+02  2.20000000E+01  0.00000000E+00
  5.80000000E+02  2.00000000E+01  0.00000000E+00
  5.80000000E+02  1.80000000E+01  0.00000000E+00
  5.80000000E+02  1.60000000E+01  0.00000000E+00
  5.80000000E+02  1.40000000E+01  0.00000000E+00
  5.80000000E+02  1.20000000E+01  0.00000000E+00
  5.80000000E+02  1.00000000E+01  0.00000000E+00
  5.80000000E+02  8.00000000E+00  0.00000000E+00
  5.80000000E+02  6.00000000E+00  0.00000000E+00
  5.80000000E+02  4.00000000E+00  0.00000000E+00
  5.80000000E+02  2.00000000E+00  0.00000000E+00
  5.80000000E+02 -3.33066907E-14  0.00000000E+00
  5.90000000E+02  1.00000000E+02  0.00000000E+00
  5.90000000E+02  9.80000000E+01  0.00000000E+00
  5.90000000E+02  9.60000000E+01  0.00000000E+00
  5.90000000E+02  9.40000000E+01  0.00000000E+00
  5.90000000E+02  9.20000000E+01  0.00000000E+00
  5.90000000E+02  9.00000000E+01  0.00000000E+00
  5.90000000E+02  8.80000000E+01  0.00000000E+00
  5.90000000E+02  8.60000000E+01  0.00000000E+00
  5.90000000E+02  8.40000000E+01  0.00000000E+00
  5.90000000E+02  8.20000000E+01  0.00000000E+00
  5.90000000E+02  8.00000000E+01  0.00000000E+00
  5.90000000E+02  7.80000000E+01  0.00000000E+00
  5.90000000E+02  7.60000000E+01  0.00000000E+00
  5.90000000E+02  7.40000000E+01  0.00000000E+00
  5.90000000E+02  7.20000000E+01  0.00000000E+00
  5.90000000E+02  7.00000000E+01  0.00000000E+00
  5.90000000E+02  6.80000000E+01  0.00000000E+00
  5.90000000E+02  6.60000000E+01  0.00000000E+00
  5.90000000E+02  6.40000000E+01  0.00000000E+00
  5.90000000E+02  6.20000000E+01  0.00000000E+00
  5.90000000E+02  6.00000000E+01  0.00000000E+00
  5.90000000E+02  5.80000000E+01  0.00000000E+00
  5.90000000E+02  5.60000000E+01  0.00000000E+00
  5.90000000E+02  5.40000000E+01  0.00000000E+00
  5.90000000E+02  5.20000000E+01  0.00000000E+00
  5.90000000E+02  5.00000000E+01  0.00000000E+00
  5.90000000E+02  4.80000000E+01  0.00000000E+00
  5.90000000E+02  4.60000000E+01  0.00000000E+00
  5.90000000E+02  4.40000000E+01  0.00000000E+00
  5.90000000E+02  4.20000000E+01  0.00000000E+00
  5.90000000E+02  4.00000000E+01  0.00000000E+00
  5.90000000E+02  3.80000000E+01  0.00000000E+00
  5.90000000E+02  3.60000000E+01  0.00000000E+00
  5.90000000E+02  3.40000000E+01  0.00000000E+00
  5.90000000E+02  3.20000000E+01  0.00000000E+00
  5.90000000E+02  3.00000000E+01  0.00000000E+00
  5.90000000E+02  2.80000000E+01  0.00000000E+00
  5.90000000E+02  2.60000000E+01  0.00000000E+00
  5.90000000E+02  2.40000000E+01  0.00000000E+00
  5.90000000E+02  2.20000000E+01  0.00000000E+00
  5.90000000E+02  2.00000000E+01  0.00000000E+00
  5.90000000E+02  1.80000000E+01  0.00000000E+00
  5.90000000E+02  1.60000000E+01  0.00000000E+00
  5.90000000E+02  1.40000000E+01  0.00000000E+00
  5.90000000E+02  1.20000000E+01  0.00000000E+00
  5.90000000E+02  1.00000000E+01  0.00000000E+00
  5.90000000E+02  8.00000000E+00  0.00000000E+00
  5.90000000E+02  6.00000000E+00  0.00000000E+00
  5.90000000E+02  4.00000000E+00  0.00000000E+00
  5.90000000E+02  2.00000000E+00  0.00000000E+00
  5.90000000E+02 -3.33066907E-14  0.00000000E+00
  6.00000000E+02  1.00000000E+02  0.00000000E+00
  6.00000000E+02  9.80000000E+01  0.00000000E+00
  6.00000000E+02  9.60000000E+01  0.00000000E+00
  6.00000000E+02  9.40000000E+01  0.00000000E+00
  6.00000000E+02  9.20000000E+01  0.00000000E+00
  6.00000000E+02  9.00000000E+01  0.00000000E+00
  6.00000000E+02  8.80000000E+01  0.00000000E+00
  6.00000000E+02  8.60000000E+01  0.00000000E+00
  6.00000000E+02  8.40000000E+01  0.00000000E+00
  6.00000000E+02  8.20000000E+01  0.00000000E+00
  6.00000000E+02  8.00000000E+01  0.00000000E+00
  6.00000000E+02  7.80000000E+01  0.00000000E+00
  6.00000000E+02  7.60000000E+01  0.00000000E+00
  6.00000000E+02  7.40000000E+01  0.00000000E+00
  6.00000000E+02  7.20000000E+01  0.00000000E+00
  6.00000000E+02  7.00000000E+01  0.00000000E+00
  6.00000000E+02  6.80000000E+01  0.00000000E+00
  6.00000000E+02  6.60000000E+01  0.00000000E+00
  6.00000000E+02  6.40000000E+01  0.00000000E+00
  6.00000000E+02  6.20000000E+01  0.00000000E+00
  6.00000000E+02  6.00000000E+01  0.00000000E+00
  6.00000000E+02  5.80000000E+01  0.00000000E+00
  6.00000000E+02  5.60000000E+01  0.00000000E+00
  6.00000000E+02  5.40000000E+01  0.00000000E+00
  6.00000000E+02  5.20000000E+01  0.00000000E+00
  6.00000000E+02  5.00000000E+01  0.00000000E+00
  6.00000000E+02  4.80000000E+01  0.00000000E+00
  6.00000000E+02  4.60000000E+01  0.00000000E+00
  6.00000000E+02  4.40000000E+01  0.00000000E+00
  6.00000000E+02  4.20000000E+01  0.00000000E+00
  6.00000000E+02  4.00000000E+01  0.00000000E+00
  6.00000000E+02  3.80000000E+01  0.00000000E+00
  6.00000000E+02  3.60000000E+01  0.00000000E+00
  6.00000000E+02  3.40000000E+01  0.00000000E+00
  6.00000000E+02  3.20000000E+01  0.00000000E+00
  6.00000000E+02  3.00000000E+01  0.00000000E+00
  6.00000000E+02  2.80000000E+01  0.00000000E+00
  6.00000000E+02  2.60000000E+01  0.00000000E+00
  6.00000000E+02  2.40000000E+01  0.00000000E+00
  6.00000000E+02  2.20000000E+01  0.00000000E+00
  6.00000000E+02  2.00000000E+01  0.00000000E+00
  6.00000000E+02  1.80000000E+01  0.00000000E+00
  6.00000000E+02  1.60000000E+01  0.00000000E+00
  6.00000000E+02  1.40000000E+01  0.00000000E+00
  6.00000000E+02  1.20000000E+01  0.00000000E+00
  6.00000000E+02  1.00000000E+01  0.00000000E+00
  6.00000000E+02  8.00000000E+00  0.00000000E+00
  6.00000000E+02  6.00000000E+00  0.00000000E+00
  6.00000000E+02  4.00000000E+00  0.00000000E+00
  6.00000000E+02  2.00000000E+00  0.00000000E+00
  6.00000000E+02 -3.33066907E-14  0.00000000E+00
  6.10000000E+02  1.00000000E+02  0.00000000E+00
  6.10000000E+02  9.80000000E+01  0.00000000E+00
  6.10000000E+02  9.60000000E+01  0.00000000E+00
  6.10000000E+02  9.40000000E+01  0.00000000E+00
  6.10000000E+02  9.20000000E+01  0.00000000E+00
  6.10000000E+02  9.00000000E+01  0.00000000E+00
  6.10000000E+02  8.80000000E+01  0.00000000E+00
  6.10000000E+02  8.60000000E+01  0.00000000E+00
  6.10000000E+02  8.40000000E+01  0.00000000E+00
  6.10000000E+02  8.20000000E+01  0.00000000E+00
  6.10000000E+02  8.00000000E+01  0.00000000E+00
  6.10000000E+02  7.80000000E+01  0.00000000E+00
  6.10000000E+02  7.60000000E+01  0.00000000E+00
  6.10000000E+02  7.40000000E+01  0.00000000E+00
  6.10000000E+02  7.20000000E+01  0.00000000E+00
  6.10000000E+02  7.00000000E+01  0.00000000E+00
  6.10000000E+02  6.80000000E+01  0.00000000E+00
  6.10000000E+02  6.60000000E+01  0.00000000E+00
  6.10000000E+02  6.40000000E+01  0.00000000E+00
  6.10000000E+02  6.20000000E+01  0.00000000E+00
  6.10000000E+02  6.00000000E+01  0.00000000E+00
  6.10000000E+02  5.80000000E+01  0.00000000E+00
  6.10000000E+02  5.60000000E+01  0.00000000E+00
  6.10000000E+02  5.40000000E+01  0.00000000E+00
  6.10000000E+02  5.20000000E+01  0.00000000E+00
  6.10000000E+02  5.00000000E+01  0.00000000E+00
  6.10000000E+02  4.80000000E+01  0.00000000E+00
  6.10000000E+02  4.60000000E+01  0.00000000E+00
  6.10000000E+02  4.40000000E+01  0.00000000E+00
  6.10000000E+02  4.20000000E+01  0.00000000E+00
  6.10000000E+02  4.00000000E+01  0.00000000E+00
  6.10000000E+02  3.80000000E+01  0.00000000E+00
  6.10000000E+02  3.60000000E+01  0.00000000E+00
  6.10000000E+02  3.40000000E+01  0.00000000E+00
  6.10000000E+02  3.20000000E+01  0.00000000E+00
  6.10000000E+02  3.00000000E+01  0.00000000E+00
  6.10000000E+02  2.80000000E+01  0.00000000E+00
  6.10000000E+02  2.60000000E+01  0.00000000E+00
  6.10000000E+02  2.40000000E+01  0.00000000E+00
  6.10000000E+02  2.20000000E+01  0.00000000E+00
  6.10000000E+02  2.00000000E+01  0.00000000E+00
  6.10000000E+02  1.80000000E+01  0.00000000E+00
  6.10000000E+02  1.60000000E+01  0.00000000E+00
  6.10000000E+02  1.40000000E+01  0.00000000E+00
  6.10000000E+02  1.20000000E+01  0.00000000E+00
  6.10000000E+02  1.00000000E+01  0.00000000E+00
  6.10000000E+02  8.00000000E+00  0.00000000E+00
  6.10000000E+02  6.00000000E+00  0.00000000E+00
  6.10000000E+02  4.00000000E+00  0.00000000E+00
  6.10000000E+02  2.00000000E+00  0.00000000E+00
  6.10000000E+02 -3.33066907E-14  0.00000000E+00
  6.20000000E+02  1.00000000E+02  0.00000000E+00
  6.20000000E+02  9.80000000E+01  0.00000000E+00
  6.20000000E+02  9.60000000E+01  0.00000000E+00
  6.20000000E+02  9.40000000E+01  0.00000000E+00
  6.20000000E+02  9.20000000E+01  0.00000000E+00
  6.20000000E+02  9.00000000E+01  0.00000000E+00
  6.20000000E+02  8.80000000E+01  0.00000000E+00
  6.20000000E+02  8.60000000E+01  0.00000000E+00
  6.20000000E+02  8.40000000E+01  0.00000000E+00
  6.20000000E+02  8.20000000E+01  0.00000000E+00
  6.20000000E+02  8.00000000E+01  0.00000000E+00
  6.20000000E+02  7.80000000E+01  0.00000000E+00
  6.20000000E+02  7.60000000E+01  0.00000000E+00
  6.20000000E+02  7.40000000E+01  0.00000000E+00
  6.20000000E+02  7.20000000E+01  0.00000000E+00
  6.20000000E+02  7.00000000E+01  0.00000000E+00
  6.20000000E+02  6.80000000E+01  0.00000000E+00
  6.20000000E+02  6.60000000E+01  0.00000000E+00
  6.20000000E+02  6.40000000E+01  0.00000000E+00
  6.20000000E+02  6.20000000E+01  0.00000000E+00
  6.20000000E+02  6.00000000E+01  0.00000000E+00
  6.20000000E+02  5.80000000E+01  0.00000000E+00
  6.20000000E+02  5.60000000E+01  0.00000000E+00
  6.20000000E+02  5.40000000E+01  0.00000000E+00
  6.20000000E+02  5.20000000E+01  0.00000000E+00
  6.20000000E+02  5.00000000E+01  0.00000000E+00
  6.20000000E+02  4.80000000E+01  0.00000000E+00
  6.20000000E+02  4.60000000E+01  0.00000000E+00
  6.20000000E+02  4.40000000E+01  0.00000000E+00
  6.20000000E+02  4.20000000E+01  0.00000000E+00
  6.20000000E+02  4.00000000E+01  0.00000000E+00
  6.20000000E+02  3.80000000E+01  0.00000000E+00
  6.20000000E+02  3.60000000E+01  0.00000000E+00
  6.20000000E+02  3.40000000E+01  0.00000000E+00
  6.20000000E+02  3.20000000E+01  0.00000000E+00
  6.20000000E+02  3.00000000E+01  0.00000000E+00
  6.20000000E+02  2.80000000E+01  0.00000000E+00
  6.20000000E+02  2.60000000E+01  0.00000000E+00
  6.20000000E+02  2.40000000E+01  0.00000000E+00
  6.20000000E+02  2.20000000E+01  0.00000000E+00
  6.20000000E+02  2.00000000E+01  0.00000000E+00
  6.20000000E+02  1.80000000E+01  0.00000000E+00
  6.20000000E+02  1.60000000E+01  0.00000000E+00
  6.20000000E+02  1.40000000E+01  0.00000000E+00
  6.20000000E+02  1.20000000E+01  0.00000000E+00
  6.20000000E+02  1.00000000E+01  0.00000000E+00
  6.20000000E+02  8.00000000E+00  0.00000000E+00
  6.20000000E+02  6.00000000E+00  0.00000000E+00
  6.20000000E+02  4.00000000E+00  0.00000000E+00
  6.20000000E+02  2.00000000E+00  0.00000000E+00
  6.20000000E+02 -3.33066907E-14  0.00000000E+00
  6.30000000E+02  1.00000000E+02  0.00000000E+00
  6.30000000E+02  9.80000000E+01  0.00000000E+00
  6.30000000E+02  9.60000000E+01  0.00000000E+00
  6.30000000E+02  9.40000000E+01  0.00000000E+00
  6.30000000E+02  9.20000000E+01  0.00000000E+00
  6.30000000E+02  9.00000000E+01  0.00000000E+00
  6.30000000E+02  8.80000000E+01  0.00000000E+00
  6.30000000E+02  8.60000000E+01  0.00000000E+00
  6.30000000E+02  8.40000000E+01  0.00000000E+00
  6.30000000E+02  8.20000000E+01  0.00000000E+00
  6.30000000E+02  8.00000000E+01  0.00000000E+00
  6.30000000E+02  7.80000000E+01  0.00000000E+00
  6.30000000E+02  7.60000000E+01  0.00000000E+00
  6.30000000E+02  7.40000000E+01  0.00000000E+00
  6.30000000E+02  7.20000000E+01  0.00000000E+00
  6.30000000E+02  7.00000000E+01  0.00000000E+00
  6.30000000E+02  6.80000000E+01  0.00000000E+00
  6.30000000E+02  6.60000000E+01  0.00000000E+00
  6.30000000E+02  6.40000000E+01  0.00000000E+00
  6.30000000E+02  6.20000000E+01  0.00000000E+00
  6.30000000E+02  6.00000000E+01  0.00000000E+00
  6.30000000E+02  5.80000000E+01  0.00000000E+00
  6.30000000E+02  5.60000000E+01  0.00000000E+00
  6.30000000E+02  5.40000000E+01  0.00000000E+00
  6.30000000E+02  5.20000000E+01  0.00000000E+00
  6.30000000E+02  5.00000000E+01  0.00000000E+00
  6.30000000E+02  4.80000000E+01  0.00000000E+00
  6.30000000E+02  4.60000000E+01  0.00000000E+00
  6.30000000E+02  4.40000000E+01  0.00000000E+00
  6.30000000E+02  4.20000000E+01  0.00000000E+00
  6.30000000E+02  4.00000000E+01  0.00000000E+00
  6.30000000E+02  3.80000000E+01  0.00000000E+00
  6.30000000E+02  3.60000000E+01  0.00000000E+00
  6.30000000E+02  3.40000000E+01  0.00000000E+00
  6.30000000E+02  3.20000000E+01  0.00000000E+00
  6.30000000E+02  3.00000000E+01  0.00000000E+00
  6.30000000E+02  2.80000000E+01  0.00000000E+00
  6.30000000E+02  2.60000000E+01  0.00000000E+00
  6.30000000E+02  2.40000000E+01  0.00000000E+00
  6.30000000E+02  2.20000000E+01  0.00000000E+00
  6.30000000E+02  2.00000000E+01  0.00000000E+00
  6.30000000E+02  1.80000000E+01  0.00000000E+00
  6.30000000E+02  1.60000000E+01  0.00000000E+00
  6.30000000E+02  1.40000000E+01  0.00000000E+00
  6.30000000E+02  1.20000000E+01  0.00000000E+00
  6.30000000E+02  1.00000000E+01  0.00000000E+00
  6.30000000E+02  8.00000000E+00  0.00000000E+00
  6.30000000E+02  6.00000000E+00  0.00000000E+00
  6.30000000E+02  4.00000000E+00  0.00000000E+00
  6.30000000E+02  2.00000000E+00  0.00000000E+00
  6.30000000E+02 -3.33066907E-14  0.00000000E+00
  6.40000000E+02  1.00000000E+02  0.00000000E+00
  6.40000000E+02  9.80000000E+01  0.00000000E+00
  6.40000000E+02  9.60000000E+01  0.00000000E+00
  6.40000000E+02  9.40000000E+01  0.00000000E+00
  6.40000000E+02  9.20000000E+01  0.00000000E+00
  6.40000000E+02  9.00000000E+01  0.00000000E+00
  6.40000000E+02  8.80000000E+01  0.00000000E+00
  6.40000000E+02  8.60000000E+01  0.00000000E+00
  6.40000000E+02  8.40000000E+01  0.00000000E+00
  6.40000000E+02  8.20000000E+01  0.00000000E+00
  6.40000000E+02  8.00000000E+01  0.00000000E+00
  6.40000000E+02  7.80000000E+01  0.00000000E+00
  6.40000000E+02  7.60000000E+01  0.00000000E+00
  6.40000000E+02  7.40000000E+01  0.00000000E+00
  6.40000000E+02  7.20000000E+01  0.00000000E+00
  6.40000000E+02  7.00000000E+01  0.00000000E+00
  6.40000000E+02  6.80000000E+01  0.00000000E+00
  6.40000000E+02  6.60000000E+01  0.00000000E+00
  6.40000000E+02  6.40000000E+01  0.00000000E+00
  6.40000000E+02  6.20000000E+01  0.00000000E+00
  6.40000000E+02  6.00000000E+01  0.00000000E+00
  6.40000000E+02  5.80000000E+01  0.00000000E+00
  6.40000000E+02  5.60000000E+01  0.00000000E+00
  6.40000000E+02  5.40000000E+01  0.00000000E+00
  6.40000000E+02  5.20000000E+01  0.00000000E+00
  6.40000000E+02  5.00000000E+01  0.00000000E+00
  6.40000000E+02  4.80000000E+01  0.00000000E+00
  6.40000000E+02  4.60000000E+01  0.00000000E+00
  6.40000000E+02  4.40000000E+01  0.00000000E+00
  6.40000000E+02  4.20000000E+01  0.00000000E+00
  6.40000000E+02  4.00000000E+01  0.00000000E+00
  6.40000000E+02  3.80000000E+01  0.00000000E+00
  6.40000000E+02  3.60000000E+01  0.00000000E+00
  6.40000000E+02  3.40000000E+01  0.00000000E+00
  6.40000000E+02  3.20000000E+01  0.00000000E+00
  6.40000000E+02  3.00000000E+01  0.00000000E+00
  6.40000000E+02  2.80000000E+01  0.00000000E+00
  6.40000000E+02  2.60000000E+01  0.00000000E+00
  6.40000000E+02  2.40000000E+01  0.00000000E+00
  6.40000000E+02  2.20000000E+01  0.00000000E+00
  6.40000000E+02  2.00000000E+01  0.00000000E+00
  6.40000000E+02  1.80000000E+01  0.00000000E+00
  6.40000000E+02  1.60000000E+01  0.00000000E+00
  6.40000000E+02  1.40000000E+01  0.00000000E+00
  6.40000000E+02  1.20000000E+01  0.00000000E+00
  6.40000000E+02  1.00000000E+01  0.00000000E+00
  6.40000000E+02  8.00000000E+00  0.00000000E+00
  6.40000000E+02  6.00000000E+00  0.00000000E+00
  6.40000000E+02  4.00000000E+00  0.00000000E+00
  6.40000000E+02  2.00000000E+00  0.00000000E+00
  6.40000000E+02 -3.33066907E-14  0.00000000E+00
  6.50000000E+02  1.00000000E+02  0.00000000E+00
  6.50000000E+02  9.80000000E+01  0.00000000E+00
  6.50000000E+02  9.60000000E+01  0.00000000E+00
  6.50000000E+02  9.40000000E+01  0.00000000E+00
  6.50000000E+02  9.20000000E+01  0.00000000E+00
  6.50000000E+02  9.00000000E+01  0.00000000E+00
  6.50000000E+02  8.80000000E+01  0.00000000E+00
  6.50000000E+02  8.60000000E+01  0.00000000E+00
  6.50000000E+02  8.40000000E+01  0.00000000E+00
  6.50000000E+02  8.20000000E+01  0.00000000E+00
  6.50000000E+02  8.00000000E+01  0.00000000E+00
  6.50000000E+02  7.80000000E+01  0.00000000E+00
  6.50000000E+02  7.60000000E+01  0.00000000E+00
  6.50000000E+02  7.40000000E+01  0.00000000E+00
  6.50000000E+02  7.20000000E+01  0.00000000E+00
  6.50000000E+02  7.00000000E+01  0.00000000E+00
  6.50000000E+02  6.80000000E+01  0.00000000E+00
  6.50000000E+02  6.60000000E+01  0.00000000E+00
  6.50000000E+02  6.40000000E+01  0.00000000E+00
  6.50000000E+02  6.20000000E+01  0.00000000E+00
  6.50000000E+02  6.00000000E+01  0.00000000E+00
  6.50000000E+02  5.80000000E+01  0.00000000E+00
  6.50000000E+02  5.60000000E+01  0.00000000E+00
  6.50000000E+02  5.40000000E+01  0.00000000E+00
  6.50000000E+02  5.20000000E+01  0.00000000E+00
  6.50000000E+02  5.00000000E+01  0.00000000E+00
  6.50000000E+02  4.80000000E+01  0.00000000E+00
  6.50000000E+02  4.60000000E+01  0.00000000E+00
  6.50000000E+02  4.40000000E+01  0.00000000E+00
  6.50000000E+02  4.20000000E+01  0.00000000E+00
  6.50000000E+02  4.00000000E+01  0.00000000E+00
  6.50000000E+02  3.80000000E+01  0.00000000E+00
  6.50000000E+02  3.60000000E+01  0.00000000E+00
  6.50000000E+02  3.40000000E+01  0.00000000E+00
  6.50000000E+02  3.20000000E+01  0.00000000E+00
  6.50000000E+02  3.00000000E+01  0.00000000E+00
  6.50000000E+02  2.80000000E+01  0.00000000E+00
  6.50000000E+02  2.60000000E+01  0.00000000E+00
  6.50000000E+02  2.40000000E+01  0.00000000E+00
  6.50000000E+02  2.20000000E+01  0.00000000E+00
  6.50000000E+02  2.00000000E+01  0.00000000E+00
  6.50000000E+02  1.80000000E+01  0.00000000E+00
  6.50000000E+02  1.60000000E+01  0.00000000E+00
  6.50000000E+02  1.40000000E+01  0.00000000E+00
  6.50000000E+02  1.20000000E+01  0.00000000E+00
  6.50000000E+02  1.00000000E+01  0.00000000E+00
  6.50000000E+02  8.00000000E+00  0.00000000E+00
  6.50000000E+02  6.00000000E+00  0.00000000E+00
  6.50000000E+02  4.00000000E+00  0.00000000E+00
  6.50000000E+02  2.00000000E+00  0.00000000E+00
  6.50000000E+02 -3.33066907E-14  0.00000000E+00
  6.60000000E+02  1.00000000E+02  0.00000000E+00
  6.60000000E+02  9.80000000E+01  0.00000000E+00
  6.60000000E+02  9.60000000E+01  0.00000000E+00
  6.60000000E+02  9.40000000E+01  0.00000000E+00
  6.60000000E+02  9.20000000E+01  0.00000000E+00
  6.60000000E+02  9.00000000E+01  0.00000000E+00
  6.60000000E+02  8.80000000E+01  0.00000000E+00
  6.60000000E+02  8.60000000E+01  0.00000000E+00
  6.60000000E+02  8.40000000E+01  0.00000000E+00
  6.60000000E+02  8.20000000E+01  0.00000000E+00
  6.60000000E+02  8.00000000E+01  0.00000000E+00
  6.60000000E+02  7.80000000E+01  0.00000000E+00
  6.60000000E+02  7.60000000E+01  0.00000000E+00
  6.60000000E+02  7.40000000E+01  0.00000000E+00
  6.60000000E+02  7.20000000E+01  0.00000000E+00
  6.60000000E+02  7.00000000E+01  0.00000000E+00
  6.60000000E+02  6.80000000E+01  0.00000000E+00
  6.60000000E+02  6.60000000E+01  0.00000000E+00
  6.60000000E+02  6.40000000E+01  0.00000000E+00
  6.60000000E+02  6.20000000E+01  0.00000000E+00
  6.60000000E+02  6.00000000E+01  0.00000000E+00
  6.60000000E+02  5.80000000E+01  0.00000000E+00
  6.60000000E+02  5.60000000E+01  0.00000000E+00
  6.60000000E+02  5.40000000E+01  0.00000000E+00
  6.60000000E+02  5.20000000E+01  0.00000000E+00
  6.60000000E+02  5.00000000E+01  0.00000000E+00
  6.60000000E+02  4.80000000E+01  0.00000000E+00
  6.60000000E+02  4.60000000E+01  0.00000000E+00
  6.60000000E+02  4.40000000E+01  0.00000000E+00
  6.60000000E+02  4.20000000E+01  0.00000000E+00
  6.60000000E+02  4.00000000E+01  0.00000000E+00
  6.60000000E+02  3.80000000E+01  0.00000000E+00
  6.60000000E+02  3.60000000E+01  0.00000000E+00
  6.60000000E+02  3.40000000E+01  0.00000000E+00
  6.60000000E+02  3.20000000E+01  0.00000000E+00
  6.60000000E+02  3.00000000E+01  0.00000000E+00
  6.60000000E+02  2.80000000E+01  0.00000000E+00
  6.60000000E+02  2.60000000E+01  0.00000000E+00
  6.60000000E+02  2.40000000E+01  0.00000000E+00
  6.60000000E+02  2.20000000E+01  0.00000000E+00
  6.60000000E+02  2.00000000E+01  0.00000000E+00
  6.60000000E+02  1.80000000E+01  0.00000000E+00
  6.60000000E+02  1.60000000E+01  0.00000000E+00
  6.60000000E+02  1.40000000E+01  0.00000000E+00
  6.60000000E+02  1.20000000E+01  0.00000000E+00
  6.60000000E+02  1.00000000E+01  0.00000000E+00
  6.60000000E+02  8.00000000E+00  0.00000000E+00
  6.60000000E+02  6.00000000E+00  0.00000000E+00
  6.60000000E+02  4.00000000E+00  0.00000000E+00
  6.60000000E+02  2.00000000E+00  0.00000000E+00
  6.60000000E+02 -3.33066907E-14  0.00000000E+00
  6.70000000E+02  1.00000000E+02  0.00000000E+00
  6.70000000E+02  9.80000000E+01  0.00000000E+00
  6.70000000E+02  9.60000000E+01  0.00000000E+00
  6.70000000E+02  9.40000000E+01  0.00000000E+00
  6.70000000E+02  9.20000000E+01  0.00000000E+00
  6.70000000E+02  9.00000000E+01  0.00000000E+00
  6.70000000E+02  8.80000000E+01  0.00000000E+00
  6.70000000E+02  8.60000000E+01  0.00000000E+00
  6.70000000E+02  8.40000000E+01  0.00000000E+00
  6.70000000E+02  8.20000000E+01  0.00000000E+00
  6.70000000E+02  8.00000000E+01  0.00000000E+00
  6.70000000E+02  7.80000000E+01  0.00000000E+00
  6.70000000E+02  7.60000000E+01  0.00000000E+00
  6.70000000E+02  7.40000000E+01  0.00000000E+00
  6.70000000E+02  7.20000000E+01  0.00000000E+00
  6.70000000E+02  7.00000000E+01  0.00000000E+00
  6.70000000E+02  6.80000000E+01  0.00000000E+00
  6.70000000E+02  6.60000000E+01  0.00000000E+00
  6.70000000E+02  6.40000000E+01  0.00000000E+00
  6.70000000E+02  6.20000000E+01  0.00000000E+00
  6.70000000E+02  6.00000000E+01  0.00000000E+00
  6.70000000E+02  5.80000000E+01  0.00000000E+00
  6.70000000E+02  5.60000000E+01  0.00000000E+00
  6.70000000E+02  5.40000000E+01  0.00000000E+00
  6.70000000E+02  5.20000000E+01  0.00000000E+00
  6.70000000E+02  5.00000000E+01  0.00000000E+00
  6.70000000E+02  4.80000000E+01  0.00000000E+00
  6.70000000E+02  4.60000000E+01  0.00000000E+00
  6.70000000E+02  4.40000000E+01  0.00000000E+00
  6.70000000E+02  4.20000000E+01  0.00000000E+00
  6.70000000E+02  4.00000000E+01  0.00000000E+00
  6.70000000E+02  3.80000000E+01  0.00000000E+00
  6.70000000E+02  3.60000000E+01  0.00000000E+00
  6.70000000E+02  3.40000000E+01  0.00000000E+00
  6.70000000E+02  3.20000000E+01  0.00000000E+00
  6.70000000E+02  3.00000000E+01  0.00000000E+00
  6.70000000E+02  2.80000000E+01  0.00000000E+00
  6.70000000E+02  2.60000000E+01  0.00000000E+00
  6.70000000E+02  2.40000000E+01  0.00000000E+00
  6.70000000E+02  2.20000000E+01  0.00000000E+00
  6.70000000E+02  2.00000000E+01  0.00000000E+00
  6.70000000E+02  1.80000000E+01  0.00000000E+00
  6.70000000E+02  1.60000000E+01  0.00000000E+00
  6.70000000E+02  1.40000000E+01  0.00000000E+00
  6.70000000E+02  1.20000000E+01  0.00000000E+00
  6.70000000E+02  1.00000000E+01  0.00000000E+00
  6.70000000E+02  8.00000000E+00  0.00000000E+00
  6.70000000E+02  6.00000000E+00  0.00000000E+00
  6.70000000E+02  4.00000000E+00  0.00000000E+00
  6.70000000E+02  2.00000000E+00  0.00000000E+00
  6.70000000E+02 -3.33066907E-14  0.00000000E+00
  6.80000000E+02  1.00000000E+02  0.00000000E+00
  6.80000000E+02  9.80000000E+01  0.00000000E+00
  6.80000000E+02  9.60000000E+01  0.00000000E+00
  6.80000000E+02  9.40000000E+01  0.00000000E+00
  6.80000000E+02  9.20000000E+01  0.00000000E+00
  6.80000000E+02  9.00000000E+01  0.00000000E+00
  6.80000000E+02  8.80000000E+01  0.00000000E+00
  6.80000000E+02  8.60000000E+01  0.00000000E+00
  6.80000000E+02  8.40000000E+01  0.00000000E+00
  6.80000000E+02  8.20000000E+01  0.00000000E+00
  6.80000000E+02  8.00000000E+01  0.00000000E+00
  6.80000000E+02  7.80000000E+01  0.00000000E+00
  6.80000000E+02  7.60000000E+01  0.00000000E+00
  6.80000000E+02  7.40000000E+01  0.00000000E+00
  6.80000000E+02  7.20000000E+01  0.00000000E+00
  6.80000000E+02  7.00000000E+01  0.00000000E+00
  6.80000000E+02  6.80000000E+01  0.00000000E+00
  6.80000000E+02  6.60000000E+01  0.00000000E+00
  6.80000000E+02  6.40000000E+01  0.00000000E+00
  6.80000000E+02  6.20000000E+01  0.00000000E+00
  6.80000000E+02  6.00000000E+01  0.00000000E+00
  6.80000000E+02  5.80000000E+01  0.00000000E+00
  6.80000000E+02  5.60000000E+01  0.00000000E+00
  6.80000000E+02  5.40000000E+01  0.00000000E+00
  6.80000000E+02  5.20000000E+01  0.00000000E+00
  6.80000000E+02  5.00000000E+01  0.00000000E+00
  6.80000000E+02  4.80000000E+01  0.00000000E+00
  6.80000000E+02  4.60000000E+01  0.00000000E+00
  6.80000000E+02  4.40000000E+01  0.00000000E+00
  6.80000000E+02  4.20000000E+01  0.00000000E+00
  6.80000000E+02  4.00000000E+01  0.00000000E+00
  6.80000000E+02  3.80000000E+01  0.00000000E+00
  6.80000000E+02  3.60000000E+01  0.00000000E+00
  6.80000000E+02  3.40000000E+01  0.00000000E+00
  6.80000000E+02  3.20000000E+01  0.00000000E+00
  6.80000000E+02  3.00000000E+01  0.00000000E+00
  6.80000000E+02  2.80000000E+01  0.00000000E+00
  6.80000000E+02  2.60000000E+01  0.00000000E+00
  6.80000000E+02  2.40000000E+01  0.00000000E+00
  6.80000000E+02  2.20000000E+01  0.00000000E+00
  6.80000000E+02  2.00000000E+01  0.00000000E+00
  6.80000000E+02  1.80000000E+01  0.00000000E+00
  6.80000000E+02  1.60000000E+01  0.00000000E+00
  6.80000000E+02  1.40000000E+01  0.00000000E+00
  6.80000000E+02  1.20000000E+01  0.00000000E+00
  6.80000000E+02  1.00000000E+01  0.00000000E+00
  6.80000000E+02  8.00000000E+00  0.00000000E+00
  6.80000000E+02  6.00000000E+00  0.00000000E+00
  6.80000000E+02  4.00000000E+00  0.00000000E+00
  6.80000000E+02  2.00000000E+00  0.00000000E+00
  6.80000000E+02 -3.33066907E-14  0.00000000E+00
  6.90000000E+02  1.00000000E+02  0.00000000E+00
  6.90000000E+02  9.80000000E+01  0.00000000E+00
  6.90000000E+02  9.60000000E+01  0.00000000E+00
  6.90000000E+02  9.40000000E+01  0.00000000E+00
  6.90000000E+02  9.20000000E+01  0.00000000E+00
  6.90000000E+02  9.00000000E+01  0.00000000E+00
  6.90000000E+02  8.80000000E+01  0.00000000E+00
  6.90000000E+02  8.60000000E+01  0.00000000E+00
  6.90000000E+02  8.40000000E+01  0.00000000E+00
  6.90000000E+02  8.20000000E+01  0.00000000E+00
  6.90000000E+02  8.00000000E+01  0.00000000E+00
  6.90000000E+02  7.80000000E+01  0.00000000E+00
  6.90000000E+02  7.60000000E+01  0.00000000E+00
  6.90000000E+02  7.40000000E+01  0.00000000E+00
  6.90000000E+02  7.20000000E+01  0.00000000E+00
  6.90000000E+02  7.00000000E+01  0.00000000E+00
  6.90000000E+02  6.80000000E+01  0.00000000E+00
  6.90000000E+02  6.60000000E+01  0.00000000E+00
  6.90000000E+02  6.40000000E+01  0.00000000E+00
  6.90000000E+02  6.20000000E+01  0.00000000E+00
  6.90000000E+02  6.00000000E+01  0.00000000E+00
  6.90000000E+02  5.80000000E+01  0.00000000E+00
  6.90000000E+02  5.60000000E+01  0.00000000E+00
  6.90000000E+02  5.40000000E+01  0.00000000E+00
  6.90000000E+02  5.20000000E+01  0.00000000E+00
  6.90000000E+02  5.00000000E+01  0.00000000E+00
  6.90000000E+02  4.80000000E+01  0.00000000E+00
  6.90000000E+02  4.60000000E+01  0.00000000E+00
  6.90000000E+02  4.40000000E+01  0.00000000E+00
  6.90000000E+02  4.20000000E+01  0.00000000E+00
  6.90000000E+02  4.00000000E+01  0.00000000E+00
  6.90000000E+02  3.80000000E+01  0.00000000E+00
  6.90000000E+02  3.60000000E+01  0.00000000E+00
  6.90000000E+02  3.40000000E+01  0.00000000E+00
  6.90000000E+02  3.20000000E+01  0.00000000E+00
  6.90000000E+02  3.00000000E+01  0.00000000E+00
  6.90000000E+02  2.80000000E+01  0.00000000E+00
  6.90000000E+02  2.60000000E+01  0.00000000E+00
  6.90000000E+02  2.40000000E+01  0.00000000E+00
  6.90000000E+02  2.20000000E+01  0.00000000E+00
  6.90000000E+02  2.00000000E+01  0.00000000E+00
  6.90000000E+02  1.80000000E+01  0.00000000E+00
  6.90000000E+02  1.60000000E+01  0.00000000E+00
  6.90000000E+02  1.40000000E+01  0.00000000E+00
  6.90000000E+02  1.20000000E+01  0.00000000E+00
  6.90000000E+02  1.00000000E+01  0.00000000E+00
  6.90000000E+02  8.00000000E+00  0.00000000E+00
  6.90000000E+02  6.00000000E+00  0.00000000E+00
  6.90000000E+02  4.00000000E+00  0.00000000E+00
  6.90000000E+02  2.00000000E+00  0.00000000E+00
  6.90000000E+02 -3.33066907E-14  0.00000000E+00
  7.00000000E+02  1.00000000E+02  0.00000000E+00
  7.00000000E+02  9.80000000E+01  0.00000000E+00
  7.00000000E+02  9.60000000E+01  0.00000000E+00
  7.00000000E+02  9.40000000E+01  0.00000000E+00
  7.00000000E+02  9.20000000E+01  0.00000000E+00
  7.00000000E+02  9.00000000E+01  0.00000000E+00
  7.00000000E+02  8.80000000E+01  0.00000000E+00
  7.00000000E+02  8.60000000E+01  0.00000000E+00
  7.00000000E+02  8.40000000E+01  0.00000000E+00
  7.00000000E+02  8.20000000E+01  0.00000000E+00
  7.00000000E+02  8.00000000E+01  0.00000000E+00
  7.00000000E+02  7.80000000E+01  0.00000000E+00
  7.00000000E+02  7.60000000E+01  0.00000000E+00
  7.00000000E+02  7.40000000E+01  0.00000000E+00
  7.00000000E+02  7.20000000E+01  0.00000000E+00
  7.00000000E+02  7.00000000E+01  0.00000000E+00
  7.00000000E+02  6.80000000E+01  0.00000000E+00
  7.00000000E+02  6.60000000E+01  0.00000000E+00
  7.00000000E+02  6.40000000E+01  0.00000000E+00
  7.00000000E+02  6.20000000E+01  0.00000000E+00
  7.00000000E+02  6.00000000E+01  0.00000000E+00
  7.00000000E+02  5.80000000E+01  0.00000000E+00
  7.00000000E+02  5.60000000E+01  0.00000000E+00
  7.00000000E+02  5.40000000E+01  0.00000000E+00
  7.00000000E+02  5.20000000E+01  0.00000000E+00
  7.00000000E+02  5.00000000E+01  0.00000000E+00
  7.00000000E+02  4.80000000E+01  0.00000000E+00
  7.00000000E+02  4.60000000E+01  0.00000000E+00
  7.00000000E+02  4.40000000E+01  0.00000000E+00
  7.00000000E+02  4.20000000E+01  0.00000000E+00
  7.00000000E+02  4.00000000E+01  0.00000000E+00
  7.00000000E+02  3.80000000E+01  0.00000000E+00
  7.00000000E+02  3.60000000E+01  0.00000000E+00
  7.00000000E+02  3.40000000E+01  0.00000000E+00
  7.00000000E+02  3.20000000E+01  0.00000000E+00
  7.00000000E+02  3.00000000E+01  0.00000000E+00
  7.00000000E+02  2.80000000E+01  0.00000000E+00
  7.00000000E+02  2.60000000E+01  0.00000000E+00
  7.00000000E+02  2.40000000E+01  0.00000000E+00
  7.00000000E+02  2.20000000E+01  0.00000000E+00
  7.00000000E+02  2.00000000E+01  0.00000000E+00
  7.00000000E+02  1.80000000E+01  0.00000000E+00
  7.00000000E+02  1.60000000E+01  0.00000000E+00
  7.00000000E+02  1.40000000E+01  0.00000000E+00
  7.00000000E+02  1.20000000E+01  0.00000000E+00
  7.00000000E+02  1.00000000E+01  0.00000000E+00
  7.00000000E+02  8.00000000E+00  0.00000000E+00
  7.00000000E+02  6.00000000E+00  0.00000000E+00
  7.00000000E+02  4.00000000E+00  0.00000000E+00
  7.00000000E+02  2.00000000E+00  0.00000000E+00
  7.00000000E+02 -3.33066907E-14  0.00000000E+00
  7.10000000E+02  1.00000000E+02  0.00000000E+00
  7.10000000E+02  9.80000000E+01  0.00000000E+00
  7.10000000E+02  9.60000000E+01  0.00000000E+00
  7.10000000E+02  9.40000000E+01  0.00000000E+00
  7.10000000E+02  9.20000000E+01  0.00000000E+00
  7.10000000E+02  9.00000000E+01  0.00000000E+00
  7.10000000E+02  8.80000000E+01  0.00000000E+00
  7.10000000E+02  8.60000000E+01  0.00000000E+00
  7.10000000E+02  8.40000000E+01  0.00000000E+00
  7.10000000E+02  8.20000000E+01  0.00000000E+00
  7.10000000E+02  8.00000000E+01  0.00000000E+00
  7.10000000E+02  7.80000000E+01  0.00000000E+00
  7.10000000E+02  7.60000000E+01  0.00000000E+00
  7.10000000E+02  7.40000000E+01  0.00000000E+00
  7.10000000E+02  7.20000000E+01  0.00000000E+00
  7.10000000E+02  7.00000000E+01  0.00000000E+00
  7.10000000E+02  6.80000000E+01  0.00000000E+00
  7.10000000E+02  6.60000000E+01  0.00000000E+00
  7.10000000E+02  6.40000000E+01  0.00000000E+00
  7.10000000E+02  6.20000000E+01  0.00000000E+00
  7.10000000E+02  6.00000000E+01  0.00000000E+00
  7.10000000E+02  5.80000000E+01  0.00000000E+00
  7.10000000E+02  5.60000000E+01  0.00000000E+00
  7.10000000E+02  5.40000000E+01  0.00000000E+00
  7.10000000E+02  5.20000000E+01  0.00000000E+00
  7.10000000E+02  5.00000000E+01  0.00000000E+00
  7.10000000E+02  4.80000000E+01  0.00000000E+00
  7.10000000E+02  4.60000000E+01  0.00000000E+00
  7.10000000E+02  4.40000000E+01  0.00000000E+00
  7.10000000E+02  4.20000000E+01  0.00000000E+00
  7.10000000E+02  4.00000000E+01  0.00000000E+00
  7.10000000E+02  3.80000000E+01  0.00000000E+00
  7.10000000E+02  3.60000000E+01  0.00000000E+00
  7.10000000E+02  3.40000000E+01  0.00000000E+00
  7.10000000E+02  3.20000000E+01  0.00000000E+00
  7.10000000E+02  3.00000000E+01  0.00000000E+00
  7.10000000E+02  2.80000000E+01  0.00000000E+00
  7.10000000E+02  2.60000000E+01  0.00000000E+00
  7.10000000E+02  2.40000000E+01  0.00000000E+00
  7.10000000E+02  2.20000000E+01  0.00000000E+00
  7.10000000E+02  2.00000000E+01  0.00000000E+00
  7.10000000E+02  1.80000000E+01  0.00000000E+00
  7.10000000E+02  1.60000000E+01  0.00000000E+00
  7.10000000E+02  1.40000000E+01  0.00000000E+00
  7.10000000E+02  1.20000000E+01  0.00000000E+00
  7.10000000E+02  1.00000000E+01  0.00000000E+00
  7.10000000E+02  8.00000000E+00  0.00000000E+00
  7.10000000E+02  6.00000000E+00  0.00000000E+00
  7.10000000E+02  4.00000000E+00  0.00000000E+00
  7.10000000E+02  2.00000000E+00  0.00000000E+00
  7.10000000E+02 -3.33066907E-14  0.00000000E+00
  7.20000000E+02  1.00000000E+02  0.00000000E+00
  7.20000000E+02  9.80000000E+01  0.00000000E+00
  7.20000000E+02  9.60000000E+01  0.00000000E+00
  7.20000000E+02  9.40000000E+01  0.00000000E+00
  7.20000000E+02  9.20000000E+01  0.00000000E+00
  7.20000000E+02  9.00000000E+01  0.00000000E+00
  7.20000000E+02  8.80000000E+01  0.00000000E+00
  7.20000000E+02  8.60000000E+01  0.00000000E+00
  7.20000000E+02  8.40000000E+01  0.00000000E+00
  7.20000000E+02  8.20000000E+01  0.00000000E+00
  7.20000000E+02  8.00000000E+01  0.00000000E+00
  7.20000000E+02  7.80000000E+01  0.00000000E+00
  7.20000000E+02  7.60000000E+01  0.00000000E+00
  7.20000000E+02  7.40000000E+01  0.00000000E+00
  7.20000000E+02  7.20000000E+01  0.00000000E+00
  7.20000000E+02  7.00000000E+01  0.00000000E+00
  7.20000000E+02  6.80000000E+01  0.00000000E+00
  7.20000000E+02  6.60000000E+01  0.00000000E+00
  7.20000000E+02  6.40000000E+01  0.00000000E+00
  7.20000000E+02  6.20000000E+01  0.00000000E+00
  7.20000000E+02  6.00000000E+01  0.00000000E+00
  7.20000000E+02  5.80000000E+01  0.00000000E+00
  7.20000000E+02  5.60000000E+01  0.00000000E+00
  7.20000000E+02  5.40000000E+01  0.00000000E+00
  7.20000000E+02  5.20000000E+01  0.00000000E+00
  7.20000000E+02  5.00000000E+01  0.00000000E+00
  7.20000000E+02  4.80000000E+01  0.00000000E+00
  7.20000000E+02  4.60000000E+01  0.00000000E+00
  7.20000000E+02  4.40000000E+01  0.00000000E+00
  7.20000000E+02  4.20000000E+01  0.00000000E+00
  7.20000000E+02  4.00000000E+01  0.00000000E+00
  7.20000000E+02  3.80000000E+01  0.00000000E+00
  7.20000000E+02  3.60000000E+01  0.00000000E+00
  7.20000000E+02  3.40000000E+01  0.00000000E+00
  7.20000000E+02  3.20000000E+01  0.00000000E+00
  7.20000000E+02  3.00000000E+01  0.00000000E+00
  7.20000000E+02  2.80000000E+01  0.00000000E+00
  7.20000000E+02  2.60000000E+01  0.00000000E+00
  7.20000000E+02  2.40000000E+01  0.00000000E+00
  7.20000000E+02  2.20000000E+01  0.00000000E+00
  7.20000000E+02  2.00000000E+01  0.00000000E+00
  7.20000000E+02  1.80000000E+01  0.00000000E+00
  7.20000000E+02  1.60000000E+01  0.00000000E+00
  7.20000000E+02  1.40000000E+01  0.00000000E+00
  7.20000000E+02  1.20000000E+01  0.00000000E+00
  7.20000000E+02  1.00000000E+01  0.00000000E+00
  7.20000000E+02  8.00000000E+00  0.00000000E+00
  7.20000000E+02  6.00000000E+00  0.00000000E+00
  7.20000000E+02  4.00000000E+00  0.00000000E+00
  7.20000000E+02  2.00000000E+00  0.00000000E+00
  7.20000000E+02 -3.33066907E-14  0.00000000E+00
  7.30000000E+02  1.00000000E+02  0.00000000E+00
  7.30000000E+02  9.80000000E+01  0.00000000E+00
  7.30000000E+02  9.60000000E+01  0.00000000E+00
  7.30000000E+02  9.40000000E+01  0.00000000E+00
  7.30000000E+02  9.20000000E+01  0.00000000E+00
  7.30000000E+02  9.00000000E+01  0.00000000E+00
  7.30000000E+02  8.80000000E+01  0.00000000E+00
  7.30000000E+02  8.60000000E+01  0.00000000E+00
  7.30000000E+02  8.40000000E+01  0.00000000E+00
  7.30000000E+02  8.20000000E+01  0.00000000E+00
  7.30000000E+02  8.00000000E+01  0.00000000E+00
  7.30000000E+02  7.80000000E+01  0.00000000E+00
  7.30000000E+02  7.60000000E+01  0.00000000E+00
  7.30000000E+02  7.40000000E+01  0.00000000E+00
  7.30000000E+02  7.20000000E+01  0.00000000E+00
  7.30000000E+02  7.00000000E+01  0.00000000E+00
  7.30000000E+02  6.80000000E+01  0.00000000E+00
  7.30000000E+02  6.60000000E+01  0.00000000E+00
  7.30000000E+02  6.40000000E+01  0.00000000E+00
  7.30000000E+02  6.20000000E+01  0.00000000E+00
  7.30000000E+02  6.00000000E+01  0.00000000E+00
  7.30000000E+02  5.80000000E+01  0.00000000E+00
  7.30000000E+02  5.60000000E+01  0.00000000E+00
  7.30000000E+02  5.40000000E+01  0.00000000E+00
  7.30000000E+02  5.20000000E+01  0.00000000E+00
  7.30000000E+02  5.00000000E+01  0.00000000E+00
  7.30000000E+02  4.80000000E+01  0.00000000E+00
  7.30000000E+02  4.60000000E+01  0.00000000E+00
  7.30000000E+02  4.40000000E+01  0.00000000E+00
  7.30000000E+02  4.20000000E+01  0.00000000E+00
  7.30000000E+02  4.00000000E+01  0.00000000E+00
  7.30000000E+02  3.80000000E+01  0.00000000E+00
  7.30000000E+02  3.60000000E+01  0.00000000E+00
  7.30000000E+02  3.40000000E+01  0.00000000E+00
  7.30000000E+02  3.20000000E+01  0.00000000E+00
  7.30000000E+02  3.00000000E+01  0.00000000E+00
  7.30000000E+02  2.80000000E+01  0.00000000E+00
  7.30000000E+02  2.60000000E+01  0.00000000E+00
  7.30000000E+02  2.40000000E+01  0.00000000E+00
  7.30000000E+02  2.20000000E+01  0.00000000E+00
  7.30000000E+02  2.00000000E+01  0.00000000E+00
  7.30000000E+02  1.80000000E+01  0.00000000E+00
  7.30000000E+02  1.60000000E+01  0.00000000E+00
  7.30000000E+02  1.40000000E+01  0.00000000E+00
  7.30000000E+02  1.20000000E+01  0.00000000E+00
  7.30000000E+02  1.00000000E+01  0.00000000E+00
  7.30000000E+02  8.00000000E+00  0.00000000E+00
  7.30000000E+02  6.00000000E+00  0.00000000E+00
  7.30000000E+02  4.00000000E+00  0.00000000E+00
  7.30000000E+02  2.00000000E+00  0.00000000E+00
  7.30000000E+02 -3.33066907E-14  0.00000000E+00
  7.40000000E+02  1.00000000E+02  0.00000000E+00
  7.40000000E+02  9.80000000E+01  0.00000000E+00
  7.40000000E+02  9.60000000E+01  0.00000000E+00
  7.40000000E+02  9.40000000E+01  0.00000000E+00
  7.40000000E+02  9.20000000E+01  0.00000000E+00
  7.40000000E+02  9.00000000E+01  0.00000000E+00
  7.40000000E+02  8.80000000E+01  0.00000000E+00
  7.40000000E+02  8.60000000E+01  0.00000000E+00
  7.40000000E+02  8.40000000E+01  0.00000000E+00
  7.40000000E+02  8.20000000E+01  0.00000000E+00
  7.40000000E+02  8.00000000E+01  0.00000000E+00
  7.40000000E+02  7.80000000E+01  0.00000000E+00
  7.40000000E+02  7.60000000E+01  0.00000000E+00
  7.40000000E+02  7.40000000E+01  0.00000000E+00
  7.40000000E+02  7.20000000E+01  0.00000000E+00
  7.40000000E+02  7.00000000E+01  0.00000000E+00
  7.40000000E+02  6.80000000E+01  0.00000000E+00
  7.40000000E+02  6.60000000E+01  0.00000000E+00
  7.40000000E+02  6.40000000E+01  0.00000000E+00
  7.40000000E+02  6.20000000E+01  0.00000000E+00
  7.40000000E+02  6.00000000E+01  0.00000000E+00
  7.40000000E+02  5.80000000E+01  0.00000000E+00
  7.40000000E+02  5.60000000E+01  0.00000000E+00
  7.40000000E+02  5.40000000E+01  0.00000000E+00
  7.40000000E+02  5.20000000E+01  0.00000000E+00
  7.40000000E+02  5.00000000E+01  0.00000000E+00
  7.40000000E+02  4.80000000E+01  0.00000000E+00
  7.40000000E+02  4.60000000E+01  0.00000000E+00
  7.40000000E+02  4.40000000E+01  0.00000000E+00
  7.40000000E+02  4.20000000E+01  0.00000000E+00
  7.40000000E+02  4.00000000E+01  0.00000000E+00
  7.40000000E+02  3.80000000E+01  0.00000000E+00
  7.40000000E+02  3.60000000E+01  0.00000000E+00
  7.40000000E+02  3.40000000E+01  0.00000000E+00
  7.40000000E+02  3.20000000E+01  0.00000000E+00
  7.40000000E+02  3.00000000E+01  0.00000000E+00
  7.40000000E+02  2.80000000E+01  0.00000000E+00
  7.40000000E+02  2.60000000E+01  0.00000000E+00
  7.40000000E+02  2.40000000E+01  0.00000000E+00
  7.40000000E+02  2.20000000E+01  0.00000000E+00
  7.40000000E+02  2.00000000E+01  0.00000000E+00
  7.40000000E+02  1.80000000E+01  0.00000000E+00
  7.40000000E+02  1.60000000E+01  0.00000000E+00
  7.40000000E+02  1.40000000E+01  0.00000000E+00
  7.40000000E+02  1.20000000E+01  0.00000000E+00
  7.40000000E+02  1.00000000E+01  0.00000000E+00
  7.40000000E+02  8.00000000E+00  0.00000000E+00
  7.40000000E+02  6.00000000E+00  0.00000000E+00
  7.40000000E+02  4.00000000E+00  0.00000000E+00
  7.40000000E+02  2.00000000E+00  0.00000000E+00
  7.40000000E+02 -3.33066907E-14  0.00000000E+00
  7.50000000E+02  1.00000000E+02  0.00000000E+00
  7.50000000E+02  9.80000000E+01  0.00000000E+00
  7.50000000E+02  9.60000000E+01  0.00000000E+00
  7.50000000E+02  9.40000000E+01  0.00000000E+00
  7.50000000E+02  9.20000000E+01  0.00000000E+00
  7.50000000E+02  9.00000000E+01  0.00000000E+00
  7.50000000E+02  8.80000000E+01  0.00000000E+00
  7.50000000E+02  8.60000000E+01  0.00000000E+00
  7.50000000E+02  8.40000000E+01  0.00000000E+00
  7.50000000E+02  8.20000000E+01  0.00000000E+00
  7.50000000E+02  8.00000000E+01  0.00000000E+00
  7.50000000E+02  7.80000000E+01  0.00000000E+00
  7.50000000E+02  7.60000000E+01  0.00000000E+00
  7.50000000E+02  7.40000000E+01  0.00000000E+00
  7.50000000E+02  7.20000000E+01  0.00000000E+00
  7.50000000E+02  7.00000000E+01  0.00000000E+00
  7.50000000E+02  6.80000000E+01  0.00000000E+00
  7.50000000E+02  6.60000000E+01  0.00000000E+00
  7.50000000E+02  6.40000000E+01  0.00000000E+00
  7.50000000E+02  6.20000000E+01  0.00000000E+00
  7.50000000E+02  6.00000000E+01  0.00000000E+00
  7.50000000E+02  5.80000000E+01  0.00000000E+00
  7.50000000E+02  5.60000000E+01  0.00000000E+00
  7.50000000E+02  5.40000000E+01  0.00000000E+00
  7.50000000E+02  5.20000000E+01  0.00000000E+00
  7.50000000E+02  5.00000000E+01  0.00000000E+00
  7.50000000E+02  4.80000000E+01  0.00000000E+00
  7.50000000E+02  4.60000000E+01  0.00000000E+00
  7.50000000E+02  4.40000000E+01  0.00000000E+00
  7.50000000E+02  4.20000000E+01  0.00000000E+00
  7.50000000E+02  4.00000000E+01  0.00000000E+00
  7.50000000E+02  3.80000000E+01  0.00000000E+00
  7.50000000E+02  3.60000000E+01  0.00000000E+00
  7.50000000E+02  3.40000000E+01  0.00000000E+00
  7.50000000E+02  3.20000000E+01  0.00000000E+00
  7.50000000E+02  3.00000000E+01  0.00000000E+00
  7.50000000E+02  2.80000000E+01  0.00000000E+00
  7.50000000E+02  2.60000000E+01  0.00000000E+00
  7.50000000E+02  2.40000000E+01  0.00000000E+00
  7.50000000E+02  2.20000000E+01  0.00000000E+00
  7.50000000E+02  2.00000000E+01  0.00000000E+00
  7.50000000E+02  1.80000000E+01  0.00000000E+00
  7.50000000E+02  1.60000000E+01  0.00000000E+00
  7.50000000E+02  1.40000000E+01  0.00000000E+00
  7.50000000E+02  1.20000000E+01  0.00000000E+00
  7.50000000E+02  1.00000000E+01  0.00000000E+00
  7.50000000E+02  8.00000000E+00  0.00000000E+00
  7.50000000E+02  6.00000000E+00  0.00000000E+00
  7.50000000E+02  4.00000000E+00  0.00000000E+00
  7.50000000E+02  2.00000000E+00  0.00000000E+00
  7.50000000E+02 -3.33066907E-14  0.00000000E+00
  7.60000000E+02  1.00000000E+02  0.00000000E+00
  7.60000000E+02  9.80000000E+01  0.00000000E+00
  7.60000000E+02  9.60000000E+01  0.00000000E+00
  7.60000000E+02  9.40000000E+01  0.00000000E+00
  7.60000000E+02  9.20000000E+01  0.00000000E+00
  7.60000000E+02  9.00000000E+01  0.00000000E+00
  7.60000000E+02  8.80000000E+01  0.00000000E+00
  7.60000000E+02  8.60000000E+01  0.00000000E+00
  7.60000000E+02  8.40000000E+01  0.00000000E+00
  7.60000000E+02  8.20000000E+01  0.00000000E+00
  7.60000000E+02  8.00000000E+01  0.00000000E+00
  7.60000000E+02  7.80000000E+01  0.00000000E+00
  7.60000000E+02  7.60000000E+01  0.00000000E+00
  7.60000000E+02  7.40000000E+01  0.00000000E+00
  7.60000000E+02  7.20000000E+01  0.00000000E+00
  7.60000000E+02  7.00000000E+01  0.00000000E+00
  7.60000000E+02  6.80000000E+01  0.00000000E+00
  7.60000000E+02  6.60000000E+01  0.00000000E+00
  7.60000000E+02  6.40000000E+01  0.00000000E+00
  7.60000000E+02  6.20000000E+01  0.00000000E+00
  7.60000000E+02  6.00000000E+01  0.00000000E+00
  7.60000000E+02  5.80000000E+01  0.00000000E+00
  7.60000000E+02  5.60000000E+01  0.00000000E+00
  7.60000000E+02  5.40000000E+01  0.00000000E+00
  7.60000000E+02  5.20000000E+01  0.00000000E+00
  7.60000000E+02  5.00000000E+01  0.00000000E+00
  7.60000000E+02  4.80000000E+01  0.00000000E+00
  7.60000000E+02  4.60000000E+01  0.00000000E+00
  7.60000000E+02  4.40000000E+01  0.00000000E+00
  7.60000000E+02  4.20000000E+01  0.00000000E+00
  7.60000000E+02  4.00000000E+01  0.00000000E+00
  7.60000000E+02  3.80000000E+01  0.00000000E+00
  7.60000000E+02  3.60000000E+01  0.00000000E+00
  7.60000000E+02  3.40000000E+01  0.00000000E+00
  7.60000000E+02  3.20000000E+01  0.00000000E+00
  7.60000000E+02  3.00000000E+01  0.00000000E+00
  7.60000000E+02  2.80000000E+01  0.00000000E+00
  7.60000000E+02  2.60000000E+01  0.00000000E+00
  7.60000000E+02  2.40000000E+01  0.00000000E+00
  7.60000000E+02  2.20000000E+01  0.00000000E+00
  7.60000000E+02  2.00000000E+01  0.00000000E+00
  7.60000000E+02  1.80000000E+01  0.00000000E+00
  7.60000000E+02  1.60000000E+01  0.00000000E+00
  7.60000000E+02  1.40000000E+01  0.00000000E+00
  7.60000000E+02  1.20000000E+01  0.00000000E+00
  7.60000000E+02  1.00000000E+01  0.00000000E+00
  7.60000000E+02  8.00000000E+00  0.00000000E+00
  7.60000000E+02  6.00000000E+00  0.00000000E+00
  7.60000000E+02  4.00000000E+00  0.00000000E+00
  7.60000000E+02  2.00000000E+00  0.00000000E+00
  7.60000000E+02 -3.33066907E-14  0.00000000E+00
  7.70000000E+02  1.00000000E+02  0.00000000E+00
  7.70000000E+02  9.80000000E+01  0.00000000E+00
  7.70000000E+02  9.60000000E+01  0.00000000E+00
  7.70000000E+02  9.40000000E+01  0.00000000E+00
  7.70000000E+02  9.20000000E+01  0.00000000E+00
  7.70000000E+02  9.00000000E+01  0.00000000E+00
  7.70000000E+02  8.80000000E+01  0.00000000E+00
  7.70000000E+02  8.60000000E+01  0.00000000E+00
  7.70000000E+02  8.40000000E+01  0.00000000E+00
  7.70000000E+02  8.20000000E+01  0.00000000E+00
  7.70000000E+02  8.00000000E+01  0.00000000E+00
  7.70000000E+02  7.80000000E+01  0.00000000E+00
  7.70000000E+02  7.60000000E+01  0.00000000E+00
  7.70000000E+02  7.40000000E+01  0.00000000E+00
  7.70000000E+02  7.20000000E+01  0.00000000E+00
  7.70000000E+02  7.00000000E+01  0.00000000E+00
  7.70000000E+02  6.80000000E+01  0.00000000E+00
  7.70000000E+02  6.60000000E+01  0.00000000E+00
  7.70000000E+02  6.40000000E+01  0.00000000E+00
  7.70000000E+02  6.20000000E+01  0.00000000E+00
  7.70000000E+02  6.00000000E+01  0.00000000E+00
  7.70000000E+02  5.80000000E+01  0.00000000E+00
  7.70000000E+02  5.60000000E+01  0.00000000E+00
  7.70000000E+02  5.40000000E+01  0.00000000E+00
  7.70000000E+02  5.20000000E+01  0.00000000E+00
  7.70000000E+02  5.00000000E+01  0.00000000E+00
  7.70000000E+02  4.80000000E+01  0.00000000E+00
  7.70000000E+02  4.60000000E+01  0.00000000E+00
  7.70000000E+02  4.40000000E+01  0.00000000E+00
  7.70000000E+02  4.20000000E+01  0.00000000E+00
  7.70000000E+02  4.00000000E+01  0.00000000E+00
  7.70000000E+02  3.80000000E+01  0.00000000E+00
  7.70000000E+02  3.60000000E+01  0.00000000E+00
  7.70000000E+02  3.40000000E+01  0.00000000E+00
  7.70000000E+02  3.20000000E+01  0.00000000E+00
  7.70000000E+02  3.00000000E+01  0.00000000E+00
  7.70000000E+02  2.80000000E+01  0.00000000E+00
  7.70000000E+02  2.60000000E+01  0.00000000E+00
  7.70000000E+02  2.40000000E+01  0.00000000E+00
  7.70000000E+02  2.20000000E+01  0.00000000E+00
  7.70000000E+02  2.00000000E+01  0.00000000E+00
  7.70000000E+02  1.80000000E+01  0.00000000E+00
  7.70000000E+02  1.60000000E+01  0.00000000E+00
  7.70000000E+02  1.40000000E+01  0.00000000E+00
  7.70000000E+02  1.20000000E+01  0.00000000E+00
  7.70000000E+02  1.00000000E+01  0.00000000E+00
  7.70000000E+02  8.00000000E+00  0.00000000E+00
  7.70000000E+02  6.00000000E+00  0.00000000E+00
  7.70000000E+02  4.00000000E+00  0.00000000E+00
  7.70000000E+02  2.00000000E+00  0.00000000E+00
  7.70000000E+02 -3.33066907E-14  0.00000000E+00
  7.80000000E+02  1.00000000E+02  0.00000000E+00
  7.80000000E+02  9.80000000E+01  0.00000000E+00
  7.80000000E+02  9.60000000E+01  0.00000000E+00
  7.80000000E+02  9.40000000E+01  0.00000000E+00
  7.80000000E+02  9.20000000E+01  0.00000000E+00
  7.80000000E+02  9.00000000E+01  0.00000000E+00
  7.80000000E+02  8.80000000E+01  0.00000000E+00
  7.80000000E+02  8.60000000E+01  0.00000000E+00
  7.80000000E+02  8.40000000E+01  0.00000000E+00
  7.80000000E+02  8.20000000E+01  0.00000000E+00
  7.80000000E+02  8.00000000E+01  0.00000000E+00
  7.80000000E+02  7.80000000E+01  0.00000000E+00
  7.80000000E+02  7.60000000E+01  0.00000000E+00
  7.80000000E+02  7.40000000E+01  0.00000000E+00
  7.80000000E+02  7.20000000E+01  0.00000000E+00
  7.80000000E+02  7.00000000E+01  0.00000000E+00
  7.80000000E+02  6.80000000E+01  0.00000000E+00
  7.80000000E+02  6.60000000E+01  0.00000000E+00
  7.80000000E+02  6.40000000E+01  0.00000000E+00
  7.80000000E+02  6.20000000E+01  0.00000000E+00
  7.80000000E+02  6.00000000E+01  0.00000000E+00
  7.80000000E+02  5.80000000E+01  0.00000000E+00
  7.80000000E+02  5.60000000E+01  0.00000000E+00
  7.80000000E+02  5.40000000E+01  0.00000000E+00
  7.80000000E+02  5.20000000E+01  0.00000000E+00
  7.80000000E+02  5.00000000E+01  0.00000000E+00
  7.80000000E+02  4.80000000E+01  0.00000000E+00
  7.80000000E+02  4.60000000E+01  0.00000000E+00
  7.80000000E+02  4.40000000E+01  0.00000000E+00
  7.80000000E+02  4.20000000E+01  0.00000000E+00
  7.80000000E+02  4.00000000E+01  0.00000000E+00
  7.80000000E+02  3.80000000E+01  0.00000000E+00
  7.80000000E+02  3.60000000E+01  0.00000000E+00
  7.80000000E+02  3.40000000E+01  0.00000000E+00
  7.80000000E+02  3.20000000E+01  0.00000000E+00
  7.80000000E+02  3.00000000E+01  0.00000000E+00
  7.80000000E+02  2.80000000E+01  0.00000000E+00
  7.80000000E+02  2.60000000E+01  0.00000000E+00
  7.80000000E+02  2.40000000E+01  0.00000000E+00
  7.80000000E+02  2.20000000E+01  0.00000000E+00
  7.80000000E+02  2.00000000E+01  0.00000000E+00
  7.80000000E+02  1.80000000E+01  0.00000000E+00
  7.80000000E+02  1.60000000E+01  0.00000000E+00
  7.80000000E+02  1.40000000E+01  0.00000000E+00
  7.80000000E+02  1.20000000E+01  0.00000000E+00
  7.80000000E+02  1.00000000E+01  0.00000000E+00
  7.80000000E+02  8.00000000E+00  0.00000000E+00
  7.80000000E+02  6.00000000E+00  0.00000000E+00
  7.80000000E+02  4.00000000E+00  0.00000000E+00
  7.80000000E+02  2.00000000E+00  0.00000000E+00
  7.80000000E+02 -3.33066907E-14  0.00000000E+00
  7.90000000E+02  1.00000000E+02  0.00000000E+00
  7.90000000E+02  9.80000000E+01  0.00000000E+00
  7.90000000E+02  9.60000000E+01  0.00000000E+00
  7.90000000E+02  9.40000000E+01  0.00000000E+00
  7.90000000E+02  9.20000000E+01  0.00000000E+00
  7.90000000E+02  9.00000000E+01  0.00000000E+00
  7.90000000E+02  8.80000000E+01  0.00000000E+00
  7.90000000E+02  8.60000000E+01  0.00000000E+00
  7.90000000E+02  8.40000000E+01  0.00000000E+00
  7.90000000E+02  8.20000000E+01  0.00000000E+00
  7.90000000E+02  8.00000000E+01  0.00000000E+00
  7.90000000E+02  7.80000000E+01  0.00000000E+00
  7.90000000E+02  7.60000000E+01  0.00000000E+00
  7.90000000E+02  7.40000000E+01  0.00000000E+00
  7.90000000E+02  7.20000000E+01  0.00000000E+00
  7.90000000E+02  7.00000000E+01  0.00000000E+00
  7.90000000E+02  6.80000000E+01  0.00000000E+00
  7.90000000E+02  6.60000000E+01  0.00000000E+00
  7.90000000E+02  6.40000000E+01  0.00000000E+00
  7.90000000E+02  6.20000000E+01  0.00000000E+00
  7.90000000E+02  6.00000000E+01  0.00000000E+00
  7.90000000E+02  5.80000000E+01  0.00000000E+00
  7.90000000E+02  5.60000000E+01  0.00000000E+00
  7.90000000E+02  5.40000000E+01  0.00000000E+00
  7.90000000E+02  5.20000000E+01  0.00000000E+00
  7.90000000E+02  5.00000000E+01  0.00000000E+00
  7.90000000E+02  4.80000000E+01  0.00000000E+00
  7.90000000E+02  4.60000000E+01  0.00000000E+00
  7.90000000E+02  4.40000000E+01  0.00000000E+00
  7.90000000E+02  4.20000000E+01  0.00000000E+00
  7.90000000E+02  4.00000000E+01  0.00000000E+00
  7.90000000E+02  3.80000000E+01  0.00000000E+00
  7.90000000E+02  3.60000000E+01  0.00000000E+00
  7.90000000E+02  3.40000000E+01  0.00000000E+00
  7.90000000E+02  3.20000000E+01  0.00000000E+00
  7.90000000E+02  3.00000000E+01  0.00000000E+00
  7.90000000E+02  2.80000000E+01  0.00000000E+00
  7.90000000E+02  2.60000000E+01  0.00000000E+00
  7.90000000E+02  2.40000000E+01  0.00000000E+00
  7.90000000E+02  2.20000000E+01  0.00000000E+00
  7.90000000E+02  2.00000000E+01  0.00000000E+00
  7.90000000E+02  1.80000000E+01  0.00000000E+00
  7.90000000E+02  1.60000000E+01  0.00000000E+00
  7.90000000E+02  1.40000000E+01  0.00000000E+00
  7.90000000E+02  1.20000000E+01  0.00000000E+00
  7.90000000E+02  1.00000000E+01  0.00000000E+00
  7.90000000E+02  8.00000000E+00  0.00000000E+00
  7.90000000E+02  6.00000000E+00  0.00000000E+00
  7.90000000E+02  4.00000000E+00  0.00000000E+00
  7.90000000E+02  2.00000000E+00  0.00000000E+00
  7.90000000E+02 -3.33066907E-14  0.00000000E+00
  8.00000000E+02  1.00000000E+02  0.00000000E+00
  8.00000000E+02  9.80000000E+01  0.00000000E+00
  8.00000000E+02  9.60000000E+01  0.00000000E+00
  8.00000000E+02  9.40000000E+01  0.00000000E+00
  8.00000000E+02  9.20000000E+01  0.00000000E+00
  8.00000000E+02  9.00000000E+01  0.00000000E+00
  8.00000000E+02  8.80000000E+01  0.00000000E+00
  8.00000000E+02  8.60000000E+01  0.00000000E+00
  8.00000000E+02  8.40000000E+01  0.00000000E+00
  8.00000000E+02  8.20000000E+01  0.00000000E+00
  8.00000000E+02  8.00000000E+01  0.00000000E+00
  8.00000000E+02  7.80000000E+01  0.00000000E+00
  8.00000000E+02  7.60000000E+01  0.00000000E+00
  8.00000000E+02  7.40000000E+01  0.00000000E+00
  8.00000000E+02  7.20000000E+01  0.00000000E+00
  8.00000000E+02  7.00000000E+01  0.00000000E+00
  8.00000000E+02  6.80000000E+01  0.00000000E+00
  8.00000000E+02  6.60000000E+01  0.00000000E+00
  8.00000000E+02  6.40000000E+01  0.00000000E+00
  8.00000000E+02  6.20000000E+01  0.00000000E+00
  8.00000000E+02  6.00000000E+01  0.00000000E+00
  8.00000000E+02  5.80000000E+01  0.00000000E+00
  8.00000000E+02  5.60000000E+01  0.00000000E+00
  8.00000000E+02  5.40000000E+01  0.00000000E+00
  8.00000000E+02  5.20000000E+01  0.00000000E+00
  8.00000000E+02  5.00000000E+01  0.00000000E+00
  8.00000000E+02  4.80000000E+01  0.00000000E+00
  8.00000000E+02  4.60000000E+01  0.00000000E+00
  8.00000000E+02  4.40000000E+01  0.00000000E+00
  8.00000000E+02  4.20000000E+01  0.00000000E+00
  8.00000000E+02  4.00000000E+01  0.00000000E+00
  8.00000000E+02  3.80000000E+01  0.00000000E+00
  8.00000000E+02  3.60000000E+01  0.00000000E+00
  8.00000000E+02  3.40000000E+01  0.00000000E+00
  8.00000000E+02  3.20000000E+01  0.00000000E+00
  8.00000000E+02  3.00000000E+01  0.00000000E+00
  8.00000000E+02  2.80000000E+01  0.00000000E+00
  8.00000000E+02  2.60000000E+01  0.00000000E+00
  8.00000000E+02  2.40000000E+01  0.00000000E+00
  8.00000000E+02  2.20000000E+01  0.00000000E+00
  8.00000000E+02  2.00000000E+01  0.00000000E+00
  8.00000000E+02  1.80000000E+01  0.00000000E+00
  8.00000000E+02  1.60000000E+01  0.00000000E+00
  8.00000000E+02  1.40000000E+01  0.00000000E+00
  8.00000000E+02  1.20000000E+01  0.00000000E+00
  8.00000000E+02  1.00000000E+01  0.00000000E+00
  8.00000000E+02  8.00000000E+00  0.00000000E+00
  8.00000000E+02  6.00000000E+00  0.00000000E+00
  8.00000000E+02  4.00000000E+00  0.00000000E+00
  8.00000000E+02  2.00000000E+00  0.00000000E+00
  8.00000000E+02 -3.33066907E-14  0.00000000E+00
  8.10000000E+02  1.00000000E+02  0.00000000E+00
  8.10000000E+02  9.80000000E+01  0.00000000E+00
  8.10000000E+02  9.60000000E+01  0.00000000E+00
  8.10000000E+02  9.40000000E+01  0.00000000E+00
  8.10000000E+02  9.20000000E+01  0.00000000E+00
  8.10000000E+02  9.00000000E+01  0.00000000E+00
  8.10000000E+02  8.80000000E+01  0.00000000E+00
  8.10000000E+02  8.60000000E+01  0.00000000E+00
  8.10000000E+02  8.40000000E+01  0.00000000E+00
  8.10000000E+02  8.20000000E+01  0.00000000E+00
  8.10000000E+02  8.00000000E+01  0.00000000E+00
  8.10000000E+02  7.80000000E+01  0.00000000E+00
  8.10000000E+02  7.60000000E+01  0.00000000E+00
  8.10000000E+02  7.40000000E+01  0.00000000E+00
  8.10000000E+02  7.20000000E+01  0.00000000E+00
  8.10000000E+02  7.00000000E+01  0.00000000E+00
  8.10000000E+02  6.80000000E+01  0.00000000E+00
  8.10000000E+02  6.60000000E+01  0.00000000E+00
  8.10000000E+02  6.40000000E+01  0.00000000E+00
  8.10000000E+02  6.20000000E+01  0.00000000E+00
  8.10000000E+02  6.00000000E+01  0.00000000E+00
  8.10000000E+02  5.80000000E+01  0.00000000E+00
  8.10000000E+02  5.60000000E+01  0.00000000E+00
  8.10000000E+02  5.40000000E+01  0.00000000E+00
  8.10000000E+02  5.20000000E+01  0.00000000E+00
  8.10000000E+02  5.00000000E+01  0.00000000E+00
  8.10000000E+02  4.80000000E+01  0.00000000E+00
  8.10000000E+02  4.60000000E+01  0.00000000E+00
  8.10000000E+02  4.40000000E+01  0.00000000E+00
  8.10000000E+02  4.20000000E+01  0.00000000E+00
  8.10000000E+02  4.00000000E+01  0.00000000E+00
  8.10000000E+02  3.80000000E+01  0.00000000E+00
  8.10000000E+02  3.60000000E+01  0.00000000E+00
  8.10000000E+02  3.40000000E+01  0.00000000E+00
  8.10000000E+02  3.20000000E+01  0.00000000E+00
  8.10000000E+02  3.00000000E+01  0.00000000E+00
  8.10000000E+02  2.80000000E+01  0.00000000E+00
  8.10000000E+02  2.60000000E+01  0.00000000E+00
  8.10000000E+02  2.40000000E+01  0.00000000E+00
  8.10000000E+02  2.20000000E+01  0.00000000E+00
  8.10000000E+02  2.00000000E+01  0.00000000E+00
  8.10000000E+02  1.80000000E+01  0.00000000E+00
  8.10000000E+02  1.60000000E+01  0.00000000E+00
  8.10000000E+02  1.40000000E+01  0.00000000E+00
  8.10000000E+02  1.20000000E+01  0.00000000E+00
  8.10000000E+02  1.00000000E+01  0.00000000E+00
  8.10000000E+02  8.00000000E+00  0.00000000E+00
  8.10000000E+02  6.00000000E+00  0.00000000E+00
  8.10000000E+02  4.00000000E+00  0.00000000E+00
  8.10000000E+02  2.00000000E+00  0.00000000E+00
  8.10000000E+02 -3.33066907E-14  0.00000000E+00
  8.20000000E+02  1.00000000E+02  0.00000000E+00
  8.20000000E+02  9.80000000E+01  0.00000000E+00
  8.20000000E+02  9.60000000E+01  0.00000000E+00
  8.20000000E+02  9.40000000E+01  0.00000000E+00
  8.20000000E+02  9.20000000E+01  0.00000000E+00
  8.20000000E+02  9.00000000E+01  0.00000000E+00
  8.20000000E+02  8.80000000E+01  0.00000000E+00
  8.20000000E+02  8.60000000E+01  0.00000000E+00
  8.20000000E+02  8.40000000E+01  0.00000000E+00
  8.20000000E+02  8.20000000E+01  0.00000000E+00
  8.20000000E+02  8.00000000E+01  0.00000000E+00
  8.20000000E+02  7.80000000E+01  0.00000000E+00
  8.20000000E+02  7.60000000E+01  0.00000000E+00
  8.20000000E+02  7.40000000E+01  0.00000000E+00
  8.20000000E+02  7.20000000E+01  0.00000000E+00
  8.20000000E+02  7.00000000E+01  0.00000000E+00
  8.20000000E+02  6.80000000E+01  0.00000000E+00
  8.20000000E+02  6.60000000E+01  0.00000000E+00
  8.20000000E+02  6.40000000E+01  0.00000000E+00
  8.20000000E+02  6.20000000E+01  0.00000000E+00
  8.20000000E+02  6.00000000E+01  0.00000000E+00
  8.20000000E+02  5.80000000E+01  0.00000000E+00
  8.20000000E+02  5.60000000E+01  0.00000000E+00
  8.20000000E+02  5.40000000E+01  0.00000000E+00
  8.20000000E+02  5.20000000E+01  0.00000000E+00
  8.20000000E+02  5.00000000E+01  0.00000000E+00
  8.20000000E+02  4.80000000E+01  0.00000000E+00
  8.20000000E+02  4.60000000E+01  0.00000000E+00
  8.20000000E+02  4.40000000E+01  0.00000000E+00
  8.20000000E+02  4.20000000E+01  0.00000000E+00
  8.20000000E+02  4.00000000E+01  0.00000000E+00
  8.20000000E+02  3.80000000E+01  0.00000000E+00
  8.20000000E+02  3.60000000E+01  0.00000000E+00
  8.20000000E+02  3.40000000E+01  0.00000000E+00
  8.20000000E+02  3.20000000E+01  0.00000000E+00
  8.20000000E+02  3.00000000E+01  0.00000000E+00
  8.20000000E+02  2.80000000E+01  0.00000000E+00
  8.20000000E+02  2.60000000E+01  0.00000000E+00
  8.20000000E+02  2.40000000E+01  0.00000000E+00
  8.20000000E+02  2.20000000E+01  0.00000000E+00
  8.20000000E+02  2.00000000E+01  0.00000000E+00
  8.20000000E+02  1.80000000E+01  0.00000000E+00
  8.20000000E+02  1.60000000E+01  0.00000000E+00
  8.20000000E+02  1.40000000E+01  0.00000000E+00
  8.20000000E+02  1.20000000E+01  0.00000000E+00
  8.20000000E+02  1.00000000E+01  0.00000000E+00
  8.20000000E+02  8.00000000E+00  0.00000000E+00
  8.20000000E+02  6.00000000E+00  0.00000000E+00
  8.20000000E+02  4.00000000E+00  0.00000000E+00
  8.20000000E+02  2.00000000E+00  0.00000000E+00
  8.20000000E+02 -3.33066907E-14  0.00000000E+00
  8.30000000E+02  1.00000000E+02  0.00000000E+00
  8.30000000E+02  9.80000000E+01  0.00000000E+00
  8.30000000E+02  9.60000000E+01  0.00000000E+00
  8.30000000E+02  9.40000000E+01  0.00000000E+00
  8.30000000E+02  9.20000000E+01  0.00000000E+00
  8.30000000E+02  9.00000000E+01  0.00000000E+00
  8.30000000E+02  8.80000000E+01  0.00000000E+00
  8.30000000E+02  8.60000000E+01  0.00000000E+00
  8.30000000E+02  8.40000000E+01  0.00000000E+00
  8.30000000E+02  8.20000000E+01  0.00000000E+00
  8.30000000E+02  8.00000000E+01  0.00000000E+00
  8.30000000E+02  7.80000000E+01  0.00000000E+00
  8.30000000E+02  7.60000000E+01  0.00000000E+00
  8.30000000E+02  7.40000000E+01  0.00000000E+00
  8.30000000E+02  7.20000000E+01  0.00000000E+00
  8.30000000E+02  7.00000000E+01  0.00000000E+00
  8.30000000E+02  6.80000000E+01  0.00000000E+00
  8.30000000E+02  6.60000000E+01  0.00000000E+00
  8.30000000E+02  6.40000000E+01  0.00000000E+00
  8.30000000E+02  6.20000000E+01  0.00000000E+00
  8.30000000E+02  6.00000000E+01  0.00000000E+00
  8.30000000E+02  5.80000000E+01  0.00000000E+00
  8.30000000E+02  5.60000000E+01  0.00000000E+00
  8.30000000E+02  5.40000000E+01  0.00000000E+00
  8.30000000E+02  5.20000000E+01  0.00000000E+00
  8.30000000E+02  5.00000000E+01  0.00000000E+00
  8.30000000E+02  4.80000000E+01  0.00000000E+00
  8.30000000E+02  4.60000000E+01  0.00000000E+00
  8.30000000E+02  4.40000000E+01  0.00000000E+00
  8.30000000E+02  4.20000000E+01  0.00000000E+00
  8.30000000E+02  4.00000000E+01  0.00000000E+00
  8.30000000E+02  3.80000000E+01  0.00000000E+00
  8.30000000E+02  3.60000000E+01  0.00000000E+00
  8.30000000E+02  3.40000000E+01  0.00000000E+00
  8.30000000E+02  3.20000000E+01  0.00000000E+00
  8.30000000E+02  3.00000000E+01  0.00000000E+00
  8.30000000E+02  2.80000000E+01  0.00000000E+00
  8.30000000E+02  2.60000000E+01  0.00000000E+00
  8.30000000E+02  2.40000000E+01  0.00000000E+00
  8.30000000E+02  2.20000000E+01  0.00000000E+00
  8.30000000E+02  2.00000000E+01  0.00000000E+00
  8.30000000E+02  1.80000000E+01  0.00000000E+00
  8.30000000E+02  1.60000000E+01  0.00000000E+00
  8.30000000E+02  1.40000000E+01  0.00000000E+00
  8.30000000E+02  1.20000000E+01  0.00000000E+00
  8.30000000E+02  1.00000000E+01  0.00000000E+00
  8.30000000E+02  8.00000000E+00  0.00000000E+00
  8.30000000E+02  6.00000000E+00  0.00000000E+00
  8.30000000E+02  4.00000000E+00  0.00000000E+00
  8.30000000E+02  2.00000000E+00  0.00000000E+00
  8.30000000E+02 -3.33066907E-14  0.00000000E+00
  8.40000000E+02  1.00000000E+02  0.00000000E+00
  8.40000000E+02  9.80000000E+01  0.00000000E+00
  8.40000000E+02  9.60000000E+01  0.00000000E+00
  8.40000000E+02  9.40000000E+01  0.00000000E+00
  8.40000000E+02  9.20000000E+01  0.00000000E+00
  8.40000000E+02  9.00000000E+01  0.00000000E+00
  8.40000000E+02  8.80000000E+01  0.00000000E+00
  8.40000000E+02  8.60000000E+01  0.00000000E+00
  8.40000000E+02  8.40000000E+01  0.00000000E+00
  8.40000000E+02  8.20000000E+01  0.00000000E+00
  8.40000000E+02  8.00000000E+01  0.00000000E+00
  8.40000000E+02  7.80000000E+01  0.00000000E+00
  8.40000000E+02  7.60000000E+01  0.00000000E+00
  8.40000000E+02  7.40000000E+01  0.00000000E+00
  8.40000000E+02  7.20000000E+01  0.00000000E+00
  8.40000000E+02  7.00000000E+01  0.00000000E+00
  8.40000000E+02  6.80000000E+01  0.00000000E+00
  8.40000000E+02  6.60000000E+01  0.00000000E+00
  8.40000000E+02  6.40000000E+01  0.00000000E+00
  8.40000000E+02  6.20000000E+01  0.00000000E+00
  8.40000000E+02  6.00000000E+01  0.00000000E+00
  8.40000000E+02  5.80000000E+01  0.00000000E+00
  8.40000000E+02  5.60000000E+01  0.00000000E+00
  8.40000000E+02  5.40000000E+01  0.00000000E+00
  8.40000000E+02  5.20000000E+01  0.00000000E+00
  8.40000000E+02  5.00000000E+01  0.00000000E+00
  8.40000000E+02  4.80000000E+01  0.00000000E+00
  8.40000000E+02  4.60000000E+01  0.00000000E+00
  8.40000000E+02  4.40000000E+01  0.00000000E+00
  8.40000000E+02  4.20000000E+01  0.00000000E+00
  8.40000000E+02  4.00000000E+01  0.00000000E+00
  8.40000000E+02  3.80000000E+01  0.00000000E+00
  8.40000000E+02  3.60000000E+01  0.00000000E+00
  8.40000000E+02  3.40000000E+01  0.00000000E+00
  8.40000000E+02  3.20000000E+01  0.00000000E+00
  8.40000000E+02  3.00000000E+01  0.00000000E+00
  8.40000000E+02  2.80000000E+01  0.00000000E+00
  8.40000000E+02  2.60000000E+01  0.00000000E+00
  8.40000000E+02  2.40000000E+01  0.00000000E+00
  8.40000000E+02  2.20000000E+01  0.00000000E+00
  8.40000000E+02  2.00000000E+01  0.00000000E+00
  8.40000000E+02  1.80000000E+01  0.00000000E+00
  8.40000000E+02  1.60000000E+01  0.00000000E+00
  8.40000000E+02  1.40000000E+01  0.00000000E+00
  8.40000000E+02  1.20000000E+01  0.00000000E+00
  8.40000000E+02  1.00000000E+01  0.00000000E+00
  8.40000000E+02  8.00000000E+00  0.00000000E+00
  8.40000000E+02  6.00000000E+00  0.00000000E+00
  8.40000000E+02  4.00000000E+00  0.00000000E+00
  8.40000000E+02  2.00000000E+00  0.00000000E+00
  8.40000000E+02 -3.33066907E-14  0.00000000E+00
  8.50000000E+02  1.00000000E+02  0.00000000E+00
  8.50000000E+02  9.80000000E+01  0.00000000E+00
  8.50000000E+02  9.60000000E+01  0.00000000E+00
  8.50000000E+02  9.40000000E+01  0.00000000E+00
  8.50000000E+02  9.20000000E+01  0.00000000E+00
  8.50000000E+02  9.00000000E+01  0.00000000E+00
  8.50000000E+02  8.80000000E+01  0.00000000E+00
  8.50000000E+02  8.60000000E+01  0.00000000E+00
  8.50000000E+02  8.40000000E+01  0.00000000E+00
  8.50000000E+02  8.20000000E+01  0.00000000E+00
  8.50000000E+02  8.00000000E+01  0.00000000E+00
  8.50000000E+02  7.80000000E+01  0.00000000E+00
  8.50000000E+02  7.60000000E+01  0.00000000E+00
  8.50000000E+02  7.40000000E+01  0.00000000E+00
  8.50000000E+02  7.20000000E+01  0.00000000E+00
  8.50000000E+02  7.00000000E+01  0.00000000E+00
  8.50000000E+02  6.80000000E+01  0.00000000E+00
  8.50000000E+02  6.60000000E+01  0.00000000E+00
  8.50000000E+02  6.40000000E+01  0.00000000E+00
  8.50000000E+02  6.20000000E+01  0.00000000E+00
  8.50000000E+02  6.00000000E+01  0.00000000E+00
  8.50000000E+02  5.80000000E+01  0.00000000E+00
  8.50000000E+02  5.60000000E+01  0.00000000E+00
  8.50000000E+02  5.40000000E+01  0.00000000E+00
  8.50000000E+02  5.20000000E+01  0.00000000E+00
  8.50000000E+02  5.00000000E+01  0.00000000E+00
  8.50000000E+02  4.80000000E+01  0.00000000E+00
  8.50000000E+02  4.60000000E+01  0.00000000E+00
  8.50000000E+02  4.40000000E+01  0.00000000E+00
  8.50000000E+02  4.20000000E+01  0.00000000E+00
  8.50000000E+02  4.00000000E+01  0.00000000E+00
  8.50000000E+02  3.80000000E+01  0.00000000E+00
  8.50000000E+02  3.60000000E+01  0.00000000E+00
  8.50000000E+02  3.40000000E+01  0.00000000E+00
  8.50000000E+02  3.20000000E+01  0.00000000E+00
  8.50000000E+02  3.00000000E+01  0.00000000E+00
  8.50000000E+02  2.80000000E+01  0.00000000E+00
  8.50000000E+02  2.60000000E+01  0.00000000E+00
  8.50000000E+02  2.40000000E+01  0.00000000E+00
  8.50000000E+02  2.20000000E+01  0.00000000E+00
  8.50000000E+02  2.00000000E+01  0.00000000E+00
  8.50000000E+02  1.80000000E+01  0.00000000E+00
  8.50000000E+02  1.60000000E+01  0.00000000E+00
  8.50000000E+02  1.40000000E+01  0.00000000E+00
  8.50000000E+02  1.20000000E+01  0.00000000E+00
  8.50000000E+02  1.00000000E+01  0.00000000E+00
  8.50000000E+02  8.00000000E+00  0.00000000E+00
  8.50000000E+02  6.00000000E+00  0.00000000E+00
  8.50000000E+02  4.00000000E+00  0.00000000E+00
  8.50000000E+02  2.00000000E+00  0.00000000E+00
  8.50000000E+02 -3.33066907E-14  0.00000000E+00
  8.60000000E+02  1.00000000E+02  0.00000000E+00
  8.60000000E+02  9.80000000E+01  0.00000000E+00
  8.60000000E+02  9.60000000E+01  0.00000000E+00
  8.60000000E+02  9.40000000E+01  0.00000000E+00
  8.60000000E+02  9.20000000E+01  0.00000000E+00
  8.60000000E+02  9.00000000E+01  0.00000000E+00
  8.60000000E+02  8.80000000E+01  0.00000000E+00
  8.60000000E+02  8.60000000E+01  0.00000000E+00
  8.60000000E+02  8.40000000E+01  0.00000000E+00
  8.60000000E+02  8.20000000E+01  0.00000000E+00
  8.60000000E+02  8.00000000E+01  0.00000000E+00
  8.60000000E+02  7.80000000E+01  0.00000000E+00
  8.60000000E+02  7.60000000E+01  0.00000000E+00
  8.60000000E+02  7.40000000E+01  0.00000000E+00
  8.60000000E+02  7.20000000E+01  0.00000000E+00
  8.60000000E+02  7.00000000E+01  0.00000000E+00
  8.60000000E+02  6.80000000E+01  0.00000000E+00
  8.60000000E+02  6.60000000E+01  0.00000000E+00
  8.60000000E+02  6.40000000E+01  0.00000000E+00
  8.60000000E+02  6.20000000E+01  0.00000000E+00
  8.60000000E+02  6.00000000E+01  0.00000000E+00
  8.60000000E+02  5.80000000E+01  0.00000000E+00
  8.60000000E+02  5.60000000E+01  0.00000000E+00
  8.60000000E+02  5.40000000E+01  0.00000000E+00
  8.60000000E+02  5.20000000E+01  0.00000000E+00
  8.60000000E+02  5.00000000E+01  0.00000000E+00
  8.60000000E+02  4.80000000E+01  0.00000000E+00
  8.60000000E+02  4.60000000E+01  0.00000000E+00
  8.60000000E+02  4.40000000E+01  0.00000000E+00
  8.60000000E+02  4.20000000E+01  0.00000000E+00
  8.60000000E+02  4.00000000E+01  0.00000000E+00
  8.60000000E+02  3.80000000E+01  0.00000000E+00
  8.60000000E+02  3.60000000E+01  0.00000000E+00
  8.60000000E+02  3.40000000E+01  0.00000000E+00
  8.60000000E+02  3.20000000E+01  0.00000000E+00
  8.60000000E+02  3.00000000E+01  0.00000000E+00
  8.60000000E+02  2.80000000E+01  0.00000000E+00
  8.60000000E+02  2.60000000E+01  0.00000000E+00
  8.60000000E+02  2.40000000E+01  0.00000000E+00
  8.60000000E+02  2.20000000E+01  0.00000000E+00
  8.60000000E+02  2.00000000E+01  0.00000000E+00
  8.60000000E+02  1.80000000E+01  0.00000000E+00
  8.60000000E+02  1.60000000E+01  0.00000000E+00
  8.60000000E+02  1.40000000E+01  0.00000000E+00
  8.60000000E+02  1.20000000E+01  0.00000000E+00
  8.60000000E+02  1.00000000E+01  0.00000000E+00
  8.60000000E+02  8.00000000E+00  0.00000000E+00
  8.60000000E+02  6.00000000E+00  0.00000000E+00
  8.60000000E+02  4.00000000E+00  0.00000000E+00
  8.60000000E+02  2.00000000E+00  0.00000000E+00
  8.60000000E+02 -3.33066907E-14  0.00000000E+00
  8.70000000E+02  1.00000000E+02  0.00000000E+00
  8.70000000E+02  9.80000000E+01  0.00000000E+00
  8.70000000E+02  9.60000000E+01  0.00000000E+00
  8.70000000E+02  9.40000000E+01  0.00000000E+00
  8.70000000E+02  9.20000000E+01  0.00000000E+00
  8.70000000E+02  9.00000000E+01  0.00000000E+00
  8.70000000E+02  8.80000000E+01  0.00000000E+00
  8.70000000E+02  8.60000000E+01  0.00000000E+00
  8.70000000E+02  8.40000000E+01  0.00000000E+00
  8.70000000E+02  8.20000000E+01  0.00000000E+00
  8.70000000E+02  8.00000000E+01  0.00000000E+00
  8.70000000E+02  7.80000000E+01  0.00000000E+00
  8.70000000E+02  7.60000000E+01  0.00000000E+00
  8.70000000E+02  7.40000000E+01  0.00000000E+00
  8.70000000E+02  7.20000000E+01  0.00000000E+00
  8.70000000E+02  7.00000000E+01  0.00000000E+00
  8.70000000E+02  6.80000000E+01  0.00000000E+00
  8.70000000E+02  6.60000000E+01  0.00000000E+00
  8.70000000E+02  6.40000000E+01  0.00000000E+00
  8.70000000E+02  6.20000000E+01  0.00000000E+00
  8.70000000E+02  6.00000000E+01  0.00000000E+00
  8.70000000E+02  5.80000000E+01  0.00000000E+00
  8.70000000E+02  5.60000000E+01  0.00000000E+00
  8.70000000E+02  5.40000000E+01  0.00000000E+00
  8.70000000E+02  5.20000000E+01  0.00000000E+00
  8.70000000E+02  5.00000000E+01  0.00000000E+00
  8.70000000E+02  4.80000000E+01  0.00000000E+00
  8.70000000E+02  4.60000000E+01  0.00000000E+00
  8.70000000E+02  4.40000000E+01  0.00000000E+00
  8.70000000E+02  4.20000000E+01  0.00000000E+00
  8.70000000E+02  4.00000000E+01  0.00000000E+00
  8.70000000E+02  3.80000000E+01  0.00000000E+00
  8.70000000E+02  3.60000000E+01  0.00000000E+00
  8.70000000E+02  3.40000000E+01  0.00000000E+00
  8.70000000E+02  3.20000000E+01  0.00000000E+00
  8.70000000E+02  3.00000000E+01  0.00000000E+00
  8.70000000E+02  2.80000000E+01  0.00000000E+00
  8.70000000E+02  2.60000000E+01  0.00000000E+00
  8.70000000E+02  2.40000000E+01  0.00000000E+00
  8.70000000E+02  2.20000000E+01  0.00000000E+00
  8.70000000E+02  2.00000000E+01  0.00000000E+00
  8.70000000E+02  1.80000000E+01  0.00000000E+00
  8.70000000E+02  1.60000000E+01  0.00000000E+00
  8.70000000E+02  1.40000000E+01  0.00000000E+00
  8.70000000E+02  1.20000000E+01  0.00000000E+00
  8.70000000E+02  1.00000000E+01  0.00000000E+00
  8.70000000E+02  8.00000000E+00  0.00000000E+00
  8.70000000E+02  6.00000000E+00  0.00000000E+00
  8.70000000E+02  4.00000000E+00  0.00000000E+00
  8.70000000E+02  2.00000000E+00  0.00000000E+00
  8.70000000E+02 -3.33066907E-14  0.00000000E+00
  8.80000000E+02  1.00000000E+02  0.00000000E+00
  8.80000000E+02  9.80000000E+01  0.00000000E+00
  8.80000000E+02  9.60000000E+01  0.00000000E+00
  8.80000000E+02  9.40000000E+01  0.00000000E+00
  8.80000000E+02  9.20000000E+01  0.00000000E+00
  8.80000000E+02  9.00000000E+01  0.00000000E+00
  8.80000000E+02  8.80000000E+01  0.00000000E+00
  8.80000000E+02  8.60000000E+01  0.00000000E+00
  8.80000000E+02  8.40000000E+01  0.00000000E+00
  8.80000000E+02  8.20000000E+01  0.00000000E+00
  8.80000000E+02  8.00000000E+01  0.00000000E+00
  8.80000000E+02  7.80000000E+01  0.00000000E+00
  8.80000000E+02  7.60000000E+01  0.00000000E+00
  8.80000000E+02  7.40000000E+01  0.00000000E+00
  8.80000000E+02  7.20000000E+01  0.00000000E+00
  8.80000000E+02  7.00000000E+01  0.00000000E+00
  8.80000000E+02  6.80000000E+01  0.00000000E+00
  8.80000000E+02  6.60000000E+01  0.00000000E+00
  8.80000000E+02  6.40000000E+01  0.00000000E+00
  8.80000000E+02  6.20000000E+01  0.00000000E+00
  8.80000000E+02  6.00000000E+01  0.00000000E+00
  8.80000000E+02  5.80000000E+01  0.00000000E+00
  8.80000000E+02  5.60000000E+01  0.00000000E+00
  8.80000000E+02  5.40000000E+01  0.00000000E+00
  8.80000000E+02  5.20000000E+01  0.00000000E+00
  8.80000000E+02  5.00000000E+01  0.00000000E+00
  8.80000000E+02  4.80000000E+01  0.00000000E+00
  8.80000000E+02  4.60000000E+01  0.00000000E+00
  8.80000000E+02  4.40000000E+01  0.00000000E+00
  8.80000000E+02  4.20000000E+01  0.00000000E+00
  8.80000000E+02  4.00000000E+01  0.00000000E+00
  8.80000000E+02  3.80000000E+01  0.00000000E+00
  8.80000000E+02  3.60000000E+01  0.00000000E+00
  8.80000000E+02  3.40000000E+01  0.00000000E+00
  8.80000000E+02  3.20000000E+01  0.00000000E+00
  8.80000000E+02  3.00000000E+01  0.00000000E+00
  8.80000000E+02  2.80000000E+01  0.00000000E+00
  8.80000000E+02  2.60000000E+01  0.00000000E+00
  8.80000000E+02  2.40000000E+01  0.00000000E+00
  8.80000000E+02  2.20000000E+01  0.00000000E+00
  8.80000000E+02  2.00000000E+01  0.00000000E+00
  8.80000000E+02  1.80000000E+01  0.00000000E+00
  8.80000000E+02  1.60000000E+01  0.00000000E+00
  8.80000000E+02  1.40000000E+01  0.00000000E+00
  8.80000000E+02  1.20000000E+01  0.00000000E+00
  8.80000000E+02  1.00000000E+01  0.00000000E+00
  8.80000000E+02  8.00000000E+00  0.00000000E+00
  8.80000000E+02  6.00000000E+00  0.00000000E+00
  8.80000000E+02  4.00000000E+00  0.00000000E+00
  8.80000000E+02  2.00000000E+00  0.00000000E+00
  8.80000000E+02 -3.33066907E-14  0.00000000E+00
  8.90000000E+02  1.00000000E+02  0.00000000E+00
  8.90000000E+02  9.80000000E+01  0.00000000E+00
  8.90000000E+02  9.60000000E+01  0.00000000E+00
  8.90000000E+02  9.40000000E+01  0.00000000E+00
  8.90000000E+02  9.20000000E+01  0.00000000E+00
  8.90000000E+02  9.00000000E+01  0.00000000E+00
  8.90000000E+02  8.80000000E+01  0.00000000E+00
  8.90000000E+02  8.60000000E+01  0.00000000E+00
  8.90000000E+02  8.40000000E+01  0.00000000E+00
  8.90000000E+02  8.20000000E+01  0.00000000E+00
  8.90000000E+02  8.00000000E+01  0.00000000E+00
  8.90000000E+02  7.80000000E+01  0.00000000E+00
  8.90000000E+02  7.60000000E+01  0.00000000E+00
  8.90000000E+02  7.40000000E+01  0.00000000E+00
  8.90000000E+02  7.20000000E+01  0.00000000E+00
  8.90000000E+02  7.00000000E+01  0.00000000E+00
  8.90000000E+02  6.80000000E+01  0.00000000E+00
  8.90000000E+02  6.60000000E+01  0.00000000E+00
  8.90000000E+02  6.40000000E+01  0.00000000E+00
  8.90000000E+02  6.20000000E+01  0.00000000E+00
  8.90000000E+02  6.00000000E+01  0.00000000E+00
  8.90000000E+02  5.80000000E+01  0.00000000E+00
  8.90000000E+02  5.60000000E+01  0.00000000E+00
  8.90000000E+02  5.40000000E+01  0.00000000E+00
  8.90000000E+02  5.20000000E+01  0.00000000E+00
  8.90000000E+02  5.00000000E+01  0.00000000E+00
  8.90000000E+02  4.80000000E+01  0.00000000E+00
  8.90000000E+02  4.60000000E+01  0.00000000E+00
  8.90000000E+02  4.40000000E+01  0.00000000E+00
  8.90000000E+02  4.20000000E+01  0.00000000E+00
  8.90000000E+02  4.00000000E+01  0.00000000E+00
  8.90000000E+02  3.80000000E+01  0.00000000E+00
  8.90000000E+02  3.60000000E+01  0.00000000E+00
  8.90000000E+02  3.40000000E+01  0.00000000E+00
  8.90000000E+02  3.20000000E+01  0.00000000E+00
  8.90000000E+02  3.00000000E+01  0.00000000E+00
  8.90000000E+02  2.80000000E+01  0.00000000E+00
  8.90000000E+02  2.60000000E+01  0.00000000E+00
  8.90000000E+02  2.40000000E+01  0.00000000E+00
  8.90000000E+02  2.20000000E+01  0.00000000E+00
  8.90000000E+02  2.00000000E+01  0.00000000E+00
  8.90000000E+02  1.80000000E+01  0.00000000E+00
  8.90000000E+02  1.60000000E+01  0.00000000E+00
  8.90000000E+02  1.40000000E+01  0.00000000E+00
  8.90000000E+02  1.20000000E+01  0.00000000E+00
  8.90000000E+02  1.00000000E+01  0.00000000E+00
  8.90000000E+02  8.00000000E+00  0.00000000E+00
  8.90000000E+02  6.00000000E+00  0.00000000E+00
  8.90000000E+02  4.00000000E+00  0.00000000E+00
  8.90000000E+02  2.00000000E+00  0.00000000E+00
  8.90000000E+02 -3.33066907E-14  0.00000000E+00
  9.00000000E+02  1.00000000E+02  0.00000000E+00
  9.00000000E+02  9.80000000E+01  0.00000000E+00
  9.00000000E+02  9.60000000E+01  0.00000000E+00
  9.00000000E+02  9.40000000E+01  0.00000000E+00
  9.00000000E+02  9.20000000E+01  0.00000000E+00
  9.00000000E+02  9.00000000E+01  0.00000000E+00
  9.00000000E+02  8.80000000E+01  0.00000000E+00
  9.00000000E+02  8.60000000E+01  0.00000000E+00
  9.00000000E+02  8.40000000E+01  0.00000000E+00
  9.00000000E+02  8.20000000E+01  0.00000000E+00
  9.00000000E+02  8.00000000E+01  0.00000000E+00
  9.00000000E+02  7.80000000E+01  0.00000000E+00
  9.00000000E+02  7.60000000E+01  0.00000000E+00
  9.00000000E+02  7.40000000E+01  0.00000000E+00
  9.00000000E+02  7.20000000E+01  0.00000000E+00
  9.00000000E+02  7.00000000E+01  0.00000000E+00
  9.00000000E+02  6.80000000E+01  0.00000000E+00
  9.00000000E+02  6.60000000E+01  0.00000000E+00
  9.00000000E+02  6.40000000E+01  0.00000000E+00
  9.00000000E+02  6.20000000E+01  0.00000000E+00
  9.00000000E+02  6.00000000E+01  0.00000000E+00
  9.00000000E+02  5.80000000E+01  0.00000000E+00
  9.00000000E+02  5.60000000E+01  0.00000000E+00
  9.00000000E+02  5.40000000E+01  0.00000000E+00
  9.00000000E+02  5.20000000E+01  0.00000000E+00
  9.00000000E+02  5.00000000E+01  0.00000000E+00
  9.00000000E+02  4.80000000E+01  0.00000000E+00
  9.00000000E+02  4.60000000E+01  0.00000000E+00
  9.00000000E+02  4.40000000E+01  0.00000000E+00
  9.00000000E+02  4.20000000E+01  0.00000000E+00
  9.00000000E+02  4.00000000E+01  0.00000000E+00
  9.00000000E+02  3.80000000E+01  0.00000000E+00
  9.00000000E+02  3.60000000E+01  0.00000000E+00
  9.00000000E+02  3.40000000E+01  0.00000000E+00
  9.00000000E+02  3.20000000E+01  0.00000000E+00
  9.00000000E+02  3.00000000E+01  0.00000000E+00
  9.00000000E+02  2.80000000E+01  0.00000000E+00
  9.00000000E+02  2.60000000E+01  0.00000000E+00
  9.00000000E+02  2.40000000E+01  0.00000000E+00
  9.00000000E+02  2.20000000E+01  0.00000000E+00
  9.00000000E+02  2.00000000E+01  0.00000000E+00
  9.00000000E+02  1.80000000E+01  0.00000000E+00
  9.00000000E+02  1.60000000E+01  0.00000000E+00
  9.00000000E+02  1.40000000E+01  0.00000000E+00
  9.00000000E+02  1.20000000E+01  0.00000000E+00
  9.00000000E+02  1.00000000E+01  0.00000000E+00
  9.00000000E+02  8.00000000E+00  0.00000000E+00
  9.00000000E+02  6.00000000E+00  0.00000000E+00
  9.00000000E+02  4.00000000E+00  0.00000000E+00
  9.00000000E+02  2.00000000E+00  0.00000000E+00
  9.00000000E+02 -3.33066907E-14  0.00000000E+00
  9.10000000E+02  1.00000000E+02  0.00000000E+00
  9.10000000E+02  9.80000000E+01  0.00000000E+00
  9.10000000E+02  9.60000000E+01  0.00000000E+00
  9.10000000E+02  9.40000000E+01  0.00000000E+00
  9.10000000E+02  9.20000000E+01  0.00000000E+00
  9.10000000E+02  9.00000000E+01  0.00000000E+00
  9.10000000E+02  8.80000000E+01  0.00000000E+00
  9.10000000E+02  8.60000000E+01  0.00000000E+00
  9.10000000E+02  8.40000000E+01  0.00000000E+00
  9.10000000E+02  8.20000000E+01  0.00000000E+00
  9.10000000E+02  8.00000000E+01  0.00000000E+00
  9.10000000E+02  7.80000000E+01  0.00000000E+00
  9.10000000E+02  7.60000000E+01  0.00000000E+00
  9.10000000E+02  7.40000000E+01  0.00000000E+00
  9.10000000E+02  7.20000000E+01  0.00000000E+00
  9.10000000E+02  7.00000000E+01  0.00000000E+00
  9.10000000E+02  6.80000000E+01  0.00000000E+00
  9.10000000E+02  6.60000000E+01  0.00000000E+00
  9.10000000E+02  6.40000000E+01  0.00000000E+00
  9.10000000E+02  6.20000000E+01  0.00000000E+00
  9.10000000E+02  6.00000000E+01  0.00000000E+00
  9.10000000E+02  5.80000000E+01  0.00000000E+00
  9.10000000E+02  5.60000000E+01  0.00000000E+00
  9.10000000E+02  5.40000000E+01  0.00000000E+00
  9.10000000E+02  5.20000000E+01  0.00000000E+00
  9.10000000E+02  5.00000000E+01  0.00000000E+00
  9.10000000E+02  4.80000000E+01  0.00000000E+00
  9.10000000E+02  4.60000000E+01  0.00000000E+00
  9.10000000E+02  4.40000000E+01  0.00000000E+00
  9.10000000E+02  4.20000000E+01  0.00000000E+00
  9.10000000E+02  4.00000000E+01  0.00000000E+00
  9.10000000E+02  3.80000000E+01  0.00000000E+00
  9.10000000E+02  3.60000000E+01  0.00000000E+00
  9.10000000E+02  3.40000000E+01  0.00000000E+00
  9.10000000E+02  3.20000000E+01  0.00000000E+00
  9.10000000E+02  3.00000000E+01  0.00000000E+00
  9.10000000E+02  2.80000000E+01  0.00000000E+00
  9.10000000E+02  2.60000000E+01  0.00000000E+00
  9.10000000E+02  2.40000000E+01  0.00000000E+00
  9.10000000E+02  2.20000000E+01  0.00000000E+00
  9.10000000E+02  2.00000000E+01  0.00000000E+00
  9.10000000E+02  1.80000000E+01  0.00000000E+00
  9.10000000E+02  1.60000000E+01  0.00000000E+00
  9.10000000E+02  1.40000000E+01  0.00000000E+00
  9.10000000E+02  1.20000000E+01  0.00000000E+00
  9.10000000E+02  1.00000000E+01  0.00000000E+00
  9.10000000E+02  8.00000000E+00  0.00000000E+00
  9.10000000E+02  6.00000000E+00  0.00000000E+00
  9.10000000E+02  4.00000000E+00  0.00000000E+00
  9.10000000E+02  2.00000000E+00  0.00000000E+00
  9.10000000E+02 -3.33066907E-14  0.00000000E+00
  9.20000000E+02  1.00000000E+02  0.00000000E+00
  9.20000000E+02  9.80000000E+01  0.00000000E+00
  9.20000000E+02  9.60000000E+01  0.00000000E+00
  9.20000000E+02  9.40000000E+01  0.00000000E+00
  9.20000000E+02  9.20000000E+01  0.00000000E+00
  9.20000000E+02  9.00000000E+01  0.00000000E+00
  9.20000000E+02  8.80000000E+01  0.00000000E+00
  9.20000000E+02  8.60000000E+01  0.00000000E+00
  9.20000000E+02  8.40000000E+01  0.00000000E+00
  9.20000000E+02  8.20000000E+01  0.00000000E+00
  9.20000000E+02  8.00000000E+01  0.00000000E+00
  9.20000000E+02  7.80000000E+01  0.00000000E+00
  9.20000000E+02  7.60000000E+01  0.00000000E+00
  9.20000000E+02  7.40000000E+01  0.00000000E+00
  9.20000000E+02  7.20000000E+01  0.00000000E+00
  9.20000000E+02  7.00000000E+01  0.00000000E+00
  9.20000000E+02  6.80000000E+01  0.00000000E+00
  9.20000000E+02  6.60000000E+01  0.00000000E+00
  9.20000000E+02  6.40000000E+01  0.00000000E+00
  9.20000000E+02  6.20000000E+01  0.00000000E+00
  9.20000000E+02  6.00000000E+01  0.00000000E+00
  9.20000000E+02  5.80000000E+01  0.00000000E+00
  9.20000000E+02  5.60000000E+01  0.00000000E+00
  9.20000000E+02  5.40000000E+01  0.00000000E+00
  9.20000000E+02  5.20000000E+01  0.00000000E+00
  9.20000000E+02  5.00000000E+01  0.00000000E+00
  9.20000000E+02  4.80000000E+01  0.00000000E+00
  9.20000000E+02  4.60000000E+01  0.00000000E+00
  9.20000000E+02  4.40000000E+01  0.00000000E+00
  9.20000000E+02  4.20000000E+01  0.00000000E+00
  9.20000000E+02  4.00000000E+01  0.00000000E+00
  9.20000000E+02  3.80000000E+01  0.00000000E+00
  9.20000000E+02  3.60000000E+01  0.00000000E+00
  9.20000000E+02  3.40000000E+01  0.00000000E+00
  9.20000000E+02  3.20000000E+01  0.00000000E+00
  9.20000000E+02  3.00000000E+01  0.00000000E+00
  9.20000000E+02  2.80000000E+01  0.00000000E+00
  9.20000000E+02  2.60000000E+01  0.00000000E+00
  9.20000000E+02  2.40000000E+01  0.00000000E+00
  9.20000000E+02  2.20000000E+01  0.00000000E+00
  9.20000000E+02  2.00000000E+01  0.00000000E+00
  9.20000000E+02  1.80000000E+01  0.00000000E+00
  9.20000000E+02  1.60000000E+01  0.00000000E+00
  9.20000000E+02  1.40000000E+01  0.00000000E+00
  9.20000000E+02  1.20000000E+01  0.00000000E+00
  9.20000000E+02  1.00000000E+01  0.00000000E+00
  9.20000000E+02  8.00000000E+00  0.00000000E+00
  9.20000000E+02  6.00000000E+00  0.00000000E+00
  9.20000000E+02  4.00000000E+00  0.00000000E+00
  9.20000000E+02  2.00000000E+00  0.00000000E+00
  9.20000000E+02 -3.33066907E-14  0.00000000E+00
  9.30000000E+02  1.00000000E+02  0.00000000E+00
  9.30000000E+02  9.80000000E+01  0.00000000E+00
  9.30000000E+02  9.60000000E+01  0.00000000E+00
  9.30000000E+02  9.40000000E+01  0.00000000E+00
  9.30000000E+02  9.20000000E+01  0.00000000E+00
  9.30000000E+02  9.00000000E+01  0.00000000E+00
  9.30000000E+02  8.80000000E+01  0.00000000E+00
  9.30000000E+02  8.60000000E+01  0.00000000E+00
  9.30000000E+02  8.40000000E+01  0.00000000E+00
  9.30000000E+02  8.20000000E+01  0.00000000E+00
  9.30000000E+02  8.00000000E+01  0.00000000E+00
  9.30000000E+02  7.80000000E+01  0.00000000E+00
  9.30000000E+02  7.60000000E+01  0.00000000E+00
  9.30000000E+02  7.40000000E+01  0.00000000E+00
  9.30000000E+02  7.20000000E+01  0.00000000E+00
  9.30000000E+02  7.00000000E+01  0.00000000E+00
  9.30000000E+02  6.80000000E+01  0.00000000E+00
  9.30000000E+02  6.60000000E+01  0.00000000E+00
  9.30000000E+02  6.40000000E+01  0.00000000E+00
  9.30000000E+02  6.20000000E+01  0.00000000E+00
  9.30000000E+02  6.00000000E+01  0.00000000E+00
  9.30000000E+02  5.80000000E+01  0.00000000E+00
  9.30000000E+02  5.60000000E+01  0.00000000E+00
  9.30000000E+02  5.40000000E+01  0.00000000E+00
  9.30000000E+02  5.20000000E+01  0.00000000E+00
  9.30000000E+02  5.00000000E+01  0.00000000E+00
  9.30000000E+02  4.80000000E+01  0.00000000E+00
  9.30000000E+02  4.60000000E+01  0.00000000E+00
  9.30000000E+02  4.40000000E+01  0.00000000E+00
  9.30000000E+02  4.20000000E+01  0.00000000E+00
  9.30000000E+02  4.00000000E+01  0.00000000E+00
  9.30000000E+02  3.80000000E+01  0.00000000E+00
  9.30000000E+02  3.60000000E+01  0.00000000E+00
  9.30000000E+02  3.40000000E+01  0.00000000E+00
  9.30000000E+02  3.20000000E+01  0.00000000E+00
  9.30000000E+02  3.00000000E+01  0.00000000E+00
  9.30000000E+02  2.80000000E+01  0.00000000E+00
  9.30000000E+02  2.60000000E+01  0.00000000E+00
  9.30000000E+02  2.40000000E+01  0.00000000E+00
  9.30000000E+02  2.20000000E+01  0.00000000E+00
  9.30000000E+02  2.00000000E+01  0.00000000E+00
  9.30000000E+02  1.80000000E+01  0.00000000E+00
  9.30000000E+02  1.60000000E+01  0.00000000E+00
  9.30000000E+02  1.40000000E+01  0.00000000E+00
  9.30000000E+02  1.20000000E+01  0.00000000E+00
  9.30000000E+02  1.00000000E+01  0.00000000E+00
  9.30000000E+02  8.00000000E+00  0.00000000E+00
  9.30000000E+02  6.00000000E+00  0.00000000E+00
  9.30000000E+02  4.00000000E+00  0.00000000E+00
  9.30000000E+02  2.00000000E+00  0.00000000E+00
  9.30000000E+02 -3.33066907E-14  0.00000000E+00
  9.40000000E+02  1.00000000E+02  0.00000000E+00
  9.40000000E+02  9.80000000E+01  0.00000000E+00
  9.40000000E+02  9.60000000E+01  0.00000000E+00
  9.40000000E+02  9.40000000E+01  0.00000000E+00
  9.40000000E+02  9.20000000E+01  0.00000000E+00
  9.40000000E+02  9.00000000E+01  0.00000000E+00
  9.40000000E+02  8.80000000E+01  0.00000000E+00
  9.40000000E+02  8.60000000E+01  0.00000000E+00
  9.40000000E+02  8.40000000E+01  0.00000000E+00
  9.40000000E+02  8.20000000E+01  0.00000000E+00
  9.40000000E+02  8.00000000E+01  0.00000000E+00
  9.40000000E+02  7.80000000E+01  0.00000000E+00
  9.40000000E+02  7.60000000E+01  0.00000000E+00
  9.40000000E+02  7.40000000E+01  0.00000000E+00
  9.40000000E+02  7.20000000E+01  0.00000000E+00
  9.40000000E+02  7.00000000E+01  0.00000000E+00
  9.40000000E+02  6.80000000E+01  0.00000000E+00
  9.40000000E+02  6.60000000E+01  0.00000000E+00
  9.40000000E+02  6.40000000E+01  0.00000000E+00
  9.40000000E+02  6.20000000E+01  0.00000000E+00
  9.40000000E+02  6.00000000E+01  0.00000000E+00
  9.40000000E+02  5.80000000E+01  0.00000000E+00
  9.40000000E+02  5.60000000E+01  0.00000000E+00
  9.40000000E+02  5.40000000E+01  0.00000000E+00
  9.40000000E+02  5.20000000E+01  0.00000000E+00
  9.40000000E+02  5.00000000E+01  0.00000000E+00
  9.40000000E+02  4.80000000E+01  0.00000000E+00
  9.40000000E+02  4.60000000E+01  0.00000000E+00
  9.40000000E+02  4.40000000E+01  0.00000000E+00
  9.40000000E+02  4.20000000E+01  0.00000000E+00
  9.40000000E+02  4.00000000E+01  0.00000000E+00
  9.40000000E+02  3.80000000E+01  0.00000000E+00
  9.40000000E+02  3.60000000E+01  0.00000000E+00
  9.40000000E+02  3.40000000E+01  0.00000000E+00
  9.40000000E+02  3.20000000E+01  0.00000000E+00
  9.40000000E+02  3.00000000E+01  0.00000000E+00
  9.40000000E+02  2.80000000E+01  0.00000000E+00
  9.40000000E+02  2.60000000E+01  0.00000000E+00
  9.40000000E+02  2.40000000E+01  0.00000000E+00
  9.40000000E+02  2.20000000E+01  0.00000000E+00
  9.40000000E+02  2.00000000E+01  0.00000000E+00
  9.40000000E+02  1.80000000E+01  0.00000000E+00
  9.40000000E+02  1.60000000E+01  0.00000000E+00
  9.40000000E+02  1.40000000E+01  0.00000000E+00
  9.40000000E+02  1.20000000E+01  0.00000000E+00
  9.40000000E+02  1.00000000E+01  0.00000000E+00
  9.40000000E+02  8.00000000E+00  0.00000000E+00
  9.40000000E+02  6.00000000E+00  0.00000000E+00
  9.40000000E+02  4.00000000E+00  0.00000000E+00
  9.40000000E+02  2.00000000E+00  0.00000000E+00
  9.40000000E+02 -3.33066907E-14  0.00000000E+00
  9.50000000E+02  1.00000000E+02  0.00000000E+00
  9.50000000E+02  9.80000000E+01  0.00000000E+00
  9.50000000E+02  9.60000000E+01  0.00000000E+00
  9.50000000E+02  9.40000000E+01  0.00000000E+00
  9.50000000E+02  9.20000000E+01  0.00000000E+00
  9.50000000E+02  9.00000000E+01  0.00000000E+00
  9.50000000E+02  8.80000000E+01  0.00000000E+00
  9.50000000E+02  8.60000000E+01  0.00000000E+00
  9.50000000E+02  8.40000000E+01  0.00000000E+00
  9.50000000E+02  8.20000000E+01  0.00000000E+00
  9.50000000E+02  8.00000000E+01  0.00000000E+00
  9.50000000E+02  7.80000000E+01  0.00000000E+00
  9.50000000E+02  7.60000000E+01  0.00000000E+00
  9.50000000E+02  7.40000000E+01  0.00000000E+00
  9.50000000E+02  7.20000000E+01  0.00000000E+00
  9.50000000E+02  7.00000000E+01  0.00000000E+00
  9.50000000E+02  6.80000000E+01  0.00000000E+00
  9.50000000E+02  6.60000000E+01  0.00000000E+00
  9.50000000E+02  6.40000000E+01  0.00000000E+00
  9.50000000E+02  6.20000000E+01  0.00000000E+00
  9.50000000E+02  6.00000000E+01  0.00000000E+00
  9.50000000E+02  5.80000000E+01  0.00000000E+00
  9.50000000E+02  5.60000000E+01  0.00000000E+00
  9.50000000E+02  5.40000000E+01  0.00000000E+00
  9.50000000E+02  5.20000000E+01  0.00000000E+00
  9.50000000E+02  5.00000000E+01  0.00000000E+00
  9.50000000E+02  4.80000000E+01  0.00000000E+00
  9.50000000E+02  4.60000000E+01  0.00000000E+00
  9.50000000E+02  4.40000000E+01  0.00000000E+00
  9.50000000E+02  4.20000000E+01  0.00000000E+00
  9.50000000E+02  4.00000000E+01  0.00000000E+00
  9.50000000E+02  3.80000000E+01  0.00000000E+00
  9.50000000E+02  3.60000000E+01  0.00000000E+00
  9.50000000E+02  3.40000000E+01  0.00000000E+00
  9.50000000E+02  3.20000000E+01  0.00000000E+00
  9.50000000E+02  3.00000000E+01  0.00000000E+00
  9.50000000E+02  2.80000000E+01  0.00000000E+00
  9.50000000E+02  2.60000000E+01  0.00000000E+00
  9.50000000E+02  2.40000000E+01  0.00000000E+00
  9.50000000E+02  2.20000000E+01  0.00000000E+00
  9.50000000E+02  2.00000000E+01  0.00000000E+00
  9.50000000E+02  1.80000000E+01  0.00000000E+00
  9.50000000E+02  1.60000000E+01  0.00000000E+00
  9.50000000E+02  1.40000000E+01  0.00000000E+00
  9.50000000E+02  1.20000000E+01  0.00000000E+00
  9.50000000E+02  1.00000000E+01  0.00000000E+00
  9.50000000E+02  8.00000000E+00  0.00000000E+00
  9.50000000E+02  6.00000000E+00  0.00000000E+00
  9.50000000E+02  4.00000000E+00  0.00000000E+00
  9.50000000E+02  2.00000000E+00  0.00000000E+00
  9.50000000E+02 -3.33066907E-14  0.00000000E+00
  9.60000000E+02  1.00000000E+02  0.00000000E+00
  9.60000000E+02  9.80000000E+01  0.00000000E+00
  9.60000000E+02  9.60000000E+01  0.00000000E+00
  9.60000000E+02  9.40000000E+01  0.00000000E+00
  9.60000000E+02  9.20000000E+01  0.00000000E+00
  9.60000000E+02  9.00000000E+01  0.00000000E+00
  9.60000000E+02  8.80000000E+01  0.00000000E+00
  9.60000000E+02  8.60000000E+01  0.00000000E+00
  9.60000000E+02  8.40000000E+01  0.00000000E+00
  9.60000000E+02  8.20000000E+01  0.00000000E+00
  9.60000000E+02  8.00000000E+01  0.00000000E+00
  9.60000000E+02  7.80000000E+01  0.00000000E+00
  9.60000000E+02  7.60000000E+01  0.00000000E+00
  9.60000000E+02  7.40000000E+01  0.00000000E+00
  9.60000000E+02  7.20000000E+01  0.00000000E+00
  9.60000000E+02  7.00000000E+01  0.00000000E+00
  9.60000000E+02  6.80000000E+01  0.00000000E+00
  9.60000000E+02  6.60000000E+01  0.00000000E+00
  9.60000000E+02  6.40000000E+01  0.00000000E+00
  9.60000000E+02  6.20000000E+01  0.00000000E+00
  9.60000000E+02  6.00000000E+01  0.00000000E+00
  9.60000000E+02  5.80000000E+01  0.00000000E+00
  9.60000000E+02  5.60000000E+01  0.00000000E+00
  9.60000000E+02  5.40000000E+01  0.00000000E+00
  9.60000000E+02  5.20000000E+01  0.00000000E+00
  9.60000000E+02  5.00000000E+01  0.00000000E+00
  9.60000000E+02  4.80000000E+01  0.00000000E+00
  9.60000000E+02  4.60000000E+01  0.00000000E+00
  9.60000000E+02  4.40000000E+01  0.00000000E+00
  9.60000000E+02  4.20000000E+01  0.00000000E+00
  9.60000000E+02  4.00000000E+01  0.00000000E+00
  9.60000000E+02  3.80000000E+01  0.00000000E+00
  9.60000000E+02  3.60000000E+01  0.00000000E+00
  9.60000000E+02  3.40000000E+01  0.00000000E+00
  9.60000000E+02  3.20000000E+01  0.00000000E+00
  9.60000000E+02  3.00000000E+01  0.00000000E+00
  9.60000000E+02  2.80000000E+01  0.00000000E+00
  9.60000000E+02  2.60000000E+01  0.00000000E+00
  9.60000000E+02  2.40000000E+01  0.00000000E+00
  9.60000000E+02  2.20000000E+01  0.00000000E+00
  9.60000000E+02  2.00000000E+01  0.00000000E+00
  9.60000000E+02  1.80000000E+01  0.00000000E+00
  9.60000000E+02  1.60000000E+01  0.00000000E+00
  9.60000000E+02  1.40000000E+01  0.00000000E+00
  9.60000000E+02  1.20000000E+01  0.00000000E+00
  9.60000000E+02  1.00000000E+01  0.00000000E+00
  9.60000000E+02  8.00000000E+00  0.00000000E+00
  9.60000000E+02  6.00000000E+00  0.00000000E+00
  9.60000000E+02  4.00000000E+00  0.00000000E+00
  9.60000000E+02  2.00000000E+00  0.00000000E+00
  9.60000000E+02 -3.33066907E-14  0.00000000E+00
  9.70000000E+02  1.00000000E+02  0.00000000E+00
  9.70000000E+02  9.80000000E+01  0.00000000E+00
  9.70000000E+02  9.60000000E+01  0.00000000E+00
  9.70000000E+02  9.40000000E+01  0.00000000E+00
  9.70000000E+02  9.20000000E+01  0.00000000E+00
  9.70000000E+02  9.00000000E+01  0.00000000E+00
  9.70000000E+02  8.80000000E+01  0.00000000E+00
  9.70000000E+02  8.60000000E+01  0.00000000E+00
  9.70000000E+02  8.40000000E+01  0.00000000E+00
  9.70000000E+02  8.20000000E+01  0.00000000E+00
  9.70000000E+02  8.00000000E+01  0.00000000E+00
  9.70000000E+02  7.80000000E+01  0.00000000E+00
  9.70000000E+02  7.60000000E+01  0.00000000E+00
  9.70000000E+02  7.40000000E+01  0.00000000E+00
  9.70000000E+02  7.20000000E+01  0.00000000E+00
  9.70000000E+02  7.00000000E+01  0.00000000E+00
  9.70000000E+02  6.80000000E+01  0.00000000E+00
  9.70000000E+02  6.60000000E+01  0.00000000E+00
  9.70000000E+02  6.40000000E+01  0.00000000E+00
  9.70000000E+02  6.20000000E+01  0.00000000E+00
  9.70000000E+02  6.00000000E+01  0.00000000E+00
  9.70000000E+02  5.80000000E+01  0.00000000E+00
  9.70000000E+02  5.60000000E+01  0.00000000E+00
  9.70000000E+02  5.40000000E+01  0.00000000E+00
  9.70000000E+02  5.20000000E+01  0.00000000E+00
  9.70000000E+02  5.00000000E+01  0.00000000E+00
  9.70000000E+02  4.80000000E+01  0.00000000E+00
  9.70000000E+02  4.60000000E+01  0.00000000E+00
  9.70000000E+02  4.40000000E+01  0.00000000E+00
  9.70000000E+02  4.20000000E+01  0.00000000E+00
  9.70000000E+02  4.00000000E+01  0.00000000E+00
  9.70000000E+02  3.80000000E+01  0.00000000E+00
  9.70000000E+02  3.60000000E+01  0.00000000E+00
  9.70000000E+02  3.40000000E+01  0.00000000E+00
  9.70000000E+02  3.20000000E+01  0.00000000E+00
  9.70000000E+02  3.00000000E+01  0.00000000E+00
  9.70000000E+02  2.80000000E+01  0.00000000E+00
  9.70000000E+02  2.60000000E+01  0.00000000E+00
  9.70000000E+02  2.40000000E+01  0.00000000E+00
  9.70000000E+02  2.20000000E+01  0.00000000E+00
  9.70000000E+02  2.00000000E+01  0.00000000E+00
  9.70000000E+02  1.80000000E+01  0.00000000E+00
  9.70000000E+02  1.60000000E+01  0.00000000E+00
  9.70000000E+02  1.40000000E+01  0.00000000E+00
  9.70000000E+02  1.20000000E+01  0.00000000E+00
  9.70000000E+02  1.00000000E+01  0.00000000E+00
  9.70000000E+02  8.00000000E+00  0.00000000E+00
  9.70000000E+02  6.00000000E+00  0.00000000E+00
  9.70000000E+02  4.00000000E+00  0.00000000E+00
  9.70000000E+02  2.00000000E+00  0.00000000E+00
  9.70000000E+02 -3.33066907E-14  0.00000000E+00
  9.80000000E+02  1.00000000E+02  0.00000000E+00
  9.80000000E+02  9.80000000E+01  0.00000000E+00
  9.80000000E+02  9.60000000E+01  0.00000000E+00
  9.80000000E+02  9.40000000E+01  0.00000000E+00
  9.80000000E+02  9.20000000E+01  0.00000000E+00
  9.80000000E+02  9.00000000E+01  0.00000000E+00
  9.80000000E+02  8.80000000E+01  0.00000000E+00
  9.80000000E+02  8.60000000E+01  0.00000000E+00
  9.80000000E+02  8.40000000E+01  0.00000000E+00
  9.80000000E+02  8.20000000E+01  0.00000000E+00
  9.80000000E+02  8.00000000E+01  0.00000000E+00
  9.80000000E+02  7.80000000E+01  0.00000000E+00
  9.80000000E+02  7.60000000E+01  0.00000000E+00
  9.80000000E+02  7.40000000E+01  0.00000000E+00
  9.80000000E+02  7.20000000E+01  0.00000000E+00
  9.80000000E+02  7.00000000E+01  0.00000000E+00
  9.80000000E+02  6.80000000E+01  0.00000000E+00
  9.80000000E+02  6.60000000E+01  0.00000000E+00
  9.80000000E+02  6.40000000E+01  0.00000000E+00
  9.80000000E+02  6.20000000E+01  0.00000000E+00
  9.80000000E+02  6.00000000E+01  0.00000000E+00
  9.80000000E+02  5.80000000E+01  0.00000000E+00
  9.80000000E+02  5.60000000E+01  0.00000000E+00
  9.80000000E+02  5.40000000E+01  0.00000000E+00
  9.80000000E+02  5.20000000E+01  0.00000000E+00
  9.80000000E+02  5.00000000E+01  0.00000000E+00
  9.80000000E+02  4.80000000E+01  0.00000000E+00
  9.80000000E+02  4.60000000E+01  0.00000000E+00
  9.80000000E+02  4.40000000E+01  0.00000000E+00
  9.80000000E+02  4.20000000E+01  0.00000000E+00
  9.80000000E+02  4.00000000E+01  0.00000000E+00
  9.80000000E+02  3.80000000E+01  0.00000000E+00
  9.80000000E+02  3.60000000E+01  0.00000000E+00
  9.80000000E+02  3.40000000E+01  0.00000000E+00
  9.80000000E+02  3.20000000E+01  0.00000000E+00
  9.80000000E+02  3.00000000E+01  0.00000000E+00
  9.80000000E+02  2.80000000E+01  0.00000000E+00
  9.80000000E+02  2.60000000E+01  0.00000000E+00
  9.80000000E+02  2.40000000E+01  0.00000000E+00
  9.80000000E+02  2.20000000E+01  0.00000000E+00
  9.80000000E+02  2.00000000E+01  0.00000000E+00
  9.80000000E+02  1.80000000E+01  0.00000000E+00
  9.80000000E+02  1.60000000E+01  0.00000000E+00
  9.80000000E+02  1.40000000E+01  0.00000000E+00
  9.80000000E+02  1.20000000E+01  0.00000000E+00
  9.80000000E+02  1.00000000E+01  0.00000000E+00
  9.80000000E+02  8.00000000E+00  0.00000000E+00
  9.80000000E+02  6.00000000E+00  0.00000000E+00
  9.80000000E+02  4.00000000E+00  0.00000000E+00
  9.80000000E+02  2.00000000E+00  0.00000000E+00
  9.80000000E+02 -3.33066907E-14  0.00000000E+00
  9.90000000E+02  1.00000000E+02  0.00000000E+00
  9.90000000E+02  9.80000000E+01  0.00000000E+00
  9.90000000E+02  9.60000000E+01  0.00000000E+00
  9.90000000E+02  9.40000000E+01  0.00000000E+00
  9.90000000E+02  9.20000000E+01  0.00000000E+00
  9.90000000E+02  9.00000000E+01  0.00000000E+00
  9.90000000E+02  8.80000000E+01  0.00000000E+00
  9.90000000E+02  8.60000000E+01  0.00000000E+00
  9.90000000E+02  8.40000000E+01  0.00000000E+00
  9.90000000E+02  8.20000000E+01  0.00000000E+00
  9.90000000E+02  8.00000000E+01  0.00000000E+00
  9.90000000E+02  7.80000000E+01  0.00000000E+00
  9.90000000E+02  7.60000000E+01  0.00000000E+00
  9.90000000E+02  7.40000000E+01  0.00000000E+00
  9.90000000E+02  7.20000000E+01  0.00000000E+00
  9.90000000E+02  7.00000000E+01  0.00000000E+00
  9.90000000E+02  6.80000000E+01  0.00000000E+00
  9.90000000E+02  6.60000000E+01  0.00000000E+00
  9.90000000E+02  6.40000000E+01  0.00000000E+00
  9.90000000E+02  6.20000000E+01  0.00000000E+00
  9.90000000E+02  6.00000000E+01  0.00000000E+00
  9.90000000E+02  5.80000000E+01  0.00000000E+00
  9.90000000E+02  5.60000000E+01  0.00000000E+00
  9.90000000E+02  5.40000000E+01  0.00000000E+00
  9.90000000E+02  5.20000000E+01  0.00000000E+00
  9.90000000E+02  5.00000000E+01  0.00000000E+00
  9.90000000E+02  4.80000000E+01  0.00000000E+00
  9.90000000E+02  4.60000000E+01  0.00000000E+00
  9.90000000E+02  4.40000000E+01  0.00000000E+00
  9.90000000E+02  4.20000000E+01  0.00000000E+00
  9.90000000E+02  4.00000000E+01  0.00000000E+00
  9.90000000E+02  3.80000000E+01  0.00000000E+00
  9.90000000E+02  3.60000000E+01  0.00000000E+00
  9.90000000E+02  3.40000000E+01  0.00000000E+00
  9.90000000E+02  3.20000000E+01  0.00000000E+00
  9.90000000E+02  3.00000000E+01  0.00000000E+00
  9.90000000E+02  2.80000000E+01  0.00000000E+00
  9.90000000E+02  2.60000000E+01  0.00000000E+00
  9.90000000E+02  2.40000000E+01  0.00000000E+00
  9.90000000E+02  2.20000000E+01  0.00000000E+00
  9.90000000E+02  2.00000000E+01  0.00000000E+00
  9.90000000E+02  1.80000000E+01  0.00000000E+00
  9.90000000E+02  1.60000000E+01  0.00000000E+00
  9.90000000E+02  1.40000000E+01  0.00000000E+00
  9.90000000E+02  1.20000000E+01  0.00000000E+00
  9.90000000E+02  1.00000000E+01  0.00000000E+00
  9.90000000E+02  8.00000000E+00  0.00000000E+00
  9.90000000E+02  6.00000000E+00  0.00000000E+00
  9.90000000E+02  4.00000000E+00  0.00000000E+00
  9.90000000E+02  2.00000000E+00  0.00000000E+00
  9.90000000E+02 -3.33066907E-14  0.00000000E+00
  1.00000000E+03  1.00000000E+02  0.00000000E+00
  1.00000000E+03  9.80000000E+01  0.00000000E+00
  1.00000000E+03  9.60000000E+01  0.00000000E+00
  1.00000000E+03  9.40000000E+01  0.00000000E+00
  1.00000000E+03  9.20000000E+01  0.00000000E+00
  1.00000000E+03  9.00000000E+01  0.00000000E+00
  1.00000000E+03  8.80000000E+01  0.00000000E+00
  1.00000000E+03  8.60000000E+01  0.00000000E+00
  1.00000000E+03  8.40000000E+01  0.00000000E+00
  1.00000000E+03  8.20000000E+01  0.00000000E+00
  1.00000000E+03  8.00000000E+01  0.00000000E+00
  1.00000000E+03  7.80000000E+01  0.00000000E+00
  1.00000000E+03  7.60000000E+01  0.00000000E+00
  1.00000000E+03  7.40000000E+01  0.00000000E+00
  1.00000000E+03  7.20000000E+01  0.00000000E+00
  1.00000000E+03  7.00000000E+01  0.00000000E+00
  1.00000000E+03  6.80000000E+01  0.00000000E+00
  1.00000000E+03  6.60000000E+01  0.00000000E+00
  1.00000000E+03  6.40000000E+01  0.00000000E+00
  1.00000000E+03  6.20000000E+01  0.00000000E+00
  1.00000000E+03  6.00000000E+01  0.00000000E+00
  1.00000000E+03  5.80000000E+01  0.00000000E+00
  1.00000000E+03  5.60000000E+01  0.00000000E+00
  1.00000000E+03  5.40000000E+01  0.00000000E+00
  1.00000000E+03  5.20000000E+01  0.00000000E+00
  1.00000000E+03  5.00000000E+01  0.00000000E+00
  1.00000000E+03  4.80000000E+01  0.00000000E+00
  1.00000000E+03  4.60000000E+01  0.00000000E+00
  1.00000000E+03  4.40000000E+01  0.00000000E+00
  1.00000000E+03  4.20000000E+01  0.00000000E+00
  1.00000000E+03  4.00000000E+01  0.00000000E+00
  1.00000000E+03  3.80000000E+01  0.00000000E+00
  1.00000000E+03  3.60000000E+01  0.00000000E+00
  1.00000000E+03  3.40000000E+01  0.00000000E+00
  1.00000000E+03  3.20000000E+01  0.00000000E+00
  1.00000000E+03  3.00000000E+01  0.00000000E+00
  1.00000000E+03  2.80000000E+01  0.00000000E+00
  1.00000000E+03  2.60000000E+01  0.00000000E+00
  1.00000000E+03  2.40000000E+01  0.00000000E+00
  1.00000000E+03  2.20000000E+01  0.00000000E+00
  1.00000000E+03  2.00000000E+01  0.00000000E+00
  1.00000000E+03  1.80000000E+01  0.00000000E+00
  1.00000000E+03  1.60000000E+01  0.00000000E+00
  1.00000000E+03  1.40000000E+01  0.00000000E+00
  1.00000000E+03  1.20000000E+01  0.00000000E+00
  1.00000000E+03  1.00000000E+01  0.00000000E+00
  1.00000000E+03  8.00000000E+00  0.00000000E+00
  1.00000000E+03  6.00000000E+00  0.00000000E+00
  1.00000000E+03  4.00000000E+00  0.00000000E+00
  1.00000000E+03  2.00000000E+00  0.00000000E+00
  1.00000000E+03 -3.33066907E-14  0.00000000E+00
CELLS      5000     25000
         4           0           1          52          51
         4           1           2          53          52
         4           2           3          54          53
         4           3           4          55          54
         4           4           5          56          55
         4           5           6          57          56
         4           6           7          58          57
         4           7           8          59          58
         4           8           9          60          59
         4           9          10          61          60
         4          10          11          62          61
         4          11          12          63          62
         4          12          13          64          63
         4          13          14          65          64
         4          14          15          66          65
         4          15          16          67          66
         4          16          17          68          67
         4          17          18          69          68
         4          18          19          70          69
         4          19          20          71          70
         4          20          21          72          71
         4          21          22          73          72
         4          22          23          74          73
         4          23          24          75          74
         4          24          25          76          75
         4          25          26          77          76
         4          26          27          78          77
         4          27          28          79          78
         4          28          29          80          79
         4          29          30          81          80
         4          30          31          82          81
         4          31          32          83          82
         4          32          33          84          83
         4          33          34          85          84
         4          34          35          86          85
         4          35          36          87          86
         4          36          37          88          87
         4          37          38          89          88
         4          38          39          90          89
         4          39          40          91          90
         4          40          41          92          91
         4          41          42          93          92
         4          42          43          94          93
         4          43          44          95          94
         4          44          45          96          95
         4          45          46          97          96
         4          46          47          98          97
         4          47          48          99          98
         4          48          49         100          99
         4          49          50         101         100
         4          51          52         103         102
         4          52          53         104         103
         4          53          54         105         104
         4          54          55         106         105
         4          55          56         107         106
         4          56          57         108         107
         4          57          58         109         108
         4          58          59         110         109
         4          59          60         111         110
         4          60          61         112         111
         4          61          62         113         112
         4          62          63         114         113
         4          63          64         115         114
         4          64          65         116         115
         4          65          66         117         116
         4          66          67         118         117
         4          67          68         119         118
         4          68          69         120         119
         4          69          70         121         120
         4          70          71         122         121
         4          71          72         123         122
         4          72          73         124         123
         4          73          74         125         124
         4          74          75         126         125
         4          75          76         127         126
         4          76          77         128         127
         4          77          78         129         128
         4          78          79         130         129
         4          79          80         131         130
         4          80          81         132         131
         4          81          82         133         132
         4          82          83         134         133
         4          83          84         135         134
         4          84          85         136         135
         4          85          86         137         136
         4          86          87         138         137
         4          87          88         139         138
         4          88          89         140         139
         4          89          90         141         140
         4          90          91         142         141
         4          91          92         143         142
         4          92          93         144         143
         4          93          94         145         144
         4          94          95         146         145
         4          95          96         147         146
         4          96          97         148         147
         4          97          98         149         148
         4          98          99         150         149
         4          99         100         151         150
         4         100         101         152         151
         4         102         103         154         153
         4         103         104         155         154
         4         104         105         156         155
         4         105         106         157         156
         4         106         107         158         157
         4         107         108         159         158
         4         108         109         160         159
         4         109         110         161         160
         4         110         111         162         161
         4         111         112         163         162
         4         112         113         164         163
         4         113         114         165         164
         4         114         115         166         165
         4         115         116         167         166
         4         116         117         168         167
         4         117         118         169         168
         4         118         119         170         169
         4         119         120         171         170
         4         120         121         172         171
         4         121         122         173         172
         4         122         123         174         173
         4         123         124         175         174
         4         124         125         176         175
         4         125         126         177         176
         4         126         127         178         177
         4         127         128         179         178
         4         128         129         180         179
         4         129         130         181         180
         4         130         131         182         181
         4         131         132         183         182
         4         132         133         184         183
         4         133         134         185         184
         4         134         135         186         185
         4         135         136         187         186
         4         136         137         188         187
         4         137         138         189         188
         4         138         139         190         189
         4         139         140         191         190
         4         140         141         192         191
         4         141         142         193         192
         4         142         143         194         193
         4         143         144         195         194
         4         144         145         196         195
         4         145         146         197         196
         4         146         147         198         197
         4         147         148         199         198
         4         148         149         200         199
         4         149         150         201         200
         4         150         151         202         201
         4         151         152         203         202
         4         153         154         205         204
         4         154         155         206         205
         4         155         156         207         206
         4         156         157         208         207
         4         157         158         209         208
         4         158         159         210         209
         4         159         160         211         210
         4         160         161         212         211
         4         161         162         213         212
         4         162         163         214         213
         4         163         164         215         214
         4         164         165         216         215
         4         165         166         217         216
         4         166         167         218         217
         4         167         168         219         218
         4         168         169         220         219
         4         169         170         221         220
         4         170         171         222         221
         4         171         172         223         222
         4         172         173         224         223
         4         173         174         225         224
         4         174         175         226         225
         4         175         176         227         226
         4         176         177         228         227
         4         177         178         229         228
         4         178         179         230         229
         4         179         180         231         230
         4         180         181         232         231
         4         181         182         233         232
         4         182         183         234         233
         4         183         184         235         234
         4         184         185         236         235
         4         185         186         237         236
         4         186         187         238         237
         4         187         188         239         238
         4         188         189         240         239
         4         189         190         241         240
         4         190         191         242         241
         4         191         192         243         242
         4         192         193         244         243
         4         193         194         245         244
         4         194         195         246         245
         4         195         196         247         246
         4         196         197         248         247
         4         197         198         249         248
         4         198         199         250         249
         4         199         200         251         250
         4         200         201         252         251
         4         201         202         253         252
         4         202         203         254         253
         4         204         205         256         255
         4         205         206         257         256
         4         206         207         258         257
         4         207         208         259         258
         4         208         209         260         259
         4         209         210         261         260
         4         210         211         262         261
         4         211         212         263         262
         4         212         213         264         263
         4         213         214         265         264
         4         214         215         266         265
         4         215         216         267         266
         4         216         217         268         267
         4         217         218         269         268
         4         218         219         270         269
         4         219         220         271         270
         4         220         221         272         271
         4         221         222         273         272
         4         222         223         274         273
         4         223         224         275         274
         4         224         225         276         275
         4         225         226         277         276
         4         226         227         278         277
         4         227         228         279         278
         4         228         229         280         279
         4         229         230         281         280
         4         230         231         282         281
         4         231         232         283         282
         4         232         233         284         283
         4         233         234         285         284
         4         234         235         286         285
         4         235         236         287         286
         4         236         237         288         287
         4         237         238         289         288
         4         238         239         290         289
         4         239         240         291         290
         4         240         241         292         291
         4         241         242         293         292
         4         242         243         294         293
         4         243         244         295         294
         4         244         245         296         295
         4         245         246         297         296
         4         246         247         298         297
         4         247         248         299         298
         4         248         249         300         299
         4         249         250         301         300
         4         250         251         302         301
         4         251         252         303         302
         4         252         253         304         303
         4         253         254         305         304
         4         255         256         307         306
         4         256         257         308         307
         4         257         258         309         308
         4         258         259         310         309
         4         259         260         311         310
         4         260         261         312         311
         4         261         262         313         312
         4         262         263         314         313
         4         263         264         315         314
         4         264         265         316         315
         4         265         266         317         316
         4         266         267         318         317
         4         267         268         319         318
         4         268         269         320         319
         4         269         270         321         320
         4         270         271         322         321
         4         271         272         323         322
         4         272         273         324         323
         4         273         274         325         324
         4         274         275         326         325
         4         275         276         327         326
         4         276         277         328         327
         4         277         278         329         328
         4         278         279         330         329
         4         279         280         331         330
         4         280         281         332         331
         4         281         282         333         332
         4         282         283         334         333
         4         283         284         335         334
         4         284         285         336         335
         4         285         286         337         336
         4         286         287         338         337
         4         287         288         339         338
         4         288         289         340         339
         4         289         290         341         340
         4         290         291         342         341
         4         291         292         343         342
         4         292         293         344         343
         4         293         294         345         344
         4         294         295         346         345
         4         295         296         347         346
         4         296         297         348         347
         4         297         298         349         348
         4         298         299         350         349
         4         299         300         351         350
         4         300         301         352         351
         4         301         302         353         352
         4         302         303         354         353
         4         303         304         355         354
         4         304         305         356         355
         4         306         307         358         357
         4         307         308         359         358
         4         308         309         360         359
         4         309         310         361         360
         4         310         311         362         361
         4         311         312         363         362
         4         312         313         364         363
         4         313         314         365         364
         4         314         315         366         365
         4         315         316         367         366
         4         316         317         368         367
         4         317         318         369         368
         4         318         319         370         369
         4         319         320         371         370
         4         320         321         372         371
         4         321         322         373         372
         4         322         323         374         373
         4         323         324         375         374
         4         324         325         376         375
         4         325         326         377         376
         4         326         327         378         377
         4         327         328         379         378
         4         328         329         380         379
         4         329         330         381         380
         4         330         331         382         381
         4         331         332         383         382
         4         332         333         384         383
         4         333         334         385         384
         4         334         335         386         385
         4         335         336         387         386
         4         336         337         388         387
         4         337         338         389         388
         4         338         339         390         389
         4         339         340         391         390
         4         340         341         392         391
         4         341         342         393         392
         4         342         343         394         393
         4         343         344         395         394
         4         344         345         396         395
         4         345         346         397         396
         4         346         347         398         397
         4         347         348         399         398
         4         348         349         400         399
         4         349         350         401         400
         4         350         351         402         401
         4         351         352         403         402
         4         352         353         404         403
         4         353         354         405         404
         4         354         355         406         405
         4         355         356         407         406
         4         357         358         409         408
         4         358         359         410         409
         4         359         360         411         410
         4         360         361         412         411
         4         361         362         413         412
         4         362         363         414         413
         4         363         364         415         414
         4         364         365         416         415
         4         365         366         417         416
         4         366         367         418         417
         4         367         368         419         418
         4         368         369         420         419
         4         369         370         421         420
         4         370         371         422         421
         4         371         372         423         422
         4         372         373         424         423
         4         373         374         425         424
         4         374         375         426         425
         4         375         376         427         426
         4         376         377         428         427
         4         377         378         429         428
         4         378         379         430         429
         4         379         380         431         430
         4         380         381         432         431
         4         381         382         433         432
         4         382         383         434         433
         4         383         384         435         434
         4         384         385         436         435
         4         385         386         437         436
         4         386         387         438         437
         4         387         388         439         438
         4         388         389         440         439
         4         389         390         441         440
         4         390         391         442         441
         4         391         392         443         442
         4         392         393         444         443
         4         393         394         445         444
         4         394         395         446         445
         4         395         396         447         446
         4         396         397         448         447
         4         397         398         449         448
         4         398         399         450         449
         4         399         400         451         450
         4         400         401         452         451
         4         401         402         453         452
         4         402         403         454         453
         4         403         404         455         454
         4         404         405         456         455
         4         405         406         457         456
         4         406         407         458         457
         4         408         409         460         459
         4         409         410         461         460
         4         410         411         462         461
         4         411         412         463         462
         4         412         413         464         463
         4         413         414         465         464
         4         414         415         466         465
         4         415         416         467         466
         4         416         417         468         467
         4         417         418         469         468
         4         418         419         470         469
         4         419         420         471         470
         4         420         421         472         471
         4         421         422         473         472
         4         422         423         474         473
         4         423         424         475         474
         4         424         425         476         475
         4         425         426         477         476
         4         426         427         478         477
         4         427         428         479         478
         4         428         429         480         479
         4         429         430         481         480
         4         430         431         482         481
         4         431         432         483         482
         4         432         433         484         483
         4         433         434         485         484
         4         434         435         486         485
         4         435         436         487         486
         4         436         437         488         487
         4         437         438         489         488
         4         438         439         490         489
         4         439         440         491         490
         4         440         441         492         491
         4         441         442         493         492
         4         442         443         494         493
         4         443         444         495         494
         4         444         445         496         495
         4         445         446         497         496
         4         446         447         498         497
         4         447         448         499         498
         4         448         449         500         499
         4         449         450         501         500
         4         450         451         502         501
         4         451         452         503         502
         4         452         453         504         503
         4         453         454         505         504
         4         454         455         506         505
         4         455         456         507         506
         4         456         457         508         507
         4         457         458         509         508
         4         459         460         511         510
         4         460         461         512         511
         4         461         462         513         512
         4         462         463         514         513
         4         463         464         515         514
         4         464         465         516         515
         4         465         466         517         516
         4         466         467         518         517
         4         467         468         519         518
         4         468         469         520         519
         4         469         470         521         520
         4         470         471         522         521
         4         471         472         523         522
         4         472         473         524         523
         4         473         474         525         524
         4         474         475         526         525
         4         475         476         527         526
         4         476         477         528         527
         4         477         478         529         528
         4         478         479         530         529
         4         479         480         531         530
         4         480         481         532         531
         4         481         482         533         532
         4         482         483         534         533
         4         483         484         535         534
         4         484         485         536         535
         4         485         486         537         536
         4         486         487         538         537
         4         487         488         539         538
         4         488         489         540         539
         4         489         490         541         540
         4         490         491         542         541
         4         491         492         543         542
         4         492         493         544         543
         4         493         494         545         544
         4         494         495         546         545
         4         495         496         547         546
         4         496         497         548         547
         4         497         498         549         548
         4         498         499         550         549
         4         499         500         551         550
         4         500         501         552         551
         4         501         502         553         552
         4         502         503         554         553
         4         503         504         555         554
         4         504         505         556         555
         4         505         506         557         556
         4         506         507         558         557
         4         507         508         559         558
         4         508         509         560         559
         4         510         511         562         561
         4         511         512         563         562
         4         512         513         564         563
         4         513         514         565         564
         4         514         515         566         565
         4         515         516         567         566
         4         516         517         568         567
         4         517         518         569         568
         4         518         519         570         569
         4         519         520         571         570
         4         520         521         572         571
         4         521         522         573         572
         4         522         523         574         573
         4         523         524         575         574
         4         524         525         576         575
         4         525         526         577         576
         4         526         527         578         577
         4         527         528         579         578
         4         528         529         580         579
         4         529         530         581         580
         4         530         531         582         581
         4         531         532         583         582
         4         532         533         584         583
         4         533         534         585         584
         4         534         535         586         585
         4         535         536         587         586
         4         536         537         588         587
         4         537         538         589         588
         4         538         539         590         589
         4         539         540         591         590
         4         540         541         592         591
         4         541         542         593         592
         4         542         543         594         593
         4         543         544         595         594
         4         544         545         596         595
         4         545         546         597         596
         4         546         547         598         597
         4         547         548         599         598
         4         548         549         600         599
         4         549         550         601         600
         4         550         551         602         601
         4         551         552         603         602
         4         552         553         604         603
         4         553         554         605         604
         4         554         555         606         605
         4         555         556         607         606
         4         556         557         608         607
         4         557         558         609         608
         4         558         559         610         609
         4         559         560         611         610
         4         561         562         613         612
         4         562         563         614         613
         4         563         564         615         614
         4         564         565         616         615
         4         565         566         617         616
         4         566         567         618         617
         4         567         568         619         618
         4         568         569         620         619
         4         569         570         621         620
         4         570         571         622         621
         4         571         572         623         622
         4         572         573         624         623
         4         573         574         625         624
         4         574         575         626         625
         4         575         576         627         626
         4         576         577         628         627
         4         577         578         629         628
         4         578         579         630         629
         4         579         580         631         630
         4         580         581         632         631
         4         581         582         633         632
         4         582         583         634         633
         4         583         584         635         634
         4         584         585         636         635
         4         585         586         637         636
         4         586         587         638         637
         4         587         588         639         638
         4         588         589         640         639
         4         589         590         641         640
         4         590         591         642         641
         4         591         592         643         642
         4         592         593         644         643
         4         593         594         645         644
         4         594         595         646         645
         4         595         596         647         646
         4         596         597         648         647
         4         597         598         649         648
         4         598         599         650         649
         4         599         600         651         650
         4         600         601         652         651
         4         601         602         653         652
         4         602         603         654         653
         4         603         604         655         654
         4         604         605         656         655
         4         605         606         657         656
         4         606         607         658         657
         4         607         608         659         658
         4         608         609         660         659
         4         609         610         661         660
         4         610         611         662         661
         4         612         613         664         663
         4         613         614         665         664
         4         614         615         666         665
         4         615         616         667         666
         4         616         617         668         667
         4         617         618         669         668
         4         618         619         670         669
         4         619         620         671         670
         4         620         621         672         671
         4         621         622         673         672
         4         622         623         674         673
         4         623         624         675         674
         4         624         625         676         675
         4         625         626         677         676
         4         626         627         678         677
         4         627         628         679         678
         4         628         629         680         679
         4         629         630         681         680
         4         630         631         682         681
         4         631         632         683         682
         4         632         633         684         683
         4         633         634         685         684
         4         634         635         686         685
         4         635         636         687         686
         4         636         637         688         687
         4         637         638         689         688
         4         638         639         690         689
         4         639         640         691         690
         4         640         641         692         691
         4         641         642         693         692
         4         642         643         694         693
         4         643         644         695         694
         4         644         645         696         695
         4         645         646         697         696
         4         646         647         698         697
         4         647         648         699         698
         4         648         649         700         699
         4         649         650         701         700
         4         650         651         702         701
         4         651         652         703         702
         4         652         653         704         703
         4         653         654         705         704
         4         654         655         706         705
         4         655         656         707         706
         4         656         657         708         707
         4         657         658         709         708
         4         658         659         710         709
         4         659         660         711         710
         4         660         661         712         711
         4         661         662         713         712
         4         663         664         715         714
         4         664         665         716         715
         4         665         666         717         716
         4         666         667         718         717
         4         667         668         719         718
         4         668         669         720         719
         4         669         670         721         720
         4         670         671         722         721
         4         671         672         723         722
         4         672         673         724         723
         4         673         674         725         724
         4         674         675         726         725
         4         675         676         727         726
         4         676         677         728         727
         4         677         678         729         728
         4         678         679         730         729
         4         679         680         731         730
         4         680         681         732         731
         4         681         682         733         732
         4         682         683         734         733
         4         683         684         735         734
         4         684         685         736         735
         4         685         686         737         736
         4         686         687         738         737
         4         687         688         739         738
         4         688         689         740         739
         4         689         690         741         740
         4         690         691         742         741
         4         691         692         743         742
         4         692         693         744         743
         4         693         694         745         744
         4         694         695         746         745
         4         695         696         747         746
         4         696         697         748         747
         4         697         698         749         748
         4         698         699         750         749
         4         699         700         751         750
         4         700         701         752         751
         4         701         702         753         752
         4         702         703         754         753
         4         703         704         755         754
         4         704         705         756         755
         4         705         706         757         756
         4         706         707         758         757
         4         707         708         759         758
         4         708         709         760         759
         4         709         710         761         760
         4         710         711         762         761
         4         711         712         763         762
         4         712         713         764         763
         4         714         715         766         765
         4         715         716         767         766
         4         716         717         768         767
         4         717         718         769         768
         4         718         719         770         769
         4         719         720         771         770
         4         720         721         772         771
         4         721         722         773         772
         4         722         723         774         773
         4         723         724         775         774
         4         724         725         776         775
         4         725         726         777         776
         4         726         727         778         777
         4         727         728         779         778
         4         728         729         780         779
         4         729         730         781         780
         4         730         731         782         781
         4         731         732         783         782
         4         732         733         784         783
         4         733         734         785         784
         4         734         735         786         785
         4         735         736         787         786
         4         736         737         788         787
         4         737         738         789         788
         4         738         739         790         789
         4         739         740         791         790
         4         740         741         792         791
         4         741         742         793         792
         4         742         743         794         793
         4         743         744         795         794
         4         744         745         796         795
         4         745         746         797         796
         4         746         747         798         797
         4         747         748         799         798
         4         748         749         800         799
         4         749         750         801         800
         4         750         751         802         801
         4         751         752         803         802
         4         752         753         804         803
         4         753         754         805         804
         4         754         755         806         805
         4         755         756         807         806
         4         756         757         808         807
         4         757         758         809         808
         4         758         759         810         809
         4         759         760         811         810
         4         760         761         812         811
         4         761         762         813         812
         4         762         763         814         813
         4         763         764         815         814
         4         765         766         817         816
         4         766         767         818         817
         4         767         768         819         818
         4         768         769         820         819
         4         769         770         821         820
         4         770         771         822         821
         4         771         772         823         822
         4         772         773         824         823
         4         773         774         825         824
         4         774         775         826         825
         4         775         776         827         826
         4         776         777         828         827
         4         777         778         829         828
         4         778         779         830         829
         4         779         780         831         830
         4         780         781         832         831
         4         781         782         833         832
         4         782         783         834         833
         4         783         784         835         834
         4         784         785         836         835
         4         785         786         837         836
         4         786         787         838         837
         4         787         788         839         838
         4         788         789         840         839
         4         789         790         841         840
         4         790         791         842         841
         4         791         792         843         842
         4         792         793         844         843
         4         793         794         845         844
         4         794         795         846         845
         4         795         796         847         846
         4         796         797         848         847
         4         797         798         849         848
         4         798         799         850         849
         4         799         800         851         850
         4         800         801         852         851
         4         801         802         853         852
         4         802         803         854         853
         4         803         804         855         854
         4         804         805         856         855
         4         805         806         857         856
         4         806         807         858         857
         4         807         808         859         858
         4         808         809         860         859
         4         809         810         861         860
         4         810         811         862         861
         4         811         812         863         862
         4         812         813         864         863
         4         813         814         865         864
         4         814         815         866         865
         4         816         817         868         867
         4         817         818         869         868
         4         818         819         870         869
         4         819         820         871         870
         4         820         821         872         871
         4         821         822         873         872
         4         822         823         874         873
         4         823         824         875         874
         4         824         825         876         875
         4         825         826         877         876
         4         826         827         878         877
         4         827         828         879         878
         4         828         829         880         879
         4         829         830         881         880
         4         830         831         882         881
         4         831         832         883         882
         4         832         833         884         883
         4         833         834         885         884
         4         834         835         886         885
         4         835         836         887         886
         4         836         837         888         887
         4         837         838         889         888
         4         838         839         890         889
         4         839         840         891         890
         4         840         841         892         891
         4         841         842         893         892
         4         842         843         894         893
         4         843         844         895         894
         4         844         845         896         895
         4         845         846         897         896
         4         846         847         898         897
         4         847         848         899         898
         4         848         849         900         899
         4         849         850         901         900
         4         850         851         902         901
         4         851         852         903         902
         4         852         853         904         903
         4         853         854         905         904
         4         854         855         906         905
         4         855         856         907         906
         4         856         857         908         907
         4         857         858         909         908
         4         858         859         910         909
         4         859         860         911         910
         4         860         861         912         911
         4         861         862         913         912
         4         862         863         914         913
         4         863         864         915         914
         4         864         865         916         915
         4         865         866         917         916
         4         867         868         919         918
         4         868         869         920         919
         4         869         870         921         920
         4         870         871         922         921
         4         871         872         923         922
         4         872         873         924         923
         4         873         874         925         924
         4         874         875         926         925
         4         875         876         927         926
         4         876         877         928         927
         4         877         878         929         928
         4         878         879         930         929
         4         879         880         931         930
         4         880         881         932         931
         4         881         882         933         932
         4         882         883         934         933
         4         883         884         935         934
         4         884         885         936         935
         4         885         886         937         936
         4         886         887         938         937
         4         887         888         939         938
         4         888         889         940         939
         4         889         890         941         940
         4         890         891         942         941
         4         891         892         943         942
         4         892         893         944         943
         4         893         894         945         944
         4         894         895         946         945
         4         895         896         947         946
         4         896         897         948         947
         4         897         898         949         948
         4         898         899         950         949
         4         899         900         951         950
         4         900         901         952         951
         4         901         902         953         952
         4         902         903         954         953
         4         903         904         955         954
         4         904         905         956         955
         4         905         906         957         956
         4         906         907         958         957
         4         907         908         959         958
         4         908         909         960         959
         4         909         910         961         960
         4         910         911         962         961
         4         911         912         963         962
         4         912         913         964         963
         4         913         914         965         964
         4         914         915         966         965
         4         915         916         967         966
         4         916         917         968         967
         4         918         919         970         969
         4         919         920         971         970
         4         920         921         972         971
         4         921         922         973         972
         4         922         923         974         973
         4         923         924         975         974
         4         924         925         976         975
         4         925         926         977         976
         4         926         927         978         977
         4         927         928         979         978
         4         928         929         980         979
         4         929         930         981         980
         4         930         931         982         981
         4         931         932         983         982
         4         932         933         984         983
         4         933         934         985         984
         4         934         935         986         985
         4         935         936         987         986
         4         936         937         988         987
         4         937         938         989         988
         4         938         939         990         989
         4         939         940         991         990
         4         940         941         992         991
         4         941         942         993         992
         4         942         943         994         993
         4         943         944         995         994
         4         944         945         996         995
         4         945         946         997         996
         4         946         947         998         997
         4         947         948         999         998
         4         948         949        1000         999
         4         949         950        1001        1000
         4         950         951        1002        1001
         4         951         952        1003        1002
         4         952         953        1004        1003
         4         953         954        1005        1004
         4         954         955        1006        1005
         4         955         956        1007        1006
         4         956         957        1008        1007
         4         957         958        1009        1008
         4         958         959        1010        1009
         4         959         960        1011        1010
         4         960         961        1012        1011
         4         961         962        1013        1012
         4         962         963        1014        1013
         4         963         964        1015        1014
         4         964         965        1016        1015
         4         965         966        1017        1016
         4         966         967        1018        1017
         4         967         968        1019        1018
         4         969         970        1021        1020
         4         970         971        1022        1021
         4         971         972        1023        1022
         4         972         973        1024        1023
         4         973         974        1025        1024
         4         974         975        1026        1025
         4         975         976        1027        1026
         4         976         977        1028        1027
         4         977         978        1029        1028
         4         978         979        1030        1029
         4         979         980        1031        1030
         4         980         981        1032        1031
         4         981         982        1033        1032
         4         982         983        1034        1033
         4         983         984        1035        1034
         4         984         985        1036        1035
         4         985         986        1037        1036
         4         986         987        1038        1037
         4         987         988        1039        1038
         4         988         989        1040        1039
         4         989         990        1041        1040
         4         990         991        1042        1041
         4         991         992        1043        1042
         4         992         993        1044        1043
         4         993         994        1045        1044
         4         994         995        1046        1045
         4         995         996        1047        1046
         4         996         997        1048        1047
         4         997         998        1049        1048
         4         998         999        1050        1049
         4         999        1000        1051        1050
         4        1000        1001        1052        1051
         4        1001        1002        1053        1052
         4        1002        1003        1054        1053
         4        1003        1004        1055        1054
         4        1004        1005        1056        1055
         4        1005        1006        1057        1056
         4        1006        1007        1058        1057
         4        1007        1008        1059        1058
         4        1008        1009        1060        1059
         4        1009        1010        1061        1060
         4        1010        1011        1062        1061
         4        1011        1012        1063        1062
         4        1012        1013        1064        1063
         4        1013        1014        1065        1064
         4        1014        1015        1066        1065
         4        1015        1016        1067        1066
         4        1016        1017        1068        1067
         4        1017        1018        1069        1068
         4        1018        1019        1070        1069
         4        1020        1021        1072        1071
         4        1021        1022        1073        1072
         4        1022        1023        1074        1073
         4        1023        1024        1075        1074
         4        1024        1025        1076        1075
         4        1025        1026        1077        1076
         4        1026        1027        1078        1077
         4        1027        1028        1079        1078
         4        1028        1029        1080        1079
         4        1029        1030        1081        1080
         4        1030        1031        1082        1081
         4        1031        1032        1083        1082
         4        1032        1033        1084        1083
         4        1033        1034        1085        1084
         4        1034        1035        1086        1085
         4        1035        1036        1087        1086
         4        1036        1037        1088        1087
         4        1037        1038        1089        1088
         4        1038        1039        1090        1089
         4        1039        1040        1091        1090
         4        1040        1041        1092        1091
         4        1041        1042        1093        1092
         4        1042        1043        1094        1093
         4        1043        1044        1095        1094
         4        1044        1045        1096        1095
         4        1045        1046        1097        1096
         4        1046        1047        1098        1097
         4        1047        1048        1099        1098
         4        1048        1049        1100        1099
         4        1049        1050        1101        1100
         4        1050        1051        1102        1101
         4        1051        1052        1103        1102
         4        1052        1053        1104        1103
         4        1053        1054        1105        1104
         4        1054        1055        1106        1105
         4        1055        1056        1107        1106
         4        1056        1057        1108        1107
         4        1057        1058        1109        1108
         4        1058        1059        1110        1109
         4        1059        1060        1111        1110
         4        1060        1061        1112        1111
         4        1061        1062        1113        1112
         4        1062        1063        1114        1113
         4        1063        1064        1115        1114
         4        1064        1065        1116        1115
         4        1065        1066        1117        1116
         4        1066        1067        1118        1117
         4        1067        1068        1119        1118
         4        1068        1069        1120        1119
         4        1069        1070        1121        1120
         4        1071        1072        1123        1122
         4        1072        1073        1124        1123
         4        1073        1074        1125        1124
         4        1074        1075        1126        1125
         4        1075        1076        1127        1126
         4        1076        1077        1128        1127
         4        1077        1078        1129        1128
         4        1078        1079        1130        1129
         4        1079        1080        1131        1130
         4        1080        1081        1132        1131
         4        1081        1082        1133        1132
         4        1082        1083        1134        1133
         4        1083        1084        1135        1134
         4        1084        1085        1136        1135
         4        1085        1086        1137        1136
         4        1086        1087        1138        1137
         4        1087        1088        1139        1138
         4        1088        1089        1140        1139
         4        1089        1090        1141        1140
         4        1090        1091        1142        1141
         4        1091        1092        1143        1142
         4        1092        1093        1144        1143
         4        1093        1094        1145        1144
         4        1094        1095        1146        1145
         4        1095        1096        1147        1146
         4        1096        1097        1148        1147
         4        1097        1098        1149        1148
         4        1098        1099        1150        1149
         4        1099        1100        1151        1150
         4        1100        1101        1152        1151
         4        1101        1102        1153        1152
         4        1102        1103        1154        1153
         4        1103        1104        1155        1154
         4        1104        1105        1156        1155
         4        1105        1106        1157        1156
         4        1106        1107        1158        1157
         4        1107        1108        1159        1158
         4        1108        1109        1160        1159
         4        1109        1110        1161        1160
         4        1110        1111        1162        1161
         4        1111        1112        1163        1162
         4        1112        1113        1164        1163
         4        1113        1114        1165        1164
         4        1114        1115        1166        1165
         4        1115        1116        1167        1166
         4        1116        1117        1168        1167
         4        1117        1118        1169        1168
         4        1118        1119        1170        1169
         4        1119        1120        1171        1170
         4        1120        1121        1172        1171
         4        1122        1123        1174        1173
         4        1123        1124        1175        1174
         4        1124        1125        1176        1175
         4        1125        1126        1177        1176
         4        1126        1127        1178        1177
         4        1127        1128        1179        1178
         4        1128        1129        1180        1179
         4        1129        1130        1181        1180
         4        1130        1131        1182        1181
         4        1131        1132        1183        1182
         4        1132        1133        1184        1183
         4        1133        1134        1185        1184
         4        1134        1135        1186        1185
         4        1135        1136        1187        1186
         4        1136        1137        1188        1187
         4        1137        1138        1189        1188
         4        1138        1139        1190        1189
         4        1139        1140        1191        1190
         4        1140        1141        1192        1191
         4        1141        1142        1193        1192
         4        1142        1143        1194        1193
         4        1143        1144        1195        1194
         4        1144        1145        1196        1195
         4        1145        1146        1197        1196
         4        1146        1147        1198        1197
         4        1147        1148        1199        1198
         4        1148        1149        1200        1199
         4        1149        1150        1201        1200
         4        1150        1151        1202        1201
         4        1151        1152        1203        1202
         4        1152        1153        1204        1203
         4        1153        1154        1205        1204
         4        1154        1155        1206        1205
         4        1155        1156        1207        1206
         4        1156        1157        1208        1207
         4        1157        1158        1209        1208
         4        1158        1159        1210        1209
         4        1159        1160        1211        1210
         4        1160        1161        1212        1211
         4        1161        1162        1213        1212
         4        1162        1163        1214        1213
         4        1163        1164        1215        1214
         4        1164        1165        1216        1215
         4        1165        1166        1217        1216
         4        1166        1167        1218        1217
         4        1167        1168        1219        1218
         4        1168        1169        1220        1219
         4        1169        1170        1221        1220
         4        1170        1171        1222        1221
         4        1171        1172        1223        1222
         4        1173        1174        1225        1224
         4        1174        1175        1226        1225
         4        1175        1176        1227        1226
         4        1176        1177        1228        1227
         4        1177        1178        1229        1228
         4        1178        1179        1230        1229
         4        1179        1180        1231        1230
         4        1180        1181        1232        1231
         4        1181        1182        1233        1232
         4        1182        1183        1234        1233
         4        1183        1184        1235        1234
         4        1184        1185        1236        1235
         4        1185        1186        1237        1236
         4        1186        1187        1238        1237
         4        1187        1188        1239        1238
         4        1188        1189        1240        1239
         4        1189        1190        1241        1240
         4        1190        1191        1242        1241
         4        1191        1192        1243        1242
         4        1192        1193        1244        1243
         4        1193        1194        1245        1244
         4        1194        1195        1246        1245
         4        1195        1196        1247        1246
         4        1196        1197        1248        1247
         4        1197        1198        1249        1248
         4        1198        1199        1250        1249
         4        1199        1200        1251        1250
         4        1200        1201        1252        1251
         4        1201        1202        1253        1252
         4        1202        1203        1254        1253
         4        1203        1204        1255        1254
         4        1204        1205        1256        1255
         4        1205        1206        1257        1256
         4        1206        1207        1258        1257
         4        1207        1208        1259        1258
         4        1208        1209        1260        1259
         4        1209        1210        1261        1260
         4        1210        1211        1262        1261
         4        1211        1212        1263        1262
         4        1212        1213        1264        1263
         4        1213        1214        1265        1264
         4        1214        1215        1266        1265
         4        1215        1216        1267        1266
         4        1216        1217        1268        1267
         4        1217        1218        1269        1268
         4        1218        1219        1270        1269
         4        1219        1220        1271        1270
         4        1220        1221        1272        1271
         4        1221        1222        1273        1272
         4        1222        1223        1274        1273
         4        1224        1225        1276        1275
         4        1225        1226        1277        1276
         4        1226        1227        1278        1277
         4        1227        1228        1279        1278
         4        1228        1229        1280        1279
         4        1229        1230        1281        1280
         4        1230        1231        1282        1281
         4        1231        1232        1283        1282
         4        1232        1233        1284        1283
         4        1233        1234        1285        1284
         4        1234        1235        1286        1285
         4        1235        1236        1287        1286
         4        1236        1237        1288        1287
         4        1237        1238        1289        1288
         4        1238        1239        1290        1289
         4        1239        1240        1291        1290
         4        1240        1241        1292        1291
         4        1241        1242        1293        1292
         4        1242        1243        1294        1293
         4        1243        1244        1295        1294
         4        1244        1245        1296        1295
         4        1245        1246        1297        1296
         4        1246        1247        1298        1297
         4        1247        1248        1299        1298
         4        1248        1249        1300        1299
         4        1249        1250        1301        1300
         4        1250        1251        1302        1301
         4        1251        1252        1303        1302
         4        1252        1253        1304        1303
         4        1253        1254        1305        1304
         4        1254        1255        1306        1305
         4        1255        1256        1307        1306
         4        1256        1257        1308        1307
         4        1257        1258        1309        1308
         4        1258        1259        1310        1309
         4        1259        1260        1311        1310
         4        1260        1261        1312        1311
         4        1261        1262        1313        1312
         4        1262        1263        1314        1313
         4        1263        1264        1315        1314
         4        1264        1265        1316        1315
         4        1265        1266        1317        1316
         4        1266        1267        1318        1317
         4        1267        1268        1319        1318
         4        1268        1269        1320        1319
         4        1269        1270        1321        1320
         4        1270        1271        1322        1321
         4        1271        1272        1323        1322
         4        1272        1273        1324        1323
         4        1273        1274        1325        1324
         4        1275        1276        1327        1326
         4        1276        1277        1328        1327
         4        1277        1278        1329        1328
         4        1278        1279        1330        1329
         4        1279        1280        1331        1330
         4        1280        1281        1332        1331
         4        1281        1282        1333        1332
         4        1282        1283        1334        1333
         4        1283        1284        1335        1334
         4        1284        1285        1336        1335
         4        1285        1286        1337        1336
         4        1286        1287        1338        1337
         4        1287        1288        1339        1338
         4        1288        1289        1340        1339
         4        1289        1290        1341        1340
         4        1290        1291        1342        1341
         4        1291        1292        1343        1342
         4        1292        1293        1344        1343
         4        1293        1294        1345        1344
         4        1294        1295        1346        1345
         4        1295        1296        1347        1346
         4        1296        1297        1348        1347
         4        1297        1298        1349        1348
         4        1298        1299        1350        1349
         4        1299        1300        1351        1350
         4        1300        1301        1352        1351
         4        1301        1302        1353        1352
         4        1302        1303        1354        1353
         4        1303        1304        1355        1354
         4        1304        1305        1356        1355
         4        1305        1306        1357        1356
         4        1306        1307        1358        1357
         4        1307        1308        1359        1358
         4        1308        1309        1360        1359
         4        1309        1310        1361        1360
         4        1310        1311        1362        1361
         4        1311        1312        1363        1362
         4        1312        1313        1364        1363
         4        1313        1314        1365        1364
         4        1314        1315        1366        1365
         4        1315        1316        1367        1366
         4        1316        1317        1368        1367
         4        1317        1318        1369        1368
         4        1318        1319        1370        1369
         4        1319        1320        1371        1370
         4        1320        1321        1372        1371
         4        1321        1322        1373        1372
         4        1322        1323        1374        1373
         4        1323        1324        1375        1374
         4        1324        1325        1376        1375
         4        1326        1327        1378        1377
         4        1327        1328        1379        1378
         4        1328        1329        1380        1379
         4        1329        1330        1381        1380
         4        1330        1331        1382        1381
         4        1331        1332        1383        1382
         4        1332        1333        1384        1383
         4        1333        1334        1385        1384
         4        1334        1335        1386        1385
         4        1335        1336        1387        1386
         4        1336        1337        1388        1387
         4        1337        1338        1389        1388
         4        1338        1339        1390        1389
         4        1339        1340        1391        1390
         4        1340        1341        1392        1391
         4        1341        1342        1393        1392
         4        1342        1343        1394        1393
         4        1343        1344        1395        1394
         4        1344        1345        1396        1395
         4        1345        1346        1397        1396
         4        1346        1347        1398        1397
         4        1347        1348        1399        1398
         4        1348        1349        1400        1399
         4        1349        1350        1401        1400
         4        1350        1351        1402        1401
         4        1351        1352        1403        1402
         4        1352        1353        1404        1403
         4        1353        1354        1405        1404
         4        1354        1355        1406        1405
         4        1355        1356        1407        1406
         4        1356        1357        1408        1407
         4        1357        1358        1409        1408
         4        1358        1359        1410        1409
         4        1359        1360        1411        1410
         4        1360        1361        1412        1411
         4        1361        1362        1413        1412
         4        1362        1363        1414        1413
         4        1363        1364        1415        1414
         4        1364        1365        1416        1415
         4        1365        1366        1417        1416
         4        1366        1367        1418        1417
         4        1367        1368        1419        1418
         4        1368        1369        1420        1419
         4        1369        1370        1421        1420
         4        1370        1371        1422        1421
         4        1371        1372        1423        1422
         4        1372        1373        1424        1423
         4        1373        1374        1425        1424
         4        1374        1375        1426        1425
         4        1375        1376        1427        1426
         4        1377        1378        1429        1428
         4        1378        1379        1430        1429
         4        1379        1380        1431        1430
         4        1380        1381        1432        1431
         4        1381        1382        1433        1432
         4        1382        1383        1434        1433
         4        1383        1384        1435        1434
         4        1384        1385        1436        1435
         4        1385        1386        1437        1436
         4        1386        1387        1438        1437
         4        1387        1388        1439        1438
         4        1388        1389        1440        1439
         4        1389        1390        1441        1440
         4        1390        1391        1442        1441
         4        1391        1392        1443        1442
         4        1392        1393        1444        1443
         4        1393        1394        1445        1444
         4        1394        1395        1446        1445
         4        1395        1396        1447        1446
         4        1396        1397        1448        1447
         4        1397        1398        1449        1448
         4        1398        1399        1450        1449
         4        1399        1400        1451        1450
         4        1400        1401        1452        1451
         4        1401        1402        1453        1452
         4        1402        1403        1454        1453
         4        1403        1404        1455        1454
         4        1404        1405        1456        1455
         4        1405        1406        1457        1456
         4        1406        1407        1458        1457
         4        1407        1408        1459        1458
         4        1408        1409        1460        1459
         4        1409        1410        1461        1460
         4        1410        1411        1462        1461
         4        1411        1412        1463        1462
         4        1412        1413        1464        1463
         4        1413        1414        1465        1464
         4        1414        1415        1466        1465
         4        1415        1416        1467        1466
         4        1416        1417        1468        1467
         4        1417        1418        1469        1468
         4        1418        1419        1470        1469
         4        1419        1420        1471        1470
         4        1420        1421        1472        1471
         4        1421        1422        1473        1472
         4        1422        1423        1474        1473
         4        1423        1424        1475        1474
         4        1424        1425        1476        1475
         4        1425        1426        1477        1476
         4        1426        1427        1478        1477
         4        1428        1429        1480        1479
         4        1429        1430        1481        1480
         4        1430        1431        1482        1481
         4        1431        1432        1483        1482
         4        1432        1433        1484        1483
         4        1433        1434        1485        1484
         4        1434        1435        1486        1485
         4        1435        1436        1487        1486
         4        1436        1437        1488        1487
         4        1437        1438        1489        1488
         4        1438        1439        1490        1489
         4        1439        1440        1491        1490
         4        1440        1441        1492        1491
         4        1441        1442        1493        1492
         4        1442        1443        1494        1493
         4        1443        1444        1495        1494
         4        1444        1445        1496        1495
         4        1445        1446        1497        1496
         4        1446        1447        1498        1497
         4        1447        1448        1499        1498
         4        1448        1449        1500        1499
         4        1449        1450        1501        1500
         4        1450        1451        1502        1501
         4        1451        1452        1503        1502
         4        1452        1453        1504        1503
         4        1453        1454        1505        1504
         4        1454        1455        1506        1505
         4        1455        1456        1507        1506
         4        1456        1457        1508        1507
         4        1457        1458        1509        1508
         4        1458        1459        1510        1509
         4        1459        1460        1511        1510
         4        1460        1461        1512        1511
         4        1461        1462        1513        1512
         4        1462        1463        1514        1513
         4        1463        1464        1515        1514
         4        1464        1465        1516        1515
         4        1465        1466        1517        1516
         4        1466        1467        1518        1517
         4        1467        1468        1519        1518
         4        1468        1469        1520        1519
         4        1469        1470        1521        1520
         4        1470        1471        1522        1521
         4        1471        1472        1523        1522
         4        1472        1473        1524        1523
         4        1473        1474        1525        1524
         4        1474        1475        1526        1525
         4        1475        1476        1527        1526
         4        1476        1477        1528        1527
         4        1477        1478        1529        1528
         4        1479        1480        1531        1530
         4        1480        1481        1532        1531
         4        1481        1482        1533        1532
         4        1482        1483        1534        1533
         4        1483        1484        1535        1534
         4        1484        1485        1536        1535
         4        1485        1486        1537        1536
         4        1486        1487        1538        1537
         4        1487        1488        1539        1538
         4        1488        1489        1540        1539
         4        1489        1490        1541        1540
         4        1490        1491        1542        1541
         4        1491        1492        1543        1542
         4        1492        1493        1544        1543
         4        1493        1494        1545        1544
         4        1494        1495        1546        1545
         4        1495        1496        1547        1546
         4        1496        1497        1548        1547
         4        1497        1498        1549        1548
         4        1498        1499        1550        1549
         4        1499        1500        1551        1550
         4        1500        1501        1552        1551
         4        1501        1502        1553        1552
         4        1502        1503        1554        1553
         4        1503        1504        1555        1554
         4        1504        1505        1556        1555
         4        1505        1506        1557        1556
         4        1506        1507        1558        1557
         4        1507        1508        1559        1558
         4        1508        1509        1560        1559
         4        1509        1510        1561        1560
         4        1510        1511        1562        1561
         4        1511        1512        1563        1562
         4        1512        1513        1564        1563
         4        1513        1514        1565        1564
         4        1514        1515        1566        1565
         4        1515        1516        1567        1566
         4        1516        1517        1568        1567
         4        1517        1518        1569        1568
         4        1518        1519        1570        1569
         4        1519        1520        1571        1570
         4        1520        1521        1572        1571
         4        1521        1522        1573        1572
         4        1522        1523        1574        1573
         4        1523        1524        1575        1574
         4        1524        1525        1576        1575
         4        1525        1526        1577        1576
         4        1526        1527        1578        1577
         4        1527        1528        1579        1578
         4        1528        1529        1580        1579
         4        1530        1531        1582        1581
         4        1531        1532        1583        1582
         4        1532        1533        1584        1583
         4        1533        1534        1585        1584
         4        1534        1535        1586        1585
         4        1535        1536        1587        1586
         4        1536        1537        1588        1587
         4        1537        1538        1589        1588
         4        1538        1539        1590        1589
         4        1539        1540        1591        1590
         4        1540        1541        1592        1591
         4        1541        1542        1593        1592
         4        1542        1543        1594        1593
         4        1543        1544        1595        1594
         4        1544        1545        1596        1595
         4        1545        1546        1597        1596
         4        1546        1547        1598        1597
         4        1547        1548        1599        1598
         4        1548        1549        1600        1599
         4        1549        1550        1601        1600
         4        1550        1551        1602        1601
         4        1551        1552        1603        1602
         4        1552        1553        1604        1603
         4        1553        1554        1605        1604
         4        1554        1555        1606        1605
         4        1555        1556        1607        1606
         4        1556        1557        1608        1607
         4        1557        1558        1609        1608
         4        1558        1559        1610        1609
         4        1559        1560        1611        1610
         4        1560        1561        1612        1611
         4        1561        1562        1613        1612
         4        1562        1563        1614        1613
         4        1563        1564        1615        1614
         4        1564        1565        1616        1615
         4        1565        1566        1617        1616
         4        1566        1567        1618        1617
         4        1567        1568        1619        1618
         4        1568        1569        1620        1619
         4        1569        1570        1621        1620
         4        1570        1571        1622        1621
         4        1571        1572        1623        1622
         4        1572        1573        1624        1623
         4        1573        1574        1625        1624
         4        1574        1575        1626        1625
         4        1575        1576        1627        1626
         4        1576        1577        1628        1627
         4        1577        1578        1629        1628
         4        1578        1579        1630        1629
         4        1579        1580        1631        1630
         4        1581        1582        1633        1632
         4        1582        1583        1634        1633
         4        1583        1584        1635        1634
         4        1584        1585        1636        1635
         4        1585        1586        1637        1636
         4        1586        1587        1638        1637
         4        1587        1588        1639        1638
         4        1588        1589        1640        1639
         4        1589        1590        1641        1640
         4        1590        1591        1642        1641
         4        1591        1592        1643        1642
         4        1592        1593        1644        1643
         4        1593        1594        1645        1644
         4        1594        1595        1646        1645
         4        1595        1596        1647        1646
         4        1596        1597        1648        1647
         4        1597        1598        1649        1648
         4        1598        1599        1650        1649
         4        1599        1600        1651        1650
         4        1600        1601        1652        1651
         4        1601        1602        1653        1652
         4        1602        1603        1654        1653
         4        1603        1604        1655        1654
         4        1604        1605        1656        1655
         4        1605        1606        1657        1656
         4        1606        1607        1658        1657
         4        1607        1608        1659        1658
         4        1608        1609        1660        1659
         4        1609        1610        1661        1660
         4        1610        1611        1662        1661
         4        1611        1612        1663        1662
         4        1612        1613        1664        1663
         4        1613        1614        1665        1664
         4        1614        1615        1666        1665
         4        1615        1616        1667        1666
         4        1616        1617        1668        1667
         4        1617        1618        1669        1668
         4        1618        1619        1670        1669
         4        1619        1620        1671        1670
         4        1620        1621        1672        1671
         4        1621        1622        1673        1672
         4        1622        1623        1674        1673
         4        1623        1624        1675        1674
         4        1624        1625        1676        1675
         4        1625        1626        1677        1676
         4        1626        1627        1678        1677
         4        1627        1628        1679        1678
         4        1628        1629        1680        1679
         4        1629        1630        1681        1680
         4        1630        1631        1682        1681
         4        1632        1633        1684        1683
         4        1633        1634        1685        1684
         4        1634        1635        1686        1685
         4        1635        1636        1687        1686
         4        1636        1637        1688        1687
         4        1637        1638        1689        1688
         4        1638        1639        1690        1689
         4        1639        1640        1691        1690
         4        1640        1641        1692        1691
         4        1641        1642        1693        1692
         4        1642        1643        1694        1693
         4        1643        1644        1695        1694
         4        1644        1645        1696        1695
         4        1645        1646        1697        1696
         4        1646        1647        1698        1697
         4        1647        1648        1699        1698
         4        1648        1649        1700        1699
         4        1649        1650        1701        1700
         4        1650        1651        1702        1701
         4        1651        1652        1703        1702
         4        1652        1653        1704        1703
         4        1653        1654        1705        1704
         4        1654        1655        1706        1705
         4        1655        1656        1707        1706
         4        1656        1657        1708        1707
         4        1657        1658        1709        1708
         4        1658        1659        1710        1709
         4        1659        1660        1711        1710
         4        1660        1661        1712        1711
         4        1661        1662        1713        1712
         4        1662        1663        1714        1713
         4        1663        1664        1715        1714
         4        1664        1665        1716        1715
         4        1665        1666        1717        1716
         4        1666        1667        1718        1717
         4        1667        1668        1719        1718
         4        1668        1669        1720        1719
         4        1669        1670        1721        1720
         4        1670        1671        1722        1721
         4        1671        1672        1723        1722
         4        1672        1673        1724        1723
         4        1673        1674        1725        1724
         4        1674        1675        1726        1725
         4        1675        1676        1727        1726
         4        1676        1677        1728        1727
         4        1677        1678        1729        1728
         4        1678        1679        1730        1729
         4        1679        1680        1731        1730
         4        1680        1681        1732        1731
         4        1681        1682        1733        1732
         4        1683        1684        1735        1734
         4        1684        1685        1736        1735
         4        1685        1686        1737        1736
         4        1686        1687        1738        1737
         4        1687        1688        1739        1738
         4        1688        1689        1740        1739
         4        1689        1690        1741        1740
         4        1690        1691        1742        1741
         4        1691        1692        1743        1742
         4        1692        1693        1744        1743
         4        1693        1694        1745        1744
         4        1694        1695        1746        1745
         4        1695        1696        1747        1746
         4        1696        1697        1748        1747
         4        1697        1698        1749        1748
         4        1698        1699        1750        1749
         4        1699        1700        1751        1750
         4        1700        1701        1752        1751
         4        1701        1702        1753        1752
         4        1702        1703        1754        1753
         4        1703        1704        1755        1754
         4        1704        1705        1756        1755
         4        1705        1706        1757        1756
         4        1706        1707        1758        1757
         4        1707        1708        1759        1758
         4        1708        1709        1760        1759
         4        1709        1710        1761        1760
         4        1710        1711        1762        1761
         4        1711        1712        1763        1762
         4        1712        1713        1764        1763
         4        1713        1714        1765        1764
         4        1714        1715        1766        1765
         4        1715        1716        1767        1766
         4        1716        1717        1768        1767
         4        1717        1718        1769        1768
         4        1718        1719        1770        1769
         4        1719        1720        1771        1770
         4        1720        1721        1772        1771
         4        1721        1722        1773        1772
         4        1722        1723        1774        1773
         4        1723        1724        1775        1774
         4        1724        1725        1776        1775
         4        1725        1726        1777        1776
         4        1726        1727        1778        1777
         4        1727        1728        1779        1778
         4        1728        1729        1780        1779
         4        1729        1730        1781        1780
         4        1730        1731        1782        1781
         4        1731        1732        1783        1782
         4        1732        1733        1784        1783
         4        1734        1735        1786        1785
         4        1735        1736        1787        1786
         4        1736        1737        1788        1787
         4        1737        1738        1789        1788
         4        1738        1739        1790        1789
         4        1739        1740        1791        1790
         4        1740        1741        1792        1791
         4        1741        1742        1793        1792
         4        1742        1743        1794        1793
         4        1743        1744        1795        1794
         4        1744        1745        1796        1795
         4        1745        1746        1797        1796
         4        1746        1747        1798        1797
         4        1747        1748        1799        1798
         4        1748        1749        1800        1799
         4        1749        1750        1801        1800
         4        1750        1751        1802        1801
         4        1751        1752        1803        1802
         4        1752        1753        1804        1803
         4        1753        1754        1805        1804
         4        1754        1755        1806        1805
         4        1755        1756        1807        1806
         4        1756        1757        1808        1807
         4        1757        1758        1809        1808
         4        1758        1759        1810        1809
         4        1759        1760        1811        1810
         4        1760        1761        1812        1811
         4        1761        1762        1813        1812
         4        1762        1763        1814        1813
         4        1763        1764        1815        1814
         4        1764        1765        1816        1815
         4        1765        1766        1817        1816
         4        1766        1767        1818        1817
         4        1767        1768        1819        1818
         4        1768        1769        1820        1819
         4        1769        1770        1821        1820
         4        1770        1771        1822        1821
         4        1771        1772        1823        1822
         4        1772        1773        1824        1823
         4        1773        1774        1825        1824
         4        1774        1775        1826        1825
         4        1775        1776        1827        1826
         4        1776        1777        1828        1827
         4        1777        1778        1829        1828
         4        1778        1779        1830        1829
         4        1779        1780        1831        1830
         4        1780        1781        1832        1831
         4        1781        1782        1833        1832
         4        1782        1783        1834        1833
         4        1783        1784        1835        1834
         4        1785        1786        1837        1836
         4        1786        1787        1838        1837
         4        1787        1788        1839        1838
         4        1788        1789        1840        1839
         4        1789        1790        1841        1840
         4        1790        1791        1842        1841
         4        1791        1792        1843        1842
         4        1792        1793        1844        1843
         4        1793        1794        1845        1844
         4        1794        1795        1846        1845
         4        1795        1796        1847        1846
         4        1796        1797        1848        1847
         4        1797        1798        1849        1848
         4        1798        1799        1850        1849
         4        1799        1800        1851        1850
         4        1800        1801        1852        1851
         4        1801        1802        1853        1852
         4        1802        1803        1854        1853
         4        1803        1804        1855        1854
         4        1804        1805        1856        1855
         4        1805        1806        1857        1856
         4        1806        1807        1858        1857
         4        1807        1808        1859        1858
         4        1808        1809        1860        1859
         4        1809        1810        1861        1860
         4        1810        1811        1862        1861
         4        1811        1812        1863        1862
         4        1812        1813        1864        1863
         4        1813        1814        1865        1864
         4        1814        1815        1866        1865
         4        1815        1816        1867        1866
         4        1816        1817        1868        1867
         4        1817        1818        1869        1868
         4        1818        1819        1870        1869
         4        1819        1820        1871        1870
         4        1820        1821        1872        1871
         4        1821        1822        1873        1872
         4        1822        1823        1874        1873
         4        1823        1824        1875        1874
         4        1824        1825        1876        1875
         4        1825        1826        1877        1876
         4        1826        1827        1878        1877
         4        1827        1828        1879        1878
         4        1828        1829        1880        1879
         4        1829        1830        1881        1880
         4        1830        1831        1882        1881
         4        1831        1832        1883        1882
         4        1832        1833        1884        1883
         4        1833        1834        1885        1884
         4        1834        1835        1886        1885
         4        1836        1837        1888        1887
         4        1837        1838        1889        1888
         4        1838        1839        1890        1889
         4        1839        1840        1891        1890
         4        1840        1841        1892        1891
         4        1841        1842        1893        1892
         4        1842        1843        1894        1893
         4        1843        1844        1895        1894
         4        1844        1845        1896        1895
         4        1845        1846        1897        1896
         4        1846        1847        1898        1897
         4        1847        1848        1899        1898
         4        1848        1849        1900        1899
         4        1849        1850        1901        1900
         4        1850        1851        1902        1901
         4        1851        1852        1903        1902
         4        1852        1853        1904        1903
         4        1853        1854        1905        1904
         4        1854        1855        1906        1905
         4        1855        1856        1907        1906
         4        1856        1857        1908        1907
         4        1857        1858        1909        1908
         4        1858        1859        1910        1909
         4        1859        1860        1911        1910
         4        1860        1861        1912        1911
         4        1861        1862        1913        1912
         4        1862        1863        1914        1913
         4        1863        1864        1915        1914
         4        1864        1865        1916        1915
         4        1865        1866        1917        1916
         4        1866        1867        1918        1917
         4        1867        1868        1919        1918
         4        1868        1869        1920        1919
         4        1869        1870        1921        1920
         4        1870        1871        1922        1921
         4        1871        1872        1923        1922
         4        1872        1873        1924        1923
         4        1873        1874        1925        1924
         4        1874        1875        1926        1925
         4        1875        1876        1927        1926
         4        1876        1877        1928        1927
         4        1877        1878        1929        1928
         4        1878        1879        1930        1929
         4        1879        1880        1931        1930
         4        1880        1881        1932        1931
         4        1881        1882        1933        1932
         4        1882        1883        1934        1933
         4        1883        1884        1935        1934
         4        1884        1885        1936        1935
         4        1885        1886        1937        1936
         4        1887        1888        1939        1938
         4        1888        1889        1940        1939
         4        1889        1890        1941        1940
         4        1890        1891        1942        1941
         4        1891        1892        1943        1942
         4        1892        1893        1944        1943
         4        1893        1894        1945        1944
         4        1894        1895        1946        1945
         4        1895        1896        1947        1946
         4        1896        1897        1948        1947
         4        1897        1898        1949        1948
         4        1898        1899        1950        1949
         4        1899        1900        1951        1950
         4        1900        1901        1952        1951
         4        1901        1902        1953        1952
         4        1902        1903        1954        1953
         4        1903        1904        1955        1954
         4        1904        1905        1956        1955
         4        1905        1906        1957        1956
         4        1906        1907        1958        1957
         4        1907        1908        1959        1958
         4        1908        1909        1960        1959
         4        1909        1910        1961        1960
         4        1910        1911        1962        1961
         4        1911        1912        1963        1962
         4        1912        1913        1964        1963
         4        1913        1914        1965        1964
         4        1914        1915        1966        1965
         4        1915        1916        1967        1966
         4        1916        1917        1968        1967
         4        1917        1918        1969        1968
         4        1918        1919        1970        1969
         4        1919        1920        1971        1970
         4        1920        1921        1972        1971
         4        1921        1922        1973        1972
         4        1922        1923        1974        1973
         4        1923        1924        1975        1974
         4        1924        1925        1976        1975
         4        1925        1926        1977        1976
         4        1926        1927        1978        1977
         4        1927        1928        1979        1978
         4        1928        1929        1980        1979
         4        1929        1930        1981        1980
         4        1930        1931        1982        1981
         4        1931        1932        1983        1982
         4        1932        1933        1984        1983
         4        1933        1934        1985        1984
         4        1934        1935        1986        1985
         4        1935        1936        1987        1986
         4        1936        1937        1988        1987
         4        1938        1939        1990        1989
         4        1939        1940        1991        1990
         4        1940        1941        1992        1991
         4        1941        1942        1993        1992
         4        1942        1943        1994        1993
         4        1943        1944        1995        1994
         4        1944        1945        1996        1995
         4        1945        1946        1997        1996
         4        1946        1947        1998        1997
         4        1947        1948        1999        1998
         4        1948        1949        2000        1999
         4        1949        1950        2001        2000
         4        1950        1951        2002        2001
         4        1951        1952        2003        2002
         4        1952        1953        2004        2003
         4        1953        1954        2005        2004
         4        1954        1955        2006        2005
         4        1955        1956        2007        2006
         4        1956        1957        2008        2007
         4        1957        1958        2009        2008
         4        1958        1959        2010        2009
         4        1959        1960        2011        2010
         4        1960        1961        2012        2011
         4        1961        1962        2013        2012
         4        1962        1963        2014        2013
         4        1963        1964        2015        2014
         4        1964        1965        2016        2015
         4        1965        1966        2017        2016
         4        1966        1967        2018        2017
         4        1967        1968        2019        2018
         4        1968        1969        2020        2019
         4        1969        1970        2021        2020
         4        1970        1971        2022        2021
         4        1971        1972        2023        2022
         4        1972        1973        2024        2023
         4        1973        1974        2025        2024
         4        1974        1975        2026        2025
         4        1975        1976        2027        2026
         4        1976        1977        2028        2027
         4        1977        1978        2029        2028
         4        1978        1979        2030        2029
         4        1979        1980        2031        2030
         4        1980        1981        2032        2031
         4        1981        1982        2033        2032
         4        1982        1983        2034        2033
         4        1983        1984        2035        2034
         4        1984        1985        2036        2035
         4        1985        1986        2037        2036
         4        1986        1987        2038        2037
         4        1987        1988        2039        2038
         4        1989        1990        2041        2040
         4        1990        1991        2042        2041
         4        1991        1992        2043        2042
         4        1992        1993        2044        2043
         4        1993        1994        2045        2044
         4        1994        1995        2046        2045
         4        1995        1996        2047        2046
         4        1996        1997        2048        2047
         4        1997        1998        2049        2048
         4        1998        1999        2050        2049
         4        1999        2000        2051        2050
         4        2000        2001        2052        2051
         4        2001        2002        2053        2052
         4        2002        2003        2054        2053
         4        2003        2004        2055        2054
         4        2004        2005        2056        2055
         4        2005        2006        2057        2056
         4        2006        2007        2058        2057
         4        2007        2008        2059        2058
         4        2008        2009        2060        2059
         4        2009        2010        2061        2060
         4        2010        2011        2062        2061
         4        2011        2012        2063        2062
         4        2012        2013        2064        2063
         4        2013        2014        2065        2064
         4        2014        2015        2066        2065
         4        2015        2016        2067        2066
         4        2016        2017        2068        2067
         4        2017        2018        2069        2068
         4        2018        2019        2070        2069
         4        2019        2020        2071        2070
         4        2020        2021        2072        2071
         4        2021        2022        2073        2072
         4        2022        2023        2074        2073
         4        2023        2024        2075        2074
         4        2024        2025        2076        2075
         4        2025        2026        2077        2076
         4        2026        2027        2078        2077
         4        2027        2028        2079        2078
         4        2028        2029        2080        2079
         4        2029        2030        2081        2080
         4        2030        2031        2082        2081
         4        2031        2032        2083        2082
         4        2032        2033        2084        2083
         4        2033        2034        2085        2084
         4        2034        2035        2086        2085
         4        2035        2036        2087        2086
         4        2036        2037        2088        2087
         4        2037        2038        2089        2088
         4        2038        2039        2090        2089
         4        2040        2041        2092        2091
         4        2041        2042        2093        2092
         4        2042        2043        2094        2093
         4        2043        2044        2095        2094
         4        2044        2045        2096        2095
         4        2045        2046        2097        2096
         4        2046        2047        2098        2097
         4        2047        2048        2099        2098
         4        2048        2049        2100        2099
         4        2049        2050        2101        2100
         4        2050        2051        2102        2101
         4        2051        2052        2103        2102
         4        2052        2053        2104        2103
         4        2053        2054        2105        2104
         4        2054        2055        2106        2105
         4        2055        2056        2107        2106
         4        2056        2057        2108        2107
         4        2057        2058        2109        2108
         4        2058        2059        2110        2109
         4        2059        2060        2111        2110
         4        2060        2061        2112        2111
         4        2061        2062        2113        2112
         4        2062        2063        2114        2113
         4        2063        2064        2115        2114
         4        2064        2065        2116        2115
         4        2065        2066        2117        2116
         4        2066        2067        2118        2117
         4        2067        2068        2119        2118
         4        2068        2069        2120        2119
         4        2069        2070        2121        2120
         4        2070        2071        2122        2121
         4        2071        2072        2123        2122
         4        2072        2073        2124        2123
         4        2073        2074        2125        2124
         4        2074        2075        2126        2125
         4        2075        2076        2127        2126
         4        2076        2077        2128        2127
         4        2077        2078        2129        2128
         4        2078        2079        2130        2129
         4        2079        2080        2131        2130
         4        2080        2081        2132        2131
         4        2081        2082        2133        2132
         4        2082        2083        2134        2133
         4        2083        2084        2135        2134
         4        2084        2085        2136        2135
         4        2085        2086        2137        2136
         4        2086        2087        2138        2137
         4        2087        2088        2139        2138
         4        2088        2089        2140        2139
         4        2089        2090        2141        2140
         4        2091        2092        2143        2142
         4        2092        2093        2144        2143
         4        2093        2094        2145        2144
         4        2094        2095        2146        2145
         4        2095        2096        2147        2146
         4        2096        2097        2148        2147
         4        2097        2098        2149        2148
         4        2098        2099        2150        2149
         4        2099        2100        2151        2150
         4        2100        2101        2152        2151
         4        2101        2102        2153        2152
         4        2102        2103        2154        2153
         4        2103        2104        2155        2154
         4        2104        2105        2156        2155
         4        2105        2106        2157        2156
         4        2106        2107        2158        2157
         4        2107        2108        2159        2158
         4        2108        2109        2160        2159
         4        2109        2110        2161        2160
         4        2110        2111        2162        2161
         4        2111        2112        2163        2162
         4        2112        2113        2164        2163
         4        2113        2114        2165        2164
         4        2114        2115        2166        2165
         4        2115        2116        2167        2166
         4        2116        2117        2168        2167
         4        2117        2118        2169        2168
         4        2118        2119        2170        2169
         4        2119        2120        2171        2170
         4        2120        2121        2172        2171
         4        2121        2122        2173        2172
         4        2122        2123        2174        2173
         4        2123        2124        2175        2174
         4        2124        2125        2176        2175
         4        2125        2126        2177        2176
         4        2126        2127        2178        2177
         4        2127        2128        2179        2178
         4        2128        2129        2180        2179
         4        2129        2130        2181        2180
         4        2130        2131        2182        2181
         4        2131        2132        2183        2182
         4        2132        2133        2184        2183
         4        2133        2134        2185        2184
         4        2134        2135        2186        2185
         4        2135        2136        2187        2186
         4        2136        2137        2188        2187
         4        2137        2138        2189        2188
         4        2138        2139        2190        2189
         4        2139        2140        2191        2190
         4        2140        2141        2192        2191
         4        2142        2143        2194        2193
         4        2143        2144        2195        2194
         4        2144        2145        2196        2195
         4        2145        2146        2197        2196
         4        2146        2147        2198        2197
         4        2147        2148        2199        2198
         4        2148        2149        2200        2199
         4        2149        2150        2201        2200
         4        2150        2151        2202        2201
         4        2151        2152        2203        2202
         4        2152        2153        2204        2203
         4        2153        2154        2205        2204
         4        2154        2155        2206        2205
         4        2155        2156        2207        2206
         4        2156        2157        2208        2207
         4        2157        2158        2209        2208
         4        2158        2159        2210        2209
         4        2159        2160        2211        2210
         4        2160        2161        2212        2211
         4        2161        2162        2213        2212
         4        2162        2163        2214        2213
         4        2163        2164        2215        2214
         4        2164        2165        2216        2215
         4        2165        2166        2217        2216
         4        2166        2167        2218        2217
         4        2167        2168        2219        2218
         4        2168        2169        2220        2219
         4        2169        2170        2221        2220
         4        2170        2171        2222        2221
         4        2171        2172        2223        2222
         4        2172        2173        2224        2223
         4        2173        2174        2225        2224
         4        2174        2175        2226        2225
         4        2175        2176        2227        2226
         4        2176        2177        2228        2227
         4        2177        2178        2229        2228
         4        2178        2179        2230        2229
         4        2179        2180        2231        2230
         4        2180        2181        2232        2231
         4        2181        2182        2233        2232
         4        2182        2183        2234        2233
         4        2183        2184        2235        2234
         4        2184        2185        2236        2235
         4        2185        2186        2237        2236
         4        2186        2187        2238        2237
         4        2187        2188        2239        2238
         4        2188        2189        2240        2239
         4        2189        2190        2241        2240
         4        2190        2191        2242        2241
         4        2191        2192        2243        2242
         4        2193        2194        2245        2244
         4        2194        2195        2246        2245
         4        2195        2196        2247        2246
         4        2196        2197        2248        2247
         4        2197        2198        2249        2248
         4        2198        2199        2250        2249
         4        2199        2200        2251        2250
         4        2200        2201        2252        2251
         4        2201        2202        2253        2252
         4        2202        2203        2254        2253
         4        2203        2204        2255        2254
         4        2204        2205        2256        2255
         4        2205        2206        2257        2256
         4        2206        2207        2258        2257
         4        2207        2208        2259        2258
         4        2208        2209        2260        2259
         4        2209        2210        2261        2260
         4        2210        2211        2262        2261
         4        2211        2212        2263        2262
         4        2212        2213        2264        2263
         4        2213        2214        2265        2264
         4        2214        2215        2266        2265
         4        2215        2216        2267        2266
         4        2216        2217        2268        2267
         4        2217        2218        2269        2268
         4        2218        2219        2270        2269
         4        2219        2220        2271        2270
         4        2220        2221        2272        2271
         4        2221        2222        2273        2272
         4        2222        2223        2274        2273
         4        2223        2224        2275        2274
         4        2224        2225        2276        2275
         4        2225        2226        2277        2276
         4        2226        2227        2278        2277
         4        2227        2228        2279        2278
         4        2228        2229        2280        2279
         4        2229        2230        2281        2280
         4        2230        2231        2282        2281
         4        2231        2232        2283        2282
         4        2232        2233        2284        2283
         4        2233        2234        2285        2284
         4        2234        2235        2286        2285
         4        2235        2236        2287        2286
         4        2236        2237        2288        2287
         4        2237        2238        2289        2288
         4        2238        2239        2290        2289
         4        2239        2240        2291        2290
         4        2240        2241        2292        2291
         4        2241        2242        2293        2292
         4        2242        2243        2294        2293
         4        2244        2245        2296        2295
         4        2245        2246        2297        2296
         4        2246        2247        2298        2297
         4        2247        2248        2299        2298
         4        2248        2249        2300        2299
         4        2249        2250        2301        2300
         4        2250        2251        2302        2301
         4        2251        2252        2303        2302
         4        2252        2253        2304        2303
         4        2253        2254        2305        2304
         4        2254        2255        2306        2305
         4        2255        2256        2307        2306
         4        2256        2257        2308        2307
         4        2257        2258        2309        2308
         4        2258        2259        2310        2309
         4        2259        2260        2311        2310
         4        2260        2261        2312        2311
         4        2261        2262        2313        2312
         4        2262        2263        2314        2313
         4        2263        2264        2315        2314
         4        2264        2265        2316        2315
         4        2265        2266        2317        2316
         4        2266        2267        2318        2317
         4        2267        2268        2319        2318
         4        2268        2269        2320        2319
         4        2269        2270        2321        2320
         4        2270        2271        2322        2321
         4        2271        2272        2323        2322
         4        2272        2273        2324        2323
         4        2273        2274        2325        2324
         4        2274        2275        2326        2325
         4        2275        2276        2327        2326
         4        2276        2277        2328        2327
         4        2277        2278        2329        2328
         4        2278        2279        2330        2329
         4        2279        2280        2331        2330
         4        2280        2281        2332        2331
         4        2281        2282        2333        2332
         4        2282        2283        2334        2333
         4        2283        2284        2335        2334
         4        2284        2285        2336        2335
         4        2285        2286        2337        2336
         4        2286        2287        2338        2337
         4        2287        2288        2339        2338
         4        2288        2289        2340        2339
         4        2289        2290        2341        2340
         4        2290        2291        2342        2341
         4        2291        2292        2343        2342
         4        2292        2293        2344        2343
         4        2293        2294        2345        2344
         4        2295        2296        2347        2346
         4        2296        2297        2348        2347
         4        2297        2298        2349        2348
         4        2298        2299        2350        2349
         4        2299        2300        2351        2350
         4        2300        2301        2352        2351
         4        2301        2302        2353        2352
         4        2302        2303        2354        2353
         4        2303        2304        2355        2354
         4        2304        2305        2356        2355
         4        2305        2306        2357        2356
         4        2306        2307        2358        2357
         4        2307        2308        2359        2358
         4        2308        2309        2360        2359
         4        2309        2310        2361        2360
         4        2310        2311        2362        2361
         4        2311        2312        2363        2362
         4        2312        2313        2364        2363
         4        2313        2314        2365        2364
         4        2314        2315        2366        2365
         4        2315        2316        2367        2366
         4        2316        2317        2368        2367
         4        2317        2318        2369        2368
         4        2318        2319        2370        2369
         4        2319        2320        2371        2370
         4        2320        2321        2372        2371
         4        2321        2322        2373        2372
         4        2322        2323        2374        2373
         4        2323        2324        2375        2374
         4        2324        2325        2376        2375
         4        2325        2326        2377        2376
         4        2326        2327        2378        2377
         4        2327        2328        2379        2378
         4        2328        2329        2380        2379
         4        2329        2330        2381        2380
         4        2330        2331        2382        2381
         4        2331        2332        2383        2382
         4        2332        2333        2384        2383
         4        2333        2334        2385        2384
         4        2334        2335        2386        2385
         4        2335        2336        2387        2386
         4        2336        2337        2388        2387
         4        2337        2338        2389        2388
         4        2338        2339        2390        2389
         4        2339        2340        2391        2390
         4        2340        2341        2392        2391
         4        2341        2342        2393        2392
         4        2342        2343        2394        2393
         4        2343        2344        2395        2394
         4        2344        2345        2396        2395
         4        2346        2347        2398        2397
         4        2347        2348        2399        2398
         4        2348        2349        2400        2399
         4        2349        2350        2401        2400
         4        2350        2351        2402        2401
         4        2351        2352        2403        2402
         4        2352        2353        2404        2403
         4        2353        2354        2405        2404
         4        2354        2355        2406        2405
         4        2355        2356        2407        2406
         4        2356        2357        2408        2407
         4        2357        2358        2409        2408
         4        2358        2359        2410        2409
         4        2359        2360        2411        2410
         4        2360        2361        2412        2411
         4        2361        2362        2413        2412
         4        2362        2363        2414        2413
         4        2363        2364        2415        2414
         4        2364        2365        2416        2415
         4        2365        2366        2417        2416
         4        2366        2367        2418        2417
         4        2367        2368        2419        2418
         4        2368        2369        2420        2419
         4        2369        2370        2421        2420
         4        2370        2371        2422        2421
         4        2371        2372        2423        2422
         4        2372        2373        2424        2423
         4        2373        2374        2425        2424
         4        2374        2375        2426        2425
         4        2375        2376        2427        2426
         4        2376        2377        2428        2427
         4        2377        2378        2429        2428
         4        2378        2379        2430        2429
         4        2379        2380        2431        2430
         4        2380        2381        2432        2431
         4        2381        2382        2433        2432
         4        2382        2383        2434        2433
         4        2383        2384        2435        2434
         4        2384        2385        2436        2435
         4        2385        2386        2437        2436
         4        2386        2387        2438        2437
         4        2387        2388        2439        2438
         4        2388        2389        2440        2439
         4        2389        2390        2441        2440
         4        2390        2391        2442        2441
         4        2391        2392        2443        2442
         4        2392        2393        2444        2443
         4        2393        2394        2445        2444
         4        2394        2395        2446        2445
         4        2395        2396        2447        2446
         4        2397        2398        2449        2448
         4        2398        2399        2450        2449
         4        2399        2400        2451        2450
         4        2400        2401        2452        2451
         4        2401        2402        2453        2452
         4        2402        2403        2454        2453
         4        2403        2404        2455        2454
         4        2404        2405        2456        2455
         4        2405        2406        2457        2456
         4        2406        2407        2458        2457
         4        2407        2408        2459        2458
         4        2408        2409        2460        2459
         4        2409        2410        2461        2460
         4        2410        2411        2462        2461
         4        2411        2412        2463        2462
         4        2412        2413        2464        2463
         4        2413        2414        2465        2464
         4        2414        2415        2466        2465
         4        2415        2416        2467        2466
         4        2416        2417        2468        2467
         4        2417        2418        2469        2468
         4        2418        2419        2470        2469
         4        2419        2420        2471        2470
         4        2420        2421        2472        2471
         4        2421        2422        2473        2472
         4        2422        2423        2474        2473
         4        2423        2424        2475        2474
         4        2424        2425        2476        2475
         4        2425        2426        2477        2476
         4        2426        2427        2478        2477
         4        2427        2428        2479        2478
         4        2428        2429        2480        2479
         4        2429        2430        2481        2480
         4        2430        2431        2482        2481
         4        2431        2432        2483        2482
         4        2432        2433        2484        2483
         4        2433        2434        2485        2484
         4        2434        2435        2486        2485
         4        2435        2436        2487        2486
         4        2436        2437        2488        2487
         4        2437        2438        2489        2488
         4        2438        2439        2490        2489
         4        2439        2440        2491        2490
         4        2440        2441        2492        2491
         4        2441        2442        2493        2492
         4        2442        2443        2494        2493
         4        2443        2444        2495        2494
         4        2444        2445        2496        2495
         4        2445        2446        2497        2496
         4        2446        2447        2498        2497
         4        2448        2449        2500        2499
         4        2449        2450        2501        2500
         4        2450        2451        2502        2501
         4        2451        2452        2503        2502
         4        2452        2453        2504        2503
         4        2453        2454        2505        2504
         4        2454        2455        2506        2505
         4        2455        2456        2507        2506
         4        2456        2457        2508        2507
         4        2457        2458        2509        2508
         4        2458        2459        2510        2509
         4        2459        2460        2511        2510
         4        2460        2461        2512        2511
         4        2461        2462        2513        2512
         4        2462        2463        2514        2513
         4        2463        2464        2515        2514
         4        2464        2465        2516        2515
         4        2465        2466        2517        2516
         4        2466        2467        2518        2517
         4        2467        2468        2519        2518
         4        2468        2469        2520        2519
         4        2469        2470        2521        2520
         4        2470        2471        2522        2521
         4        2471        2472        2523        2522
         4        2472        2473        2524        2523
         4        2473        2474        2525        2524
         4        2474        2475        2526        2525
         4        2475        2476        2527        2526
         4        2476        2477        2528        2527
         4        2477        2478        2529        2528
         4        2478        2479        2530        2529
         4        2479        2480        2531        2530
         4        2480        2481        2532        2531
         4        2481        2482        2533        2532
         4        2482        2483        2534        2533
         4        2483        2484        2535        2534
         4        2484        2485        2536        2535
         4        2485        2486        2537        2536
         4        2486        2487        2538        2537
         4        2487        2488        2539        2538
         4        2488        2489        2540        2539
         4        2489        2490        2541        2540
         4        2490        2491        2542        2541
         4        2491        2492        2543        2542
         4        2492        2493        2544        2543
         4        2493        2494        2545        2544
         4        2494        2495        2546        2545
         4        2495        2496        2547        2546
         4        2496        2497        2548        2547
         4        2497        2498        2549        2548
         4        2499        2500        2551        2550
         4        2500        2501        2552        2551
         4        2501        2502        2553        2552
         4        2502        2503        2554        2553
         4        2503        2504        2555        2554
         4        2504        2505        2556        2555
         4        2505        2506        2557        2556
         4        2506        2507        2558        2557
         4        2507        2508        2559        2558
         4        2508        2509        2560        2559
         4        2509        2510        2561        2560
         4        2510        2511        2562        2561
         4        2511        2512        2563        2562
         4        2512        2513        2564        2563
         4        2513        2514        2565        2564
         4        2514        2515        2566        2565
         4        2515        2516        2567        2566
         4        2516        2517        2568        2567
         4        2517        2518        2569        2568
         4        2518        2519        2570        2569
         4        2519        2520        2571        2570
         4        2520        2521        2572        2571
         4        2521        2522        2573        2572
         4        2522        2523        2574        2573
         4        2523        2524        2575        2574
         4        2524        2525        2576        2575
         4        2525        2526        2577        2576
         4        2526        2527        2578        2577
         4        2527        2528        2579        2578
         4        2528        2529        2580        2579
         4        2529        2530        2581        2580
         4        2530        2531        2582        2581
         4        2531        2532        2583        2582
         4        2532        2533        2584        2583
         4        2533        2534        2585        2584
         4        2534        2535        2586        2585
         4        2535        2536        2587        2586
         4        2536        2537        2588        2587
         4        2537        2538        2589        2588
         4        2538        2539        2590        2589
         4        2539        2540        2591        2590
         4        2540        2541        2592        2591
         4        2541        2542        2593        2592
         4        2542        2543        2594        2593
         4        2543        2544        2595        2594
         4        2544        2545        2596        2595
         4        2545        2546        2597        2596
         4        2546        2547        2598        2597
         4        2547        2548        2599        2598
         4        2548        2549        2600        2599
         4        2550        2551        2602        2601
         4        2551        2552        2603        2602
         4        2552        2553        2604        2603
         4        2553        2554        2605        2604
         4        2554        2555        2606        2605
         4        2555        2556        2607        2606
         4        2556        2557        2608        2607
         4        2557        2558        2609        2608
         4        2558        2559        2610        2609
         4        2559        2560        2611        2610
         4        2560        2561        2612        2611
         4        2561        2562        2613        2612
         4        2562        2563        2614        2613
         4        2563        2564        2615        2614
         4        2564        2565        2616        2615
         4        2565        2566        2617        2616
         4        2566        2567        2618        2617
         4        2567        2568        2619        2618
         4        2568        2569        2620        2619
         4        2569        2570        2621        2620
         4        2570        2571        2622        2621
         4        2571        2572        2623        2622
         4        2572        2573        2624        2623
         4        2573        2574        2625        2624
         4        2574        2575        2626        2625
         4        2575        2576        2627        2626
         4        2576        2577        2628        2627
         4        2577        2578        2629        2628
         4        2578        2579        2630        2629
         4        2579        2580        2631        2630
         4        2580        2581        2632        2631
         4        2581        2582        2633        2632
         4        2582        2583        2634        2633
         4        2583        2584        2635        2634
         4        2584        2585        2636        2635
         4        2585        2586        2637        2636
         4        2586        2587        2638        2637
         4        2587        2588        2639        2638
         4        2588        2589        2640        2639
         4        2589        2590        2641        2640
         4        2590        2591        2642        2641
         4        2591        2592        2643        2642
         4        2592        2593        2644        2643
         4        2593        2594        2645        2644
         4        2594        2595        2646        2645
         4        2595        2596        2647        2646
         4        2596        2597        2648        2647
         4        2597        2598        2649        2648
         4        2598        2599        2650        2649
         4        2599        2600        2651        2650
         4        2601        2602        2653        2652
         4        2602        2603        2654        2653
         4        2603        2604        2655        2654
         4        2604        2605        2656        2655
         4        2605        2606        2657        2656
         4        2606        2607        2658        2657
         4        2607        2608        2659        2658
         4        2608        2609        2660        2659
         4        2609        2610        2661        2660
         4        2610        2611        2662        2661
         4        2611        2612        2663        2662
         4        2612        2613        2664        2663
         4        2613        2614        2665        2664
         4        2614        2615        2666        2665
         4        2615        2616        2667        2666
         4        2616        2617        2668        2667
         4        2617        2618        2669        2668
         4        2618        2619        2670        2669
         4        2619        2620        2671        2670
         4        2620        2621        2672        2671
         4        2621        2622        2673        2672
         4        2622        2623        2674        2673
         4        2623        2624        2675        2674
         4        2624        2625        2676        2675
         4        2625        2626        2677        2676
         4        2626        2627        2678        2677
         4        2627        2628        2679        2678
         4        2628        2629        2680        2679
         4        2629        2630        2681        2680
         4        2630        2631        2682        2681
         4        2631        2632        2683        2682
         4        2632        2633        2684        2683
         4        2633        2634        2685        2684
         4        2634        2635        2686        2685
         4        2635        2636        2687        2686
         4        2636        2637        2688        2687
         4        2637        2638        2689        2688
         4        2638        2639        2690        2689
         4        2639        2640        2691        2690
         4        2640        2641        2692        2691
         4        2641        2642        2693        2692
         4        2642        2643        2694        2693
         4        2643        2644        2695        2694
         4        2644        2645        2696        2695
         4        2645        2646        2697        2696
         4        2646        2647        2698        2697
         4        2647        2648        2699        2698
         4        2648        2649        2700        2699
         4        2649        2650        2701        2700
         4        2650        2651        2702        2701
         4        2652        2653        2704        2703
         4        2653        2654        2705        2704
         4        2654        2655        2706        2705
         4        2655        2656        2707        2706
         4        2656        2657        2708        2707
         4        2657        2658        2709        2708
         4        2658        2659        2710        2709
         4        2659        2660        2711        2710
         4        2660        2661        2712        2711
         4        2661        2662        2713        2712
         4        2662        2663        2714        2713
         4        2663        2664        2715        2714
         4        2664        2665        2716        2715
         4        2665        2666        2717        2716
         4        2666        2667        2718        2717
         4        2667        2668        2719        2718
         4        2668        2669        2720        2719
         4        2669        2670        2721        2720
         4        2670        2671        2722        2721
         4        2671        2672        2723        2722
         4        2672        2673        2724        2723
         4        2673        2674        2725        2724
         4        2674        2675        2726        2725
         4        2675        2676        2727        2726
         4        2676        2677        2728        2727
         4        2677        2678        2729        2728
         4        2678        2679        2730        2729
         4        2679        2680        2731        2730
         4        2680        2681        2732        2731
         4        2681        2682        2733        2732
         4        2682        2683        2734        2733
         4        2683        2684        2735        2734
         4        2684        2685        2736        2735
         4        2685        2686        2737        2736
         4        2686        2687        2738        2737
         4        2687        2688        2739        2738
         4        2688        2689        2740        2739
         4        2689        2690        2741        2740
         4        2690        2691        2742        2741
         4        2691        2692        2743        2742
         4        2692        2693        2744        2743
         4        2693        2694        2745        2744
         4        2694        2695        2746        2745
         4        2695        2696        2747        2746
         4        2696        2697        2748        2747
         4        2697        2698        2749        2748
         4        2698        2699        2750        2749
         4        2699        2700        2751        2750
         4        2700        2701        2752        2751
         4        2701        2702        2753        2752
         4        2703        2704        2755        2754
         4        2704        2705        2756        2755
         4        2705        2706        2757        2756
         4        2706        2707        2758        2757
         4        2707        2708        2759        2758
         4        2708        2709        2760        2759
         4        2709        2710        2761        2760
         4        2710        2711        2762        2761
         4        2711        2712        2763        2762
         4        2712        2713        2764        2763
         4        2713        2714        2765        2764
         4        2714        2715        2766        2765
         4        2715        2716        2767        2766
         4        2716        2717        2768        2767
         4        2717        2718        2769        2768
         4        2718        2719        2770        2769
         4        2719        2720        2771        2770
         4        2720        2721        2772        2771
         4        2721        2722        2773        2772
         4        2722        2723        2774        2773
         4        2723        2724        2775        2774
         4        2724        2725        2776        2775
         4        2725        2726        2777        2776
         4        2726        2727        2778        2777
         4        2727        2728        2779        2778
         4        2728        2729        2780        2779
         4        2729        2730        2781        2780
         4        2730        2731        2782        2781
         4        2731        2732        2783        2782
         4        2732        2733        2784        2783
         4        2733        2734        2785        2784
         4        2734        2735        2786        2785
         4        2735        2736        2787        2786
         4        2736        2737        2788        2787
         4        2737        2738        2789        2788
         4        2738        2739        2790        2789
         4        2739        2740        2791        2790
         4        2740        2741        2792        2791
         4        2741        2742        2793        2792
         4        2742        2743        2794        2793
         4        2743        2744        2795        2794
         4        2744        2745        2796        2795
         4        2745        2746        2797        2796
         4        2746        2747        2798        2797
         4        2747        2748        2799        2798
         4        2748        2749        2800        2799
         4        2749        2750        2801        2800
         4        2750        2751        2802        2801
         4        2751        2752        2803        2802
         4        2752        2753        2804        2803
         4        2754        2755        2806        2805
         4        2755        2756        2807        2806
         4        2756        2757        2808        2807
         4        2757        2758        2809        2808
         4        2758        2759        2810        2809
         4        2759        2760        2811        2810
         4        2760        2761        2812        2811
         4        2761        2762        2813        2812
         4        2762        2763        2814        2813
         4        2763        2764        2815        2814
         4        2764        2765        2816        2815
         4        2765        2766        2817        2816
         4        2766        2767        2818        2817
         4        2767        2768        2819        2818
         4        2768        2769        2820        2819
         4        2769        2770        2821        2820
         4        2770        2771        2822        2821
         4        2771        2772        2823        2822
         4        2772        2773        2824        2823
         4        2773        2774        2825        2824
         4        2774        2775        2826        2825
         4        2775        2776        2827        2826
         4        2776        2777        2828        2827
         4        2777        2778        2829        2828
         4        2778        2779        2830        2829
         4        2779        2780        2831        2830
         4        2780        2781        2832        2831
         4        2781        2782        2833        2832
         4        2782        2783        2834        2833
         4        2783        2784        2835        2834
         4        2784        2785        2836        2835
         4        2785        2786        2837        2836
         4        2786        2787        2838        2837
         4        2787        2788        2839        2838
         4        2788        2789        2840        2839
         4        2789        2790        2841        2840
         4        2790        2791        2842        2841
         4        2791        2792        2843        2842
         4        2792        2793        2844        2843
         4        2793        2794        2845        2844
         4        2794        2795        2846        2845
         4        2795        2796        2847        2846
         4        2796        2797        2848        2847
         4        2797        2798        2849        2848
         4        2798        2799        2850        2849
         4        2799        2800        2851        2850
         4        2800        2801        2852        2851
         4        2801        2802        2853        2852
         4        2802        2803        2854        2853
         4        2803        2804        2855        2854
         4        2805        2806        2857        2856
         4        2806        2807        2858        2857
         4        2807        2808        2859        2858
         4        2808        2809        2860        2859
         4        2809        2810        2861        2860
         4        2810        2811        2862        2861
         4        2811        2812        2863        2862
         4        2812        2813        2864        2863
         4        2813        2814        2865        2864
         4        2814        2815        2866        2865
         4        2815        2816        2867        2866
         4        2816        2817        2868        2867
         4        2817        2818        2869        2868
         4        2818        2819        2870        2869
         4        2819        2820        2871        2870
         4        2820        2821        2872        2871
         4        2821        2822        2873        2872
         4        2822        2823        2874        2873
         4        2823        2824        2875        2874
         4        2824        2825        2876        2875
         4        2825        2826        2877        2876
         4        2826        2827        2878        2877
         4        2827        2828        2879        2878
         4        2828        2829        2880        2879
         4        2829        2830        2881        2880
         4        2830        2831        2882        2881
         4        2831        2832        2883        2882
         4        2832        2833        2884        2883
         4        2833        2834        2885        2884
         4        2834        2835        2886        2885
         4        2835        2836        2887        2886
         4        2836        2837        2888        2887
         4        2837        2838        2889        2888
         4        2838        2839        2890        2889
         4        2839        2840        2891        2890
         4        2840        2841        2892        2891
         4        2841        2842        2893        2892
         4        2842        2843        2894        2893
         4        2843        2844        2895        2894
         4        2844        2845        2896        2895
         4        2845        2846        2897        2896
         4        2846        2847        2898        2897
         4        2847        2848        2899        2898
         4        2848        2849        2900        2899
         4        2849        2850        2901        2900
         4        2850        2851        2902        2901
         4        2851        2852        2903        2902
         4        2852        2853        2904        2903
         4        2853        2854        2905        2904
         4        2854        2855        2906        2905
         4        2856        2857        2908        2907
         4        2857        2858        2909        2908
         4        2858        2859        2910        2909
         4        2859        2860        2911        2910
         4        2860        2861        2912        2911
         4        2861        2862        2913        2912
         4        2862        2863        2914        2913
         4        2863        2864        2915        2914
         4        2864        2865        2916        2915
         4        2865        2866        2917        2916
         4        2866        2867        2918        2917
         4        2867        2868        2919        2918
         4        2868        2869        2920        2919
         4        2869        2870        2921        2920
         4        2870        2871        2922        2921
         4        2871        2872        2923        2922
         4        2872        2873        2924        2923
         4        2873        2874        2925        2924
         4        2874        2875        2926        2925
         4        2875        2876        2927        2926
         4        2876        2877        2928        2927
         4        2877        2878        2929        2928
         4        2878        2879        2930        2929
         4        2879        2880        2931        2930
         4        2880        2881        2932        2931
         4        2881        2882        2933        2932
         4        2882        2883        2934        2933
         4        2883        2884        2935        2934
         4        2884        2885        2936        2935
         4        2885        2886        2937        2936
         4        2886        2887        2938        2937
         4        2887        2888        2939        2938
         4        2888        2889        2940        2939
         4        2889        2890        2941        2940
         4        2890        2891        2942        2941
         4        2891        2892        2943        2942
         4        2892        2893        2944        2943
         4        2893        2894        2945        2944
         4        2894        2895        2946        2945
         4        2895        2896        2947        2946
         4        2896        2897        2948        2947
         4        2897        2898        2949        2948
         4        2898        2899        2950        2949
         4        2899        2900        2951        2950
         4        2900        2901        2952        2951
         4        2901        2902        2953        2952
         4        2902        2903        2954        2953
         4        2903        2904        2955        2954
         4        2904        2905        2956        2955
         4        2905        2906        2957        2956
         4        2907        2908        2959        2958
         4        2908        2909        2960        2959
         4        2909        2910        2961        2960
         4        2910        2911        2962        2961
         4        2911        2912        2963        2962
         4        2912        2913        2964        2963
         4        2913        2914        2965        2964
         4        2914        2915        2966        2965
         4        2915        2916        2967        2966
         4        2916        2917        2968        2967
         4        2917        2918        2969        2968
         4        2918        2919        2970        2969
         4        2919        2920        2971        2970
         4        2920        2921        2972        2971
         4        2921        2922        2973        2972
         4        2922        2923        2974        2973
         4        2923        2924        2975        2974
         4        2924        2925        2976        2975
         4        2925        2926        2977        2976
         4        2926        2927        2978        2977
         4        2927        2928        2979        2978
         4        2928        2929        2980        2979
         4        2929        2930        2981        2980
         4        2930        2931        2982        2981
         4        2931        2932        2983        2982
         4        2932        2933        2984        2983
         4        2933        2934        2985        2984
         4        2934        2935        2986        2985
         4        2935        2936        2987        2986
         4        2936        2937        2988        2987
         4        2937        2938        2989        2988
         4        2938        2939        2990        2989
         4        2939        2940        2991        2990
         4        2940        2941        2992        2991
         4        2941        2942        2993        2992
         4        2942        2943        2994        2993
         4        2943        2944        2995        2994
         4        2944        2945        2996        2995
         4        2945        2946        2997        2996
         4        2946        2947        2998        2997
         4        2947        2948        2999        2998
         4        2948        2949        3000        2999
         4        2949        2950        3001        3000
         4        2950        2951        3002        3001
         4        2951        2952        3003        3002
         4        2952        2953        3004        3003
         4        2953        2954        3005        3004
         4        2954        2955        3006        3005
         4        2955        2956        3007        3006
         4        2956        2957        3008        3007
         4        2958        2959        3010        3009
         4        2959        2960        3011        3010
         4        2960        2961        3012        3011
         4        2961        2962        3013        3012
         4        2962        2963        3014        3013
         4        2963        2964        3015        3014
         4        2964        2965        3016        3015
         4        2965        2966        3017        3016
         4        2966        2967        3018        3017
         4        2967        2968        3019        3018
         4        2968        2969        3020        3019
         4        2969        2970        3021        3020
         4        2970        2971        3022        3021
         4        2971        2972        3023        3022
         4        2972        2973        3024        3023
         4        2973        2974        3025        3024
         4        2974        2975        3026        3025
         4        2975        2976        3027        3026
         4        2976        2977        3028        3027
         4        2977        2978        3029        3028
         4        2978        2979        3030        3029
         4        2979        2980        3031        3030
         4        2980        2981        3032        3031
         4        2981        2982        3033        3032
         4        2982        2983        3034        3033
         4        2983        2984        3035        3034
         4        2984        2985        3036        3035
         4        2985        2986        3037        3036
         4        2986        2987        3038        3037
         4        2987        2988        3039        3038
         4        2988        2989        3040        3039
         4        2989        2990        3041        3040
         4        2990        2991        3042        3041
         4        2991        2992        3043        3042
         4        2992        2993        3044        3043
         4        2993        2994        3045        3044
         4        2994        2995        3046        3045
         4        2995        2996        3047        3046
         4        2996        2997        3048        3047
         4        2997        2998        3049        3048
         4        2998        2999        3050        3049
         4        2999        3000        3051        3050
         4        3000        3001        3052        3051
         4        3001        3002        3053        3052
         4        3002        3003        3054        3053
         4        3003        3004        3055        3054
         4        3004        3005        3056        3055
         4        3005        3006        3057        3056
         4        3006        3007        3058        3057
         4        3007        3008        3059        3058
         4        3009        3010        3061        3060
         4        3010        3011        3062        3061
         4        3011        3012        3063        3062
         4        3012        3013        3064        3063
         4        3013        3014        3065        3064
         4        3014        3015        3066        3065
         4        3015        3016        3067        3066
         4        3016        3017        3068        3067
         4        3017        3018        3069        3068
         4        3018        3019        3070        3069
         4        3019        3020        3071        3070
         4        3020        3021        3072        3071
         4        3021        3022        3073        3072
         4        3022        3023        3074        3073
         4        3023        3024        3075        3074
         4        3024        3025        3076        3075
         4        3025        3026        3077        3076
         4        3026        3027        3078        3077
         4        3027        3028        3079        3078
         4        3028        3029        3080        3079
         4        3029        3030        3081        3080
         4        3030        3031        3082        3081
         4        3031        3032        3083        3082
         4        3032        3033        3084        3083
         4        3033        3034        3085        3084
         4        3034        3035        3086        3085
         4        3035        3036        3087        3086
         4        3036        3037        3088        3087
         4        3037        3038        3089        3088
         4        3038        3039        3090        3089
         4        3039        3040        3091        3090
         4        3040        3041        3092        3091
         4        3041        3042        3093        3092
         4        3042        3043        3094        3093
         4        3043        3044        3095        3094
         4        3044        3045        3096        3095
         4        3045        3046        3097        3096
         4        3046        3047        3098        3097
         4        3047        3048        3099        3098
         4        3048        3049        3100        3099
         4        3049        3050        3101        3100
         4        3050        3051        3102        3101
         4        3051        3052        3103        3102
         4        3052        3053        3104        3103
         4        3053        3054        3105        3104
         4        3054        3055        3106        3105
         4        3055        3056        3107        3106
         4        3056        3057        3108        3107
         4        3057        3058        3109        3108
         4        3058        3059        3110        3109
         4        3060        3061        3112        3111
         4        3061        3062        3113        3112
         4        3062        3063        3114        3113
         4        3063        3064        3115        3114
         4        3064        3065        3116        3115
         4        3065        3066        3117        3116
         4        3066        3067        3118        3117
         4        3067        3068        3119        3118
         4        3068        3069        3120        3119
         4        3069        3070        3121        3120
         4        3070        3071        3122        3121
         4        3071        3072        3123        3122
         4        3072        3073        3124        3123
         4        3073        3074        3125        3124
         4        3074        3075        3126        3125
         4        3075        3076        3127        3126
         4        3076        3077        3128        3127
         4        3077        3078        3129        3128
         4        3078        3079        3130        3129
         4        3079        3080        3131        3130
         4        3080        3081        3132        3131
         4        3081        3082        3133        3132
         4        3082        3083        3134        3133
         4        3083        3084        3135        3134
         4        3084        3085        3136        3135
         4        3085        3086        3137        3136
         4        3086        3087        3138        3137
         4        3087        3088        3139        3138
         4        3088        3089        3140        3139
         4        3089        3090        3141        3140
         4        3090        3091        3142        3141
         4        3091        3092        3143        3142
         4        3092        3093        3144        3143
         4        3093        3094        3145        3144
         4        3094        3095        3146        3145
         4        3095        3096        3147        3146
         4        3096        3097        3148        3147
         4        3097        3098        3149        3148
         4        3098        3099        3150        3149
         4        3099        3100        3151        3150
         4        3100        3101        3152        3151
         4        3101        3102        3153        3152
         4        3102        3103        3154        3153
         4        3103        3104        3155        3154
         4        3104        3105        3156        3155
         4        3105        3106        3157        3156
         4        3106        3107        3158        3157
         4        3107        3108        3159        3158
         4        3108        3109        3160        3159
         4        3109        3110        3161        3160
         4        3111        3112        3163        3162
         4        3112        3113        3164        3163
         4        3113        3114        3165        3164
         4        3114        3115        3166        3165
         4        3115        3116        3167        3166
         4        3116        3117        3168        3167
         4        3117        3118        3169        3168
         4        3118        3119        3170        3169
         4        3119        3120        3171        3170
         4        3120        3121        3172        3171
         4        3121        3122        3173        3172
         4        3122        3123        3174        3173
         4        3123        3124        3175        3174
         4        3124        3125        3176        3175
         4        3125        3126        3177        3176
         4        3126        3127        3178        3177
         4        3127        3128        3179        3178
         4        3128        3129        3180        3179
         4        3129        3130        3181        3180
         4        3130        3131        3182        3181
         4        3131        3132        3183        3182
         4        3132        3133        3184        3183
         4        3133        3134        3185        3184
         4        3134        3135        3186        3185
         4        3135        3136        3187        3186
         4        3136        3137        3188        3187
         4        3137        3138        3189        3188
         4        3138        3139        3190        3189
         4        3139        3140        3191        3190
         4        3140        3141        3192        3191
         4        3141        3142        3193        3192
         4        3142        3143        3194        3193
         4        3143        3144        3195        3194
         4        3144        3145        3196        3195
         4        3145        3146        3197        3196
         4        3146        3147        3198        3197
         4        3147        3148        3199        3198
         4        3148        3149        3200        3199
         4        3149        3150        3201        3200
         4        3150        3151        3202        3201
         4        3151        3152        3203        3202
         4        3152        3153        3204        3203
         4        3153        3154        3205        3204
         4        3154        3155        3206        3205
         4        3155        3156        3207        3206
         4        3156        3157        3208        3207
         4        3157        3158        3209        3208
         4        3158        3159        3210        3209
         4        3159        3160        3211        3210
         4        3160        3161        3212        3211
         4        3162        3163        3214        3213
         4        3163        3164        3215        3214
         4        3164        3165        3216        3215
         4        3165        3166        3217        3216
         4        3166        3167        3218        3217
         4        3167        3168        3219        3218
         4        3168        3169        3220        3219
         4        3169        3170        3221        3220
         4        3170        3171        3222        3221
         4        3171        3172        3223        3222
         4        3172        3173        3224        3223
         4        3173        3174        3225        3224
         4        3174        3175        3226        3225
         4        3175        3176        3227        3226
         4        3176        3177        3228        3227
         4        3177        3178        3229        3228
         4        3178        3179        3230        3229
         4        3179        3180        3231        3230
         4        3180        3181        3232        3231
         4        3181        3182        3233        3232
         4        3182        3183        3234        3233
         4        3183        3184        3235        3234
         4        3184        3185        3236        3235
         4        3185        3186        3237        3236
         4        3186        3187        3238        3237
         4        3187        3188        3239        3238
         4        3188        3189        3240        3239
         4        3189        3190        3241        3240
         4        3190        3191        3242        3241
         4        3191        3192        3243        3242
         4        3192        3193        3244        3243
         4        3193        3194        3245        3244
         4        3194        3195        3246        3245
         4        3195        3196        3247        3246
         4        3196        3197        3248        3247
         4        3197        3198        3249        3248
         4        3198        3199        3250        3249
         4        3199        3200        3251        3250
         4        3200        3201        3252        3251
         4        3201        3202        3253        3252
         4        3202        3203        3254        3253
         4        3203        3204        3255        3254
         4        3204        3205        3256        3255
         4        3205        3206        3257        3256
         4        3206        3207        3258        3257
         4        3207        3208        3259        3258
         4        3208        3209        3260        3259
         4        3209        3210        3261        3260
         4        3210        3211        3262        3261
         4        3211        3212        3263        3262
         4        3213        3214        3265        3264
         4        3214        3215        3266        3265
         4        3215        3216        3267        3266
         4        3216        3217        3268        3267
         4        3217        3218        3269        3268
         4        3218        3219        3270        3269
         4        3219        3220        3271        3270
         4        3220        3221        3272        3271
         4        3221        3222        3273        3272
         4        3222        3223        3274        3273
         4        3223        3224        3275        3274
         4        3224        3225        3276        3275
         4        3225        3226        3277        3276
         4        3226        3227        3278        3277
         4        3227        3228        3279        3278
         4        3228        3229        3280        3279
         4        3229        3230        3281        3280
         4        3230        3231        3282        3281
         4        3231        3232        3283        3282
         4        3232        3233        3284        3283
         4        3233        3234        3285        3284
         4        3234        3235        3286        3285
         4        3235        3236        3287        3286
         4        3236        3237        3288        3287
         4        3237        3238        3289        3288
         4        3238        3239        3290        3289
         4        3239        3240        3291        3290
         4        3240        3241        3292        3291
         4        3241        3242        3293        3292
         4        3242        3243        3294        3293
         4        3243        3244        3295        3294
         4        3244        3245        3296        3295
         4        3245        3246        3297        3296
         4        3246        3247        3298        3297
         4        3247        3248        3299        3298
         4        3248        3249        3300        3299
         4        3249        3250        3301        3300
         4        3250        3251        3302        3301
         4        3251        3252        3303        3302
         4        3252        3253        3304        3303
         4        3253        3254        3305        3304
         4        3254        3255        3306        3305
         4        3255        3256        3307        3306
         4        3256        3257        3308        3307
         4        3257        3258        3309        3308
         4        3258        3259        3310        3309
         4        3259        3260        3311        3310
         4        3260        3261        3312        3311
         4        3261        3262        3313        3312
         4        3262        3263        3314        3313
         4        3264        3265        3316        3315
         4        3265        3266        3317        3316
         4        3266        3267        3318        3317
         4        3267        3268        3319        3318
         4        3268        3269        3320        3319
         4        3269        3270        3321        3320
         4        3270        3271        3322        3321
         4        3271        3272        3323        3322
         4        3272        3273        3324        3323
         4        3273        3274        3325        3324
         4        3274        3275        3326        3325
         4        3275        3276        3327        3326
         4        3276        3277        3328        3327
         4        3277        3278        3329        3328
         4        3278        3279        3330        3329
         4        3279        3280        3331        3330
         4        3280        3281        3332        3331
         4        3281        3282        3333        3332
         4        3282        3283        3334        3333
         4        3283        3284        3335        3334
         4        3284        3285        3336        3335
         4        3285        3286        3337        3336
         4        3286        3287        3338        3337
         4        3287        3288        3339        3338
         4        3288        3289        3340        3339
         4        3289        3290        3341        3340
         4        3290        3291        3342        3341
         4        3291        3292        3343        3342
         4        3292        3293        3344        3343
         4        3293        3294        3345        3344
         4        3294        3295        3346        3345
         4        3295        3296        3347        3346
         4        3296        3297        3348        3347
         4        3297        3298        3349        3348
         4        3298        3299        3350        3349
         4        3299        3300        3351        3350
         4        3300        3301        3352        3351
         4        3301        3302        3353        3352
         4        3302        3303        3354        3353
         4        3303        3304        3355        3354
         4        3304        3305        3356        3355
         4        3305        3306        3357        3356
         4        3306        3307        3358        3357
         4        3307        3308        3359        3358
         4        3308        3309        3360        3359
         4        3309        3310        3361        3360
         4        3310        3311        3362        3361
         4        3311        3312        3363        3362
         4        3312        3313        3364        3363
         4        3313        3314        3365        3364
         4        3315        3316        3367        3366
         4        3316        3317        3368        3367
         4        3317        3318        3369        3368
         4        3318        3319        3370        3369
         4        3319        3320        3371        3370
         4        3320        3321        3372        3371
         4        3321        3322        3373        3372
         4        3322        3323        3374        3373
         4        3323        3324        3375        3374
         4        3324        3325        3376        3375
         4        3325        3326        3377        3376
         4        3326        3327        3378        3377
         4        3327        3328        3379        3378
         4        3328        3329        3380        3379
         4        3329        3330        3381        3380
         4        3330        3331        3382        3381
         4        3331        3332        3383        3382
         4        3332        3333        3384        3383
         4        3333        3334        3385        3384
         4        3334        3335        3386        3385
         4        3335        3336        3387        3386
         4        3336        3337        3388        3387
         4        3337        3338        3389        3388
         4        3338        3339        3390        3389
         4        3339        3340        3391        3390
         4        3340        3341        3392        3391
         4        3341        3342        3393        3392
         4        3342        3343        3394        3393
         4        3343        3344        3395        3394
         4        3344        3345        3396        3395
         4        3345        3346        3397        3396
         4        3346        3347        3398        3397
         4        3347        3348        3399        3398
         4        3348        3349        3400        3399
         4        3349        3350        3401        3400
         4        3350        3351        3402        3401
         4        3351        3352        3403        3402
         4        3352        3353        3404        3403
         4        3353        3354        3405        3404
         4        3354        3355        3406        3405
         4        3355        3356        3407        3406
         4        3356        3357        3408        3407
         4        3357        3358        3409        3408
         4        3358        3359        3410        3409
         4        3359        3360        3411        3410
         4        3360        3361        3412        3411
         4        3361        3362        3413        3412
         4        3362        3363        3414        3413
         4        3363        3364        3415        3414
         4        3364        3365        3416        3415
         4        3366        3367        3418        3417
         4        3367        3368        3419        3418
         4        3368        3369        3420        3419
         4        3369        3370        3421        3420
         4        3370        3371        3422        3421
         4        3371        3372        3423        3422
         4        3372        3373        3424        3423
         4        3373        3374        3425        3424
         4        3374        3375        3426        3425
         4        3375        3376        3427        3426
         4        3376        3377        3428        3427
         4        3377        3378        3429        3428
         4        3378        3379        3430        3429
         4        3379        3380        3431        3430
         4        3380        3381        3432        3431
         4        3381        3382        3433        3432
         4        3382        3383        3434        3433
         4        3383        3384        3435        3434
         4        3384        3385        3436        3435
         4        3385        3386        3437        3436
         4        3386        3387        3438        3437
         4        3387        3388        3439        3438
         4        3388        3389        3440        3439
         4        3389        3390        3441        3440
         4        3390        3391        3442        3441
         4        3391        3392        3443        3442
         4        3392        3393        3444        3443
         4        3393        3394        3445        3444
         4        3394        3395        3446        3445
         4        3395        3396        3447        3446
         4        3396        3397        3448        3447
         4        3397        3398        3449        3448
         4        3398        3399        3450        3449
         4        3399        3400        3451        3450
         4        3400        3401        3452        3451
         4        3401        3402        3453        3452
         4        3402        3403        3454        3453
         4        3403        3404        3455        3454
         4        3404        3405        3456        3455
         4        3405        3406        3457        3456
         4        3406        3407        3458        3457
         4        3407        3408        3459        3458
         4        3408        3409        3460        3459
         4        3409        3410        3461        3460
         4        3410        3411        3462        3461
         4        3411        3412        3463        3462
         4        3412        3413        3464        3463
         4        3413        3414        3465        3464
         4        3414        3415        3466        3465
         4        3415        3416        3467        3466
         4        3417        3418        3469        3468
         4        3418        3419        3470        3469
         4        3419        3420        3471        3470
         4        3420        3421        3472        3471
         4        3421        3422        3473        3472
         4        3422        3423        3474        3473
         4        3423        3424        3475        3474
         4        3424        3425        3476        3475
         4        3425        3426        3477        3476
         4        3426        3427        3478        3477
         4        3427        3428        3479        3478
         4        3428        3429        3480        3479
         4        3429        3430        3481        3480
         4        3430        3431        3482        3481
         4        3431        3432        3483        3482
         4        3432        3433        3484        3483
         4        3433        3434        3485        3484
         4        3434        3435        3486        3485
         4        3435        3436        3487        3486
         4        3436        3437        3488        3487
         4        3437        3438        3489        3488
         4        3438        3439        3490        3489
         4        3439        3440        3491        3490
         4        3440        3441        3492        3491
         4        3441        3442        3493        3492
         4        3442        3443        3494        3493
         4        3443        3444        3495        3494
         4        3444        3445        3496        3495
         4        3445        3446        3497        3496
         4        3446        3447        3498        3497
         4        3447        3448        3499        3498
         4        3448        3449        3500        3499
         4        3449        3450        3501        3500
         4        3450        3451        3502        3501
         4        3451        3452        3503        3502
         4        3452        3453        3504        3503
         4        3453        3454        3505        3504
         4        3454        3455        3506        3505
         4        3455        3456        3507        3506
         4        3456        3457        3508        3507
         4        3457        3458        3509        3508
         4        3458        3459        3510        3509
         4        3459        3460        3511        3510
         4        3460        3461        3512        3511
         4        3461        3462        3513        3512
         4        3462        3463        3514        3513
         4        3463        3464        3515        3514
         4        3464        3465        3516        3515
         4        3465        3466        3517        3516
         4        3466        3467        3518        3517
         4        3468        3469        3520        3519
         4        3469        3470        3521        3520
         4        3470        3471        3522        3521
         4        3471        3472        3523        3522
         4        3472        3473        3524        3523
         4        3473        3474        3525        3524
         4        3474        3475        3526        3525
         4        3475        3476        3527        3526
         4        3476        3477        3528        3527
         4        3477        3478        3529        3528
         4        3478        3479        3530        3529
         4        3479        3480        3531        3530
         4        3480        3481        3532        3531
         4        3481        3482        3533        3532
         4        3482        3483        3534        3533
         4        3483        3484        3535        3534
         4        3484        3485        3536        3535
         4        3485        3486        3537        3536
         4        3486        3487        3538        3537
         4        3487        3488        3539        3538
         4        3488        3489        3540        3539
         4        3489        3490        3541        3540
         4        3490        3491        3542        3541
         4        3491        3492        3543        3542
         4        3492        3493        3544        3543
         4        3493        3494        3545        3544
         4        3494        3495        3546        3545
         4        3495        3496        3547        3546
         4        3496        3497        3548        3547
         4        3497        3498        3549        3548
         4        3498        3499        3550        3549
         4        3499        3500        3551        3550
         4        3500        3501        3552        3551
         4        3501        3502        3553        3552
         4        3502        3503        3554        3553
         4        3503        3504        3555        3554
         4        3504        3505        3556        3555
         4        3505        3506        3557        3556
         4        3506        3507        3558        3557
         4        3507        3508        3559        3558
         4        3508        3509        3560        3559
         4        3509        3510        3561        3560
         4        3510        3511        3562        3561
         4        3511        3512        3563        3562
         4        3512        3513        3564        3563
         4        3513        3514        3565        3564
         4        3514        3515        3566        3565
         4        3515        3516        3567        3566
         4        3516        3517        3568        3567
         4        3517        3518        3569        3568
         4        3519        3520        3571        3570
         4        3520        3521        3572        3571
         4        3521        3522        3573        3572
         4        3522        3523        3574        3573
         4        3523        3524        3575        3574
         4        3524        3525        3576        3575
         4        3525        3526        3577        3576
         4        3526        3527        3578        3577
         4        3527        3528        3579        3578
         4        3528        3529        3580        3579
         4        3529        3530        3581        3580
         4        3530        3531        3582        3581
         4        3531        3532        3583        3582
         4        3532        3533        3584        3583
         4        3533        3534        3585        3584
         4        3534        3535        3586        3585
         4        3535        3536        3587        3586
         4        3536        3537        3588        3587
         4        3537        3538        3589        3588
         4        3538        3539        3590        3589
         4        3539        3540        3591        3590
         4        3540        3541        3592        3591
         4        3541        3542        3593        3592
         4        3542        3543        3594        3593
         4        3543        3544        3595        3594
         4        3544        3545        3596        3595
         4        3545        3546        3597        3596
         4        3546        3547        3598        3597
         4        3547        3548        3599        3598
         4        3548        3549        3600        3599
         4        3549        3550        3601        3600
         4        3550        3551        3602        3601
         4        3551        3552        3603        3602
         4        3552        3553        3604        3603
         4        3553        3554        3605        3604
         4        3554        3555        3606        3605
         4        3555        3556        3607        3606
         4        3556        3557        3608        3607
         4        3557        3558        3609        3608
         4        3558        3559        3610        3609
         4        3559        3560        3611        3610
         4        3560        3561        3612        3611
         4        3561        3562        3613        3612
         4        3562        3563        3614        3613
         4        3563        3564        3615        3614
         4        3564        3565        3616        3615
         4        3565        3566        3617        3616
         4        3566        3567        3618        3617
         4        3567        3568        3619        3618
         4        3568        3569        3620        3619
         4        3570        3571        3622        3621
         4        3571        3572        3623        3622
         4        3572        3573        3624        3623
         4        3573        3574        3625        3624
         4        3574        3575        3626        3625
         4        3575        3576        3627        3626
         4        3576        3577        3628        3627
         4        3577        3578        3629        3628
         4        3578        3579        3630        3629
         4        3579        3580        3631        3630
         4        3580        3581        3632        3631
         4        3581        3582        3633        3632
         4        3582        3583        3634        3633
         4        3583        3584        3635        3634
         4        3584        3585        3636        3635
         4        3585        3586        3637        3636
         4        3586        3587        3638        3637
         4        3587        3588        3639        3638
         4        3588        3589        3640        3639
         4        3589        3590        3641        3640
         4        3590        3591        3642        3641
         4        3591        3592        3643        3642
         4        3592        3593        3644        3643
         4        3593        3594        3645        3644
         4        3594        3595        3646        3645
         4        3595        3596        3647        3646
         4        3596        3597        3648        3647
         4        3597        3598        3649        3648
         4        3598        3599        3650        3649
         4        3599        3600        3651        3650
         4        3600        3601        3652        3651
         4        3601        3602        3653        3652
         4        3602        3603        3654        3653
         4        3603        3604        3655        3654
         4        3604        3605        3656        3655
         4        3605        3606        3657        3656
         4        3606        3607        3658        3657
         4        3607        3608        3659        3658
         4        3608        3609        3660        3659
         4        3609        3610        3661        3660
         4        3610        3611        3662        3661
         4        3611        3612        3663        3662
         4        3612        3613        3664        3663
         4        3613        3614        3665        3664
         4        3614        3615        3666        3665
         4        3615        3616        3667        3666
         4        3616        3617        3668        3667
         4        3617        3618        3669        3668
         4        3618        3619        3670        3669
         4        3619        3620        3671        3670
         4        3621        3622        3673        3672
         4        3622        3623        3674        3673
         4        3623        3624        3675        3674
         4        3624        3625        3676        3675
         4        3625        3626        3677        3676
         4        3626        3627        3678        3677
         4        3627        3628        3679        3678
         4        3628        3629        3680        3679
         4        3629        3630        3681        3680
         4        3630        3631        3682        3681
         4        3631        3632        3683        3682
         4        3632        3633        3684        3683
         4        3633        3634        3685        3684
         4        3634        3635        3686        3685
         4        3635        3636        3687        3686
         4        3636        3637        3688        3687
         4        3637        3638        3689        3688
         4        3638        3639        3690        3689
         4        3639        3640        3691        3690
         4        3640        3641        3692        3691
         4        3641        3642        3693        3692
         4        3642        3643        3694        3693
         4        3643        3644        3695        3694
         4        3644        3645        3696        3695
         4        3645        3646        3697        3696
         4        3646        3647        3698        3697
         4        3647        3648        3699        3698
         4        3648        3649        3700        3699
         4        3649        3650        3701        3700
         4        3650        3651        3702        3701
         4        3651        3652        3703        3702
         4        3652        3653        3704        3703
         4        3653        3654        3705        3704
         4        3654        3655        3706        3705
         4        3655        3656        3707        3706
         4        3656        3657        3708        3707
         4        3657        3658        3709        3708
         4        3658        3659        3710        3709
         4        3659        3660        3711        3710
         4        3660        3661        3712        3711
         4        3661        3662        3713        3712
         4        3662        3663        3714        3713
         4        3663        3664        3715        3714
         4        3664        3665        3716        3715
         4        3665        3666        3717        3716
         4        3666        3667        3718        3717
         4        3667        3668        3719        3718
         4        3668        3669        3720        3719
         4        3669        3670        3721        3720
         4        3670        3671        3722        3721
         4        3672        3673        3724        3723
         4        3673        3674        3725        3724
         4        3674        3675        3726        3725
         4        3675        3676        3727        3726
         4        3676        3677        3728        3727
         4        3677        3678        3729        3728
         4        3678        3679        3730        3729
         4        3679        3680        3731        3730
         4        3680        3681        3732        3731
         4        3681        3682        3733        3732
         4        3682        3683        3734        3733
         4        3683        3684        3735        3734
         4        3684        3685        3736        3735
         4        3685        3686        3737        3736
         4        3686        3687        3738        3737
         4        3687        3688        3739        3738
         4        3688        3689        3740        3739
         4        3689        3690        3741        3740
         4        3690        3691        3742        3741
         4        3691        3692        3743        3742
         4        3692        3693        3744        3743
         4        3693        3694        3745        3744
         4        3694        3695        3746        3745
         4        3695        3696        3747        3746
         4        3696        3697        3748        3747
         4        3697        3698        3749        3748
         4        3698        3699        3750        3749
         4        3699        3700        3751        3750
         4        3700        3701        3752        3751
         4        3701        3702        3753        3752
         4        3702        3703        3754        3753
         4        3703        3704        3755        3754
         4        3704        3705        3756        3755
         4        3705        3706        3757        3756
         4        3706        3707        3758        3757
         4        3707        3708        3759        3758
         4        3708        3709        3760        3759
         4        3709        3710        3761        3760
         4        3710        3711        3762        3761
         4        3711        3712        3763        3762
         4        3712        3713        3764        3763
         4        3713        3714        3765        3764
         4        3714        3715        3766        3765
         4        3715        3716        3767        3766
         4        3716        3717        3768        3767
         4        3717        3718        3769        3768
         4        3718        3719        3770        3769
         4        3719        3720        3771        3770
         4        3720        3721        3772        3771
         4        3721        3722        3773        3772
         4        3723        3724        3775        3774
         4        3724        3725        3776        3775
         4        3725        3726        3777        3776
         4        3726        3727        3778        3777
         4        3727        3728        3779        3778
         4        3728        3729        3780        3779
         4        3729        3730        3781        3780
         4        3730        3731        3782        3781
         4        3731        3732        3783        3782
         4        3732        3733        3784        3783
         4        3733        3734        3785        3784
         4        3734        3735        3786        3785
         4        3735        3736        3787        3786
         4        3736        3737        3788        3787
         4        3737        3738        3789        3788
         4        3738        3739        3790        3789
         4        3739        3740        3791        3790
         4        3740        3741        3792        3791
         4        3741        3742        3793        3792
         4        3742        3743        3794        3793
         4        3743        3744        3795        3794
         4        3744        3745        3796        3795
         4        3745        3746        3797        3796
         4        3746        3747        3798        3797
         4        3747        3748        3799        3798
         4        3748        3749        3800        3799
         4        3749        3750        3801        3800
         4        3750        3751        3802        3801
         4        3751        3752        3803        3802
         4        3752        3753        3804        3803
         4        3753        3754        3805        3804
         4        3754        3755        3806        3805
         4        3755        3756        3807        3806
         4        3756        3757        3808        3807
         4        3757        3758        3809        3808
         4        3758        3759        3810        3809
         4        3759        3760        3811        3810
         4        3760        3761        3812        3811
         4        3761        3762        3813        3812
         4        3762        3763        3814        3813
         4        3763        3764        3815        3814
         4        3764        3765        3816        3815
         4        3765        3766        3817        3816
         4        3766        3767        3818        3817
         4        3767        3768        3819        3818
         4        3768        3769        3820        3819
         4        3769        3770        3821        3820
         4        3770        3771        3822        3821
         4        3771        3772        3823        3822
         4        3772        3773        3824        3823
         4        3774        3775        3826        3825
         4        3775        3776        3827        3826
         4        3776        3777        3828        3827
         4        3777        3778        3829        3828
         4        3778        3779        3830        3829
         4        3779        3780        3831        3830
         4        3780        3781        3832        3831
         4        3781        3782        3833        3832
         4        3782        3783        3834        3833
         4        3783        3784        3835        3834
         4        3784        3785        3836        3835
         4        3785        3786        3837        3836
         4        3786        3787        3838        3837
         4        3787        3788        3839        3838
         4        3788        3789        3840        3839
         4        3789        3790        3841        3840
         4        3790        3791        3842        3841
         4        3791        3792        3843        3842
         4        3792        3793        3844        3843
         4        3793        3794        3845        3844
         4        3794        3795        3846        3845
         4        3795        3796        3847        3846
         4        3796        3797        3848        3847
         4        3797        3798        3849        3848
         4        3798        3799        3850        3849
         4        3799        3800        3851        3850
         4        3800        3801        3852        3851
         4        3801        3802        3853        3852
         4        3802        3803        3854        3853
         4        3803        3804        3855        3854
         4        3804        3805        3856        3855
         4        3805        3806        3857        3856
         4        3806        3807        3858        3857
         4        3807        3808        3859        3858
         4        3808        3809        3860        3859
         4        3809        3810        3861        3860
         4        3810        3811        3862        3861
         4        3811        3812        3863        3862
         4        3812        3813        3864        3863
         4        3813        3814        3865        3864
         4        3814        3815        3866        3865
         4        3815        3816        3867        3866
         4        3816        3817        3868        3867
         4        3817        3818        3869        3868
         4        3818        3819        3870        3869
         4        3819        3820        3871        3870
         4        3820        3821        3872        3871
         4        3821        3822        3873        3872
         4        3822        3823        3874        3873
         4        3823        3824        3875        3874
         4        3825        3826        3877        3876
         4        3826        3827        3878        3877
         4        3827        3828        3879        3878
         4        3828        3829        3880        3879
         4        3829        3830        3881        3880
         4        3830        3831        3882        3881
         4        3831        3832        3883        3882
         4        3832        3833        3884        3883
         4        3833        3834        3885        3884
         4        3834        3835        3886        3885
         4        3835        3836        3887        3886
         4        3836        3837        3888        3887
         4        3837        3838        3889        3888
         4        3838        3839        3890        3889
         4        3839        3840        3891        3890
         4        3840        3841        3892        3891
         4        3841        3842        3893        3892
         4        3842        3843        3894        3893
         4        3843        3844        3895        3894
         4        3844        3845        3896        3895
         4        3845        3846        3897        3896
         4        3846        3847        3898        3897
         4        3847        3848        3899        3898
         4        3848        3849        3900        3899
         4        3849        3850        3901        3900
         4        3850        3851        3902        3901
         4        3851        3852        3903        3902
         4        3852        3853        3904        3903
         4        3853        3854        3905        3904
         4        3854        3855        3906        3905
         4        3855        3856        3907        3906
         4        3856        3857        3908        3907
         4        3857        3858        3909        3908
         4        3858        3859        3910        3909
         4        3859        3860        3911        3910
         4        3860        3861        3912        3911
         4        3861        3862        3913        3912
         4        3862        3863        3914        3913
         4        3863        3864        3915        3914
         4        3864        3865        3916        3915
         4        3865        3866        3917        3916
         4        3866        3867        3918        3917
         4        3867        3868        3919        3918
         4        3868        3869        3920        3919
         4        3869        3870        3921        3920
         4        3870        3871        3922        3921
         4        3871        3872        3923        3922
         4        3872        3873        3924        3923
         4        3873        3874        3925        3924
         4        3874        3875        3926        3925
         4        3876        3877        3928        3927
         4        3877        3878        3929        3928
         4        3878        3879        3930        3929
         4        3879        3880        3931        3930
         4        3880        3881        3932        3931
         4        3881        3882        3933        3932
         4        3882        3883        3934        3933
         4        3883        3884        3935        3934
         4        3884        3885        3936        3935
         4        3885        3886        3937        3936
         4        3886        3887        3938        3937
         4        3887        3888        3939        3938
         4        3888        3889        3940        3939
         4        3889        3890        3941        3940
         4        3890        3891        3942        3941
         4        3891        3892        3943        3942
         4        3892        3893        3944        3943
         4        3893        3894        3945        3944
         4        3894        3895        3946        3945
         4        3895        3896        3947        3946
         4        3896        3897        3948        3947
         4        3897        3898        3949        3948
         4        3898        3899        3950        3949
         4        3899        3900        3951        3950
         4        3900        3901        3952        3951
         4        3901        3902        3953        3952
         4        3902        3903        3954        3953
         4        3903        3904        3955        3954
         4        3904        3905        3956        3955
         4        3905        3906        3957        3956
         4        3906        3907        3958        3957
         4        3907        3908        3959        3958
         4        3908        3909        3960        3959
         4        3909        3910        3961        3960
         4        3910        3911        3962        3961
         4        3911        3912        3963        3962
         4        3912        3913        3964        3963
         4        3913        3914        3965        3964
         4        3914        3915        3966        3965
         4        3915        3916        3967        3966
         4        3916        3917        3968        3967
         4        3917        3918        3969        3968
         4        3918        3919        3970        3969
         4        3919        3920        3971        3970
         4        3920        3921        3972        3971
         4        3921        3922        3973        3972
         4        3922        3923        3974        3973
         4        3923        3924        3975        3974
         4        3924        3925        3976        3975
         4        3925        3926        3977        3976
         4        3927        3928        3979        3978
         4        3928        3929        3980        3979
         4        3929        3930        3981        3980
         4        3930        3931        3982        3981
         4        3931        3932        3983        3982
         4        3932        3933        3984        3983
         4        3933        3934        3985        3984
         4        3934        3935        3986        3985
         4        3935        3936        3987        3986
         4        3936        3937        3988        3987
         4        3937        3938        3989        3988
         4        3938        3939        3990        3989
         4        3939        3940        3991        3990
         4        3940        3941        3992        3991
         4        3941        3942        3993        3992
         4        3942        3943        3994        3993
         4        3943        3944        3995        3994
         4        3944        3945        3996        3995
         4        3945        3946        3997        3996
         4        3946        3947        3998        3997
         4        3947        3948        3999        3998
         4        3948        3949        4000        3999
         4        3949        3950        4001        4000
         4        3950        3951        4002        4001
         4        3951        3952        4003        4002
         4        3952        3953        4004        4003
         4        3953        3954        4005        4004
         4        3954        3955        4006        4005
         4        3955        3956        4007        4006
         4        3956        3957        4008        4007
         4        3957        3958        4009        4008
         4        3958        3959        4010        4009
         4        3959        3960        4011        4010
         4        3960        3961        4012        4011
         4        3961        3962        4013        4012
         4        3962        3963        4014        4013
         4        3963        3964        4015        4014
         4        3964        3965        4016        4015
         4        3965        3966        4017        4016
         4        3966        3967        4018        4017
         4        3967        3968        4019        4018
         4        3968        3969        4020        4019
         4        3969        3970        4021        4020
         4        3970        3971        4022        4021
         4        3971        3972        4023        4022
         4        3972        3973        4024        4023
         4        3973        3974        4025        4024
         4        3974        3975        4026        4025
         4        3975        3976        4027        4026
         4        3976        3977        4028        4027
         4        3978        3979        4030        4029
         4        3979        3980        4031        4030
         4        3980        3981        4032        4031
         4        3981        3982        4033        4032
         4        3982        3983        4034        4033
         4        3983        3984        4035        4034
         4        3984        3985        4036        4035
         4        3985        3986        4037        4036
         4        3986        3987        4038        4037
         4        3987        3988        4039        4038
         4        3988        3989        4040        4039
         4        3989        3990        4041        4040
         4        3990        3991        4042        4041
         4        3991        3992        4043        4042
         4        3992        3993        4044        4043
         4        3993        3994        4045        4044
         4        3994        3995        4046        4045
         4        3995        3996        4047        4046
         4        3996        3997        4048        4047
         4        3997        3998        4049        4048
         4        3998        3999        4050        4049
         4        3999        4000        4051        4050
         4        4000        4001        4052        4051
         4        4001        4002        4053        4052
         4        4002        4003        4054        4053
         4        4003        4004        4055        4054
         4        4004        4005        4056        4055
         4        4005        4006        4057        4056
         4        4006        4007        4058        4057
         4        4007        4008        4059        4058
         4        4008        4009        4060        4059
         4        4009        4010        4061        4060
         4        4010        4011        4062        4061
         4        4011        4012        4063        4062
         4        4012        4013        4064        4063
         4        4013        4014        4065        4064
         4        4014        4015        4066        4065
         4        4015        4016        4067        4066
         4        4016        4017        4068        4067
         4        4017        4018        4069        4068
         4        4018        4019        4070        4069
         4        4019        4020        4071        4070
         4        4020        4021        4072        4071
         4        4021        4022        4073        4072
         4        4022        4023        4074        4073
         4        4023        4024        4075        4074
         4        4024        4025        4076        4075
         4        4025        4026        4077        4076
         4        4026        4027        4078        4077
         4        4027        4028        4079        4078
         4        4029        4030        4081        4080
         4        4030        4031        4082        4081
         4        4031        4032        4083        4082
         4        4032        4033        4084        4083
         4        4033        4034        4085        4084
         4        4034        4035        4086        4085
         4        4035        4036        4087        4086
         4        4036        4037        4088        4087
         4        4037        4038        4089        4088
         4        4038        4039        4090        4089
         4        4039        4040        4091        4090
         4        4040        4041        4092        4091
         4        4041        4042        4093        4092
         4        4042        4043        4094        4093
         4        4043        4044        4095        4094
         4        4044        4045        4096        4095
         4        4045        4046        4097        4096
         4        4046        4047        4098        4097
         4        4047        4048        4099        4098
         4        4048        4049        4100        4099
         4        4049        4050        4101        4100
         4        4050        4051        4102        4101
         4        4051        4052        4103        4102
         4        4052        4053        4104        4103
         4        4053        4054        4105        4104
         4        4054        4055        4106        4105
         4        4055        4056        4107        4106
         4        4056        4057        4108        4107
         4        4057        4058        4109        4108
         4        4058        4059        4110        4109
         4        4059        4060        4111        4110
         4        4060        4061        4112        4111
         4        4061        4062        4113        4112
         4        4062        4063        4114        4113
         4        4063        4064        4115        4114
         4        4064        4065        4116        4115
         4        4065        4066        4117        4116
         4        4066        4067        4118        4117
         4        4067        4068        4119        4118
         4        4068        4069        4120        4119
         4        4069        4070        4121        4120
         4        4070        4071        4122        4121
         4        4071        4072        4123        4122
         4        4072        4073        4124        4123
         4        4073        4074        4125        4124
         4        4074        4075        4126        4125
         4        4075        4076        4127        4126
         4        4076        4077        4128        4127
         4        4077        4078        4129        4128
         4        4078        4079        4130        4129
         4        4080        4081        4132        4131
         4        4081        4082        4133        4132
         4        4082        4083        4134        4133
         4        4083        4084        4135        4134
         4        4084        4085        4136        4135
         4        4085        4086        4137        4136
         4        4086        4087        4138        4137
         4        4087        4088        4139        4138
         4        4088        4089        4140        4139
         4        4089        4090        4141        4140
         4        4090        4091        4142        4141
         4        4091        4092        4143        4142
         4        4092        4093        4144        4143
         4        4093        4094        4145        4144
         4        4094        4095        4146        4145
         4        4095        4096        4147        4146
         4        4096        4097        4148        4147
         4        4097        4098        4149        4148
         4        4098        4099        4150        4149
         4        4099        4100        4151        4150
         4        4100        4101        4152        4151
         4        4101        4102        4153        4152
         4        4102        4103        4154        4153
         4        4103        4104        4155        4154
         4        4104        4105        4156        4155
         4        4105        4106        4157        4156
         4        4106        4107        4158        4157
         4        4107        4108        4159        4158
         4        4108        4109        4160        4159
         4        4109        4110        4161        4160
         4        4110        4111        4162        4161
         4        4111        4112        4163        4162
         4        4112        4113        4164        4163
         4        4113        4114        4165        4164
         4        4114        4115        4166        4165
         4        4115        4116        4167        4166
         4        4116        4117        4168        4167
         4        4117        4118        4169        4168
         4        4118        4119        4170        4169
         4        4119        4120        4171        4170
         4        4120        4121        4172        4171
         4        4121        4122        4173        4172
         4        4122        4123        4174        4173
         4        4123        4124        4175        4174
         4        4124        4125        4176        4175
         4        4125        4126        4177        4176
         4        4126        4127        4178        4177
         4        4127        4128        4179        4178
         4        4128        4129        4180        4179
         4        4129        4130        4181        4180
         4        4131        4132        4183        4182
         4        4132        4133        4184        4183
         4        4133        4134        4185        4184
         4        4134        4135        4186        4185
         4        4135        4136        4187        4186
         4        4136        4137        4188        4187
         4        4137        4138        4189        4188
         4        4138        4139        4190        4189
         4        4139        4140        4191        4190
         4        4140        4141        4192        4191
         4        4141        4142        4193        4192
         4        4142        4143        4194        4193
         4        4143        4144        4195        4194
         4        4144        4145        4196        4195
         4        4145        4146        4197        4196
         4        4146        4147        4198        4197
         4        4147        4148        4199        4198
         4        4148        4149        4200        4199
         4        4149        4150        4201        4200
         4        4150        4151        4202        4201
         4        4151        4152        4203        4202
         4        4152        4153        4204        4203
         4        4153        4154        4205        4204
         4        4154        4155        4206        4205
         4        4155        4156        4207        4206
         4        4156        4157        4208        4207
         4        4157        4158        4209        4208
         4        4158        4159        4210        4209
         4        4159        4160        4211        4210
         4        4160        4161        4212        4211
         4        4161        4162        4213        4212
         4        4162        4163        4214        4213
         4        4163        4164        4215        4214
         4        4164        4165        4216        4215
         4        4165        4166        4217        4216
         4        4166        4167        4218        4217
         4        4167        4168        4219        4218
         4        4168        4169        4220        4219
         4        4169        4170        4221        4220
         4        4170        4171        4222        4221
         4        4171        4172        4223        4222
         4        4172        4173        4224        4223
         4        4173        4174        4225        4224
         4        4174        4175        4226        4225
         4        4175        4176        4227        4226
         4        4176        4177        4228        4227
         4        4177        4178        4229        4228
         4        4178        4179        4230        4229
         4        4179        4180        4231        4230
         4        4180        4181        4232        4231
         4        4182        4183        4234        4233
         4        4183        4184        4235        4234
         4        4184        4185        4236        4235
         4        4185        4186        4237        4236
         4        4186        4187        4238        4237
         4        4187        4188        4239        4238
         4        4188        4189        4240        4239
         4        4189        4190        4241        4240
         4        4190        4191        4242        4241
         4        4191        4192        4243        4242
         4        4192        4193        4244        4243
         4        4193        4194        4245        4244
         4        4194        4195        4246        4245
         4        4195        4196        4247        4246
         4        4196        4197        4248        4247
         4        4197        4198        4249        4248
         4        4198        4199        4250        4249
         4        4199        4200        4251        4250
         4        4200        4201        4252        4251
         4        4201        4202        4253        4252
         4        4202        4203        4254        4253
         4        4203        4204        4255        4254
         4        4204        4205        4256        4255
         4        4205        4206        4257        4256
         4        4206        4207        4258        4257
         4        4207        4208        4259        4258
         4        4208        4209        4260        4259
         4        4209        4210        4261        4260
         4        4210        4211        4262        4261
         4        4211        4212        4263        4262
         4        4212        4213        4264        4263
         4        4213        4214        4265        4264
         4        4214        4215        4266        4265
         4        4215        4216        4267        4266
         4        4216        4217        4268        4267
         4        4217        4218        4269        4268
         4        4218        4219        4270        4269
         4        4219        4220        4271        4270
         4        4220        4221        4272        4271
         4        4221        4222        4273        4272
         4        4222        4223        4274        4273
         4        4223        4224        4275        4274
         4        4224        4225        4276        4275
         4        4225        4226        4277        4276
         4        4226        4227        4278        4277
         4        4227        4228        4279        4278
         4        4228        4229        4280        4279
         4        4229        4230        4281        4280
         4        4230        4231        4282        4281
         4        4231        4232        4283        4282
         4        4233        4234        4285        4284
         4        4234        4235        4286        4285
         4        4235        4236        4287        4286
         4        4236        4237        4288        4287
         4        4237        4238        4289        4288
         4        4238        4239        4290        4289
         4        4239        4240        4291        4290
         4        4240        4241        4292        4291
         4        4241        4242        4293        4292
         4        4242        4243        4294        4293
         4        4243        4244        4295        4294
         4        4244        4245        4296        4295
         4        4245        4246        4297        4296
         4        4246        4247        4298        4297
         4        4247        4248        4299        4298
         4        4248        4249        4300        4299
         4        4249        4250        4301        4300
         4        4250        4251        4302        4301
         4        4251        4252        4303        4302
         4        4252        4253        4304        4303
         4        4253        4254        4305        4304
         4        4254        4255        4306        4305
         4        4255        4256        4307        4306
         4        4256        4257        4308        4307
         4        4257        4258        4309        4308
         4        4258        4259        4310        4309
         4        4259        4260        4311        4310
         4        4260        4261        4312        4311
         4        4261        4262        4313        4312
         4        4262        4263        4314        4313
         4        4263        4264        4315        4314
         4        4264        4265        4316        4315
         4        4265        4266        4317        4316
         4        4266        4267        4318        4317
         4        4267        4268        4319        4318
         4        4268        4269        4320        4319
         4        4269        4270        4321        4320
         4        4270        4271        4322        4321
         4        4271        4272        4323        4322
         4        4272        4273        4324        4323
         4        4273        4274        4325        4324
         4        4274        4275        4326        4325
         4        4275        4276        4327        4326
         4        4276        4277        4328        4327
         4        4277        4278        4329        4328
         4        4278        4279        4330        4329
         4        4279        4280        4331        4330
         4        4280        4281        4332        4331
         4        4281        4282        4333        4332
         4        4282        4283        4334        4333
         4        4284        4285        4336        4335
         4        4285        4286        4337        4336
         4        4286        4287        4338        4337
         4        4287        4288        4339        4338
         4        4288        4289        4340        4339
         4        4289        4290        4341        4340
         4        4290        4291        4342        4341
         4        4291        4292        4343        4342
         4        4292        4293        4344        4343
         4        4293        4294        4345        4344
         4        4294        4295        4346        4345
         4        4295        4296        4347        4346
         4        4296        4297        4348        4347
         4        4297        4298        4349        4348
         4        4298        4299        4350        4349
         4        4299        4300        4351        4350
         4        4300        4301        4352        4351
         4        4301        4302        4353        4352
         4        4302        4303        4354        4353
         4        4303        4304        4355        4354
         4        4304        4305        4356        4355
         4        4305        4306        4357        4356
         4        4306        4307        4358        4357
         4        4307        4308        4359        4358
         4        4308        4309        4360        4359
         4        4309        4310        4361        4360
         4        4310        4311        4362        4361
         4        4311        4312        4363        4362
         4        4312        4313        4364        4363
         4        4313        4314        4365        4364
         4        4314        4315        4366        4365
         4        4315        4316        4367        4366
         4        4316        4317        4368        4367
         4        4317        4318        4369        4368
         4        4318        4319        4370        4369
         4        4319        4320        4371        4370
         4        4320        4321        4372        4371
         4        4321        4322        4373        4372
         4        4322        4323        4374        4373
         4        4323        4324        4375        4374
         4        4324        4325        4376        4375
         4        4325        4326        4377        4376
         4        4326        4327        4378        4377
         4        4327        4328        4379        4378
         4        4328        4329        4380        4379
         4        4329        4330        4381        4380
         4        4330        4331        4382        4381
         4        4331        4332        4383        4382
         4        4332        4333        4384        4383
         4        4333        4334        4385        4384
         4        4335        4336        4387        4386
         4        4336        4337        4388        4387
         4        4337        4338        4389        4388
         4        4338        4339        4390        4389
         4        4339        4340        4391        4390
         4        4340        4341        4392        4391
         4        4341        4342        4393        4392
         4        4342        4343        4394        4393
         4        4343        4344        4395        4394
         4        4344        4345        4396        4395
         4        4345        4346        4397        4396
         4        4346        4347        4398        4397
         4        4347        4348        4399        4398
         4        4348        4349        4400        4399
         4        4349        4350        4401        4400
         4        4350        4351        4402        4401
         4        4351        4352        4403        4402
         4        4352        4353        4404        4403
         4        4353        4354        4405        4404
         4        4354        4355        4406        4405
         4        4355        4356        4407        4406
         4        4356        4357        4408        4407
         4        4357        4358        4409        4408
         4        4358        4359        4410        4409
         4        4359        4360        4411        4410
         4        4360        4361        4412        4411
         4        4361        4362        4413        4412
         4        4362        4363        4414        4413
         4        4363        4364        4415        4414
         4        4364        4365        4416        4415
         4        4365        4366        4417        4416
         4        4366        4367        4418        4417
         4        4367        4368        4419        4418
         4        4368        4369        4420        4419
         4        4369        4370        4421        4420
         4        4370        4371        4422        4421
         4        4371        4372        4423        4422
         4        4372        4373        4424        4423
         4        4373        4374        4425        4424
         4        4374        4375        4426        4425
         4        4375        4376        4427        4426
         4        4376        4377        4428        4427
         4        4377        4378        4429        4428
         4        4378        4379        4430        4429
         4        4379        4380        4431        4430
         4        4380        4381        4432        4431
         4        4381        4382        4433        4432
         4        4382        4383        4434        4433
         4        4383        4384        4435        4434
         4        4384        4385        4436        4435
         4        4386        4387        4438        4437
         4        4387        4388        4439        4438
         4        4388        4389        4440        4439
         4        4389        4390        4441        4440
         4        4390        4391        4442        4441
         4        4391        4392        4443        4442
         4        4392        4393        4444        4443
         4        4393        4394        4445        4444
         4        4394        4395        4446        4445
         4        4395        4396        4447        4446
         4        4396        4397        4448        4447
         4        4397        4398        4449        4448
         4        4398        4399        4450        4449
         4        4399        4400        4451        4450
         4        4400        4401        4452        4451
         4        4401        4402        4453        4452
         4        4402        4403        4454        4453
         4        4403        4404        4455        4454
         4        4404        4405        4456        4455
         4        4405        4406        4457        4456
         4        4406        4407        4458        4457
         4        4407        4408        4459        4458
         4        4408        4409        4460        4459
         4        4409        4410        4461        4460
         4        4410        4411        4462        4461
         4        4411        4412        4463        4462
         4        4412        4413        4464        4463
         4        4413        4414        4465        4464
         4        4414        4415        4466        4465
         4        4415        4416        4467        4466
         4        4416        4417        4468        4467
         4        4417        4418        4469        4468
         4        4418        4419        4470        4469
         4        4419        4420        4471        4470
         4        4420        4421        4472        4471
         4        4421        4422        4473        4472
         4        4422        4423        4474        4473
         4        4423        4424        4475        4474
         4        4424        4425        4476        4475
         4        4425        4426        4477        4476
         4        4426        4427        4478        4477
         4        4427        4428        4479        4478
         4        4428        4429        4480        4479
         4        4429        4430        4481        4480
         4        4430        4431        4482        4481
         4        4431        4432        4483        4482
         4        4432        4433        4484        4483
         4        4433        4434        4485        4484
         4        4434        4435        4486        4485
         4        4435        4436        4487        4486
         4        4437        4438        4489        4488
         4        4438        4439        4490        4489
         4        4439        4440        4491        4490
         4        4440        4441        4492        4491
         4        4441        4442        4493        4492
         4        4442        4443        4494        4493
         4        4443        4444        4495        4494
         4        4444        4445        4496        4495
         4        4445        4446        4497        4496
         4        4446        4447        4498        4497
         4        4447        4448        4499        4498
         4        4448        4449        4500        4499
         4        4449        4450        4501        4500
         4        4450        4451        4502        4501
         4        4451        4452        4503        4502
         4        4452        4453        4504        4503
         4        4453        4454        4505        4504
         4        4454        4455        4506        4505
         4        4455        4456        4507        4506
         4        4456        4457        4508        4507
         4        4457        4458        4509        4508
         4        4458        4459        4510        4509
         4        4459        4460        4511        4510
         4        4460        4461        4512        4511
         4        4461        4462        4513        4512
         4        4462        4463        4514        4513
         4        4463        4464        4515        4514
         4        4464        4465        4516        4515
         4        4465        4466        4517        4516
         4        4466        4467        4518        4517
         4        4467        4468        4519        4518
         4        4468        4469        4520        4519
         4        4469        4470        4521        4520
         4        4470        4471        4522        4521
         4        4471        4472        4523        4522
         4        4472        4473        4524        4523
         4        4473        4474        4525        4524
         4        4474        4475        4526        4525
         4        4475        4476        4527        4526
         4        4476        4477        4528        4527
         4        4477        4478        4529        4528
         4        4478        4479        4530        4529
         4        4479        4480        4531        4530
         4        4480        4481        4532        4531
         4        4481        4482        4533        4532
         4        4482        4483        4534        4533
         4        4483        4484        4535        4534
         4        4484        4485        4536        4535
         4        4485        4486        4537        4536
         4        4486        4487        4538        4537
         4        4488        4489        4540        4539
         4        4489        4490        4541        4540
         4        4490        4491        4542        4541
         4        4491        4492        4543        4542
         4        4492        4493        4544        4543
         4        4493        4494        4545        4544
         4        4494        4495        4546        4545
         4        4495        4496        4547        4546
         4        4496        4497        4548        4547
         4        4497        4498        4549        4548
         4        4498        4499        4550        4549
         4        4499        4500        4551        4550
         4        4500        4501        4552        4551
         4        4501        4502        4553        4552
         4        4502        4503        4554        4553
         4        4503        4504        4555        4554
         4        4504        4505        4556        4555
         4        4505        4506        4557        4556
         4        4506        4507        4558        4557
         4        4507        4508        4559        4558
         4        4508        4509        4560        4559
         4        4509        4510        4561        4560
         4        4510        4511        4562        4561
         4        4511        4512        4563        4562
         4        4512        4513        4564        4563
         4        4513        4514        4565        4564
         4        4514        4515        4566        4565
         4        4515        4516        4567        4566
         4        4516        4517        4568        4567
         4        4517        4518        4569        4568
         4        4518        4519        4570        4569
         4        4519        4520        4571        4570
         4        4520        4521        4572        4571
         4        4521        4522        4573        4572
         4        4522        4523        4574        4573
         4        4523        4524        4575        4574
         4        4524        4525        4576        4575
         4        4525        4526        4577        4576
         4        4526        4527        4578        4577
         4        4527        4528        4579        4578
         4        4528        4529        4580        4579
         4        4529        4530        4581        4580
         4        4530        4531        4582        4581
         4        4531        4532        4583        4582
         4        4532        4533        4584        4583
         4        4533        4534        4585        4584
         4        4534        4535        4586        4585
         4        4535        4536        4587        4586
         4        4536        4537        4588        4587
         4        4537        4538        4589        4588
         4        4539        4540        4591        4590
         4        4540        4541        4592        4591
         4        4541        4542        4593        4592
         4        4542        4543        4594        4593
         4        4543        4544        4595        4594
         4        4544        4545        4596        4595
         4        4545        4546        4597        4596
         4        4546        4547        4598        4597
         4        4547        4548        4599        4598
         4        4548        4549        4600        4599
         4        4549        4550        4601        4600
         4        4550        4551        4602        4601
         4        4551        4552        4603        4602
         4        4552        4553        4604        4603
         4        4553        4554        4605        4604
         4        4554        4555        4606        4605
         4        4555        4556        4607        4606
         4        4556        4557        4608        4607
         4        4557        4558        4609        4608
         4        4558        4559        4610        4609
         4        4559        4560        4611        4610
         4        4560        4561        4612        4611
         4        4561        4562        4613        4612
         4        4562        4563        4614        4613
         4        4563        4564        4615        4614
         4        4564        4565        4616        4615
         4        4565        4566        4617        4616
         4        4566        4567        4618        4617
         4        4567        4568        4619        4618
         4        4568        4569        4620        4619
         4        4569        4570        4621        4620
         4        4570        4571        4622        4621
         4        4571        4572        4623        4622
         4        4572        4573        4624        4623
         4        4573        4574        4625        4624
         4        4574        4575        4626        4625
         4        4575        4576        4627        4626
         4        4576        4577        4628        4627
         4        4577        4578        4629        4628
         4        4578        4579        4630        4629
         4        4579        4580        4631        4630
         4        4580        4581        4632        4631
         4        4581        4582        4633        4632
         4        4582        4583        4634        4633
         4        4583        4584        4635        4634
         4        4584        4585        4636        4635
         4        4585        4586        4637        4636
         4        4586        4587        4638        4637
         4        4587        4588        4639        4638
         4        4588        4589        4640        4639
         4        4590        4591        4642        4641
         4        4591        4592        4643        4642
         4        4592        4593        4644        4643
         4        4593        4594        4645        4644
         4        4594        4595        4646        4645
         4        4595        4596        4647        4646
         4        4596        4597        4648        4647
         4        4597        4598        4649        4648
         4        4598        4599        4650        4649
         4        4599        4600        4651        4650
         4        4600        4601        4652        4651
         4        4601        4602        4653        4652
         4        4602        4603        4654        4653
         4        4603        4604        4655        4654
         4        4604        4605        4656        4655
         4        4605        4606        4657        4656
         4        4606        4607        4658        4657
         4        4607        4608        4659        4658
         4        4608        4609        4660        4659
         4        4609        4610        4661        4660
         4        4610        4611        4662        4661
         4        4611        4612        4663        4662
         4        4612        4613        4664        4663
         4        4613        4614        4665        4664
         4        4614        4615        4666        4665
         4        4615        4616        4667        4666
         4        4616        4617        4668        4667
         4        4617        4618        4669        4668
         4        4618        4619        4670        4669
         4        4619        4620        4671        4670
         4        4620        4621        4672        4671
         4        4621        4622        4673        4672
         4        4622        4623        4674        4673
         4        4623        4624        4675        4674
         4        4624        4625        4676        4675
         4        4625        4626        4677        4676
         4        4626        4627        4678        4677
         4        4627        4628        4679        4678
         4        4628        4629        4680        4679
         4        4629        4630        4681        4680
         4        4630        4631        4682        4681
         4        4631        4632        4683        4682
         4        4632        4633        4684        4683
         4        4633        4634        4685        4684
         4        4634        4635        4686        4685
         4        4635        4636        4687        4686
         4        4636        4637        4688        4687
         4        4637        4638        4689        4688
         4        4638        4639        4690        4689
         4        4639        4640        4691        4690
         4        4641        4642        4693        4692
         4        4642        4643        4694        4693
         4        4643        4644        4695        4694
         4        4644        4645        4696        4695
         4        4645        4646        4697        4696
         4        4646        4647        4698        4697
         4        4647        4648        4699        4698
         4        4648        4649        4700        4699
         4        4649        4650        4701        4700
         4        4650        4651        4702        4701
         4        4651        4652        4703        4702
         4        4652        4653        4704        4703
         4        4653        4654        4705        4704
         4        4654        4655        4706        4705
         4        4655        4656        4707        4706
         4        4656        4657        4708        4707
         4        4657        4658        4709        4708
         4        4658        4659        4710        4709
         4        4659        4660        4711        4710
         4        4660        4661        4712        4711
         4        4661        4662        4713        4712
         4        4662        4663        4714        4713
         4        4663        4664        4715        4714
         4        4664        4665        4716        4715
         4        4665        4666        4717        4716
         4        4666        4667        4718        4717
         4        4667        4668        4719        4718
         4        4668        4669        4720        4719
         4        4669        4670        4721        4720
         4        4670        4671        4722        4721
         4        4671        4672        4723        4722
         4        4672        4673        4724        4723
         4        4673        4674        4725        4724
         4        4674        4675        4726        4725
         4        4675        4676        4727        4726
         4        4676        4677        4728        4727
         4        4677        4678        4729        4728
         4        4678        4679        4730        4729
         4        4679        4680        4731        4730
         4        4680        4681        4732        4731
         4        4681        4682        4733        4732
         4        4682        4683        4734        4733
         4        4683        4684        4735        4734
         4        4684        4685        4736        4735
         4        4685        4686        4737        4736
         4        4686        4687        4738        4737
         4        4687        4688        4739        4738
         4        4688        4689        4740        4739
         4        4689        4690        4741        4740
         4        4690        4691        4742        4741
         4        4692        4693        4744        4743
         4        4693        4694        4745        4744
         4        4694        4695        4746        4745
         4        4695        4696        4747        4746
         4        4696        4697        4748        4747
         4        4697        4698        4749        4748
         4        4698        4699        4750        4749
         4        4699        4700        4751        4750
         4        4700        4701        4752        4751
         4        4701        4702        4753        4752
         4        4702        4703        4754        4753
         4        4703        4704        4755        4754
         4        4704        4705        4756        4755
         4        4705        4706        4757        4756
         4        4706        4707        4758        4757
         4        4707        4708        4759        4758
         4        4708        4709        4760        4759
         4        4709        4710        4761        4760
         4        4710        4711        4762        4761
         4        4711        4712        4763        4762
         4        4712        4713        4764        4763
         4        4713        4714        4765        4764
         4        4714        4715        4766        4765
         4        4715        4716        4767        4766
         4        4716        4717        4768        4767
         4        4717        4718        4769        4768
         4        4718        4719        4770        4769
         4        4719        4720        4771        4770
         4        4720        4721        4772        4771
         4        4721        4722        4773        4772
         4        4722        4723        4774        4773
         4        4723        4724        4775        4774
         4        4724        4725        4776        4775
         4        4725        4726        4777        4776
         4        4726        4727        4778        4777
         4        4727        4728        4779        4778
         4        4728        4729        4780        4779
         4        4729        4730        4781        4780
         4        4730        4731        4782        4781
         4        4731        4732        4783        4782
         4        4732        4733        4784        4783
         4        4733        4734        4785        4784
         4        4734        4735        4786        4785
         4        4735        4736        4787        4786
         4        4736        4737        4788        4787
         4        4737        4738        4789        4788
         4        4738        4739        4790        4789
         4        4739        4740        4791        4790
         4        4740        4741        4792        4791
         4        4741        4742        4793        4792
         4        4743        4744        4795        4794
         4        4744        4745        4796        4795
         4        4745        4746        4797        4796
         4        4746        4747        4798        4797
         4        4747        4748        4799        4798
         4        4748        4749        4800        4799
         4        4749        4750        4801        4800
         4        4750        4751        4802        4801
         4        4751        4752        4803        4802
         4        4752        4753        4804        4803
         4        4753        4754        4805        4804
         4        4754        4755        4806        4805
         4        4755        4756        4807        4806
         4        4756        4757        4808        4807
         4        4757        4758        4809        4808
         4        4758        4759        4810        4809
         4        4759        4760        4811        4810
         4        4760        4761        4812        4811
         4        4761        4762        4813        4812
         4        4762        4763        4814        4813
         4        4763        4764        4815        4814
         4        4764        4765        4816        4815
         4        4765        4766        4817        4816
         4        4766        4767        4818        4817
         4        4767        4768        4819        4818
         4        4768        4769        4820        4819
         4        4769        4770        4821        4820
         4        4770        4771        4822        4821
         4        4771        4772        4823        4822
         4        4772        4773        4824        4823
         4        4773        4774        4825        4824
         4        4774        4775        4826        4825
         4        4775        4776        4827        4826
         4        4776        4777        4828        4827
         4        4777        4778        4829        4828
         4        4778        4779        4830        4829
         4        4779        4780        4831        4830
         4        4780        4781        4832        4831
         4        4781        4782        4833        4832
         4        4782        4783        4834        4833
         4        4783        4784        4835        4834
         4        4784        4785        4836        4835
         4        4785        4786        4837        4836
         4        4786        4787        4838        4837
         4        4787        4788        4839        4838
         4        4788        4789        4840        4839
         4        4789        4790        4841        4840
         4        4790        4791        4842        4841
         4        4791        4792        4843        4842
         4        4792        4793        4844        4843
         4        4794        4795        4846        4845
         4        4795        4796        4847        4846
         4        4796        4797        4848        4847
         4        4797        4798        4849        4848
         4        4798        4799        4850        4849
         4        4799        4800        4851        4850
         4        4800        4801        4852        4851
         4        4801        4802        4853        4852
         4        4802        4803        4854        4853
         4        4803        4804        4855        4854
         4        4804        4805        4856        4855
         4        4805        4806        4857        4856
         4        4806        4807        4858        4857
         4        4807        4808        4859        4858
         4        4808        4809        4860        4859
         4        4809        4810        4861        4860
         4        4810        4811        4862        4861
         4        4811        4812        4863        4862
         4        4812        4813        4864        4863
         4        4813        4814        4865        4864
         4        4814        4815        4866        4865
         4        4815        4816        4867        4866
         4        4816        4817        4868        4867
         4        4817        4818        4869        4868
         4        4818        4819        4870        4869
         4        4819        4820        4871        4870
         4        4820        4821        4872        4871
         4        4821        4822        4873        4872
         4        4822        4823        4874        4873
         4        4823        4824        4875        4874
         4        4824        4825        4876        4875
         4        4825        4826        4877        4876
         4        4826        4827        4878        4877
         4        4827        4828        4879        4878
         4        4828        4829        4880        4879
         4        4829        4830        4881        4880
         4        4830        4831        4882        4881
         4        4831        4832        4883        4882
         4        4832        4833        4884        4883
         4        4833        4834        4885        4884
         4        4834        4835        4886        4885
         4        4835        4836        4887        4886
         4        4836        4837        4888        4887
         4        4837        4838        4889        4888
         4        4838        4839        4890        4889
         4        4839        4840        4891        4890
         4        4840        4841        4892        4891
         4        4841        4842        4893        4892
         4        4842        4843        4894        4893
         4        4843        4844        4895        4894
         4        4845        4846        4897        4896
         4        4846        4847        4898        4897
         4        4847        4848        4899        4898
         4        4848        4849        4900        4899
         4        4849        4850        4901        4900
         4        4850        4851        4902        4901
         4        4851        4852        4903        4902
         4        4852        4853        4904        4903
         4        4853        4854        4905        4904
         4        4854        4855        4906        4905
         4        4855        4856        4907        4906
         4        4856        4857        4908        4907
         4        4857        4858        4909        4908
         4        4858        4859        4910        4909
         4        4859        4860        4911        4910
         4        4860        4861        4912        4911
         4        4861        4862        4913        4912
         4        4862        4863        4914        4913
         4        4863        4864        4915        4914
         4        4864        4865        4916        4915
         4        4865        4866        4917        4916
         4        4866        4867        4918        4917
         4        4867        4868        4919        4918
         4        4868        4869        4920        4919
         4        4869        4870        4921        4920
         4        4870        4871        4922        4921
         4        4871        4872        4923        4922
         4        4872        4873        4924        4923
         4        4873        4874        4925        4924
         4        4874        4875        4926        4925
         4        4875        4876        4927        4926
         4        4876        4877        4928        4927
         4        4877        4878        4929        4928
         4        4878        4879        4930        4929
         4        4879        4880        4931        4930
         4        4880        4881        4932        4931
         4        4881        4882        4933        4932
         4        4882        4883        4934        4933
         4        4883        4884        4935        4934
         4        4884        4885        4936        4935
         4        4885        4886        4937        4936
         4        4886        4887        4938        4937
         4        4887        4888        4939        4938
         4        4888        4889        4940        4939
         4        4889        4890        4941        4940
         4        4890        4891        4942        4941
         4        4891        4892        4943        4942
         4        4892        4893        4944        4943
         4        4893        4894        4945        4944
         4        4894        4895        4946        4945
         4        4896        4897        4948        4947
         4        4897        4898        4949        4948
         4        4898        4899        4950        4949
         4        4899        4900        4951        4950
         4        4900        4901        4952        4951
         4        4901        4902        4953        4952
         4        4902        4903        4954        4953
         4        4903        4904        4955        4954
         4        4904        4905        4956        4955
         4        4905        4906        4957        4956
         4        4906        4907        4958        4957
         4        4907        4908        4959        4958
         4        4908        4909        4960        4959
         4        4909        4910        4961        4960
         4        4910        4911        4962        4961
         4        4911        4912        4963        4962
         4        4912        4913        4964        4963
         4        4913        4914        4965        4964
         4        4914        4915        4966        4965
         4        4915        4916        4967        4966
         4        4916        4917        4968        4967
         4        4917        4918        4969        4968
         4        4918        4919        4970        4969
         4        4919        4920        4971        4970
         4        4920        4921        4972        4971
         4        4921        4922        4973        4972
         4        4922        4923        4974        4973
         4        4923        4924        4975        4974
         4        4924        4925        4976        4975
         4        4925        4926        4977        4976
         4        4926        4927        4978        4977
         4        4927        4928        4979        4978
         4        4928        4929        4980        4979
         4        4929        4930        4981        4980
         4        4930        4931        4982        4981
         4        4931        4932        4983        4982
         4        4932        4933        4984        4983
         4        4933        4934        4985        4984
         4        4934        4935        4986        4985
         4        4935        4936        4987        4986
         4        4936        4937        4988        4987
         4        4937        4938        4989        4988
         4        4938        4939        4990        4989
         4        4939        4940        4991        4990
         4        4940        4941        4992        4991
         4        4941        4942        4993        4992
         4        4942        4943        4994        4993
         4        4943        4944        4995        4994
         4        4944        4945        4996        4995
         4        4945        4946        4997        4996
         4        4947        4948        4999        4998
         4        4948        4949        5000        4999
         4        4949        4950        5001        5000
         4        4950        4951        5002        5001
         4        4951        4952        5003        5002
         4        4952        4953        5004        5003
         4        4953        4954        5005        5004
         4        4954        4955        5006        5005
         4        4955        4956        5007        5006
         4        4956        4957        5008        5007
         4        4957        4958        5009        5008
         4        4958        4959        5010        5009
         4        4959        4960        5011        5010
         4        4960        4961        5012        5011
         4        4961        4962        5013        5012
         4        4962        4963        5014        5013
         4        4963        4964        5015        5014
         4        4964        4965        5016        5015
         4        4965        4966        5017        5016
         4        4966        4967        5018        5017
         4        4967        4968        5019        5018
         4        4968        4969        5020        5019
         4        4969        4970        5021        5020
         4        4970        4971        5022        5021
         4        4971        4972        5023        5022
         4        4972        4973        5024        5023
         4        4973        4974        5025        5024
         4        4974        4975        5026        5025
         4        4975        4976        5027        5026
         4        4976        4977        5028        5027
         4        4977        4978        5029        5028
         4        4978        4979        5030        5029
         4        4979        4980        5031        5030
         4        4980        4981        5032        5031
         4        4981        4982        5033        5032
         4        4982        4983        5034        5033
         4        4983        4984        5035        5034
         4        4984        4985        5036        5035
         4        4985        4986        5037        5036
         4        4986        4987        5038        5037
         4        4987        4988        5039        5038
         4        4988        4989        5040        5039
         4        4989        4990        5041        5040
         4        4990        4991        5042        5041
         4        4991        4992        5043        5042
         4        4992        4993        5044        5043
         4        4993        4994        5045        5044
         4        4994        4995        5046        5045
         4        4995        4996        5047        5046
         4        4996        4997        5048        5047
         4        4998        4999        5050        5049
         4        4999        5000        5051        5050
         4        5000        5001        5052        5051
         4        5001        5002        5053        5052
         4        5002        5003        5054        5053
         4        5003        5004        5055        5054
         4        5004        5005        5056        5055
         4        5005        5006        5057        5056
         4        5006        5007        5058        5057
         4        5007        5008        5059        5058
         4        5008        5009        5060        5059
         4        5009        5010        5061        5060
         4        5010        5011        5062        5061
         4        5011        5012        5063        5062
         4        5012        5013        5064        5063
         4        5013        5014        5065        5064
         4        5014        5015        5066        5065
         4        5015        5016        5067        5066
         4        5016        5017        5068        5067
         4        5017        5018        5069        5068
         4        5018        5019        5070        5069
         4        5019        5020        5071        5070
         4        5020        5021        5072        5071
         4        5021        5022        5073        5072
         4        5022        5023        5074        5073
         4        5023        5024        5075        5074
         4        5024        5025        5076        5075
         4        5025        5026        5077        5076
         4        5026        5027        5078        5077
         4        5027        5028        5079        5078
         4        5028        5029        5080        5079
         4        5029        5030        5081        5080
         4        5030        5031        5082        5081
         4        5031        5032        5083        5082
         4        5032        5033        5084        5083
         4        5033        5034        5085        5084
         4        5034        5035        5086        5085
         4        5035        5036        5087        5086
         4        5036        5037        5088        5087
         4        5037        5038        5089        5088
         4        5038        5039        5090        5089
         4        5039        5040        5091        5090
         4        5040        5041        5092        5091
         4        5041        5042        5093        5092
         4        5042        5043        5094        5093
         4        5043        5044        5095        5094
         4        5044        5045        5096        5095
         4        5045        5046        5097        5096
         4        5046        5047        5098        5097
         4        5047        5048        5099        5098
         4        5049        5050        5101        5100
         4        5050        5051        5102        5101
         4        5051        5052        5103        5102
         4        5052        5053        5104        5103
         4        5053        5054        5105        5104
         4        5054        5055        5106        5105
         4        5055        5056        5107        5106
         4        5056        5057        5108        5107
         4        5057        5058        5109        5108
         4        5058        5059        5110        5109
         4        5059        5060        5111        5110
         4        5060        5061        5112        5111
         4        5061        5062        5113        5112
         4        5062        5063        5114        5113
         4        5063        5064        5115        5114
         4        5064        5065        5116        5115
         4        5065        5066        5117        5116
         4        5066        5067        5118        5117
         4        5067        5068        5119        5118
         4        5068        5069        5120        5119
         4        5069        5070        5121        5120
         4        5070        5071        5122        5121
         4        5071        5072        5123        5122
         4        5072        5073        5124        5123
         4        5073        5074        5125        5124
         4        5074        5075        5126        5125
         4        5075        5076        5127        5126
         4        5076        5077        5128        5127
         4        5077        5078        5129        5128
         4        5078        5079        5130        5129
         4        5079        5080        5131        5130
         4        5080        5081        5132        5131
         4        5081        5082        5133        5132
         4        5082        5083        5134        5133
         4        5083        5084        5135        5134
         4        5084        5085        5136        5135
         4        5085        5086        5137        5136
         4        5086        5087        5138        5137
         4        5087        5088        5139        5138
         4        5088        5089        5140        5139
         4        5089        5090        5141        5140
         4        5090        5091        5142        5141
         4        5091        5092        5143        5142
         4        5092        5093        5144        5143
         4        5093        5094        5145        5144
         4        5094        5095        5146        5145
         4        5095        5096        5147        5146
         4        5096        5097        5148        5147
         4        5097        5098        5149        5148
         4        5098        5099        5150        5149
CELL_TYPES       5000
9
9
9
9
9
9
9
9
9
9
9
9
9
9
9
9
9
9
9
9
9
9
9
9
9
9
9
9
9
9
9
9
9
9
9
9
9
9
9
9
9
9
9
9
9
9
9
9
9
9
9
9
9
9
9
9
9
9
9
9
9
9
9
9
9
9
9
9
9
9
9
9
9
9
9
9
9
9
9
9
9
9
9
9
9
9
9
9
9
9
9
9
9
9
9
9
9
9
9
9
9
9
9
9
9
9
9
9
9
9
9
9
9
9
9
9
9
9
9
9
9
9
9
9
9
9
9
9
9
9
9
9
9
9
9
9
9
9
9
9
9
9
9
9
9
9
9
9
9
9
9
9
9
9
9
9
9
9
9
9
9
9
9
9
9
9
9
9
9
9
9
9
9
9
9
9
9
9
9
9
9
9
9
9
9
9
9
9
9
9
9
9
9
9
9
9
9
9
9
9
9
9
9
9
9
9
9
9
9
9
9
9
9
9
9
9
9
9
9
9
9
9
9
9
9
9
9
9
9
9
9
9
9
9
9
9
9
9
9
9
9
9
9
9
9
9
9
9
9
9
9
9
9
9
9
9
9
9
9
9
9
9
9
9
9
9
9
9
9
9
9
9
9
9
9
9
9
9
9
9
9
9
9
9
9
9
9
9
9
9
9
9
9
9
9
9
9
9
9
9
9
9
9
9
9
9
9
9
9
9
9
9
9
9
9
9
9
9
9
9
9
9
9
9
9
9
9
9
9
9
9
9
9
9
9
9
9
9
9
9
9
9
9
9
9
9
9
9
9
9
9
9
9
9
9
9
9
9
9
9
9
9
9
9
9
9
9
9
9
9
9
9
9
9
9
9
9
9
9
9
9
9
9
9
9
9
9
9
9
9
9
9
9
9
9
9
9
9
9
9
9
9
9
9
9
9
9
9
9
9
9
9
9
9
9
9
9
9
9
9
9
9
9
9
9
9
9
9
9
9
9
9
9
9
9
9
9
9
9
9
9
9
9
9
9
9
9
9
9
9
9
9
9
9
9
9
9
9
9
9
9
9
9
9
9
9
9
9
9
9
9
9
9
9
9
9
9
9
9
9
9
9
9
9
9
9
9
9
9
9
9
9
9
9
9
9
9
9
9
9
9
9
9
9
9
9
9
9
9
9
9
9
9
9
9
9
9
9
9
9
9
9
9
9
9
9
9
9
9
9
9
9
9
9
9
9
9
9
9
9
9
9
9
9
9
9
9
9
9
9
9
9
9
9
9
9
9
9
9
9
9
9
9
9
9
9
9
9
9
9
9
9
9
9
9
9
9
9
9
9
9
9
9
9
9
9
9
9
9
9
9
9
9
9
9
9
9
9
9
9
9
9
9
9
9
9
9
9
9
9
9
9
9
9
9
9
9
9
9
9
9
9
9
9
9
9
9
9
9
9
9
9
9
9
9
9
9
9
9
9
9
9
9
9
9
9
9
9
9
9
9
9
9
9
9
9
9
9
9
9
9
9
9
9
9
9
9
9
9
9
9
9
9
9
9
9
9
9
9
9
9
9
9
9
9
9
9
9
9
9
9
9
9
9
9
9
9
9
9
9
9
9
9
9
9
9
9
9
9
9
9
9
9
9
9
9
9
9
9
9
9
9
9
9
9
9
9
9
9
9
9
9
9
9
9
9
9
9
9
9
9
9
9
9
9
9
9
9
9
9
9
9
9
9
9
9
9
9
9
9
9
9
9
9
9
9
9
9
9
9
9
9
9
9
9
9
9
9
9
9
9
9
9
9
9
9
9
9
9
9
9
9
9
9
9
9
9
9
9
9
9
9
9
9
9
9
9
9
9
9
9
9
9
9
9
9
9
9
9
9
9
9
9
9
9
9
9
9
9
9
9
9
9
9
9
9
9
9
9
9
9
9
9
9
9
9
9
9
9
9
9
9
9
9
9
9
9
9
9
9
9
9
9
9
9
9
9
9
9
9
9
9
9
9
9
9
9
9
9
9
9
9
9
9
9
9
9
9
9
9
9
9
9
9
9
9
9
9
9
9
9
9
9
9
9
9
9
9
9
9
9
9
9
9
9
9
9
9
9
9
9
9
9
9
9
9
9
9
9
9
9
9
9
9
9
9
9
9
9
9
9
9
9
9
9
9
9
9
9
9
9
9
9
9
9
9
9
9
9
9
9
9
9
9
9
9
9
9
9
9
9
9
9
9
9
9
9
9
9
9
9
9
9
9
9
9
9
9
9
9
9
9
9
9
9
9
9
9
9
9
9
9
9
9
9
9
9
9
9
9
9
9
9
9
9
9
9
9
9
9
9
9
9
9
9
9
9
9
9
9
9
9
9
9
9
9
9
9
9
9
9
9
9
9
9
9
9
9
9
9
9
9
9
9
9
9
9
9
9
9
9
9
9
9
9
9
9
9
9
9
9
9
9
9
9
9
9
9
9
9
9
9
9
9
9
9
9
9
9
9
9
9
9
9
9
9
9
9
9
9
9
9
9
9
9
9
9
9
9
9
9
9
9
9
9
9
9
9
9
9
9
9
9
9
9
9
9
9
9
9
9
9
9
9
9
9
9
9
9
9
9
9
9
9
9
9
9
9
9
9
9
9
9
9
9
9
9
9
9
9
9
9
9
9
9
9
9
9
9
9
9
9
9
9
9
9
9
9
9
9
9
9
9
9
9
9
9
9
9
9
9
9
9
9
9
9
9
9
9
9
9
9
9
9
9
9
9
9
9
9
9
9
9
9
9
9
9
9
9
9
9
9
9
9
9
9
9
9
9
9
9
9
9
9
9
9
9
9
9
9
9
9
9
9
9
9
9
9
9
9
9
9
9
9
9
9
9
9
9
9
9
9
9
9
9
9
9
9
9
9
9
9
9
9
9
9
9
9
9
9
9
9
9
9
9
9
9
9
9
9
9
9
9
9
9
9
9
9
9
9
9
9
9
9
9
9
9
9
9
9
9
9
9
9
9
9
9
9
9
9
9
9
9
9
9
9
9
9
9
9
9
9
9
9
9
9
9
9
9
9
9
9
9
9
9
9
9
9
9
9
9
9
9
9
9
9
9
9
9
9
9
9
9
9
9
9
9
9
9
9
9
9
9
9
9
9
9
9
9
9
9
9
9
9
9
9
9
9
9
9
9
9
9
9
9
9
9
9
9
9
9
9
9
9
9
9
9
9
9
9
9
9
9
9
9
9
9
9
9
9
9
9
9
9
9
9
9
9
9
9
9
9
9
9
9
9
9
9
9
9
9
9
9
9
9
9
9
9
9
9
9
9
9
9
9
9
9
9
9
9
9
9
9
9
9
9
9
9
9
9
9
9
9
9
9
9
9
9
9
9
9
9
9
9
9
9
9
9
9
9
9
9
9
9
9
9
9
9
9
9
9
9
9
9
9
9
9
9
9
9
9
9
9
9
9
9
9
9
9
9
9
9
9
9
9
9
9
9
9
9
9
9
9
9
9
9
9
9
9
9
9
9
9
9
9
9
9
9
9
9
9
9
9
9
9
9
9
9
9
9
9
9
9
9
9
9
9
9
9
9
9
9
9
9
9
9
9
9
9
9
9
9
9
9
9
9
9
9
9
9
9
9
9
9
9
9
9
9
9
9
9
9
9
9
9
9
9
9
9
9
9
9
9
9
9
9
9
9
9
9
9
9
9
9
9
9
9
9
9
9
9
9
9
9
9
9
9
9
9
9
9
9
9
9
9
9
9
9
9
9
9
9
9
9
9
9
9
9
9
9
9
9
9
9
9
9
9
9
9
9
9
9
9
9
9
9
9
9
9
9
9
9
9
9
9
9
9
9
9
9
9
9
9
9
9
9
9
9
9
9
9
9
9
9
9
9
9
9
9
9
9
9
9
9
9
9
9
9
9
9
9
9
9
9
9
9
9
9
9
9
9
9
9
9
9
9
9
9
9
9
9
9
9
9
9
9
9
9
9
9
9
9
9
9
9
9
9
9
9
9
9
9
9
9
9
9
9
9
9
9
9
9
9
9
9
9
9
9
9
9
9
9
9
9
9
9
9
9
9
9
9
9
9
9
9
9
9
9
9
9
9
9
9
9
9
9
9
9
9
9
9
9
9
9
9
9
9
9
9
9
9
9
9
9
9
9
9
9
9
9
9
9
9
9
9
9
9
9
9
9
9
9
9
9
9
9
9
9
9
9
9
9
9
9
9
9
9
9
9
9
9
9
9
9
9
9
9
9
9
9
9
9
9
9
9
9
9
9
9
9
9
9
9
9
9
9
9
9
9
9
9
9
9
9
9
9
9
9
9
9
9
9
9
9
9
9
9
9
9
9
9
9
9
9
9
9
9
9
9
9
9
9
9
9
9
9
9
9
9
9
9
9
9
9
9
9
9
9
9
9
9
9
9
9
9
9
9
9
9
9
9
9
9
9
9
9
9
9
9
9
9
9
9
9
9
9
9
9
9
9
9
9
9
9
9
9
9
9
9
9
9
9
9
9
9
9
9
9
9
9
9
9
9
9
9
9
9
9
9
9
9
9
9
9
9
9
9
9
9
9
9
9
9
9
9
9
9
9
9
9
9
9
9
9
9
9
9
9
9
9
9
9
9
9
9
9
9
9
9
9
9
9
9
9
9
9
9
9
9
9
9
9
9
9
9
9
9
9
9
9
9
9
9
9
9
9
9
9
9
9
9
9
9
9
9
9
9
9
9
9
9
9
9
9
9
9
9
9
9
9
9
9
9
9
9
9
9
9
9
9
9
9
9
9
9
9
9
9
9
9
9
9
9
9
9
9
9
9
9
9
9
9
9
9
9
9
9
9
9
9
9
9
9
9
9
9
9
9
9
9
9
9
9
9
9
9
9
9
9
9
9
9
9
9
9
9
9
9
9
9
9
9
9
9
9
9
9
9
9
9
9
9
9
9
9
9
9
9
9
9
9
9
9
9
9
9
9
9
9
9
9
9
9
9
9
9
9
9
9
9
9
9
9
9
9
9
9
9
9
9
9
9
9
9
9
9
9
9
9
9
9
9
9
9
9
9
9
9
9
9
9
9
9
9
9
9
9
9
9
9
9
9
9
9
9
9
9
9
9
9
9
9
9
9
9
9
9
9
9
9
9
9
9
9
9
9
9
9
9
9
9
9
9
9
9
9
9
9
9
9
9
9
9
9
9
9
9
9
9
9
9
9
9
9
9
9
9
9
9
9
9
9
9
9
9
9
9
9
9
9
9
9
9
9
9
9
9
9
9
9
9
9
9
9
9
9
9
9
9
9
9
9
9
9
9
9
9
9
9
9
9
9
9
9
9
9
9
9
9
9
9
9
9
9
9
9
9
9
9
9
9
9
9
9
9
9
9
9
9
9
9
9
9
9
9
9
9
9
9
9
9
9
9
9
9
9
9
9
9
9
9
9
9
9
9
9
9
9
9
9
9
9
9
9
9
9
9
9
9
9
9
9
9
9
9
9
9
9
9
9
9
9
9
9
9
9
9
9
9
9
9
9
9
9
9
9
9
9
9
9
9
9
9
9
9
9
9
9
9
9
9
9
9
9
9
9
9
9
9
9
9
9
9
9
9
9
9
9
9
9
9
9
9
9
9
9
9
9
9
9
9
9
9
9
9
9
9
9
9
9
9
9
9
9
9
9
9
9
9
9
9
9
9
9
9
9
9
9
9
9
9
9
9
9
9
9
9
9
9
9
9
9
9
9
9
9
9
9
9
9
9
9
9
9
9
9
9
9
9
9
9
9
9
9
9
9
9
9
9
9
9
9
9
9
9
9
9
9
9
9
9
9
9
9
9
9
9
9
9
9
9
9
9
9
9
9
9
9
9
9
9
9
9
9
9
9
9
9
9
9
9
9
9
9
9
9
9
9
9
9
9
9
9
9
9
9
9
9
9
9
9
9
9
9
9
9
9
9
9
9
9
9
9
9
9
9
9
9
9
9
9
9
9
9
9
9
9
9
9
9
9
9
9
9
9
9
9
9
9
9
9
9
9
9
9
9
9
9
9
9
9
9
9
9
9
9
9
9
9
9
9
9
9
9
9
9
9
9
9
9
9
9
9
9
9
9
9
9
9
9
9
9
9
9
9
9
9
9
9
9
9
9
9
9
9
9
9
9
9
9
9
9
9
9
9
9
9
9
9
9
9
9
9
9
9
9
9
9
9
9
9
9
9
9
9
9
9
9
9
9
9
9
9
9
9
9
9
9
9
9
9
9
9
9
9
9
9
9
9
9
9
9
9
9
9
9
9
9
9
9
9
9
9
9
9
9
9
9
9
9
9
9
9
9
9
9
9
9
9
9
9
9
9
9
9
9
9
9
9
9
9
9
9
9
9
9
9
9
9
9
9
9
9
9
9
9
9
9
9
9
9
9
9
9
9
9
9
9
9
9
9
9
9
9
9
9
9
9
9
9
9
9
9
9
9
9
9
9
9
9
9
9
9
9
9
9
9
9
9
9
9
9
9
9
9
9
9
9
9
9
9
9
9
9
9
9
9
9
9
9
9
9
9
9
9
9
9
9
9
9
9
9
9
9
9
9
9
9
9
9
9
9
9
9
9
9
9
9
9
9
9
9
9
9
9
9
9
9
9
9
9
9
9
9
9
9
9
9
9
9
9
9
9
9
9
9
9
9
9
9
9
9
9
9
9
9
9
9
9
9
9
9
9
9
9
9
9
9
9
9
9
9
9
9
9
9
9
9
9
9
9
9
9
9
9
9
9
9
9
9
9
9
9
9
9
9
9
9
9
9
9
9
9
9
9
9
9
9
9
9
9
9
9
9
9
9
9
9
9
9
9
9
9
9
9
9
9
9
9
9
9
9
9
9
9
9
9
9
9
9
9
9
9
9
9
9
9
9
9
9
9
9
9
9
9
9
9
9
9
9
9
9
9
9
9
9
9
9
9
9
9
9
9
9
9
9
9
9
9
9
9
9
9
9
9
9
9
9
9
9
9
9
9
9
9
9
9
9
9
9
9
9
9
9
9
9
9
9
9
9
9
9
9
9
9
9
9
9
9
9
9
9
9
9
9
9
9
9
9
9
9
9
9
9
9
9
9
9
9
9
9
9
9
9
9
9
9
9
9
9
9
9
9
9
9
9
9
9
9
9
9
9
9
9
9
9
9
9
9
9
9
9
9
9
9
9
9
9
9
9
9
9
9
9
9
9
9
9
9
9
9
9
9
9
9
9
9
9
9
9
9
9
9
9
9
9
9
9
9
9
9
9
9
9
9
9
9
9
9
9
9
9
9
9
9
9
9
9
9
9
9
9
9
9
9
9
9
9
9
9
9
9
9
9
9
9
9
9
9
9
9
9
9
9
9
9
9
9
9
9
9
9
9
9
9
9
9
9
9
9
9
9
9
9
9
9
9
9
9
9
9
9
9
9
9
9
9
9
9
9
9
9
9
9
9
9
9
9
9
9
9
9
9
9
9
9
9
9
9
9
9
9
9
9
9
9
9
9
9
9
9
9
9
9
9
9
9
9
9
9
9
9
9
9
9
9
9
9
9
9
9
9
9
9
9
9
9
9
9
9
9
9
9
9
9
9
9
9
9
9
9
9
9
9
9
9
9
9
9
9
9
9
9
9
9
9
9
9
9
9
9
9
9
9
9
9
9
9
9
9
9
9
9
9
9
9
9
9
9
9
9
9
9
9
9
9
9
9
9
9
9
9
9
9
9
9
9
9
9
9
9
9
9
9
9
9
9
9
9
9
9
9
9
9
9
9
9
9
9
9
9
9
9
9
9
9
9
9
9
9
9
9
9
9
9
9
9
9
9
9
9
9
9
9
9
9
9
9
9
9
9
9
9
9
9
9
9
9
9
9
9
9
9
9
9
9
9
9
9
9
9
9
9
9
9
9
9
9
9
9
9
9
9
9
9
9
9
9
9
9
9
9
9
9
9
9
9
9
9
9
9
9
9
9
9
9
9
9
9
9
9
9
9
9
9
9
9
9
9
9
9
9
9
9
9
9
9
9
9
9
9
9
9
9
9
9
9
9
9
9
9
9
9
9
9
9
9
9
9
9
9
9
9
9
9
9
9
9
9
9
9
9
9
9
9
9
9
9
9
9
9
9
9
9
9
9
9
9
9
9
9
9
9
9
9
9
9
9
9
9
9
9
9
9
9
9
9
9
9
9
9
9
9
9
9
9
9
9
9
9
9
9
9
9
9
9
9
9
9
9
9
9
9
9
9
9
9
9
9
9
9
9
9
9
9
9
9
9
9
9
9
9
9
9
9
9
9
9
9
9
9
9
9
9
9
9
9
9
9
9
9
9
9
9
9
9
9
9
9
9
9
9
9
9
9
9
9
9
9
9
9
9
9
9
9
9
9
9
9
9
9
9
9
9
9
9
9
9
9
9
9
9
9
9
9
9
9
9
9
9
9
9
9
9
9
9
9
9
9
9
9
9
9
9
9
9
9
9
9
9
9
9
9
9
9
9
9
9
9
9
9
9
9
9
9
9
9
9
9
9
9
9
9
9
9
9
9
9
9
9
9
9
9
9
9
9
9
9
9
9
9
9
9
9
9
9
9
9
9
9
9
9
9
9
9
9
9
9
9
9
9
9
9
9
9
9
9
9
9
9
9
9
9
9
9
9
9
9
9
9
9
9
9
9
9
9
9
9
9
9
9
9
9
9
9
9
9
9
9
9
9
9
9
9
9
9
9
9
9
9
9
9
9
9
9
9
9
9
9
9
9
9
9
9
9
9
9
9
9
9
9
9
9
9
9
9
9
9
9
9
9
9
9
9
9
9
9
9
9
9
9
9
9
9
9
9
9
9
9
9
9
9
9
9
9
9
9
9
9
9
9
9
9
9
9
9
9
9
9
9
9
9
9
9
9
9
9
9
9
9
9
9
9
9
9
9
9
9
9
9
9
9
9
9
9
9
9
9
9
9
9
9
9
9
9
9
9
9
9
9
9
9
9
9
9
9
9
9
9
9
9
9
9
9
9
9
9
9
9
9
9
9
9
9
9
9
9
9
9
9
9
9
9
9
9
9
9
9
9
9
9
9
9
9
9
9
9
9
9
9
9
9
9
9
9
9
9
9
9
9
9
9
9
9
9
9
9
9
9
9
9
9
9
9
9
9
9
9
9
9
9
9
9
9
9
9
9
9
9
9
9
9
9
9
9
9
9
9
9
9
9
9
9
9
9
9
9
9
9
9
9
9
9
9
9
9
9
9
9
9
9
9
9
9
9
9
9
9
9
9
9
9
9
9
9
9
9
9
9
9
9
9
9
9
9
9
9
9
9
9
9
9
9
9
9
9
9
9
9
9
9
9
9
9
9
9
9
9
9
9
9
9
9
9
9
9
9
9
9
9
9
9
9
9
9
9
9
9
9
9
9
9
9
9
9
9
9
9
9
9
9
9
9
9
9
9
9
9
9
9
9
9
9
9
9
9
9
9
9
9
9
9
9
9
9
9
9
9
9
9
9
9
9
9
9
9
9
9
9
9
9
9
9
9
9
9
9
9
9
9
9
9
9
9
9
9
9
9
9
9
9
9
9
9
9
9
9
9
9
9
9
9
9
9
9
9
9
9
9
9
9
9
9
9
9
9
9
9
9
9
9
9
9
9
9
9
9
9
9
9
9
9
9
9
9
9
9
9
9
9
9
9
9
9
9
9
9
9
9
9
9
9
9
9
9
9
9
9
9
9
9
9
9
9
9
9
9
9
9
9
9
9
9
9
9
9
9
9
9
9
9
9
9
9
9
9
9
9
9
9
9
9
9
9
9
9
9
9
9
9
9
9
9
9
9
9
9
9
9
9
9
9
9
9
9
9
9
9
9
9
9
9
9
9
9
9
9
9
9
9
9
9
9
9
9
9
9
9
9
9
9
9
9
9
9
9
9
9
9
9
9
9
9
9
9
9
9
9
9
9
9
9
9
9
9
9
9
9
9
9
9
9
9
9
9
9
9
9
9
9
9
9
9
9
9
9
9
9
9
9
9
9
9
9
9
9
9
9
9
9
9
9
9
9
9
9
9
9
9
9
9
9
9
9
9
9
9
9
9
9
9
9
9
9
9
9
9
9
9
9
9
9
9
9
9
9
9
9
9
9
9
9
9
9
9
9
9
9
9
9
9
9
9
9
9
9
9
9
9
9
9
9
9
9
9
9
9
9
9
9
9
9
9
9
9
9
9
9
9
9
9
9
9
9
9
9
9
9
9
9
9
9
9
9
9
9
9
9
9
9
9
9
9
9
9
9
9
9
9
9
9
9
9
9
9
9
9
9
9
9
9
9
9
9
9
9
9
9
9
9
9
9
9
9
9
9
9
9
9
9
9
9
9
9
9
9
9
9
9
9
9
9
9
9
9
9
9
9
9
9
9
9
9
9
9
9
9
9
9
9
9
9
9
9
9
9
9
9
9
9
9
9
9
9
9
9
9
9
9
9
9
9
9
9
9
9
9
9
9
9
9
9
9
9
9
9
9
9
9
9
9
9
9
9
9
9
9
9
9
9
9
9
9
9
9
9
9
9
9
9
9
9
9
9
9
9
9
9
9
9
9
9
9
9
9
9
9
9
9
9
9
9
9
9
9
9
9
9
9
9
9
9
9
9
9
9
9
9
9
9
9
9
9
9
9
9
9
9
9
9
9
9
9
9
9
9
9
9
9
9
9
9
9
9
9
9
9
9
9
9
9
9
9
9
9
9
9
9
9
9
9
9
9
9
9
9
9
9
9
9
9
9
9
9
9
9
9
9
9
9
9
9
9
9
9
9
9
9
9
9
9
9
9
9
9
9
9
9
9
9
9
9
9
9
9
9
9
9
9
9
9
9
9
9
9
9
9
9
9
9
9
9
9
9
9
9
9
9
9
9
9
9
9
9
9
9
9
9
9
9
9
9
9
9
9
9
9
9
9
9
9
9
9
9
9
9
9
9
9
9
9
9
9
9
9
9
9
9
9
9
9
9
9
9
9
9
9
9
9
9
9
9
9
9
9
9
9
9
9
9
9
9
9
9
9
9
9
9
9
9
9
9
9
9
9
9
9
9
9
9
9
9
9
9
9
9
9
9
9
9
9
9
9
9
9
9
9
9
9
9
9
9
9
9
9
9
9
9
9
9
9
9
9
9
9
9
9
9
9
9
9
9
9
9
9
9
9
9
9
9
9
9
9
9
9
9
9
9
9
9
9
9
9
9
9
9
9
9
9
9
9
9
9
9
9
9
9
9
9
9
9
9
9
9
9
9
9
9
9
9
9
9
9
9
9
9
9
9
9
9
9
9
9
9
9
9
9
9
9
9
POINT_DATA      5151
SCALARS p double 
LOOKUP_TABLE default
   70000000.0000000     
   70000000.0000000     
   70000000.0000000     
   70000000.0000000     
   70000000.0000000     
   70000000.0000000     
   70000000.0000000     
   70000000.0000000     
   70000000.0000000     
   70000000.0000000     
   70000000.0000000     
   70000000.0000000     
   70000000.0000000     
   70000000.0000000     
   70000000.0000000     
   70000000.0000000     
   70000000.0000000     
   70000000.0000000     
   70000000.0000000     
   70000000.0000000     
   70000000.0000000     
   70000000.0000000     
   70000000.0000000     
   70000000.0000000     
   70000000.0000000     
   70000000.0000000     
   70000000.0000000     
   70000000.0000000     
   70000000.0000000     
   70000000.0000000     
   70000000.0000000     
   70000000.0000000     
   70000000.0000000     
   70000000.0000000     
   70000000.0000000     
   70000000.0000000     
   70000000.0000000     
   70000000.0000000     
   70000000.0000000     
   70000000.0000000     
   70000000.0000000     
   70000000.0000000     
   70000000.0000000     
   70000000.0000000     
   70000000.0000000     
   70000000.0000000     
   70000000.0000000     
   70000000.0000000     
   70000000.0000000     
   70000000.0000000     
   70000000.0000000     
   69157273.3789004     
   69157314.7942645     
   69157425.5662324     
   69157591.1669021     
   69157800.5589289     
   69158045.2065886     
   69158318.4004244     
   69158614.7881255     
   69158930.0428146     
   69159260.6243283     
   69159603.6044859     
   69159956.5371274     
   69160317.3599884     
   69160684.3195668     
   69161055.9128336     
   69161430.8414521     
   69161807.9753998     
   69162186.3237391     
   69162565.0108765     
   69162943.2570745     
   69163320.3622834     
   69163695.6925779     
   69164068.6686484     
   69164438.7559122     
   69164805.4558996     
   69165168.2986345     
   69165526.8357774     
   69165880.6343320     
   69166229.2707423     
   69166572.3252203     
   69166909.3761519     
   69167239.9944272     
   69167563.7375319     
   69167880.1432189     
   69168188.7225489     
   69168488.9520428     
   69168780.2646284     
   69169062.0389691     
   69169333.5866371     
   69169594.1364059     
   69169842.8146718     
   69170078.6206275     
   69170300.3942309     
   69170506.7741479     
   69170696.1415291     
   69170866.5434324     
   69171015.5864995     
   69171140.2864176     
   69171236.8505942     
   69171300.3585718     
   69171324.2844149     
   68351203.7055037     
   68351245.8754005     
   68351367.0571696     
   68351559.1656556     
   68351814.0858177     
   68352124.1360876     
   68352482.2676420     
   68352882.1234437     
   68353318.0255504     
   68353784.9282711     
   68354278.3575035     
   68354794.3469898     
   68355329.3769104     
   68355880.3173030     
   68356444.3772137     
   68357019.0596520     
   68357602.1220068     
   68358191.5414009     
   68358785.4844010     
   68359382.2805099     
   68359980.3989068     
   68360578.4279494     
   68361175.0570090     
   68361769.0602581     
   68362359.2820752     
   68362944.6237715     
   68363524.0313745     
   68364096.4842319     
   68364660.9842150     
   68365216.5453179     
   68365762.1834558     
   68366296.9062661     
   68366819.7027180     
   68367329.5323240     
   68367825.3137379     
   68368305.9125038     
   68368770.1277016     
   68369216.6772108     
   68369644.1812960     
   68370051.1442068     
   68370435.9335030     
   68370796.7568858     
   68371131.6364950     
   68371438.3810062     
   68371714.5566168     
   68371957.4594373     
   68372164.0944923     
   68372331.1714978     
   68372455.1366950     
   68372532.2766582     
   68372558.9601481     
   67578927.2189223     
   67578967.6911710     
   67579084.6176324     
   67579272.1150953     
   67579524.4802794     
   67579836.1482312     
   67580201.7228157     
   67580616.0223111     
   67581074.1180435     
   67581571.3596351     
   67582103.3869272     
   67582666.1309313     
   67583255.8066177     
   67583868.9000806     
   67584502.1521263     
   67585152.5398303     
   67585817.2571765     
   67586493.6955494     
   67587179.4245846     
   67587872.1736954     
   67588569.8144505     
   67589270.3438832     
   67589971.8687429     
   67590672.5906557     
   67591370.7921308     
   67592064.8233308     
   67592753.0895117     
   67593434.0390361     
   67594106.1518576     
   67594767.9283782     
   67595417.8785831     
   67596054.5113626     
   67596676.3239403     
   67597281.7913381     
   67597869.3558259     
   67598437.4163282     
   67598984.3177942     
   67599508.3405877     
   67600007.6900212     
   67600480.4862584     
   67600924.7549367     
   67601338.4190461     
   67601719.2928210     
   67602065.0786765     
   67602373.3684941     
   67602641.6507297     
   67602867.3246071     
   67603047.7214416     
   67603180.1295608     
   67603261.8104556     
   67603289.9736544     
   66838178.9638179     
   66838214.7127475     
   66838319.1688319     
   66838488.3410800     
   66838718.1864952     
   66839004.6641524     
   66839343.7649581     
   66839731.5352182     
   66840164.0981871     
   66840637.6734642     
   66841148.5932913     
   66841693.3150973     
   66842268.4300943     
   66842870.6681110     
   66843496.8990713     
   66844144.1316315     
   66844809.5095064     
   66845490.3059849     
   66846183.9170758     
   66846887.8536592     
   66847599.7329494     
   66848317.2695144     
   66849038.2660430     
   66849760.6040044     
   66850482.2343072     
   66851201.1680376     
   66851915.4673298     
   66852623.2364097     
   66853322.6128391     
   66854011.7589811     
   66854688.8537090     
   66855352.0843794     
   66855999.6391020     
   66856629.6993461     
   66857240.4329433     
   66857829.9875659     
   66858396.4847852     
   66858938.0148475     
   66859452.6323358     
   66859938.3529204     
   66860393.1514299     
   66860814.9614879     
   66861201.6769454     
   66861551.1552747     
   66861861.2229557     
   66862129.6826536     
   66862354.3216996     
   66862532.9211882     
   66862663.2654528     
   66862743.1542671     
   66862770.4287271     
   66126978.4377549     
   66127008.6907251     
   66127097.6398716     
   66127242.6971653     
   66127441.1653691     
   66127690.2601141     
   66127987.1349143     
   66128328.9039455     
   66128712.6620047     
   66129135.5019681     
   66129594.5300210     
   66130086.8787792     
   66130609.7183330     
   66131160.2652419     
   66131735.7895377     
   66132333.6198394     
   66132951.1467257     
   66133585.8245347     
   66134235.1717789     
   66134896.7703656     
   66135568.2638059     
   66136247.3545876     
   66136931.8008706     
   66137619.4126470     
   66138308.0474958     
   66138995.6060431     
   66139680.0272293     
   66140359.2834734     
   66141031.3758131     
   66141694.3290985     
   66142346.1873093     
   66142985.0090647     
   66143608.8633985     
   66144215.8258692     
   66144803.9750835     
   66145371.3897117     
   66145916.1460786     
   66146436.3164162     
   66146929.9678627     
   66147395.1622884     
   66147829.9570157     
   66148232.4064835     
   66148600.5648825     
   66148932.4897593     
   66149226.2465773     
   66149479.9142336     
   66149691.5916100     
   66149859.4053655     
   66149981.5192625     
   66150056.1448068     
   66150081.5500243     
   65443550.9182313     
   65443575.4703081     
   65443648.1268030     
   65443767.3696588     
   65443931.5345415     
   65444138.8308572     
   65444387.3598928     
   65444675.1321303     
   65445000.0835528     
   65445360.0907221     
   65445752.9845237     
   65446176.5625571     
   65446628.6001871     
   65447106.8602794     
   65447609.1016589     
   65448133.0863323     
   65448676.5855310     
   65449237.3846404     
   65449813.2870931     
   65450402.1173109     
   65451001.7227888     
   65451609.9754139     
   65452224.7721177     
   65452844.0349550     
   65453465.7107022     
   65454087.7700654     
   65454708.2065831     
   65455325.0353051     
   65455936.2913260     
   65456540.0282457     
   65457134.3166301     
   65457717.2425379     
   65458286.9061789     
   65458841.4207670     
   65459378.9116255     
   65459897.5156016     
   65460395.3808421     
   65460870.6669765     
   65461321.5457473     
   65461746.2021234     
   65462142.8359200     
   65462509.6639450     
   65462844.9226851     
   65463146.8715388     
   65463413.7966039     
   65463644.0150153     
   65463835.8798088     
   65463987.7852174     
   65464098.1722063     
   65464165.5340414     
   65464188.4224909     
   64786280.3371847     
   64786299.4385097     
   64786356.3388376     
   64786450.3412025     
   64786580.5859063     
   64786746.0662069     
   64786945.6434323     
   64787178.0612662     
   64787441.9592445     
   64787735.8854658     
   64788058.3084909     
   64788407.6284056     
   64788782.1870314     
   64789180.2772822     
   64789600.1516745     
   64790040.0300102     
   64790498.1062564     
   64790972.5546532     
   64791461.5350877     
   64791963.1977768     
   64792475.6873059     
   64792997.1460758     
   64793525.7172109     
   64794059.5469870     
   64794596.7868351     
   64795135.5949807     
   64795674.1377756     
   64796210.5907802     
   64796743.1396528     
   64797269.9808984     
   64797789.3225324     
   64798299.3847050     
   64798798.4003369     
   64799284.6158082     
   64799756.2917417     
   64800211.7039179     
   64800649.1443527     
   64801066.9225688     
   64801463.3670817     
   64801836.8271209     
   64802185.6746004     
   64802508.3063457     
   64802803.1465826     
   64803068.6496831     
   64803303.3031559     
   64803505.6308608     
   64803674.1964159     
   64803807.6067716     
   64803904.5159565     
   64803963.6290388     
   64803983.7061670     
   64153680.6407478     
   64153694.7626202     
   64153737.1748894     
   64153807.8011968     
   64153906.3992623     
   64154032.5734679     
   64154185.7870207     
   64154365.3736864     
   64154570.5490316     
   64154800.4211493     
   64155054.0008500     
   64155330.2113063     
   64155627.8971437     
   64155945.8329696     
   64156282.7313432     
   64156637.2501891     
   64157007.9996638     
   64157393.5484915     
   64157792.4297850     
   64158203.1463751     
   64158624.1756739     
   64159053.9740989     
   64159490.9810899     
   64159933.6227498     
   64160380.3151448     
   64160829.4672976     
   64161279.4839107     
   64161728.7678548     
   64162175.7224580     
   64162618.7536305     
   64163056.2718592     
   64163486.6941036     
   64163908.4456239     
   64164319.9617703     
   64164719.6897574     
   64165106.0904501     
   64165477.6401786     
   64165832.8326018     
   64166170.1806314     
   64166488.2184296     
   64166785.5034842     
   64167060.6187666     
   64167312.1749698     
   64167538.8128213     
   64167739.2054617     
   64167912.0608774     
   64168056.1243713     
   64168170.1810555     
   64168253.0583331     
   64168303.6283070     
   64168320.8100750     
   63544375.4942527     
   63544385.2238070     
   63544414.7882423     
   63544464.5725637     
   63544534.8006403     
   63544625.5453930     
   63544736.7386999     
   63544868.1810052     
   63545019.5506195     
   63545190.4126958     
   63545380.2278616     
   63545588.3604985     
   63545814.0866573     
   63546056.6016050     
   63546315.0269986     
   63546588.4176875     
   63546875.7681440     
   63547176.0185306     
   63547488.0604093     
   63547810.7421042     
   63548142.8737297     
   63548483.2318994     
   63548830.5641309     
   63549183.5929657     
   63549541.0198211     
   63549901.5285966     
   63550263.7890524     
   63550626.4599831     
   63550988.1922062     
   63551347.6313861     
   63551703.4207146     
   63552054.2034650     
   63552398.6254411     
   63552735.3373350     
   63553062.9970116     
   63553380.2717322     
   63553685.8403291     
   63553978.3953425     
   63554256.6451255     
   63554519.3159238     
   63554765.1539334     
   63554992.9273352     
   63555201.4283061     
   63555389.4750012     
   63555555.9135018     
   63555699.6197165     
   63555819.5012260     
   63555914.4990536     
   63555983.5893444     
   63556025.7849451     
   63556040.1368770     
   62957083.1954787     
   62957089.1566640     
   62957107.6502405     
   62957139.3946023     
   62957184.9570602     
   62957244.7619575     
   62957319.0986447     
   62957408.1292883     
   62957511.8964970     
   62957630.3307492     
   62957763.2576112     
   62957910.4047338     
   62958071.4086182     
   62958245.8211443     
   62958433.1158555     
   62958632.6939981     
   62958843.8903105     
   62959065.9785672     
   62959298.1768740     
   62959539.6527234     
   62959789.5278108     
   62960046.8826197     
   62960310.7607847     
   62960580.1732376     
   62960854.1021498     
   62961131.5046779     
   62961411.3165261     
   62961692.4553335     
   62961973.8239002     
   62962254.3132615     
   62962532.8056218     
   62962808.1771589     
   62963079.3007077     
   62963345.0483347     
   62963604.2938085     
   62963855.9149774     
   62964098.7960572     
   62964331.8298358     
   62964553.9197988     
   62964763.9821766     
   62964960.9479164     
   62965143.7645752     
   62965311.3981353     
   62965462.8347354     
   62965597.0823133     
   62965713.1721534     
   62965810.1603300     
   62965887.1290367     
   62965943.1877931     
   62965977.4745112     
   62965989.1564018     
   62390604.9421992     
   62390607.7471892     
   62390616.9314386     
   62390633.4452278     
   62390658.1006874     
   62390691.5782057     
   62390734.4327713     
   62390787.1002387     
   62390849.9035012     
   62390923.0585589     
   62391006.6804684     
   62391100.7891634     
   62391205.3151392     
   62391320.1049899     
   62391444.9267942     
   62391579.4753432     
   62391723.3772062     
   62391876.1956326     
   62392037.4352866     
   62392206.5468160     
   62392382.9312538     
   62392565.9442551     
   62392754.9001717     
   62392949.0759659     
   62393147.7149694     
   62393350.0304888     
   62393555.2092650     
   62393762.4147893     
   62393970.7904824     
   62394179.4627409     
   62394387.5438568     
   62394594.1348152     
   62394798.3279737     
   62394999.2096291     
   62395195.8624754     
   62395387.3679549     
   62395572.8085067     
   62395751.2697144     
   62395921.8423533     
   62396083.6243383     
   62396235.7225731     
   62396377.2546968     
   62396507.3507285     
   62396625.1546053     
   62396729.8256101     
   62396820.5396846     
   62396896.4906219     
   62396956.8911316     
   62397000.9737704     
   62397027.9917306     
   62397037.2194816     
   61843815.4523473     
   61843815.6713463     
   61843817.1987961     
   61843821.1373014     
   61843828.4655629     
   61843840.0433483     
   61843856.6164627     
   61843878.8217031     
   61843907.1917836     
   61843942.1602196     
   61843984.0661587     
   61844033.1591481     
   61844089.6038307     
   61844153.4845589     
   61844224.8099218     
   61844303.5171764     
   61844389.4765798     
   61844482.4956160     
   61844582.3231148     
   61844688.6532586     
   61844801.1294761     
   61844919.3482200     
   61845042.8626290     
   61845171.1860730     
   61845303.7955814     
   61845440.1351557     
   61845579.6189672     
   61845721.6344397     
   61845865.5452208     
   61846010.6940412     
   61846156.4054647     
   61846301.9885302     
   61846446.7392870     
   61846589.9432250     
   61846730.8776006     
   61846868.8136599     
   61847003.0187588     
   61847132.7583805     
   61847257.2980513     
   61847375.9051524     
   61847487.8506281     
   61847592.4105883     
   61847688.8678034     
   61847776.5130889     
   61847854.6465785     
   61847922.5788793     
   61847979.6321087     
   61848025.1408067     
   61848058.4527199     
   61848078.9294527     
   61848085.9469793     
   61315655.2892834     
   61315653.4342489     
   61315648.7964943     
   61315642.5696621     
   61315635.8379082     
   61315629.5796942     
   61315624.6716169     
   61315621.8922638     
   61315621.9260819     
   61315625.3672483     
   61315632.7235329     
   61315644.4201425     
   61315660.8035378     
   61315682.1452154     
   61315708.6454462     
   61315740.4369645     
   61315777.5886004     
   61315820.1088518     
   61315867.9493889     
   61315921.0084883     
   61315979.1343928     
   61316042.1285935     
   61316109.7490305     
   61316181.7132120     
   61316257.7012477     
   61316337.3587963     
   61316420.2999249     
   61316506.1098801     
   61316594.3477692     
   61316684.5491516     
   61316776.2285392     
   61316868.8818056     
   61316961.9885036     
   61317055.0140916     
   61317147.4120660     
   61317238.6260017     
   61317328.0914987     
   61317415.2380338     
   61317499.4907176     
   61317580.2719545     
   61317657.0030053     
   61317729.1054503     
   61317796.0025516     
   61317857.1205131     
   61317911.8896348     
   61317959.7453607     
   61318000.1292175     
   61318032.4896412     
   61318056.2826883     
   61318070.9726319     
   61318076.0324360     
   60805124.4587206     
   60805120.9766058     
   60805111.4814781     
   60805097.2117079     
   60805079.3100305     
   60805058.8263823     
   60805036.7207979     
   60805013.8663589     
   60804991.0521830     
   60804968.9864431     
   60804948.2994078     
   60804929.5464926     
   60804913.2113160     
   60804899.7087496     
   60804889.3879575     
   60804882.5354167     
   60804879.3779129     
   60804880.0855052     
   60804884.7744551     
   60804893.5101148     
   60804906.3097700     
   60804923.1454327     
   60804943.9465825     
   60804968.6028496     
   60804996.9666396     
   60805028.8556959     
   60805064.0555973     
   60805102.3221886     
   60805143.3839433     
   60805186.9442540     
   60805232.6836523     
   60805280.2619533     
   60805329.3203256     
   60805379.4832838     
   60805430.3606040     
   60805481.5491585     
   60805532.6346713     
   60805583.1933903     
   60805632.7936773     
   60805680.9975130     
   60805727.3619159     
   60805771.4402746     
   60805812.7835905     
   60805850.9416314     
   60805885.4639927     
   60805915.9010661     
   60805941.8049137     
   60805962.7300459     
   60805978.2341027     
   60805987.8784352     
   60805991.2285885     
   60311276.9713341     
   60311272.2437342     
   60311259.0119726     
   60311238.5249303     
   60311211.9486880     
   60311180.3686001     
   60311144.7914431     
   60311106.1476298     
   60311065.2934779     
   60311023.0135274     
   60310980.0228955     
   60310936.9696621     
   60310894.4372791     
   60310852.9469951     
   60310812.9602892     
   60310774.8813073     
   60310739.0592961     
   60310705.7910265     
   60310675.3232043     
   60310647.8548607     
   60310623.5397192     
   60310602.4885346     
   60310584.7713993     
   60310570.4200143     
   60310559.4299205     
   60310551.7626872     
   60310547.3480559     
   60310546.0860342     
   60310547.8489409     
   60310552.4833956     
   60310559.8122543     
   60310569.6364869     
   60310581.7369947     
   60310595.8763671     
   60310611.8005749     
   60310629.2405983     
   60310647.9139898     
   60310667.5263674     
   60310687.7728405     
   60310708.3393637     
   60310728.9040197     
   60310749.1382281     
   60310768.7078810     
   60310787.2744021     
   60310804.4957304     
   60310820.0272256     
   60310833.5224962     
   60310844.6341474     
   60310853.0144504     
   60310858.3159312     
   60310860.1918786     
   59833216.1503970     
   59833210.4971874     
   59833194.4714232     
   59833169.3078674     
   59833136.1700652     
   59833096.1518218     
   59833050.2787604     
   59832999.5099500     
   59832944.7395968     
   59832886.7987912     
   59832826.4573029     
   59832764.4254177     
   59832701.3558088     
   59832637.8454368     
   59832574.4374718     
   59832511.6232324     
   59832449.8441352     
   59832389.4936506     
   59832330.9192593     
   59832274.4244048     
   59832220.2704378     
   59832168.6785479     
   59832119.8316791     
   59832073.8764247     
   59832030.9248987     
   59831991.0565801     
   59831954.3201268     
   59831920.7351572     
   59831890.2939950     
   59831862.9633759     
   59831838.6861141     
   59831817.3827245     
   59831798.9530012     
   59831783.2775472     
   59831770.2192569     
   59831759.6247456     
   59831751.3257287     
   59831745.1403457     
   59831740.8744295     
   59831738.3227186     
   59831737.2700122     
   59831737.4922653     
   59831738.7576257     
   59831740.8274085     
   59831743.4570105     
   59831746.3967617     
   59831749.3927148     
   59831752.1873716     
   59831754.5203465     
   59831756.1289664     
   59831756.7488082     
   59370090.5228466     
   59370084.2080691     
   59370066.1688623     
   59370037.6087070     
   59369999.6701118     
   59369953.4356345     
   59369899.9289811     
   59369840.1161759     
   59369774.9067961     
   59369705.1552655     
   59369631.6621995     
   59369555.1757974     
   59369476.3932751     
   59369395.9623336     
   59369314.4826564     
   59369232.5074338     
   59369150.5449053     
   59369069.0599185     
   59368988.4754990     
   59368909.1744268     
   59368831.5008154     
   59368755.7616890     
   59368682.2285556     
   59368611.1389717     
   59368542.6980941     
   59368477.0802179     
   59368414.4302958     
   59368354.8654368     
   59368298.4763815     
   59368245.3289515     
   59368195.4654700     
   59368148.9061524     
   59368105.6504635     
   59368065.6784408     
   59368028.9519809     
   59367995.4160881     
   59367965.0000830     
   59367937.6187695     
   59367913.1735611     
   59367891.5535614     
   59367872.6366015     
   59367856.2902310     
   59367842.3726631     
   59367830.7336717     
   59367821.2154422     
   59367813.6533730     
   59367807.8768296     
   59367803.7098495     
   59367800.9717994     
   59367799.4779839     
   59367799.0402064     
   58921090.1745216     
   58921083.4132918     
   58921063.9985198     
   58921033.0909380     
   58920991.7992333     
   58920941.1807242     
   58920882.2421109     
   58920815.9402933     
   58920743.1832518     
   58920664.8309851     
   58920581.6965007     
   58920494.5468533     
   58920404.1042255     
   58920311.0470475     
   58920216.0111499     
   58920119.5909462     
   58920022.3406411     
   58919924.7754593     
   58919827.3728924     
   58919730.5739583     
   58919634.7844722     
   58919540.3763226     
   58919447.6887515     
   58919357.0296343     
   58919268.6767568     
   58919182.8790866     
   58919099.8580355     
   58919019.8087109     
   58918942.9011540     
   58918869.2815613     
   58918799.0734885     
   58918732.3790336     
   58918669.2799984     
   58918609.8390261     
   58918554.1007118     
   58918502.0926882     
   58918453.8266802     
   58918409.2995312     
   58918368.4941975     
   58918331.3807103     
   58918297.9171053     
   58918268.0503174     
   58918241.7170417     
   58918218.8445585     
   58918199.3515231     
   58918183.1487197     
   58918170.1397792     
   58918160.2218612     
   58918153.2862999     
   58918149.2192146     
   58918147.9020850     
   58485443.4810582     
   58485436.4466720     
   58485416.1717767     
   58485383.7671524     
   58485340.2992201     
   58485286.7904651     
   58485224.2199266     
   58485153.5237503     
   58485075.5957992     
   58484991.2883176     
   58484901.4126467     
   58484806.7399855     
   58484708.0021942     
   58484605.8926366     
   58484501.0670564     
   58484394.1444857     
   58484285.7081806     
   58484176.3065814     
   58484066.4542940     
   58483956.6330885     
   58483847.2929127     
   58483738.8529180     
   58483631.7024931     
   58483526.2023044     
   58483422.6853399     
   58483321.4579535     
   58483222.8009083     
   58483126.9704159     
   58483034.1991693     
   58482944.6973686     
   58482858.6537353     
   58482776.2365158     
   58482697.5944712     
   58482622.8578509     
   58482552.1393502     
   58482485.5350495     
   58482423.1253340     
   58482364.9757930     
   58482311.1380967     
   58482261.6508518     
   58482216.5404320     
   58482175.8217860     
   58482139.4992193     
   58482107.5671522     
   58482080.0108514     
   58482056.8071360     
   58482037.9250586     
   58482023.3265591     
   58482012.9670949     
   58482006.7962445     
   58482004.7582870     
   58062414.1483836     
   58062406.9791091     
   58062386.2566259     
   58062353.0376736     
   58062308.3411929     
   58062253.1485659     
   58062188.4039160     
   58062115.0144635     
   58062033.8509344     
   58061945.7480182     
   58061851.5048729     
   58061751.8856721     
   58061647.6201937     
   58061539.4044444     
   58061427.9013189     
   58061313.7412906     
   58061197.5231291     
   58061079.8146452     
   58060961.1534565     
   58060842.0477745     
   58060722.9772084     
   58060604.3935839     
   58060486.7217745     
   58060370.3605427     
   58060255.6833894     
   58060143.0394084     
   58060032.7541452     
   58059925.1304569     
   58059820.4493716     
   58059718.9709462     
   58059620.9351200     
   58059526.5625633     
   58059436.0555179     
   58059349.5986310     
   58059267.3597777     
   58059189.4908739     
   58059116.1286759     
   58059047.3955681     
   58058983.4003363     
   58058924.2389258     
   58058869.9951850     
   58058820.7415912     
   58058776.5399624     
   58058737.4421494     
   58058703.4907127     
   58058674.7195809     
   58058651.1546922     
   58058632.8146182     
   58058619.7111708     
   58058611.8499915     
   58058609.2311254     
   57651298.5131533     
   57651291.3184138     
   57651270.4758647     
   57651236.9863364     
   57651191.8184228     
   57651135.9085937     
   57651070.1613594     
   57650995.4494834     
   57650912.6142431     
   57650822.4657347     
   57650725.7832198     
   57650623.3155114     
   57650515.7813974     
   57650403.8700978     
   57650288.2417552     
   57650169.5279544     
   57650048.3322692     
   57649925.2308354     
   57649800.7729461     
   57649675.4816673     
   57649549.8544736     
   57649424.3638988     
   57649299.4582019     
   57649175.5620459     
   57649053.0771862     
   57648932.3831692     
   57648813.8380371     
   57648697.7790382     
   57648584.5233411     
   57648474.3687516     
   57648367.5944299     
   57648264.4616070     
   57648165.2142999     
   57648070.0800236     
   57647979.2704984     
   57647892.9823525     
   57647811.3978180     
   57647734.6854201     
   57647663.0006584     
   57647596.4866793     
   57647535.2749397     
   57647479.4858606     
   57647429.2294705     
   57647384.6060389     
   57647345.7066988     
   57647312.6140580     
   57647285.4027997     
   57647264.1402731     
   57647248.8870714     
   57647239.6976016     
   57647236.6206422     
   57251423.0653997     
   57251415.9312079     
   57251395.2269077     
   57251361.8970824     
   57251316.8587747     
   57251261.0015127     
   57251195.1873795     
   57251120.2511269     
   57251037.0003289     
   57250946.2155749     
   57250848.6507004     
   57250745.0330524     
   57250636.0637887     
   57250522.4182086     
   57250404.7461130     
   57250283.6721930     
   57250159.7964435     
   57250033.6946019     
   57249905.9186084     
   57249776.9970868     
   57249647.4358450     
   57249517.7183917     
   57249388.3064687     
   57249259.6405980     
   57249132.1406398     
   57249006.2063627     
   57248882.2180221     
   57248760.5369477     
   57248641.5061364     
   57248525.4508517     
   57248412.6792263     
   57248303.4828690     
   57248198.1374715     
   57248096.9034179     
   57248000.0263932     
   57247907.7379911     
   57247820.2563197     
   57247737.7866054     
   57247660.5217923     
   57247588.6431393     
   57247522.3208118     
   57247461.7144689     
   57247406.9738457     
   57247358.2393294     
   57247315.6425310     
   57247279.3068500     
   57247249.3480335     
   57247225.8747300     
   57247208.9890368     
   57247198.7870419     
   57247195.3593607     
   56862142.1643158     
   56862135.1579226     
   56862114.7945559     
   56862081.9632273     
   56862037.5293617     
   56861982.3347675     
   56861917.1976433     
   56861842.9126227     
   56861760.2508535     
   56861669.9601116     
   56861572.7649476     
   56861469.3668640     
   56861360.4445229     
   56861246.6539811     
   56861128.6289530     
   56861006.9810986     
   56860882.3003346     
   56860755.1551695     
   56860626.0930587     
   56860495.6407797     
   56860364.3048253     
   56860232.5718146     
   56860100.9089187     
   56859969.7643011     
   56859839.5675715     
   56859710.7302510     
   56859583.6462486     
   56859458.6923461     
   56859336.2286929     
   56859216.5993074     
   56859100.1325845     
   56858987.1418093     
   56858877.9256748     
   56858772.7688036     
   56858671.9422721     
   56858575.7041372     
   56858484.2999640     
   56858397.9633552     
   56858316.9164794     
   56858241.3706003     
   56858171.5266046     
   56858107.5755291     
   56858049.6990858     
   56857998.0701860     
   56857952.8534622     
   56857914.2057873     
   56857882.2767929     
   56857857.2093843     
   56857839.1402542     
   56857828.2003938     
   56857824.5156026     
   56482835.9243154     
   56482829.0981013     
   56482809.2341278     
   56482777.1671411     
   56482733.7116274     
   56482679.6617485     
   56482615.7913090     
   56482542.8537552     
   56482461.5822048     
   56482372.6895053     
   56482276.8683211     
   56482174.7912478     
   56482067.1109525     
   56481954.4603398     
   56481837.4527407     
   56481716.6821255     
   56481592.7233378     
   56481466.1323492     
   56481337.4465337     
   56481207.1849606     
   56481075.8487048     
   56480943.9211729     
   56480811.8684454     
   56480680.1396323     
   56480549.1672425     
   56480419.3675653     
   56480291.1410631     
   56480164.8727745     
   56480040.9327268     
   56479919.6763573     
   56479801.4449424     
   56479686.5660333     
   56479575.3538990     
   56479468.1099732     
   56479365.1233079     
   56479266.6710301     
   56479173.0188027     
   56479084.4212883     
   56479001.1226161     
   56478923.3568507     
   56478851.3484626     
   56478785.3128009     
   56478725.4565669     
   56478671.9782881     
   56478625.0687938     
   56478584.9116913     
   56478551.6838421     
   56478525.5558389     
   56478506.6924835     
   56478495.2532643     
   56478491.3928356     
   56112908.2530035     
   56112901.6476762     
   56112882.4067331     
   56112851.3123184     
   56112809.1291158     
   56112756.6042656     
   56112694.4673090     
   56112623.4301582     
   56112544.1870939     
   56112457.4147864     
   56112363.7723419     
   56112263.9013728     
   56112158.4260899     
   56112047.9534174     
   56111933.0731286     
   56111814.3580024     
   56111692.3639989     
   56111567.6304542     
   56111440.6802925     
   56111312.0202554     
   56111182.1411476     
   56111051.5180978     
   56110920.6108337     
   56110789.8639711     
   56110659.7073161     
   56110530.5561789     
   56110402.8116992     
   56110276.8611828     
   56110153.0784467     
   56110031.8241749     
   56109913.4462824     
   56109798.2802860     
   56109686.6496845     
   56109578.8663434     
   56109475.2308874     
   56109376.0330984     
   56109281.5523176     
   56109192.0578536     
   56109107.8093944     
   56109029.0574232     
   56108956.0436379     
   56108889.0013743     
   56108828.1560320     
   56108773.7255035     
   56108725.9206050     
   56108684.9455114     
   56108650.9981924     
   56108624.2708509     
   56108604.9503648     
   56108593.2187301     
   56108589.2535064     
   55751785.0259013     
   55751778.6730831     
   55751760.1516165     
   55751730.1928702     
   55751689.5131131     
   55751638.8134230     
   55751578.7796194     
   55751510.0822182     
   55751433.3764079     
   55751349.3020480     
   55751258.4836882     
   55751161.5306075     
   55751059.0368735     
   55750951.5814211     
   55750839.7281493     
   55750724.0260366     
   55750605.0092731     
   55750483.1974096     
   55750359.0955236     
   55750233.1943988     
   55750105.9707219     
   55749977.8872913     
   55749849.3932411     
   55749720.9242766     
   55749592.9029232     
   55749465.7387863     
   55749339.8288225     
   55749215.5576212     
   55749093.2976968     
   55748973.4097887     
   55748856.2431722     
   55748742.1359760     
   55748631.4155082     
   55748524.3985905     
   55748421.3918975     
   55748322.6923043     
   55748228.5872390     
   55748139.3550414     
   55748055.2653274     
   55747976.5793578     
   55747903.5504121     
   55747836.4241670     
   55747775.4390794     
   55747720.8267727     
   55747672.8124275     
   55747631.6151762     
   55747597.4485006     
   55747570.5206339     
   55747551.0349652     
   55747539.1904481     
   55747535.1820125     
   55398912.3851018     
   55398906.3093940     
   55398888.5827663     
   55398859.8876711     
   55398820.8934563     
   55398772.2562749     
   55398714.6190122     
   55398648.6112334     
   55398574.8491490     
   55398493.9355986     
   55398406.4600525     
   55398312.9986314     
   55398214.1141426     
   55398110.3561329     
   55398002.2609580     
   55397890.3518680     
   55397775.1391074     
   55397657.1200306     
   55397536.7792316     
   55397414.5886879     
   55397291.0079173     
   55397166.4841479     
   55397041.4525006     
   55396916.3361838     
   55396791.5466991     
   55396667.4840581     
   55396544.5370104     
   55396423.0832805     
   55396303.4898157     
   55396186.1130421     
   55396071.2991301     
   55395959.3842677     
   55395850.6949425     
   55395745.5482305     
   55395644.2520926     
   55395547.1056777     
   55395454.3996331     
   55395366.4164197     
   55395283.4306345     
   55395205.7093383     
   55395133.5123884     
   55395067.0927773     
   55395006.6969754     
   55394952.5652795     
   55394904.9321651     
   55394864.0266436     
   55394830.0726235     
   55394803.2892765     
   55394783.8914066     
   55394772.0898243     
   55394768.0917246     
   55053755.1507233     
   55053749.3713346     
   55053732.4986536     
   55053705.1680231     
   55053668.0033754     
   55053621.6171454     
   55053566.6101991     
   55053503.5717788     
   55053433.0794640     
   55053355.6991470     
   55053271.9850250     
   55053182.4796059     
   55053087.7137301     
   55052988.2066058     
   55052884.4658589     
   55052776.9875968     
   55052666.2564852     
   55052552.7458385     
   55052436.9177231     
   55052319.2230720     
   55052200.1018135     
   55052079.9830094     
   55051959.2850063     
   55051838.4155966     
   55051717.7721912     
   55051597.7420011     
   55051478.7022304     
   55051361.0202774     
   55051245.0539462     
   55051131.1516656     
   55051019.6527178     
   55050910.8874748     
   55050805.1776423     
   55050702.8365113     
   55050604.1692172     
   55050509.4730058     
   55050419.0375054     
   55050333.1450056     
   55050252.0707428     
   55050176.0831909     
   55050105.4443576     
   55050040.4100872     
   55049981.2303672     
   55049928.1496413     
   55049881.4071270     
   55049841.2371374     
   55049807.8694086     
   55049781.5294309     
   55049762.4387851     
   55049750.8154825     
   55049746.8743099     
   54715795.3352936     
   54715789.8673090     
   54715773.8952061     
   54715748.0089204     
   54715712.7884208     
   54715668.8036288     
   54715616.6143516     
   54715556.7702288     
   54715489.8106917     
   54715416.2649364     
   54715336.6519099     
   54715251.4803086     
   54715161.2485899     
   54715066.4449965     
   54714967.5475923     
   54714865.0243107     
   54714759.3330152     
   54714650.9215706     
   54714540.2279261     
   54714427.6802093     
   54714313.6968313     
   54714198.6866016     
   54714083.0488539     
   54713967.1735816     
   54713851.4415827     
   54713736.2246146     
   54713621.8855578     
   54713508.7785879     
   54713397.2493572     
   54713287.6351836     
   54713180.2652482     
   54713075.4608000     
   54712973.5353688     
   54712874.7949849     
   54712779.5384056     
   54712688.0573491     
   54712600.6367345     
   54712517.5549280     
   54712439.0839955     
   54712365.4899608     
   54712297.0330701     
   54712233.9680610     
   54712176.5444380     
   54712125.0067523     
   54712079.5948870     
   54712040.5443473     
   54712008.0865553     
   54711982.4491492     
   54711963.8562877     
   54711952.5289579     
   54711948.6852886     
   54384530.7521626     
   54384525.6075249     
   54384510.5730833     
   54384486.1949352     
   54384453.0104478     
   54384411.5481859     
   54384362.3278501     
   54384305.8602270     
   54384242.6471506     
   54384173.1814745     
   54384097.9470560     
   54384017.4187504     
   54383932.0624168     
   54383842.3349345     
   54383748.6842300     
   54383651.5493143     
   54383551.3603312     
   54383448.5386147     
   54383343.4967574     
   54383236.6386878     
   54383128.3597581     
   54383019.0468402     
   54382909.0784319     
   54382798.8247717     
   54382688.6479620     
   54382578.9021015     
   54382469.9334251     
   54382362.0804527     
   54382255.6741455     
   54382151.0380696     
   54382048.4885680     
   54381948.3349386     
   54381850.8796205     
   54381756.4183862     
   54381665.2405408     
   54381577.6291276     
   54381493.8611400     
   54381414.2077394     
   54381338.9344788     
   54381268.3015325     
   54381202.5639307     
   54381141.9718007     
   54381086.7706112     
   54381037.2014244     
   54380993.5011504     
   54380955.9028083     
   54380924.6357909     
   54380899.9261344     
   54380881.9967922     
   54380871.0679135     
   54380867.3571255     
   54059473.7098000     
   54059468.8980617     
   54059454.8310675     
   54059432.0125003     
   54059400.9383777     
   54059362.0969874     
   54059315.9688326     
   54059263.0265863     
   54059203.7350561     
   54059138.5511578     
   54059067.9238989     
   54058992.2943715     
   54058912.0957545     
   54058827.7533252     
   54058739.6844802     
   54058648.2987654     
   54058553.9979146     
   54058457.1758976     
   54058358.2189767     
   54058257.5057715     
   54058155.4073334     
   54058052.2872264     
   54057948.5016183     
   54057844.3993780     
   54057740.3221821     
   54057636.6046281     
   54057533.5743561     
   54057431.5521766     
   54057330.8522069     
   54057231.7820137     
   54057134.6427624     
   54057039.7293736     
   54056947.3306857     
   54056857.7296241     
   54056771.2033768     
   54056688.0235748     
   54056608.4564803     
   54056532.7631788     
   54056461.1997777     
   54056394.0176103     
   54056331.4634446     
   54056273.7796973     
   54056221.2046532     
   54056173.9726888     
   54056132.3145011     
   54056096.4573405     
   54056066.6252488     
   54056043.0393006     
   54056025.9178498     
   54056015.4767796     
   54056011.9297565     
   53740149.7844675     
   53740145.3133632     
   53740132.2380254     
   53740111.0209987     
   53740082.1180835     
   53740045.9782798     
   53740003.0437388     
   53739953.7497229     
   53739898.5245738     
   53739837.7896884     
   53739771.9595036     
   53739701.4414887     
   53739626.6361462     
   53739547.9370201     
   53739465.7307129     
   53739380.3969104     
   53739292.3084136     
   53739201.8311793     
   53739109.3243677     
   53739015.1403983     
   53738919.6250123     
   53738823.1173432     
   53738725.9499943     
   53738628.4491231     
   53738530.9345333     
   53738433.7197732     
   53738337.1122411     
   53738241.4132971     
   53738146.9183816     
   53738053.9171400     
   53737962.6935539     
   53737873.5260778     
   53737786.6877827     
   53737702.4465046     
   53737621.0649990     
   53737542.8011010     
   53737467.9078910     
   53737396.6338652     
   53737329.2231116     
   53737265.9154909     
   53737206.9468223     
   53737152.5490738     
   53737102.9505579     
   53737058.3761305     
   53737019.0473957     
   53736985.1829134     
   53736956.9984124     
   53736934.7070061     
   53736918.5194136     
   53736908.6441832     
   53736905.2879207     
   53426096.6642922     
   53426092.5401723     
   53426080.4764302     
   53426060.8956053     
   53426034.2142938     
   53426000.8431004     
   53425961.1865960     
   53425915.6432828     
   53425864.6055666     
   53425808.4597357     
   53425747.5859470     
   53425682.3582192     
   53425613.1444327     
   53425540.3063368     
   53425464.1995635     
   53425385.1736485     
   53425303.5720589     
   53425219.7322274     
   53425133.9855937     
   53425046.6576523     
   53424958.0680069     
   53424868.5304310     
   53424778.3529356     
   53424687.8378425     
   53424597.2818643     
   53424506.9761902     
   53424417.2065783     
   53424328.2534532     
   53424240.3920099     
   53424153.8923233     
   53424069.0194633     
   53423986.0336152     
   53423905.1902059     
   53423826.7400349     
   53423750.9294110     
   53423678.0002936     
   53423608.1904389     
   53423541.7335516     
   53423478.8594401     
   53423419.7941779     
   53423364.7602677     
   53423313.9768113     
   53423267.6596829     
   53423226.0217071     
   53423189.2728404     
   53423157.6203568     
   53423131.2690374     
   53423110.4213637     
   53423095.2777140     
   53423086.0365637     
   53423082.8946889     
   53116863.0582371     
   53116859.2863952     
   53116848.2509100     
   53116830.3353135     
   53116805.9178952     
   53116775.3716596     
   53116739.0642906     
   53116697.3581210     
   53116650.6101091     
   53116599.1718203     
   53116543.3894155     
   53116483.6036446     
   53116420.1498476     
   53116353.3579599     
   53116283.5525249     
   53116211.0527120     
   53116136.1723409     
   53116059.2199112     
   53115980.4986390     
   53115900.3064979     
   53115818.9362668     
   53115736.6755829     
   53115653.8070010     
   53115570.6080573     
   53115487.3513397     
   53115404.3045631     
   53115321.7306501     
   53115239.8878169     
   53115159.0296646     
   53115079.4052756     
   53115001.2593145     
   53114924.8321349     
   53114850.3598903     
   53114778.0746497     
   53114708.2045182     
   53114640.9737625     
   53114576.6029395     
   53114515.3090310     
   53114457.3055815     
   53114402.8028403     
   53114352.0079080     
   53114305.1248868     
   53114262.3550347     
   53114223.8969231     
   53114189.9465990     
   53114160.6977493     
   53114136.3418697     
   53114117.0684367     
   53114103.0650824     
   53114094.5177732     
   53114091.6109905     
   52812007.6638977     
   52812004.2488185     
   52811994.2557243     
   52811978.0300137     
   52811955.9124572     
   52811928.2391610     
   52811895.3415366     
   52811857.5462753     
   52811815.1753280     
   52811768.5458901     
   52811717.9703913     
   52811663.7564916     
   52811606.2070810     
   52811545.6202862     
   52811482.2894807     
   52811416.5033016     
   52811348.5456708     
   52811278.6958213     
   52811207.2283291     
   52811134.4131498     
   52811060.5156602     
   52810985.7967057     
   52810910.5126512     
   52810834.9154382     
   52810759.2526467     
   52810683.7675606     
   52810608.6992395     
   52810534.2825940     
   52810460.7484664     
   52810388.3237152     
   52810317.2313048     
   52810247.6903986     
   52810179.9164578     
   52810114.1213433     
   52810050.5134219     
   52809989.2976775     
   52809930.6758249     
   52809874.8464284     
   52809822.0050243     
   52809772.3442464     
   52809726.0539560     
   52809683.3213749     
   52809644.3312220     
   52809609.2658535     
   52809578.3054056     
   52809551.6279415     
   52809529.4096007     
   52809511.8247516     
   52809499.0461471     
   52809491.2450823     
   52809488.5915559     
   52511098.1884471     
   52511095.1339932     
   52511086.1954684     
   52511071.6808972     
   52511051.8942178     
   52511027.1352509     
   52510997.6996749     
   52510963.8790040     
   52510925.9605715     
   52510884.2275171     
   52510838.9587799     
   52510790.4290936     
   52510738.9089888     
   52510684.6647982     
   52510627.9586667     
   52510569.0485663     
   52510508.1883149     
   52510445.6276006     
   52510381.6120089     
   52510316.3830563     
   52510250.1782264     
   52510183.2310120     
   52510115.7709600     
   52510048.0237222     
   52509980.2111092     
   52509912.5511487     
   52509845.2581485     
   52509778.5427632     
   52509712.6120649     
   52509647.6696184     
   52509583.9155595     
   52509521.5466781     
   52509460.7565044     
   52509401.7353998     
   52509344.6706496     
   52509289.7465620     
   52509237.1445682     
   52509187.0433276     
   52509139.6188354     
   52509095.0445342     
   52509053.4914283     
   52509015.1282016     
   52508980.1213384     
   52508948.6352471     
   52508920.8323870     
   52508896.8733977     
   52508876.9172316     
   52508861.1212889     
   52508849.6415547     
   52508842.6327396     
   52508840.2484215     
   52213710.4174223     
   52213707.7269769     
   52213699.8536802     
   52213687.0688384     
   52213669.6401499     
   52213647.8316808     
   52213621.9038433     
   52213592.1133774     
   52213558.7133378     
   52213521.9530839     
   52213482.0782730     
   52213439.3308589     
   52213393.9490935     
   52213346.1675320     
   52213296.2170430     
   52213244.3248217     
   52213190.7144072     
   52213135.6057042     
   52213079.2150077     
   52213021.7550321     
   52212963.4349445     
   52212904.4604006     
   52212845.0335860     
   52212785.3532600     
   52212725.6148036     
   52212666.0102712     
   52212606.7284458     
   52212547.9548983     
   52212489.8720495     
   52212432.6592366     
   52212376.4927821     
   52212321.5460672     
   52212267.9896079     
   52212215.9911343     
   52212165.7156739     
   52212117.3256373     
   52212070.9809074     
   52212026.8389316     
   52211985.0548172     
   52211945.7814290     
   52211909.1694909     
   52211875.3676894     
   52211844.5227802     
   52211816.7796974     
   52211792.2816648     
   52211771.1703110     
   52211753.5857854     
   52211739.6668772     
   52211729.5511369     
   52211723.3749996     
   52211721.2739109     
   51919427.3263836     
   51919425.0029598     
   51919418.2043667     
   51919407.1657524     
   51919392.1190836     
   51919373.2931254     
   51919350.9134225     
   51919325.2022860     
   51919296.3787813     
   51919264.6587208     
   51919230.2546594     
   51919193.3758936     
   51919154.2284635     
   51919113.0151588     
   51919069.9355278     
   51919025.1858897     
   51918978.9593509     
   51918931.4458238     
   51918882.8320495     
   51918833.3016240     
   51918783.0350269     
   51918732.2096547     
   51918680.9998562     
   51918629.5769720     
   51918578.1093765     
   51918526.7625237     
   51918475.6989964     
   51918425.0785575     
   51918375.0582054     
   51918325.7922322     
   51918277.4322847     
   51918230.1274284     
   51918184.0242152     
   51918139.2667525     
   51918095.9967768     
   51918054.3537292     
   51918014.4748331     
   51917976.4951760     
   51917940.5477930     
   51917906.7637528     
   51917875.2722468     
   51917846.2006799     
   51917819.6747645     
   51917795.8186159     
   51917774.7548512     
   51917756.6046889     
   51917741.4880516     
   51917729.5236710     
   51917720.8291934     
   51917715.5212891     
   51917713.7157617     
   51627838.2307970     
   51627836.2771231     
   51627830.5617875     
   51627821.2842548     
   51627808.6411891     
   51627792.8264365     
   51627774.0310113     
   51627752.4430837     
   51627728.2479716     
   51627701.6281350     
   51627672.7631724     
   51627641.8298211     
   51627609.0019603     
   51627574.4506166     
   51627538.3439727     
   51627500.8473790     
   51627462.1233684     
   51627422.3316731     
   51627381.6292457     
   51627340.1702819     
   51627298.1062467     
   51627255.5859033     
   51627212.7553454     
   51627169.7580311     
   51627126.7348208     
   51627083.8240172     
   51627041.1614086     
   51626998.8803141     
   51626957.1116327     
   51626915.9838937     
   51626875.6233105     
   51626836.1538373     
   51626797.6972276     
   51626760.3730954     
   51626724.2989796     
   51626689.5904095     
   51626656.3609740     
   51626624.7223923     
   51626594.7845872     
   51626566.6557606     
   51626540.4424710     
   51626516.2497135     
   51626494.1810013     
   51626474.3384502     
   51626456.8228638     
   51626441.7338213     
   51626429.1697676     
   51626419.2281037     
   51626412.0052805     
   51626407.5968933     
   51626406.0977777     
   51338537.9697880     
   51338536.3883742     
   51338531.7641352     
   51338524.2612481     
   51338514.0414303     
   51338501.2639262     
   51338486.0854959     
   51338468.6604057     
   51338449.1404221     
   51338427.6748072     
   51338404.4103175     
   51338379.4912044     
   51338353.0592179     
   51338325.2536121     
   51338296.2111537     
   51338266.0661329     
   51338234.9503765     
   51338202.9932636     
   51338170.3217447     
   51338137.0603612     
   51338103.3312696     
   51338069.2542670     
   51338034.9468189     
   51338000.5240901     
   51337966.0989775     
   51337931.7821455     
   51337897.6820638     
   51337863.9050473     
   51337830.5552986     
   51337797.7349527     
   51337765.5441236     
   51337734.0809541     
   51337703.4416664     
   51337673.7206163     
   51337645.0103481     
   51337617.4016531     
   51337590.9836289     
   51337565.8437414     
   51337542.0678882     
   51337519.7404646     
   51337498.9444314     
   51337479.7613835     
   51337462.2716217     
   51337446.5542252     
   51337432.6871267     
   51337420.7471880     
   51337410.8102780     
   51337402.9513522     
   51337397.2445330     
   51337393.7631925     
   51337392.5800353     
   51051126.1196827     
   51051124.9128748     
   51051121.3870224     
   51051115.6713376     
   51051107.8928808     
   51051098.1765503     
   51051086.6450730     
   51051073.4189984     
   51051058.6166936     
   51051042.3543406     
   51051024.7459360     
   51051005.9032927     
   51050985.9360437     
   51050964.9516476     
   51050943.0553969     
   51050920.3504281     
   51050896.9377337     
   51050872.9161769     
   51050848.3825075     
   51050823.4313808     
   51050798.1553782     
   51050772.6450299     
   51050746.9888395     
   51050721.2733111     
   51050695.5829780     
   51050670.0004339     
   51050644.6063653     
   51050619.4795870     
   51050594.6970787     
   51050570.3340239     
   51050546.4638507     
   51050523.1582741     
   51050500.4873410     
   51050478.5194765     
   51050457.3215318     
   51050436.9588343     
   51050417.4952393     
   51050398.9931833     
   51050381.5137392     
   51050365.1166730     
   51050349.8605019     
   51050335.8025543     
   51050322.9990315     
   51050311.5050697     
   51050301.3748053     
   51050292.6614395     
   51050285.4173061     
   51050279.6939396     
   51050275.5421445     
   51050273.0120661     
   51050272.1532624     
   50765206.2335007     
   50765205.4035233     
   50765202.9829321     
   50765199.0662293     
   50765193.7460447     
   50765187.1131283     
   50765179.2563436     
   50765170.2626626     
   50765160.2171635     
   50765149.2030293     
   50765137.3015480     
   50765124.5921154     
   50765111.1522391     
   50765097.0575445     
   50765082.3817819     
   50765067.1968367     
   50765051.5727397     
   50765035.5776810     
   50765019.2780238     
   50765002.7383216     
   50764986.0213360     
   50764969.1880569     
   50764952.2977241     
   50764935.4078507     
   50764918.5742484     
   50764901.8510541     
   50764885.2907588     
   50764868.9442372     
   50764852.8607802     
   50764837.0881281     
   50764821.6725055     
   50764806.6586583     
   50764792.0898917     
   50764778.0081101     
   50764764.4538583     
   50764751.4663646     
   50764739.0835845     
   50764727.3422468     
   50764716.2779005     
   50764705.9249634     
   50764696.3167717     
   50764687.4856314     
   50764679.4628701     
   50764672.2788912     
   50764665.9632282     
   50764660.5446012     
   50764656.0509731     
   50764652.5096087     
   50764649.9471333     
   50764648.3895930     
   50764647.8625159     
   50480385.1027858     
   50480384.6517777     
   50480383.3430159     
   50480381.2364843     
   50480378.3905500     
   50480374.8619583     
   50480370.7058279     
   50480365.9756489     
   50480360.7232807     
   50480354.9989528     
   50480348.8512655     
   50480342.3271936     
   50480335.4720905     
   50480328.3296940     
   50480320.9421335     
   50480313.3499393     
   50480305.5920521     
   50480297.7058352     
   50480289.7270875     
   50480281.6900580     
   50480273.6274616     
   50480265.5704969     
   50480257.5488648     
   50480249.5907888     
   50480241.7230368     
   50480233.9709441     
   50480226.3584376     
   50480218.9080619     
   50480211.6410066     
   50480204.5771342     
   50480197.7350108     
   50480191.1319363     
   50480184.7839774     
   50480178.7060012     
   50480172.9117102     
   50480167.4136780     
   50480162.2233871     
   50480157.3512675     
   50480152.8067357     
   50480148.5982363     
   50480144.7332834     
   50480141.2185037     
   50480138.0596805     
   50480135.2617986     
   50480132.8290905     
   50480130.7650833     
   50480129.0726464     
   50480127.7540403     
   50480126.8109664     
   50480126.2446169     
   50480126.0557266     
   50196272.0383598     
   50196271.9684027     
   50196271.7778216     
   50196271.4922131     
   50196271.1357929     
   50196270.7313934     
   50196270.3004609     
   50196269.8630547     
   50196269.4378475     
   50196269.0421262     
   50196268.6917945     
   50196268.4013765     
   50196268.1840213     
   50196268.0515086     
   50196268.0142561     
   50196268.0813275     
   50196268.2604417     
   50196268.5579830     
   50196268.9790136     
   50196269.5272852     
   50196270.2052537     
   50196271.0140941     
   50196271.9537163     
   50196273.0227829     
   50196274.2187271     
   50196275.5377726     
   50196276.9749541     
   50196278.5241389     
   50196280.1780500     
   50196281.9282895     
   50196283.7653637     
   50196285.6787094     
   50196287.6567201     
   50196289.6867747     
   50196291.7552660     
   50196293.8476310     
   50196295.9483812     
   50196298.0411352     
   50196300.1086508     
   50196302.1328590     
   50196304.0948981     
   50196305.9751497     
   50196307.7532742     
   50196309.4082483     
   50196310.9184026     
   50196312.2614599     
   50196313.4145748     
   50196314.3543733     
   50196315.0569939     
   50196315.4981284     
   50196315.6530638     
   49912478.1667556     
   49912478.4798975     
   49912479.4137034     
   49912480.9594557     
   49912483.1072768     
   49912485.8461279     
   49912489.1638088     
   49912493.0469581     
   49912497.4810554     
   49912502.4504231     
   49912507.9382295     
   49912513.9264931     
   49912520.3960875     
   49912527.3267472     
   49912534.6970741     
   49912542.4845451     
   49912550.6655205     
   49912559.2152538     
   49912568.1079010     
   49912577.3165323     
   49912586.8131435     
   49912596.5686693     
   49912606.5529966     
   49912616.7349788     
   49912627.0824516     
   49912637.5622487     
   49912648.1402192     
   49912658.7812449     
   49912669.4492596     
   49912680.1072679     
   49912690.7173659     
   49912701.2407619     
   49912711.6377986     
   49912721.8679752     
   49912731.8899712     
   49912741.6616700     
   49912751.1401838     
   49912760.2818795     
   49912769.0424042     
   49912777.3767126     
   49912785.2390945     
   49912792.5832025     
   49912799.3620813     
   49912805.5281970     
   49912811.0334669     
   49912815.8292903     
   49912819.8665793     
   49912823.0957911     
   49912825.4669595     
   49912826.9297277     
   49912827.4333816     
   49628615.7392363     
   49628616.4375104     
   49628618.5018220     
   49628621.8891571     
   49628626.5555503     
   49628632.4560851     
   49628639.5448961     
   49628647.7751711     
   49628657.0991531     
   49628667.4681447     
   49628678.8325113     
   49628691.1416857     
   49628704.3441738     
   49628718.3875596     
   49628733.2185119     
   49628748.7827915     
   49628765.0252581     
   49628781.8898794     
   49628799.3197390     
   49628817.2570463     
   49628835.6431463     
   49628854.4185301     
   49628873.5228463     
   49628892.8949128     
   49628912.4727287     
   49628932.1934877     
   49628951.9935915     
   49628971.8086638     
   49628991.5735652     
   49629011.2224081     
   49629030.6885726     
   49629049.9047231     
   49629068.8028246     
   49629087.3141608     
   49629105.3693513     
   49629122.8983708     
   49629139.8305672     
   49629156.0946818     
   49629171.6188689     
   49629186.3307160     
   49629200.1572649     
   49629213.0250331     
   49629224.8600352     
   49629235.5878054     
   49629245.1334198     
   49629253.4215198     
   49629260.3763349     
   49629265.9217070     
   49629269.9811141     
   49629272.4776946     
   49629273.3342727     
   49344297.4504301     
   49344298.5358685     
   49344301.7367606     
   49344306.9757592     
   49344314.1747653     
   49344323.2549317     
   49344334.1366654     
   49344346.7396322     
   49344360.9827601     
   49344376.7842438     
   49344394.0615491     
   49344412.7314184     
   49344432.7098756     
   49344453.9122319     
   49344476.2530920     
   49344499.6463603     
   49344524.0052478     
   49344549.2422790     
   49344575.2692992     
   49344601.9974828     
   49344629.3373410     
   49344657.1987302     
   49344685.4908610     
   49344714.1223073     
   49344743.0010159     
   49344772.0343160     
   49344801.1289296     
   49344830.1909820     
   49344859.1260123     
   49344887.8389851     
   49344916.2343014     
   49344944.2158107     
   49344971.6868227     
   49344998.5501206     
   49345024.7079726     
   49345050.0621457     
   49345074.5139188     
   49345097.9640962     
   49345120.3130214     
   49345141.4605916     
   49345161.3062715     
   49345179.7491085     
   49345196.6877474     
   49345212.0204455     
   49345225.6450881     
   49345237.4592043     
   49345247.3599824     
   49345255.2442865     
   49345261.0086723     
   49345264.5494041     
   49345265.7624711     
   49059135.7637078     
   49059137.2383520     
   49059141.5818865     
   49059148.6825402     
   49059158.4279857     
   49059170.7053442     
   49059185.4011907     
   49059202.4015588     
   49059221.5919461     
   49059242.8573195     
   49059266.0821204     
   49059291.1502701     
   49059317.9451757     
   49059346.3497352     
   49059376.2463437     
   49059407.5168989     
   49059440.0428071     
   49059473.7049893     
   49059508.3838869     
   49059543.9594685     
   49059580.3112356     
   49059617.3182293     
   49059654.8590367     
   49059692.8117972     
   49059731.0542097     
   49059769.4635389     
   49059807.9166221     
   49059846.2898765     
   49059884.4593058     
   49059922.3005078     
   49059959.6886812     
   49059996.4986330     
   49060032.6047860     
   49060067.8811863     
   49060102.2015107     
   49060135.4390744     
   49060167.4668389     
   49060198.1574197     
   49060227.3830942     
   49060255.0158096     
   49060280.9271912     
   49060304.9885505     
   49060327.0708932     
   49060347.0449277     
   49060364.7810736     
   49060380.1494696     
   49060393.0199826     
   49060403.2622163     
   49060410.7455191     
   49060415.3389934     
   49060416.9115045     
   48772742.2405103     
   48772744.1064169     
   48772749.5986606     
   48772758.5709032     
   48772770.8764439     
   48772786.3682263     
   48772804.8988453     
   48772826.3205533     
   48772850.4852670     
   48772877.2445732     
   48772906.4497352     
   48772937.9516983     
   48772971.6010958     
   48773007.2482545     
   48773044.7432000     
   48773083.9356619     
   48773124.6750792     
   48773166.8106046     
   48773210.1911098     
   48773254.6651898     
   48773300.0811674     
   48773346.2870976     
   48773393.1307716     
   48773440.4597208     
   48773488.1212204     
   48773535.9622936     
   48773583.8297147     
   48773631.5700126     
   48773679.0294743     
   48773726.0541477     
   48773772.4898445     
   48773818.1821436     
   48773862.9763933     
   48773906.7177139     
   48773949.2510007     
   48773990.4209254     
   48774030.0719393     
   48774068.0482749     
   48774104.1939480     
   48774138.3527593     
   48774170.3682967     
   48774200.0839366     
   48774227.3428455     
   48774251.9879817     
   48774273.8620964     
   48774292.8077350     
   48774308.6672387     
   48774321.2827448     
   48774330.4961887     
   48774336.1493043     
   48774338.0836247     
   48484726.8708779     
   48484729.1301204     
   48484735.7771513     
   48484746.6308688     
   48484761.5100044     
   48484780.2331319     
   48484802.6186758     
   48484828.4849194     
   48484857.6500120     
   48484889.9319764     
   48484925.1487154     
   48484963.1180183     
   48485003.6575666     
   48485046.5849395     
   48485091.7176191     
   48485138.8729946     
   48485187.8683672     
   48485238.5209532     
   48485290.6478879     
   48485344.0662282     
   48485398.5929554     
   48485454.0449773     
   48485510.2391298     
   48485566.9921786     
   48485624.1208201     
   48485681.4416816     
   48485738.7713221     
   48485795.9262316     
   48485852.7228307     
   48485908.9774701     
   48485964.5064285     
   48486019.1259115     
   48486072.6520497     
   48486124.9008959     
   48486175.6884228     
   48486224.8305197     
   48486272.1429894     
   48486317.4415444     
   48486360.5418027     
   48486401.2592841     
   48486439.4094050     
   48486474.8074741     
   48486507.2686866     
   48486536.6081192     
   48486562.6407246     
   48486585.1813252     
   48486604.0446069     
   48486619.0451131     
   48486629.9972376     
   48486636.7152183     
   48486639.0131293     
   48194697.4024678     
   48194700.0571349     
   48194707.8650354     
   48194720.6100547     
   48194738.0761126     
   48194760.0471749     
   48194786.3072629     
   48194816.6404633     
   48194850.8309365     
   48194888.6629249     
   48194929.9207605     
   48194974.3888712     
   48195021.8517872     
   48195072.0941462     
   48195124.9006981     
   48195180.0563089     
   48195237.3459641     
   48195296.5547715     
   48195357.4679631     
   48195419.8708962     
   48195483.5490543     
   48195548.2880471     
   48195613.8736095     
   48195680.0916009     
   48195746.7280027     
   48195813.5689158     
   48195880.4005577     
   48195947.0092583     
   48196013.1814558     
   48196078.7036911     
   48196143.3626027     
   48196206.9449203     
   48196269.2374576     
   48196330.0271054     
   48196389.1008234     
   48196446.2456316     
   48196501.2486014     
   48196553.8968461     
   48196603.9775105     
   48196651.2777608     
   48196695.5847729     
   48196736.6857214     
   48196774.3677673     
   48196808.4180457     
   48196838.6236526     
   48196864.7716320     
   48196886.6489619     
   48196904.0425403     
   48196916.7391707     
   48196924.5255473     
   48196927.1882399     
   47902258.6653406     
   47902261.7175295     
   47902270.6923674     
   47902285.3384238     
   47902305.4045134     
   47902330.6397085     
   47902360.7933517     
   47902395.6150663     
   47902434.8547662     
   47902478.2626653     
   47902525.5892852     
   47902576.5854626     
   47902631.0023555     
   47902688.5914481     
   47902749.1045556     
   47902812.2938271     
   47902877.9117483     
   47902945.7111426     
   47903015.4451721     
   47903086.8673368     
   47903159.7314732     
   47903233.7917528     
   47903308.8026777     
   47903384.5190776     
   47903460.6961042     
   47903537.0892256     
   47903613.4542193     
   47903689.5471647     
   47903765.1244346     
   47903839.9426861     
   47903913.7588497     
   47903986.3301189     
   47904057.4139384     
   47904126.7679907     
   47904194.1501838     
   47904259.3186360     
   47904322.0316615     
   47904382.0477546     
   47904439.1255732     
   47904493.0239216     
   47904543.5017328     
   47904590.3180503     
   47904633.2320084     
   47904672.0028128     
   47904706.3897201     
   47904736.1520169     
   47904761.0489982     
   47904780.8399456     
   47904795.2841042     
   47904804.1406598     
   47904807.1687155     
   47607011.8897864     
   47607015.3415928     
   47607025.4893898     
   47607042.0460737     
   47607064.7250087     
   47607093.2400423     
   47607127.3055187     
   47607166.6362912     
   47607210.9477337     
   47607259.9557504     
   47607313.3767850     
   47607370.9278277     
   47607432.3264222     
   47607497.2906701     
   47607565.5392352     
   47607636.7913461     
   47607710.7667976     
   47607787.1859509     
   47607865.7697323     
   47607946.2396315     
   47608028.3176976     
   47608111.7265349     
   47608196.1892968     
   47608281.4296790     
   47608367.1719112     
   47608453.1407478     
   47608539.0614572     
   47608624.6598107     
   47608709.6620692     
   47608793.7949696     
   47608876.7857099     
   47608958.3619330     
   47609038.2517097     
   47609116.1835204     
   47609191.8862364     
   47609265.0890992     
   47609335.5216995     
   47609402.9139554     
   47609466.9960890     
   47609527.4986022     
   47609584.1522525     
   47609636.6880268     
   47609684.8371145     
   47609728.3308808     
   47609766.9008381     
   47609800.2786167     
   47609828.1959357     
   47609850.3845719     
   47609866.5763293     
   47609876.5030068     
   47609879.8963660     
   47308554.0144041     
   47308557.8679077     
   47308569.1945950     
   47308587.6712757     
   47308612.9754671     
   47308644.7854110     
   47308682.7800896     
   47308726.6392393     
   47308776.0433634     
   47308830.6737431     
   47308890.2124470     
   47308954.3423389     
   47309022.7470847     
   47309095.1111570     
   47309171.1198388     
   47309250.4592249     
   47309332.8162228     
   47309417.8785512     
   47309505.3347377     
   47309594.8741141     
   47309686.1868113     
   47309778.9637518     
   47309872.8966411     
   47309967.6779577     
   47310063.0009416     
   47310158.5595811     
   47310254.0485983     
   47310349.1634335     
   47310443.6002280     
   47310537.0558051     
   47310629.2276504     
   47310719.8138904     
   47310808.5132697     
   47310895.0251272     
   47310979.0493708     
   47311060.2864509     
   47311138.4373325     
   47311213.2034666     
   47311284.2867599     
   47311351.3895434     
   47311414.2145402     
   47311472.4648321     
   47311525.8438249     
   47311574.0552130     
   47311616.8029426     
   47311653.7911742     
   47311684.7242446     
   47311709.3066270     
   47311727.2428911     
   47311738.2376619     
   47311741.9955782     
   47006476.9815890     
   47006481.2388348     
   47006493.7501953     
   47006514.1559229     
   47006542.0972375     
   47006577.2163455     
   47006619.1564578     
   47006667.5618051     
   47006722.0776525     
   47006782.3503109     
   47006848.0271479     
   47006918.7565958     
   47006994.1881586     
   47007073.9724163     
   47007157.7610285     
   47007245.2067346     
   47007335.9633540     
   47007429.6857827     
   47007526.0299894     
   47007624.6530091     
   47007725.2129350     
   47007827.3689087     
   47007930.7811086     
   47008035.1107364     
   47008140.0200020     
   47008245.1721064     
   47008350.2312233     
   47008454.8624785     
   47008558.7319280     
   47008661.5065340     
   47008762.8541398     
   47008862.4434426     
   47008959.9439647     
   47009055.0260237     
   47009147.3607007     
   47009236.6198062     
   47009322.4758466     
   47009404.6019871     
   47009482.6720141     
   47009556.3602967     
   47009625.3417453     
   47009689.2917711     
   47009747.8862419     
   47009800.8014386     
   47009847.7140095     
   47009888.3009232     
   47009922.2394216     
   47009949.2069705     
   47009968.8812098     
   47009980.9399025     
   47009985.0608834     
   46700367.0174778     
   46700371.6804525     
   46700385.3820492     
   46700407.7254325     
   46700438.3150188     
   46700476.7564980     
   46700522.6568531     
   46700575.6243781     
   46700635.2686933     
   46700701.2007585     
   46700773.0328846     
   46700850.3787419     
   46700932.8533673     
   46701020.0731688     
   46701111.6559277     
   46701207.2207990     
   46701306.3883097     
   46701408.7803540     
   46701514.0201876     
   46701621.7324190     
   46701731.5429988     
   46701843.0792071     
   46701955.9696385     
   46702069.8441853     
   46702184.3340179     
   46702299.0715646     
   46702413.6904871     
   46702527.8256565     
   46702641.1131250     
   46702753.1900972     
   46702863.6948988     
   46702972.2669433     
   46703078.5466970     
   46703182.1756418     
   46703282.7962370     
   46703380.0518781     
   46703473.5868548     
   46703563.0463065     
   46703648.0761769     
   46703728.3231661     
   46703803.4346819     
   46703873.0587890     
   46703936.8441564     
   46703994.4400044     
   46704045.4960488     
   46704089.6624448     
   46704126.5897290     
   46704155.9287599     
   46704177.3306582     
   46704190.4467444     
   46704194.9284765     
   46389803.8932853     
   46389808.9638899     
   46389823.8609799     
   46389848.1500391     
   46389881.3981165     
   46389923.1738504     
   46389973.0474907     
   46390030.5909190     
   46390095.3776650     
   46390166.9829216     
   46390244.9835569     
   46390328.9581234     
   46390418.4868650     
   46390513.1517219     
   46390612.5363319     
   46390716.2260298     
   46390823.8078442     
   46390934.8704917     
   46391049.0043686     
   46391165.8015398     
   46391284.8557256     
   46391405.7622858     
   46391528.1182011     
   46391651.5220524     
   46391775.5739976     
   46391899.8757453     
   46392024.0305271     
   46392147.6430670     
   46392270.3195482     
   46392391.6675781     
   46392511.2961504     
   46392628.8156057     
   46392743.8375891     
   46392855.9750059     
   46392964.8419754     
   46393070.0537819     
   46393171.2268245     
   46393267.9785643     
   46393359.9274696     
   46393446.6929590     
   46393527.8953434     
   46393603.1557652     
   46393672.0961364     
   46393734.3390741     
   46393789.5078356     
   46393837.2262505     
   46393877.1186519     
   46393908.8098065     
   46393931.9248422     
   46393946.0891748     
   46393950.9284341     
   46074360.1648179     
   46074365.6448339     
   46074381.7422663     
   46074407.9842585     
   46074443.8998664     
   46074489.0200856     
   46074542.8778763     
   46074605.0081857     
   46074674.9479659     
   46074752.2361908     
   46074836.4138689     
   46074927.0240532     
   46075023.6118488     
   46075125.7244167     
   46075232.9109754     
   46075344.7227989     
   46075460.7132123     
   46075580.4375837     
   46075703.4533144     
   46075829.3198245     
   46075957.5985371     
   46076087.8528587     
   46076219.6481570     
   46076352.5517357     
   46076486.1328065     
   46076619.9624588     
   46076753.6136251     
   46076886.6610458     
   46077018.6812290     
   46077149.2524094     
   46077277.9545034     
   46077404.3690623     
   46077528.0792221     
   46077648.6696515     
   46077765.7264972     
   46077878.8373263     
   46077987.5910666     
   46078091.5779448     
   46078190.3894218     
   46078283.6181263     
   46078370.8577854     
   46078451.7031543     
   46078525.7499426     
   46078592.5947391     
   46078651.8349352     
   46078703.0686452     
   46078745.8946257     
   46078779.9121927     
   46078804.7211377     
   46078819.9216409     
   46078825.1141843     
   45753600.3867695     
   45753606.2778204     
   45753623.5799156     
   45753651.7811280     
   45753690.3718298     
   45753738.8447227     
   45753796.6948665     
   45753863.4197026     
   45753938.5190758     
   45754021.4952513     
   45754111.8529295     
   45754209.0992565     
   45754312.7438313     
   45754422.2987108     
   45754537.2784094     
   45754657.1998966     
   45754781.5825910     
   45754909.9483503     
   45755041.8214588     
   45755176.7286104     
   45755314.1988892     
   45755453.7637463     
   45755594.9569734     
   45755737.3146729     
   45755880.3752249     
   45756023.6792508     
   45756166.7695738     
   45756309.1911761     
   45756450.4911531     
   45756590.2186641     
   45756727.9248803     
   45756863.1629298     
   45756995.4878389     
   45757124.4564717     
   45757249.6274655     
   45757370.5611639     
   45757486.8195476     
   45757597.9661615     
   45757703.5660401     
   45757803.1856292     
   45757896.3927061     
   45757982.7562967     
   45758061.8465903     
   45758133.2348522     
   45758196.4933335     
   45758251.1951798     
   45758296.9143361     
   45758333.2254515     
   45758359.7037804     
   45758375.9250825     
   45758381.4655213     
   45427080.2982039     
   45427086.6017095     
   45427105.1121177     
   45427135.2776249     
   45427176.5491585     
   45427228.3804115     
   45427290.2278738     
   45427361.5508593     
   45427441.8115293     
   45427530.4749121     
   45427627.0089182     
   45427730.8843525     
   45427841.5749221     
   45427958.5572397     
   45428081.3108239     
   45428209.3180955     
   45428342.0643691     
   45428479.0378415     
   45428619.7295763     
   45428763.6334840     
   45428910.2462987     
   45429059.0675507     
   45429209.5995356     
   45429361.3472790     
   45429513.8184983     
   45429666.5235596     
   45429818.9754322     
   45429970.6896384     
   45430121.1841999     
   45430269.9795814     
   45430416.5986293     
   45430560.5665081     
   45430701.4106326     
   45430838.6605975     
   45430971.8481026     
   45431100.5068757     
   45431224.1725918     
   45431342.3827892     
   45431454.6767829     
   45431560.5955744     
   45431659.6817591     
   45431751.4794304     
   45431835.5340816     
   45431911.3925044     
   45431978.6026851     
   45432036.7136987     
   45432085.2755997     
   45432123.8393110     
   45432151.9565109     
   45432169.1795170     
   45432175.0611685     
   45094345.9753949     
   45094352.6925165     
   45094372.4140498     
   45094404.5474255     
   45094448.5032892     
   45094503.6955408     
   45094569.5413694     
   45094645.4612833     
   45094730.8791369     
   45094825.2221513     
   45094927.9209324     
   45095038.4094831     
   45095156.1252117     
   45095280.5089355     
   45095411.0048803     
   45095547.0606753     
   45095688.1273427     
   45095833.6592844     
   45095983.1142628     
   45096135.9533778     
   45096291.6410394     
   45096449.6449358     
   45096609.4359967     
   45096770.4883533     
   45096932.2792924     
   45097094.2892084     
   45097256.0015485     
   45097416.9027560     
   45097576.4822082     
   45097734.2321501     
   45097889.6476250     
   45098042.2264002     
   45098191.4688897     
   45098336.8780715     
   45098477.9594034     
   45098614.2207324     
   45098745.1722030     
   45098870.3261601     
   45098989.1970490     
   45099101.3013125     
   45099206.1572838     
   45099303.2850767     
   45099392.2064721     
   45099472.4448023     
   45099543.5248313     
   45099604.9726329     
   45099656.3154656     
   45099697.0816450     
   45099726.8004136     
   45099745.0018081     
   45099751.2165238     
   44754932.9479250     
   44754940.0795009     
   44754961.0139321     
   44754995.1169036     
   44755041.7578594     
   44755100.3100468     
   44755170.1505553     
   44755250.6603511     
   44755341.2243062     
   44755441.2312221     
   44755550.0738493     
   44755667.1489010     
   44755791.8570618     
   44755923.6029915     
   44756061.7953233     
   44756205.8466576     
   44756355.1735498     
   44756509.1964940     
   44756667.3399002     
   44756829.0320682     
   44756993.7051549     
   44757160.7951372     
   44757329.7417699     
   44757499.9885391     
   44757670.9826095     
   44757842.1747680     
   44758013.0193617     
   44758182.9742319     
   44758351.5006423     
   44758518.0632040     
   44758682.1297942     
   44758843.1714719     
   44759000.6623884     
   44759154.0796933     
   44759302.9034367     
   44759446.6164666     
   44759584.7043229     
   44759716.6551265     
   44759841.9594651     
   44759960.1102744     
   44760070.6027165     
   44760172.9340536     
   44760266.6035186     
   44760351.1121826     
   44760425.9628177     
   44760490.6597578     
   44760544.7087560     
   44760587.6168380     
   44760618.8921536     
   44760638.0438247     
   44760644.5817911     
   44408365.2736561     
   44408372.8201226     
   44408394.9679406     
   44408431.0399695     
   44408480.3634406     
   44408542.2700066     
   44408616.0957863     
   44408701.1814026     
   44408796.8720155     
   44408902.5173488     
   44409017.4717115     
   44409141.0940125     
   44409272.7477705     
   44409411.8011173     
   44409557.6267955     
   44409709.6021499     
   44409867.1091139     
   44410029.5341894     
   44410196.2684210     
   44410366.7073644     
   44410540.2510493     
   44410716.3039362     
   44410894.2748681     
   44411073.5770155     
   44411253.6278170     
   44411433.8489135     
   44411613.6660777     
   44411792.5091375     
   44411969.8118941     
   44412145.0120356     
   44412317.5510446     
   44412486.8741004     
   44412652.4299778     
   44412813.6709389     
   44412970.0526213     
   44413121.0339215     
   44413266.0768728     
   44413404.6465192     
   44413536.2107852     
   44413660.2403402     
   44413776.2084596     
   44413883.5908807     
   44413981.8656559     
   44414070.5130004     
   44414149.0151372     
   44414216.8561379     
   44414273.5217598     
   44414318.4992800     
   44414351.2773253     
   44414371.3456996     
   44414378.1952080     
   44054154.5678531     
   44054162.5291467     
   44054185.8892545     
   44054223.9270193     
   44054275.9263474     
   44054341.1762654     
   44054418.9709700     
   44054508.6098714     
   44054609.3976302     
   44054720.6441872     
   44054841.6647872     
   44054971.7799952     
   44055110.3157070     
   44055256.6031520     
   44055409.9788899     
   44055569.7848007     
   44055735.3680678     
   44055906.0811545     
   44056081.2817739     
   44056260.3328521     
   44056442.6024852     
   44056627.4638892     
   44056814.2953440     
   44057002.4801306     
   44057191.4064623     
   44057380.4674095     
   44057569.0608181     
   44057756.5892221     
   44057942.4597499     
   44058126.0840251     
   44058306.8780605     
   44058484.2621478     
   44058657.6607400     
   44058826.5023292     
   44058990.2193191     
   44059148.2478910     
   44059300.0278661     
   44059445.0025611     
   44059582.6186398     
   44059712.3259594     
   44059833.5774121     
   44059945.8287617     
   44060048.5384760     
   44060141.1675544     
   44060223.1793519     
   44060294.0393978     
   44060353.2152109     
   44060400.1761114     
   44060434.3930275     
   44060455.3382999     
   44060462.4854817     
   43691798.9813866     
   43691807.3568206     
   43691831.9261552     
   43691871.9229013     
   43691926.5864169     
   43691995.1619718     
   43692076.9008033     
   43692171.0601661     
   43692276.9033726     
   43692393.6998275     
   43692520.7250530     
   43692657.2607075     
   43692802.5945960     
   43692956.0206731     
   43693116.8390381     
   43693284.3559223     
   43693457.8836694     
   43693636.7407071     
   43693820.2515124     
   43694007.7465685     
   43694198.5623148     
   43694392.0410889     
   43694587.5310618     
   43694784.3861660     
   43694981.9660156     
   43695179.6358204     
   43695376.7662920     
   43695572.7335437     
   43695766.9189834     
   43695958.7091996     
   43696147.4958410     
   43696332.6754901     
   43696513.6495289     
   43696689.8240004     
   43696860.6094623     
   43697025.4208357     
   43697183.6772474     
   43697334.8018665     
   43697478.2217358     
   43697613.3675968     
   43697739.6737101     
   43697856.5776705     
   43697963.5202167     
   43698059.9450359     
   43698145.2985644     
   43698219.0297822     
   43698280.5900043     
   43698329.4326667     
   43698365.0131089     
   43698386.7883515     
   43698394.2168703     
   43320782.1225452     
   43320790.9106517     
   43320816.6836985     
   43320858.6284110     
   43320915.9382528     
   43320987.8134977     
   43321073.4612940     
   43321172.0957194     
   43321282.9378275     
   43321405.2156851     
   43321538.1644010     
   43321681.0261456     
   43321833.0501620     
   43321993.4927678     
   43322161.6173486     
   43322336.6943422     
   43322518.0012148     
   43322704.8224277     
   43322896.4493957     
   43323092.1804373     
   43323291.3207159     
   43323493.1821732     
   43323697.0834537     
   43323902.3498212     
   43324108.3130677     
   43324314.3114135     
   43324519.6894001     
   43324723.7977751     
   43324925.9933694     
   43325125.6389669     
   43325322.1031671     
   43325514.7602402     
   43325702.9899749     
   43325886.1775201     
   43326063.7132184     
   43326234.9924343     
   43326399.4153749     
   43326556.3869046     
   43326705.3163533     
   43326845.6173193     
   43326976.7074647     
   43327098.0083068     
   43327208.9450022     
   43327308.9461266     
   43327397.4434487     
   43327473.8716988     
   43327537.6683327     
   43327588.2732907     
   43327625.1287512     
   43327647.6788807     
   43327655.3695785     
   42940571.9165743     
   42940581.1148993     
   42940608.0830631     
   42940651.9593996     
   42940711.8899960     
   42940787.0287748     
   42940876.5375659     
   42940979.5861686     
   42941095.3524033     
   42941223.0221530     
   42941361.7893939     
   42941510.8562171     
   42941669.4328392     
   42941836.7376023     
   42942011.9969653     
   42942194.4454837     
   42942383.3257803     
   42942577.8885054     
   42942777.3922882     
   42942981.1036770     
   42943188.2970711     
   42943398.2546423     
   42943610.2662479     
   42943823.6293336     
   42944037.6488279     
   42944251.6370271     
   42944464.9134721     
   42944676.8048155     
   42944886.6446816     
   42945093.7735165     
   42945297.5384313     
   42945497.2930362     
   42945692.3972676     
   42945882.2172071     
   42946066.1248926     
   42946243.4981226     
   42946413.7202533     
   42946576.1799878     
   42946730.2711595     
   42946875.3925080     
   42947010.9474492     
   42947136.3438380     
   42947250.9937257     
   42947354.3131111     
   42947445.7216854     
   42947524.6425717     
   42947590.5020590     
   42947642.7293306     
   42947680.7561872     
   42947704.0167654     
   42947711.9472507     
   42550619.3966005     
   42550629.0014341     
   42550657.1522174     
   42550702.9371175     
   42550765.4532167     
   42550843.8066057     
   42550937.1124643     
   42551044.4951307     
   42551165.0881581     
   42551298.0343607     
   42551442.4858461     
   42551597.6040375     
   42551762.5596831     
   42551936.5328539     
   42552118.7129303     
   42552308.2985768     
   42552504.4977053     
   42552706.5274273     
   42552913.6139947     
   42553124.9927296     
   42553339.9079433     
   42553557.6128449     
   42553777.3694382     
   42553998.4484097     
   42554220.1290055     
   42554441.6988981     
   42554662.4540438     
   42554881.6985301     
   42555098.7444140     
   42555312.9115506     
   42555523.5274128     
   42555729.9269023     
   42555931.4521518     
   42556127.4523185     
   42556317.2833696     
   42556500.3078596     
   42556675.8947000     
   42556843.4189206     
   42557002.2614243     
   42557151.8087336     
   42557291.4527306     
   42557420.5903900     
   42557538.6235052     
   42557644.9584080     
   42557739.0056815     
   42557820.1798674     
   42557887.8991673     
   42557941.5851369     
   42557980.6623765     
   42558004.5582142     
   42558012.7023848     
   42150357.4191121     
   42150367.4251326     
   42150396.7410544     
   42150444.4029178     
   42150509.4570155     
   42150590.9599959     
   42150687.9789536     
   42150799.5915059     
   42150924.8858542     
   42151062.9608330     
   42151212.9259442     
   42151373.9013775     
   42151545.0180178     
   42151725.4174389     
   42151914.2518833     
   42152110.6842292     
   42152313.8879445     
   42152523.0470277     
   42152737.3559361     
   42152956.0195014     
   42153178.2528332     
   42153403.2812103     
   42153630.3399603     
   42153858.6743269     
   42154087.5393268     
   42154316.1995947     
   42154543.9292172     
   42154770.0115571     
   42154993.7390658     
   42155214.4130866     
   42155431.3436477     
   42155643.8492452     
   42155851.2566169     
   42156052.9005072     
   42156248.1234223     
   42156436.2753771     
   42156616.7136338     
   42156788.8024312     
   42156951.9127076     
   42157105.4218143     
   42157248.7132218     
   42157381.1762198     
   42157502.2056081     
   42157611.2013818     
   42157707.5684096     
   42157790.7161045     
   42157860.0580892     
   42157915.0118548     
   42157954.9984130     
   42157979.4419426     
   42157987.7694311     
   41739199.2966615     
   41739209.6964644     
   41739240.1536329     
   41739289.6499253     
   41739357.1788959     
   41739441.7460109     
   41739542.3687474     
   41739658.0766757     
   41739787.9115261     
   41739930.9272384     
   41740086.1899962     
   41740252.7782446     
   41740429.7826921     
   41740616.3062970     
   41740811.4642390     
   41741014.3838738     
   41741224.2046751     
   41741440.0781602     
   41741661.1678014     
   41741886.6489241     
   41742115.7085900     
   41742347.5454669     
   41742581.3696861     
   41742816.4026854     
   41743051.8770406     
   41743287.0362839     
   41743521.1347107     
   41743753.4371743     
   41743983.2188691     
   41744209.7651033     
   41744432.3710601     
   41744650.3415487     
   41744862.9907449     
   41745069.6419223     
   41745269.6271728     
   41745462.2871190     
   41745646.9706171     
   41745823.0344501     
   41745989.8430139     
   41746146.7679943     
   41746293.1880361     
   41746428.4884041     
   41746552.0606376     
   41746663.3021958     
   41746761.6160976     
   41746846.4105540     
   41746917.0985930     
   41746973.0976792     
   41747013.8293258     
   41747038.7187011     
   41747047.1942284     
   41316537.3398945     
   41316548.1233678     
   41316579.6895984     
   41316630.9637033     
   41316700.8843885     
   41316788.4040755     
   41316892.4890087     
   41317012.1193420     
   41317146.2892081     
   41317294.0067670     
   41317454.2942364     
   41317626.1879036     
   41317808.7381188     
   41318001.0092696     
   41318202.0797396     
   41318411.0418476     
   41318627.0017705     
   41318849.0794499     
   41319076.4084817     
   41319308.1359897     
   41319543.4224838     
   41319781.4417032     
   41320021.3804444     
   41320262.4383749     
   41320503.8278329     
   41320744.7736133     
   41320984.5127410     
   41321222.2942305     
   41321457.3788341     
   41321689.0387773     
   41321916.5574830     
   41322139.2292843     
   41322356.3591267     
   41322567.2622594     
   41322771.2639169     
   41322967.6989901     
   41323155.9116890     
   41323335.2551952     
   41323505.0913062     
   41323664.7900707     
   41323813.7294163     
   41323951.2947682     
   41324076.8786612     
   41324189.8803433     
   41324289.7053726     
   41324375.7652068     
   41324447.4767858     
   41324504.2621078     
   41324545.5477984     
   41324570.7646738     
   41324579.3472978     
   40881741.3004313     
   40881752.4539316     
   40881785.0862699     
   40881838.0633622     
   40881910.2668054     
   40882000.5940134     
   40882107.9583287     
   40882231.2891128     
   40882369.5318120     
   40882521.6480022     
   40882686.6154107     
   40882863.4279165     
   40883051.0955297     
   40883248.6443494     
   40883455.1165015     
   40883669.5700564     
   40883891.0789273     
   40884118.7327494     
   40884351.6367404     
   40884588.9115437     
   40884829.6930530     
   40885073.1322213     
   40885318.3948525     
   40885564.6613771     
   40885811.1266135     
   40886056.9995139     
   40886301.5028952     
   40886543.8731577     
   40886783.3599889     
   40887019.2260558     
   40887250.7466846     
   40887477.2095277     
   40887697.9142208     
   40887912.1720279     
   40888119.3054769     
   40888318.6479841     
   40888509.5434698     
   40888691.3459643     
   40888863.4192054     
   40889025.1362265     
   40889175.8789373     
   40889315.0376965     
   40889442.0108758     
   40889556.2044179     
   40889657.0313865     
   40889743.9115095     
   40889816.2707151     
   40889873.5406621     
   40889915.1582629     
   40889940.5652007     
   40889949.2074402     
   40434156.7054893     
   40434168.2107583     
   40434201.8522365     
   40434256.4338959     
   40434330.7778423     
   40434423.7244565     
   40434534.1325075     
   40434660.8792388     
   40434802.8604278     
   40434958.9904183     
   40435128.2021277     
   40435309.4470290     
   40435501.6951069     
   40435703.9347918     
   40435915.1728679     
   40436134.4343610     
   40436360.7624016     
   40436593.2180687     
   40436830.8802111     
   40437072.8452500     
   40437318.2269610     
   40437566.1562379     
   40437815.7808389     
   40438066.2651146     
   40438316.7897201     
   40438566.5513108     
   40438814.7622231     
   40439060.6501406     
   40439303.4577458     
   40439542.4423591     
   40439776.8755648     
   40440006.0428252     
   40440229.2430828     
   40440445.7883516     
   40440655.0032985     
   40440856.2248140     
   40441048.8015735     
   40441232.0935901     
   40441405.4717589     
   40441568.3173917     
   40441720.0217454     
   40441859.9855425     
   40441987.6184841     
   40442102.3387558     
   40442203.5725276     
   40442290.7534471     
   40442363.3221259     
   40442420.7256206     
   40442462.4169075     
   40442487.8543515     
   40442496.5011689     
   39973103.0744403     
   39973114.9071908     
   39973149.4826072     
   39973205.5398323     
   39973281.8390310     
   39973377.1615308     
   39973490.3099285     
   39973620.1081657     
   39973765.4015713     
   39973925.0568738     
   39974097.9621830     
   39974283.0269427     
   39974479.1818542     
   39974685.3787721     
   39974900.5905741     
   39975123.8110035     
   39975354.0544875     
   39975590.3559312     
   39975831.7704879     
   39976077.3733077     
   39976326.2592641     
   39976577.5426608     
   39976830.3569181     
   39977083.8542414     
   39977337.2052715     
   39977589.5987180     
   39977840.2409772     
   39978088.3557343     
   39978333.1835510     
   39978573.9814402     
   39978810.0224279     
   39979040.5951022     
   39979265.0031519     
   39979482.5648939     
   39979692.6127909     
   39979894.4929592     
   39980087.5646683     
   39980271.1998319     
   39980444.7824909     
   39980607.7082893     
   39980759.3839435     
   39980899.2267045     
   39981026.6638140     
   39981141.1319551     
   39981242.0766970     
   39981328.9519341     
   39981401.2193203     
   39981458.3476979     
   39981499.8125220     
   39981525.0952791     
   39981533.6829011     
   39497872.0067187     
   39497884.1348042     
   39497919.5452759     
   39497976.9094941     
   39498054.9232557     
   39498152.3069231     
   39498267.8055143     
   39498400.1887540     
   39498548.2510875     
   39498710.8116588     
   39498886.7142527     
   39499074.8272033     
   39499274.0432689     
   39499483.2794763     
   39499701.4769330     
   39499927.6006109     
   39500160.6391019     
   39500399.6043456     
   39500643.5313326     
   39500891.4777818     
   39501142.5237954     
   39501395.7714915     
   39501650.3446152     
   39501905.3881312     
   39502160.0677960     
   39502413.5697143     
   39502665.0998776     
   39502913.8836882     
   39503159.1654687     
   39503400.2079584     
   39503636.2917964     
   39503866.7149945     
   39504090.7923987     
   39504307.8551409     
   39504517.2500823     
   39504718.3392477     
   39504910.4992533     
   39505093.1207264     
   39505265.6077199     
   39505427.3771207     
   39505577.8580521     
   39505716.4912726     
   39505842.7285693     
   39505956.0321477     
   39506055.8740173     
   39506141.7353737     
   39506213.1059776     
   39506269.4835293     
   39506310.3730414     
   39506335.2862067     
   39506343.7407642     
   39007725.1295819     
   39007737.5106486     
   39007773.6266456     
   39007832.0782520     
   39007911.4946312     
   39008010.5335336     
   39008127.8813519     
   39008262.2531321     
   39008412.3925395     
   39008577.0717835     
   39008755.0915007     
   39008945.2805988     
   39009146.4960631     
   39009357.6227262     
   39009577.5730037     
   39009805.2865962     
   39010039.7301606     
   39010279.8969512     
   39010524.8064323     
   39010773.5038651     
   39011025.0598682     
   39011278.5699556     
   39011533.1540523     
   39011787.9559894     
   39012042.1429799     
   39012294.9050769     
   39012545.4546159     
   39012793.0256413     
   39013036.8733202     
   39013276.2733428     
   39013510.5213122     
   39013738.9321236     
   39013960.8393348     
   39014175.5945283     
   39014382.5666668     
   39014581.1414420     
   39014770.7206182     
   39014950.7213712     
   39015120.5756239     
   39015279.7293777     
   39015427.6420420     
   39015563.7857607     
   39015687.6447379     
   39015798.7145615     
   39015896.5015254     
   39015980.5219518     
   39016050.3015116     
   39016105.3745448     
   39016145.2833797     
   39016169.5776519     
   39016177.8136214     
   38501891.8931326     
   38501904.4716408     
   38501941.1241738     
   38502000.3780738     
   38502080.7939746     
   38502180.9658554     
   38502299.5210385     
   38502435.1201344     
   38502586.4569353     
   38502752.2582601     
   38502931.2837521     
   38503122.3256307     
   38503324.2084019     
   38503535.7885266     
   38503755.9540506     
   38503983.6241981     
   38504217.7489304     
   38504457.3084720     
   38504701.3128065     
   38504948.8011440     
   38505198.8413621     
   38505450.5294218     
   38505702.9887618     
   38505955.3696714     
   38506206.8486446     
   38506456.6277170     
   38506703.9337876     
   38506948.0179262     
   38507188.1546695     
   38507423.6413055     
   38507653.7971491     
   38507877.9628105     
   38508095.4994556     
   38508305.7880626     
   38508508.2286733     
   38508702.2396422     
   38508887.2568827     
   38509062.7331128     
   38509228.1370999     
   38509382.9529067     
   38509526.6791371     
   38509658.8281850     
   38509778.9254840     
   38509886.5087602     
   38509981.1272877     
   38510062.3411471     
   38510129.7204872     
   38510182.8447891     
   38510221.3021346     
   38510244.6884762     
   38510252.6069108     
   37979567.1986269     
   37979579.9021162     
   37979616.8717227     
   37979676.5593157     
   37979757.4557701     
   37979858.0909377     
   37979977.0335549     
   37980112.8910882     
   37980264.3095202     
   37980429.9730801     
   37980608.6039193     
   37980798.9617369     
   37980999.8433567     
   37981210.0822584     
   37981428.5480663     
   37981654.1459980     
   37981885.8162749     
   37982122.5334990     
   37982363.3059968     
   37982607.1751333     
   37982853.2145995     
   37983100.5296749     
   37983348.2564670     
   37983595.5611320     
   37983841.6390765     
   37984085.7141445     
   37984327.0377901     
   37984564.8882391     
   37984798.5696411     
   37985027.4112134     
   37985250.7663795     
   37985468.0119031     
   37985678.5470188     
   37985881.7925623     
   37986077.1901006     
   37986264.2010632     
   37986442.3058761     
   37986611.0030996     
   37986769.8085708     
   37986918.2545508     
   37987055.8888796     
   37987182.2741367     
   37987296.9868094     
   37987399.6164695     
   37987489.7649577     
   37987567.0455765     
   37987631.0822917     
   37987681.5089427     
   37987717.9684598     
   37987740.1120919     
   37987747.5986396     
   37439908.8442876     
   37439921.5787607     
   37439958.5819275     
   37440018.2289664     
   37440098.9408444     
   37440199.1841640     
   37440317.4709344     
   37440452.3582722     
   37440602.4480339     
   37440766.3863854     
   37440942.8633094     
   37441130.6120570     
   37441328.4085458     
   37441535.0707076     
   37441749.4577900     
   37441970.4696148     
   37442197.0457969     
   37442428.1649265     
   37442662.8437188     
   37442900.1361327     
   37443139.1324639     
   37443378.9584127     
   37443618.7741321     
   37443857.7732569     
   37444095.1819178     
   37444330.2577424     
   37444562.2888464     
   37444790.5928164     
   37445014.5156879     
   37445233.4309195     
   37445446.7383659     
   37445653.8632517     
   37445854.2551488     
   37446047.3869565     
   37446232.7538894     
   37446409.8724715     
   37446578.2795404     
   37446737.5312607     
   37446887.2021498     
   37447026.8841150     
   37447156.1855051     
   37447274.7301747     
   37447382.1565640     
   37447478.1167936     
   37447562.2757748     
   37447634.3103347     
   37447693.9083589     
   37447740.7679476     
   37447774.5965893     
   37447795.1103483     
   37447802.0330671     
   36882034.7704375     
   36882047.4147393     
   36882084.0874291     
   36882143.0872424     
   36882222.7667373     
   36882321.5319560     
   36882437.8420006     
   36882570.2085286     
   36882717.1951712     
   36882877.4168811     
   36883049.5392129     
   36883232.2775407     
   36883424.3962184     
   36883624.7076862     
   36883832.0715275     
   36884045.3934818     
   36884263.6244158     
   36884485.7592585     
   36884710.8359034     
   36884937.9340815     
   36885166.1742099     
   36885394.7162179     
   36885622.7583560     
   36885849.5359899     
   36886074.3203834     
   36886296.4174727     
   36886515.1666363     
   36886729.9394615     
   36886940.1385124     
   36887145.1961003     
   36887344.5730599     
   36887537.7575335     
   36887724.2637646     
   36887903.6309043     
   36888075.4218314     
   36888239.2219881     
   36888394.6382335     
   36888541.2977156     
   36888678.8467635     
   36888806.9498011     
   36888925.2882829     
   36889033.5596534     
   36889131.4763303     
   36889218.7647117     
   36889295.1642092     
   36889360.4263054     
   36889414.3136363     
   36889456.5991003     
   36889487.0649900     
   36889505.5021504     
   36889511.7091594     
   36305020.0824493     
   36305032.4815491     
   36305068.3595787     
   36305125.9412922     
   36305203.5147395     
   36305299.4306644     
   36305412.1018059     
   36305540.0021095     
   36305681.6658549     
   36305835.6867052     
   36306000.7166832     
   36306175.4650819     
   36306358.6973133     
   36306549.2337015     
   36306745.9482257     
   36306947.7672182     
   36307153.6680219     
   36307362.6776130     
   36307573.8711936     
   36307786.3707580     
   36307999.3436380     
   36308212.0010316     
   36308423.5965183     
   36308633.4245659     
   36308840.8190326     
   36309045.1516669     
   36309245.8306110     
   36309442.2989081     
   36309634.0330199     
   36309820.5413548     
   36310001.3628109     
   36310176.0653364     
   36310344.2445095     
   36310505.5221402     
   36310659.5448968     
   36310805.9829582     
   36310944.5286947     
   36311074.8953781     
   36311196.8159239     
   36311310.0416650     
   36311414.3411605     
   36311509.4990385     
   36311595.3148751     
   36311671.6021090     
   36311738.1869939     
   36311794.9075872     
   36311841.6127764     
   36311878.1613421     
   36311904.4210589     
   36311920.2678310     
   36311925.5848656     
   35707893.8254423     
   35707905.7825764     
   35707940.2787606     
   35707995.4704342     
   35708069.5884319     
   35708160.9370151     
   35708267.8927984     
   35708388.9035774     
   35708522.4870668     
   35708667.2295549     
   35708821.7844832     
   35708984.8709561     
   35709155.2721895     
   35709331.8339037     
   35709513.4626678     
   35709699.1242009     
   35709887.8416374     
   35710078.6937612     
   35710270.8132144     
   35710463.3846875     
   35710655.6430936     
   35710846.8717343     
   35711036.4004602     
   35711223.6038313     
   35711407.8992820     
   35711588.7452939     
   35711765.6395815     
   35711938.1172933     
   35712105.7492337     
   35712268.1401063     
   35712424.9267850     
   35712575.7766133     
   35712720.3857359     
   35712858.4774649     
   35712989.8006833     
   35713114.1282873     
   35713231.2556706     
   35713340.9992513     
   35713443.1950447     
   35713537.6972817     
   35713624.3770757     
   35713703.1211386     
   35713773.8305463     
   35713836.4195556     
   35713890.8144724     
   35713936.9525716     
   35713974.7810688     
   35714004.2561449     
   35714025.3420215     
   35714038.0100885     
   35714042.2380817     
   35089635.4782951     
   35089646.7460198     
   35089679.1242758     
   35089730.7113518     
   35089799.6928226     
   35089884.3400838     
   35089983.0087747     
   35090094.1370991     
   35090216.2440512     
   35090347.9275588     
   35090487.8625497     
   35090634.7989514     
   35090787.5596314     
   35090945.0382870     
   35091106.1972915     
   35091270.0655034     
   35091435.7360476     
   35091602.3640740     
   35091769.1644993     
   35091935.4097399     
   35092100.4274409     
   35092263.5982062     
   35092424.3533365     
   35092582.1725785     
   35092736.5818921     
   35092887.1512383     
   35093033.4923936     
   35093175.2567938     
   35093312.1334123     
   35093443.8466751     
   35093570.1544175     
   35093690.8458845     
   35093805.7397781     
   35093914.6823555     
   35094017.5455784     
   35094114.2253193     
   35094204.6396231     
   35094288.7270299     
   35094366.4449575     
   35094437.7681481     
   35094502.6871789     
   35094561.2070388     
   35094613.3457722     
   35094659.1331907     
   35094698.6096540     
   35094731.8249198     
   35094758.8370636     
   35094779.7114689     
   35094794.5198868     
   35094803.3395655     
   35094806.2524488     
   34449171.1256943     
   34449181.3960481     
   34449210.7431004     
   34449257.2233041     
   34449318.9951952     
   34449394.3172684     
   34449481.5457391     
   34449579.1322029     
   34449685.6212035     
   34449799.6477208     
   34449919.9345886     
   34450045.2898526     
   34450174.6040779     
   34450306.8476151     
   34450441.0678345     
   34450576.3863359     
   34450711.9961420     
   34450847.1588839     
   34450981.2019849     
   34451113.5158491     
   34451243.5510630     
   34451370.8156141     
   34451494.8721336     
   34451615.3351679     
   34451731.8684846     
   34451844.1824170     
   34451952.0312521     
   34452055.2106669     
   34452153.5552154     
   34452246.9358717     
   34452335.2576315     
   34452418.4571761     
   34452496.5006015     
   34452569.3812154     
   34452637.1174053     
   34452699.7505799     
   34452757.3431858     
   34452809.9768024     
   34452857.7503168     
   34452900.7781801     
   34452939.1887473     
   34452973.1227026     
   34453002.7315706     
   34453028.1763155     
   34453049.6260291     
   34453067.2567087     
   34453081.2501249     
   34453091.7927805     
   34453099.0749607     
   34453103.2898749     
   34453104.6328886     
   33785369.2546820     
   33785378.1488728     
   33785403.3448638     
   33785442.8818077     
   33785494.9176705     
   33785557.7262483     
   33785629.6940767     
   33785709.3172454     
   33785795.1981325     
   33785886.0420704     
   33785980.6539556     
   33786077.9348138     
   33786176.8783321     
   33786276.5673674     
   33786376.1704411     
   33786474.9382310     
   33786572.2000655     
   33786667.3604331     
   33786759.8955096     
   33786849.3497151     
   33786935.3323037     
   33787017.5139939     
   33787095.6236461     
   33787169.4449902     
   33787238.8134113     
   33787303.6127956     
   33787363.7724432     
   33787419.2640488     
   33787470.0987573     
   33787516.3242960     
   33787558.0221859     
   33787595.3050376     
   33787628.3139320     
   33787657.2158907     
   33787682.2014364     
   33787703.4822480     
   33787721.2889111     
   33787735.8687663     
   33787747.4838576     
   33787756.4089836     
   33787762.9298514     
   33787767.3413371     
   33787769.9458533     
   33787771.0518260     
   33787770.9722811     
   33787770.0235443     
   33787768.5240524     
   33787766.7932803     
   33787765.1507827     
   33787763.9153510     
   33787763.4042883     
   33097036.1052218     
   33097043.1635768     
   33097062.8538365     
   33097093.2331562     
   33097132.4960496     
   33097178.9703070     
   33097231.1128247     
   33097287.5053596     
   33097346.8502249     
   33097407.9659422     
   33097469.7828631     
   33097531.3387728     
   33097591.7744889     
   33097650.3294662     
   33097706.3374175     
   33097759.2219612     
   33097808.4923047     
   33097853.7389706     
   33097894.6295759     
   33097930.9046678     
   33097962.3736273     
   33097988.9106409     
   33098010.4507509     
   33098026.9859854     
   33098038.5615748     
   33098045.2722570     
   33098047.2586761     
   33098044.7038772     
   33098037.8299008     
   33098026.8944785     
   33098012.1878335     
   33097994.0295879     
   33097972.7657780     
   33097948.7659814     
   33097922.4205565     
   33097894.1379960     
   33097864.3423981     
   33097833.4710552     
   33097801.9721631     
   33097770.3026533     
   33097738.9261477     
   33097708.3110415     
   33097678.9287125     
   33097651.2518624     
   33097625.7529890     
   33097602.9029943     
   33097583.1699283     
   33097567.0178720     
   33097554.9059614     
   33097547.2875534     
   33097544.6095375     
   32382910.4810488     
   32382915.1543984     
   32382927.7259348     
   32382946.3199499     
   32382969.2181178     
   32382994.8540351     
   32383021.8077050     
   32383048.7999841     
   32383074.6870093     
   32383098.4546207     
   32383119.2127963     
   32383136.1901119     
   32383148.7282397     
   32383156.2764974     
   32383158.3864589     
   32383154.7066353     
   32383144.9772378     
   32383129.0250270     
   32383106.7582588     
   32383078.1617316     
   32383043.2919400     
   32383002.2723410     
   32382955.2887352     
   32382902.5847685     
   32382844.4575542     
   32382781.2534206     
   32382713.3637845     
   32382641.2211529     
   32382565.2952531     
   32382486.0892934     
   32382404.1363541     
   32382319.9959112     
   32382234.2504905     
   32382147.5024564     
   32382060.3709332     
   32381973.4888611     
   32381887.5001876     
   32381803.0571954     
   32381720.8179684     
   32381641.4439970     
   32381565.5979246     
   32381493.9414385     
   32381427.1333057     
   32381365.8275585     
   32381310.6718308     
   32381262.3058503     
   32381221.3600880     
   32381188.4545707     
   32381164.1978584     
   32381149.1861920     
   32381144.0028137     
   31641657.8952059     
   31641659.5394573     
   31641663.1074632     
   31641666.8572263     
   31641669.2249915     
   31641668.8180847     
   31641664.4077523     
   31641654.9220217     
   31641639.4386040     
   31641617.1778545     
   31641587.4958098     
   31641549.8773136     
   31641503.9292465     
   31641449.3738728     
   31641386.0423113     
   31641313.8681436     
   31641232.8811646     
   31641143.2012846     
   31641045.0325855     
   31640938.6575391     
   31640824.4313869     
   31640702.7766871     
   31640574.1780280     
   31640439.1769101     
   31640298.3667948     
   31640152.3883210     
   31640001.9246876     
   31639847.6971993     
   31639690.4609763     
   31639531.0008226     
   31639370.1272538     
   31639208.6726798     
   31639047.4877419     
   31638887.4378019     
   31638729.3995811     
   31638574.2579490     
   31638422.9028605     
   31638276.2264407     
   31638135.1202185     
   31638000.4725098     
   31637873.1659505     
   31637754.0751838     
   31637644.0647021     
   31637543.9868488     
   31637454.6799838     
   31637376.9668165     
   31637311.6529131     
   31637259.5253830     
   31637221.3517517     
   31637197.8790257     
   31637189.8329597     
   30871863.8810698     
   30871861.7574680     
   30871854.1693661     
   30871839.5966560     
   30871816.7181087     
   30871784.4021420     
   30871741.6976801     
   30871687.8251236     
   30871622.1674505     
   30871544.2614685     
   30871453.7892360     
   30871350.5696670     
   30871234.5503333     
   30871105.7994752     
   30870964.4982315     
   30870810.9330954     
   30870645.4886020     
   30870468.6402533     
   30870280.9476811     
   30870083.0480502     
   30869875.6497003     
   30869659.5260256     
   30869435.5095880     
   30869204.4864608     
   30868967.3907964     
   30868725.1996133     
   30868478.9277952     
   30868229.6232954     
   30867978.3625394     
   30867726.2460178     
   30867474.3940633     
   30867223.9428035     
   30866976.0402836     
   30866731.8427525     
   30866492.5111071     
   30866259.2074893     
   30866033.0920330     
   30865815.3197572     
   30865607.0376036     
   30865409.3816192     
   30865223.4742825     
   30865050.4219778     
   30864891.3126173     
   30864747.2134198     
   30864619.1688472     
   30864508.1987096     
   30864415.2964441     
   30864341.4275795     
   30864287.5283958     
   30864254.5047895     
   30864243.2313544     
   30072026.2396270     
   30072019.5241479     
   30071998.3914666     
   30071961.6579016     
   30071908.3574317     
   30071837.7300002     
   30071749.2100203     
   30071642.4151175     
   30071517.1351343     
   30071373.3214181     
   30071211.0764104     
   30071030.6435532     
   30070832.3975262     
   30070616.8348249     
   30070384.5646884     
   30070136.3003800     
   30069872.8508252     
   30069595.1126054     
   30069304.0623045     
   30069000.7492045     
   30068686.2883223     
   30068361.8537785     
   30068028.6724884     
   30067688.0181613     
   30067341.2055960     
   30066989.5852578     
   30066634.5381204     
   30066277.4707588     
   30065919.8106755     
   30065563.0018459     
   30065208.5004649     
   30064857.7708824     
   30064512.2817108     
   30064173.5020933     
   30063842.8981195     
   30063521.9293792     
   30063212.0456441     
   30062914.6836706     
   30062631.2641193     
   30062363.1885865     
   30062111.8367484     
   30061878.5636165     
   30061664.6969101     
   30061471.5345503     
   30061300.3422824     
   30061152.3514393     
   30061028.7568553     
   30060930.7149459     
   30060859.3419677     
   30060815.7124818     
   30060800.8580486     
   29240545.9099965     
   29240533.7163343     
   29240496.4881300     
   29240433.5243150     
   29240344.3561592     
   29240228.7325867     
   29240086.6058958     
   29239918.1179043     
   29239723.5865352     
   29239503.4928705     
   29239258.4686955     
   29238989.2845502     
   29238696.8383036     
   29238382.1442569     
   29238046.3227812     
   29237690.5904914     
   29237316.2509501     
   29236924.6858976     
   29236517.3469939     
   29236095.7480598     
   29235661.4577979     
   29235216.0929744     
   29234761.3120360     
   29234298.8091389     
   29233830.3085611     
   29233357.5594703     
   29232882.3310180     
   29232406.4077296     
   29231931.5851611     
   29231459.6657929     
   29230992.4551316     
   29230531.7579923     
   29230079.3749357     
   29229637.0988349     
   29229206.7115508     
   29228789.9806947     
   29228388.6564640     
   29228004.4685326     
   29227639.1229898     
   29227294.2993162     
   29226971.6473948     
   29226672.7845554     
   29226399.2926563     
   29226152.7152092     
   29225934.5545568     
   29225746.2691185     
   29225589.2707214     
   29225464.9220411     
   29225374.5341753     
   29225319.3643648     
   29225300.6138710     
   28375716.0291266     
   28375697.4515570     
   28375641.5473024     
   28375548.2822804     
   28375417.8619008     
   28375250.7129276     
   28375047.4659393     
   28374808.9384086     
   28374536.1184830     
   28374230.1495100     
   28373892.3153278     
   28373524.0263405     
   28373126.8063894     
   28372702.2804293     
   28372252.1630102     
   28371778.2475568     
   28371282.3964342     
   28370766.5317769     
   28370232.6270573     
   28369682.6993604     
   28369118.8023302     
   28368543.0197456     
   28367957.4596832     
   28367364.2492208     
   28366765.5296307     
   28366163.4520145     
   28365560.1733273     
   28364957.8527393     
   28364358.6482850     
   28363764.7137486     
   28363178.1957388     
   28362601.2309051     
   28362035.9432524     
   28361484.4415147     
   28360948.8165476     
   28360431.1387092     
   28359933.4551986     
   28359457.7873275     
   28359006.1277050     
   28358580.4373205     
   28358182.6425154     
   28357814.6318397     
   28357478.2527947     
   28357175.3084722     
   28356907.5541006     
   28356676.6935181     
   28356484.3755931     
   28356332.1906173     
   28356221.6667189     
   28356154.2663830     
   28356131.3831416     
   27475708.5655809     
   27475682.7480884     
   27475605.7743093     
   27475478.5066321     
   27475302.0426950     
   27475077.6927650     
   27474806.9579430     
   27474491.5095560     
   27474133.1696830     
   27473733.8928092     
   27473295.7486434     
   27472820.9061373     
   27472311.6187296     
   27471770.2108166     
   27471199.0654391     
   27470600.6131579     
   27469977.3220848     
   27469331.6890218     
   27468666.2316562     
   27467983.4817494     
   27467285.9792517     
   27466576.2672681     
   27465856.8877988     
   27465130.3781713     
   27464399.2680814     
   27463666.0771594     
   27462933.3129790     
   27462203.4694242     
   27461479.0253357     
   27460762.4433584     
   27460056.1689133     
   27459362.6292254     
   27458684.2323364     
   27458023.3660426     
   27457382.3966967     
   27456763.6678231     
   27456169.4984986     
   27455602.1814589     
   27455063.9808951     
   27454557.1299167     
   27454083.8276575     
   27453646.2360146     
   27453246.4760148     
   27452886.6238146     
   27452568.7063511     
   27452294.6966755     
   27452066.5090139     
   27451885.9935919     
   27451754.9312179     
   27451675.0275611     
   27451647.9073198     
   26538557.6077860     
   26538523.8566723     
   26538423.9423586     
   26538259.9126922     
   26538034.0275351     
   26537748.7299069     
   26537406.6198171     
   26537010.4292831     
   26536562.9987924     
   26536067.2555315     
   26535526.1935280     
   26534942.8557390     
   26534320.3180648     
   26533661.6752521     
   26532970.0286347     
   26532248.4756497     
   26531500.1010504     
   26530727.9697209     
   26529935.1209803     
   26529124.5642550     
   26528299.2759857     
   26527462.1976336     
   26526616.2346471     
   26525764.2562529     
   26524909.0959372     
   26524053.5524896     
   26523200.3914862     
   26522352.3470940     
   26521512.1240858     
   26520682.3999582     
   26519865.8270516     
   26519065.0345737     
   26518282.6304353     
   26517521.2028057     
   26516783.3213064     
   26516071.5377600     
   26515388.3864213     
   26514736.3836239     
   26514118.0267835     
   26513535.7927109     
   26512992.1351966     
   26512489.4818414     
   26512030.2301153     
   26511616.7426320     
   26511251.3416316     
   26510936.3026747     
   26510673.8475878     
   26510466.1367893     
   26510315.2612809     
   26510223.2345977     
   26510191.9838593     
   25562137.8827590     
   25562095.8166601     
   25561972.1259646     
   25561770.4028044     
   25561494.3986059     
   25561147.9922278     
   25560735.1538746     
   25560259.9122258     
   25559726.3256158     
   25559138.4568087     
   25558500.3509735     
   25557816.0166911     
   25557089.4099461     
   25556324.4210671     
   25555524.8645312     
   25554694.4714835     
   25553836.8847658     
   25552955.6562061     
   25552054.2459012     
   25551136.0232195     
   25550204.2692580     
   25549262.1805026     
   25548312.8734650     
   25547359.3900873     
   25546404.7037330     
   25545451.7255992     
   25544503.3114064     
   25543562.2682383     
   25542631.3614130     
   25541713.3212782     
   25540810.8498279     
   25539926.6270402     
   25539063.3168340     
   25538223.5725417     
   25537410.0417880     
   25536625.3706596     
   25535872.2070468     
   25535153.2030334     
   25534471.0162128     
   25533828.3098166     
   25533227.7515578     
   25532672.0111170     
   25532163.7562366     
   25531705.6474240     
   25531300.3312842     
   25530950.4324824     
   25530658.5442290     
   25530427.2169860     
   25530258.9449758     
   25530156.1508082     
   25530121.1727833     
   24544135.8640728     
   24544085.7481553     
   24543939.3232491     
   24543702.2060366     
   24543380.0909528     
   24542978.6723010     
   24542503.6013101     
   24541960.4520812     
   24541354.6904246     
   24540691.6457923     
   24539976.4876643     
   24539214.2073366     
   24538409.6053886     
   24537567.2845673     
   24536691.6474986     
   24535786.8984908     
   24534857.0486638     
   24533905.9236870     
   24532937.1734900     
   24531954.2834068     
   24530960.5863134     
   24529959.2754035     
   24528953.4173307     
   24527945.9655060     
   24526939.7733957     
   24525937.6077077     
   24524942.1613851     
   24523956.0663508     
   24522981.9059624     
   24522022.2271462     
   24521079.5521798     
   24520156.3900902     
   24519255.2476239     
   24518378.6397272     
   24517529.0994548     
   24516709.1871888     
   24515921.4990207     
   24515168.6740969     
   24514453.4006876     
   24513778.4206865     
   24513146.5322084     
   24512560.5899362     
   24512023.5028840     
   24511538.2293394     
   24511107.7689466     
   24510735.1522135     
   24510423.4281539     
   24510175.6510503     
   24509994.8666890     
   24509884.0947041     
   24509846.2913052     
   23482008.9969929     
   23481951.9017479     
   23481786.9886293     
   23481522.6043000     
   23481166.8409371     
   23480727.5957182     
   23480212.5266637     
   23479628.9867826     
   23478983.9682380     
   23478284.0657763     
   23477535.4593280     
   23476743.9123972     
   23475914.7822011     
   23475053.0379076     
   23474163.2840284     
   23473249.7867431     
   23472316.5015533     
   23471367.1011588     
   23470405.0028244     
   23469433.3947835     
   23468455.2614223     
   23467473.4071304     
   23466490.4787992     
   23465508.9870164     
   23464531.3260451     
   23463559.7927056     
   23462596.6042931     
   23461643.9156698     
   23460703.8356769     
   23459778.4430060     
   23458869.8016674     
   23457979.9761831     
   23457111.0466200     
   23456265.1235619     
   23455444.3630943     
   23454650.9818411     
   23453887.2720416     
   23453155.6165880     
   23452458.5038415     
   23451798.5419075     
   23451178.4718602     
   23450601.1791520     
   23450069.7021169     
   23449587.2360911     
   23449157.1312780     
   23448782.8822445     
   23448468.1072390     
   23448216.5172676     
   23448031.8799986     
   23447917.9962491     
   23447878.7357057     
   22372918.5365952     
   22372858.7542470     
   22372686.9933811     
   22372414.7807566     
   22372053.6914532     
   22371614.6823581     
   22371107.8052175     
   22370542.1212795     
   22369925.7190807     
   22369265.7813696     
   22368568.6719387     
   22367840.0269246     
   22367084.8427870     
   22366307.5573803     
   22365512.1228142     
   22364702.0699946     
   22363880.5653320     
   22363050.4603693     
   22362214.3351600     
   22361374.5362212     
   22360533.2098267     
   22359692.3313364     
   22358853.7311770     
   22358019.1180204     
   22357190.0996389     
   22356368.2018611     
   22355554.8860078     
   22354751.5651470     
   22353959.6194832     
   22353180.4111724     
   22352415.2988467     
   22351665.6521228     
   22350932.8663792     
   22350218.3780901     
   22349523.6810288     
   22348850.3436726     
   22348200.0281735     
   22347574.5112905     
   22346975.7077063     
   22346405.6961651     
   22345866.7488420     
   22345361.3642554     
   22344892.3037739     
   22344462.6312336     
   22344075.7541037     
   22343735.4625843     
   22343445.9591768     
   22343211.8641531     
   22343038.1692920     
   22342930.0884101     
   22342892.7100061     
   21213617.3566528     
   21213558.3287887     
   21213400.5548053     
   21213164.8443685     
   21212866.9986855     
   21212519.2298513     
   21212131.1301086     
   21211710.3450962     
   21211263.0498652     
   21210794.2914179     
   21210308.2394045     
   21209808.3725624     
   21209297.6194632     
   21208778.4662633     
   21208253.0402819     
   21207723.1756293     
   21207190.4653435     
   21206656.3032700     
   21206121.9180662     
   21205588.4011051     
   21205056.7296159     
   21204527.7860873     
   21204002.3747227     
   21203481.2355712     
   21202965.0568281     
   21202454.4857067     
   21201950.1382162     
   21201452.6081254     
   21200962.4753652     
   21200480.3140951     
   21200006.7006518     
   21199542.2216011     
   21199087.4821227     
   21198643.1149894     
   21198209.7904400     
   21197788.2273103     
   21197379.2058792     
   21196983.5830118     
   21196602.3103711     
   21196236.4567283     
   21195887.2357831     
   21195556.0414624     
   21195244.4934851     
   21194954.4972189     
   21194688.3237428     
   21194448.7189473     
   21194239.0550852     
   21194063.5454454     
   21193927.5543903     
   21193838.0534432     
   21193804.3030886     
   20000000.0000000     
   20000000.0000000     
   20000000.0000000     
   20000000.0000000     
   20000000.0000000     
   20000000.0000000     
   20000000.0000000     
   20000000.0000000     
   20000000.0000000     
   20000000.0000000     
   20000000.0000000     
   20000000.0000000     
   20000000.0000000     
   20000000.0000000     
   20000000.0000000     
   20000000.0000000     
   20000000.0000000     
   20000000.0000000     
   20000000.0000000     
   20000000.0000000     
   20000000.0000000     
   20000000.0000000     
   20000000.0000000     
   20000000.0000000     
   20000000.0000000     
   20000000.0000000     
   20000000.0000000     
   20000000.0000000     
   20000000.0000000     
   20000000.0000000     
   20000000.0000000     
   20000000.0000000     
   20000000.0000000     
   20000000.0000000     
   20000000.0000000     
   20000000.0000000     
   20000000.0000000     
   20000000.0000000     
   20000000.0000000     
   20000000.0000000     
   20000000.0000000     
   20000000.0000000     
   20000000.0000000     
   20000000.0000000     
   20000000.0000000     
   20000000.0000000     
   20000000.0000000     
   20000000.0000000     
   20000000.0000000     
   20000000.0000000     
   20000000.0000000     
VECTORS u double 
    0.00000E+00         0.68687E-02         0.00000E+00
    0.00000E+00         0.67337E-02         0.00000E+00
    0.00000E+00         0.65984E-02         0.00000E+00
    0.00000E+00         0.64631E-02         0.00000E+00
    0.00000E+00         0.63277E-02         0.00000E+00
    0.00000E+00         0.61923E-02         0.00000E+00
    0.00000E+00         0.60570E-02         0.00000E+00
    0.00000E+00         0.59219E-02         0.00000E+00
    0.00000E+00         0.57868E-02         0.00000E+00
    0.00000E+00         0.56518E-02         0.00000E+00
    0.00000E+00         0.55169E-02         0.00000E+00
    0.00000E+00         0.53822E-02         0.00000E+00
    0.00000E+00         0.52475E-02         0.00000E+00
    0.00000E+00         0.51129E-02         0.00000E+00
    0.00000E+00         0.49783E-02         0.00000E+00
    0.00000E+00         0.48439E-02         0.00000E+00
    0.00000E+00         0.47094E-02         0.00000E+00
    0.00000E+00         0.45751E-02         0.00000E+00
    0.00000E+00         0.44407E-02         0.00000E+00
    0.00000E+00         0.43064E-02         0.00000E+00
    0.00000E+00         0.41720E-02         0.00000E+00
    0.00000E+00         0.40376E-02         0.00000E+00
    0.00000E+00         0.39032E-02         0.00000E+00
    0.00000E+00         0.37686E-02         0.00000E+00
    0.00000E+00         0.36341E-02         0.00000E+00
    0.00000E+00         0.34994E-02         0.00000E+00
    0.00000E+00         0.33645E-02         0.00000E+00
    0.00000E+00         0.32295E-02         0.00000E+00
    0.00000E+00         0.30944E-02         0.00000E+00
    0.00000E+00         0.29590E-02         0.00000E+00
    0.00000E+00         0.28234E-02         0.00000E+00
    0.00000E+00         0.26876E-02         0.00000E+00
    0.00000E+00         0.25514E-02         0.00000E+00
    0.00000E+00         0.24150E-02         0.00000E+00
    0.00000E+00         0.22782E-02         0.00000E+00
    0.00000E+00         0.21410E-02         0.00000E+00
    0.00000E+00         0.20034E-02         0.00000E+00
    0.00000E+00         0.18654E-02         0.00000E+00
    0.00000E+00         0.17268E-02         0.00000E+00
    0.00000E+00         0.15877E-02         0.00000E+00
    0.00000E+00         0.14480E-02         0.00000E+00
    0.00000E+00         0.13077E-02         0.00000E+00
    0.00000E+00         0.11666E-02         0.00000E+00
    0.00000E+00         0.10247E-02         0.00000E+00
    0.00000E+00         0.88202E-03         0.00000E+00
    0.00000E+00         0.73833E-03         0.00000E+00
    0.00000E+00         0.59356E-03         0.00000E+00
    0.00000E+00         0.44756E-03         0.00000E+00
    0.00000E+00         0.30015E-03         0.00000E+00
    0.00000E+00         0.15108E-03         0.00000E+00
    0.00000E+00         0.00000E+00         0.00000E+00
    0.37124E-03         0.68113E-02         0.00000E+00
    0.35329E-03         0.66810E-02         0.00000E+00
    0.33826E-03         0.65498E-02         0.00000E+00
    0.32533E-03         0.64181E-02         0.00000E+00
    0.31396E-03         0.62858E-02         0.00000E+00
    0.30381E-03         0.61533E-02         0.00000E+00
    0.29463E-03         0.60204E-02         0.00000E+00
    0.28622E-03         0.58874E-02         0.00000E+00
    0.27846E-03         0.57542E-02         0.00000E+00
    0.27123E-03         0.56210E-02         0.00000E+00
    0.26445E-03         0.54877E-02         0.00000E+00
    0.25805E-03         0.53544E-02         0.00000E+00
    0.25197E-03         0.52210E-02         0.00000E+00
    0.24616E-03         0.50876E-02         0.00000E+00
    0.24059E-03         0.49542E-02         0.00000E+00
    0.23521E-03         0.48208E-02         0.00000E+00
    0.22999E-03         0.46874E-02         0.00000E+00
    0.22491E-03         0.45540E-02         0.00000E+00
    0.21995E-03         0.44205E-02         0.00000E+00
    0.21508E-03         0.42870E-02         0.00000E+00
    0.21027E-03         0.41534E-02         0.00000E+00
    0.20552E-03         0.40198E-02         0.00000E+00
    0.20081E-03         0.38861E-02         0.00000E+00
    0.19612E-03         0.37523E-02         0.00000E+00
    0.19143E-03         0.36184E-02         0.00000E+00
    0.18673E-03         0.34843E-02         0.00000E+00
    0.18200E-03         0.33501E-02         0.00000E+00
    0.17724E-03         0.32157E-02         0.00000E+00
    0.17242E-03         0.30811E-02         0.00000E+00
    0.16754E-03         0.29463E-02         0.00000E+00
    0.16257E-03         0.28112E-02         0.00000E+00
    0.15751E-03         0.26759E-02         0.00000E+00
    0.15234E-03         0.25403E-02         0.00000E+00
    0.14703E-03         0.24043E-02         0.00000E+00
    0.14158E-03         0.22680E-02         0.00000E+00
    0.13596E-03         0.21313E-02         0.00000E+00
    0.13015E-03         0.19941E-02         0.00000E+00
    0.12412E-03         0.18565E-02         0.00000E+00
    0.11785E-03         0.17184E-02         0.00000E+00
    0.11131E-03         0.15797E-02         0.00000E+00
    0.10446E-03         0.14405E-02         0.00000E+00
    0.97245E-04         0.13005E-02         0.00000E+00
    0.89623E-04         0.11599E-02         0.00000E+00
    0.81526E-04         0.10185E-02         0.00000E+00
    0.72873E-04         0.87629E-03         0.00000E+00
    0.63560E-04         0.73312E-03         0.00000E+00
    0.53453E-04         0.58895E-03         0.00000E+00
    0.42368E-04         0.44366E-03         0.00000E+00
    0.30050E-04         0.29716E-03         0.00000E+00
    0.16123E-04         0.14931E-03         0.00000E+00
    0.00000E+00         0.00000E+00         0.00000E+00
    0.69436E-03         0.66885E-02         0.00000E+00
    0.66670E-03         0.65621E-02         0.00000E+00
    0.64151E-03         0.64354E-02         0.00000E+00
    0.61861E-03         0.63082E-02         0.00000E+00
    0.59772E-03         0.61805E-02         0.00000E+00
    0.57858E-03         0.60524E-02         0.00000E+00
    0.56095E-03         0.59239E-02         0.00000E+00
    0.54460E-03         0.57950E-02         0.00000E+00
    0.52936E-03         0.56659E-02         0.00000E+00
    0.51508E-03         0.55364E-02         0.00000E+00
    0.50162E-03         0.54067E-02         0.00000E+00
    0.48886E-03         0.52768E-02         0.00000E+00
    0.47671E-03         0.51466E-02         0.00000E+00
    0.46509E-03         0.50163E-02         0.00000E+00
    0.45391E-03         0.48858E-02         0.00000E+00
    0.44312E-03         0.47552E-02         0.00000E+00
    0.43266E-03         0.46244E-02         0.00000E+00
    0.42247E-03         0.44935E-02         0.00000E+00
    0.41251E-03         0.43625E-02         0.00000E+00
    0.40273E-03         0.42312E-02         0.00000E+00
    0.39310E-03         0.40999E-02         0.00000E+00
    0.38358E-03         0.39684E-02         0.00000E+00
    0.37413E-03         0.38367E-02         0.00000E+00
    0.36474E-03         0.37048E-02         0.00000E+00
    0.35535E-03         0.35728E-02         0.00000E+00
    0.34596E-03         0.34405E-02         0.00000E+00
    0.33652E-03         0.33081E-02         0.00000E+00
    0.32702E-03         0.31754E-02         0.00000E+00
    0.31742E-03         0.30424E-02         0.00000E+00
    0.30770E-03         0.29092E-02         0.00000E+00
    0.29783E-03         0.27757E-02         0.00000E+00
    0.28778E-03         0.26419E-02         0.00000E+00
    0.27752E-03         0.25078E-02         0.00000E+00
    0.26702E-03         0.23733E-02         0.00000E+00
    0.25625E-03         0.22384E-02         0.00000E+00
    0.24517E-03         0.21031E-02         0.00000E+00
    0.23374E-03         0.19674E-02         0.00000E+00
    0.22193E-03         0.18311E-02         0.00000E+00
    0.20967E-03         0.16944E-02         0.00000E+00
    0.19693E-03         0.15571E-02         0.00000E+00
    0.18364E-03         0.14193E-02         0.00000E+00
    0.16974E-03         0.12808E-02         0.00000E+00
    0.15514E-03         0.11416E-02         0.00000E+00
    0.13977E-03         0.10018E-02         0.00000E+00
    0.12351E-03         0.86115E-03         0.00000E+00
    0.10626E-03         0.71976E-03         0.00000E+00
    0.87868E-04         0.57753E-03         0.00000E+00
    0.68196E-04         0.43444E-03         0.00000E+00
    0.47080E-04         0.29048E-03         0.00000E+00
    0.24372E-04         0.14565E-03         0.00000E+00
    0.00000E+00         0.00000E+00         0.00000E+00
    0.97290E-03         0.65266E-02         0.00000E+00
    0.93878E-03         0.64041E-02         0.00000E+00
    0.90695E-03         0.62813E-02         0.00000E+00
    0.87722E-03         0.61582E-02         0.00000E+00
    0.84942E-03         0.60348E-02         0.00000E+00
    0.82337E-03         0.59110E-02         0.00000E+00
    0.79893E-03         0.57869E-02         0.00000E+00
    0.77591E-03         0.56624E-02         0.00000E+00
    0.75419E-03         0.55376E-02         0.00000E+00
    0.73360E-03         0.54124E-02         0.00000E+00
    0.71403E-03         0.52869E-02         0.00000E+00
    0.69536E-03         0.51611E-02         0.00000E+00
    0.67748E-03         0.50350E-02         0.00000E+00
    0.66030E-03         0.49086E-02         0.00000E+00
    0.64371E-03         0.47820E-02         0.00000E+00
    0.62766E-03         0.46550E-02         0.00000E+00
    0.61205E-03         0.45279E-02         0.00000E+00
    0.59683E-03         0.44004E-02         0.00000E+00
    0.58194E-03         0.42727E-02         0.00000E+00
    0.56731E-03         0.41448E-02         0.00000E+00
    0.55289E-03         0.40166E-02         0.00000E+00
    0.53864E-03         0.38882E-02         0.00000E+00
    0.52450E-03         0.37595E-02         0.00000E+00
    0.51045E-03         0.36306E-02         0.00000E+00
    0.49642E-03         0.35014E-02         0.00000E+00
    0.48239E-03         0.33720E-02         0.00000E+00
    0.46831E-03         0.32422E-02         0.00000E+00
    0.45415E-03         0.31122E-02         0.00000E+00
    0.43986E-03         0.29818E-02         0.00000E+00
    0.42542E-03         0.28511E-02         0.00000E+00
    0.41077E-03         0.27201E-02         0.00000E+00
    0.39590E-03         0.25888E-02         0.00000E+00
    0.38074E-03         0.24571E-02         0.00000E+00
    0.36527E-03         0.23250E-02         0.00000E+00
    0.34945E-03         0.21924E-02         0.00000E+00
    0.33322E-03         0.20595E-02         0.00000E+00
    0.31654E-03         0.19261E-02         0.00000E+00
    0.29936E-03         0.17922E-02         0.00000E+00
    0.28163E-03         0.16579E-02         0.00000E+00
    0.26328E-03         0.15230E-02         0.00000E+00
    0.24427E-03         0.13876E-02         0.00000E+00
    0.22451E-03         0.12516E-02         0.00000E+00
    0.20394E-03         0.11150E-02         0.00000E+00
    0.18249E-03         0.97785E-03         0.00000E+00
    0.16005E-03         0.84006E-03         0.00000E+00
    0.13656E-03         0.70165E-03         0.00000E+00
    0.11192E-03         0.56259E-03         0.00000E+00
    0.86035E-04         0.42289E-03         0.00000E+00
    0.58820E-04         0.28255E-03         0.00000E+00
    0.30181E-04         0.14159E-03         0.00000E+00
    0.00000E+00         0.00000E+00         0.00000E+00
    0.12110E-02         0.63387E-02         0.00000E+00
    0.11726E-02         0.62201E-02         0.00000E+00
    0.11361E-02         0.61012E-02         0.00000E+00
    0.11016E-02         0.59821E-02         0.00000E+00
    0.10688E-02         0.58627E-02         0.00000E+00
    0.10377E-02         0.57431E-02         0.00000E+00
    0.10081E-02         0.56232E-02         0.00000E+00
    0.97986E-03         0.55029E-02         0.00000E+00
    0.95291E-03         0.53823E-02         0.00000E+00
    0.92711E-03         0.52615E-02         0.00000E+00
    0.90237E-03         0.51402E-02         0.00000E+00
    0.87857E-03         0.50187E-02         0.00000E+00
    0.85563E-03         0.48968E-02         0.00000E+00
    0.83345E-03         0.47746E-02         0.00000E+00
    0.81194E-03         0.46521E-02         0.00000E+00
    0.79102E-03         0.45293E-02         0.00000E+00
    0.77062E-03         0.44061E-02         0.00000E+00
    0.75067E-03         0.42827E-02         0.00000E+00
    0.73110E-03         0.41589E-02         0.00000E+00
    0.71184E-03         0.40348E-02         0.00000E+00
    0.69284E-03         0.39104E-02         0.00000E+00
    0.67405E-03         0.37857E-02         0.00000E+00
    0.65540E-03         0.36607E-02         0.00000E+00
    0.63685E-03         0.35354E-02         0.00000E+00
    0.61834E-03         0.34097E-02         0.00000E+00
    0.59984E-03         0.32837E-02         0.00000E+00
    0.58129E-03         0.31574E-02         0.00000E+00
    0.56265E-03         0.30307E-02         0.00000E+00
    0.54388E-03         0.29037E-02         0.00000E+00
    0.52493E-03         0.27763E-02         0.00000E+00
    0.50576E-03         0.26486E-02         0.00000E+00
    0.48632E-03         0.25204E-02         0.00000E+00
    0.46657E-03         0.23919E-02         0.00000E+00
    0.44647E-03         0.22630E-02         0.00000E+00
    0.42596E-03         0.21337E-02         0.00000E+00
    0.40501E-03         0.20039E-02         0.00000E+00
    0.38356E-03         0.18737E-02         0.00000E+00
    0.36157E-03         0.17431E-02         0.00000E+00
    0.33897E-03         0.16120E-02         0.00000E+00
    0.31573E-03         0.14804E-02         0.00000E+00
    0.29178E-03         0.13483E-02         0.00000E+00
    0.26706E-03         0.12158E-02         0.00000E+00
    0.24152E-03         0.10827E-02         0.00000E+00
    0.21510E-03         0.94914E-03         0.00000E+00
    0.18772E-03         0.81506E-03         0.00000E+00
    0.15934E-03         0.68046E-03         0.00000E+00
    0.12988E-03         0.54536E-03         0.00000E+00
    0.99278E-04         0.40975E-03         0.00000E+00
    0.67474E-04         0.27364E-03         0.00000E+00
    0.34401E-04         0.13705E-03         0.00000E+00
    0.00000E+00         0.00000E+00         0.00000E+00
    0.14127E-02         0.61339E-02         0.00000E+00
    0.13714E-02         0.60190E-02         0.00000E+00
    0.13319E-02         0.59040E-02         0.00000E+00
    0.12940E-02         0.57888E-02         0.00000E+00
    0.12577E-02         0.56734E-02         0.00000E+00
    0.12229E-02         0.55578E-02         0.00000E+00
    0.11894E-02         0.54419E-02         0.00000E+00
    0.11572E-02         0.53258E-02         0.00000E+00
    0.11262E-02         0.52094E-02         0.00000E+00
    0.10963E-02         0.50927E-02         0.00000E+00
    0.10673E-02         0.49757E-02         0.00000E+00
    0.10393E-02         0.48584E-02         0.00000E+00
    0.10121E-02         0.47408E-02         0.00000E+00
    0.98561E-03         0.46228E-02         0.00000E+00
    0.95982E-03         0.45045E-02         0.00000E+00
    0.93463E-03         0.43859E-02         0.00000E+00
    0.90996E-03         0.42670E-02         0.00000E+00
    0.88575E-03         0.41477E-02         0.00000E+00
    0.86193E-03         0.40281E-02         0.00000E+00
    0.83844E-03         0.39081E-02         0.00000E+00
    0.81523E-03         0.37878E-02         0.00000E+00
    0.79223E-03         0.36672E-02         0.00000E+00
    0.76939E-03         0.35462E-02         0.00000E+00
    0.74665E-03         0.34248E-02         0.00000E+00
    0.72397E-03         0.33031E-02         0.00000E+00
    0.70129E-03         0.31811E-02         0.00000E+00
    0.67857E-03         0.30586E-02         0.00000E+00
    0.65575E-03         0.29359E-02         0.00000E+00
    0.63280E-03         0.28127E-02         0.00000E+00
    0.60967E-03         0.26892E-02         0.00000E+00
    0.58630E-03         0.25653E-02         0.00000E+00
    0.56266E-03         0.24410E-02         0.00000E+00
    0.53870E-03         0.23163E-02         0.00000E+00
    0.51438E-03         0.21912E-02         0.00000E+00
    0.48964E-03         0.20657E-02         0.00000E+00
    0.46445E-03         0.19398E-02         0.00000E+00
    0.43876E-03         0.18134E-02         0.00000E+00
    0.41252E-03         0.16867E-02         0.00000E+00
    0.38569E-03         0.15595E-02         0.00000E+00
    0.35821E-03         0.14319E-02         0.00000E+00
    0.33005E-03         0.13038E-02         0.00000E+00
    0.30115E-03         0.11754E-02         0.00000E+00
    0.27146E-03         0.10465E-02         0.00000E+00
    0.24094E-03         0.91711E-03         0.00000E+00
    0.20954E-03         0.78733E-03         0.00000E+00
    0.17721E-03         0.65712E-03         0.00000E+00
    0.14390E-03         0.52649E-03         0.00000E+00
    0.10957E-03         0.39546E-03         0.00000E+00
    0.74172E-04         0.26402E-03         0.00000E+00
    0.37663E-04         0.13219E-03         0.00000E+00
    0.00000E+00         0.00000E+00         0.00000E+00
    0.15818E-02         0.59185E-02         0.00000E+00
    0.15388E-02         0.58074E-02         0.00000E+00
    0.14973E-02         0.56962E-02         0.00000E+00
    0.14572E-02         0.55848E-02         0.00000E+00
    0.14185E-02         0.54733E-02         0.00000E+00
    0.13810E-02         0.53617E-02         0.00000E+00
    0.13447E-02         0.52498E-02         0.00000E+00
    0.13096E-02         0.51377E-02         0.00000E+00
    0.12755E-02         0.50254E-02         0.00000E+00
    0.12423E-02         0.49128E-02         0.00000E+00
    0.12101E-02         0.47999E-02         0.00000E+00
    0.11786E-02         0.46868E-02         0.00000E+00
    0.11479E-02         0.45734E-02         0.00000E+00
    0.11179E-02         0.44596E-02         0.00000E+00
    0.10886E-02         0.43456E-02         0.00000E+00
    0.10597E-02         0.42312E-02         0.00000E+00
    0.10314E-02         0.41165E-02         0.00000E+00
    0.10035E-02         0.40015E-02         0.00000E+00
    0.97598E-03         0.38861E-02         0.00000E+00
    0.94876E-03         0.37704E-02         0.00000E+00
    0.92180E-03         0.36543E-02         0.00000E+00
    0.89504E-03         0.35379E-02         0.00000E+00
    0.86843E-03         0.34212E-02         0.00000E+00
    0.84192E-03         0.33041E-02         0.00000E+00
    0.81547E-03         0.31866E-02         0.00000E+00
    0.78901E-03         0.30688E-02         0.00000E+00
    0.76250E-03         0.29506E-02         0.00000E+00
    0.73591E-03         0.28320E-02         0.00000E+00
    0.70917E-03         0.27130E-02         0.00000E+00
    0.68225E-03         0.25937E-02         0.00000E+00
    0.65510E-03         0.24740E-02         0.00000E+00
    0.62768E-03         0.23540E-02         0.00000E+00
    0.59995E-03         0.22335E-02         0.00000E+00
    0.57185E-03         0.21127E-02         0.00000E+00
    0.54336E-03         0.19914E-02         0.00000E+00
    0.51443E-03         0.18698E-02         0.00000E+00
    0.48501E-03         0.17478E-02         0.00000E+00
    0.45506E-03         0.16254E-02         0.00000E+00
    0.42455E-03         0.15026E-02         0.00000E+00
    0.39343E-03         0.13794E-02         0.00000E+00
    0.36167E-03         0.12559E-02         0.00000E+00
    0.32922E-03         0.11319E-02         0.00000E+00
    0.29604E-03         0.10076E-02         0.00000E+00
    0.26209E-03         0.88287E-03         0.00000E+00
    0.22734E-03         0.75779E-03         0.00000E+00
    0.19175E-03         0.63234E-03         0.00000E+00
    0.15529E-03         0.50654E-03         0.00000E+00
    0.11791E-03         0.38039E-03         0.00000E+00
    0.79592E-04         0.25391E-03         0.00000E+00
    0.40298E-04         0.12711E-03         0.00000E+00
    0.00000E+00         0.00000E+00         0.00000E+00
    0.17219E-02         0.56976E-02         0.00000E+00
    0.16781E-02         0.55902E-02         0.00000E+00
    0.16355E-02         0.54827E-02         0.00000E+00
    0.15940E-02         0.53752E-02         0.00000E+00
    0.15537E-02         0.52675E-02         0.00000E+00
    0.15145E-02         0.51597E-02         0.00000E+00
    0.14763E-02         0.50518E-02         0.00000E+00
    0.14390E-02         0.49436E-02         0.00000E+00
    0.14026E-02         0.48353E-02         0.00000E+00
    0.13670E-02         0.47268E-02         0.00000E+00
    0.13322E-02         0.46180E-02         0.00000E+00
    0.12981E-02         0.45089E-02         0.00000E+00
    0.12647E-02         0.43996E-02         0.00000E+00
    0.12318E-02         0.42901E-02         0.00000E+00
    0.11995E-02         0.41802E-02         0.00000E+00
    0.11677E-02         0.40700E-02         0.00000E+00
    0.11363E-02         0.39596E-02         0.00000E+00
    0.11053E-02         0.38488E-02         0.00000E+00
    0.10746E-02         0.37377E-02         0.00000E+00
    0.10442E-02         0.36263E-02         0.00000E+00
    0.10140E-02         0.35145E-02         0.00000E+00
    0.98402E-03         0.34025E-02         0.00000E+00
    0.95414E-03         0.32900E-02         0.00000E+00
    0.92433E-03         0.31773E-02         0.00000E+00
    0.89455E-03         0.30642E-02         0.00000E+00
    0.86477E-03         0.29507E-02         0.00000E+00
    0.83493E-03         0.28369E-02         0.00000E+00
    0.80499E-03         0.27227E-02         0.00000E+00
    0.77491E-03         0.26082E-02         0.00000E+00
    0.74464E-03         0.24933E-02         0.00000E+00
    0.71415E-03         0.23781E-02         0.00000E+00
    0.68340E-03         0.22624E-02         0.00000E+00
    0.65234E-03         0.21465E-02         0.00000E+00
    0.62093E-03         0.20302E-02         0.00000E+00
    0.58915E-03         0.19135E-02         0.00000E+00
    0.55694E-03         0.17964E-02         0.00000E+00
    0.52428E-03         0.16790E-02         0.00000E+00
    0.49112E-03         0.15612E-02         0.00000E+00
    0.45744E-03         0.14431E-02         0.00000E+00
    0.42319E-03         0.13247E-02         0.00000E+00
    0.38834E-03         0.12058E-02         0.00000E+00
    0.35285E-03         0.10867E-02         0.00000E+00
    0.31670E-03         0.96718E-03         0.00000E+00
    0.27986E-03         0.84735E-03         0.00000E+00
    0.24228E-03         0.72720E-03         0.00000E+00
    0.20395E-03         0.60673E-03         0.00000E+00
    0.16483E-03         0.48596E-03         0.00000E+00
    0.12490E-03         0.36489E-03         0.00000E+00
    0.84136E-04         0.24353E-03         0.00000E+00
    0.42509E-04         0.12190E-03         0.00000E+00
    0.00000E+00         0.00000E+00         0.00000E+00
    0.18366E-02         0.54747E-02         0.00000E+00
    0.17925E-02         0.53710E-02         0.00000E+00
    0.17495E-02         0.52673E-02         0.00000E+00
    0.17074E-02         0.51635E-02         0.00000E+00
    0.16662E-02         0.50596E-02         0.00000E+00
    0.16258E-02         0.49556E-02         0.00000E+00
    0.15863E-02         0.48515E-02         0.00000E+00
    0.15476E-02         0.47473E-02         0.00000E+00
    0.15096E-02         0.46429E-02         0.00000E+00
    0.14723E-02         0.45383E-02         0.00000E+00
    0.14356E-02         0.44335E-02         0.00000E+00
    0.13995E-02         0.43285E-02         0.00000E+00
    0.13639E-02         0.42233E-02         0.00000E+00
    0.13288E-02         0.41178E-02         0.00000E+00
    0.12942E-02         0.40121E-02         0.00000E+00
    0.12600E-02         0.39061E-02         0.00000E+00
    0.12261E-02         0.37998E-02         0.00000E+00
    0.11926E-02         0.36933E-02         0.00000E+00
    0.11593E-02         0.35864E-02         0.00000E+00
    0.11262E-02         0.34793E-02         0.00000E+00
    0.10933E-02         0.33718E-02         0.00000E+00
    0.10605E-02         0.32641E-02         0.00000E+00
    0.10279E-02         0.31560E-02         0.00000E+00
    0.99524E-03         0.30476E-02         0.00000E+00
    0.96263E-03         0.29389E-02         0.00000E+00
    0.92998E-03         0.28299E-02         0.00000E+00
    0.89726E-03         0.27205E-02         0.00000E+00
    0.86444E-03         0.26108E-02         0.00000E+00
    0.83146E-03         0.25008E-02         0.00000E+00
    0.79830E-03         0.23905E-02         0.00000E+00
    0.76492E-03         0.22798E-02         0.00000E+00
    0.73127E-03         0.21688E-02         0.00000E+00
    0.69733E-03         0.20574E-02         0.00000E+00
    0.66306E-03         0.19457E-02         0.00000E+00
    0.62843E-03         0.18337E-02         0.00000E+00
    0.59340E-03         0.17214E-02         0.00000E+00
    0.55793E-03         0.16087E-02         0.00000E+00
    0.52201E-03         0.14957E-02         0.00000E+00
    0.48559E-03         0.13824E-02         0.00000E+00
    0.44865E-03         0.12688E-02         0.00000E+00
    0.41115E-03         0.11549E-02         0.00000E+00
    0.37307E-03         0.10406E-02         0.00000E+00
    0.33439E-03         0.92611E-03         0.00000E+00
    0.29506E-03         0.81128E-03         0.00000E+00
    0.25508E-03         0.69617E-03         0.00000E+00
    0.21440E-03         0.58078E-03         0.00000E+00
    0.17302E-03         0.46512E-03         0.00000E+00
    0.13091E-03         0.34921E-03         0.00000E+00
    0.88047E-04         0.23304E-03         0.00000E+00
    0.44417E-04         0.11663E-03         0.00000E+00
    0.00000E+00         0.00000E+00         0.00000E+00
    0.19291E-02         0.52526E-02         0.00000E+00
    0.18853E-02         0.51526E-02         0.00000E+00
    0.18422E-02         0.50525E-02         0.00000E+00
    0.17999E-02         0.49524E-02         0.00000E+00
    0.17584E-02         0.48523E-02         0.00000E+00
    0.17175E-02         0.47521E-02         0.00000E+00
    0.16772E-02         0.46518E-02         0.00000E+00
    0.16376E-02         0.45514E-02         0.00000E+00
    0.15985E-02         0.44508E-02         0.00000E+00
    0.15600E-02         0.43501E-02         0.00000E+00
    0.15220E-02         0.42493E-02         0.00000E+00
    0.14844E-02         0.41482E-02         0.00000E+00
    0.14473E-02         0.40470E-02         0.00000E+00
    0.14105E-02         0.39455E-02         0.00000E+00
    0.13741E-02         0.38439E-02         0.00000E+00
    0.13380E-02         0.37420E-02         0.00000E+00
    0.13022E-02         0.36399E-02         0.00000E+00
    0.12666E-02         0.35375E-02         0.00000E+00
    0.12312E-02         0.34348E-02         0.00000E+00
    0.11959E-02         0.33319E-02         0.00000E+00
    0.11608E-02         0.32288E-02         0.00000E+00
    0.11258E-02         0.31253E-02         0.00000E+00
    0.10908E-02         0.30216E-02         0.00000E+00
    0.10558E-02         0.29175E-02         0.00000E+00
    0.10209E-02         0.28132E-02         0.00000E+00
    0.98581E-03         0.27086E-02         0.00000E+00
    0.95066E-03         0.26037E-02         0.00000E+00
    0.91539E-03         0.24985E-02         0.00000E+00
    0.87996E-03         0.23930E-02         0.00000E+00
    0.84434E-03         0.22872E-02         0.00000E+00
    0.80849E-03         0.21811E-02         0.00000E+00
    0.77238E-03         0.20747E-02         0.00000E+00
    0.73598E-03         0.19680E-02         0.00000E+00
    0.69926E-03         0.18610E-02         0.00000E+00
    0.66219E-03         0.17537E-02         0.00000E+00
    0.62474E-03         0.16461E-02         0.00000E+00
    0.58689E-03         0.15382E-02         0.00000E+00
    0.54859E-03         0.14301E-02         0.00000E+00
    0.50984E-03         0.13216E-02         0.00000E+00
    0.47059E-03         0.12129E-02         0.00000E+00
    0.43083E-03         0.11039E-02         0.00000E+00
    0.39053E-03         0.99457E-03         0.00000E+00
    0.34967E-03         0.88502E-03         0.00000E+00
    0.30822E-03         0.77522E-03         0.00000E+00
    0.26616E-03         0.66516E-03         0.00000E+00
    0.22348E-03         0.55487E-03         0.00000E+00
    0.18014E-03         0.44433E-03         0.00000E+00
    0.13615E-03         0.33357E-03         0.00000E+00
    0.91466E-04         0.22259E-03         0.00000E+00
    0.46089E-04         0.11139E-03         0.00000E+00
    0.00000E+00         0.00000E+00         0.00000E+00
    0.20023E-02         0.50332E-02         0.00000E+00
    0.19591E-02         0.49368E-02         0.00000E+00
    0.19164E-02         0.48404E-02         0.00000E+00
    0.18744E-02         0.47440E-02         0.00000E+00
    0.18328E-02         0.46475E-02         0.00000E+00
    0.17918E-02         0.45510E-02         0.00000E+00
    0.17512E-02         0.44545E-02         0.00000E+00
    0.17111E-02         0.43578E-02         0.00000E+00
    0.16714E-02         0.42611E-02         0.00000E+00
    0.16321E-02         0.41642E-02         0.00000E+00
    0.15932E-02         0.40672E-02         0.00000E+00
    0.15546E-02         0.39701E-02         0.00000E+00
    0.15164E-02         0.38727E-02         0.00000E+00
    0.14784E-02         0.37753E-02         0.00000E+00
    0.14407E-02         0.36776E-02         0.00000E+00
    0.14032E-02         0.35797E-02         0.00000E+00
    0.13658E-02         0.34817E-02         0.00000E+00
    0.13287E-02         0.33834E-02         0.00000E+00
    0.12916E-02         0.32849E-02         0.00000E+00
    0.12547E-02         0.31861E-02         0.00000E+00
    0.12178E-02         0.30871E-02         0.00000E+00
    0.11809E-02         0.29879E-02         0.00000E+00
    0.11441E-02         0.28885E-02         0.00000E+00
    0.11072E-02         0.27887E-02         0.00000E+00
    0.10703E-02         0.26888E-02         0.00000E+00
    0.10332E-02         0.25885E-02         0.00000E+00
    0.99608E-03         0.24880E-02         0.00000E+00
    0.95879E-03         0.23873E-02         0.00000E+00
    0.92131E-03         0.22862E-02         0.00000E+00
    0.88363E-03         0.21849E-02         0.00000E+00
    0.84571E-03         0.20834E-02         0.00000E+00
    0.80753E-03         0.19815E-02         0.00000E+00
    0.76907E-03         0.18795E-02         0.00000E+00
    0.73028E-03         0.17771E-02         0.00000E+00
    0.69116E-03         0.16745E-02         0.00000E+00
    0.65166E-03         0.15716E-02         0.00000E+00
    0.61178E-03         0.14685E-02         0.00000E+00
    0.57147E-03         0.13651E-02         0.00000E+00
    0.53073E-03         0.12614E-02         0.00000E+00
    0.48952E-03         0.11575E-02         0.00000E+00
    0.44783E-03         0.10534E-02         0.00000E+00
    0.40564E-03         0.94903E-03         0.00000E+00
    0.36291E-03         0.84443E-03         0.00000E+00
    0.31964E-03         0.73960E-03         0.00000E+00
    0.27581E-03         0.63455E-03         0.00000E+00
    0.23139E-03         0.52929E-03         0.00000E+00
    0.18637E-03         0.42382E-03         0.00000E+00
    0.14074E-03         0.31814E-03         0.00000E+00
    0.94472E-04         0.21228E-03         0.00000E+00
    0.47564E-04         0.10623E-03         0.00000E+00
    0.00000E+00         0.00000E+00         0.00000E+00
    0.20590E-02         0.48179E-02         0.00000E+00
    0.20166E-02         0.47251E-02         0.00000E+00
    0.19746E-02         0.46323E-02         0.00000E+00
    0.19330E-02         0.45395E-02         0.00000E+00
    0.18918E-02         0.44467E-02         0.00000E+00
    0.18509E-02         0.43538E-02         0.00000E+00
    0.18103E-02         0.42610E-02         0.00000E+00
    0.17701E-02         0.41680E-02         0.00000E+00
    0.17302E-02         0.40750E-02         0.00000E+00
    0.16905E-02         0.39819E-02         0.00000E+00
    0.16511E-02         0.38887E-02         0.00000E+00
    0.16119E-02         0.37954E-02         0.00000E+00
    0.15729E-02         0.37019E-02         0.00000E+00
    0.15340E-02         0.36083E-02         0.00000E+00
    0.14954E-02         0.35145E-02         0.00000E+00
    0.14569E-02         0.34206E-02         0.00000E+00
    0.14184E-02         0.33265E-02         0.00000E+00
    0.13801E-02         0.32322E-02         0.00000E+00
    0.13418E-02         0.31378E-02         0.00000E+00
    0.13035E-02         0.30431E-02         0.00000E+00
    0.12653E-02         0.29483E-02         0.00000E+00
    0.12270E-02         0.28532E-02         0.00000E+00
    0.11887E-02         0.27579E-02         0.00000E+00
    0.11503E-02         0.26624E-02         0.00000E+00
    0.11118E-02         0.25667E-02         0.00000E+00
    0.10731E-02         0.24707E-02         0.00000E+00
    0.10344E-02         0.23745E-02         0.00000E+00
    0.99540E-03         0.22781E-02         0.00000E+00
    0.95626E-03         0.21815E-02         0.00000E+00
    0.91688E-03         0.20846E-02         0.00000E+00
    0.87727E-03         0.19875E-02         0.00000E+00
    0.83738E-03         0.18902E-02         0.00000E+00
    0.79719E-03         0.17926E-02         0.00000E+00
    0.75669E-03         0.16948E-02         0.00000E+00
    0.71585E-03         0.15968E-02         0.00000E+00
    0.67465E-03         0.14986E-02         0.00000E+00
    0.63306E-03         0.14001E-02         0.00000E+00
    0.59107E-03         0.13014E-02         0.00000E+00
    0.54866E-03         0.12025E-02         0.00000E+00
    0.50580E-03         0.11033E-02         0.00000E+00
    0.46247E-03         0.10040E-02         0.00000E+00
    0.41867E-03         0.90444E-03         0.00000E+00
    0.37436E-03         0.80468E-03         0.00000E+00
    0.32954E-03         0.70473E-03         0.00000E+00
    0.28418E-03         0.60459E-03         0.00000E+00
    0.23827E-03         0.50425E-03         0.00000E+00
    0.19180E-03         0.40374E-03         0.00000E+00
    0.14475E-03         0.30305E-03         0.00000E+00
    0.97110E-04         0.20220E-03         0.00000E+00
    0.48863E-04         0.10118E-03         0.00000E+00
    0.00000E+00         0.00000E+00         0.00000E+00
    0.21015E-02         0.46076E-02         0.00000E+00
    0.20601E-02         0.45183E-02         0.00000E+00
    0.20189E-02         0.44291E-02         0.00000E+00
    0.19780E-02         0.43399E-02         0.00000E+00
    0.19373E-02         0.42507E-02         0.00000E+00
    0.18968E-02         0.41614E-02         0.00000E+00
    0.18566E-02         0.40722E-02         0.00000E+00
    0.18165E-02         0.39829E-02         0.00000E+00
    0.17765E-02         0.38935E-02         0.00000E+00
    0.17368E-02         0.38041E-02         0.00000E+00
    0.16971E-02         0.37146E-02         0.00000E+00
    0.16576E-02         0.36250E-02         0.00000E+00
    0.16182E-02         0.35353E-02         0.00000E+00
    0.15788E-02         0.34455E-02         0.00000E+00
    0.15396E-02         0.33556E-02         0.00000E+00
    0.15004E-02         0.32655E-02         0.00000E+00
    0.14612E-02         0.31753E-02         0.00000E+00
    0.14220E-02         0.30850E-02         0.00000E+00
    0.13828E-02         0.29945E-02         0.00000E+00
    0.13436E-02         0.29038E-02         0.00000E+00
    0.13043E-02         0.28129E-02         0.00000E+00
    0.12649E-02         0.27219E-02         0.00000E+00
    0.12254E-02         0.26307E-02         0.00000E+00
    0.11859E-02         0.25393E-02         0.00000E+00
    0.11461E-02         0.24478E-02         0.00000E+00
    0.11063E-02         0.23560E-02         0.00000E+00
    0.10662E-02         0.22640E-02         0.00000E+00
    0.10259E-02         0.21719E-02         0.00000E+00
    0.98544E-03         0.20795E-02         0.00000E+00
    0.94471E-03         0.19870E-02         0.00000E+00
    0.90372E-03         0.18942E-02         0.00000E+00
    0.86244E-03         0.18013E-02         0.00000E+00
    0.82086E-03         0.17081E-02         0.00000E+00
    0.77895E-03         0.16148E-02         0.00000E+00
    0.73670E-03         0.15212E-02         0.00000E+00
    0.69409E-03         0.14275E-02         0.00000E+00
    0.65110E-03         0.13335E-02         0.00000E+00
    0.60771E-03         0.12394E-02         0.00000E+00
    0.56390E-03         0.11451E-02         0.00000E+00
    0.51966E-03         0.10506E-02         0.00000E+00
    0.47497E-03         0.95593E-03         0.00000E+00
    0.42982E-03         0.86106E-03         0.00000E+00
    0.38418E-03         0.76603E-03         0.00000E+00
    0.33804E-03         0.67082E-03         0.00000E+00
    0.29139E-03         0.57545E-03         0.00000E+00
    0.24422E-03         0.47992E-03         0.00000E+00
    0.19650E-03         0.38423E-03         0.00000E+00
    0.14824E-03         0.28838E-03         0.00000E+00
    0.99404E-04         0.19239E-03         0.00000E+00
    0.49996E-04         0.96265E-04         0.00000E+00
    0.00000E+00         0.00000E+00         0.00000E+00
    0.21320E-02         0.44028E-02         0.00000E+00
    0.20917E-02         0.43171E-02         0.00000E+00
    0.20515E-02         0.42314E-02         0.00000E+00
    0.20114E-02         0.41457E-02         0.00000E+00
    0.19714E-02         0.40600E-02         0.00000E+00
    0.19315E-02         0.39743E-02         0.00000E+00
    0.18916E-02         0.38887E-02         0.00000E+00
    0.18519E-02         0.38029E-02         0.00000E+00
    0.18121E-02         0.37172E-02         0.00000E+00
    0.17725E-02         0.36314E-02         0.00000E+00
    0.17329E-02         0.35455E-02         0.00000E+00
    0.16933E-02         0.34596E-02         0.00000E+00
    0.16537E-02         0.33736E-02         0.00000E+00
    0.16141E-02         0.32875E-02         0.00000E+00
    0.15745E-02         0.32013E-02         0.00000E+00
    0.15349E-02         0.31150E-02         0.00000E+00
    0.14952E-02         0.30286E-02         0.00000E+00
    0.14555E-02         0.29421E-02         0.00000E+00
    0.14156E-02         0.28554E-02         0.00000E+00
    0.13757E-02         0.27686E-02         0.00000E+00
    0.13357E-02         0.26817E-02         0.00000E+00
    0.12956E-02         0.25946E-02         0.00000E+00
    0.12553E-02         0.25074E-02         0.00000E+00
    0.12148E-02         0.24200E-02         0.00000E+00
    0.11742E-02         0.23325E-02         0.00000E+00
    0.11333E-02         0.22448E-02         0.00000E+00
    0.10923E-02         0.21569E-02         0.00000E+00
    0.10510E-02         0.20689E-02         0.00000E+00
    0.10094E-02         0.19807E-02         0.00000E+00
    0.96765E-03         0.18923E-02         0.00000E+00
    0.92556E-03         0.18038E-02         0.00000E+00
    0.88318E-03         0.17151E-02         0.00000E+00
    0.84048E-03         0.16262E-02         0.00000E+00
    0.79745E-03         0.15372E-02         0.00000E+00
    0.75406E-03         0.14480E-02         0.00000E+00
    0.71031E-03         0.13586E-02         0.00000E+00
    0.66617E-03         0.12691E-02         0.00000E+00
    0.62164E-03         0.11794E-02         0.00000E+00
    0.57669E-03         0.10896E-02         0.00000E+00
    0.53132E-03         0.99956E-03         0.00000E+00
    0.48550E-03         0.90940E-03         0.00000E+00
    0.43923E-03         0.81908E-03         0.00000E+00
    0.39248E-03         0.72862E-03         0.00000E+00
    0.34525E-03         0.63801E-03         0.00000E+00
    0.29752E-03         0.54725E-03         0.00000E+00
    0.24928E-03         0.45636E-03         0.00000E+00
    0.20051E-03         0.36534E-03         0.00000E+00
    0.15121E-03         0.27419E-03         0.00000E+00
    0.10137E-03         0.18291E-03         0.00000E+00
    0.50969E-04         0.91513E-04         0.00000E+00
    0.00000E+00         0.00000E+00         0.00000E+00
    0.21524E-02         0.42040E-02         0.00000E+00
    0.21132E-02         0.41217E-02         0.00000E+00
    0.20740E-02         0.40394E-02         0.00000E+00
    0.20348E-02         0.39572E-02         0.00000E+00
    0.19956E-02         0.38750E-02         0.00000E+00
    0.19563E-02         0.37928E-02         0.00000E+00
    0.19171E-02         0.37107E-02         0.00000E+00
    0.18778E-02         0.36285E-02         0.00000E+00
    0.18385E-02         0.35462E-02         0.00000E+00
    0.17991E-02         0.34640E-02         0.00000E+00
    0.17597E-02         0.33817E-02         0.00000E+00
    0.17202E-02         0.32994E-02         0.00000E+00
    0.16807E-02         0.32170E-02         0.00000E+00
    0.16410E-02         0.31345E-02         0.00000E+00
    0.16013E-02         0.30520E-02         0.00000E+00
    0.15615E-02         0.29693E-02         0.00000E+00
    0.15216E-02         0.28866E-02         0.00000E+00
    0.14815E-02         0.28038E-02         0.00000E+00
    0.14413E-02         0.27209E-02         0.00000E+00
    0.14010E-02         0.26379E-02         0.00000E+00
    0.13605E-02         0.25548E-02         0.00000E+00
    0.13198E-02         0.24715E-02         0.00000E+00
    0.12789E-02         0.23881E-02         0.00000E+00
    0.12378E-02         0.23047E-02         0.00000E+00
    0.11965E-02         0.22210E-02         0.00000E+00
    0.11550E-02         0.21373E-02         0.00000E+00
    0.11132E-02         0.20534E-02         0.00000E+00
    0.10711E-02         0.19694E-02         0.00000E+00
    0.10288E-02         0.18852E-02         0.00000E+00
    0.98617E-03         0.18009E-02         0.00000E+00
    0.94325E-03         0.17165E-02         0.00000E+00
    0.90001E-03         0.16319E-02         0.00000E+00
    0.85644E-03         0.15472E-02         0.00000E+00
    0.81252E-03         0.14623E-02         0.00000E+00
    0.76824E-03         0.13773E-02         0.00000E+00
    0.72359E-03         0.12922E-02         0.00000E+00
    0.67854E-03         0.12069E-02         0.00000E+00
    0.63309E-03         0.11215E-02         0.00000E+00
    0.58723E-03         0.10360E-02         0.00000E+00
    0.54094E-03         0.95032E-03         0.00000E+00
    0.49421E-03         0.86452E-03         0.00000E+00
    0.44702E-03         0.77859E-03         0.00000E+00
    0.39937E-03         0.69253E-03         0.00000E+00
    0.35124E-03         0.60636E-03         0.00000E+00
    0.30262E-03         0.52006E-03         0.00000E+00
    0.25350E-03         0.43365E-03         0.00000E+00
    0.20387E-03         0.34713E-03         0.00000E+00
    0.15371E-03         0.26050E-03         0.00000E+00
    0.10302E-03         0.17377E-03         0.00000E+00
    0.51788E-04         0.86931E-04         0.00000E+00
    0.00000E+00         0.00000E+00         0.00000E+00
    0.21642E-02         0.40111E-02         0.00000E+00
    0.21262E-02         0.39322E-02         0.00000E+00
    0.20880E-02         0.38534E-02         0.00000E+00
    0.20498E-02         0.37746E-02         0.00000E+00
    0.20114E-02         0.36958E-02         0.00000E+00
    0.19729E-02         0.36170E-02         0.00000E+00
    0.19343E-02         0.35383E-02         0.00000E+00
    0.18956E-02         0.34595E-02         0.00000E+00
    0.18568E-02         0.33808E-02         0.00000E+00
    0.18179E-02         0.33020E-02         0.00000E+00
    0.17788E-02         0.32232E-02         0.00000E+00
    0.17396E-02         0.31444E-02         0.00000E+00
    0.17002E-02         0.30655E-02         0.00000E+00
    0.16607E-02         0.29866E-02         0.00000E+00
    0.16211E-02         0.29076E-02         0.00000E+00
    0.15812E-02         0.28286E-02         0.00000E+00
    0.15412E-02         0.27495E-02         0.00000E+00
    0.15011E-02         0.26703E-02         0.00000E+00
    0.14607E-02         0.25910E-02         0.00000E+00
    0.14201E-02         0.25117E-02         0.00000E+00
    0.13793E-02         0.24322E-02         0.00000E+00
    0.13383E-02         0.23527E-02         0.00000E+00
    0.12970E-02         0.22731E-02         0.00000E+00
    0.12555E-02         0.21934E-02         0.00000E+00
    0.12138E-02         0.21136E-02         0.00000E+00
    0.11717E-02         0.20336E-02         0.00000E+00
    0.11294E-02         0.19536E-02         0.00000E+00
    0.10868E-02         0.18735E-02         0.00000E+00
    0.10440E-02         0.17932E-02         0.00000E+00
    0.10007E-02         0.17128E-02         0.00000E+00
    0.95720E-03         0.16324E-02         0.00000E+00
    0.91332E-03         0.15518E-02         0.00000E+00
    0.86909E-03         0.14710E-02         0.00000E+00
    0.82450E-03         0.13902E-02         0.00000E+00
    0.77953E-03         0.13093E-02         0.00000E+00
    0.73418E-03         0.12282E-02         0.00000E+00
    0.68843E-03         0.11471E-02         0.00000E+00
    0.64228E-03         0.10658E-02         0.00000E+00
    0.59570E-03         0.98441E-03         0.00000E+00
    0.54869E-03         0.90292E-03         0.00000E+00
    0.50123E-03         0.82132E-03         0.00000E+00
    0.45333E-03         0.73961E-03         0.00000E+00
    0.40495E-03         0.65780E-03         0.00000E+00
    0.35611E-03         0.57590E-03         0.00000E+00
    0.30677E-03         0.49389E-03         0.00000E+00
    0.25694E-03         0.41180E-03         0.00000E+00
    0.20661E-03         0.32961E-03         0.00000E+00
    0.15575E-03         0.24733E-03         0.00000E+00
    0.10437E-03         0.16497E-03         0.00000E+00
    0.52460E-04         0.82522E-04         0.00000E+00
    0.00000E+00         0.00000E+00         0.00000E+00
    0.21689E-02         0.38241E-02         0.00000E+00
    0.21320E-02         0.37486E-02         0.00000E+00
    0.20949E-02         0.36731E-02         0.00000E+00
    0.20576E-02         0.35977E-02         0.00000E+00
    0.20201E-02         0.35222E-02         0.00000E+00
    0.19825E-02         0.34469E-02         0.00000E+00
    0.19446E-02         0.33715E-02         0.00000E+00
    0.19066E-02         0.32961E-02         0.00000E+00
    0.18683E-02         0.32208E-02         0.00000E+00
    0.18299E-02         0.31454E-02         0.00000E+00
    0.17913E-02         0.30700E-02         0.00000E+00
    0.17524E-02         0.29946E-02         0.00000E+00
    0.17134E-02         0.29192E-02         0.00000E+00
    0.16741E-02         0.28437E-02         0.00000E+00
    0.16347E-02         0.27682E-02         0.00000E+00
    0.15950E-02         0.26927E-02         0.00000E+00
    0.15551E-02         0.26171E-02         0.00000E+00
    0.15149E-02         0.25414E-02         0.00000E+00
    0.14745E-02         0.24657E-02         0.00000E+00
    0.14339E-02         0.23899E-02         0.00000E+00
    0.13930E-02         0.23141E-02         0.00000E+00
    0.13518E-02         0.22382E-02         0.00000E+00
    0.13103E-02         0.21622E-02         0.00000E+00
    0.12686E-02         0.20862E-02         0.00000E+00
    0.12266E-02         0.20100E-02         0.00000E+00
    0.11843E-02         0.19338E-02         0.00000E+00
    0.11416E-02         0.18575E-02         0.00000E+00
    0.10987E-02         0.17811E-02         0.00000E+00
    0.10554E-02         0.17046E-02         0.00000E+00
    0.10118E-02         0.16280E-02         0.00000E+00
    0.96779E-03         0.15514E-02         0.00000E+00
    0.92346E-03         0.14746E-02         0.00000E+00
    0.87876E-03         0.13978E-02         0.00000E+00
    0.83368E-03         0.13208E-02         0.00000E+00
    0.78821E-03         0.12438E-02         0.00000E+00
    0.74235E-03         0.11667E-02         0.00000E+00
    0.69607E-03         0.10895E-02         0.00000E+00
    0.64938E-03         0.10122E-02         0.00000E+00
    0.60226E-03         0.93482E-03         0.00000E+00
    0.55471E-03         0.85735E-03         0.00000E+00
    0.50671E-03         0.77979E-03         0.00000E+00
    0.45825E-03         0.70215E-03         0.00000E+00
    0.40932E-03         0.62443E-03         0.00000E+00
    0.35992E-03         0.54663E-03         0.00000E+00
    0.31003E-03         0.46875E-03         0.00000E+00
    0.25965E-03         0.39080E-03         0.00000E+00
    0.20876E-03         0.31277E-03         0.00000E+00
    0.15736E-03         0.23467E-03         0.00000E+00
    0.10544E-03         0.15651E-03         0.00000E+00
    0.52990E-04         0.78287E-04         0.00000E+00
    0.00000E+00         0.00000E+00         0.00000E+00
    0.21677E-02         0.36430E-02         0.00000E+00
    0.21319E-02         0.35707E-02         0.00000E+00
    0.20958E-02         0.34985E-02         0.00000E+00
    0.20595E-02         0.34264E-02         0.00000E+00
    0.20229E-02         0.33543E-02         0.00000E+00
    0.19861E-02         0.32822E-02         0.00000E+00
    0.19490E-02         0.32101E-02         0.00000E+00
    0.19117E-02         0.31381E-02         0.00000E+00
    0.18741E-02         0.30660E-02         0.00000E+00
    0.18362E-02         0.29940E-02         0.00000E+00
    0.17981E-02         0.29219E-02         0.00000E+00
    0.17597E-02         0.28499E-02         0.00000E+00
    0.17211E-02         0.27778E-02         0.00000E+00
    0.16822E-02         0.27057E-02         0.00000E+00
    0.16430E-02         0.26336E-02         0.00000E+00
    0.16036E-02         0.25615E-02         0.00000E+00
    0.15639E-02         0.24893E-02         0.00000E+00
    0.15239E-02         0.24171E-02         0.00000E+00
    0.14836E-02         0.23449E-02         0.00000E+00
    0.14430E-02         0.22726E-02         0.00000E+00
    0.14021E-02         0.22002E-02         0.00000E+00
    0.13609E-02         0.21278E-02         0.00000E+00
    0.13194E-02         0.20554E-02         0.00000E+00
    0.12776E-02         0.19829E-02         0.00000E+00
    0.12355E-02         0.19103E-02         0.00000E+00
    0.11930E-02         0.18376E-02         0.00000E+00
    0.11502E-02         0.17649E-02         0.00000E+00
    0.11070E-02         0.16922E-02         0.00000E+00
    0.10635E-02         0.16194E-02         0.00000E+00
    0.10196E-02         0.15464E-02         0.00000E+00
    0.97538E-03         0.14735E-02         0.00000E+00
    0.93076E-03         0.14004E-02         0.00000E+00
    0.88575E-03         0.13273E-02         0.00000E+00
    0.84034E-03         0.12541E-02         0.00000E+00
    0.79454E-03         0.11809E-02         0.00000E+00
    0.74832E-03         0.11076E-02         0.00000E+00
    0.70168E-03         0.10342E-02         0.00000E+00
    0.65461E-03         0.96070E-03         0.00000E+00
    0.60711E-03         0.88717E-03         0.00000E+00
    0.55916E-03         0.81357E-03         0.00000E+00
    0.51076E-03         0.73990E-03         0.00000E+00
    0.46190E-03         0.66617E-03         0.00000E+00
    0.41257E-03         0.59238E-03         0.00000E+00
    0.36275E-03         0.51852E-03         0.00000E+00
    0.31246E-03         0.44461E-03         0.00000E+00
    0.26167E-03         0.37063E-03         0.00000E+00
    0.21037E-03         0.29661E-03         0.00000E+00
    0.15857E-03         0.22253E-03         0.00000E+00
    0.10624E-03         0.14840E-03         0.00000E+00
    0.53388E-04         0.74221E-04         0.00000E+00
    0.00000E+00         0.00000E+00         0.00000E+00
    0.21616E-02         0.34674E-02         0.00000E+00
    0.21269E-02         0.33984E-02         0.00000E+00
    0.20919E-02         0.33294E-02         0.00000E+00
    0.20565E-02         0.32605E-02         0.00000E+00
    0.20208E-02         0.31916E-02         0.00000E+00
    0.19848E-02         0.31228E-02         0.00000E+00
    0.19485E-02         0.30540E-02         0.00000E+00
    0.19119E-02         0.29852E-02         0.00000E+00
    0.18749E-02         0.29164E-02         0.00000E+00
    0.18377E-02         0.28476E-02         0.00000E+00
    0.18002E-02         0.27788E-02         0.00000E+00
    0.17623E-02         0.27100E-02         0.00000E+00
    0.17241E-02         0.26413E-02         0.00000E+00
    0.16856E-02         0.25725E-02         0.00000E+00
    0.16469E-02         0.25037E-02         0.00000E+00
    0.16077E-02         0.24349E-02         0.00000E+00
    0.15683E-02         0.23660E-02         0.00000E+00
    0.15286E-02         0.22972E-02         0.00000E+00
    0.14885E-02         0.22283E-02         0.00000E+00
    0.14481E-02         0.21594E-02         0.00000E+00
    0.14073E-02         0.20904E-02         0.00000E+00
    0.13662E-02         0.20214E-02         0.00000E+00
    0.13248E-02         0.19524E-02         0.00000E+00
    0.12830E-02         0.18833E-02         0.00000E+00
    0.12409E-02         0.18142E-02         0.00000E+00
    0.11984E-02         0.17451E-02         0.00000E+00
    0.11555E-02         0.16758E-02         0.00000E+00
    0.11123E-02         0.16066E-02         0.00000E+00
    0.10687E-02         0.15373E-02         0.00000E+00
    0.10247E-02         0.14679E-02         0.00000E+00
    0.98033E-03         0.13985E-02         0.00000E+00
    0.93555E-03         0.13291E-02         0.00000E+00
    0.89036E-03         0.12596E-02         0.00000E+00
    0.84477E-03         0.11900E-02         0.00000E+00
    0.79876E-03         0.11204E-02         0.00000E+00
    0.75232E-03         0.10507E-02         0.00000E+00
    0.70545E-03         0.98098E-03         0.00000E+00
    0.65815E-03         0.91121E-03         0.00000E+00
    0.61040E-03         0.84138E-03         0.00000E+00
    0.56219E-03         0.77151E-03         0.00000E+00
    0.51353E-03         0.70158E-03         0.00000E+00
    0.46440E-03         0.63161E-03         0.00000E+00
    0.41479E-03         0.56159E-03         0.00000E+00
    0.36471E-03         0.49153E-03         0.00000E+00
    0.31413E-03         0.42142E-03         0.00000E+00
    0.26306E-03         0.35128E-03         0.00000E+00
    0.21148E-03         0.28109E-03         0.00000E+00
    0.15940E-03         0.21087E-03         0.00000E+00
    0.10679E-03         0.14061E-03         0.00000E+00
    0.53662E-04         0.70319E-04         0.00000E+00
    0.00000E+00         0.00000E+00         0.00000E+00
    0.21516E-02         0.32972E-02         0.00000E+00
    0.21179E-02         0.32313E-02         0.00000E+00
    0.20838E-02         0.31656E-02         0.00000E+00
    0.20494E-02         0.30998E-02         0.00000E+00
    0.20146E-02         0.30341E-02         0.00000E+00
    0.19794E-02         0.29684E-02         0.00000E+00
    0.19439E-02         0.29028E-02         0.00000E+00
    0.19080E-02         0.28372E-02         0.00000E+00
    0.18717E-02         0.27716E-02         0.00000E+00
    0.18351E-02         0.27060E-02         0.00000E+00
    0.17982E-02         0.26404E-02         0.00000E+00
    0.17609E-02         0.25748E-02         0.00000E+00
    0.17232E-02         0.25093E-02         0.00000E+00
    0.16852E-02         0.24437E-02         0.00000E+00
    0.16469E-02         0.23781E-02         0.00000E+00
    0.16082E-02         0.23125E-02         0.00000E+00
    0.15691E-02         0.22470E-02         0.00000E+00
    0.15297E-02         0.21814E-02         0.00000E+00
    0.14899E-02         0.21158E-02         0.00000E+00
    0.14497E-02         0.20501E-02         0.00000E+00
    0.14092E-02         0.19845E-02         0.00000E+00
    0.13683E-02         0.19188E-02         0.00000E+00
    0.13270E-02         0.18531E-02         0.00000E+00
    0.12854E-02         0.17874E-02         0.00000E+00
    0.12434E-02         0.17216E-02         0.00000E+00
    0.12009E-02         0.16558E-02         0.00000E+00
    0.11581E-02         0.15900E-02         0.00000E+00
    0.11150E-02         0.15241E-02         0.00000E+00
    0.10714E-02         0.14583E-02         0.00000E+00
    0.10274E-02         0.13923E-02         0.00000E+00
    0.98295E-03         0.13264E-02         0.00000E+00
    0.93813E-03         0.12604E-02         0.00000E+00
    0.89289E-03         0.11943E-02         0.00000E+00
    0.84722E-03         0.11283E-02         0.00000E+00
    0.80112E-03         0.10622E-02         0.00000E+00
    0.75459E-03         0.99602E-03         0.00000E+00
    0.70761E-03         0.92984E-03         0.00000E+00
    0.66018E-03         0.86362E-03         0.00000E+00
    0.61230E-03         0.79737E-03         0.00000E+00
    0.56396E-03         0.73108E-03         0.00000E+00
    0.51515E-03         0.66476E-03         0.00000E+00
    0.46586E-03         0.59840E-03         0.00000E+00
    0.41610E-03         0.53202E-03         0.00000E+00
    0.36586E-03         0.46560E-03         0.00000E+00
    0.31512E-03         0.39916E-03         0.00000E+00
    0.26388E-03         0.33268E-03         0.00000E+00
    0.21214E-03         0.26619E-03         0.00000E+00
    0.15989E-03         0.19967E-03         0.00000E+00
    0.10712E-03         0.13313E-03         0.00000E+00
    0.53824E-04         0.66574E-04         0.00000E+00
    0.00000E+00         0.00000E+00         0.00000E+00
    0.21385E-02         0.31321E-02         0.00000E+00
    0.21057E-02         0.30693E-02         0.00000E+00
    0.20726E-02         0.30067E-02         0.00000E+00
    0.20390E-02         0.29440E-02         0.00000E+00
    0.20050E-02         0.28814E-02         0.00000E+00
    0.19707E-02         0.28189E-02         0.00000E+00
    0.19359E-02         0.27563E-02         0.00000E+00
    0.19007E-02         0.26938E-02         0.00000E+00
    0.18652E-02         0.26313E-02         0.00000E+00
    0.18292E-02         0.25689E-02         0.00000E+00
    0.17929E-02         0.25064E-02         0.00000E+00
    0.17562E-02         0.24440E-02         0.00000E+00
    0.17191E-02         0.23815E-02         0.00000E+00
    0.16816E-02         0.23191E-02         0.00000E+00
    0.16437E-02         0.22567E-02         0.00000E+00
    0.16054E-02         0.21943E-02         0.00000E+00
    0.15668E-02         0.21319E-02         0.00000E+00
    0.15277E-02         0.20695E-02         0.00000E+00
    0.14883E-02         0.20070E-02         0.00000E+00
    0.14484E-02         0.19446E-02         0.00000E+00
    0.14082E-02         0.18822E-02         0.00000E+00
    0.13676E-02         0.18197E-02         0.00000E+00
    0.13265E-02         0.17573E-02         0.00000E+00
    0.12851E-02         0.16948E-02         0.00000E+00
    0.12433E-02         0.16323E-02         0.00000E+00
    0.12010E-02         0.15698E-02         0.00000E+00
    0.11584E-02         0.15072E-02         0.00000E+00
    0.11153E-02         0.14447E-02         0.00000E+00
    0.10718E-02         0.13821E-02         0.00000E+00
    0.10279E-02         0.13195E-02         0.00000E+00
    0.98356E-03         0.12569E-02         0.00000E+00
    0.93879E-03         0.11942E-02         0.00000E+00
    0.89359E-03         0.11315E-02         0.00000E+00
    0.84794E-03         0.10689E-02         0.00000E+00
    0.80186E-03         0.10061E-02         0.00000E+00
    0.75532E-03         0.94339E-03         0.00000E+00
    0.70833E-03         0.88062E-03         0.00000E+00
    0.66088E-03         0.81784E-03         0.00000E+00
    0.61297E-03         0.75503E-03         0.00000E+00
    0.56460E-03         0.69219E-03         0.00000E+00
    0.51574E-03         0.62934E-03         0.00000E+00
    0.46641E-03         0.56647E-03         0.00000E+00
    0.41660E-03         0.50358E-03         0.00000E+00
    0.36629E-03         0.44068E-03         0.00000E+00
    0.31550E-03         0.37775E-03         0.00000E+00
    0.26420E-03         0.31482E-03         0.00000E+00
    0.21239E-03         0.25187E-03         0.00000E+00
    0.16008E-03         0.18891E-03         0.00000E+00
    0.10724E-03         0.12595E-03         0.00000E+00
    0.53885E-04         0.62976E-04         0.00000E+00
    0.00000E+00         0.00000E+00         0.00000E+00
    0.21228E-02         0.29717E-02         0.00000E+00
    0.20909E-02         0.29121E-02         0.00000E+00
    0.20587E-02         0.28524E-02         0.00000E+00
    0.20259E-02         0.27928E-02         0.00000E+00
    0.19928E-02         0.27333E-02         0.00000E+00
    0.19592E-02         0.26738E-02         0.00000E+00
    0.19252E-02         0.26143E-02         0.00000E+00
    0.18908E-02         0.25548E-02         0.00000E+00
    0.18559E-02         0.24954E-02         0.00000E+00
    0.18206E-02         0.24360E-02         0.00000E+00
    0.17849E-02         0.23766E-02         0.00000E+00
    0.17488E-02         0.23172E-02         0.00000E+00
    0.17122E-02         0.22579E-02         0.00000E+00
    0.16752E-02         0.21985E-02         0.00000E+00
    0.16379E-02         0.21392E-02         0.00000E+00
    0.16001E-02         0.20799E-02         0.00000E+00
    0.15618E-02         0.20206E-02         0.00000E+00
    0.15232E-02         0.19612E-02         0.00000E+00
    0.14841E-02         0.19019E-02         0.00000E+00
    0.14447E-02         0.18426E-02         0.00000E+00
    0.14048E-02         0.17833E-02         0.00000E+00
    0.13645E-02         0.17240E-02         0.00000E+00
    0.13237E-02         0.16647E-02         0.00000E+00
    0.12826E-02         0.16053E-02         0.00000E+00
    0.12410E-02         0.15460E-02         0.00000E+00
    0.11990E-02         0.14867E-02         0.00000E+00
    0.11566E-02         0.14273E-02         0.00000E+00
    0.11137E-02         0.13680E-02         0.00000E+00
    0.10704E-02         0.13086E-02         0.00000E+00
    0.10266E-02         0.12492E-02         0.00000E+00
    0.98243E-03         0.11898E-02         0.00000E+00
    0.93779E-03         0.11304E-02         0.00000E+00
    0.89271E-03         0.10710E-02         0.00000E+00
    0.84717E-03         0.10116E-02         0.00000E+00
    0.80118E-03         0.95213E-03         0.00000E+00
    0.75473E-03         0.89268E-03         0.00000E+00
    0.70782E-03         0.83321E-03         0.00000E+00
    0.66044E-03         0.77374E-03         0.00000E+00
    0.61258E-03         0.71425E-03         0.00000E+00
    0.56426E-03         0.65475E-03         0.00000E+00
    0.51545E-03         0.59525E-03         0.00000E+00
    0.46616E-03         0.53574E-03         0.00000E+00
    0.41638E-03         0.47622E-03         0.00000E+00
    0.36611E-03         0.41669E-03         0.00000E+00
    0.31534E-03         0.35716E-03         0.00000E+00
    0.26406E-03         0.29763E-03         0.00000E+00
    0.21228E-03         0.23810E-03         0.00000E+00
    0.15999E-03         0.17857E-03         0.00000E+00
    0.10719E-03         0.11904E-03         0.00000E+00
    0.53856E-04         0.59517E-04         0.00000E+00
    0.00000E+00         0.00000E+00         0.00000E+00
    0.21051E-02         0.28160E-02         0.00000E+00
    0.20742E-02         0.27593E-02         0.00000E+00
    0.20427E-02         0.27026E-02         0.00000E+00
    0.20108E-02         0.26460E-02         0.00000E+00
    0.19785E-02         0.25895E-02         0.00000E+00
    0.19456E-02         0.25329E-02         0.00000E+00
    0.19123E-02         0.24764E-02         0.00000E+00
    0.18786E-02         0.24200E-02         0.00000E+00
    0.18444E-02         0.23635E-02         0.00000E+00
    0.18098E-02         0.23071E-02         0.00000E+00
    0.17747E-02         0.22507E-02         0.00000E+00
    0.17391E-02         0.21943E-02         0.00000E+00
    0.17031E-02         0.21380E-02         0.00000E+00
    0.16667E-02         0.20816E-02         0.00000E+00
    0.16298E-02         0.20253E-02         0.00000E+00
    0.15925E-02         0.19690E-02         0.00000E+00
    0.15548E-02         0.19127E-02         0.00000E+00
    0.15166E-02         0.18564E-02         0.00000E+00
    0.14780E-02         0.18002E-02         0.00000E+00
    0.14389E-02         0.17439E-02         0.00000E+00
    0.13994E-02         0.16876E-02         0.00000E+00
    0.13594E-02         0.16314E-02         0.00000E+00
    0.13190E-02         0.15751E-02         0.00000E+00
    0.12782E-02         0.15189E-02         0.00000E+00
    0.12369E-02         0.14626E-02         0.00000E+00
    0.11952E-02         0.14063E-02         0.00000E+00
    0.11530E-02         0.13501E-02         0.00000E+00
    0.11104E-02         0.12938E-02         0.00000E+00
    0.10673E-02         0.12376E-02         0.00000E+00
    0.10238E-02         0.11813E-02         0.00000E+00
    0.97983E-03         0.11251E-02         0.00000E+00
    0.93539E-03         0.10688E-02         0.00000E+00
    0.89050E-03         0.10126E-02         0.00000E+00
    0.84513E-03         0.95629E-03         0.00000E+00
    0.79931E-03         0.90002E-03         0.00000E+00
    0.75301E-03         0.84375E-03         0.00000E+00
    0.70624E-03         0.78748E-03         0.00000E+00
    0.65900E-03         0.73121E-03         0.00000E+00
    0.61128E-03         0.67493E-03         0.00000E+00
    0.56307E-03         0.61866E-03         0.00000E+00
    0.51439E-03         0.56239E-03         0.00000E+00
    0.46521E-03         0.50612E-03         0.00000E+00
    0.41554E-03         0.44985E-03         0.00000E+00
    0.36538E-03         0.39359E-03         0.00000E+00
    0.31471E-03         0.33733E-03         0.00000E+00
    0.26354E-03         0.28108E-03         0.00000E+00
    0.21187E-03         0.22484E-03         0.00000E+00
    0.15968E-03         0.16861E-03         0.00000E+00
    0.10697E-03         0.11239E-03         0.00000E+00
    0.53749E-04         0.56189E-04         0.00000E+00
    0.00000E+00         0.00000E+00         0.00000E+00
    0.20860E-02         0.26644E-02         0.00000E+00
    0.20559E-02         0.26107E-02         0.00000E+00
    0.20253E-02         0.25570E-02         0.00000E+00
    0.19941E-02         0.25033E-02         0.00000E+00
    0.19625E-02         0.24497E-02         0.00000E+00
    0.19304E-02         0.23961E-02         0.00000E+00
    0.18978E-02         0.23425E-02         0.00000E+00
    0.18647E-02         0.22889E-02         0.00000E+00
    0.18312E-02         0.22354E-02         0.00000E+00
    0.17972E-02         0.21819E-02         0.00000E+00
    0.17627E-02         0.21285E-02         0.00000E+00
    0.17277E-02         0.20750E-02         0.00000E+00
    0.16923E-02         0.20216E-02         0.00000E+00
    0.16564E-02         0.19682E-02         0.00000E+00
    0.16201E-02         0.19148E-02         0.00000E+00
    0.15833E-02         0.18615E-02         0.00000E+00
    0.15460E-02         0.18081E-02         0.00000E+00
    0.15083E-02         0.17548E-02         0.00000E+00
    0.14701E-02         0.17015E-02         0.00000E+00
    0.14315E-02         0.16482E-02         0.00000E+00
    0.13924E-02         0.15949E-02         0.00000E+00
    0.13528E-02         0.15416E-02         0.00000E+00
    0.13128E-02         0.14884E-02         0.00000E+00
    0.12723E-02         0.14351E-02         0.00000E+00
    0.12314E-02         0.13818E-02         0.00000E+00
    0.11900E-02         0.13286E-02         0.00000E+00
    0.11481E-02         0.12754E-02         0.00000E+00
    0.11058E-02         0.12221E-02         0.00000E+00
    0.10630E-02         0.11689E-02         0.00000E+00
    0.10197E-02         0.11157E-02         0.00000E+00
    0.97602E-03         0.10625E-02         0.00000E+00
    0.93183E-03         0.10093E-02         0.00000E+00
    0.88716E-03         0.95606E-03         0.00000E+00
    0.84203E-03         0.90287E-03         0.00000E+00
    0.79642E-03         0.84968E-03         0.00000E+00
    0.75034E-03         0.79649E-03         0.00000E+00
    0.70377E-03         0.74331E-03         0.00000E+00
    0.65673E-03         0.69014E-03         0.00000E+00
    0.60920E-03         0.63698E-03         0.00000E+00
    0.56118E-03         0.58382E-03         0.00000E+00
    0.51267E-03         0.53068E-03         0.00000E+00
    0.46367E-03         0.47754E-03         0.00000E+00
    0.41418E-03         0.42442E-03         0.00000E+00
    0.36418E-03         0.37131E-03         0.00000E+00
    0.31369E-03         0.31821E-03         0.00000E+00
    0.26269E-03         0.26513E-03         0.00000E+00
    0.21118E-03         0.21206E-03         0.00000E+00
    0.15916E-03         0.15901E-03         0.00000E+00
    0.10663E-03         0.10599E-03         0.00000E+00
    0.53574E-04         0.52982E-04         0.00000E+00
    0.00000E+00         0.00000E+00         0.00000E+00
    0.20660E-02         0.25169E-02         0.00000E+00
    0.20366E-02         0.24660E-02         0.00000E+00
    0.20067E-02         0.24152E-02         0.00000E+00
    0.19763E-02         0.23644E-02         0.00000E+00
    0.19454E-02         0.23136E-02         0.00000E+00
    0.19139E-02         0.22629E-02         0.00000E+00
    0.18820E-02         0.22122E-02         0.00000E+00
    0.18496E-02         0.21615E-02         0.00000E+00
    0.18167E-02         0.21109E-02         0.00000E+00
    0.17833E-02         0.20603E-02         0.00000E+00
    0.17494E-02         0.20097E-02         0.00000E+00
    0.17150E-02         0.19591E-02         0.00000E+00
    0.16802E-02         0.19086E-02         0.00000E+00
    0.16448E-02         0.18580E-02         0.00000E+00
    0.16090E-02         0.18075E-02         0.00000E+00
    0.15727E-02         0.17571E-02         0.00000E+00
    0.15359E-02         0.17066E-02         0.00000E+00
    0.14987E-02         0.16562E-02         0.00000E+00
    0.14609E-02         0.16058E-02         0.00000E+00
    0.14227E-02         0.15554E-02         0.00000E+00
    0.13840E-02         0.15050E-02         0.00000E+00
    0.13449E-02         0.14546E-02         0.00000E+00
    0.13053E-02         0.14042E-02         0.00000E+00
    0.12652E-02         0.13539E-02         0.00000E+00
    0.12246E-02         0.13036E-02         0.00000E+00
    0.11836E-02         0.12533E-02         0.00000E+00
    0.11420E-02         0.12029E-02         0.00000E+00
    0.11000E-02         0.11527E-02         0.00000E+00
    0.10576E-02         0.11024E-02         0.00000E+00
    0.10146E-02         0.10521E-02         0.00000E+00
    0.97120E-03         0.10019E-02         0.00000E+00
    0.92730E-03         0.95162E-03         0.00000E+00
    0.88292E-03         0.90139E-03         0.00000E+00
    0.83806E-03         0.85117E-03         0.00000E+00
    0.79271E-03         0.80097E-03         0.00000E+00
    0.74688E-03         0.75077E-03         0.00000E+00
    0.70057E-03         0.70060E-03         0.00000E+00
    0.65377E-03         0.65043E-03         0.00000E+00
    0.60648E-03         0.60028E-03         0.00000E+00
    0.55870E-03         0.55015E-03         0.00000E+00
    0.51042E-03         0.50003E-03         0.00000E+00
    0.46165E-03         0.44993E-03         0.00000E+00
    0.41238E-03         0.39985E-03         0.00000E+00
    0.36261E-03         0.34978E-03         0.00000E+00
    0.31234E-03         0.29974E-03         0.00000E+00
    0.26156E-03         0.24972E-03         0.00000E+00
    0.21027E-03         0.19972E-03         0.00000E+00
    0.15848E-03         0.14975E-03         0.00000E+00
    0.10617E-03         0.99804E-04         0.00000E+00
    0.53344E-04         0.49887E-04         0.00000E+00
    0.00000E+00         0.00000E+00         0.00000E+00
    0.20452E-02         0.23731E-02         0.00000E+00
    0.20166E-02         0.23251E-02         0.00000E+00
    0.19874E-02         0.22771E-02         0.00000E+00
    0.19577E-02         0.22291E-02         0.00000E+00
    0.19274E-02         0.21811E-02         0.00000E+00
    0.18966E-02         0.21332E-02         0.00000E+00
    0.18654E-02         0.20853E-02         0.00000E+00
    0.18336E-02         0.20374E-02         0.00000E+00
    0.18013E-02         0.19896E-02         0.00000E+00
    0.17685E-02         0.19418E-02         0.00000E+00
    0.17351E-02         0.18940E-02         0.00000E+00
    0.17013E-02         0.18463E-02         0.00000E+00
    0.16670E-02         0.17986E-02         0.00000E+00
    0.16322E-02         0.17509E-02         0.00000E+00
    0.15969E-02         0.17032E-02         0.00000E+00
    0.15611E-02         0.16555E-02         0.00000E+00
    0.15248E-02         0.16079E-02         0.00000E+00
    0.14880E-02         0.15603E-02         0.00000E+00
    0.14507E-02         0.15127E-02         0.00000E+00
    0.14130E-02         0.14651E-02         0.00000E+00
    0.13747E-02         0.14176E-02         0.00000E+00
    0.13360E-02         0.13701E-02         0.00000E+00
    0.12968E-02         0.13225E-02         0.00000E+00
    0.12571E-02         0.12751E-02         0.00000E+00
    0.12169E-02         0.12276E-02         0.00000E+00
    0.11762E-02         0.11801E-02         0.00000E+00
    0.11351E-02         0.11327E-02         0.00000E+00
    0.10934E-02         0.10853E-02         0.00000E+00
    0.10513E-02         0.10378E-02         0.00000E+00
    0.10087E-02         0.99046E-03         0.00000E+00
    0.96560E-03         0.94308E-03         0.00000E+00
    0.92201E-03         0.89573E-03         0.00000E+00
    0.87794E-03         0.84839E-03         0.00000E+00
    0.83339E-03         0.80107E-03         0.00000E+00
    0.78834E-03         0.75377E-03         0.00000E+00
    0.74280E-03         0.70649E-03         0.00000E+00
    0.69678E-03         0.65922E-03         0.00000E+00
    0.65026E-03         0.61198E-03         0.00000E+00
    0.60325E-03         0.56475E-03         0.00000E+00
    0.55574E-03         0.51755E-03         0.00000E+00
    0.50773E-03         0.47037E-03         0.00000E+00
    0.45923E-03         0.42321E-03         0.00000E+00
    0.41023E-03         0.37607E-03         0.00000E+00
    0.36073E-03         0.32896E-03         0.00000E+00
    0.31072E-03         0.28188E-03         0.00000E+00
    0.26021E-03         0.23482E-03         0.00000E+00
    0.20919E-03         0.18779E-03         0.00000E+00
    0.15766E-03         0.14079E-03         0.00000E+00
    0.10562E-03         0.93829E-04         0.00000E+00
    0.53069E-04         0.46897E-04         0.00000E+00
    0.00000E+00         0.00000E+00         0.00000E+00
    0.20242E-02         0.22328E-02         0.00000E+00
    0.19962E-02         0.21875E-02         0.00000E+00
    0.19677E-02         0.21423E-02         0.00000E+00
    0.19386E-02         0.20971E-02         0.00000E+00
    0.19090E-02         0.20519E-02         0.00000E+00
    0.18788E-02         0.20067E-02         0.00000E+00
    0.18482E-02         0.19616E-02         0.00000E+00
    0.18170E-02         0.19165E-02         0.00000E+00
    0.17852E-02         0.18714E-02         0.00000E+00
    0.17530E-02         0.18264E-02         0.00000E+00
    0.17202E-02         0.17814E-02         0.00000E+00
    0.16869E-02         0.17364E-02         0.00000E+00
    0.16532E-02         0.16914E-02         0.00000E+00
    0.16189E-02         0.16465E-02         0.00000E+00
    0.15841E-02         0.16016E-02         0.00000E+00
    0.15488E-02         0.15567E-02         0.00000E+00
    0.15129E-02         0.15118E-02         0.00000E+00
    0.14766E-02         0.14670E-02         0.00000E+00
    0.14398E-02         0.14222E-02         0.00000E+00
    0.14025E-02         0.13774E-02         0.00000E+00
    0.13647E-02         0.13326E-02         0.00000E+00
    0.13264E-02         0.12878E-02         0.00000E+00
    0.12876E-02         0.12431E-02         0.00000E+00
    0.12483E-02         0.11984E-02         0.00000E+00
    0.12085E-02         0.11537E-02         0.00000E+00
    0.11682E-02         0.11090E-02         0.00000E+00
    0.11274E-02         0.10644E-02         0.00000E+00
    0.10862E-02         0.10198E-02         0.00000E+00
    0.10444E-02         0.97516E-03         0.00000E+00
    0.10021E-02         0.93057E-03         0.00000E+00
    0.95939E-03         0.88601E-03         0.00000E+00
    0.91615E-03         0.84147E-03         0.00000E+00
    0.87241E-03         0.79695E-03         0.00000E+00
    0.82818E-03         0.75245E-03         0.00000E+00
    0.78346E-03         0.70797E-03         0.00000E+00
    0.73824E-03         0.66352E-03         0.00000E+00
    0.69253E-03         0.61909E-03         0.00000E+00
    0.64632E-03         0.57468E-03         0.00000E+00
    0.59961E-03         0.53030E-03         0.00000E+00
    0.55241E-03         0.48594E-03         0.00000E+00
    0.50471E-03         0.44161E-03         0.00000E+00
    0.45651E-03         0.39731E-03         0.00000E+00
    0.40781E-03         0.35304E-03         0.00000E+00
    0.35860E-03         0.30879E-03         0.00000E+00
    0.30889E-03         0.26457E-03         0.00000E+00
    0.25868E-03         0.22039E-03         0.00000E+00
    0.20796E-03         0.17624E-03         0.00000E+00
    0.15674E-03         0.13213E-03         0.00000E+00
    0.10500E-03         0.88045E-04         0.00000E+00
    0.52758E-04         0.44003E-04         0.00000E+00
    0.00000E+00         0.00000E+00         0.00000E+00
    0.20032E-02         0.20958E-02         0.00000E+00
    0.19758E-02         0.20532E-02         0.00000E+00
    0.19479E-02         0.20107E-02         0.00000E+00
    0.19194E-02         0.19682E-02         0.00000E+00
    0.18904E-02         0.19257E-02         0.00000E+00
    0.18608E-02         0.18833E-02         0.00000E+00
    0.18307E-02         0.18408E-02         0.00000E+00
    0.18000E-02         0.17985E-02         0.00000E+00
    0.17689E-02         0.17561E-02         0.00000E+00
    0.17372E-02         0.17138E-02         0.00000E+00
    0.17049E-02         0.16714E-02         0.00000E+00
    0.16722E-02         0.16292E-02         0.00000E+00
    0.16389E-02         0.15869E-02         0.00000E+00
    0.16051E-02         0.15447E-02         0.00000E+00
    0.15708E-02         0.15025E-02         0.00000E+00
    0.15360E-02         0.14603E-02         0.00000E+00
    0.15006E-02         0.14182E-02         0.00000E+00
    0.14648E-02         0.13760E-02         0.00000E+00
    0.14284E-02         0.13339E-02         0.00000E+00
    0.13915E-02         0.12918E-02         0.00000E+00
    0.13542E-02         0.12498E-02         0.00000E+00
    0.13163E-02         0.12077E-02         0.00000E+00
    0.12779E-02         0.11657E-02         0.00000E+00
    0.12390E-02         0.11238E-02         0.00000E+00
    0.11996E-02         0.10818E-02         0.00000E+00
    0.11597E-02         0.10399E-02         0.00000E+00
    0.11193E-02         0.99794E-03         0.00000E+00
    0.10784E-02         0.95604E-03         0.00000E+00
    0.10370E-02         0.91417E-03         0.00000E+00
    0.99515E-03         0.87233E-03         0.00000E+00
    0.95276E-03         0.83051E-03         0.00000E+00
    0.90987E-03         0.78871E-03         0.00000E+00
    0.86648E-03         0.74694E-03         0.00000E+00
    0.82259E-03         0.70519E-03         0.00000E+00
    0.77821E-03         0.66347E-03         0.00000E+00
    0.73333E-03         0.62177E-03         0.00000E+00
    0.68795E-03         0.58010E-03         0.00000E+00
    0.64207E-03         0.53846E-03         0.00000E+00
    0.59569E-03         0.49684E-03         0.00000E+00
    0.54881E-03         0.45526E-03         0.00000E+00
    0.50144E-03         0.41370E-03         0.00000E+00
    0.45356E-03         0.37218E-03         0.00000E+00
    0.40518E-03         0.33068E-03         0.00000E+00
    0.35630E-03         0.28922E-03         0.00000E+00
    0.30691E-03         0.24779E-03         0.00000E+00
    0.25703E-03         0.20640E-03         0.00000E+00
    0.20663E-03         0.16504E-03         0.00000E+00
    0.15574E-03         0.12372E-03         0.00000E+00
    0.10433E-03         0.82439E-04         0.00000E+00
    0.52420E-04         0.41198E-04         0.00000E+00
    0.00000E+00         0.00000E+00         0.00000E+00
    0.19823E-02         0.19618E-02         0.00000E+00
    0.19555E-02         0.19219E-02         0.00000E+00
    0.19282E-02         0.18820E-02         0.00000E+00
    0.19003E-02         0.18422E-02         0.00000E+00
    0.18718E-02         0.18024E-02         0.00000E+00
    0.18428E-02         0.17626E-02         0.00000E+00
    0.18132E-02         0.17228E-02         0.00000E+00
    0.17831E-02         0.16831E-02         0.00000E+00
    0.17524E-02         0.16434E-02         0.00000E+00
    0.17213E-02         0.16037E-02         0.00000E+00
    0.16895E-02         0.15641E-02         0.00000E+00
    0.16573E-02         0.15245E-02         0.00000E+00
    0.16245E-02         0.14849E-02         0.00000E+00
    0.15912E-02         0.14453E-02         0.00000E+00
    0.15573E-02         0.14058E-02         0.00000E+00
    0.15230E-02         0.13662E-02         0.00000E+00
    0.14881E-02         0.13267E-02         0.00000E+00
    0.14527E-02         0.12873E-02         0.00000E+00
    0.14168E-02         0.12478E-02         0.00000E+00
    0.13803E-02         0.12084E-02         0.00000E+00
    0.13434E-02         0.11690E-02         0.00000E+00
    0.13059E-02         0.11296E-02         0.00000E+00
    0.12679E-02         0.10903E-02         0.00000E+00
    0.12294E-02         0.10510E-02         0.00000E+00
    0.11904E-02         0.10117E-02         0.00000E+00
    0.11509E-02         0.97242E-03         0.00000E+00
    0.11109E-02         0.93318E-03         0.00000E+00
    0.10704E-02         0.89396E-03         0.00000E+00
    0.10294E-02         0.85476E-03         0.00000E+00
    0.98787E-03         0.81560E-03         0.00000E+00
    0.94584E-03         0.77645E-03         0.00000E+00
    0.90332E-03         0.73734E-03         0.00000E+00
    0.86028E-03         0.69825E-03         0.00000E+00
    0.81675E-03         0.65919E-03         0.00000E+00
    0.77272E-03         0.62015E-03         0.00000E+00
    0.72818E-03         0.58115E-03         0.00000E+00
    0.68315E-03         0.54217E-03         0.00000E+00
    0.63761E-03         0.50322E-03         0.00000E+00
    0.59157E-03         0.46430E-03         0.00000E+00
    0.54504E-03         0.42542E-03         0.00000E+00
    0.49800E-03         0.38656E-03         0.00000E+00
    0.45046E-03         0.34774E-03         0.00000E+00
    0.40242E-03         0.30895E-03         0.00000E+00
    0.35387E-03         0.27020E-03         0.00000E+00
    0.30483E-03         0.23148E-03         0.00000E+00
    0.25528E-03         0.19280E-03         0.00000E+00
    0.20523E-03         0.15416E-03         0.00000E+00
    0.15468E-03         0.11556E-03         0.00000E+00
    0.10362E-03         0.76995E-04         0.00000E+00
    0.52065E-04         0.38475E-04         0.00000E+00
    0.00000E+00         0.00000E+00         0.00000E+00
    0.19619E-02         0.18306E-02         0.00000E+00
    0.19357E-02         0.17933E-02         0.00000E+00
    0.19088E-02         0.17561E-02         0.00000E+00
    0.18815E-02         0.17189E-02         0.00000E+00
    0.18535E-02         0.16817E-02         0.00000E+00
    0.18250E-02         0.16445E-02         0.00000E+00
    0.17959E-02         0.16074E-02         0.00000E+00
    0.17663E-02         0.15703E-02         0.00000E+00
    0.17362E-02         0.15332E-02         0.00000E+00
    0.17055E-02         0.14961E-02         0.00000E+00
    0.16742E-02         0.14591E-02         0.00000E+00
    0.16424E-02         0.14221E-02         0.00000E+00
    0.16101E-02         0.13851E-02         0.00000E+00
    0.15773E-02         0.13481E-02         0.00000E+00
    0.15439E-02         0.13112E-02         0.00000E+00
    0.15099E-02         0.12743E-02         0.00000E+00
    0.14755E-02         0.12374E-02         0.00000E+00
    0.14405E-02         0.12005E-02         0.00000E+00
    0.14050E-02         0.11637E-02         0.00000E+00
    0.13690E-02         0.11269E-02         0.00000E+00
    0.13325E-02         0.10901E-02         0.00000E+00
    0.12954E-02         0.10534E-02         0.00000E+00
    0.12578E-02         0.10166E-02         0.00000E+00
    0.12197E-02         0.97994E-03         0.00000E+00
    0.11811E-02         0.94326E-03         0.00000E+00
    0.11420E-02         0.90661E-03         0.00000E+00
    0.11024E-02         0.86998E-03         0.00000E+00
    0.10623E-02         0.83338E-03         0.00000E+00
    0.10216E-02         0.79680E-03         0.00000E+00
    0.98046E-03         0.76026E-03         0.00000E+00
    0.93880E-03         0.72374E-03         0.00000E+00
    0.89663E-03         0.68724E-03         0.00000E+00
    0.85396E-03         0.65078E-03         0.00000E+00
    0.81078E-03         0.61434E-03         0.00000E+00
    0.76710E-03         0.57794E-03         0.00000E+00
    0.72291E-03         0.54156E-03         0.00000E+00
    0.67823E-03         0.50521E-03         0.00000E+00
    0.63304E-03         0.46889E-03         0.00000E+00
    0.58735E-03         0.43261E-03         0.00000E+00
    0.54116E-03         0.39636E-03         0.00000E+00
    0.49446E-03         0.36014E-03         0.00000E+00
    0.44727E-03         0.32395E-03         0.00000E+00
    0.39958E-03         0.28780E-03         0.00000E+00
    0.35138E-03         0.25169E-03         0.00000E+00
    0.30268E-03         0.21561E-03         0.00000E+00
    0.25349E-03         0.17957E-03         0.00000E+00
    0.20379E-03         0.14357E-03         0.00000E+00
    0.15359E-03         0.10762E-03         0.00000E+00
    0.10290E-03         0.71701E-04         0.00000E+00
    0.51699E-04         0.35828E-04         0.00000E+00
    0.00000E+00         0.00000E+00         0.00000E+00
    0.19421E-02         0.17020E-02         0.00000E+00
    0.19164E-02         0.16673E-02         0.00000E+00
    0.18900E-02         0.16327E-02         0.00000E+00
    0.18632E-02         0.15980E-02         0.00000E+00
    0.18357E-02         0.15634E-02         0.00000E+00
    0.18077E-02         0.15288E-02         0.00000E+00
    0.17791E-02         0.14943E-02         0.00000E+00
    0.17499E-02         0.14597E-02         0.00000E+00
    0.17202E-02         0.14252E-02         0.00000E+00
    0.16900E-02         0.13907E-02         0.00000E+00
    0.16592E-02         0.13563E-02         0.00000E+00
    0.16279E-02         0.13218E-02         0.00000E+00
    0.15960E-02         0.12874E-02         0.00000E+00
    0.15636E-02         0.12530E-02         0.00000E+00
    0.15306E-02         0.12186E-02         0.00000E+00
    0.14971E-02         0.11843E-02         0.00000E+00
    0.14631E-02         0.11500E-02         0.00000E+00
    0.14285E-02         0.11157E-02         0.00000E+00
    0.13934E-02         0.10814E-02         0.00000E+00
    0.13578E-02         0.10472E-02         0.00000E+00
    0.13217E-02         0.10130E-02         0.00000E+00
    0.12850E-02         0.97879E-03         0.00000E+00
    0.12478E-02         0.94462E-03         0.00000E+00
    0.12101E-02         0.91048E-03         0.00000E+00
    0.11719E-02         0.87637E-03         0.00000E+00
    0.11331E-02         0.84228E-03         0.00000E+00
    0.10939E-02         0.80822E-03         0.00000E+00
    0.10541E-02         0.77419E-03         0.00000E+00
    0.10138E-02         0.74018E-03         0.00000E+00
    0.97304E-03         0.70620E-03         0.00000E+00
    0.93174E-03         0.67225E-03         0.00000E+00
    0.88993E-03         0.63832E-03         0.00000E+00
    0.84761E-03         0.60443E-03         0.00000E+00
    0.80478E-03         0.57056E-03         0.00000E+00
    0.76145E-03         0.53672E-03         0.00000E+00
    0.71762E-03         0.50292E-03         0.00000E+00
    0.67328E-03         0.46914E-03         0.00000E+00
    0.62844E-03         0.43540E-03         0.00000E+00
    0.58310E-03         0.40169E-03         0.00000E+00
    0.53725E-03         0.36801E-03         0.00000E+00
    0.49090E-03         0.33437E-03         0.00000E+00
    0.44406E-03         0.30076E-03         0.00000E+00
    0.39671E-03         0.26718E-03         0.00000E+00
    0.34887E-03         0.23364E-03         0.00000E+00
    0.30052E-03         0.20014E-03         0.00000E+00
    0.25168E-03         0.16668E-03         0.00000E+00
    0.20234E-03         0.13326E-03         0.00000E+00
    0.15250E-03         0.99882E-04         0.00000E+00
    0.10216E-03         0.66544E-04         0.00000E+00
    0.51330E-04         0.33249E-04         0.00000E+00
    0.00000E+00         0.00000E+00         0.00000E+00
    0.19231E-02         0.15759E-02         0.00000E+00
    0.18978E-02         0.15437E-02         0.00000E+00
    0.18720E-02         0.15116E-02         0.00000E+00
    0.18455E-02         0.14795E-02         0.00000E+00
    0.18185E-02         0.14474E-02         0.00000E+00
    0.17909E-02         0.14154E-02         0.00000E+00
    0.17628E-02         0.13833E-02         0.00000E+00
    0.17341E-02         0.13513E-02         0.00000E+00
    0.17048E-02         0.13194E-02         0.00000E+00
    0.16750E-02         0.12874E-02         0.00000E+00
    0.16446E-02         0.12555E-02         0.00000E+00
    0.16137E-02         0.12235E-02         0.00000E+00
    0.15822E-02         0.11917E-02         0.00000E+00
    0.15502E-02         0.11598E-02         0.00000E+00
    0.15177E-02         0.11280E-02         0.00000E+00
    0.14846E-02         0.10961E-02         0.00000E+00
    0.14509E-02         0.10643E-02         0.00000E+00
    0.14168E-02         0.10326E-02         0.00000E+00
    0.13821E-02         0.10008E-02         0.00000E+00
    0.13468E-02         0.96911E-03         0.00000E+00
    0.13111E-02         0.93742E-03         0.00000E+00
    0.12748E-02         0.90575E-03         0.00000E+00
    0.12380E-02         0.87410E-03         0.00000E+00
    0.12006E-02         0.84248E-03         0.00000E+00
    0.11628E-02         0.81089E-03         0.00000E+00
    0.11244E-02         0.77932E-03         0.00000E+00
    0.10855E-02         0.74778E-03         0.00000E+00
    0.10461E-02         0.71627E-03         0.00000E+00
    0.10062E-02         0.68478E-03         0.00000E+00
    0.96573E-03         0.65332E-03         0.00000E+00
    0.92478E-03         0.62188E-03         0.00000E+00
    0.88331E-03         0.59048E-03         0.00000E+00
    0.84134E-03         0.55910E-03         0.00000E+00
    0.79886E-03         0.52776E-03         0.00000E+00
    0.75588E-03         0.49644E-03         0.00000E+00
    0.71239E-03         0.46515E-03         0.00000E+00
    0.66839E-03         0.43389E-03         0.00000E+00
    0.62389E-03         0.40267E-03         0.00000E+00
    0.57889E-03         0.37148E-03         0.00000E+00
    0.53338E-03         0.34032E-03         0.00000E+00
    0.48738E-03         0.30919E-03         0.00000E+00
    0.44088E-03         0.27810E-03         0.00000E+00
    0.39388E-03         0.24705E-03         0.00000E+00
    0.34638E-03         0.21603E-03         0.00000E+00
    0.29838E-03         0.18504E-03         0.00000E+00
    0.24989E-03         0.15410E-03         0.00000E+00
    0.20090E-03         0.12320E-03         0.00000E+00
    0.15141E-03         0.92334E-04         0.00000E+00
    0.10144E-03         0.61513E-04         0.00000E+00
    0.50964E-04         0.30734E-04         0.00000E+00
    0.00000E+00         0.00000E+00         0.00000E+00
    0.19051E-02         0.14519E-02         0.00000E+00
    0.18802E-02         0.14223E-02         0.00000E+00
    0.18548E-02         0.13927E-02         0.00000E+00
    0.18287E-02         0.13631E-02         0.00000E+00
    0.18021E-02         0.13335E-02         0.00000E+00
    0.17750E-02         0.13040E-02         0.00000E+00
    0.17472E-02         0.12744E-02         0.00000E+00
    0.17189E-02         0.12449E-02         0.00000E+00
    0.16901E-02         0.12154E-02         0.00000E+00
    0.16607E-02         0.11860E-02         0.00000E+00
    0.16307E-02         0.11565E-02         0.00000E+00
    0.16001E-02         0.11271E-02         0.00000E+00
    0.15691E-02         0.10977E-02         0.00000E+00
    0.15374E-02         0.10683E-02         0.00000E+00
    0.15053E-02         0.10390E-02         0.00000E+00
    0.14725E-02         0.10096E-02         0.00000E+00
    0.14393E-02         0.98032E-03         0.00000E+00
    0.14055E-02         0.95103E-03         0.00000E+00
    0.13711E-02         0.92177E-03         0.00000E+00
    0.13363E-02         0.89253E-03         0.00000E+00
    0.13009E-02         0.86332E-03         0.00000E+00
    0.12649E-02         0.83413E-03         0.00000E+00
    0.12285E-02         0.80496E-03         0.00000E+00
    0.11915E-02         0.77582E-03         0.00000E+00
    0.11540E-02         0.74671E-03         0.00000E+00
    0.11159E-02         0.71761E-03         0.00000E+00
    0.10774E-02         0.68855E-03         0.00000E+00
    0.10383E-02         0.65951E-03         0.00000E+00
    0.99874E-03         0.63050E-03         0.00000E+00
    0.95863E-03         0.60151E-03         0.00000E+00
    0.91802E-03         0.57255E-03         0.00000E+00
    0.87689E-03         0.54362E-03         0.00000E+00
    0.83525E-03         0.51472E-03         0.00000E+00
    0.79310E-03         0.48584E-03         0.00000E+00
    0.75045E-03         0.45700E-03         0.00000E+00
    0.70729E-03         0.42818E-03         0.00000E+00
    0.66363E-03         0.39939E-03         0.00000E+00
    0.61946E-03         0.37064E-03         0.00000E+00
    0.57479E-03         0.34192E-03         0.00000E+00
    0.52962E-03         0.31323E-03         0.00000E+00
    0.48394E-03         0.28457E-03         0.00000E+00
    0.43778E-03         0.25594E-03         0.00000E+00
    0.39111E-03         0.22735E-03         0.00000E+00
    0.34395E-03         0.19880E-03         0.00000E+00
    0.29629E-03         0.17028E-03         0.00000E+00
    0.24814E-03         0.14180E-03         0.00000E+00
    0.19949E-03         0.11336E-03         0.00000E+00
    0.15035E-03         0.84958E-04         0.00000E+00
    0.10073E-03         0.56597E-04         0.00000E+00
    0.50607E-04         0.28277E-04         0.00000E+00
    0.00000E+00         0.00000E+00         0.00000E+00
    0.18881E-02         0.13300E-02         0.00000E+00
    0.18636E-02         0.13029E-02         0.00000E+00
    0.18385E-02         0.12757E-02         0.00000E+00
    0.18129E-02         0.12486E-02         0.00000E+00
    0.17867E-02         0.12215E-02         0.00000E+00
    0.17599E-02         0.11944E-02         0.00000E+00
    0.17325E-02         0.11673E-02         0.00000E+00
    0.17046E-02         0.11403E-02         0.00000E+00
    0.16761E-02         0.11133E-02         0.00000E+00
    0.16471E-02         0.10862E-02         0.00000E+00
    0.16175E-02         0.10593E-02         0.00000E+00
    0.15873E-02         0.10323E-02         0.00000E+00
    0.15566E-02         0.10053E-02         0.00000E+00
    0.15253E-02         0.97842E-03         0.00000E+00
    0.14935E-02         0.95151E-03         0.00000E+00
    0.14611E-02         0.92463E-03         0.00000E+00
    0.14282E-02         0.89777E-03         0.00000E+00
    0.13947E-02         0.87093E-03         0.00000E+00
    0.13607E-02         0.84412E-03         0.00000E+00
    0.13262E-02         0.81732E-03         0.00000E+00
    0.12911E-02         0.79055E-03         0.00000E+00
    0.12555E-02         0.76381E-03         0.00000E+00
    0.12194E-02         0.73708E-03         0.00000E+00
    0.11828E-02         0.71038E-03         0.00000E+00
    0.11456E-02         0.68370E-03         0.00000E+00
    0.11079E-02         0.65705E-03         0.00000E+00
    0.10696E-02         0.63042E-03         0.00000E+00
    0.10309E-02         0.60382E-03         0.00000E+00
    0.99162E-03         0.57724E-03         0.00000E+00
    0.95184E-03         0.55069E-03         0.00000E+00
    0.91155E-03         0.52416E-03         0.00000E+00
    0.87074E-03         0.49766E-03         0.00000E+00
    0.82942E-03         0.47119E-03         0.00000E+00
    0.78759E-03         0.44474E-03         0.00000E+00
    0.74525E-03         0.41833E-03         0.00000E+00
    0.70240E-03         0.39194E-03         0.00000E+00
    0.65906E-03         0.36558E-03         0.00000E+00
    0.61520E-03         0.33925E-03         0.00000E+00
    0.57085E-03         0.31295E-03         0.00000E+00
    0.52600E-03         0.28668E-03         0.00000E+00
    0.48065E-03         0.26044E-03         0.00000E+00
    0.43480E-03         0.23424E-03         0.00000E+00
    0.38845E-03         0.20807E-03         0.00000E+00
    0.34161E-03         0.18193E-03         0.00000E+00
    0.29428E-03         0.15583E-03         0.00000E+00
    0.24645E-03         0.12976E-03         0.00000E+00
    0.19814E-03         0.10373E-03         0.00000E+00
    0.14934E-03         0.77738E-04         0.00000E+00
    0.10004E-03         0.51785E-04         0.00000E+00
    0.50264E-04         0.25872E-04         0.00000E+00
    0.00000E+00         0.00000E+00         0.00000E+00
    0.18723E-02         0.12100E-02         0.00000E+00
    0.18481E-02         0.11853E-02         0.00000E+00
    0.18234E-02         0.11606E-02         0.00000E+00
    0.17981E-02         0.11359E-02         0.00000E+00
    0.17723E-02         0.11112E-02         0.00000E+00
    0.17458E-02         0.10866E-02         0.00000E+00
    0.17188E-02         0.10619E-02         0.00000E+00
    0.16912E-02         0.10373E-02         0.00000E+00
    0.16631E-02         0.10127E-02         0.00000E+00
    0.16344E-02         0.98811E-03         0.00000E+00
    0.16051E-02         0.96355E-03         0.00000E+00
    0.15752E-02         0.93900E-03         0.00000E+00
    0.15449E-02         0.91448E-03         0.00000E+00
    0.15139E-02         0.88997E-03         0.00000E+00
    0.14824E-02         0.86549E-03         0.00000E+00
    0.14504E-02         0.84102E-03         0.00000E+00
    0.14178E-02         0.81658E-03         0.00000E+00
    0.13846E-02         0.79215E-03         0.00000E+00
    0.13510E-02         0.76775E-03         0.00000E+00
    0.13167E-02         0.74337E-03         0.00000E+00
    0.12820E-02         0.71901E-03         0.00000E+00
    0.12467E-02         0.69467E-03         0.00000E+00
    0.12109E-02         0.67035E-03         0.00000E+00
    0.11745E-02         0.64605E-03         0.00000E+00
    0.11377E-02         0.62178E-03         0.00000E+00
    0.11003E-02         0.59753E-03         0.00000E+00
    0.10623E-02         0.57330E-03         0.00000E+00
    0.10239E-02         0.54910E-03         0.00000E+00
    0.98492E-03         0.52492E-03         0.00000E+00
    0.94544E-03         0.50076E-03         0.00000E+00
    0.90544E-03         0.47663E-03         0.00000E+00
    0.86493E-03         0.45252E-03         0.00000E+00
    0.82391E-03         0.42844E-03         0.00000E+00
    0.78238E-03         0.40438E-03         0.00000E+00
    0.74034E-03         0.38036E-03         0.00000E+00
    0.69779E-03         0.35635E-03         0.00000E+00
    0.65474E-03         0.33238E-03         0.00000E+00
    0.61119E-03         0.30843E-03         0.00000E+00
    0.56713E-03         0.28451E-03         0.00000E+00
    0.52258E-03         0.26063E-03         0.00000E+00
    0.47753E-03         0.23677E-03         0.00000E+00
    0.43198E-03         0.21294E-03         0.00000E+00
    0.38594E-03         0.18914E-03         0.00000E+00
    0.33940E-03         0.16538E-03         0.00000E+00
    0.29238E-03         0.14165E-03         0.00000E+00
    0.24486E-03         0.11795E-03         0.00000E+00
    0.19686E-03         0.94287E-04         0.00000E+00
    0.14837E-03         0.70660E-04         0.00000E+00
    0.99398E-04         0.47069E-04         0.00000E+00
    0.49940E-04         0.23515E-04         0.00000E+00
    0.00000E+00         0.00000E+00         0.00000E+00
    0.18577E-02         0.10917E-02         0.00000E+00
    0.18339E-02         0.10694E-02         0.00000E+00
    0.18095E-02         0.10471E-02         0.00000E+00
    0.17846E-02         0.10248E-02         0.00000E+00
    0.17590E-02         0.10025E-02         0.00000E+00
    0.17329E-02         0.98025E-03         0.00000E+00
    0.17062E-02         0.95802E-03         0.00000E+00
    0.16789E-02         0.93580E-03         0.00000E+00
    0.16511E-02         0.91359E-03         0.00000E+00
    0.16227E-02         0.89141E-03         0.00000E+00
    0.15937E-02         0.86924E-03         0.00000E+00
    0.15641E-02         0.84709E-03         0.00000E+00
    0.15340E-02         0.82496E-03         0.00000E+00
    0.15034E-02         0.80284E-03         0.00000E+00
    0.14722E-02         0.78074E-03         0.00000E+00
    0.14404E-02         0.75867E-03         0.00000E+00
    0.14081E-02         0.73661E-03         0.00000E+00
    0.13753E-02         0.71456E-03         0.00000E+00
    0.13419E-02         0.69254E-03         0.00000E+00
    0.13080E-02         0.67054E-03         0.00000E+00
    0.12735E-02         0.64856E-03         0.00000E+00
    0.12385E-02         0.62659E-03         0.00000E+00
    0.12030E-02         0.60465E-03         0.00000E+00
    0.11669E-02         0.58273E-03         0.00000E+00
    0.11303E-02         0.56083E-03         0.00000E+00
    0.10932E-02         0.53894E-03         0.00000E+00
    0.10556E-02         0.51708E-03         0.00000E+00
    0.10174E-02         0.49525E-03         0.00000E+00
    0.97870E-03         0.47343E-03         0.00000E+00
    0.93950E-03         0.45164E-03         0.00000E+00
    0.89978E-03         0.42986E-03         0.00000E+00
    0.85954E-03         0.40812E-03         0.00000E+00
    0.81879E-03         0.38639E-03         0.00000E+00
    0.77754E-03         0.36469E-03         0.00000E+00
    0.73577E-03         0.34302E-03         0.00000E+00
    0.69350E-03         0.32136E-03         0.00000E+00
    0.65073E-03         0.29974E-03         0.00000E+00
    0.60745E-03         0.27814E-03         0.00000E+00
    0.56367E-03         0.25657E-03         0.00000E+00
    0.51940E-03         0.23502E-03         0.00000E+00
    0.47463E-03         0.21350E-03         0.00000E+00
    0.42936E-03         0.19201E-03         0.00000E+00
    0.38360E-03         0.17055E-03         0.00000E+00
    0.33735E-03         0.14912E-03         0.00000E+00
    0.29061E-03         0.12772E-03         0.00000E+00
    0.24339E-03         0.10635E-03         0.00000E+00
    0.19567E-03         0.85013E-04         0.00000E+00
    0.14748E-03         0.63708E-04         0.00000E+00
    0.98797E-04         0.42437E-04         0.00000E+00
    0.49638E-04         0.21201E-04         0.00000E+00
    0.00000E+00         0.00000E+00         0.00000E+00
    0.18446E-02         0.97487E-03         0.00000E+00
    0.18210E-02         0.95493E-03         0.00000E+00
    0.17969E-02         0.93502E-03         0.00000E+00
    0.17723E-02         0.91511E-03         0.00000E+00
    0.17470E-02         0.89522E-03         0.00000E+00
    0.17211E-02         0.87535E-03         0.00000E+00
    0.16947E-02         0.85548E-03         0.00000E+00
    0.16677E-02         0.83564E-03         0.00000E+00
    0.16402E-02         0.81581E-03         0.00000E+00
    0.16120E-02         0.79599E-03         0.00000E+00
    0.15833E-02         0.77619E-03         0.00000E+00
    0.15541E-02         0.75641E-03         0.00000E+00
    0.15242E-02         0.73664E-03         0.00000E+00
    0.14938E-02         0.71689E-03         0.00000E+00
    0.14629E-02         0.69715E-03         0.00000E+00
    0.14314E-02         0.67743E-03         0.00000E+00
    0.13994E-02         0.65773E-03         0.00000E+00
    0.13668E-02         0.63805E-03         0.00000E+00
    0.13337E-02         0.61838E-03         0.00000E+00
    0.13000E-02         0.59873E-03         0.00000E+00
    0.12658E-02         0.57910E-03         0.00000E+00
    0.12311E-02         0.55948E-03         0.00000E+00
    0.11958E-02         0.53988E-03         0.00000E+00
    0.11600E-02         0.52031E-03         0.00000E+00
    0.11236E-02         0.50075E-03         0.00000E+00
    0.10868E-02         0.48120E-03         0.00000E+00
    0.10494E-02         0.46168E-03         0.00000E+00
    0.10115E-02         0.44218E-03         0.00000E+00
    0.97304E-03         0.42270E-03         0.00000E+00
    0.93408E-03         0.40324E-03         0.00000E+00
    0.89461E-03         0.38380E-03         0.00000E+00
    0.85463E-03         0.36438E-03         0.00000E+00
    0.81413E-03         0.34498E-03         0.00000E+00
    0.77312E-03         0.32560E-03         0.00000E+00
    0.73161E-03         0.30624E-03         0.00000E+00
    0.68959E-03         0.28691E-03         0.00000E+00
    0.64707E-03         0.26760E-03         0.00000E+00
    0.60404E-03         0.24831E-03         0.00000E+00
    0.56052E-03         0.22905E-03         0.00000E+00
    0.51650E-03         0.20982E-03         0.00000E+00
    0.47198E-03         0.19060E-03         0.00000E+00
    0.42697E-03         0.17142E-03         0.00000E+00
    0.38147E-03         0.15226E-03         0.00000E+00
    0.33548E-03         0.13312E-03         0.00000E+00
    0.28900E-03         0.11402E-03         0.00000E+00
    0.24203E-03         0.94939E-04         0.00000E+00
    0.19459E-03         0.75890E-04         0.00000E+00
    0.14666E-03         0.56871E-04         0.00000E+00
    0.98249E-04         0.37883E-04         0.00000E+00
    0.49362E-04         0.18925E-04         0.00000E+00
    0.00000E+00         0.00000E+00         0.00000E+00
    0.18328E-02         0.85941E-03         0.00000E+00
    0.18096E-02         0.84184E-03         0.00000E+00
    0.17857E-02         0.82428E-03         0.00000E+00
    0.17613E-02         0.80673E-03         0.00000E+00
    0.17363E-02         0.78920E-03         0.00000E+00
    0.17107E-02         0.77168E-03         0.00000E+00
    0.16845E-02         0.75417E-03         0.00000E+00
    0.16578E-02         0.73667E-03         0.00000E+00
    0.16304E-02         0.71919E-03         0.00000E+00
    0.16025E-02         0.70172E-03         0.00000E+00
    0.15741E-02         0.68427E-03         0.00000E+00
    0.15451E-02         0.66683E-03         0.00000E+00
    0.15155E-02         0.64940E-03         0.00000E+00
    0.14853E-02         0.63199E-03         0.00000E+00
    0.14546E-02         0.61459E-03         0.00000E+00
    0.14234E-02         0.59721E-03         0.00000E+00
    0.13916E-02         0.57984E-03         0.00000E+00
    0.13592E-02         0.56248E-03         0.00000E+00
    0.13264E-02         0.54515E-03         0.00000E+00
    0.12929E-02         0.52782E-03         0.00000E+00
    0.12589E-02         0.51051E-03         0.00000E+00
    0.12244E-02         0.49322E-03         0.00000E+00
    0.11894E-02         0.47595E-03         0.00000E+00
    0.11538E-02         0.45869E-03         0.00000E+00
    0.11177E-02         0.44144E-03         0.00000E+00
    0.10810E-02         0.42422E-03         0.00000E+00
    0.10439E-02         0.40701E-03         0.00000E+00
    0.10062E-02         0.38981E-03         0.00000E+00
    0.96798E-03         0.37264E-03         0.00000E+00
    0.92925E-03         0.35548E-03         0.00000E+00
    0.89000E-03         0.33834E-03         0.00000E+00
    0.85024E-03         0.32122E-03         0.00000E+00
    0.80997E-03         0.30412E-03         0.00000E+00
    0.76918E-03         0.28704E-03         0.00000E+00
    0.72789E-03         0.26998E-03         0.00000E+00
    0.68610E-03         0.25293E-03         0.00000E+00
    0.64380E-03         0.23591E-03         0.00000E+00
    0.60100E-03         0.21891E-03         0.00000E+00
    0.55770E-03         0.20193E-03         0.00000E+00
    0.51391E-03         0.18497E-03         0.00000E+00
    0.46962E-03         0.16803E-03         0.00000E+00
    0.42483E-03         0.15112E-03         0.00000E+00
    0.37956E-03         0.13422E-03         0.00000E+00
    0.33380E-03         0.11736E-03         0.00000E+00
    0.28756E-03         0.10051E-03         0.00000E+00
    0.24083E-03         0.83695E-04         0.00000E+00
    0.19362E-03         0.66902E-04         0.00000E+00
    0.14593E-03         0.50136E-04         0.00000E+00
    0.97759E-04         0.33396E-04         0.00000E+00
    0.49116E-04         0.16684E-04         0.00000E+00
    0.00000E+00         0.00000E+00         0.00000E+00
    0.18226E-02         0.74515E-03         0.00000E+00
    0.17996E-02         0.72992E-03         0.00000E+00
    0.17760E-02         0.71470E-03         0.00000E+00
    0.17518E-02         0.69949E-03         0.00000E+00
    0.17270E-02         0.68429E-03         0.00000E+00
    0.17016E-02         0.66910E-03         0.00000E+00
    0.16756E-02         0.65393E-03         0.00000E+00
    0.16491E-02         0.63876E-03         0.00000E+00
    0.16220E-02         0.62361E-03         0.00000E+00
    0.15943E-02         0.60846E-03         0.00000E+00
    0.15660E-02         0.59333E-03         0.00000E+00
    0.15372E-02         0.57821E-03         0.00000E+00
    0.15079E-02         0.56311E-03         0.00000E+00
    0.14779E-02         0.54801E-03         0.00000E+00
    0.14474E-02         0.53293E-03         0.00000E+00
    0.14164E-02         0.51786E-03         0.00000E+00
    0.13848E-02         0.50281E-03         0.00000E+00
    0.13527E-02         0.48776E-03         0.00000E+00
    0.13200E-02         0.47273E-03         0.00000E+00
    0.12867E-02         0.45771E-03         0.00000E+00
    0.12530E-02         0.44271E-03         0.00000E+00
    0.12187E-02         0.42772E-03         0.00000E+00
    0.11838E-02         0.41274E-03         0.00000E+00
    0.11484E-02         0.39778E-03         0.00000E+00
    0.11125E-02         0.38283E-03         0.00000E+00
    0.10761E-02         0.36789E-03         0.00000E+00
    0.10391E-02         0.35297E-03         0.00000E+00
    0.10016E-02         0.33806E-03         0.00000E+00
    0.96358E-03         0.32317E-03         0.00000E+00
    0.92504E-03         0.30830E-03         0.00000E+00
    0.88599E-03         0.29343E-03         0.00000E+00
    0.84642E-03         0.27859E-03         0.00000E+00
    0.80635E-03         0.26376E-03         0.00000E+00
    0.76576E-03         0.24895E-03         0.00000E+00
    0.72466E-03         0.23415E-03         0.00000E+00
    0.68306E-03         0.21937E-03         0.00000E+00
    0.64096E-03         0.20461E-03         0.00000E+00
    0.59835E-03         0.18987E-03         0.00000E+00
    0.55525E-03         0.17514E-03         0.00000E+00
    0.51165E-03         0.16043E-03         0.00000E+00
    0.46756E-03         0.14574E-03         0.00000E+00
    0.42298E-03         0.13107E-03         0.00000E+00
    0.37791E-03         0.11642E-03         0.00000E+00
    0.33235E-03         0.10180E-03         0.00000E+00
    0.28630E-03         0.87186E-04         0.00000E+00
    0.23978E-03         0.72599E-04         0.00000E+00
    0.19277E-03         0.58033E-04         0.00000E+00
    0.14529E-03         0.43490E-04         0.00000E+00
    0.97333E-04         0.28970E-04         0.00000E+00
    0.48902E-04         0.14473E-04         0.00000E+00
    0.00000E+00         0.00000E+00         0.00000E+00
    0.18140E-02         0.63193E-03         0.00000E+00
    0.17912E-02         0.61902E-03         0.00000E+00
    0.17677E-02         0.60612E-03         0.00000E+00
    0.17437E-02         0.59323E-03         0.00000E+00
    0.17191E-02         0.58035E-03         0.00000E+00
    0.16939E-02         0.56747E-03         0.00000E+00
    0.16681E-02         0.55461E-03         0.00000E+00
    0.16418E-02         0.54176E-03         0.00000E+00
    0.16148E-02         0.52891E-03         0.00000E+00
    0.15873E-02         0.51608E-03         0.00000E+00
    0.15593E-02         0.50326E-03         0.00000E+00
    0.15306E-02         0.49044E-03         0.00000E+00
    0.15015E-02         0.47764E-03         0.00000E+00
    0.14717E-02         0.46484E-03         0.00000E+00
    0.14414E-02         0.45206E-03         0.00000E+00
    0.14105E-02         0.43928E-03         0.00000E+00
    0.13791E-02         0.42652E-03         0.00000E+00
    0.13471E-02         0.41377E-03         0.00000E+00
    0.13146E-02         0.40103E-03         0.00000E+00
    0.12815E-02         0.38829E-03         0.00000E+00
    0.12479E-02         0.37557E-03         0.00000E+00
    0.12138E-02         0.36286E-03         0.00000E+00
    0.11791E-02         0.35016E-03         0.00000E+00
    0.11439E-02         0.33748E-03         0.00000E+00
    0.11082E-02         0.32480E-03         0.00000E+00
    0.10719E-02         0.31214E-03         0.00000E+00
    0.10351E-02         0.29949E-03         0.00000E+00
    0.99774E-03         0.28684E-03         0.00000E+00
    0.95989E-03         0.27422E-03         0.00000E+00
    0.92152E-03         0.26160E-03         0.00000E+00
    0.88263E-03         0.24900E-03         0.00000E+00
    0.84323E-03         0.23641E-03         0.00000E+00
    0.80331E-03         0.22383E-03         0.00000E+00
    0.76288E-03         0.21126E-03         0.00000E+00
    0.72195E-03         0.19871E-03         0.00000E+00
    0.68052E-03         0.18618E-03         0.00000E+00
    0.63858E-03         0.17365E-03         0.00000E+00
    0.59614E-03         0.16114E-03         0.00000E+00
    0.55320E-03         0.14865E-03         0.00000E+00
    0.50976E-03         0.13617E-03         0.00000E+00
    0.46584E-03         0.12371E-03         0.00000E+00
    0.42142E-03         0.11126E-03         0.00000E+00
    0.37652E-03         0.98827E-04         0.00000E+00
    0.33113E-03         0.86411E-04         0.00000E+00
    0.28526E-03         0.74012E-04         0.00000E+00
    0.23890E-03         0.61631E-04         0.00000E+00
    0.19207E-03         0.49267E-04         0.00000E+00
    0.14476E-03         0.36922E-04         0.00000E+00
    0.96977E-04         0.24595E-04         0.00000E+00
    0.48723E-04         0.12288E-04         0.00000E+00
    0.00000E+00         0.00000E+00         0.00000E+00
    0.18070E-02         0.51959E-03         0.00000E+00
    0.17843E-02         0.50898E-03         0.00000E+00
    0.17610E-02         0.49839E-03         0.00000E+00
    0.17372E-02         0.48780E-03         0.00000E+00
    0.17127E-02         0.47722E-03         0.00000E+00
    0.16877E-02         0.46665E-03         0.00000E+00
    0.16620E-02         0.45609E-03         0.00000E+00
    0.16358E-02         0.44553E-03         0.00000E+00
    0.16091E-02         0.43498E-03         0.00000E+00
    0.15817E-02         0.42444E-03         0.00000E+00
    0.15538E-02         0.41391E-03         0.00000E+00
    0.15253E-02         0.40338E-03         0.00000E+00
    0.14963E-02         0.39286E-03         0.00000E+00
    0.14667E-02         0.38235E-03         0.00000E+00
    0.14365E-02         0.37185E-03         0.00000E+00
    0.14058E-02         0.36136E-03         0.00000E+00
    0.13745E-02         0.35087E-03         0.00000E+00
    0.13427E-02         0.34039E-03         0.00000E+00
    0.13103E-02         0.32992E-03         0.00000E+00
    0.12774E-02         0.31946E-03         0.00000E+00
    0.12439E-02         0.30901E-03         0.00000E+00
    0.12099E-02         0.29857E-03         0.00000E+00
    0.11754E-02         0.28813E-03         0.00000E+00
    0.11403E-02         0.27770E-03         0.00000E+00
    0.11047E-02         0.26728E-03         0.00000E+00
    0.10685E-02         0.25687E-03         0.00000E+00
    0.10319E-02         0.24647E-03         0.00000E+00
    0.99466E-03         0.23608E-03         0.00000E+00
    0.95694E-03         0.22570E-03         0.00000E+00
    0.91871E-03         0.21533E-03         0.00000E+00
    0.87995E-03         0.20496E-03         0.00000E+00
    0.84068E-03         0.19461E-03         0.00000E+00
    0.80089E-03         0.18426E-03         0.00000E+00
    0.76060E-03         0.17393E-03         0.00000E+00
    0.71980E-03         0.16360E-03         0.00000E+00
    0.67849E-03         0.15329E-03         0.00000E+00
    0.63668E-03         0.14299E-03         0.00000E+00
    0.59437E-03         0.13269E-03         0.00000E+00
    0.55157E-03         0.12241E-03         0.00000E+00
    0.50826E-03         0.11214E-03         0.00000E+00
    0.46447E-03         0.10188E-03         0.00000E+00
    0.42019E-03         0.91636E-04         0.00000E+00
    0.37542E-03         0.81401E-04         0.00000E+00
    0.33016E-03         0.71179E-04         0.00000E+00
    0.28442E-03         0.60969E-04         0.00000E+00
    0.23820E-03         0.50773E-04         0.00000E+00
    0.19151E-03         0.40590E-04         0.00000E+00
    0.14434E-03         0.30420E-04         0.00000E+00
    0.96693E-04         0.20265E-04         0.00000E+00
    0.48580E-04         0.10125E-04         0.00000E+00
    0.00000E+00         0.00000E+00         0.00000E+00
    0.18017E-02         0.40797E-03         0.00000E+00
    0.17791E-02         0.39966E-03         0.00000E+00
    0.17560E-02         0.39136E-03         0.00000E+00
    0.17322E-02         0.38306E-03         0.00000E+00
    0.17079E-02         0.37478E-03         0.00000E+00
    0.16830E-02         0.36649E-03         0.00000E+00
    0.16575E-02         0.35821E-03         0.00000E+00
    0.16314E-02         0.34994E-03         0.00000E+00
    0.16047E-02         0.34167E-03         0.00000E+00
    0.15775E-02         0.33341E-03         0.00000E+00
    0.15497E-02         0.32516E-03         0.00000E+00
    0.15214E-02         0.31691E-03         0.00000E+00
    0.14924E-02         0.30867E-03         0.00000E+00
    0.14629E-02         0.30043E-03         0.00000E+00
    0.14329E-02         0.29220E-03         0.00000E+00
    0.14023E-02         0.28397E-03         0.00000E+00
    0.13711E-02         0.27575E-03         0.00000E+00
    0.13394E-02         0.26753E-03         0.00000E+00
    0.13071E-02         0.25932E-03         0.00000E+00
    0.12743E-02         0.25112E-03         0.00000E+00
    0.12409E-02         0.24292E-03         0.00000E+00
    0.12070E-02         0.23473E-03         0.00000E+00
    0.11726E-02         0.22654E-03         0.00000E+00
    0.11376E-02         0.21836E-03         0.00000E+00
    0.11021E-02         0.21019E-03         0.00000E+00
    0.10661E-02         0.20202E-03         0.00000E+00
    0.10295E-02         0.19385E-03         0.00000E+00
    0.99240E-03         0.18570E-03         0.00000E+00
    0.95478E-03         0.17754E-03         0.00000E+00
    0.91664E-03         0.16940E-03         0.00000E+00
    0.87799E-03         0.16126E-03         0.00000E+00
    0.83881E-03         0.15313E-03         0.00000E+00
    0.79912E-03         0.14500E-03         0.00000E+00
    0.75893E-03         0.13688E-03         0.00000E+00
    0.71822E-03         0.12877E-03         0.00000E+00
    0.67701E-03         0.12066E-03         0.00000E+00
    0.63530E-03         0.11256E-03         0.00000E+00
    0.59309E-03         0.10447E-03         0.00000E+00
    0.55038E-03         0.96384E-04         0.00000E+00
    0.50717E-03         0.88306E-04         0.00000E+00
    0.46347E-03         0.80236E-04         0.00000E+00
    0.41929E-03         0.72173E-04         0.00000E+00
    0.37461E-03         0.64119E-04         0.00000E+00
    0.32945E-03         0.56072E-04         0.00000E+00
    0.28381E-03         0.48035E-04         0.00000E+00
    0.23769E-03         0.40005E-04         0.00000E+00
    0.19110E-03         0.31985E-04         0.00000E+00
    0.14403E-03         0.23974E-04         0.00000E+00
    0.96487E-04         0.15973E-04         0.00000E+00
    0.48476E-04         0.79813E-05         0.00000E+00
    0.00000E+00         0.00000E+00         0.00000E+00
    0.17981E-02         0.29692E-03         0.00000E+00
    0.17756E-02         0.29090E-03         0.00000E+00
    0.17525E-02         0.28488E-03         0.00000E+00
    0.17289E-02         0.27887E-03         0.00000E+00
    0.17047E-02         0.27286E-03         0.00000E+00
    0.16798E-02         0.26686E-03         0.00000E+00
    0.16544E-02         0.26086E-03         0.00000E+00
    0.16284E-02         0.25486E-03         0.00000E+00
    0.16019E-02         0.24886E-03         0.00000E+00
    0.15747E-02         0.24287E-03         0.00000E+00
    0.15470E-02         0.23689E-03         0.00000E+00
    0.15188E-02         0.23091E-03         0.00000E+00
    0.14899E-02         0.22493E-03         0.00000E+00
    0.14605E-02         0.21895E-03         0.00000E+00
    0.14305E-02         0.21298E-03         0.00000E+00
    0.14000E-02         0.20701E-03         0.00000E+00
    0.13689E-02         0.20104E-03         0.00000E+00
    0.13373E-02         0.19508E-03         0.00000E+00
    0.13051E-02         0.18912E-03         0.00000E+00
    0.12723E-02         0.18316E-03         0.00000E+00
    0.12390E-02         0.17721E-03         0.00000E+00
    0.12052E-02         0.17126E-03         0.00000E+00
    0.11708E-02         0.16531E-03         0.00000E+00
    0.11359E-02         0.15936E-03         0.00000E+00
    0.11005E-02         0.15342E-03         0.00000E+00
    0.10645E-02         0.14748E-03         0.00000E+00
    0.10280E-02         0.14155E-03         0.00000E+00
    0.99099E-03         0.13561E-03         0.00000E+00
    0.95344E-03         0.12968E-03         0.00000E+00
    0.91536E-03         0.12375E-03         0.00000E+00
    0.87677E-03         0.11783E-03         0.00000E+00
    0.83766E-03         0.11190E-03         0.00000E+00
    0.79803E-03         0.10598E-03         0.00000E+00
    0.75790E-03         0.10007E-03         0.00000E+00
    0.71725E-03         0.94151E-04         0.00000E+00
    0.67610E-03         0.88240E-04         0.00000E+00
    0.63445E-03         0.82332E-04         0.00000E+00
    0.59230E-03         0.76427E-04         0.00000E+00
    0.54965E-03         0.70525E-04         0.00000E+00
    0.50650E-03         0.64627E-04         0.00000E+00
    0.46286E-03         0.58731E-04         0.00000E+00
    0.41874E-03         0.52840E-04         0.00000E+00
    0.37412E-03         0.46952E-04         0.00000E+00
    0.32902E-03         0.41068E-04         0.00000E+00
    0.28344E-03         0.35188E-04         0.00000E+00
    0.23738E-03         0.29312E-04         0.00000E+00
    0.19085E-03         0.23440E-04         0.00000E+00
    0.14384E-03         0.17573E-04         0.00000E+00
    0.96361E-04         0.11710E-04         0.00000E+00
    0.48413E-04         0.58525E-05         0.00000E+00
    0.00000E+00         0.00000E+00         0.00000E+00
    0.17962E-02         0.18630E-03         0.00000E+00
    0.17738E-02         0.18255E-03         0.00000E+00
    0.17508E-02         0.17881E-03         0.00000E+00
    0.17272E-02         0.17508E-03         0.00000E+00
    0.17031E-02         0.17134E-03         0.00000E+00
    0.16783E-02         0.16761E-03         0.00000E+00
    0.16530E-02         0.16388E-03         0.00000E+00
    0.16270E-02         0.16015E-03         0.00000E+00
    0.16005E-02         0.15642E-03         0.00000E+00
    0.15734E-02         0.15269E-03         0.00000E+00
    0.15458E-02         0.14897E-03         0.00000E+00
    0.15176E-02         0.14525E-03         0.00000E+00
    0.14888E-02         0.14153E-03         0.00000E+00
    0.14594E-02         0.13780E-03         0.00000E+00
    0.14295E-02         0.13409E-03         0.00000E+00
    0.13990E-02         0.13037E-03         0.00000E+00
    0.13680E-02         0.12665E-03         0.00000E+00
    0.13364E-02         0.12293E-03         0.00000E+00
    0.13042E-02         0.11921E-03         0.00000E+00
    0.12715E-02         0.11549E-03         0.00000E+00
    0.12383E-02         0.11178E-03         0.00000E+00
    0.12045E-02         0.10806E-03         0.00000E+00
    0.11701E-02         0.10434E-03         0.00000E+00
    0.11353E-02         0.10063E-03         0.00000E+00
    0.10999E-02         0.96908E-04         0.00000E+00
    0.10639E-02         0.93190E-04         0.00000E+00
    0.10275E-02         0.89472E-04         0.00000E+00
    0.99045E-03         0.85753E-04         0.00000E+00
    0.95293E-03         0.82033E-04         0.00000E+00
    0.91488E-03         0.78313E-04         0.00000E+00
    0.87632E-03         0.74592E-04         0.00000E+00
    0.83723E-03         0.70870E-04         0.00000E+00
    0.79764E-03         0.67148E-04         0.00000E+00
    0.75753E-03         0.63424E-04         0.00000E+00
    0.71691E-03         0.59700E-04         0.00000E+00
    0.67578E-03         0.55975E-04         0.00000E+00
    0.63415E-03         0.52249E-04         0.00000E+00
    0.59202E-03         0.48522E-04         0.00000E+00
    0.54939E-03         0.44794E-04         0.00000E+00
    0.50627E-03         0.41065E-04         0.00000E+00
    0.46265E-03         0.37335E-04         0.00000E+00
    0.41855E-03         0.33604E-04         0.00000E+00
    0.37396E-03         0.29873E-04         0.00000E+00
    0.32888E-03         0.26141E-04         0.00000E+00
    0.28332E-03         0.22408E-04         0.00000E+00
    0.23728E-03         0.18674E-04         0.00000E+00
    0.19076E-03         0.14940E-04         0.00000E+00
    0.14378E-03         0.11205E-04         0.00000E+00
    0.96318E-04         0.74704E-05         0.00000E+00
    0.48392E-04         0.37353E-05         0.00000E+00
    0.00000E+00         0.00000E+00         0.00000E+00
    0.17961E-02         0.75940E-04         0.00000E+00
    0.17738E-02         0.74473E-04         0.00000E+00
    0.17508E-02         0.73006E-04         0.00000E+00
    0.17273E-02         0.71540E-04         0.00000E+00
    0.17031E-02         0.70075E-04         0.00000E+00
    0.16784E-02         0.68610E-04         0.00000E+00
    0.16531E-02         0.67145E-04         0.00000E+00
    0.16272E-02         0.65680E-04         0.00000E+00
    0.16007E-02         0.64215E-04         0.00000E+00
    0.15737E-02         0.62749E-04         0.00000E+00
    0.15460E-02         0.61283E-04         0.00000E+00
    0.15178E-02         0.59815E-04         0.00000E+00
    0.14890E-02         0.58347E-04         0.00000E+00
    0.14597E-02         0.56877E-04         0.00000E+00
    0.14298E-02         0.55405E-04         0.00000E+00
    0.13993E-02         0.53932E-04         0.00000E+00
    0.13683E-02         0.52457E-04         0.00000E+00
    0.13367E-02         0.50979E-04         0.00000E+00
    0.13046E-02         0.49500E-04         0.00000E+00
    0.12719E-02         0.48018E-04         0.00000E+00
    0.12386E-02         0.46533E-04         0.00000E+00
    0.12048E-02         0.45045E-04         0.00000E+00
    0.11705E-02         0.43554E-04         0.00000E+00
    0.11356E-02         0.42059E-04         0.00000E+00
    0.11002E-02         0.40562E-04         0.00000E+00
    0.10643E-02         0.39060E-04         0.00000E+00
    0.10278E-02         0.37555E-04         0.00000E+00
    0.99082E-03         0.36046E-04         0.00000E+00
    0.95329E-03         0.34533E-04         0.00000E+00
    0.91523E-03         0.33016E-04         0.00000E+00
    0.87666E-03         0.31494E-04         0.00000E+00
    0.83757E-03         0.29968E-04         0.00000E+00
    0.79796E-03         0.28437E-04         0.00000E+00
    0.75784E-03         0.26902E-04         0.00000E+00
    0.71720E-03         0.25362E-04         0.00000E+00
    0.67607E-03         0.23816E-04         0.00000E+00
    0.63442E-03         0.22266E-04         0.00000E+00
    0.59228E-03         0.20711E-04         0.00000E+00
    0.54963E-03         0.19150E-04         0.00000E+00
    0.50649E-03         0.17584E-04         0.00000E+00
    0.46286E-03         0.16013E-04         0.00000E+00
    0.41873E-03         0.14437E-04         0.00000E+00
    0.37412E-03         0.12855E-04         0.00000E+00
    0.32902E-03         0.11267E-04         0.00000E+00
    0.28344E-03         0.96741E-05         0.00000E+00
    0.23739E-03         0.80756E-05         0.00000E+00
    0.19085E-03         0.64715E-05         0.00000E+00
    0.14384E-03         0.48619E-05         0.00000E+00
    0.96361E-04         0.32468E-05         0.00000E+00
    0.48413E-04         0.16261E-05         0.00000E+00
    0.00000E+00         0.00000E+00         0.00000E+00
    0.17979E-02        -0.34296E-04         0.00000E+00
    0.17755E-02        -0.33490E-04         0.00000E+00
    0.17526E-02        -0.32685E-04         0.00000E+00
    0.17290E-02        -0.31880E-04         0.00000E+00
    0.17049E-02        -0.31077E-04         0.00000E+00
    0.16802E-02        -0.30275E-04         0.00000E+00
    0.16549E-02        -0.29475E-04         0.00000E+00
    0.16290E-02        -0.28677E-04         0.00000E+00
    0.16025E-02        -0.27881E-04         0.00000E+00
    0.15754E-02        -0.27088E-04         0.00000E+00
    0.15478E-02        -0.26298E-04         0.00000E+00
    0.15195E-02        -0.25511E-04         0.00000E+00
    0.14908E-02        -0.24728E-04         0.00000E+00
    0.14614E-02        -0.23948E-04         0.00000E+00
    0.14315E-02        -0.23172E-04         0.00000E+00
    0.14010E-02        -0.22401E-04         0.00000E+00
    0.13699E-02        -0.21635E-04         0.00000E+00
    0.13383E-02        -0.20873E-04         0.00000E+00
    0.13061E-02        -0.20116E-04         0.00000E+00
    0.12734E-02        -0.19365E-04         0.00000E+00
    0.12402E-02        -0.18620E-04         0.00000E+00
    0.12063E-02        -0.17880E-04         0.00000E+00
    0.11720E-02        -0.17147E-04         0.00000E+00
    0.11371E-02        -0.16420E-04         0.00000E+00
    0.11016E-02        -0.15700E-04         0.00000E+00
    0.10657E-02        -0.14986E-04         0.00000E+00
    0.10291E-02        -0.14280E-04         0.00000E+00
    0.99210E-03        -0.13582E-04         0.00000E+00
    0.95453E-03        -0.12890E-04         0.00000E+00
    0.91643E-03        -0.12207E-04         0.00000E+00
    0.87781E-03        -0.11532E-04         0.00000E+00
    0.83867E-03        -0.10865E-04         0.00000E+00
    0.79901E-03        -0.10207E-04         0.00000E+00
    0.75884E-03        -0.95571E-05         0.00000E+00
    0.71816E-03        -0.89162E-05         0.00000E+00
    0.67697E-03        -0.82844E-05         0.00000E+00
    0.63527E-03        -0.76619E-05         0.00000E+00
    0.59307E-03        -0.70487E-05         0.00000E+00
    0.55037E-03        -0.64452E-05         0.00000E+00
    0.50718E-03        -0.58513E-05         0.00000E+00
    0.46348E-03        -0.52674E-05         0.00000E+00
    0.41930E-03        -0.46935E-05         0.00000E+00
    0.37463E-03        -0.41298E-05         0.00000E+00
    0.32947E-03        -0.35763E-05         0.00000E+00
    0.28383E-03        -0.30333E-05         0.00000E+00
    0.23771E-03        -0.25009E-05         0.00000E+00
    0.19111E-03        -0.19790E-05         0.00000E+00
    0.14404E-03        -0.14679E-05         0.00000E+00
    0.96492E-04        -0.96769E-06         0.00000E+00
    0.48479E-04        -0.47835E-06         0.00000E+00
    0.00000E+00         0.00000E+00         0.00000E+00
    0.18014E-02        -0.14456E-03         0.00000E+00
    0.17791E-02        -0.14148E-03         0.00000E+00
    0.17561E-02        -0.13840E-03         0.00000E+00
    0.17325E-02        -0.13533E-03         0.00000E+00
    0.17084E-02        -0.13225E-03         0.00000E+00
    0.16836E-02        -0.12918E-03         0.00000E+00
    0.16583E-02        -0.12611E-03         0.00000E+00
    0.16323E-02        -0.12305E-03         0.00000E+00
    0.16058E-02        -0.11999E-03         0.00000E+00
    0.15787E-02        -0.11694E-03         0.00000E+00
    0.15510E-02        -0.11389E-03         0.00000E+00
    0.15228E-02        -0.11085E-03         0.00000E+00
    0.14939E-02        -0.10781E-03         0.00000E+00
    0.14645E-02        -0.10478E-03         0.00000E+00
    0.14345E-02        -0.10176E-03         0.00000E+00
    0.14040E-02        -0.98741E-04         0.00000E+00
    0.13729E-02        -0.95731E-04         0.00000E+00
    0.13412E-02        -0.92729E-04         0.00000E+00
    0.13090E-02        -0.89735E-04         0.00000E+00
    0.12762E-02        -0.86749E-04         0.00000E+00
    0.12429E-02        -0.83772E-04         0.00000E+00
    0.12090E-02        -0.80804E-04         0.00000E+00
    0.11746E-02        -0.77846E-04         0.00000E+00
    0.11396E-02        -0.74896E-04         0.00000E+00
    0.11041E-02        -0.71957E-04         0.00000E+00
    0.10680E-02        -0.69029E-04         0.00000E+00
    0.10314E-02        -0.66111E-04         0.00000E+00
    0.99432E-03        -0.63203E-04         0.00000E+00
    0.95667E-03        -0.60308E-04         0.00000E+00
    0.91849E-03        -0.57423E-04         0.00000E+00
    0.87979E-03        -0.54551E-04         0.00000E+00
    0.84056E-03        -0.51690E-04         0.00000E+00
    0.80082E-03        -0.48842E-04         0.00000E+00
    0.76056E-03        -0.46007E-04         0.00000E+00
    0.71979E-03        -0.43185E-04         0.00000E+00
    0.67851E-03        -0.40376E-04         0.00000E+00
    0.63672E-03        -0.37581E-04         0.00000E+00
    0.59442E-03        -0.34799E-04         0.00000E+00
    0.55163E-03        -0.32032E-04         0.00000E+00
    0.50833E-03        -0.29278E-04         0.00000E+00
    0.46454E-03        -0.26540E-04         0.00000E+00
    0.42026E-03        -0.23816E-04         0.00000E+00
    0.37548E-03        -0.21107E-04         0.00000E+00
    0.33022E-03        -0.18413E-04         0.00000E+00
    0.28448E-03        -0.15735E-04         0.00000E+00
    0.23825E-03        -0.13072E-04         0.00000E+00
    0.19155E-03        -0.10425E-04         0.00000E+00
    0.14437E-03        -0.77942E-05         0.00000E+00
    0.96713E-04        -0.51797E-05         0.00000E+00
    0.48590E-04        -0.25815E-05         0.00000E+00
    0.00000E+00         0.00000E+00         0.00000E+00
    0.18069E-02        -0.25501E-03         0.00000E+00
    0.17845E-02        -0.24965E-03         0.00000E+00
    0.17614E-02        -0.24429E-03         0.00000E+00
    0.17378E-02        -0.23894E-03         0.00000E+00
    0.17136E-02        -0.23359E-03         0.00000E+00
    0.16888E-02        -0.22825E-03         0.00000E+00
    0.16634E-02        -0.22291E-03         0.00000E+00
    0.16374E-02        -0.21758E-03         0.00000E+00
    0.16108E-02        -0.21225E-03         0.00000E+00
    0.15836E-02        -0.20693E-03         0.00000E+00
    0.15558E-02        -0.20162E-03         0.00000E+00
    0.15275E-02        -0.19632E-03         0.00000E+00
    0.14986E-02        -0.19103E-03         0.00000E+00
    0.14691E-02        -0.18574E-03         0.00000E+00
    0.14390E-02        -0.18046E-03         0.00000E+00
    0.14084E-02        -0.17520E-03         0.00000E+00
    0.13772E-02        -0.16994E-03         0.00000E+00
    0.13454E-02        -0.16469E-03         0.00000E+00
    0.13131E-02        -0.15946E-03         0.00000E+00
    0.12802E-02        -0.15423E-03         0.00000E+00
    0.12468E-02        -0.14902E-03         0.00000E+00
    0.12128E-02        -0.14382E-03         0.00000E+00
    0.11783E-02        -0.13863E-03         0.00000E+00
    0.11432E-02        -0.13345E-03         0.00000E+00
    0.11076E-02        -0.12829E-03         0.00000E+00
    0.10714E-02        -0.12315E-03         0.00000E+00
    0.10347E-02        -0.11801E-03         0.00000E+00
    0.99749E-03        -0.11289E-03         0.00000E+00
    0.95972E-03        -0.10779E-03         0.00000E+00
    0.92142E-03        -0.10270E-03         0.00000E+00
    0.88260E-03        -0.97625E-04         0.00000E+00
    0.84325E-03        -0.92568E-04         0.00000E+00
    0.80338E-03        -0.87527E-04         0.00000E+00
    0.76300E-03        -0.82503E-04         0.00000E+00
    0.72210E-03        -0.77497E-04         0.00000E+00
    0.68068E-03        -0.72507E-04         0.00000E+00
    0.63876E-03        -0.67536E-04         0.00000E+00
    0.59633E-03        -0.62583E-04         0.00000E+00
    0.55340E-03        -0.57648E-04         0.00000E+00
    0.50997E-03        -0.52733E-04         0.00000E+00
    0.46604E-03        -0.47836E-04         0.00000E+00
    0.42161E-03        -0.42959E-04         0.00000E+00
    0.37669E-03        -0.38102E-04         0.00000E+00
    0.33129E-03        -0.33266E-04         0.00000E+00
    0.28539E-03        -0.28449E-04         0.00000E+00
    0.23902E-03        -0.23654E-04         0.00000E+00
    0.19216E-03        -0.18880E-04         0.00000E+00
    0.14483E-03        -0.14127E-04         0.00000E+00
    0.97024E-04        -0.93959E-05         0.00000E+00
    0.48746E-04        -0.46868E-05         0.00000E+00
    0.00000E+00         0.00000E+00         0.00000E+00
    0.18142E-02        -0.36578E-03         0.00000E+00
    0.17917E-02        -0.35814E-03         0.00000E+00
    0.17686E-02        -0.35049E-03         0.00000E+00
    0.17449E-02        -0.34286E-03         0.00000E+00
    0.17206E-02        -0.33523E-03         0.00000E+00
    0.16957E-02        -0.32760E-03         0.00000E+00
    0.16701E-02        -0.31999E-03         0.00000E+00
    0.16440E-02        -0.31238E-03         0.00000E+00
    0.16173E-02        -0.30478E-03         0.00000E+00
    0.15901E-02        -0.29719E-03         0.00000E+00
    0.15622E-02        -0.28961E-03         0.00000E+00
    0.15337E-02        -0.28204E-03         0.00000E+00
    0.15047E-02        -0.27448E-03         0.00000E+00
    0.14751E-02        -0.26693E-03         0.00000E+00
    0.14449E-02        -0.25940E-03         0.00000E+00
    0.14142E-02        -0.25187E-03         0.00000E+00
    0.13829E-02        -0.24436E-03         0.00000E+00
    0.13510E-02        -0.23686E-03         0.00000E+00
    0.13185E-02        -0.22938E-03         0.00000E+00
    0.12855E-02        -0.22191E-03         0.00000E+00
    0.12519E-02        -0.21445E-03         0.00000E+00
    0.12178E-02        -0.20701E-03         0.00000E+00
    0.11832E-02        -0.19959E-03         0.00000E+00
    0.11479E-02        -0.19218E-03         0.00000E+00
    0.11122E-02        -0.18479E-03         0.00000E+00
    0.10759E-02        -0.17741E-03         0.00000E+00
    0.10390E-02        -0.17006E-03         0.00000E+00
    0.10016E-02        -0.16272E-03         0.00000E+00
    0.96370E-03        -0.15540E-03         0.00000E+00
    0.92524E-03        -0.14810E-03         0.00000E+00
    0.88626E-03        -0.14082E-03         0.00000E+00
    0.84675E-03        -0.13356E-03         0.00000E+00
    0.80672E-03        -0.12632E-03         0.00000E+00
    0.76617E-03        -0.11910E-03         0.00000E+00
    0.72510E-03        -0.11190E-03         0.00000E+00
    0.68351E-03        -0.10473E-03         0.00000E+00
    0.64142E-03        -0.97572E-04         0.00000E+00
    0.59881E-03        -0.90442E-04         0.00000E+00
    0.55570E-03        -0.83334E-04         0.00000E+00
    0.51209E-03        -0.76250E-04         0.00000E+00
    0.46797E-03        -0.69190E-04         0.00000E+00
    0.42336E-03        -0.62154E-04         0.00000E+00
    0.37826E-03        -0.55143E-04         0.00000E+00
    0.33267E-03        -0.48158E-04         0.00000E+00
    0.28658E-03        -0.41198E-04         0.00000E+00
    0.24001E-03        -0.34264E-04         0.00000E+00
    0.19296E-03        -0.27357E-04         0.00000E+00
    0.14543E-03        -0.20476E-04         0.00000E+00
    0.97428E-04        -0.13623E-04         0.00000E+00
    0.48949E-04        -0.67975E-05         0.00000E+00
    0.00000E+00         0.00000E+00         0.00000E+00
    0.18234E-02        -0.47704E-03         0.00000E+00
    0.18008E-02        -0.46709E-03         0.00000E+00
    0.17776E-02        -0.45715E-03         0.00000E+00
    0.17537E-02        -0.44722E-03         0.00000E+00
    0.17293E-02        -0.43730E-03         0.00000E+00
    0.17043E-02        -0.42739E-03         0.00000E+00
    0.16786E-02        -0.41748E-03         0.00000E+00
    0.16524E-02        -0.40759E-03         0.00000E+00
    0.16256E-02        -0.39771E-03         0.00000E+00
    0.15981E-02        -0.38784E-03         0.00000E+00
    0.15701E-02        -0.37798E-03         0.00000E+00
    0.15415E-02        -0.36813E-03         0.00000E+00
    0.15124E-02        -0.35829E-03         0.00000E+00
    0.14826E-02        -0.34847E-03         0.00000E+00
    0.14523E-02        -0.33867E-03         0.00000E+00
    0.14214E-02        -0.32888E-03         0.00000E+00
    0.13899E-02        -0.31910E-03         0.00000E+00
    0.13578E-02        -0.30934E-03         0.00000E+00
    0.13252E-02        -0.29960E-03         0.00000E+00
    0.12921E-02        -0.28987E-03         0.00000E+00
    0.12583E-02        -0.28016E-03         0.00000E+00
    0.12240E-02        -0.27048E-03         0.00000E+00
    0.11892E-02        -0.26081E-03         0.00000E+00
    0.11538E-02        -0.25115E-03         0.00000E+00
    0.11178E-02        -0.24152E-03         0.00000E+00
    0.10813E-02        -0.23191E-03         0.00000E+00
    0.10443E-02        -0.22233E-03         0.00000E+00
    0.10067E-02        -0.21276E-03         0.00000E+00
    0.96861E-03        -0.20322E-03         0.00000E+00
    0.92996E-03        -0.19369E-03         0.00000E+00
    0.89078E-03        -0.18420E-03         0.00000E+00
    0.85107E-03        -0.17472E-03         0.00000E+00
    0.81083E-03        -0.16527E-03         0.00000E+00
    0.77007E-03        -0.15585E-03         0.00000E+00
    0.72879E-03        -0.14645E-03         0.00000E+00
    0.68700E-03        -0.13708E-03         0.00000E+00
    0.64469E-03        -0.12774E-03         0.00000E+00
    0.60186E-03        -0.11842E-03         0.00000E+00
    0.55853E-03        -0.10913E-03         0.00000E+00
    0.51470E-03        -0.99866E-04         0.00000E+00
    0.47036E-03        -0.90633E-04         0.00000E+00
    0.42552E-03        -0.81429E-04         0.00000E+00
    0.38019E-03        -0.72255E-04         0.00000E+00
    0.33436E-03        -0.63112E-04         0.00000E+00
    0.28804E-03        -0.53999E-04         0.00000E+00
    0.24124E-03        -0.44918E-04         0.00000E+00
    0.19395E-03        -0.35869E-04         0.00000E+00
    0.14617E-03        -0.26852E-04         0.00000E+00
    0.97924E-04        -0.17868E-04         0.00000E+00
    0.49198E-04        -0.89170E-05         0.00000E+00
    0.00000E+00         0.00000E+00         0.00000E+00
    0.18345E-02        -0.58892E-03         0.00000E+00
    0.18118E-02        -0.57667E-03         0.00000E+00
    0.17884E-02        -0.56442E-03         0.00000E+00
    0.17644E-02        -0.55218E-03         0.00000E+00
    0.17398E-02        -0.53996E-03         0.00000E+00
    0.17146E-02        -0.52774E-03         0.00000E+00
    0.16888E-02        -0.51553E-03         0.00000E+00
    0.16624E-02        -0.50334E-03         0.00000E+00
    0.16354E-02        -0.49116E-03         0.00000E+00
    0.16078E-02        -0.47899E-03         0.00000E+00
    0.15797E-02        -0.46684E-03         0.00000E+00
    0.15509E-02        -0.45470E-03         0.00000E+00
    0.15215E-02        -0.44258E-03         0.00000E+00
    0.14916E-02        -0.43048E-03         0.00000E+00
    0.14611E-02        -0.41839E-03         0.00000E+00
    0.14300E-02        -0.40632E-03         0.00000E+00
    0.13983E-02        -0.39426E-03         0.00000E+00
    0.13661E-02        -0.38223E-03         0.00000E+00
    0.13333E-02        -0.37022E-03         0.00000E+00
    0.12999E-02        -0.35822E-03         0.00000E+00
    0.12659E-02        -0.34625E-03         0.00000E+00
    0.12314E-02        -0.33430E-03         0.00000E+00
    0.11964E-02        -0.32237E-03         0.00000E+00
    0.11608E-02        -0.31046E-03         0.00000E+00
    0.11246E-02        -0.29858E-03         0.00000E+00
    0.10879E-02        -0.28672E-03         0.00000E+00
    0.10506E-02        -0.27489E-03         0.00000E+00
    0.10128E-02        -0.26308E-03         0.00000E+00
    0.97446E-03        -0.25130E-03         0.00000E+00
    0.93557E-03        -0.23955E-03         0.00000E+00
    0.89615E-03        -0.22782E-03         0.00000E+00
    0.85620E-03        -0.21612E-03         0.00000E+00
    0.81572E-03        -0.20445E-03         0.00000E+00
    0.77472E-03        -0.19281E-03         0.00000E+00
    0.73319E-03        -0.18120E-03         0.00000E+00
    0.69114E-03        -0.16962E-03         0.00000E+00
    0.64857E-03        -0.15807E-03         0.00000E+00
    0.60549E-03        -0.14655E-03         0.00000E+00
    0.56190E-03        -0.13507E-03         0.00000E+00
    0.51780E-03        -0.12362E-03         0.00000E+00
    0.47320E-03        -0.11220E-03         0.00000E+00
    0.42809E-03        -0.10081E-03         0.00000E+00
    0.38248E-03        -0.89465E-04         0.00000E+00
    0.33638E-03        -0.78152E-04         0.00000E+00
    0.28978E-03        -0.66874E-04         0.00000E+00
    0.24269E-03        -0.55633E-04         0.00000E+00
    0.19512E-03        -0.44430E-04         0.00000E+00
    0.14706E-03        -0.33264E-04         0.00000E+00
    0.98515E-04        -0.22137E-04         0.00000E+00
    0.49495E-04        -0.11049E-04         0.00000E+00
    0.00000E+00         0.00000E+00         0.00000E+00
    0.18475E-02        -0.70159E-03         0.00000E+00
    0.18246E-02        -0.68701E-03         0.00000E+00
    0.18011E-02        -0.67244E-03         0.00000E+00
    0.17769E-02        -0.65788E-03         0.00000E+00
    0.17521E-02        -0.64333E-03         0.00000E+00
    0.17267E-02        -0.62879E-03         0.00000E+00
    0.17008E-02        -0.61427E-03         0.00000E+00
    0.16742E-02        -0.59976E-03         0.00000E+00
    0.16470E-02        -0.58527E-03         0.00000E+00
    0.16192E-02        -0.57079E-03         0.00000E+00
    0.15908E-02        -0.55633E-03         0.00000E+00
    0.15618E-02        -0.54189E-03         0.00000E+00
    0.15322E-02        -0.52746E-03         0.00000E+00
    0.15021E-02        -0.51306E-03         0.00000E+00
    0.14713E-02        -0.49867E-03         0.00000E+00
    0.14400E-02        -0.48430E-03         0.00000E+00
    0.14081E-02        -0.46996E-03         0.00000E+00
    0.13756E-02        -0.45564E-03         0.00000E+00
    0.13426E-02        -0.44133E-03         0.00000E+00
    0.13090E-02        -0.42706E-03         0.00000E+00
    0.12748E-02        -0.41280E-03         0.00000E+00
    0.12400E-02        -0.39857E-03         0.00000E+00
    0.12047E-02        -0.38437E-03         0.00000E+00
    0.11689E-02        -0.37019E-03         0.00000E+00
    0.11324E-02        -0.35605E-03         0.00000E+00
    0.10955E-02        -0.34192E-03         0.00000E+00
    0.10579E-02        -0.32783E-03         0.00000E+00
    0.10199E-02        -0.31377E-03         0.00000E+00
    0.98124E-03        -0.29973E-03         0.00000E+00
    0.94209E-03        -0.28573E-03         0.00000E+00
    0.90239E-03        -0.27176E-03         0.00000E+00
    0.86216E-03        -0.25782E-03         0.00000E+00
    0.82140E-03        -0.24391E-03         0.00000E+00
    0.78011E-03        -0.23004E-03         0.00000E+00
    0.73829E-03        -0.21620E-03         0.00000E+00
    0.69595E-03        -0.20239E-03         0.00000E+00
    0.65308E-03        -0.18862E-03         0.00000E+00
    0.60970E-03        -0.17489E-03         0.00000E+00
    0.56581E-03        -0.16120E-03         0.00000E+00
    0.52140E-03        -0.14754E-03         0.00000E+00
    0.47648E-03        -0.13392E-03         0.00000E+00
    0.43106E-03        -0.12034E-03         0.00000E+00
    0.38514E-03        -0.10680E-03         0.00000E+00
    0.33871E-03        -0.93300E-04         0.00000E+00
    0.29179E-03        -0.79842E-04         0.00000E+00
    0.24438E-03        -0.66426E-04         0.00000E+00
    0.19647E-03        -0.53052E-04         0.00000E+00
    0.14808E-03        -0.39723E-04         0.00000E+00
    0.99199E-04        -0.26437E-04         0.00000E+00
    0.49839E-04        -0.13196E-04         0.00000E+00
    0.00000E+00         0.00000E+00         0.00000E+00
    0.18625E-02        -0.81519E-03         0.00000E+00
    0.18393E-02        -0.79826E-03         0.00000E+00
    0.18156E-02        -0.78135E-03         0.00000E+00
    0.17912E-02        -0.76445E-03         0.00000E+00
    0.17662E-02        -0.74756E-03         0.00000E+00
    0.17406E-02        -0.73069E-03         0.00000E+00
    0.17144E-02        -0.71383E-03         0.00000E+00
    0.16876E-02        -0.69699E-03         0.00000E+00
    0.16601E-02        -0.68017E-03         0.00000E+00
    0.16321E-02        -0.66336E-03         0.00000E+00
    0.16035E-02        -0.64657E-03         0.00000E+00
    0.15743E-02        -0.62980E-03         0.00000E+00
    0.15444E-02        -0.61306E-03         0.00000E+00
    0.15140E-02        -0.59633E-03         0.00000E+00
    0.14830E-02        -0.57963E-03         0.00000E+00
    0.14515E-02        -0.56295E-03         0.00000E+00
    0.14193E-02        -0.54629E-03         0.00000E+00
    0.13866E-02        -0.52966E-03         0.00000E+00
    0.13532E-02        -0.51305E-03         0.00000E+00
    0.13193E-02        -0.49647E-03         0.00000E+00
    0.12849E-02        -0.47992E-03         0.00000E+00
    0.12498E-02        -0.46339E-03         0.00000E+00
    0.12143E-02        -0.44690E-03         0.00000E+00
    0.11781E-02        -0.43043E-03         0.00000E+00
    0.11414E-02        -0.41400E-03         0.00000E+00
    0.11041E-02        -0.39759E-03         0.00000E+00
    0.10663E-02        -0.38122E-03         0.00000E+00
    0.10279E-02        -0.36488E-03         0.00000E+00
    0.98898E-03        -0.34857E-03         0.00000E+00
    0.94951E-03        -0.33230E-03         0.00000E+00
    0.90950E-03        -0.31607E-03         0.00000E+00
    0.86894E-03        -0.29987E-03         0.00000E+00
    0.82786E-03        -0.28370E-03         0.00000E+00
    0.78624E-03        -0.26758E-03         0.00000E+00
    0.74409E-03        -0.25149E-03         0.00000E+00
    0.70141E-03        -0.23545E-03         0.00000E+00
    0.65821E-03        -0.21944E-03         0.00000E+00
    0.61449E-03        -0.20347E-03         0.00000E+00
    0.57025E-03        -0.18755E-03         0.00000E+00
    0.52549E-03        -0.17167E-03         0.00000E+00
    0.48022E-03        -0.15583E-03         0.00000E+00
    0.43444E-03        -0.14003E-03         0.00000E+00
    0.38816E-03        -0.12428E-03         0.00000E+00
    0.34137E-03        -0.10858E-03         0.00000E+00
    0.29408E-03        -0.92923E-04         0.00000E+00
    0.24629E-03        -0.77313E-04         0.00000E+00
    0.19801E-03        -0.61751E-04         0.00000E+00
    0.14924E-03        -0.46238E-04         0.00000E+00
    0.99977E-04        -0.30774E-04         0.00000E+00
    0.50230E-04        -0.15362E-04         0.00000E+00
    0.00000E+00         0.00000E+00         0.00000E+00
    0.18793E-02        -0.92988E-03         0.00000E+00
    0.18560E-02        -0.91058E-03         0.00000E+00
    0.18320E-02        -0.89131E-03         0.00000E+00
    0.18073E-02        -0.87204E-03         0.00000E+00
    0.17821E-02        -0.85279E-03         0.00000E+00
    0.17562E-02        -0.83356E-03         0.00000E+00
    0.17298E-02        -0.81435E-03         0.00000E+00
    0.17027E-02        -0.79515E-03         0.00000E+00
    0.16750E-02        -0.77598E-03         0.00000E+00
    0.16467E-02        -0.75682E-03         0.00000E+00
    0.16178E-02        -0.73768E-03         0.00000E+00
    0.15883E-02        -0.71857E-03         0.00000E+00
    0.15582E-02        -0.69948E-03         0.00000E+00
    0.15275E-02        -0.68041E-03         0.00000E+00
    0.14962E-02        -0.66137E-03         0.00000E+00
    0.14643E-02        -0.64235E-03         0.00000E+00
    0.14319E-02        -0.62336E-03         0.00000E+00
    0.13988E-02        -0.60440E-03         0.00000E+00
    0.13652E-02        -0.58547E-03         0.00000E+00
    0.13310E-02        -0.56656E-03         0.00000E+00
    0.12962E-02        -0.54769E-03         0.00000E+00
    0.12609E-02        -0.52885E-03         0.00000E+00
    0.12249E-02        -0.51004E-03         0.00000E+00
    0.11885E-02        -0.49126E-03         0.00000E+00
    0.11514E-02        -0.47252E-03         0.00000E+00
    0.11138E-02        -0.45381E-03         0.00000E+00
    0.10756E-02        -0.43514E-03         0.00000E+00
    0.10369E-02        -0.41650E-03         0.00000E+00
    0.99765E-03        -0.39790E-03         0.00000E+00
    0.95783E-03        -0.37934E-03         0.00000E+00
    0.91746E-03        -0.36082E-03         0.00000E+00
    0.87655E-03        -0.34234E-03         0.00000E+00
    0.83510E-03        -0.32390E-03         0.00000E+00
    0.79311E-03        -0.30550E-03         0.00000E+00
    0.75059E-03        -0.28714E-03         0.00000E+00
    0.70754E-03        -0.26883E-03         0.00000E+00
    0.66396E-03        -0.25056E-03         0.00000E+00
    0.61985E-03        -0.23234E-03         0.00000E+00
    0.57523E-03        -0.21417E-03         0.00000E+00
    0.53008E-03        -0.19604E-03         0.00000E+00
    0.48441E-03        -0.17796E-03         0.00000E+00
    0.43823E-03        -0.15993E-03         0.00000E+00
    0.39154E-03        -0.14195E-03         0.00000E+00
    0.34435E-03        -0.12402E-03         0.00000E+00
    0.29665E-03        -0.10614E-03         0.00000E+00
    0.24844E-03        -0.88311E-04         0.00000E+00
    0.19974E-03        -0.70538E-04         0.00000E+00
    0.15054E-03        -0.52820E-04         0.00000E+00
    0.10085E-03        -0.35157E-04         0.00000E+00
    0.50668E-04        -0.17550E-04         0.00000E+00
    0.00000E+00         0.00000E+00         0.00000E+00
    0.18981E-02        -0.10458E-02         0.00000E+00
    0.18744E-02        -0.10241E-02         0.00000E+00
    0.18502E-02        -0.10025E-02         0.00000E+00
    0.18253E-02        -0.98081E-03         0.00000E+00
    0.17998E-02        -0.95917E-03         0.00000E+00
    0.17736E-02        -0.93756E-03         0.00000E+00
    0.17469E-02        -0.91596E-03         0.00000E+00
    0.17195E-02        -0.89439E-03         0.00000E+00
    0.16915E-02        -0.87283E-03         0.00000E+00
    0.16629E-02        -0.85130E-03         0.00000E+00
    0.16337E-02        -0.82979E-03         0.00000E+00
    0.16039E-02        -0.80831E-03         0.00000E+00
    0.15734E-02        -0.78685E-03         0.00000E+00
    0.15424E-02        -0.76542E-03         0.00000E+00
    0.15108E-02        -0.74401E-03         0.00000E+00
    0.14786E-02        -0.72264E-03         0.00000E+00
    0.14458E-02        -0.70129E-03         0.00000E+00
    0.14124E-02        -0.67997E-03         0.00000E+00
    0.13785E-02        -0.65869E-03         0.00000E+00
    0.13439E-02        -0.63744E-03         0.00000E+00
    0.13088E-02        -0.61622E-03         0.00000E+00
    0.12731E-02        -0.59503E-03         0.00000E+00
    0.12368E-02        -0.57388E-03         0.00000E+00
    0.12000E-02        -0.55277E-03         0.00000E+00
    0.11625E-02        -0.53169E-03         0.00000E+00
    0.11246E-02        -0.51066E-03         0.00000E+00
    0.10860E-02        -0.48966E-03         0.00000E+00
    0.10469E-02        -0.46870E-03         0.00000E+00
    0.10073E-02        -0.44778E-03         0.00000E+00
    0.96704E-03        -0.42691E-03         0.00000E+00
    0.92628E-03        -0.40608E-03         0.00000E+00
    0.88497E-03        -0.38529E-03         0.00000E+00
    0.84312E-03        -0.36455E-03         0.00000E+00
    0.80073E-03        -0.34385E-03         0.00000E+00
    0.75779E-03        -0.32320E-03         0.00000E+00
    0.71432E-03        -0.30260E-03         0.00000E+00
    0.67032E-03        -0.28205E-03         0.00000E+00
    0.62579E-03        -0.26154E-03         0.00000E+00
    0.58073E-03        -0.24109E-03         0.00000E+00
    0.53515E-03        -0.22069E-03         0.00000E+00
    0.48905E-03        -0.20035E-03         0.00000E+00
    0.44243E-03        -0.18005E-03         0.00000E+00
    0.39529E-03        -0.15981E-03         0.00000E+00
    0.34764E-03        -0.13963E-03         0.00000E+00
    0.29948E-03        -0.11951E-03         0.00000E+00
    0.25082E-03        -0.99438E-04         0.00000E+00
    0.20165E-03        -0.79429E-04         0.00000E+00
    0.15198E-03        -0.59479E-04         0.00000E+00
    0.10181E-03        -0.39591E-04         0.00000E+00
    0.51153E-04        -0.19764E-04         0.00000E+00
    0.00000E+00         0.00000E+00         0.00000E+00
    0.19187E-02        -0.11631E-02         0.00000E+00
    0.18948E-02        -0.11390E-02         0.00000E+00
    0.18702E-02        -0.11150E-02         0.00000E+00
    0.18450E-02        -0.10909E-02         0.00000E+00
    0.18192E-02        -0.10668E-02         0.00000E+00
    0.17927E-02        -0.10428E-02         0.00000E+00
    0.17657E-02        -0.10188E-02         0.00000E+00
    0.17380E-02        -0.99483E-03         0.00000E+00
    0.17096E-02        -0.97087E-03         0.00000E+00
    0.16807E-02        -0.94694E-03         0.00000E+00
    0.16511E-02        -0.92303E-03         0.00000E+00
    0.16210E-02        -0.89915E-03         0.00000E+00
    0.15902E-02        -0.87529E-03         0.00000E+00
    0.15588E-02        -0.85147E-03         0.00000E+00
    0.15269E-02        -0.82768E-03         0.00000E+00
    0.14943E-02        -0.80391E-03         0.00000E+00
    0.14611E-02        -0.78018E-03         0.00000E+00
    0.14274E-02        -0.75648E-03         0.00000E+00
    0.13930E-02        -0.73282E-03         0.00000E+00
    0.13581E-02        -0.70919E-03         0.00000E+00
    0.13226E-02        -0.68560E-03         0.00000E+00
    0.12865E-02        -0.66204E-03         0.00000E+00
    0.12498E-02        -0.63853E-03         0.00000E+00
    0.12126E-02        -0.61505E-03         0.00000E+00
    0.11747E-02        -0.59161E-03         0.00000E+00
    0.11363E-02        -0.56822E-03         0.00000E+00
    0.10974E-02        -0.54487E-03         0.00000E+00
    0.10579E-02        -0.52156E-03         0.00000E+00
    0.10178E-02        -0.49830E-03         0.00000E+00
    0.97714E-03        -0.47508E-03         0.00000E+00
    0.93595E-03        -0.45191E-03         0.00000E+00
    0.89420E-03        -0.42879E-03         0.00000E+00
    0.85191E-03        -0.40572E-03         0.00000E+00
    0.80907E-03        -0.38269E-03         0.00000E+00
    0.76568E-03        -0.35972E-03         0.00000E+00
    0.72176E-03        -0.33680E-03         0.00000E+00
    0.67730E-03        -0.31394E-03         0.00000E+00
    0.63230E-03        -0.29112E-03         0.00000E+00
    0.58677E-03        -0.26837E-03         0.00000E+00
    0.54071E-03        -0.24567E-03         0.00000E+00
    0.49413E-03        -0.22302E-03         0.00000E+00
    0.44702E-03        -0.20044E-03         0.00000E+00
    0.39939E-03        -0.17792E-03         0.00000E+00
    0.35125E-03        -0.15545E-03         0.00000E+00
    0.30259E-03        -0.13305E-03         0.00000E+00
    0.25342E-03        -0.11071E-03         0.00000E+00
    0.20374E-03        -0.88437E-04         0.00000E+00
    0.15356E-03        -0.66227E-04         0.00000E+00
    0.10287E-03        -0.44084E-04         0.00000E+00
    0.51684E-04        -0.22008E-04         0.00000E+00
    0.00000E+00         0.00000E+00         0.00000E+00
    0.19413E-02        -0.12820E-02         0.00000E+00
    0.19170E-02        -0.12555E-02         0.00000E+00
    0.18921E-02        -0.12290E-02         0.00000E+00
    0.18666E-02        -0.12024E-02         0.00000E+00
    0.18404E-02        -0.11760E-02         0.00000E+00
    0.18136E-02        -0.11495E-02         0.00000E+00
    0.17862E-02        -0.11230E-02         0.00000E+00
    0.17581E-02        -0.10966E-02         0.00000E+00
    0.17294E-02        -0.10702E-02         0.00000E+00
    0.17001E-02        -0.10439E-02         0.00000E+00
    0.16702E-02        -0.10175E-02         0.00000E+00
    0.16396E-02        -0.99121E-03         0.00000E+00
    0.16085E-02        -0.96494E-03         0.00000E+00
    0.15767E-02        -0.93869E-03         0.00000E+00
    0.15443E-02        -0.91247E-03         0.00000E+00
    0.15114E-02        -0.88629E-03         0.00000E+00
    0.14778E-02        -0.86014E-03         0.00000E+00
    0.14436E-02        -0.83403E-03         0.00000E+00
    0.14089E-02        -0.80796E-03         0.00000E+00
    0.13735E-02        -0.78193E-03         0.00000E+00
    0.13376E-02        -0.75593E-03         0.00000E+00
    0.13011E-02        -0.72997E-03         0.00000E+00
    0.12639E-02        -0.70406E-03         0.00000E+00
    0.12263E-02        -0.67819E-03         0.00000E+00
    0.11880E-02        -0.65236E-03         0.00000E+00
    0.11492E-02        -0.62658E-03         0.00000E+00
    0.11097E-02        -0.60085E-03         0.00000E+00
    0.10698E-02        -0.57516E-03         0.00000E+00
    0.10292E-02        -0.54952E-03         0.00000E+00
    0.98812E-03        -0.52393E-03         0.00000E+00
    0.94646E-03        -0.49839E-03         0.00000E+00
    0.90423E-03        -0.47290E-03         0.00000E+00
    0.86146E-03        -0.44747E-03         0.00000E+00
    0.81813E-03        -0.42208E-03         0.00000E+00
    0.77425E-03        -0.39676E-03         0.00000E+00
    0.72983E-03        -0.37149E-03         0.00000E+00
    0.68487E-03        -0.34628E-03         0.00000E+00
    0.63937E-03        -0.32112E-03         0.00000E+00
    0.59333E-03        -0.29603E-03         0.00000E+00
    0.54675E-03        -0.27100E-03         0.00000E+00
    0.49964E-03        -0.24603E-03         0.00000E+00
    0.45201E-03        -0.22112E-03         0.00000E+00
    0.40385E-03        -0.19628E-03         0.00000E+00
    0.35517E-03        -0.17150E-03         0.00000E+00
    0.30597E-03        -0.14679E-03         0.00000E+00
    0.25625E-03        -0.12215E-03         0.00000E+00
    0.20601E-03        -0.97576E-04         0.00000E+00
    0.15527E-03        -0.73073E-04         0.00000E+00
    0.10402E-03        -0.48642E-04         0.00000E+00
    0.52260E-04        -0.24284E-04         0.00000E+00
    0.00000E+00         0.00000E+00         0.00000E+00
    0.19658E-02        -0.14026E-02         0.00000E+00
    0.19411E-02        -0.13736E-02         0.00000E+00
    0.19158E-02        -0.13446E-02         0.00000E+00
    0.18899E-02        -0.13156E-02         0.00000E+00
    0.18634E-02        -0.12867E-02         0.00000E+00
    0.18362E-02        -0.12577E-02         0.00000E+00
    0.18083E-02        -0.12288E-02         0.00000E+00
    0.17799E-02        -0.11999E-02         0.00000E+00
    0.17508E-02        -0.11710E-02         0.00000E+00
    0.17211E-02        -0.11422E-02         0.00000E+00
    0.16907E-02        -0.11134E-02         0.00000E+00
    0.16598E-02        -0.10846E-02         0.00000E+00
    0.16282E-02        -0.10559E-02         0.00000E+00
    0.15960E-02        -0.10272E-02         0.00000E+00
    0.15632E-02        -0.99853E-03         0.00000E+00
    0.15298E-02        -0.96989E-03         0.00000E+00
    0.14958E-02        -0.94130E-03         0.00000E+00
    0.14612E-02        -0.91274E-03         0.00000E+00
    0.14260E-02        -0.88422E-03         0.00000E+00
    0.13902E-02        -0.85575E-03         0.00000E+00
    0.13538E-02        -0.82732E-03         0.00000E+00
    0.13168E-02        -0.79893E-03         0.00000E+00
    0.12792E-02        -0.77058E-03         0.00000E+00
    0.12411E-02        -0.74228E-03         0.00000E+00
    0.12023E-02        -0.71403E-03         0.00000E+00
    0.11630E-02        -0.68583E-03         0.00000E+00
    0.11231E-02        -0.65767E-03         0.00000E+00
    0.10826E-02        -0.62957E-03         0.00000E+00
    0.10416E-02        -0.60152E-03         0.00000E+00
    0.99996E-03        -0.57352E-03         0.00000E+00
    0.95778E-03        -0.54558E-03         0.00000E+00
    0.91505E-03        -0.51769E-03         0.00000E+00
    0.87175E-03        -0.48986E-03         0.00000E+00
    0.82790E-03        -0.46209E-03         0.00000E+00
    0.78349E-03        -0.43437E-03         0.00000E+00
    0.73854E-03        -0.40672E-03         0.00000E+00
    0.69303E-03        -0.37912E-03         0.00000E+00
    0.64698E-03        -0.35159E-03         0.00000E+00
    0.60039E-03        -0.32413E-03         0.00000E+00
    0.55326E-03        -0.29673E-03         0.00000E+00
    0.50559E-03        -0.26940E-03         0.00000E+00
    0.45739E-03        -0.24213E-03         0.00000E+00
    0.40865E-03        -0.21493E-03         0.00000E+00
    0.35939E-03        -0.18781E-03         0.00000E+00
    0.30960E-03        -0.16075E-03         0.00000E+00
    0.25929E-03        -0.13377E-03         0.00000E+00
    0.20846E-03        -0.10686E-03         0.00000E+00
    0.15712E-03        -0.80030E-04         0.00000E+00
    0.10525E-03        -0.53275E-04         0.00000E+00
    0.52882E-04        -0.26598E-04         0.00000E+00
    0.00000E+00         0.00000E+00         0.00000E+00
    0.19921E-02        -0.15251E-02         0.00000E+00
    0.19670E-02        -0.14936E-02         0.00000E+00
    0.19414E-02        -0.14621E-02         0.00000E+00
    0.19150E-02        -0.14306E-02         0.00000E+00
    0.18881E-02        -0.13991E-02         0.00000E+00
    0.18604E-02        -0.13676E-02         0.00000E+00
    0.18322E-02        -0.13362E-02         0.00000E+00
    0.18033E-02        -0.13048E-02         0.00000E+00
    0.17738E-02        -0.12735E-02         0.00000E+00
    0.17436E-02        -0.12421E-02         0.00000E+00
    0.17128E-02        -0.12108E-02         0.00000E+00
    0.16814E-02        -0.11795E-02         0.00000E+00
    0.16494E-02        -0.11483E-02         0.00000E+00
    0.16167E-02        -0.11171E-02         0.00000E+00
    0.15835E-02        -0.10860E-02         0.00000E+00
    0.15496E-02        -0.10548E-02         0.00000E+00
    0.15151E-02        -0.10238E-02         0.00000E+00
    0.14800E-02        -0.99272E-03         0.00000E+00
    0.14443E-02        -0.96172E-03         0.00000E+00
    0.14080E-02        -0.93077E-03         0.00000E+00
    0.13711E-02        -0.89986E-03         0.00000E+00
    0.13337E-02        -0.86900E-03         0.00000E+00
    0.12956E-02        -0.83819E-03         0.00000E+00
    0.12569E-02        -0.80742E-03         0.00000E+00
    0.12176E-02        -0.77671E-03         0.00000E+00
    0.11778E-02        -0.74605E-03         0.00000E+00
    0.11374E-02        -0.71544E-03         0.00000E+00
    0.10964E-02        -0.68488E-03         0.00000E+00
    0.10548E-02        -0.65438E-03         0.00000E+00
    0.10126E-02        -0.62394E-03         0.00000E+00
    0.96992E-03        -0.59355E-03         0.00000E+00
    0.92663E-03        -0.56323E-03         0.00000E+00
    0.88278E-03        -0.53296E-03         0.00000E+00
    0.83836E-03        -0.50276E-03         0.00000E+00
    0.79339E-03        -0.47261E-03         0.00000E+00
    0.74785E-03        -0.44254E-03         0.00000E+00
    0.70177E-03        -0.41253E-03         0.00000E+00
    0.65514E-03        -0.38258E-03         0.00000E+00
    0.60795E-03        -0.35270E-03         0.00000E+00
    0.56022E-03        -0.32290E-03         0.00000E+00
    0.51195E-03        -0.29316E-03         0.00000E+00
    0.46314E-03        -0.26350E-03         0.00000E+00
    0.41379E-03        -0.23391E-03         0.00000E+00
    0.36391E-03        -0.20439E-03         0.00000E+00
    0.31350E-03        -0.17495E-03         0.00000E+00
    0.26255E-03        -0.14559E-03         0.00000E+00
    0.21108E-03        -0.11631E-03         0.00000E+00
    0.15909E-03        -0.87108E-04         0.00000E+00
    0.10658E-03        -0.57988E-04         0.00000E+00
    0.53547E-04        -0.28952E-04         0.00000E+00
    0.00000E+00         0.00000E+00         0.00000E+00
    0.20202E-02        -0.16497E-02         0.00000E+00
    0.19947E-02        -0.16156E-02         0.00000E+00
    0.19686E-02        -0.15815E-02         0.00000E+00
    0.19419E-02        -0.15475E-02         0.00000E+00
    0.19144E-02        -0.15134E-02         0.00000E+00
    0.18864E-02        -0.14794E-02         0.00000E+00
    0.18577E-02        -0.14455E-02         0.00000E+00
    0.18283E-02        -0.14115E-02         0.00000E+00
    0.17983E-02        -0.13776E-02         0.00000E+00
    0.17677E-02        -0.13437E-02         0.00000E+00
    0.17364E-02        -0.13099E-02         0.00000E+00
    0.17045E-02        -0.12761E-02         0.00000E+00
    0.16720E-02        -0.12423E-02         0.00000E+00
    0.16389E-02        -0.12086E-02         0.00000E+00
    0.16051E-02        -0.11749E-02         0.00000E+00
    0.15707E-02        -0.11412E-02         0.00000E+00
    0.15357E-02        -0.11076E-02         0.00000E+00
    0.15001E-02        -0.10741E-02         0.00000E+00
    0.14639E-02        -0.10406E-02         0.00000E+00
    0.14271E-02        -0.10071E-02         0.00000E+00
    0.13897E-02        -0.97367E-03         0.00000E+00
    0.13516E-02        -0.94030E-03         0.00000E+00
    0.13130E-02        -0.90698E-03         0.00000E+00
    0.12738E-02        -0.87371E-03         0.00000E+00
    0.12340E-02        -0.84049E-03         0.00000E+00
    0.11936E-02        -0.80733E-03         0.00000E+00
    0.11526E-02        -0.77422E-03         0.00000E+00
    0.11110E-02        -0.74118E-03         0.00000E+00
    0.10689E-02        -0.70819E-03         0.00000E+00
    0.10261E-02        -0.67526E-03         0.00000E+00
    0.98283E-03        -0.64239E-03         0.00000E+00
    0.93896E-03        -0.60958E-03         0.00000E+00
    0.89451E-03        -0.57684E-03         0.00000E+00
    0.84949E-03        -0.54416E-03         0.00000E+00
    0.80391E-03        -0.51155E-03         0.00000E+00
    0.75777E-03        -0.47901E-03         0.00000E+00
    0.71107E-03        -0.44654E-03         0.00000E+00
    0.66381E-03        -0.41413E-03         0.00000E+00
    0.61600E-03        -0.38180E-03         0.00000E+00
    0.56763E-03        -0.34955E-03         0.00000E+00
    0.51872E-03        -0.31737E-03         0.00000E+00
    0.46926E-03        -0.28526E-03         0.00000E+00
    0.41926E-03        -0.25323E-03         0.00000E+00
    0.36872E-03        -0.22129E-03         0.00000E+00
    0.31764E-03        -0.18942E-03         0.00000E+00
    0.26602E-03        -0.15764E-03         0.00000E+00
    0.21387E-03        -0.12593E-03         0.00000E+00
    0.16119E-03        -0.94319E-04         0.00000E+00
    0.10799E-03        -0.62791E-04         0.00000E+00
    0.54254E-04        -0.31350E-04         0.00000E+00
    0.00000E+00         0.00000E+00         0.00000E+00
    0.20501E-02        -0.17765E-02         0.00000E+00
    0.20242E-02        -0.17398E-02         0.00000E+00
    0.19976E-02        -0.17031E-02         0.00000E+00
    0.19704E-02        -0.16665E-02         0.00000E+00
    0.19425E-02        -0.16298E-02         0.00000E+00
    0.19139E-02        -0.15932E-02         0.00000E+00
    0.18847E-02        -0.15567E-02         0.00000E+00
    0.18549E-02        -0.15201E-02         0.00000E+00
    0.18244E-02        -0.14836E-02         0.00000E+00
    0.17932E-02        -0.14472E-02         0.00000E+00
    0.17615E-02        -0.14108E-02         0.00000E+00
    0.17290E-02        -0.13744E-02         0.00000E+00
    0.16960E-02        -0.13380E-02         0.00000E+00
    0.16623E-02        -0.13017E-02         0.00000E+00
    0.16280E-02        -0.12655E-02         0.00000E+00
    0.15931E-02        -0.12292E-02         0.00000E+00
    0.15576E-02        -0.11931E-02         0.00000E+00
    0.15214E-02        -0.11569E-02         0.00000E+00
    0.14846E-02        -0.11209E-02         0.00000E+00
    0.14473E-02        -0.10848E-02         0.00000E+00
    0.14093E-02        -0.10489E-02         0.00000E+00
    0.13707E-02        -0.10129E-02         0.00000E+00
    0.13315E-02        -0.97705E-03         0.00000E+00
    0.12917E-02        -0.94123E-03         0.00000E+00
    0.12513E-02        -0.90547E-03         0.00000E+00
    0.12103E-02        -0.86977E-03         0.00000E+00
    0.11687E-02        -0.83412E-03         0.00000E+00
    0.11265E-02        -0.79854E-03         0.00000E+00
    0.10838E-02        -0.76301E-03         0.00000E+00
    0.10404E-02        -0.72755E-03         0.00000E+00
    0.99651E-03        -0.69215E-03         0.00000E+00
    0.95200E-03        -0.65682E-03         0.00000E+00
    0.90692E-03        -0.62156E-03         0.00000E+00
    0.86127E-03        -0.58637E-03         0.00000E+00
    0.81505E-03        -0.55124E-03         0.00000E+00
    0.76826E-03        -0.51619E-03         0.00000E+00
    0.72090E-03        -0.48121E-03         0.00000E+00
    0.67299E-03        -0.44630E-03         0.00000E+00
    0.62451E-03        -0.41147E-03         0.00000E+00
    0.57547E-03        -0.37672E-03         0.00000E+00
    0.52588E-03        -0.34205E-03         0.00000E+00
    0.47574E-03        -0.30746E-03         0.00000E+00
    0.42504E-03        -0.27294E-03         0.00000E+00
    0.37380E-03        -0.23852E-03         0.00000E+00
    0.32202E-03        -0.20418E-03         0.00000E+00
    0.26969E-03        -0.16992E-03         0.00000E+00
    0.21682E-03        -0.13575E-03         0.00000E+00
    0.16341E-03        -0.10168E-03         0.00000E+00
    0.10947E-03        -0.67690E-04         0.00000E+00
    0.55002E-04        -0.33798E-04         0.00000E+00
    0.00000E+00         0.00000E+00         0.00000E+00
    0.20818E-02        -0.19057E-02         0.00000E+00
    0.20554E-02        -0.18663E-02         0.00000E+00
    0.20283E-02        -0.18270E-02         0.00000E+00
    0.20006E-02        -0.17877E-02         0.00000E+00
    0.19721E-02        -0.17484E-02         0.00000E+00
    0.19431E-02        -0.17092E-02         0.00000E+00
    0.19133E-02        -0.16700E-02         0.00000E+00
    0.18829E-02        -0.16308E-02         0.00000E+00
    0.18519E-02        -0.15917E-02         0.00000E+00
    0.18202E-02        -0.15526E-02         0.00000E+00
    0.17879E-02        -0.15136E-02         0.00000E+00
    0.17549E-02        -0.14746E-02         0.00000E+00
    0.17213E-02        -0.14356E-02         0.00000E+00
    0.16871E-02        -0.13967E-02         0.00000E+00
    0.16522E-02        -0.13578E-02         0.00000E+00
    0.16167E-02        -0.13190E-02         0.00000E+00
    0.15806E-02        -0.12802E-02         0.00000E+00
    0.15439E-02        -0.12414E-02         0.00000E+00
    0.15065E-02        -0.12027E-02         0.00000E+00
    0.14685E-02        -0.11641E-02         0.00000E+00
    0.14300E-02        -0.11255E-02         0.00000E+00
    0.13908E-02        -0.10870E-02         0.00000E+00
    0.13509E-02        -0.10485E-02         0.00000E+00
    0.13105E-02        -0.10101E-02         0.00000E+00
    0.12695E-02        -0.97175E-03         0.00000E+00
    0.12279E-02        -0.93346E-03         0.00000E+00
    0.11857E-02        -0.89522E-03         0.00000E+00
    0.11429E-02        -0.85705E-03         0.00000E+00
    0.10995E-02        -0.81895E-03         0.00000E+00
    0.10555E-02        -0.78091E-03         0.00000E+00
    0.10109E-02        -0.74293E-03         0.00000E+00
    0.96574E-03        -0.70503E-03         0.00000E+00
    0.91999E-03        -0.66720E-03         0.00000E+00
    0.87367E-03        -0.62944E-03         0.00000E+00
    0.82677E-03        -0.59175E-03         0.00000E+00
    0.77930E-03        -0.55414E-03         0.00000E+00
    0.73125E-03        -0.51660E-03         0.00000E+00
    0.68264E-03        -0.47914E-03         0.00000E+00
    0.63346E-03        -0.44176E-03         0.00000E+00
    0.58372E-03        -0.40446E-03         0.00000E+00
    0.53341E-03        -0.36725E-03         0.00000E+00
    0.48255E-03        -0.33012E-03         0.00000E+00
    0.43113E-03        -0.29307E-03         0.00000E+00
    0.37915E-03        -0.25611E-03         0.00000E+00
    0.32662E-03        -0.21925E-03         0.00000E+00
    0.27355E-03        -0.18247E-03         0.00000E+00
    0.21992E-03        -0.14578E-03         0.00000E+00
    0.16575E-03        -0.10919E-03         0.00000E+00
    0.11104E-03        -0.72696E-04         0.00000E+00
    0.55789E-04        -0.36298E-04         0.00000E+00
    0.00000E+00         0.00000E+00         0.00000E+00
    0.21153E-02        -0.20374E-02         0.00000E+00
    0.20883E-02        -0.19954E-02         0.00000E+00
    0.20607E-02        -0.19534E-02         0.00000E+00
    0.20324E-02        -0.19114E-02         0.00000E+00
    0.20034E-02        -0.18694E-02         0.00000E+00
    0.19737E-02        -0.18275E-02         0.00000E+00
    0.19435E-02        -0.17856E-02         0.00000E+00
    0.19125E-02        -0.17438E-02         0.00000E+00
    0.18809E-02        -0.17020E-02         0.00000E+00
    0.18486E-02        -0.16602E-02         0.00000E+00
    0.18157E-02        -0.16185E-02         0.00000E+00
    0.17822E-02        -0.15768E-02         0.00000E+00
    0.17480E-02        -0.15352E-02         0.00000E+00
    0.17131E-02        -0.14936E-02         0.00000E+00
    0.16777E-02        -0.14520E-02         0.00000E+00
    0.16416E-02        -0.14105E-02         0.00000E+00
    0.16048E-02        -0.13691E-02         0.00000E+00
    0.15675E-02        -0.13277E-02         0.00000E+00
    0.15295E-02        -0.12863E-02         0.00000E+00
    0.14909E-02        -0.12450E-02         0.00000E+00
    0.14517E-02        -0.12038E-02         0.00000E+00
    0.14118E-02        -0.11626E-02         0.00000E+00
    0.13714E-02        -0.11215E-02         0.00000E+00
    0.13303E-02        -0.10804E-02         0.00000E+00
    0.12886E-02        -0.10394E-02         0.00000E+00
    0.12463E-02        -0.99849E-03         0.00000E+00
    0.12035E-02        -0.95762E-03         0.00000E+00
    0.11600E-02        -0.91682E-03         0.00000E+00
    0.11159E-02        -0.87608E-03         0.00000E+00
    0.10712E-02        -0.83541E-03         0.00000E+00
    0.10260E-02        -0.79481E-03         0.00000E+00
    0.98012E-03        -0.75428E-03         0.00000E+00
    0.93368E-03        -0.71382E-03         0.00000E+00
    0.88665E-03        -0.67344E-03         0.00000E+00
    0.83905E-03        -0.63314E-03         0.00000E+00
    0.79086E-03        -0.59291E-03         0.00000E+00
    0.74209E-03        -0.55277E-03         0.00000E+00
    0.69275E-03        -0.51270E-03         0.00000E+00
    0.64283E-03        -0.47272E-03         0.00000E+00
    0.59235E-03        -0.43282E-03         0.00000E+00
    0.54130E-03        -0.39301E-03         0.00000E+00
    0.48968E-03        -0.35328E-03         0.00000E+00
    0.43749E-03        -0.31365E-03         0.00000E+00
    0.38475E-03        -0.27411E-03         0.00000E+00
    0.33144E-03        -0.23465E-03         0.00000E+00
    0.27758E-03        -0.19530E-03         0.00000E+00
    0.22317E-03        -0.15604E-03         0.00000E+00
    0.16820E-03        -0.11688E-03         0.00000E+00
    0.11268E-03        -0.77816E-04         0.00000E+00
    0.56612E-04        -0.38856E-04         0.00000E+00
    0.00000E+00         0.00000E+00         0.00000E+00
    0.21503E-02        -0.21720E-02         0.00000E+00
    0.21228E-02        -0.21272E-02         0.00000E+00
    0.20946E-02        -0.20824E-02         0.00000E+00
    0.20657E-02        -0.20377E-02         0.00000E+00
    0.20361E-02        -0.19930E-02         0.00000E+00
    0.20059E-02        -0.19483E-02         0.00000E+00
    0.19750E-02        -0.19037E-02         0.00000E+00
    0.19434E-02        -0.18591E-02         0.00000E+00
    0.19112E-02        -0.18146E-02         0.00000E+00
    0.18784E-02        -0.17701E-02         0.00000E+00
    0.18448E-02        -0.17256E-02         0.00000E+00
    0.18107E-02        -0.16812E-02         0.00000E+00
    0.17758E-02        -0.16369E-02         0.00000E+00
    0.17404E-02        -0.15925E-02         0.00000E+00
    0.17043E-02        -0.15483E-02         0.00000E+00
    0.16675E-02        -0.15041E-02         0.00000E+00
    0.16301E-02        -0.14599E-02         0.00000E+00
    0.15921E-02        -0.14158E-02         0.00000E+00
    0.15535E-02        -0.13717E-02         0.00000E+00
    0.15142E-02        -0.13277E-02         0.00000E+00
    0.14743E-02        -0.12838E-02         0.00000E+00
    0.14338E-02        -0.12399E-02         0.00000E+00
    0.13927E-02        -0.11961E-02         0.00000E+00
    0.13509E-02        -0.11523E-02         0.00000E+00
    0.13086E-02        -0.11086E-02         0.00000E+00
    0.12656E-02        -0.10650E-02         0.00000E+00
    0.12220E-02        -0.10214E-02         0.00000E+00
    0.11778E-02        -0.97792E-03         0.00000E+00
    0.11331E-02        -0.93449E-03         0.00000E+00
    0.10877E-02        -0.89114E-03         0.00000E+00
    0.10417E-02        -0.84785E-03         0.00000E+00
    0.99512E-03        -0.80465E-03         0.00000E+00
    0.94794E-03        -0.76151E-03         0.00000E+00
    0.90018E-03        -0.71846E-03         0.00000E+00
    0.85183E-03        -0.67548E-03         0.00000E+00
    0.80290E-03        -0.63258E-03         0.00000E+00
    0.75338E-03        -0.58977E-03         0.00000E+00
    0.70328E-03        -0.54704E-03         0.00000E+00
    0.65260E-03        -0.50440E-03         0.00000E+00
    0.60134E-03        -0.46184E-03         0.00000E+00
    0.54950E-03        -0.41937E-03         0.00000E+00
    0.49710E-03        -0.37700E-03         0.00000E+00
    0.44412E-03        -0.33471E-03         0.00000E+00
    0.39057E-03        -0.29253E-03         0.00000E+00
    0.33646E-03        -0.25043E-03         0.00000E+00
    0.28178E-03        -0.20844E-03         0.00000E+00
    0.22654E-03        -0.16654E-03         0.00000E+00
    0.17074E-03        -0.12475E-03         0.00000E+00
    0.11439E-03        -0.83060E-04         0.00000E+00
    0.57470E-04        -0.41476E-04         0.00000E+00
    0.00000E+00         0.00000E+00         0.00000E+00
    0.21870E-02        -0.23095E-02         0.00000E+00
    0.21589E-02        -0.22619E-02         0.00000E+00
    0.21300E-02        -0.22143E-02         0.00000E+00
    0.21005E-02        -0.21668E-02         0.00000E+00
    0.20703E-02        -0.21193E-02         0.00000E+00
    0.20395E-02        -0.20718E-02         0.00000E+00
    0.20079E-02        -0.20244E-02         0.00000E+00
    0.19757E-02        -0.19771E-02         0.00000E+00
    0.19429E-02        -0.19297E-02         0.00000E+00
    0.19093E-02        -0.18824E-02         0.00000E+00
    0.18752E-02        -0.18352E-02         0.00000E+00
    0.18403E-02        -0.17880E-02         0.00000E+00
    0.18048E-02        -0.17409E-02         0.00000E+00
    0.17687E-02        -0.16938E-02         0.00000E+00
    0.17319E-02        -0.16467E-02         0.00000E+00
    0.16945E-02        -0.15997E-02         0.00000E+00
    0.16564E-02        -0.15528E-02         0.00000E+00
    0.16177E-02        -0.15059E-02         0.00000E+00
    0.15784E-02        -0.14591E-02         0.00000E+00
    0.15385E-02        -0.14123E-02         0.00000E+00
    0.14979E-02        -0.13656E-02         0.00000E+00
    0.14566E-02        -0.13190E-02         0.00000E+00
    0.14148E-02        -0.12724E-02         0.00000E+00
    0.13724E-02        -0.12259E-02         0.00000E+00
    0.13293E-02        -0.11794E-02         0.00000E+00
    0.12856E-02        -0.11330E-02         0.00000E+00
    0.12413E-02        -0.10867E-02         0.00000E+00
    0.11964E-02        -0.10405E-02         0.00000E+00
    0.11509E-02        -0.99429E-03         0.00000E+00
    0.11047E-02        -0.94819E-03         0.00000E+00
    0.10580E-02        -0.90217E-03         0.00000E+00
    0.10107E-02        -0.85622E-03         0.00000E+00
    0.96274E-03        -0.81035E-03         0.00000E+00
    0.91421E-03        -0.76456E-03         0.00000E+00
    0.86509E-03        -0.71885E-03         0.00000E+00
    0.81538E-03        -0.67322E-03         0.00000E+00
    0.76508E-03        -0.62768E-03         0.00000E+00
    0.71419E-03        -0.58222E-03         0.00000E+00
    0.66271E-03        -0.53685E-03         0.00000E+00
    0.61065E-03        -0.49158E-03         0.00000E+00
    0.55801E-03        -0.44639E-03         0.00000E+00
    0.50479E-03        -0.40130E-03         0.00000E+00
    0.45099E-03        -0.35630E-03         0.00000E+00
    0.39661E-03        -0.31140E-03         0.00000E+00
    0.34166E-03        -0.26660E-03         0.00000E+00
    0.28614E-03        -0.22191E-03         0.00000E+00
    0.23005E-03        -0.17731E-03         0.00000E+00
    0.17338E-03        -0.13282E-03         0.00000E+00
    0.11615E-03        -0.88437E-04         0.00000E+00
    0.58358E-04        -0.44163E-04         0.00000E+00
    0.00000E+00         0.00000E+00         0.00000E+00
    0.22252E-02        -0.24501E-02         0.00000E+00
    0.21964E-02        -0.23996E-02         0.00000E+00
    0.21669E-02        -0.23492E-02         0.00000E+00
    0.21367E-02        -0.22988E-02         0.00000E+00
    0.21059E-02        -0.22485E-02         0.00000E+00
    0.20743E-02        -0.21982E-02         0.00000E+00
    0.20421E-02        -0.21479E-02         0.00000E+00
    0.20093E-02        -0.20977E-02         0.00000E+00
    0.19757E-02        -0.20475E-02         0.00000E+00
    0.19415E-02        -0.19974E-02         0.00000E+00
    0.19066E-02        -0.19473E-02         0.00000E+00
    0.18711E-02        -0.18973E-02         0.00000E+00
    0.18349E-02        -0.18473E-02         0.00000E+00
    0.17981E-02        -0.17974E-02         0.00000E+00
    0.17606E-02        -0.17475E-02         0.00000E+00
    0.17225E-02        -0.16977E-02         0.00000E+00
    0.16837E-02        -0.16479E-02         0.00000E+00
    0.16443E-02        -0.15982E-02         0.00000E+00
    0.16042E-02        -0.15485E-02         0.00000E+00
    0.15635E-02        -0.14990E-02         0.00000E+00
    0.15222E-02        -0.14494E-02         0.00000E+00
    0.14803E-02        -0.14000E-02         0.00000E+00
    0.14377E-02        -0.13505E-02         0.00000E+00
    0.13945E-02        -0.13012E-02         0.00000E+00
    0.13507E-02        -0.12519E-02         0.00000E+00
    0.13062E-02        -0.12027E-02         0.00000E+00
    0.12612E-02        -0.11536E-02         0.00000E+00
    0.12155E-02        -0.11046E-02         0.00000E+00
    0.11692E-02        -0.10556E-02         0.00000E+00
    0.11223E-02        -0.10067E-02         0.00000E+00
    0.10748E-02        -0.95783E-03         0.00000E+00
    0.10267E-02        -0.90908E-03         0.00000E+00
    0.97800E-03        -0.86041E-03         0.00000E+00
    0.92869E-03        -0.81182E-03         0.00000E+00
    0.87877E-03        -0.76331E-03         0.00000E+00
    0.82826E-03        -0.71488E-03         0.00000E+00
    0.77715E-03        -0.66655E-03         0.00000E+00
    0.72544E-03        -0.61830E-03         0.00000E+00
    0.67315E-03        -0.57014E-03         0.00000E+00
    0.62026E-03        -0.52208E-03         0.00000E+00
    0.56678E-03        -0.47411E-03         0.00000E+00
    0.51272E-03        -0.42623E-03         0.00000E+00
    0.45807E-03        -0.37846E-03         0.00000E+00
    0.40284E-03        -0.33078E-03         0.00000E+00
    0.34702E-03        -0.28320E-03         0.00000E+00
    0.29063E-03        -0.23573E-03         0.00000E+00
    0.23365E-03        -0.18836E-03         0.00000E+00
    0.17610E-03        -0.14111E-03         0.00000E+00
    0.11797E-03        -0.93958E-04         0.00000E+00
    0.59274E-04        -0.46922E-04         0.00000E+00
    0.00000E+00         0.00000E+00         0.00000E+00
    0.22648E-02        -0.25941E-02         0.00000E+00
    0.22353E-02        -0.25407E-02         0.00000E+00
    0.22051E-02        -0.24874E-02         0.00000E+00
    0.21743E-02        -0.24341E-02         0.00000E+00
    0.21427E-02        -0.23808E-02         0.00000E+00
    0.21105E-02        -0.23276E-02         0.00000E+00
    0.20775E-02        -0.22744E-02         0.00000E+00
    0.20439E-02        -0.22213E-02         0.00000E+00
    0.20097E-02        -0.21682E-02         0.00000E+00
    0.19747E-02        -0.21152E-02         0.00000E+00
    0.19391E-02        -0.20622E-02         0.00000E+00
    0.19029E-02        -0.20092E-02         0.00000E+00
    0.18660E-02        -0.19564E-02         0.00000E+00
    0.18284E-02        -0.19035E-02         0.00000E+00
    0.17902E-02        -0.18508E-02         0.00000E+00
    0.17513E-02        -0.17980E-02         0.00000E+00
    0.17118E-02        -0.17454E-02         0.00000E+00
    0.16716E-02        -0.16928E-02         0.00000E+00
    0.16308E-02        -0.16402E-02         0.00000E+00
    0.15894E-02        -0.15877E-02         0.00000E+00
    0.15473E-02        -0.15353E-02         0.00000E+00
    0.15046E-02        -0.14830E-02         0.00000E+00
    0.14613E-02        -0.14307E-02         0.00000E+00
    0.14173E-02        -0.13785E-02         0.00000E+00
    0.13727E-02        -0.13263E-02         0.00000E+00
    0.13275E-02        -0.12742E-02         0.00000E+00
    0.12816E-02        -0.12222E-02         0.00000E+00
    0.12352E-02        -0.11703E-02         0.00000E+00
    0.11881E-02        -0.11184E-02         0.00000E+00
    0.11404E-02        -0.10667E-02         0.00000E+00
    0.10921E-02        -0.10149E-02         0.00000E+00
    0.10432E-02        -0.96332E-03         0.00000E+00
    0.99368E-03        -0.91178E-03         0.00000E+00
    0.94355E-03        -0.86032E-03         0.00000E+00
    0.89281E-03        -0.80895E-03         0.00000E+00
    0.84147E-03        -0.75766E-03         0.00000E+00
    0.78953E-03        -0.70646E-03         0.00000E+00
    0.73699E-03        -0.65535E-03         0.00000E+00
    0.68385E-03        -0.60433E-03         0.00000E+00
    0.63011E-03        -0.55340E-03         0.00000E+00
    0.57578E-03        -0.50258E-03         0.00000E+00
    0.52085E-03        -0.45184E-03         0.00000E+00
    0.46533E-03        -0.40121E-03         0.00000E+00
    0.40922E-03        -0.35068E-03         0.00000E+00
    0.35252E-03        -0.30026E-03         0.00000E+00
    0.29523E-03        -0.24994E-03         0.00000E+00
    0.23735E-03        -0.19973E-03         0.00000E+00
    0.17889E-03        -0.14962E-03         0.00000E+00
    0.11984E-03        -0.99633E-04         0.00000E+00
    0.60213E-04        -0.49758E-04         0.00000E+00
    0.00000E+00         0.00000E+00         0.00000E+00
    0.23057E-02        -0.27416E-02         0.00000E+00
    0.22755E-02        -0.26853E-02         0.00000E+00
    0.22446E-02        -0.26289E-02         0.00000E+00
    0.22130E-02        -0.25727E-02         0.00000E+00
    0.21807E-02        -0.25164E-02         0.00000E+00
    0.21477E-02        -0.24602E-02         0.00000E+00
    0.21140E-02        -0.24041E-02         0.00000E+00
    0.20797E-02        -0.23480E-02         0.00000E+00
    0.20446E-02        -0.22919E-02         0.00000E+00
    0.20089E-02        -0.22359E-02         0.00000E+00
    0.19726E-02        -0.21800E-02         0.00000E+00
    0.19356E-02        -0.21240E-02         0.00000E+00
    0.18979E-02        -0.20682E-02         0.00000E+00
    0.18596E-02        -0.20124E-02         0.00000E+00
    0.18206E-02        -0.19567E-02         0.00000E+00
    0.17809E-02        -0.19010E-02         0.00000E+00
    0.17406E-02        -0.18454E-02         0.00000E+00
    0.16997E-02        -0.17898E-02         0.00000E+00
    0.16581E-02        -0.17343E-02         0.00000E+00
    0.16159E-02        -0.16789E-02         0.00000E+00
    0.15730E-02        -0.16235E-02         0.00000E+00
    0.15295E-02        -0.15682E-02         0.00000E+00
    0.14854E-02        -0.15129E-02         0.00000E+00
    0.14406E-02        -0.14578E-02         0.00000E+00
    0.13952E-02        -0.14027E-02         0.00000E+00
    0.13492E-02        -0.13476E-02         0.00000E+00
    0.13026E-02        -0.12927E-02         0.00000E+00
    0.12553E-02        -0.12378E-02         0.00000E+00
    0.12074E-02        -0.11830E-02         0.00000E+00
    0.11589E-02        -0.11283E-02         0.00000E+00
    0.11098E-02        -0.10736E-02         0.00000E+00
    0.10600E-02        -0.10190E-02         0.00000E+00
    0.10097E-02        -0.96456E-03         0.00000E+00
    0.95872E-03        -0.91016E-03         0.00000E+00
    0.90714E-03        -0.85584E-03         0.00000E+00
    0.85496E-03        -0.80161E-03         0.00000E+00
    0.80217E-03        -0.74747E-03         0.00000E+00
    0.74877E-03        -0.69342E-03         0.00000E+00
    0.69477E-03        -0.63947E-03         0.00000E+00
    0.64016E-03        -0.58561E-03         0.00000E+00
    0.58495E-03        -0.53185E-03         0.00000E+00
    0.52915E-03        -0.47818E-03         0.00000E+00
    0.47274E-03        -0.42462E-03         0.00000E+00
    0.41573E-03        -0.37116E-03         0.00000E+00
    0.35812E-03        -0.31780E-03         0.00000E+00
    0.29992E-03        -0.26455E-03         0.00000E+00
    0.24113E-03        -0.21142E-03         0.00000E+00
    0.18173E-03        -0.15839E-03         0.00000E+00
    0.12175E-03        -0.10547E-03         0.00000E+00
    0.61170E-04        -0.52678E-04         0.00000E+00
    0.00000E+00         0.00000E+00         0.00000E+00
    0.23478E-02        -0.28929E-02         0.00000E+00
    0.23168E-02        -0.28335E-02         0.00000E+00
    0.22851E-02        -0.27741E-02         0.00000E+00
    0.22527E-02        -0.27148E-02         0.00000E+00
    0.22196E-02        -0.26555E-02         0.00000E+00
    0.21859E-02        -0.25963E-02         0.00000E+00
    0.21514E-02        -0.25371E-02         0.00000E+00
    0.21163E-02        -0.24779E-02         0.00000E+00
    0.20805E-02        -0.24188E-02         0.00000E+00
    0.20440E-02        -0.23598E-02         0.00000E+00
    0.20068E-02        -0.23008E-02         0.00000E+00
    0.19690E-02        -0.22419E-02         0.00000E+00
    0.19305E-02        -0.21830E-02         0.00000E+00
    0.18914E-02        -0.21242E-02         0.00000E+00
    0.18516E-02        -0.20654E-02         0.00000E+00
    0.18112E-02        -0.20067E-02         0.00000E+00
    0.17701E-02        -0.19480E-02         0.00000E+00
    0.17283E-02        -0.18894E-02         0.00000E+00
    0.16859E-02        -0.18309E-02         0.00000E+00
    0.16429E-02        -0.17724E-02         0.00000E+00
    0.15992E-02        -0.17140E-02         0.00000E+00
    0.15549E-02        -0.16557E-02         0.00000E+00
    0.15099E-02        -0.15974E-02         0.00000E+00
    0.14644E-02        -0.15392E-02         0.00000E+00
    0.14182E-02        -0.14811E-02         0.00000E+00
    0.13713E-02        -0.14231E-02         0.00000E+00
    0.13238E-02        -0.13651E-02         0.00000E+00
    0.12757E-02        -0.13072E-02         0.00000E+00
    0.12270E-02        -0.12494E-02         0.00000E+00
    0.11777E-02        -0.11916E-02         0.00000E+00
    0.11277E-02        -0.11339E-02         0.00000E+00
    0.10771E-02        -0.10763E-02         0.00000E+00
    0.10259E-02        -0.10188E-02         0.00000E+00
    0.97413E-03        -0.96142E-03         0.00000E+00
    0.92170E-03        -0.90408E-03         0.00000E+00
    0.86865E-03        -0.84683E-03         0.00000E+00
    0.81499E-03        -0.78968E-03         0.00000E+00
    0.76073E-03        -0.73261E-03         0.00000E+00
    0.70585E-03        -0.67564E-03         0.00000E+00
    0.65036E-03        -0.61876E-03         0.00000E+00
    0.59426E-03        -0.56198E-03         0.00000E+00
    0.53756E-03        -0.50530E-03         0.00000E+00
    0.48025E-03        -0.44872E-03         0.00000E+00
    0.42233E-03        -0.39224E-03         0.00000E+00
    0.36381E-03        -0.33587E-03         0.00000E+00
    0.30468E-03        -0.27961E-03         0.00000E+00
    0.24495E-03        -0.22346E-03         0.00000E+00
    0.18462E-03        -0.16742E-03         0.00000E+00
    0.12368E-03        -0.11149E-03         0.00000E+00
    0.62140E-04        -0.55687E-04         0.00000E+00
    0.00000E+00         0.00000E+00         0.00000E+00
    0.23910E-02        -0.30482E-02         0.00000E+00
    0.23592E-02        -0.29857E-02         0.00000E+00
    0.23266E-02        -0.29232E-02         0.00000E+00
    0.22934E-02        -0.28608E-02         0.00000E+00
    0.22595E-02        -0.27983E-02         0.00000E+00
    0.22249E-02        -0.27360E-02         0.00000E+00
    0.21896E-02        -0.26737E-02         0.00000E+00
    0.21536E-02        -0.26114E-02         0.00000E+00
    0.21170E-02        -0.25492E-02         0.00000E+00
    0.20797E-02        -0.24871E-02         0.00000E+00
    0.20417E-02        -0.24249E-02         0.00000E+00
    0.20031E-02        -0.23629E-02         0.00000E+00
    0.19638E-02        -0.23009E-02         0.00000E+00
    0.19238E-02        -0.22390E-02         0.00000E+00
    0.18832E-02        -0.21771E-02         0.00000E+00
    0.18419E-02        -0.21153E-02         0.00000E+00
    0.17999E-02        -0.20535E-02         0.00000E+00
    0.17574E-02        -0.19918E-02         0.00000E+00
    0.17141E-02        -0.19302E-02         0.00000E+00
    0.16703E-02        -0.18686E-02         0.00000E+00
    0.16258E-02        -0.18071E-02         0.00000E+00
    0.15806E-02        -0.17457E-02         0.00000E+00
    0.15348E-02        -0.16843E-02         0.00000E+00
    0.14884E-02        -0.16230E-02         0.00000E+00
    0.14414E-02        -0.15618E-02         0.00000E+00
    0.13937E-02        -0.15007E-02         0.00000E+00
    0.13454E-02        -0.14396E-02         0.00000E+00
    0.12964E-02        -0.13786E-02         0.00000E+00
    0.12469E-02        -0.13176E-02         0.00000E+00
    0.11967E-02        -0.12568E-02         0.00000E+00
    0.11458E-02        -0.11960E-02         0.00000E+00
    0.10944E-02        -0.11353E-02         0.00000E+00
    0.10424E-02        -0.10747E-02         0.00000E+00
    0.98967E-03        -0.10142E-02         0.00000E+00
    0.93638E-03        -0.95376E-03         0.00000E+00
    0.88246E-03        -0.89341E-03         0.00000E+00
    0.82793E-03        -0.83315E-03         0.00000E+00
    0.77278E-03        -0.77298E-03         0.00000E+00
    0.71702E-03        -0.71290E-03         0.00000E+00
    0.66064E-03        -0.65292E-03         0.00000E+00
    0.60364E-03        -0.59303E-03         0.00000E+00
    0.54603E-03        -0.53325E-03         0.00000E+00
    0.48781E-03        -0.47356E-03         0.00000E+00
    0.42898E-03        -0.41398E-03         0.00000E+00
    0.36953E-03        -0.35450E-03         0.00000E+00
    0.30947E-03        -0.29514E-03         0.00000E+00
    0.24880E-03        -0.23588E-03         0.00000E+00
    0.18752E-03        -0.17673E-03         0.00000E+00
    0.12562E-03        -0.11770E-03         0.00000E+00
    0.63118E-04        -0.58792E-04         0.00000E+00
    0.00000E+00         0.00000E+00         0.00000E+00
    0.24350E-02        -0.32078E-02         0.00000E+00
    0.24023E-02        -0.31420E-02         0.00000E+00
    0.23689E-02        -0.30763E-02         0.00000E+00
    0.23348E-02        -0.30107E-02         0.00000E+00
    0.23000E-02        -0.29451E-02         0.00000E+00
    0.22646E-02        -0.28795E-02         0.00000E+00
    0.22284E-02        -0.28140E-02         0.00000E+00
    0.21916E-02        -0.27486E-02         0.00000E+00
    0.21541E-02        -0.26832E-02         0.00000E+00
    0.21159E-02        -0.26179E-02         0.00000E+00
    0.20771E-02        -0.25526E-02         0.00000E+00
    0.20375E-02        -0.24873E-02         0.00000E+00
    0.19974E-02        -0.24222E-02         0.00000E+00
    0.19565E-02        -0.23570E-02         0.00000E+00
    0.19151E-02        -0.22920E-02         0.00000E+00
    0.18729E-02        -0.22270E-02         0.00000E+00
    0.18301E-02        -0.21621E-02         0.00000E+00
    0.17867E-02        -0.20972E-02         0.00000E+00
    0.17426E-02        -0.20324E-02         0.00000E+00
    0.16979E-02        -0.19676E-02         0.00000E+00
    0.16525E-02        -0.19029E-02         0.00000E+00
    0.16065E-02        -0.18383E-02         0.00000E+00
    0.15599E-02        -0.17738E-02         0.00000E+00
    0.15126E-02        -0.17093E-02         0.00000E+00
    0.14647E-02        -0.16449E-02         0.00000E+00
    0.14162E-02        -0.15806E-02         0.00000E+00
    0.13670E-02        -0.15163E-02         0.00000E+00
    0.13172E-02        -0.14521E-02         0.00000E+00
    0.12668E-02        -0.13880E-02         0.00000E+00
    0.12157E-02        -0.13239E-02         0.00000E+00
    0.11640E-02        -0.12600E-02         0.00000E+00
    0.11117E-02        -0.11961E-02         0.00000E+00
    0.10588E-02        -0.11323E-02         0.00000E+00
    0.10053E-02        -0.10686E-02         0.00000E+00
    0.95109E-03        -0.10050E-02         0.00000E+00
    0.89630E-03        -0.94143E-03         0.00000E+00
    0.84088E-03        -0.87797E-03         0.00000E+00
    0.78485E-03        -0.81461E-03         0.00000E+00
    0.72820E-03        -0.75133E-03         0.00000E+00
    0.67092E-03        -0.68815E-03         0.00000E+00
    0.61303E-03        -0.62507E-03         0.00000E+00
    0.55452E-03        -0.56208E-03         0.00000E+00
    0.49538E-03        -0.49920E-03         0.00000E+00
    0.43563E-03        -0.43642E-03         0.00000E+00
    0.37526E-03        -0.37374E-03         0.00000E+00
    0.31427E-03        -0.31117E-03         0.00000E+00
    0.25266E-03        -0.24870E-03         0.00000E+00
    0.19042E-03        -0.18635E-03         0.00000E+00
    0.12757E-03        -0.12412E-03         0.00000E+00
    0.64096E-04        -0.61999E-04         0.00000E+00
    0.00000E+00         0.00000E+00         0.00000E+00
    0.24797E-02        -0.33718E-02         0.00000E+00
    0.24461E-02        -0.33028E-02         0.00000E+00
    0.24118E-02        -0.32338E-02         0.00000E+00
    0.23768E-02        -0.31649E-02         0.00000E+00
    0.23411E-02        -0.30960E-02         0.00000E+00
    0.23047E-02        -0.30272E-02         0.00000E+00
    0.22676E-02        -0.29584E-02         0.00000E+00
    0.22299E-02        -0.28897E-02         0.00000E+00
    0.21915E-02        -0.28210E-02         0.00000E+00
    0.21524E-02        -0.27524E-02         0.00000E+00
    0.21127E-02        -0.26839E-02         0.00000E+00
    0.20723E-02        -0.26154E-02         0.00000E+00
    0.20312E-02        -0.25469E-02         0.00000E+00
    0.19895E-02        -0.24786E-02         0.00000E+00
    0.19471E-02        -0.24102E-02         0.00000E+00
    0.19041E-02        -0.23420E-02         0.00000E+00
    0.18604E-02        -0.22738E-02         0.00000E+00
    0.18161E-02        -0.22057E-02         0.00000E+00
    0.17712E-02        -0.21376E-02         0.00000E+00
    0.17256E-02        -0.20696E-02         0.00000E+00
    0.16793E-02        -0.20016E-02         0.00000E+00
    0.16324E-02        -0.19337E-02         0.00000E+00
    0.15849E-02        -0.18659E-02         0.00000E+00
    0.15368E-02        -0.17982E-02         0.00000E+00
    0.14880E-02        -0.17305E-02         0.00000E+00
    0.14386E-02        -0.16629E-02         0.00000E+00
    0.13886E-02        -0.15954E-02         0.00000E+00
    0.13379E-02        -0.15279E-02         0.00000E+00
    0.12866E-02        -0.14605E-02         0.00000E+00
    0.12347E-02        -0.13932E-02         0.00000E+00
    0.11821E-02        -0.13260E-02         0.00000E+00
    0.11290E-02        -0.12588E-02         0.00000E+00
    0.10752E-02        -0.11917E-02         0.00000E+00
    0.10208E-02        -0.11247E-02         0.00000E+00
    0.96572E-03        -0.10578E-02         0.00000E+00
    0.91005E-03        -0.99099E-03         0.00000E+00
    0.85376E-03        -0.92424E-03         0.00000E+00
    0.79684E-03        -0.85759E-03         0.00000E+00
    0.73930E-03        -0.79102E-03         0.00000E+00
    0.68114E-03        -0.72454E-03         0.00000E+00
    0.62235E-03        -0.65816E-03         0.00000E+00
    0.56294E-03        -0.59188E-03         0.00000E+00
    0.50290E-03        -0.52569E-03         0.00000E+00
    0.44224E-03        -0.45960E-03         0.00000E+00
    0.38094E-03        -0.39362E-03         0.00000E+00
    0.31903E-03        -0.32774E-03         0.00000E+00
    0.25648E-03        -0.26196E-03         0.00000E+00
    0.19331E-03        -0.19630E-03         0.00000E+00
    0.12950E-03        -0.13075E-03         0.00000E+00
    0.65066E-04        -0.65316E-04         0.00000E+00
    0.00000E+00         0.00000E+00         0.00000E+00
    0.25249E-02        -0.35406E-02         0.00000E+00
    0.24903E-02        -0.34682E-02         0.00000E+00
    0.24550E-02        -0.33958E-02         0.00000E+00
    0.24191E-02        -0.33236E-02         0.00000E+00
    0.23824E-02        -0.32513E-02         0.00000E+00
    0.23451E-02        -0.31792E-02         0.00000E+00
    0.23071E-02        -0.31070E-02         0.00000E+00
    0.22684E-02        -0.30350E-02         0.00000E+00
    0.22290E-02        -0.29630E-02         0.00000E+00
    0.21890E-02        -0.28910E-02         0.00000E+00
    0.21483E-02        -0.28191E-02         0.00000E+00
    0.21070E-02        -0.27473E-02         0.00000E+00
    0.20650E-02        -0.26755E-02         0.00000E+00
    0.20224E-02        -0.26038E-02         0.00000E+00
    0.19791E-02        -0.25321E-02         0.00000E+00
    0.19352E-02        -0.24605E-02         0.00000E+00
    0.18906E-02        -0.23889E-02         0.00000E+00
    0.18454E-02        -0.23175E-02         0.00000E+00
    0.17995E-02        -0.22460E-02         0.00000E+00
    0.17530E-02        -0.21747E-02         0.00000E+00
    0.17059E-02        -0.21034E-02         0.00000E+00
    0.16582E-02        -0.20321E-02         0.00000E+00
    0.16098E-02        -0.19610E-02         0.00000E+00
    0.15608E-02        -0.18899E-02         0.00000E+00
    0.15111E-02        -0.18188E-02         0.00000E+00
    0.14608E-02        -0.17479E-02         0.00000E+00
    0.14099E-02        -0.16770E-02         0.00000E+00
    0.13584E-02        -0.16061E-02         0.00000E+00
    0.13062E-02        -0.15354E-02         0.00000E+00
    0.12534E-02        -0.14647E-02         0.00000E+00
    0.12000E-02        -0.13941E-02         0.00000E+00
    0.11460E-02        -0.13236E-02         0.00000E+00
    0.10913E-02        -0.12531E-02         0.00000E+00
    0.10361E-02        -0.11827E-02         0.00000E+00
    0.98014E-03        -0.11124E-02         0.00000E+00
    0.92361E-03        -0.10422E-02         0.00000E+00
    0.86645E-03        -0.97206E-03         0.00000E+00
    0.80866E-03        -0.90201E-03         0.00000E+00
    0.75024E-03        -0.83205E-03         0.00000E+00
    0.69120E-03        -0.76217E-03         0.00000E+00
    0.63153E-03        -0.69238E-03         0.00000E+00
    0.57123E-03        -0.62269E-03         0.00000E+00
    0.51029E-03        -0.55309E-03         0.00000E+00
    0.44873E-03        -0.48359E-03         0.00000E+00
    0.38653E-03        -0.41418E-03         0.00000E+00
    0.32370E-03        -0.34488E-03         0.00000E+00
    0.26024E-03        -0.27569E-03         0.00000E+00
    0.19614E-03        -0.20660E-03         0.00000E+00
    0.13140E-03        -0.13762E-03         0.00000E+00
    0.66020E-04        -0.68751E-04         0.00000E+00
    0.00000E+00         0.00000E+00         0.00000E+00
    0.25703E-02        -0.37143E-02         0.00000E+00
    0.25347E-02        -0.36385E-02         0.00000E+00
    0.24984E-02        -0.35627E-02         0.00000E+00
    0.24614E-02        -0.34870E-02         0.00000E+00
    0.24237E-02        -0.34113E-02         0.00000E+00
    0.23854E-02        -0.33357E-02         0.00000E+00
    0.23464E-02        -0.32602E-02         0.00000E+00
    0.23067E-02        -0.31847E-02         0.00000E+00
    0.22664E-02        -0.31092E-02         0.00000E+00
    0.22254E-02        -0.30338E-02         0.00000E+00
    0.21838E-02        -0.29585E-02         0.00000E+00
    0.21415E-02        -0.28832E-02         0.00000E+00
    0.20986E-02        -0.28080E-02         0.00000E+00
    0.20550E-02        -0.27328E-02         0.00000E+00
    0.20108E-02        -0.26577E-02         0.00000E+00
    0.19659E-02        -0.25827E-02         0.00000E+00
    0.19204E-02        -0.25077E-02         0.00000E+00
    0.18743E-02        -0.24328E-02         0.00000E+00
    0.18275E-02        -0.23579E-02         0.00000E+00
    0.17801E-02        -0.22831E-02         0.00000E+00
    0.17321E-02        -0.22084E-02         0.00000E+00
    0.16835E-02        -0.21337E-02         0.00000E+00
    0.16342E-02        -0.20591E-02         0.00000E+00
    0.15843E-02        -0.19845E-02         0.00000E+00
    0.15338E-02        -0.19101E-02         0.00000E+00
    0.14826E-02        -0.18356E-02         0.00000E+00
    0.14308E-02        -0.17613E-02         0.00000E+00
    0.13785E-02        -0.16870E-02         0.00000E+00
    0.13254E-02        -0.16128E-02         0.00000E+00
    0.12718E-02        -0.15386E-02         0.00000E+00
    0.12175E-02        -0.14645E-02         0.00000E+00
    0.11626E-02        -0.13905E-02         0.00000E+00
    0.11071E-02        -0.13166E-02         0.00000E+00
    0.10510E-02        -0.12427E-02         0.00000E+00
    0.99422E-03        -0.11689E-02         0.00000E+00
    0.93683E-03        -0.10952E-02         0.00000E+00
    0.87881E-03        -0.10215E-02         0.00000E+00
    0.82017E-03        -0.94798E-03         0.00000E+00
    0.76090E-03        -0.87450E-03         0.00000E+00
    0.70099E-03        -0.80111E-03         0.00000E+00
    0.64046E-03        -0.72781E-03         0.00000E+00
    0.57929E-03        -0.65459E-03         0.00000E+00
    0.51749E-03        -0.58146E-03         0.00000E+00
    0.45505E-03        -0.50843E-03         0.00000E+00
    0.39197E-03        -0.43549E-03         0.00000E+00
    0.32826E-03        -0.36265E-03         0.00000E+00
    0.26390E-03        -0.28991E-03         0.00000E+00
    0.19890E-03        -0.21727E-03         0.00000E+00
    0.13325E-03        -0.14474E-03         0.00000E+00
    0.66948E-04        -0.72313E-04         0.00000E+00
    0.00000E+00         0.00000E+00         0.00000E+00
    0.26156E-02        -0.38933E-02         0.00000E+00
    0.25789E-02        -0.38140E-02         0.00000E+00
    0.25415E-02        -0.37347E-02         0.00000E+00
    0.25035E-02        -0.36554E-02         0.00000E+00
    0.24648E-02        -0.35762E-02         0.00000E+00
    0.24254E-02        -0.34971E-02         0.00000E+00
    0.23854E-02        -0.34180E-02         0.00000E+00
    0.23447E-02        -0.33390E-02         0.00000E+00
    0.23033E-02        -0.32600E-02         0.00000E+00
    0.22613E-02        -0.31811E-02         0.00000E+00
    0.22187E-02        -0.31023E-02         0.00000E+00
    0.21754E-02        -0.30235E-02         0.00000E+00
    0.21315E-02        -0.29447E-02         0.00000E+00
    0.20870E-02        -0.28661E-02         0.00000E+00
    0.20418E-02        -0.27874E-02         0.00000E+00
    0.19960E-02        -0.27089E-02         0.00000E+00
    0.19496E-02        -0.26303E-02         0.00000E+00
    0.19025E-02        -0.25519E-02         0.00000E+00
    0.18549E-02        -0.24735E-02         0.00000E+00
    0.18066E-02        -0.23952E-02         0.00000E+00
    0.17576E-02        -0.23169E-02         0.00000E+00
    0.17081E-02        -0.22387E-02         0.00000E+00
    0.16579E-02        -0.21605E-02         0.00000E+00
    0.16072E-02        -0.20824E-02         0.00000E+00
    0.15558E-02        -0.20043E-02         0.00000E+00
    0.15038E-02        -0.19264E-02         0.00000E+00
    0.14511E-02        -0.18484E-02         0.00000E+00
    0.13979E-02        -0.17706E-02         0.00000E+00
    0.13440E-02        -0.16928E-02         0.00000E+00
    0.12895E-02        -0.16150E-02         0.00000E+00
    0.12344E-02        -0.15374E-02         0.00000E+00
    0.11787E-02        -0.14598E-02         0.00000E+00
    0.11223E-02        -0.13822E-02         0.00000E+00
    0.10654E-02        -0.13048E-02         0.00000E+00
    0.10078E-02        -0.12274E-02         0.00000E+00
    0.94957E-03        -0.11500E-02         0.00000E+00
    0.89072E-03        -0.10728E-02         0.00000E+00
    0.83125E-03        -0.99560E-03         0.00000E+00
    0.77115E-03        -0.91849E-03         0.00000E+00
    0.71042E-03        -0.84147E-03         0.00000E+00
    0.64905E-03        -0.76452E-03         0.00000E+00
    0.58705E-03        -0.68766E-03         0.00000E+00
    0.52441E-03        -0.61088E-03         0.00000E+00
    0.46113E-03        -0.53419E-03         0.00000E+00
    0.39720E-03        -0.45759E-03         0.00000E+00
    0.33263E-03        -0.38108E-03         0.00000E+00
    0.26741E-03        -0.30466E-03         0.00000E+00
    0.20154E-03        -0.22834E-03         0.00000E+00
    0.13502E-03        -0.15213E-03         0.00000E+00
    0.67840E-04        -0.76010E-04         0.00000E+00
    0.00000E+00         0.00000E+00         0.00000E+00
    0.26605E-02        -0.40780E-02         0.00000E+00
    0.26226E-02        -0.39950E-02         0.00000E+00
    0.25841E-02        -0.39121E-02         0.00000E+00
    0.25450E-02        -0.38292E-02         0.00000E+00
    0.25052E-02        -0.37464E-02         0.00000E+00
    0.24647E-02        -0.36636E-02         0.00000E+00
    0.24236E-02        -0.35809E-02         0.00000E+00
    0.23818E-02        -0.34983E-02         0.00000E+00
    0.23395E-02        -0.34157E-02         0.00000E+00
    0.22964E-02        -0.33332E-02         0.00000E+00
    0.22528E-02        -0.32507E-02         0.00000E+00
    0.22085E-02        -0.31683E-02         0.00000E+00
    0.21636E-02        -0.30860E-02         0.00000E+00
    0.21181E-02        -0.30037E-02         0.00000E+00
    0.20719E-02        -0.29214E-02         0.00000E+00
    0.20252E-02        -0.28392E-02         0.00000E+00
    0.19778E-02        -0.27571E-02         0.00000E+00
    0.19298E-02        -0.26750E-02         0.00000E+00
    0.18812E-02        -0.25930E-02         0.00000E+00
    0.18320E-02        -0.25110E-02         0.00000E+00
    0.17822E-02        -0.24291E-02         0.00000E+00
    0.17318E-02        -0.23472E-02         0.00000E+00
    0.16807E-02        -0.22654E-02         0.00000E+00
    0.16291E-02        -0.21836E-02         0.00000E+00
    0.15768E-02        -0.21019E-02         0.00000E+00
    0.15240E-02        -0.20202E-02         0.00000E+00
    0.14705E-02        -0.19387E-02         0.00000E+00
    0.14164E-02        -0.18571E-02         0.00000E+00
    0.13617E-02        -0.17756E-02         0.00000E+00
    0.13064E-02        -0.16942E-02         0.00000E+00
    0.12505E-02        -0.16128E-02         0.00000E+00
    0.11940E-02        -0.15315E-02         0.00000E+00
    0.11368E-02        -0.14503E-02         0.00000E+00
    0.10791E-02        -0.13691E-02         0.00000E+00
    0.10207E-02        -0.12880E-02         0.00000E+00
    0.96166E-03        -0.12069E-02         0.00000E+00
    0.90202E-03        -0.11259E-02         0.00000E+00
    0.84176E-03        -0.10450E-02         0.00000E+00
    0.78087E-03        -0.96412E-03         0.00000E+00
    0.71935E-03        -0.88333E-03         0.00000E+00
    0.65719E-03        -0.80262E-03         0.00000E+00
    0.59439E-03        -0.72198E-03         0.00000E+00
    0.53095E-03        -0.64142E-03         0.00000E+00
    0.46687E-03        -0.56094E-03         0.00000E+00
    0.40215E-03        -0.48053E-03         0.00000E+00
    0.33677E-03        -0.40022E-03         0.00000E+00
    0.27074E-03        -0.31999E-03         0.00000E+00
    0.20405E-03        -0.23985E-03         0.00000E+00
    0.13670E-03        -0.15980E-03         0.00000E+00
    0.68683E-04        -0.79851E-04         0.00000E+00
    0.00000E+00         0.00000E+00         0.00000E+00
    0.27046E-02        -0.42685E-02         0.00000E+00
    0.26655E-02        -0.41818E-02         0.00000E+00
    0.26258E-02        -0.40951E-02         0.00000E+00
    0.25855E-02        -0.40086E-02         0.00000E+00
    0.25445E-02        -0.39220E-02         0.00000E+00
    0.25029E-02        -0.38356E-02         0.00000E+00
    0.24607E-02        -0.37492E-02         0.00000E+00
    0.24178E-02        -0.36628E-02         0.00000E+00
    0.23744E-02        -0.35765E-02         0.00000E+00
    0.23303E-02        -0.34903E-02         0.00000E+00
    0.22856E-02        -0.34041E-02         0.00000E+00
    0.22403E-02        -0.33180E-02         0.00000E+00
    0.21944E-02        -0.32319E-02         0.00000E+00
    0.21479E-02        -0.31459E-02         0.00000E+00
    0.21007E-02        -0.30599E-02         0.00000E+00
    0.20530E-02        -0.29740E-02         0.00000E+00
    0.20047E-02        -0.28882E-02         0.00000E+00
    0.19558E-02        -0.28023E-02         0.00000E+00
    0.19063E-02        -0.27166E-02         0.00000E+00
    0.18562E-02        -0.26308E-02         0.00000E+00
    0.18055E-02        -0.25452E-02         0.00000E+00
    0.17542E-02        -0.24595E-02         0.00000E+00
    0.17023E-02        -0.23740E-02         0.00000E+00
    0.16498E-02        -0.22884E-02         0.00000E+00
    0.15967E-02        -0.22030E-02         0.00000E+00
    0.15430E-02        -0.21175E-02         0.00000E+00
    0.14887E-02        -0.20321E-02         0.00000E+00
    0.14338E-02        -0.19468E-02         0.00000E+00
    0.13784E-02        -0.18615E-02         0.00000E+00
    0.13223E-02        -0.17763E-02         0.00000E+00
    0.12656E-02        -0.16911E-02         0.00000E+00
    0.12083E-02        -0.16059E-02         0.00000E+00
    0.11503E-02        -0.15209E-02         0.00000E+00
    0.10918E-02        -0.14358E-02         0.00000E+00
    0.10327E-02        -0.13508E-02         0.00000E+00
    0.97292E-03        -0.12659E-02         0.00000E+00
    0.91254E-03        -0.11811E-02         0.00000E+00
    0.85153E-03        -0.10963E-02         0.00000E+00
    0.78990E-03        -0.10115E-02         0.00000E+00
    0.72764E-03        -0.92682E-03         0.00000E+00
    0.66474E-03        -0.84219E-03         0.00000E+00
    0.60121E-03        -0.75764E-03         0.00000E+00
    0.53703E-03        -0.67315E-03         0.00000E+00
    0.47221E-03        -0.58873E-03         0.00000E+00
    0.40673E-03        -0.50439E-03         0.00000E+00
    0.34061E-03        -0.42012E-03         0.00000E+00
    0.27382E-03        -0.33592E-03         0.00000E+00
    0.20637E-03        -0.25181E-03         0.00000E+00
    0.13826E-03        -0.16779E-03         0.00000E+00
    0.69466E-04        -0.83848E-04         0.00000E+00
    0.00000E+00         0.00000E+00         0.00000E+00
    0.27474E-02        -0.44652E-02         0.00000E+00
    0.27071E-02        -0.43747E-02         0.00000E+00
    0.26661E-02        -0.42843E-02         0.00000E+00
    0.26246E-02        -0.41939E-02         0.00000E+00
    0.25824E-02        -0.41035E-02         0.00000E+00
    0.25396E-02        -0.40133E-02         0.00000E+00
    0.24962E-02        -0.39231E-02         0.00000E+00
    0.24522E-02        -0.38329E-02         0.00000E+00
    0.24077E-02        -0.37428E-02         0.00000E+00
    0.23625E-02        -0.36528E-02         0.00000E+00
    0.23167E-02        -0.35628E-02         0.00000E+00
    0.22704E-02        -0.34729E-02         0.00000E+00
    0.22234E-02        -0.33830E-02         0.00000E+00
    0.21759E-02        -0.32931E-02         0.00000E+00
    0.21278E-02        -0.32033E-02         0.00000E+00
    0.20791E-02        -0.31136E-02         0.00000E+00
    0.20299E-02        -0.30239E-02         0.00000E+00
    0.19800E-02        -0.29342E-02         0.00000E+00
    0.19296E-02        -0.28446E-02         0.00000E+00
    0.18786E-02        -0.27550E-02         0.00000E+00
    0.18271E-02        -0.26655E-02         0.00000E+00
    0.17749E-02        -0.25760E-02         0.00000E+00
    0.17222E-02        -0.24865E-02         0.00000E+00
    0.16689E-02        -0.23971E-02         0.00000E+00
    0.16150E-02        -0.23077E-02         0.00000E+00
    0.15605E-02        -0.22184E-02         0.00000E+00
    0.15054E-02        -0.21291E-02         0.00000E+00
    0.14498E-02        -0.20399E-02         0.00000E+00
    0.13936E-02        -0.19506E-02         0.00000E+00
    0.13367E-02        -0.18615E-02         0.00000E+00
    0.12793E-02        -0.17723E-02         0.00000E+00
    0.12213E-02        -0.16832E-02         0.00000E+00
    0.11627E-02        -0.15942E-02         0.00000E+00
    0.11034E-02        -0.15051E-02         0.00000E+00
    0.10436E-02        -0.14162E-02         0.00000E+00
    0.98315E-03        -0.13273E-02         0.00000E+00
    0.92208E-03        -0.12384E-02         0.00000E+00
    0.86040E-03        -0.11495E-02         0.00000E+00
    0.79809E-03        -0.10608E-02         0.00000E+00
    0.73515E-03        -0.97203E-03         0.00000E+00
    0.67159E-03        -0.88335E-03         0.00000E+00
    0.60738E-03        -0.79472E-03         0.00000E+00
    0.54253E-03        -0.70616E-03         0.00000E+00
    0.47703E-03        -0.61765E-03         0.00000E+00
    0.41088E-03        -0.52921E-03         0.00000E+00
    0.34408E-03        -0.44083E-03         0.00000E+00
    0.27661E-03        -0.35251E-03         0.00000E+00
    0.20847E-03        -0.26427E-03         0.00000E+00
    0.13966E-03        -0.17610E-03         0.00000E+00
    0.70174E-04        -0.88012E-04         0.00000E+00
    0.00000E+00         0.00000E+00         0.00000E+00
    0.27884E-02        -0.46686E-02         0.00000E+00
    0.27467E-02        -0.45741E-02         0.00000E+00
    0.27045E-02        -0.44798E-02         0.00000E+00
    0.26617E-02        -0.43855E-02         0.00000E+00
    0.26182E-02        -0.42912E-02         0.00000E+00
    0.25742E-02        -0.41971E-02         0.00000E+00
    0.25297E-02        -0.41029E-02         0.00000E+00
    0.24845E-02        -0.40089E-02         0.00000E+00
    0.24388E-02        -0.39149E-02         0.00000E+00
    0.23925E-02        -0.38209E-02         0.00000E+00
    0.23457E-02        -0.37270E-02         0.00000E+00
    0.22982E-02        -0.36332E-02         0.00000E+00
    0.22503E-02        -0.35394E-02         0.00000E+00
    0.22018E-02        -0.34456E-02         0.00000E+00
    0.21527E-02        -0.33519E-02         0.00000E+00
    0.21030E-02        -0.32582E-02         0.00000E+00
    0.20529E-02        -0.31645E-02         0.00000E+00
    0.20021E-02        -0.30709E-02         0.00000E+00
    0.19508E-02        -0.29773E-02         0.00000E+00
    0.18990E-02        -0.28838E-02         0.00000E+00
    0.18466E-02        -0.27903E-02         0.00000E+00
    0.17936E-02        -0.26968E-02         0.00000E+00
    0.17401E-02        -0.26033E-02         0.00000E+00
    0.16860E-02        -0.25099E-02         0.00000E+00
    0.16313E-02        -0.24165E-02         0.00000E+00
    0.15761E-02        -0.23231E-02         0.00000E+00
    0.15203E-02        -0.22298E-02         0.00000E+00
    0.14640E-02        -0.21365E-02         0.00000E+00
    0.14071E-02        -0.20432E-02         0.00000E+00
    0.13495E-02        -0.19500E-02         0.00000E+00
    0.12915E-02        -0.18567E-02         0.00000E+00
    0.12328E-02        -0.17635E-02         0.00000E+00
    0.11735E-02        -0.16704E-02         0.00000E+00
    0.11137E-02        -0.15772E-02         0.00000E+00
    0.10532E-02        -0.14841E-02         0.00000E+00
    0.99213E-03        -0.13910E-02         0.00000E+00
    0.93045E-03        -0.12980E-02         0.00000E+00
    0.86816E-03        -0.12050E-02         0.00000E+00
    0.80526E-03        -0.11120E-02         0.00000E+00
    0.74173E-03        -0.10191E-02         0.00000E+00
    0.67757E-03        -0.92619E-03         0.00000E+00
    0.61277E-03        -0.83334E-03         0.00000E+00
    0.54733E-03        -0.74054E-03         0.00000E+00
    0.48125E-03        -0.64778E-03         0.00000E+00
    0.41451E-03        -0.55507E-03         0.00000E+00
    0.34711E-03        -0.46241E-03         0.00000E+00
    0.27904E-03        -0.36980E-03         0.00000E+00
    0.21031E-03        -0.27726E-03         0.00000E+00
    0.14089E-03        -0.18477E-03         0.00000E+00
    0.70792E-04        -0.92353E-04         0.00000E+00
    0.00000E+00         0.00000E+00         0.00000E+00
    0.28270E-02        -0.48788E-02         0.00000E+00
    0.27840E-02        -0.47804E-02         0.00000E+00
    0.27404E-02        -0.46820E-02         0.00000E+00
    0.26962E-02        -0.45837E-02         0.00000E+00
    0.26515E-02        -0.44855E-02         0.00000E+00
    0.26062E-02        -0.43873E-02         0.00000E+00
    0.25604E-02        -0.42892E-02         0.00000E+00
    0.25140E-02        -0.41911E-02         0.00000E+00
    0.24672E-02        -0.40931E-02         0.00000E+00
    0.24197E-02        -0.39951E-02         0.00000E+00
    0.23718E-02        -0.38972E-02         0.00000E+00
    0.23233E-02        -0.37993E-02         0.00000E+00
    0.22743E-02        -0.37014E-02         0.00000E+00
    0.22248E-02        -0.36036E-02         0.00000E+00
    0.21748E-02        -0.35059E-02         0.00000E+00
    0.21242E-02        -0.34081E-02         0.00000E+00
    0.20731E-02        -0.33104E-02         0.00000E+00
    0.20215E-02        -0.32127E-02         0.00000E+00
    0.19694E-02        -0.31150E-02         0.00000E+00
    0.19167E-02        -0.30174E-02         0.00000E+00
    0.18635E-02        -0.29198E-02         0.00000E+00
    0.18098E-02        -0.28222E-02         0.00000E+00
    0.17555E-02        -0.27246E-02         0.00000E+00
    0.17007E-02        -0.26270E-02         0.00000E+00
    0.16454E-02        -0.25295E-02         0.00000E+00
    0.15895E-02        -0.24320E-02         0.00000E+00
    0.15330E-02        -0.23345E-02         0.00000E+00
    0.14760E-02        -0.22370E-02         0.00000E+00
    0.14185E-02        -0.21395E-02         0.00000E+00
    0.13604E-02        -0.20420E-02         0.00000E+00
    0.13017E-02        -0.19445E-02         0.00000E+00
    0.12424E-02        -0.18471E-02         0.00000E+00
    0.11826E-02        -0.17497E-02         0.00000E+00
    0.11222E-02        -0.16522E-02         0.00000E+00
    0.10612E-02        -0.15548E-02         0.00000E+00
    0.99962E-03        -0.14575E-02         0.00000E+00
    0.93742E-03        -0.13601E-02         0.00000E+00
    0.87463E-03        -0.12627E-02         0.00000E+00
    0.81122E-03        -0.11654E-02         0.00000E+00
    0.74719E-03        -0.10681E-02         0.00000E+00
    0.68253E-03        -0.97085E-03         0.00000E+00
    0.61724E-03        -0.87360E-03         0.00000E+00
    0.55131E-03        -0.77638E-03         0.00000E+00
    0.48474E-03        -0.67919E-03         0.00000E+00
    0.41751E-03        -0.58203E-03         0.00000E+00
    0.34962E-03        -0.48492E-03         0.00000E+00
    0.28106E-03        -0.38784E-03         0.00000E+00
    0.21183E-03        -0.29081E-03         0.00000E+00
    0.14191E-03        -0.19382E-03         0.00000E+00
    0.71306E-04        -0.96883E-04         0.00000E+00
    0.00000E+00         0.00000E+00         0.00000E+00
    0.28626E-02        -0.50964E-02         0.00000E+00
    0.28181E-02        -0.49939E-02         0.00000E+00
    0.27730E-02        -0.48914E-02         0.00000E+00
    0.27274E-02        -0.47890E-02         0.00000E+00
    0.26814E-02        -0.46866E-02         0.00000E+00
    0.26348E-02        -0.45843E-02         0.00000E+00
    0.25877E-02        -0.44821E-02         0.00000E+00
    0.25402E-02        -0.43799E-02         0.00000E+00
    0.24921E-02        -0.42777E-02         0.00000E+00
    0.24436E-02        -0.41756E-02         0.00000E+00
    0.23945E-02        -0.40736E-02         0.00000E+00
    0.23450E-02        -0.39716E-02         0.00000E+00
    0.22950E-02        -0.38696E-02         0.00000E+00
    0.22445E-02        -0.37676E-02         0.00000E+00
    0.21935E-02        -0.36657E-02         0.00000E+00
    0.21421E-02        -0.35637E-02         0.00000E+00
    0.20901E-02        -0.34618E-02         0.00000E+00
    0.20377E-02        -0.33600E-02         0.00000E+00
    0.19847E-02        -0.32581E-02         0.00000E+00
    0.19313E-02        -0.31562E-02         0.00000E+00
    0.18774E-02        -0.30544E-02         0.00000E+00
    0.18229E-02        -0.29525E-02         0.00000E+00
    0.17680E-02        -0.28507E-02         0.00000E+00
    0.17125E-02        -0.27489E-02         0.00000E+00
    0.16566E-02        -0.26470E-02         0.00000E+00
    0.16001E-02        -0.25452E-02         0.00000E+00
    0.15431E-02        -0.24433E-02         0.00000E+00
    0.14855E-02        -0.23415E-02         0.00000E+00
    0.14275E-02        -0.22397E-02         0.00000E+00
    0.13688E-02        -0.21378E-02         0.00000E+00
    0.13097E-02        -0.20360E-02         0.00000E+00
    0.12499E-02        -0.19341E-02         0.00000E+00
    0.11897E-02        -0.18323E-02         0.00000E+00
    0.11288E-02        -0.17304E-02         0.00000E+00
    0.10674E-02        -0.16285E-02         0.00000E+00
    0.10054E-02        -0.15267E-02         0.00000E+00
    0.94276E-03        -0.14248E-02         0.00000E+00
    0.87957E-03        -0.13230E-02         0.00000E+00
    0.81576E-03        -0.12211E-02         0.00000E+00
    0.75135E-03        -0.11193E-02         0.00000E+00
    0.68631E-03        -0.10174E-02         0.00000E+00
    0.62064E-03        -0.91560E-03         0.00000E+00
    0.55434E-03        -0.81378E-03         0.00000E+00
    0.48740E-03        -0.71197E-03         0.00000E+00
    0.41979E-03        -0.61019E-03         0.00000E+00
    0.35153E-03        -0.50842E-03         0.00000E+00
    0.28260E-03        -0.40667E-03         0.00000E+00
    0.21299E-03        -0.30496E-03         0.00000E+00
    0.14269E-03        -0.20327E-03         0.00000E+00
    0.71699E-04        -0.10162E-03         0.00000E+00
    0.00000E+00         0.00000E+00         0.00000E+00
    0.28943E-02        -0.53217E-02         0.00000E+00
    0.28482E-02        -0.52149E-02         0.00000E+00
    0.28016E-02        -0.51082E-02         0.00000E+00
    0.27546E-02        -0.50016E-02         0.00000E+00
    0.27071E-02        -0.48950E-02         0.00000E+00
    0.26592E-02        -0.47885E-02         0.00000E+00
    0.26109E-02        -0.46820E-02         0.00000E+00
    0.25621E-02        -0.45756E-02         0.00000E+00
    0.25129E-02        -0.44693E-02         0.00000E+00
    0.24632E-02        -0.43629E-02         0.00000E+00
    0.24131E-02        -0.42566E-02         0.00000E+00
    0.23625E-02        -0.41503E-02         0.00000E+00
    0.23115E-02        -0.40441E-02         0.00000E+00
    0.22601E-02        -0.39379E-02         0.00000E+00
    0.22082E-02        -0.38316E-02         0.00000E+00
    0.21559E-02        -0.37254E-02         0.00000E+00
    0.21032E-02        -0.36192E-02         0.00000E+00
    0.20499E-02        -0.35130E-02         0.00000E+00
    0.19963E-02        -0.34068E-02         0.00000E+00
    0.19422E-02        -0.33006E-02         0.00000E+00
    0.18876E-02        -0.31944E-02         0.00000E+00
    0.18325E-02        -0.30881E-02         0.00000E+00
    0.17770E-02        -0.29819E-02         0.00000E+00
    0.17210E-02        -0.28756E-02         0.00000E+00
    0.16645E-02        -0.27693E-02         0.00000E+00
    0.16075E-02        -0.26630E-02         0.00000E+00
    0.15500E-02        -0.25567E-02         0.00000E+00
    0.14921E-02        -0.24504E-02         0.00000E+00
    0.14336E-02        -0.23440E-02         0.00000E+00
    0.13746E-02        -0.22377E-02         0.00000E+00
    0.13150E-02        -0.21312E-02         0.00000E+00
    0.12549E-02        -0.20248E-02         0.00000E+00
    0.11943E-02        -0.19184E-02         0.00000E+00
    0.11331E-02        -0.18119E-02         0.00000E+00
    0.10714E-02        -0.17054E-02         0.00000E+00
    0.10091E-02        -0.15989E-02         0.00000E+00
    0.94622E-03        -0.14924E-02         0.00000E+00
    0.88275E-03        -0.13858E-02         0.00000E+00
    0.81869E-03        -0.12792E-02         0.00000E+00
    0.75402E-03        -0.11727E-02         0.00000E+00
    0.68873E-03        -0.10661E-02         0.00000E+00
    0.62282E-03        -0.95945E-03         0.00000E+00
    0.55628E-03        -0.85283E-03         0.00000E+00
    0.48910E-03        -0.74622E-03         0.00000E+00
    0.42126E-03        -0.63959E-03         0.00000E+00
    0.35276E-03        -0.53297E-03         0.00000E+00
    0.28359E-03        -0.42635E-03         0.00000E+00
    0.21374E-03        -0.31975E-03         0.00000E+00
    0.14320E-03        -0.21315E-03         0.00000E+00
    0.71955E-04        -0.10656E-03         0.00000E+00
    0.00000E+00         0.00000E+00         0.00000E+00
    0.29211E-02        -0.55551E-02         0.00000E+00
    0.28734E-02        -0.54440E-02         0.00000E+00
    0.28253E-02        -0.53329E-02         0.00000E+00
    0.27768E-02        -0.52220E-02         0.00000E+00
    0.27279E-02        -0.51111E-02         0.00000E+00
    0.26786E-02        -0.50003E-02         0.00000E+00
    0.26290E-02        -0.48895E-02         0.00000E+00
    0.25789E-02        -0.47787E-02         0.00000E+00
    0.25285E-02        -0.46680E-02         0.00000E+00
    0.24778E-02        -0.45573E-02         0.00000E+00
    0.24266E-02        -0.44467E-02         0.00000E+00
    0.23750E-02        -0.43360E-02         0.00000E+00
    0.23231E-02        -0.42254E-02         0.00000E+00
    0.22708E-02        -0.41147E-02         0.00000E+00
    0.22181E-02        -0.40041E-02         0.00000E+00
    0.21650E-02        -0.38935E-02         0.00000E+00
    0.21115E-02        -0.37828E-02         0.00000E+00
    0.20576E-02        -0.36722E-02         0.00000E+00
    0.20033E-02        -0.35615E-02         0.00000E+00
    0.19486E-02        -0.34508E-02         0.00000E+00
    0.18935E-02        -0.33400E-02         0.00000E+00
    0.18379E-02        -0.32293E-02         0.00000E+00
    0.17819E-02        -0.31185E-02         0.00000E+00
    0.17255E-02        -0.30076E-02         0.00000E+00
    0.16686E-02        -0.28968E-02         0.00000E+00
    0.16112E-02        -0.27858E-02         0.00000E+00
    0.15534E-02        -0.26749E-02         0.00000E+00
    0.14951E-02        -0.25639E-02         0.00000E+00
    0.14364E-02        -0.24528E-02         0.00000E+00
    0.13771E-02        -0.23418E-02         0.00000E+00
    0.13173E-02        -0.22306E-02         0.00000E+00
    0.12570E-02        -0.21194E-02         0.00000E+00
    0.11962E-02        -0.20082E-02         0.00000E+00
    0.11349E-02        -0.18969E-02         0.00000E+00
    0.10730E-02        -0.17856E-02         0.00000E+00
    0.10105E-02        -0.16743E-02         0.00000E+00
    0.94752E-03        -0.15629E-02         0.00000E+00
    0.88394E-03        -0.14514E-02         0.00000E+00
    0.81976E-03        -0.13399E-02         0.00000E+00
    0.75499E-03        -0.12284E-02         0.00000E+00
    0.68962E-03        -0.11169E-02         0.00000E+00
    0.62362E-03        -0.10053E-02         0.00000E+00
    0.55699E-03        -0.89365E-03         0.00000E+00
    0.48973E-03        -0.78200E-03         0.00000E+00
    0.42181E-03        -0.67033E-03         0.00000E+00
    0.35323E-03        -0.55864E-03         0.00000E+00
    0.28397E-03        -0.44693E-03         0.00000E+00
    0.21403E-03        -0.33521E-03         0.00000E+00
    0.14340E-03        -0.22348E-03         0.00000E+00
    0.72058E-04        -0.11174E-03         0.00000E+00
    0.00000E+00         0.00000E+00         0.00000E+00
    0.29419E-02        -0.57969E-02         0.00000E+00
    0.28925E-02        -0.56814E-02         0.00000E+00
    0.28428E-02        -0.55659E-02         0.00000E+00
    0.27928E-02        -0.54505E-02         0.00000E+00
    0.27425E-02        -0.53352E-02         0.00000E+00
    0.26919E-02        -0.52199E-02         0.00000E+00
    0.26409E-02        -0.51047E-02         0.00000E+00
    0.25897E-02        -0.49895E-02         0.00000E+00
    0.25381E-02        -0.48743E-02         0.00000E+00
    0.24863E-02        -0.47592E-02         0.00000E+00
    0.24341E-02        -0.46441E-02         0.00000E+00
    0.23816E-02        -0.45289E-02         0.00000E+00
    0.23288E-02        -0.44138E-02         0.00000E+00
    0.22757E-02        -0.42986E-02         0.00000E+00
    0.22223E-02        -0.41834E-02         0.00000E+00
    0.21685E-02        -0.40682E-02         0.00000E+00
    0.21144E-02        -0.39530E-02         0.00000E+00
    0.20599E-02        -0.38378E-02         0.00000E+00
    0.20051E-02        -0.37224E-02         0.00000E+00
    0.19499E-02        -0.36071E-02         0.00000E+00
    0.18944E-02        -0.34917E-02         0.00000E+00
    0.18384E-02        -0.33762E-02         0.00000E+00
    0.17821E-02        -0.32607E-02         0.00000E+00
    0.17254E-02        -0.31452E-02         0.00000E+00
    0.16682E-02        -0.30295E-02         0.00000E+00
    0.16107E-02        -0.29138E-02         0.00000E+00
    0.15527E-02        -0.27981E-02         0.00000E+00
    0.14942E-02        -0.26822E-02         0.00000E+00
    0.14353E-02        -0.25663E-02         0.00000E+00
    0.13760E-02        -0.24504E-02         0.00000E+00
    0.13161E-02        -0.23343E-02         0.00000E+00
    0.12558E-02        -0.22182E-02         0.00000E+00
    0.11950E-02        -0.21020E-02         0.00000E+00
    0.11336E-02        -0.19857E-02         0.00000E+00
    0.10718E-02        -0.18694E-02         0.00000E+00
    0.10094E-02        -0.17530E-02         0.00000E+00
    0.94640E-03        -0.16365E-02         0.00000E+00
    0.88287E-03        -0.15200E-02         0.00000E+00
    0.81877E-03        -0.14034E-02         0.00000E+00
    0.75407E-03        -0.12867E-02         0.00000E+00
    0.68878E-03        -0.11700E-02         0.00000E+00
    0.62287E-03        -0.10532E-02         0.00000E+00
    0.55633E-03        -0.93632E-03         0.00000E+00
    0.48915E-03        -0.81942E-03         0.00000E+00
    0.42133E-03        -0.70248E-03         0.00000E+00
    0.35283E-03        -0.58549E-03         0.00000E+00
    0.28367E-03        -0.46845E-03         0.00000E+00
    0.21381E-03        -0.35138E-03         0.00000E+00
    0.14326E-03        -0.23428E-03         0.00000E+00
    0.71991E-04        -0.11715E-03         0.00000E+00
    0.00000E+00         0.00000E+00         0.00000E+00
    0.29556E-02        -0.60475E-02         0.00000E+00
    0.29044E-02        -0.59274E-02         0.00000E+00
    0.28531E-02        -0.58074E-02         0.00000E+00
    0.28015E-02        -0.56875E-02         0.00000E+00
    0.27497E-02        -0.55677E-02         0.00000E+00
    0.26978E-02        -0.54479E-02         0.00000E+00
    0.26456E-02        -0.53281E-02         0.00000E+00
    0.25931E-02        -0.52083E-02         0.00000E+00
    0.25405E-02        -0.50886E-02         0.00000E+00
    0.24876E-02        -0.49689E-02         0.00000E+00
    0.24345E-02        -0.48491E-02         0.00000E+00
    0.23812E-02        -0.47294E-02         0.00000E+00
    0.23276E-02        -0.46096E-02         0.00000E+00
    0.22738E-02        -0.44898E-02         0.00000E+00
    0.22198E-02        -0.43699E-02         0.00000E+00
    0.21654E-02        -0.42501E-02         0.00000E+00
    0.21108E-02        -0.41301E-02         0.00000E+00
    0.20559E-02        -0.40101E-02         0.00000E+00
    0.20007E-02        -0.38900E-02         0.00000E+00
    0.19452E-02        -0.37699E-02         0.00000E+00
    0.18894E-02        -0.36497E-02         0.00000E+00
    0.18333E-02        -0.35294E-02         0.00000E+00
    0.17768E-02        -0.34090E-02         0.00000E+00
    0.17200E-02        -0.32885E-02         0.00000E+00
    0.16628E-02        -0.31680E-02         0.00000E+00
    0.16052E-02        -0.30473E-02         0.00000E+00
    0.15472E-02        -0.29266E-02         0.00000E+00
    0.14888E-02        -0.28057E-02         0.00000E+00
    0.14300E-02        -0.26847E-02         0.00000E+00
    0.13708E-02        -0.25637E-02         0.00000E+00
    0.13111E-02        -0.24425E-02         0.00000E+00
    0.12509E-02        -0.23213E-02         0.00000E+00
    0.11902E-02        -0.21999E-02         0.00000E+00
    0.11291E-02        -0.20784E-02         0.00000E+00
    0.10674E-02        -0.19569E-02         0.00000E+00
    0.10053E-02        -0.18352E-02         0.00000E+00
    0.94256E-03        -0.17135E-02         0.00000E+00
    0.87929E-03        -0.15916E-02         0.00000E+00
    0.81545E-03        -0.14696E-02         0.00000E+00
    0.75104E-03        -0.13476E-02         0.00000E+00
    0.68602E-03        -0.12255E-02         0.00000E+00
    0.62040E-03        -0.11032E-02         0.00000E+00
    0.55415E-03        -0.98093E-03         0.00000E+00
    0.48726E-03        -0.85855E-03         0.00000E+00
    0.41972E-03        -0.73609E-03         0.00000E+00
    0.35151E-03        -0.61356E-03         0.00000E+00
    0.28262E-03        -0.49096E-03         0.00000E+00
    0.21304E-03        -0.36830E-03         0.00000E+00
    0.14275E-03        -0.24559E-03         0.00000E+00
    0.71742E-04        -0.12282E-03         0.00000E+00
    0.00000E+00         0.00000E+00         0.00000E+00
    0.29605E-02        -0.63071E-02         0.00000E+00
    0.29076E-02        -0.61825E-02         0.00000E+00
    0.28546E-02        -0.60579E-02         0.00000E+00
    0.28014E-02        -0.59333E-02         0.00000E+00
    0.27482E-02        -0.58088E-02         0.00000E+00
    0.26949E-02        -0.56844E-02         0.00000E+00
    0.26415E-02        -0.55599E-02         0.00000E+00
    0.25880E-02        -0.54355E-02         0.00000E+00
    0.25343E-02        -0.53111E-02         0.00000E+00
    0.24806E-02        -0.51866E-02         0.00000E+00
    0.24266E-02        -0.50622E-02         0.00000E+00
    0.23726E-02        -0.49377E-02         0.00000E+00
    0.23184E-02        -0.48132E-02         0.00000E+00
    0.22640E-02        -0.46886E-02         0.00000E+00
    0.22095E-02        -0.45639E-02         0.00000E+00
    0.21548E-02        -0.44392E-02         0.00000E+00
    0.20998E-02        -0.43144E-02         0.00000E+00
    0.20447E-02        -0.41895E-02         0.00000E+00
    0.19893E-02        -0.40645E-02         0.00000E+00
    0.19337E-02        -0.39394E-02         0.00000E+00
    0.18779E-02        -0.38142E-02         0.00000E+00
    0.18217E-02        -0.36889E-02         0.00000E+00
    0.17653E-02        -0.35635E-02         0.00000E+00
    0.17086E-02        -0.34379E-02         0.00000E+00
    0.16515E-02        -0.33122E-02         0.00000E+00
    0.15941E-02        -0.31864E-02         0.00000E+00
    0.15364E-02        -0.30605E-02         0.00000E+00
    0.14783E-02        -0.29345E-02         0.00000E+00
    0.14198E-02        -0.28083E-02         0.00000E+00
    0.13609E-02        -0.26819E-02         0.00000E+00
    0.13015E-02        -0.25555E-02         0.00000E+00
    0.12418E-02        -0.24289E-02         0.00000E+00
    0.11815E-02        -0.23021E-02         0.00000E+00
    0.11208E-02        -0.21752E-02         0.00000E+00
    0.10596E-02        -0.20482E-02         0.00000E+00
    0.99794E-03        -0.19211E-02         0.00000E+00
    0.93570E-03        -0.17938E-02         0.00000E+00
    0.87293E-03        -0.16664E-02         0.00000E+00
    0.80959E-03        -0.15389E-02         0.00000E+00
    0.74568E-03        -0.14112E-02         0.00000E+00
    0.68117E-03        -0.12834E-02         0.00000E+00
    0.61605E-03        -0.11556E-02         0.00000E+00
    0.55031E-03        -0.10275E-02         0.00000E+00
    0.48393E-03        -0.89944E-03         0.00000E+00
    0.41688E-03        -0.77122E-03         0.00000E+00
    0.34917E-03        -0.64290E-03         0.00000E+00
    0.28077E-03        -0.51449E-03         0.00000E+00
    0.21166E-03        -0.38599E-03         0.00000E+00
    0.14185E-03        -0.25740E-03         0.00000E+00
    0.71295E-04        -0.12874E-03         0.00000E+00
    0.00000E+00         0.00000E+00         0.00000E+00
    0.29549E-02        -0.65761E-02         0.00000E+00
    0.29002E-02        -0.64466E-02         0.00000E+00
    0.28456E-02        -0.63173E-02         0.00000E+00
    0.27909E-02        -0.61880E-02         0.00000E+00
    0.27363E-02        -0.60588E-02         0.00000E+00
    0.26818E-02        -0.59296E-02         0.00000E+00
    0.26272E-02        -0.58004E-02         0.00000E+00
    0.25727E-02        -0.56712E-02         0.00000E+00
    0.25182E-02        -0.55420E-02         0.00000E+00
    0.24636E-02        -0.54127E-02         0.00000E+00
    0.24090E-02        -0.52834E-02         0.00000E+00
    0.23544E-02        -0.51540E-02         0.00000E+00
    0.22998E-02        -0.50246E-02         0.00000E+00
    0.22450E-02        -0.48951E-02         0.00000E+00
    0.21902E-02        -0.47655E-02         0.00000E+00
    0.21353E-02        -0.46358E-02         0.00000E+00
    0.20803E-02        -0.45060E-02         0.00000E+00
    0.20251E-02        -0.43760E-02         0.00000E+00
    0.19698E-02        -0.42460E-02         0.00000E+00
    0.19143E-02        -0.41158E-02         0.00000E+00
    0.18587E-02        -0.39854E-02         0.00000E+00
    0.18028E-02        -0.38549E-02         0.00000E+00
    0.17467E-02        -0.37243E-02         0.00000E+00
    0.16903E-02        -0.35935E-02         0.00000E+00
    0.16337E-02        -0.34625E-02         0.00000E+00
    0.15768E-02        -0.33314E-02         0.00000E+00
    0.15195E-02        -0.32001E-02         0.00000E+00
    0.14620E-02        -0.30686E-02         0.00000E+00
    0.14041E-02        -0.29370E-02         0.00000E+00
    0.13458E-02        -0.28052E-02         0.00000E+00
    0.12871E-02        -0.26732E-02         0.00000E+00
    0.12280E-02        -0.25410E-02         0.00000E+00
    0.11684E-02        -0.24087E-02         0.00000E+00
    0.11085E-02        -0.22762E-02         0.00000E+00
    0.10480E-02        -0.21435E-02         0.00000E+00
    0.98702E-03        -0.20107E-02         0.00000E+00
    0.92553E-03        -0.18777E-02         0.00000E+00
    0.86351E-03        -0.17445E-02         0.00000E+00
    0.80093E-03        -0.16111E-02         0.00000E+00
    0.73778E-03        -0.14776E-02         0.00000E+00
    0.67403E-03        -0.13440E-02         0.00000E+00
    0.60967E-03        -0.12102E-02         0.00000E+00
    0.54468E-03        -0.10762E-02         0.00000E+00
    0.47904E-03        -0.94213E-03         0.00000E+00
    0.41273E-03        -0.80790E-03         0.00000E+00
    0.34574E-03        -0.67354E-03         0.00000E+00
    0.27805E-03        -0.53906E-03         0.00000E+00
    0.20965E-03        -0.40446E-03         0.00000E+00
    0.14052E-03        -0.26974E-03         0.00000E+00
    0.70639E-04        -0.13492E-03         0.00000E+00
    0.00000E+00         0.00000E+00         0.00000E+00
    0.29369E-02        -0.68542E-02         0.00000E+00
    0.28804E-02        -0.67200E-02         0.00000E+00
    0.28241E-02        -0.65859E-02         0.00000E+00
    0.27681E-02        -0.64518E-02         0.00000E+00
    0.27122E-02        -0.63177E-02         0.00000E+00
    0.26565E-02        -0.61836E-02         0.00000E+00
    0.26010E-02        -0.60496E-02         0.00000E+00
    0.25456E-02        -0.59155E-02         0.00000E+00
    0.24903E-02        -0.57813E-02         0.00000E+00
    0.24352E-02        -0.56471E-02         0.00000E+00
    0.23801E-02        -0.55129E-02         0.00000E+00
    0.23252E-02        -0.53785E-02         0.00000E+00
    0.22703E-02        -0.52441E-02         0.00000E+00
    0.22154E-02        -0.51095E-02         0.00000E+00
    0.21606E-02        -0.49748E-02         0.00000E+00
    0.21058E-02        -0.48400E-02         0.00000E+00
    0.20509E-02        -0.47050E-02         0.00000E+00
    0.19960E-02        -0.45698E-02         0.00000E+00
    0.19411E-02        -0.44345E-02         0.00000E+00
    0.18860E-02        -0.42991E-02         0.00000E+00
    0.18308E-02        -0.41634E-02         0.00000E+00
    0.17755E-02        -0.40276E-02         0.00000E+00
    0.17200E-02        -0.38915E-02         0.00000E+00
    0.16643E-02        -0.37553E-02         0.00000E+00
    0.16085E-02        -0.36189E-02         0.00000E+00
    0.15523E-02        -0.34822E-02         0.00000E+00
    0.14959E-02        -0.33454E-02         0.00000E+00
    0.14392E-02        -0.32083E-02         0.00000E+00
    0.13822E-02        -0.30710E-02         0.00000E+00
    0.13249E-02        -0.29335E-02         0.00000E+00
    0.12671E-02        -0.27958E-02         0.00000E+00
    0.12090E-02        -0.26579E-02         0.00000E+00
    0.11505E-02        -0.25197E-02         0.00000E+00
    0.10915E-02        -0.23814E-02         0.00000E+00
    0.10321E-02        -0.22428E-02         0.00000E+00
    0.97217E-03        -0.21040E-02         0.00000E+00
    0.91173E-03        -0.19650E-02         0.00000E+00
    0.85076E-03        -0.18258E-02         0.00000E+00
    0.78923E-03        -0.16864E-02         0.00000E+00
    0.72712E-03        -0.15468E-02         0.00000E+00
    0.66441E-03        -0.14071E-02         0.00000E+00
    0.60108E-03        -0.12671E-02         0.00000E+00
    0.53711E-03        -0.11270E-02         0.00000E+00
    0.47248E-03        -0.98663E-03         0.00000E+00
    0.40717E-03        -0.84614E-03         0.00000E+00
    0.34116E-03        -0.70549E-03         0.00000E+00
    0.27443E-03        -0.56468E-03         0.00000E+00
    0.20696E-03        -0.42371E-03         0.00000E+00
    0.13875E-03        -0.28261E-03         0.00000E+00
    0.69765E-04        -0.14137E-03         0.00000E+00
    0.00000E+00         0.00000E+00         0.00000E+00
    0.29040E-02        -0.71416E-02         0.00000E+00
    0.28458E-02        -0.70024E-02         0.00000E+00
    0.27881E-02        -0.68634E-02         0.00000E+00
    0.27307E-02        -0.67244E-02         0.00000E+00
    0.26737E-02        -0.65853E-02         0.00000E+00
    0.26170E-02        -0.64463E-02         0.00000E+00
    0.25607E-02        -0.63073E-02         0.00000E+00
    0.25047E-02        -0.61682E-02         0.00000E+00
    0.24489E-02        -0.60290E-02         0.00000E+00
    0.23934E-02        -0.58898E-02         0.00000E+00
    0.23382E-02        -0.57504E-02         0.00000E+00
    0.22832E-02        -0.56109E-02         0.00000E+00
    0.22283E-02        -0.54713E-02         0.00000E+00
    0.21737E-02        -0.53316E-02         0.00000E+00
    0.21191E-02        -0.51916E-02         0.00000E+00
    0.20647E-02        -0.50515E-02         0.00000E+00
    0.20104E-02        -0.49113E-02         0.00000E+00
    0.19561E-02        -0.47708E-02         0.00000E+00
    0.19018E-02        -0.46301E-02         0.00000E+00
    0.18475E-02        -0.44892E-02         0.00000E+00
    0.17932E-02        -0.43480E-02         0.00000E+00
    0.17388E-02        -0.42067E-02         0.00000E+00
    0.16843E-02        -0.40651E-02         0.00000E+00
    0.16297E-02        -0.39232E-02         0.00000E+00
    0.15749E-02        -0.37811E-02         0.00000E+00
    0.15199E-02        -0.36387E-02         0.00000E+00
    0.14647E-02        -0.34961E-02         0.00000E+00
    0.14093E-02        -0.33533E-02         0.00000E+00
    0.13536E-02        -0.32101E-02         0.00000E+00
    0.12975E-02        -0.30668E-02         0.00000E+00
    0.12411E-02        -0.29231E-02         0.00000E+00
    0.11844E-02        -0.27792E-02         0.00000E+00
    0.11272E-02        -0.26350E-02         0.00000E+00
    0.10696E-02        -0.24906E-02         0.00000E+00
    0.10115E-02        -0.23459E-02         0.00000E+00
    0.95301E-03        -0.22010E-02         0.00000E+00
    0.89396E-03        -0.20558E-02         0.00000E+00
    0.83437E-03        -0.19104E-02         0.00000E+00
    0.77422E-03        -0.17647E-02         0.00000E+00
    0.71348E-03        -0.16188E-02         0.00000E+00
    0.65213E-03        -0.14727E-02         0.00000E+00
    0.59014E-03        -0.13263E-02         0.00000E+00
    0.52748E-03        -0.11797E-02         0.00000E+00
    0.46415E-03        -0.10329E-02         0.00000E+00
    0.40011E-03        -0.88590E-03         0.00000E+00
    0.33535E-03        -0.73870E-03         0.00000E+00
    0.26984E-03        -0.59131E-03         0.00000E+00
    0.20357E-03        -0.44374E-03         0.00000E+00
    0.13651E-03        -0.29599E-03         0.00000E+00
    0.68664E-04        -0.14807E-03         0.00000E+00
    0.00000E+00         0.00000E+00         0.00000E+00
    0.28537E-02        -0.74376E-02         0.00000E+00
    0.27940E-02        -0.72935E-02         0.00000E+00
    0.27349E-02        -0.71494E-02         0.00000E+00
    0.26764E-02        -0.70054E-02         0.00000E+00
    0.26184E-02        -0.68614E-02         0.00000E+00
    0.25610E-02        -0.67173E-02         0.00000E+00
    0.25042E-02        -0.65732E-02         0.00000E+00
    0.24478E-02        -0.64290E-02         0.00000E+00
    0.23919E-02        -0.62847E-02         0.00000E+00
    0.23364E-02        -0.61402E-02         0.00000E+00
    0.22813E-02        -0.59957E-02         0.00000E+00
    0.22266E-02        -0.58509E-02         0.00000E+00
    0.21722E-02        -0.57061E-02         0.00000E+00
    0.21180E-02        -0.55610E-02         0.00000E+00
    0.20642E-02        -0.54157E-02         0.00000E+00
    0.20106E-02        -0.52702E-02         0.00000E+00
    0.19572E-02        -0.51244E-02         0.00000E+00
    0.19039E-02        -0.49784E-02         0.00000E+00
    0.18507E-02        -0.48322E-02         0.00000E+00
    0.17976E-02        -0.46857E-02         0.00000E+00
    0.17446E-02        -0.45389E-02         0.00000E+00
    0.16916E-02        -0.43918E-02         0.00000E+00
    0.16385E-02        -0.42445E-02         0.00000E+00
    0.15854E-02        -0.40968E-02         0.00000E+00
    0.15321E-02        -0.39489E-02         0.00000E+00
    0.14787E-02        -0.38007E-02         0.00000E+00
    0.14252E-02        -0.36521E-02         0.00000E+00
    0.13714E-02        -0.35033E-02         0.00000E+00
    0.13174E-02        -0.33541E-02         0.00000E+00
    0.12630E-02        -0.32047E-02         0.00000E+00
    0.12084E-02        -0.30549E-02         0.00000E+00
    0.11534E-02        -0.29048E-02         0.00000E+00
    0.10980E-02        -0.27544E-02         0.00000E+00
    0.10422E-02        -0.26037E-02         0.00000E+00
    0.98591E-03        -0.24527E-02         0.00000E+00
    0.92915E-03        -0.23014E-02         0.00000E+00
    0.87187E-03        -0.21498E-02         0.00000E+00
    0.81404E-03        -0.19979E-02         0.00000E+00
    0.75563E-03        -0.18458E-02         0.00000E+00
    0.69661E-03        -0.16933E-02         0.00000E+00
    0.63696E-03        -0.15406E-02         0.00000E+00
    0.57665E-03        -0.13876E-02         0.00000E+00
    0.51564E-03        -0.12343E-02         0.00000E+00
    0.45392E-03        -0.10808E-02         0.00000E+00
    0.39146E-03        -0.92709E-03         0.00000E+00
    0.32824E-03        -0.77311E-03         0.00000E+00
    0.26424E-03        -0.61891E-03         0.00000E+00
    0.19943E-03        -0.46448E-03         0.00000E+00
    0.13380E-03        -0.30985E-03         0.00000E+00
    0.67330E-04        -0.15502E-03         0.00000E+00
    0.00000E+00         0.00000E+00         0.00000E+00
    0.27828E-02        -0.77415E-02         0.00000E+00
    0.27217E-02        -0.75923E-02         0.00000E+00
    0.26616E-02        -0.74432E-02         0.00000E+00
    0.26022E-02        -0.72941E-02         0.00000E+00
    0.25437E-02        -0.71449E-02         0.00000E+00
    0.24859E-02        -0.69957E-02         0.00000E+00
    0.24289E-02        -0.68464E-02         0.00000E+00
    0.23726E-02        -0.66970E-02         0.00000E+00
    0.23169E-02        -0.65474E-02         0.00000E+00
    0.22618E-02        -0.63977E-02         0.00000E+00
    0.22072E-02        -0.62478E-02         0.00000E+00
    0.21533E-02        -0.60977E-02         0.00000E+00
    0.20997E-02        -0.59474E-02         0.00000E+00
    0.20467E-02        -0.57969E-02         0.00000E+00
    0.19940E-02        -0.56461E-02         0.00000E+00
    0.19417E-02        -0.54950E-02         0.00000E+00
    0.18896E-02        -0.53437E-02         0.00000E+00
    0.18379E-02        -0.51920E-02         0.00000E+00
    0.17863E-02        -0.50401E-02         0.00000E+00
    0.17349E-02        -0.48878E-02         0.00000E+00
    0.16837E-02        -0.47353E-02         0.00000E+00
    0.16325E-02        -0.45824E-02         0.00000E+00
    0.15814E-02        -0.44291E-02         0.00000E+00
    0.15302E-02        -0.42755E-02         0.00000E+00
    0.14790E-02        -0.41216E-02         0.00000E+00
    0.14277E-02        -0.39673E-02         0.00000E+00
    0.13762E-02        -0.38127E-02         0.00000E+00
    0.13246E-02        -0.36577E-02         0.00000E+00
    0.12728E-02        -0.35023E-02         0.00000E+00
    0.12206E-02        -0.33466E-02         0.00000E+00
    0.11682E-02        -0.31905E-02         0.00000E+00
    0.11155E-02        -0.30341E-02         0.00000E+00
    0.10623E-02        -0.28773E-02         0.00000E+00
    0.10087E-02        -0.27202E-02         0.00000E+00
    0.95467E-03        -0.25627E-02         0.00000E+00
    0.90012E-03        -0.24048E-02         0.00000E+00
    0.84504E-03        -0.22466E-02         0.00000E+00
    0.78939E-03        -0.20881E-02         0.00000E+00
    0.73313E-03        -0.19293E-02         0.00000E+00
    0.67624E-03        -0.17701E-02         0.00000E+00
    0.61867E-03        -0.16106E-02         0.00000E+00
    0.56041E-03        -0.14508E-02         0.00000E+00
    0.50141E-03        -0.12906E-02         0.00000E+00
    0.44165E-03        -0.11302E-02         0.00000E+00
    0.38111E-03        -0.96955E-03         0.00000E+00
    0.31976E-03        -0.80859E-03         0.00000E+00
    0.25757E-03        -0.64735E-03         0.00000E+00
    0.19452E-03        -0.48587E-03         0.00000E+00
    0.13058E-03        -0.32414E-03         0.00000E+00
    0.65752E-04        -0.16218E-03         0.00000E+00
    0.00000E+00         0.00000E+00         0.00000E+00
    0.26879E-02        -0.80519E-02         0.00000E+00
    0.26259E-02        -0.78976E-02         0.00000E+00
    0.25650E-02        -0.77433E-02         0.00000E+00
    0.25053E-02        -0.75890E-02         0.00000E+00
    0.24466E-02        -0.74347E-02         0.00000E+00
    0.23889E-02        -0.72802E-02         0.00000E+00
    0.23321E-02        -0.71257E-02         0.00000E+00
    0.22763E-02        -0.69710E-02         0.00000E+00
    0.22213E-02        -0.68161E-02         0.00000E+00
    0.21672E-02        -0.66609E-02         0.00000E+00
    0.21138E-02        -0.65056E-02         0.00000E+00
    0.20611E-02        -0.63500E-02         0.00000E+00
    0.20090E-02        -0.61942E-02         0.00000E+00
    0.19575E-02        -0.60381E-02         0.00000E+00
    0.19066E-02        -0.58816E-02         0.00000E+00
    0.18561E-02        -0.57249E-02         0.00000E+00
    0.18060E-02        -0.55678E-02         0.00000E+00
    0.17564E-02        -0.54104E-02         0.00000E+00
    0.17070E-02        -0.52526E-02         0.00000E+00
    0.16579E-02        -0.50945E-02         0.00000E+00
    0.16090E-02        -0.49360E-02         0.00000E+00
    0.15602E-02        -0.47771E-02         0.00000E+00
    0.15116E-02        -0.46178E-02         0.00000E+00
    0.14630E-02        -0.44581E-02         0.00000E+00
    0.14144E-02        -0.42981E-02         0.00000E+00
    0.13657E-02        -0.41376E-02         0.00000E+00
    0.13169E-02        -0.39767E-02         0.00000E+00
    0.12680E-02        -0.38154E-02         0.00000E+00
    0.12189E-02        -0.36537E-02         0.00000E+00
    0.11695E-02        -0.34916E-02         0.00000E+00
    0.11198E-02        -0.33291E-02         0.00000E+00
    0.10698E-02        -0.31662E-02         0.00000E+00
    0.10194E-02        -0.30029E-02         0.00000E+00
    0.96855E-03        -0.28392E-02         0.00000E+00
    0.91722E-03        -0.26751E-02         0.00000E+00
    0.86538E-03        -0.25105E-02         0.00000E+00
    0.81297E-03        -0.23456E-02         0.00000E+00
    0.75996E-03        -0.21803E-02         0.00000E+00
    0.70632E-03        -0.20146E-02         0.00000E+00
    0.65199E-03        -0.18486E-02         0.00000E+00
    0.59694E-03        -0.16822E-02         0.00000E+00
    0.54115E-03        -0.15154E-02         0.00000E+00
    0.48456E-03        -0.13483E-02         0.00000E+00
    0.42716E-03        -0.11808E-02         0.00000E+00
    0.36891E-03        -0.10130E-02         0.00000E+00
    0.30978E-03        -0.84491E-03         0.00000E+00
    0.24974E-03        -0.67649E-03         0.00000E+00
    0.18876E-03        -0.50777E-03         0.00000E+00
    0.12683E-03        -0.33878E-03         0.00000E+00
    0.63916E-04        -0.16952E-03         0.00000E+00
    0.00000E+00         0.00000E+00         0.00000E+00
    0.25652E-02        -0.83668E-02         0.00000E+00
    0.25027E-02        -0.82074E-02         0.00000E+00
    0.24417E-02        -0.80479E-02         0.00000E+00
    0.23820E-02        -0.78884E-02         0.00000E+00
    0.23237E-02        -0.77287E-02         0.00000E+00
    0.22667E-02        -0.75690E-02         0.00000E+00
    0.22109E-02        -0.74090E-02         0.00000E+00
    0.21562E-02        -0.72489E-02         0.00000E+00
    0.21026E-02        -0.70886E-02         0.00000E+00
    0.20500E-02        -0.69279E-02         0.00000E+00
    0.19984E-02        -0.67671E-02         0.00000E+00
    0.19476E-02        -0.66059E-02         0.00000E+00
    0.18977E-02        -0.64444E-02         0.00000E+00
    0.18484E-02        -0.62825E-02         0.00000E+00
    0.17999E-02        -0.61204E-02         0.00000E+00
    0.17519E-02        -0.59578E-02         0.00000E+00
    0.17045E-02        -0.57949E-02         0.00000E+00
    0.16576E-02        -0.56316E-02         0.00000E+00
    0.16111E-02        -0.54678E-02         0.00000E+00
    0.15649E-02        -0.53037E-02         0.00000E+00
    0.15190E-02        -0.51391E-02         0.00000E+00
    0.14733E-02        -0.49742E-02         0.00000E+00
    0.14278E-02        -0.48087E-02         0.00000E+00
    0.13823E-02        -0.46429E-02         0.00000E+00
    0.13370E-02        -0.44766E-02         0.00000E+00
    0.12915E-02        -0.43099E-02         0.00000E+00
    0.12461E-02        -0.41427E-02         0.00000E+00
    0.12004E-02        -0.39750E-02         0.00000E+00
    0.11546E-02        -0.38069E-02         0.00000E+00
    0.11086E-02        -0.36384E-02         0.00000E+00
    0.10622E-02        -0.34694E-02         0.00000E+00
    0.10155E-02        -0.32999E-02         0.00000E+00
    0.96842E-03        -0.31300E-02         0.00000E+00
    0.92086E-03        -0.29596E-02         0.00000E+00
    0.87281E-03        -0.27888E-02         0.00000E+00
    0.82421E-03        -0.26175E-02         0.00000E+00
    0.77501E-03        -0.24458E-02         0.00000E+00
    0.72516E-03        -0.22737E-02         0.00000E+00
    0.67463E-03        -0.21011E-02         0.00000E+00
    0.62337E-03        -0.19281E-02         0.00000E+00
    0.57133E-03        -0.17547E-02         0.00000E+00
    0.51847E-03        -0.15809E-02         0.00000E+00
    0.46476E-03        -0.14067E-02         0.00000E+00
    0.41015E-03        -0.12321E-02         0.00000E+00
    0.35461E-03        -0.10571E-02         0.00000E+00
    0.29811E-03        -0.88177E-03         0.00000E+00
    0.24060E-03        -0.70606E-03         0.00000E+00
    0.18207E-03        -0.53002E-03         0.00000E+00
    0.12247E-03        -0.35365E-03         0.00000E+00
    0.61793E-04        -0.17697E-03         0.00000E+00
    0.00000E+00         0.00000E+00         0.00000E+00
    0.24104E-02        -0.86835E-02         0.00000E+00
    0.23481E-02        -0.85188E-02         0.00000E+00
    0.22875E-02        -0.83541E-02         0.00000E+00
    0.22287E-02        -0.81892E-02         0.00000E+00
    0.21716E-02        -0.80242E-02         0.00000E+00
    0.21160E-02        -0.78591E-02         0.00000E+00
    0.20619E-02        -0.76937E-02         0.00000E+00
    0.20092E-02        -0.75280E-02         0.00000E+00
    0.19577E-02        -0.73621E-02         0.00000E+00
    0.19075E-02        -0.71959E-02         0.00000E+00
    0.18585E-02        -0.70293E-02         0.00000E+00
    0.18104E-02        -0.68624E-02         0.00000E+00
    0.17634E-02        -0.66951E-02         0.00000E+00
    0.17172E-02        -0.65275E-02         0.00000E+00
    0.16718E-02        -0.63594E-02         0.00000E+00
    0.16271E-02        -0.61910E-02         0.00000E+00
    0.15831E-02        -0.60221E-02         0.00000E+00
    0.15397E-02        -0.58528E-02         0.00000E+00
    0.14967E-02        -0.56830E-02         0.00000E+00
    0.14542E-02        -0.55128E-02         0.00000E+00
    0.14120E-02        -0.53422E-02         0.00000E+00
    0.13701E-02        -0.51710E-02         0.00000E+00
    0.13284E-02        -0.49994E-02         0.00000E+00
    0.12868E-02        -0.48274E-02         0.00000E+00
    0.12453E-02        -0.46548E-02         0.00000E+00
    0.12038E-02        -0.44818E-02         0.00000E+00
    0.11622E-02        -0.43082E-02         0.00000E+00
    0.11206E-02        -0.41342E-02         0.00000E+00
    0.10787E-02        -0.39597E-02         0.00000E+00
    0.10366E-02        -0.37847E-02         0.00000E+00
    0.99420E-03        -0.36092E-02         0.00000E+00
    0.95143E-03        -0.34333E-02         0.00000E+00
    0.90825E-03        -0.32568E-02         0.00000E+00
    0.86459E-03        -0.30798E-02         0.00000E+00
    0.82041E-03        -0.29023E-02         0.00000E+00
    0.77563E-03        -0.27244E-02         0.00000E+00
    0.73023E-03        -0.25459E-02         0.00000E+00
    0.68412E-03        -0.23670E-02         0.00000E+00
    0.63728E-03        -0.21876E-02         0.00000E+00
    0.58964E-03        -0.20077E-02         0.00000E+00
    0.54116E-03        -0.18273E-02         0.00000E+00
    0.49179E-03        -0.16465E-02         0.00000E+00
    0.44147E-03        -0.14652E-02         0.00000E+00
    0.39017E-03        -0.12835E-02         0.00000E+00
    0.33784E-03        -0.11013E-02         0.00000E+00
    0.28444E-03        -0.91875E-03         0.00000E+00
    0.22992E-03        -0.73575E-03         0.00000E+00
    0.17426E-03        -0.55237E-03         0.00000E+00
    0.11740E-03        -0.36860E-03         0.00000E+00
    0.59328E-04        -0.18447E-03         0.00000E+00
    0.00000E+00         0.00000E+00         0.00000E+00
    0.22188E-02        -0.89980E-02         0.00000E+00
    0.21576E-02        -0.88280E-02         0.00000E+00
    0.20985E-02        -0.86580E-02         0.00000E+00
    0.20415E-02        -0.84877E-02         0.00000E+00
    0.19865E-02        -0.83173E-02         0.00000E+00
    0.19333E-02        -0.81466E-02         0.00000E+00
    0.18819E-02        -0.79756E-02         0.00000E+00
    0.18321E-02        -0.78044E-02         0.00000E+00
    0.17838E-02        -0.76328E-02         0.00000E+00
    0.17369E-02        -0.74608E-02         0.00000E+00
    0.16913E-02        -0.72885E-02         0.00000E+00
    0.16470E-02        -0.71157E-02         0.00000E+00
    0.16037E-02        -0.69426E-02         0.00000E+00
    0.15615E-02        -0.67690E-02         0.00000E+00
    0.15201E-02        -0.65950E-02         0.00000E+00
    0.14796E-02        -0.64206E-02         0.00000E+00
    0.14398E-02        -0.62457E-02         0.00000E+00
    0.14007E-02        -0.60703E-02         0.00000E+00
    0.13621E-02        -0.58945E-02         0.00000E+00
    0.13240E-02        -0.57181E-02         0.00000E+00
    0.12863E-02        -0.55413E-02         0.00000E+00
    0.12488E-02        -0.53641E-02         0.00000E+00
    0.12116E-02        -0.51863E-02         0.00000E+00
    0.11746E-02        -0.50080E-02         0.00000E+00
    0.11377E-02        -0.48293E-02         0.00000E+00
    0.11008E-02        -0.46500E-02         0.00000E+00
    0.10638E-02        -0.44703E-02         0.00000E+00
    0.10268E-02        -0.42900E-02         0.00000E+00
    0.98950E-03        -0.41092E-02         0.00000E+00
    0.95200E-03        -0.39279E-02         0.00000E+00
    0.91419E-03        -0.37461E-02         0.00000E+00
    0.87600E-03        -0.35637E-02         0.00000E+00
    0.83738E-03        -0.33808E-02         0.00000E+00
    0.79826E-03        -0.31974E-02         0.00000E+00
    0.75859E-03        -0.30135E-02         0.00000E+00
    0.71829E-03        -0.28290E-02         0.00000E+00
    0.67731E-03        -0.26440E-02         0.00000E+00
    0.63560E-03        -0.24585E-02         0.00000E+00
    0.59308E-03        -0.22724E-02         0.00000E+00
    0.54971E-03        -0.20858E-02         0.00000E+00
    0.50542E-03        -0.18987E-02         0.00000E+00
    0.46016E-03        -0.17110E-02         0.00000E+00
    0.41386E-03        -0.15229E-02         0.00000E+00
    0.36648E-03        -0.13342E-02         0.00000E+00
    0.31796E-03        -0.11450E-02         0.00000E+00
    0.26824E-03        -0.95529E-03         0.00000E+00
    0.21728E-03        -0.76512E-03         0.00000E+00
    0.16502E-03        -0.57450E-03         0.00000E+00
    0.11142E-03        -0.38342E-03         0.00000E+00
    0.56423E-04        -0.19191E-03         0.00000E+00
    0.00000E+00         0.00000E+00         0.00000E+00
    0.19854E-02        -0.93050E-02         0.00000E+00
    0.19265E-02        -0.91297E-02         0.00000E+00
    0.18702E-02        -0.89542E-02         0.00000E+00
    0.18162E-02        -0.87785E-02         0.00000E+00
    0.17646E-02        -0.86026E-02         0.00000E+00
    0.17150E-02        -0.84263E-02         0.00000E+00
    0.16675E-02        -0.82496E-02         0.00000E+00
    0.16218E-02        -0.80726E-02         0.00000E+00
    0.15778E-02        -0.78952E-02         0.00000E+00
    0.15354E-02        -0.77174E-02         0.00000E+00
    0.14945E-02        -0.75391E-02         0.00000E+00
    0.14549E-02        -0.73605E-02         0.00000E+00
    0.14165E-02        -0.71814E-02         0.00000E+00
    0.13791E-02        -0.70018E-02         0.00000E+00
    0.13428E-02        -0.68217E-02         0.00000E+00
    0.13074E-02        -0.66413E-02         0.00000E+00
    0.12727E-02        -0.64603E-02         0.00000E+00
    0.12387E-02        -0.62789E-02         0.00000E+00
    0.12052E-02        -0.60970E-02         0.00000E+00
    0.11723E-02        -0.59146E-02         0.00000E+00
    0.11398E-02        -0.57317E-02         0.00000E+00
    0.11076E-02        -0.55484E-02         0.00000E+00
    0.10756E-02        -0.53646E-02         0.00000E+00
    0.10439E-02        -0.51803E-02         0.00000E+00
    0.10122E-02        -0.49955E-02         0.00000E+00
    0.98050E-03        -0.48103E-02         0.00000E+00
    0.94878E-03        -0.46245E-02         0.00000E+00
    0.91695E-03        -0.44382E-02         0.00000E+00
    0.88493E-03        -0.42514E-02         0.00000E+00
    0.85267E-03        -0.40641E-02         0.00000E+00
    0.82009E-03        -0.38763E-02         0.00000E+00
    0.78713E-03        -0.36879E-02         0.00000E+00
    0.75372E-03        -0.34990E-02         0.00000E+00
    0.71980E-03        -0.33095E-02         0.00000E+00
    0.68531E-03        -0.31195E-02         0.00000E+00
    0.65017E-03        -0.29289E-02         0.00000E+00
    0.61432E-03        -0.27377E-02         0.00000E+00
    0.57771E-03        -0.25460E-02         0.00000E+00
    0.54024E-03        -0.23537E-02         0.00000E+00
    0.50187E-03        -0.21607E-02         0.00000E+00
    0.46252E-03        -0.19672E-02         0.00000E+00
    0.42212E-03        -0.17731E-02         0.00000E+00
    0.38060E-03        -0.15784E-02         0.00000E+00
    0.33790E-03        -0.13831E-02         0.00000E+00
    0.29394E-03        -0.11872E-02         0.00000E+00
    0.24865E-03        -0.99069E-03         0.00000E+00
    0.20197E-03        -0.79363E-03         0.00000E+00
    0.15383E-03        -0.59602E-03         0.00000E+00
    0.10416E-03        -0.39786E-03         0.00000E+00
    0.52905E-04        -0.19918E-03         0.00000E+00
    0.00000E+00         0.00000E+00         0.00000E+00
    0.17049E-02        -0.95975E-02         0.00000E+00
    0.16500E-02        -0.94169E-02         0.00000E+00
    0.15980E-02        -0.92359E-02         0.00000E+00
    0.15487E-02        -0.90546E-02         0.00000E+00
    0.15020E-02        -0.88730E-02         0.00000E+00
    0.14577E-02        -0.86909E-02         0.00000E+00
    0.14156E-02        -0.85085E-02         0.00000E+00
    0.13755E-02        -0.83256E-02         0.00000E+00
    0.13372E-02        -0.81422E-02         0.00000E+00
    0.13006E-02        -0.79584E-02         0.00000E+00
    0.12656E-02        -0.77742E-02         0.00000E+00
    0.12319E-02        -0.75894E-02         0.00000E+00
    0.11995E-02        -0.74043E-02         0.00000E+00
    0.11682E-02        -0.72186E-02         0.00000E+00
    0.11378E-02        -0.70326E-02         0.00000E+00
    0.11084E-02        -0.68460E-02         0.00000E+00
    0.10797E-02        -0.66591E-02         0.00000E+00
    0.10516E-02        -0.64717E-02         0.00000E+00
    0.10241E-02        -0.62839E-02         0.00000E+00
    0.99712E-03        -0.60956E-02         0.00000E+00
    0.97049E-03        -0.59069E-02         0.00000E+00
    0.94416E-03        -0.57178E-02         0.00000E+00
    0.91806E-03        -0.55282E-02         0.00000E+00
    0.89211E-03        -0.53382E-02         0.00000E+00
    0.86624E-03        -0.51478E-02         0.00000E+00
    0.84038E-03        -0.49569E-02         0.00000E+00
    0.81447E-03        -0.47655E-02         0.00000E+00
    0.78845E-03        -0.45737E-02         0.00000E+00
    0.76224E-03        -0.43814E-02         0.00000E+00
    0.73579E-03        -0.41886E-02         0.00000E+00
    0.70903E-03        -0.39953E-02         0.00000E+00
    0.68190E-03        -0.38015E-02         0.00000E+00
    0.65433E-03        -0.36071E-02         0.00000E+00
    0.62627E-03        -0.34122E-02         0.00000E+00
    0.59764E-03        -0.32167E-02         0.00000E+00
    0.56837E-03        -0.30206E-02         0.00000E+00
    0.53841E-03        -0.28239E-02         0.00000E+00
    0.50766E-03        -0.26266E-02         0.00000E+00
    0.47607E-03        -0.24287E-02         0.00000E+00
    0.44355E-03        -0.22301E-02         0.00000E+00
    0.41002E-03        -0.20308E-02         0.00000E+00
    0.37540E-03        -0.18309E-02         0.00000E+00
    0.33960E-03        -0.16302E-02         0.00000E+00
    0.30254E-03        -0.14289E-02         0.00000E+00
    0.26412E-03        -0.12268E-02         0.00000E+00
    0.22426E-03        -0.10241E-02         0.00000E+00
    0.18286E-03        -0.82062E-03         0.00000E+00
    0.13982E-03        -0.61647E-03         0.00000E+00
    0.95061E-04        -0.41163E-03         0.00000E+00
    0.48481E-04        -0.20613E-03         0.00000E+00
    0.00000E+00         0.00000E+00         0.00000E+00
    0.13719E-02        -0.98662E-02         0.00000E+00
    0.13231E-02        -0.96801E-02         0.00000E+00
    0.12776E-02        -0.94935E-02         0.00000E+00
    0.12351E-02        -0.93065E-02         0.00000E+00
    0.11954E-02        -0.91190E-02         0.00000E+00
    0.11583E-02        -0.89311E-02         0.00000E+00
    0.11235E-02        -0.87426E-02         0.00000E+00
    0.10908E-02        -0.85537E-02         0.00000E+00
    0.10599E-02        -0.83642E-02         0.00000E+00
    0.10307E-02        -0.81743E-02         0.00000E+00
    0.10029E-02        -0.79839E-02         0.00000E+00
    0.97648E-03        -0.77931E-02         0.00000E+00
    0.95119E-03        -0.76018E-02         0.00000E+00
    0.92691E-03        -0.74102E-02         0.00000E+00
    0.90352E-03        -0.72182E-02         0.00000E+00
    0.88089E-03        -0.70258E-02         0.00000E+00
    0.85892E-03        -0.68331E-02         0.00000E+00
    0.83751E-03        -0.66400E-02         0.00000E+00
    0.81658E-03        -0.64466E-02         0.00000E+00
    0.79605E-03        -0.62528E-02         0.00000E+00
    0.77583E-03        -0.60587E-02         0.00000E+00
    0.75586E-03        -0.58643E-02         0.00000E+00
    0.73607E-03        -0.56695E-02         0.00000E+00
    0.71640E-03        -0.54744E-02         0.00000E+00
    0.69678E-03        -0.52789E-02         0.00000E+00
    0.67717E-03        -0.50831E-02         0.00000E+00
    0.65749E-03        -0.48868E-02         0.00000E+00
    0.63771E-03        -0.46902E-02         0.00000E+00
    0.61775E-03        -0.44931E-02         0.00000E+00
    0.59758E-03        -0.42956E-02         0.00000E+00
    0.57713E-03        -0.40976E-02         0.00000E+00
    0.55635E-03        -0.38992E-02         0.00000E+00
    0.53519E-03        -0.37002E-02         0.00000E+00
    0.51357E-03        -0.35008E-02         0.00000E+00
    0.49145E-03        -0.33007E-02         0.00000E+00
    0.46876E-03        -0.31001E-02         0.00000E+00
    0.44543E-03        -0.28988E-02         0.00000E+00
    0.42139E-03        -0.26969E-02         0.00000E+00
    0.39656E-03        -0.24943E-02         0.00000E+00
    0.37085E-03        -0.22910E-02         0.00000E+00
    0.34419E-03        -0.20870E-02         0.00000E+00
    0.31647E-03        -0.18821E-02         0.00000E+00
    0.28758E-03        -0.16765E-02         0.00000E+00
    0.25742E-03        -0.14700E-02         0.00000E+00
    0.22586E-03        -0.12626E-02         0.00000E+00
    0.19279E-03        -0.10544E-02         0.00000E+00
    0.15806E-03        -0.84529E-03         0.00000E+00
    0.12156E-03        -0.63529E-03         0.00000E+00
    0.83138E-04        -0.42439E-03         0.00000E+00
    0.42676E-04        -0.21263E-03         0.00000E+00
    0.00000E+00         0.00000E+00         0.00000E+00
    0.98055E-03        -0.10098E-01         0.00000E+00
    0.94093E-03        -0.99063E-02         0.00000E+00
    0.90488E-03        -0.97141E-02         0.00000E+00
    0.87213E-03        -0.95212E-02         0.00000E+00
    0.84229E-03        -0.93276E-02         0.00000E+00
    0.81498E-03        -0.91335E-02         0.00000E+00
    0.78984E-03        -0.89388E-02         0.00000E+00
    0.76657E-03        -0.87435E-02         0.00000E+00
    0.74490E-03        -0.85478E-02         0.00000E+00
    0.72462E-03        -0.83518E-02         0.00000E+00
    0.70552E-03        -0.81553E-02         0.00000E+00
    0.68745E-03        -0.79586E-02         0.00000E+00
    0.67026E-03        -0.77616E-02         0.00000E+00
    0.65383E-03        -0.75643E-02         0.00000E+00
    0.63806E-03        -0.73669E-02         0.00000E+00
    0.62285E-03        -0.71692E-02         0.00000E+00
    0.60812E-03        -0.69713E-02         0.00000E+00
    0.59378E-03        -0.67732E-02         0.00000E+00
    0.57978E-03        -0.65749E-02         0.00000E+00
    0.56606E-03        -0.63765E-02         0.00000E+00
    0.55255E-03        -0.61778E-02         0.00000E+00
    0.53921E-03        -0.59790E-02         0.00000E+00
    0.52599E-03        -0.57799E-02         0.00000E+00
    0.51283E-03        -0.55806E-02         0.00000E+00
    0.49971E-03        -0.53810E-02         0.00000E+00
    0.48658E-03        -0.51812E-02         0.00000E+00
    0.47339E-03        -0.49811E-02         0.00000E+00
    0.46011E-03        -0.47806E-02         0.00000E+00
    0.44670E-03        -0.45799E-02         0.00000E+00
    0.43312E-03        -0.43787E-02         0.00000E+00
    0.41933E-03        -0.41772E-02         0.00000E+00
    0.40529E-03        -0.39753E-02         0.00000E+00
    0.39095E-03        -0.37728E-02         0.00000E+00
    0.37627E-03        -0.35700E-02         0.00000E+00
    0.36121E-03        -0.33665E-02         0.00000E+00
    0.34570E-03        -0.31625E-02         0.00000E+00
    0.32971E-03        -0.29579E-02         0.00000E+00
    0.31315E-03        -0.27526E-02         0.00000E+00
    0.29598E-03        -0.25467E-02         0.00000E+00
    0.27810E-03        -0.23399E-02         0.00000E+00
    0.25944E-03        -0.21324E-02         0.00000E+00
    0.23990E-03        -0.19239E-02         0.00000E+00
    0.21937E-03        -0.17146E-02         0.00000E+00
    0.19772E-03        -0.15043E-02         0.00000E+00
    0.17481E-03        -0.12929E-02         0.00000E+00
    0.15046E-03        -0.10804E-02         0.00000E+00
    0.12448E-03        -0.86672E-03         0.00000E+00
    0.96664E-04        -0.65186E-03         0.00000E+00
    0.66766E-04        -0.43576E-03         0.00000E+00
    0.34580E-04        -0.21845E-03         0.00000E+00
    0.00000E+00         0.00000E+00         0.00000E+00
    0.52495E-03        -0.10274E-01         0.00000E+00
    0.49921E-03        -0.10077E-01         0.00000E+00
    0.47767E-03        -0.98782E-02         0.00000E+00
    0.45916E-03        -0.96788E-02         0.00000E+00
    0.44292E-03        -0.94786E-02         0.00000E+00
    0.42842E-03        -0.92780E-02         0.00000E+00
    0.41532E-03        -0.90771E-02         0.00000E+00
    0.40335E-03        -0.88758E-02         0.00000E+00
    0.39231E-03        -0.86744E-02         0.00000E+00
    0.38204E-03        -0.84729E-02         0.00000E+00
    0.37243E-03        -0.82714E-02         0.00000E+00
    0.36336E-03        -0.80697E-02         0.00000E+00
    0.35476E-03        -0.78681E-02         0.00000E+00
    0.34655E-03        -0.76665E-02         0.00000E+00
    0.33868E-03        -0.74648E-02         0.00000E+00
    0.33110E-03        -0.72631E-02         0.00000E+00
    0.32375E-03        -0.70615E-02         0.00000E+00
    0.31661E-03        -0.68598E-02         0.00000E+00
    0.30964E-03        -0.66581E-02         0.00000E+00
    0.30280E-03        -0.64563E-02         0.00000E+00
    0.29606E-03        -0.62545E-02         0.00000E+00
    0.28941E-03        -0.60526E-02         0.00000E+00
    0.28280E-03        -0.58506E-02         0.00000E+00
    0.27624E-03        -0.56485E-02         0.00000E+00
    0.26968E-03        -0.54462E-02         0.00000E+00
    0.26310E-03        -0.52438E-02         0.00000E+00
    0.25650E-03        -0.50412E-02         0.00000E+00
    0.24984E-03        -0.48383E-02         0.00000E+00
    0.24311E-03        -0.46352E-02         0.00000E+00
    0.23629E-03        -0.44317E-02         0.00000E+00
    0.22935E-03        -0.42280E-02         0.00000E+00
    0.22228E-03        -0.40239E-02         0.00000E+00
    0.21504E-03        -0.38193E-02         0.00000E+00
    0.20763E-03        -0.36143E-02         0.00000E+00
    0.20000E-03        -0.34089E-02         0.00000E+00
    0.19213E-03        -0.32029E-02         0.00000E+00
    0.18399E-03        -0.29962E-02         0.00000E+00
    0.17555E-03        -0.27890E-02         0.00000E+00
    0.16675E-03        -0.25810E-02         0.00000E+00
    0.15757E-03        -0.23723E-02         0.00000E+00
    0.14794E-03        -0.21628E-02         0.00000E+00
    0.13779E-03        -0.19523E-02         0.00000E+00
    0.12706E-03        -0.17408E-02         0.00000E+00
    0.11564E-03        -0.15283E-02         0.00000E+00
    0.10343E-03        -0.13146E-02         0.00000E+00
    0.90269E-04        -0.10996E-02         0.00000E+00
    0.75964E-04        -0.88311E-03         0.00000E+00
    0.60254E-04        -0.66510E-03         0.00000E+00
    0.42769E-04        -0.44535E-03         0.00000E+00
    0.22966E-04        -0.22371E-03         0.00000E+00
    0.00000E+00         0.00000E+00         0.00000E+00
    0.00000E+00        -0.10356E-01         0.00000E+00
    0.00000E+00        -0.10152E-01         0.00000E+00
    0.00000E+00        -0.99479E-02         0.00000E+00
    0.00000E+00        -0.97433E-02         0.00000E+00
    0.00000E+00        -0.95386E-02         0.00000E+00
    0.00000E+00        -0.93341E-02         0.00000E+00
    0.00000E+00        -0.91296E-02         0.00000E+00
    0.00000E+00        -0.89253E-02         0.00000E+00
    0.00000E+00        -0.87211E-02         0.00000E+00
    0.00000E+00        -0.85171E-02         0.00000E+00
    0.00000E+00        -0.83133E-02         0.00000E+00
    0.00000E+00        -0.81096E-02         0.00000E+00
    0.00000E+00        -0.79060E-02         0.00000E+00
    0.00000E+00        -0.77026E-02         0.00000E+00
    0.00000E+00        -0.74993E-02         0.00000E+00
    0.00000E+00        -0.72961E-02         0.00000E+00
    0.00000E+00        -0.70930E-02         0.00000E+00
    0.00000E+00        -0.68900E-02         0.00000E+00
    0.00000E+00        -0.66870E-02         0.00000E+00
    0.00000E+00        -0.64840E-02         0.00000E+00
    0.00000E+00        -0.62811E-02         0.00000E+00
    0.00000E+00        -0.60781E-02         0.00000E+00
    0.00000E+00        -0.58750E-02         0.00000E+00
    0.00000E+00        -0.56719E-02         0.00000E+00
    0.00000E+00        -0.54687E-02         0.00000E+00
    0.00000E+00        -0.52654E-02         0.00000E+00
    0.00000E+00        -0.50619E-02         0.00000E+00
    0.00000E+00        -0.48581E-02         0.00000E+00
    0.00000E+00        -0.46542E-02         0.00000E+00
    0.00000E+00        -0.44500E-02         0.00000E+00
    0.00000E+00        -0.42455E-02         0.00000E+00
    0.00000E+00        -0.40406E-02         0.00000E+00
    0.00000E+00        -0.38354E-02         0.00000E+00
    0.00000E+00        -0.36297E-02         0.00000E+00
    0.00000E+00        -0.34235E-02         0.00000E+00
    0.00000E+00        -0.32168E-02         0.00000E+00
    0.00000E+00        -0.30096E-02         0.00000E+00
    0.00000E+00        -0.28017E-02         0.00000E+00
    0.00000E+00        -0.25931E-02         0.00000E+00
    0.00000E+00        -0.23838E-02         0.00000E+00
    0.00000E+00        -0.21736E-02         0.00000E+00
    0.00000E+00        -0.19625E-02         0.00000E+00
    0.00000E+00        -0.17504E-02         0.00000E+00
    0.00000E+00        -0.15372E-02         0.00000E+00
    0.00000E+00        -0.13228E-02         0.00000E+00
    0.00000E+00        -0.11070E-02         0.00000E+00
    0.00000E+00        -0.88973E-03         0.00000E+00
    0.00000E+00        -0.67069E-03         0.00000E+00
    0.00000E+00        -0.44966E-03         0.00000E+00
    0.00000E+00        -0.22626E-03         0.00000E+00
    0.00000E+00         0.00000E+00         0.00000E+00
CELL_DATA       5000
VECTORS vDarcy double 
    0.84271E-07         0.10354E-10         0.00000E+00
    0.84263E-07         0.27693E-10         0.00000E+00
    0.84249E-07         0.41400E-10         0.00000E+00
    0.84230E-07         0.52348E-10         0.00000E+00
    0.84208E-07         0.61162E-10         0.00000E+00
    0.84182E-07         0.68298E-10         0.00000E+00
    0.84153E-07         0.74097E-10         0.00000E+00
    0.84123E-07         0.78814E-10         0.00000E+00
    0.84090E-07         0.82645E-10         0.00000E+00
    0.84057E-07         0.85745E-10         0.00000E+00
    0.84022E-07         0.88233E-10         0.00000E+00
    0.83986E-07         0.90206E-10         0.00000E+00
    0.83950E-07         0.91740E-10         0.00000E+00
    0.83913E-07         0.92898E-10         0.00000E+00
    0.83876E-07         0.93732E-10         0.00000E+00
    0.83838E-07         0.94283E-10         0.00000E+00
    0.83800E-07         0.94587E-10         0.00000E+00
    0.83762E-07         0.94672E-10         0.00000E+00
    0.83725E-07         0.94562E-10         0.00000E+00
    0.83687E-07         0.94276E-10         0.00000E+00
    0.83649E-07         0.93833E-10         0.00000E+00
    0.83612E-07         0.93244E-10         0.00000E+00
    0.83575E-07         0.92522E-10         0.00000E+00
    0.83538E-07         0.91675E-10         0.00000E+00
    0.83501E-07         0.90711E-10         0.00000E+00
    0.83465E-07         0.89634E-10         0.00000E+00
    0.83430E-07         0.88450E-10         0.00000E+00
    0.83395E-07         0.87159E-10         0.00000E+00
    0.83360E-07         0.85764E-10         0.00000E+00
    0.83326E-07         0.84263E-10         0.00000E+00
    0.83293E-07         0.82655E-10         0.00000E+00
    0.83260E-07         0.80936E-10         0.00000E+00
    0.83228E-07         0.79101E-10         0.00000E+00
    0.83197E-07         0.77145E-10         0.00000E+00
    0.83166E-07         0.75057E-10         0.00000E+00
    0.83137E-07         0.72828E-10         0.00000E+00
    0.83108E-07         0.70444E-10         0.00000E+00
    0.83080E-07         0.67887E-10         0.00000E+00
    0.83054E-07         0.65137E-10         0.00000E+00
    0.83028E-07         0.62170E-10         0.00000E+00
    0.83004E-07         0.58951E-10         0.00000E+00
    0.82981E-07         0.55443E-10         0.00000E+00
    0.82960E-07         0.51595E-10         0.00000E+00
    0.82940E-07         0.47342E-10         0.00000E+00
    0.82922E-07         0.42600E-10         0.00000E+00
    0.82906E-07         0.37261E-10         0.00000E+00
    0.82892E-07         0.31175E-10         0.00000E+00
    0.82881E-07         0.24141E-10         0.00000E+00
    0.82873E-07         0.15877E-10         0.00000E+00
    0.82869E-07         0.59815E-11         0.00000E+00
    0.80607E-07         0.20896E-10         0.00000E+00
    0.80606E-07         0.57988E-10         0.00000E+00
    0.80605E-07         0.89427E-10         0.00000E+00
    0.80601E-07         0.11608E-09         0.00000E+00
    0.80595E-07         0.13867E-09         0.00000E+00
    0.80588E-07         0.15783E-09         0.00000E+00
    0.80578E-07         0.17406E-09         0.00000E+00
    0.80567E-07         0.18779E-09         0.00000E+00
    0.80554E-07         0.19937E-09         0.00000E+00
    0.80540E-07         0.20910E-09         0.00000E+00
    0.80524E-07         0.21723E-09         0.00000E+00
    0.80508E-07         0.22396E-09         0.00000E+00
    0.80490E-07         0.22947E-09         0.00000E+00
    0.80471E-07         0.23391E-09         0.00000E+00
    0.80451E-07         0.23740E-09         0.00000E+00
    0.80431E-07         0.24005E-09         0.00000E+00
    0.80410E-07         0.24194E-09         0.00000E+00
    0.80389E-07         0.24316E-09         0.00000E+00
    0.80367E-07         0.24376E-09         0.00000E+00
    0.80345E-07         0.24381E-09         0.00000E+00
    0.80323E-07         0.24334E-09         0.00000E+00
    0.80301E-07         0.24240E-09         0.00000E+00
    0.80278E-07         0.24102E-09         0.00000E+00
    0.80256E-07         0.23923E-09         0.00000E+00
    0.80233E-07         0.23705E-09         0.00000E+00
    0.80211E-07         0.23449E-09         0.00000E+00
    0.80189E-07         0.23156E-09         0.00000E+00
    0.80168E-07         0.22828E-09         0.00000E+00
    0.80146E-07         0.22465E-09         0.00000E+00
    0.80125E-07         0.22067E-09         0.00000E+00
    0.80105E-07         0.21634E-09         0.00000E+00
    0.80084E-07         0.21163E-09         0.00000E+00
    0.80065E-07         0.20656E-09         0.00000E+00
    0.80046E-07         0.20109E-09         0.00000E+00
    0.80027E-07         0.19521E-09         0.00000E+00
    0.80010E-07         0.18888E-09         0.00000E+00
    0.79993E-07         0.18208E-09         0.00000E+00
    0.79977E-07         0.17476E-09         0.00000E+00
    0.79962E-07         0.16688E-09         0.00000E+00
    0.79947E-07         0.15837E-09         0.00000E+00
    0.79934E-07         0.14916E-09         0.00000E+00
    0.79923E-07         0.13916E-09         0.00000E+00
    0.79912E-07         0.12828E-09         0.00000E+00
    0.79902E-07         0.11639E-09         0.00000E+00
    0.79895E-07         0.10333E-09         0.00000E+00
    0.79888E-07         0.88920E-10         0.00000E+00
    0.79883E-07         0.72944E-10         0.00000E+00
    0.79880E-07         0.55132E-10         0.00000E+00
    0.79877E-07         0.35162E-10         0.00000E+00
    0.79877E-07         0.12652E-10         0.00000E+00
    0.77228E-07         0.20661E-10         0.00000E+00
    0.77228E-07         0.59527E-10         0.00000E+00
    0.77228E-07         0.94901E-10         0.00000E+00
    0.77229E-07         0.12682E-09         0.00000E+00
    0.77229E-07         0.15543E-09         0.00000E+00
    0.77228E-07         0.18093E-09         0.00000E+00
    0.77227E-07         0.20354E-09         0.00000E+00
    0.77226E-07         0.22350E-09         0.00000E+00
    0.77223E-07         0.24104E-09         0.00000E+00
    0.77219E-07         0.25636E-09         0.00000E+00
    0.77215E-07         0.26968E-09         0.00000E+00
    0.77210E-07         0.28118E-09         0.00000E+00
    0.77204E-07         0.29101E-09         0.00000E+00
    0.77198E-07         0.29933E-09         0.00000E+00
    0.77190E-07         0.30627E-09         0.00000E+00
    0.77183E-07         0.31194E-09         0.00000E+00
    0.77174E-07         0.31646E-09         0.00000E+00
    0.77165E-07         0.31992E-09         0.00000E+00
    0.77156E-07         0.32239E-09         0.00000E+00
    0.77146E-07         0.32394E-09         0.00000E+00
    0.77136E-07         0.32464E-09         0.00000E+00
    0.77126E-07         0.32454E-09         0.00000E+00
    0.77115E-07         0.32368E-09         0.00000E+00
    0.77104E-07         0.32211E-09         0.00000E+00
    0.77093E-07         0.31984E-09         0.00000E+00
    0.77083E-07         0.31692E-09         0.00000E+00
    0.77072E-07         0.31335E-09         0.00000E+00
    0.77061E-07         0.30915E-09         0.00000E+00
    0.77050E-07         0.30433E-09         0.00000E+00
    0.77040E-07         0.29890E-09         0.00000E+00
    0.77029E-07         0.29284E-09         0.00000E+00
    0.77019E-07         0.28615E-09         0.00000E+00
    0.77010E-07         0.27882E-09         0.00000E+00
    0.77000E-07         0.27084E-09         0.00000E+00
    0.76991E-07         0.26216E-09         0.00000E+00
    0.76983E-07         0.25278E-09         0.00000E+00
    0.76975E-07         0.24264E-09         0.00000E+00
    0.76967E-07         0.23171E-09         0.00000E+00
    0.76960E-07         0.21994E-09         0.00000E+00
    0.76954E-07         0.20726E-09         0.00000E+00
    0.76948E-07         0.19362E-09         0.00000E+00
    0.76944E-07         0.17894E-09         0.00000E+00
    0.76939E-07         0.16313E-09         0.00000E+00
    0.76936E-07         0.14612E-09         0.00000E+00
    0.76933E-07         0.12780E-09         0.00000E+00
    0.76931E-07         0.10808E-09         0.00000E+00
    0.76929E-07         0.86868E-10         0.00000E+00
    0.76928E-07         0.64093E-10         0.00000E+00
    0.76927E-07         0.39705E-10         0.00000E+00
    0.76927E-07         0.13712E-10         0.00000E+00
    0.74075E-07         0.19055E-10         0.00000E+00
    0.74076E-07         0.55346E-10         0.00000E+00
    0.74077E-07         0.89167E-10         0.00000E+00
    0.74080E-07         0.12055E-09         0.00000E+00
    0.74082E-07         0.14954E-09         0.00000E+00
    0.74084E-07         0.17617E-09         0.00000E+00
    0.74087E-07         0.20052E-09         0.00000E+00
    0.74090E-07         0.22266E-09         0.00000E+00
    0.74092E-07         0.24270E-09         0.00000E+00
    0.74094E-07         0.26074E-09         0.00000E+00
    0.74096E-07         0.27687E-09         0.00000E+00
    0.74098E-07         0.29120E-09         0.00000E+00
    0.74099E-07         0.30383E-09         0.00000E+00
    0.74100E-07         0.31487E-09         0.00000E+00
    0.74101E-07         0.32441E-09         0.00000E+00
    0.74101E-07         0.33252E-09         0.00000E+00
    0.74101E-07         0.33931E-09         0.00000E+00
    0.74100E-07         0.34484E-09         0.00000E+00
    0.74099E-07         0.34917E-09         0.00000E+00
    0.74098E-07         0.35238E-09         0.00000E+00
    0.74096E-07         0.35452E-09         0.00000E+00
    0.74094E-07         0.35563E-09         0.00000E+00
    0.74092E-07         0.35576E-09         0.00000E+00
    0.74090E-07         0.35496E-09         0.00000E+00
    0.74088E-07         0.35324E-09         0.00000E+00
    0.74085E-07         0.35064E-09         0.00000E+00
    0.74082E-07         0.34718E-09         0.00000E+00
    0.74080E-07         0.34287E-09         0.00000E+00
    0.74077E-07         0.33773E-09         0.00000E+00
    0.74074E-07         0.33176E-09         0.00000E+00
    0.74072E-07         0.32497E-09         0.00000E+00
    0.74069E-07         0.31734E-09         0.00000E+00
    0.74066E-07         0.30888E-09         0.00000E+00
    0.74064E-07         0.29957E-09         0.00000E+00
    0.74062E-07         0.28940E-09         0.00000E+00
    0.74060E-07         0.27835E-09         0.00000E+00
    0.74058E-07         0.26639E-09         0.00000E+00
    0.74056E-07         0.25349E-09         0.00000E+00
    0.74055E-07         0.23963E-09         0.00000E+00
    0.74054E-07         0.22477E-09         0.00000E+00
    0.74053E-07         0.20887E-09         0.00000E+00
    0.74052E-07         0.19190E-09         0.00000E+00
    0.74052E-07         0.17382E-09         0.00000E+00
    0.74051E-07         0.15459E-09         0.00000E+00
    0.74051E-07         0.13419E-09         0.00000E+00
    0.74051E-07         0.11258E-09         0.00000E+00
    0.74051E-07         0.89749E-10         0.00000E+00
    0.74052E-07         0.65688E-10         0.00000E+00
    0.74052E-07         0.40392E-10         0.00000E+00
    0.74052E-07         0.13859E-10         0.00000E+00
    0.71120E-07         0.16500E-10         0.00000E+00
    0.71121E-07         0.48351E-10         0.00000E+00
    0.71123E-07         0.78557E-10         0.00000E+00
    0.71126E-07         0.10708E-09         0.00000E+00
    0.71130E-07         0.13389E-09         0.00000E+00
    0.71134E-07         0.15899E-09         0.00000E+00
    0.71138E-07         0.18238E-09         0.00000E+00
    0.71143E-07         0.20408E-09         0.00000E+00
    0.71148E-07         0.22410E-09         0.00000E+00
    0.71153E-07         0.24249E-09         0.00000E+00
    0.71158E-07         0.25927E-09         0.00000E+00
    0.71163E-07         0.27449E-09         0.00000E+00
    0.71168E-07         0.28820E-09         0.00000E+00
    0.71174E-07         0.30044E-09         0.00000E+00
    0.71179E-07         0.31127E-09         0.00000E+00
    0.71183E-07         0.32073E-09         0.00000E+00
    0.71188E-07         0.32887E-09         0.00000E+00
    0.71193E-07         0.33574E-09         0.00000E+00
    0.71197E-07         0.34138E-09         0.00000E+00
    0.71201E-07         0.34584E-09         0.00000E+00
    0.71205E-07         0.34916E-09         0.00000E+00
    0.71209E-07         0.35136E-09         0.00000E+00
    0.71212E-07         0.35249E-09         0.00000E+00
    0.71216E-07         0.35257E-09         0.00000E+00
    0.71219E-07         0.35162E-09         0.00000E+00
    0.71222E-07         0.34968E-09         0.00000E+00
    0.71225E-07         0.34676E-09         0.00000E+00
    0.71228E-07         0.34287E-09         0.00000E+00
    0.71230E-07         0.33802E-09         0.00000E+00
    0.71233E-07         0.33224E-09         0.00000E+00
    0.71235E-07         0.32551E-09         0.00000E+00
    0.71238E-07         0.31785E-09         0.00000E+00
    0.71240E-07         0.30926E-09         0.00000E+00
    0.71243E-07         0.29972E-09         0.00000E+00
    0.71245E-07         0.28924E-09         0.00000E+00
    0.71247E-07         0.27781E-09         0.00000E+00
    0.71249E-07         0.26543E-09         0.00000E+00
    0.71251E-07         0.25207E-09         0.00000E+00
    0.71253E-07         0.23773E-09         0.00000E+00
    0.71255E-07         0.22240E-09         0.00000E+00
    0.71257E-07         0.20606E-09         0.00000E+00
    0.71259E-07         0.18872E-09         0.00000E+00
    0.71261E-07         0.17035E-09         0.00000E+00
    0.71263E-07         0.15096E-09         0.00000E+00
    0.71264E-07         0.13053E-09         0.00000E+00
    0.71266E-07         0.10908E-09         0.00000E+00
    0.71267E-07         0.86603E-10         0.00000E+00
    0.71268E-07         0.63115E-10         0.00000E+00
    0.71268E-07         0.38629E-10         0.00000E+00
    0.71269E-07         0.13170E-10         0.00000E+00
    0.68343E-07         0.13701E-10         0.00000E+00
    0.68344E-07         0.40401E-10         0.00000E+00
    0.68346E-07         0.66075E-10         0.00000E+00
    0.68349E-07         0.90658E-10         0.00000E+00
    0.68353E-07         0.11410E-09         0.00000E+00
    0.68358E-07         0.13635E-09         0.00000E+00
    0.68363E-07         0.15739E-09         0.00000E+00
    0.68368E-07         0.17718E-09         0.00000E+00
    0.68374E-07         0.19571E-09         0.00000E+00
    0.68381E-07         0.21298E-09         0.00000E+00
    0.68388E-07         0.22898E-09         0.00000E+00
    0.68395E-07         0.24372E-09         0.00000E+00
    0.68402E-07         0.25720E-09         0.00000E+00
    0.68409E-07         0.26944E-09         0.00000E+00
    0.68416E-07         0.28045E-09         0.00000E+00
    0.68424E-07         0.29026E-09         0.00000E+00
    0.68431E-07         0.29887E-09         0.00000E+00
    0.68439E-07         0.30631E-09         0.00000E+00
    0.68446E-07         0.31261E-09         0.00000E+00
    0.68453E-07         0.31777E-09         0.00000E+00
    0.68460E-07         0.32184E-09         0.00000E+00
    0.68467E-07         0.32481E-09         0.00000E+00
    0.68474E-07         0.32672E-09         0.00000E+00
    0.68481E-07         0.32758E-09         0.00000E+00
    0.68488E-07         0.32740E-09         0.00000E+00
    0.68494E-07         0.32621E-09         0.00000E+00
    0.68500E-07         0.32402E-09         0.00000E+00
    0.68506E-07         0.32084E-09         0.00000E+00
    0.68512E-07         0.31667E-09         0.00000E+00
    0.68518E-07         0.31154E-09         0.00000E+00
    0.68524E-07         0.30544E-09         0.00000E+00
    0.68529E-07         0.29838E-09         0.00000E+00
    0.68535E-07         0.29037E-09         0.00000E+00
    0.68540E-07         0.28141E-09         0.00000E+00
    0.68545E-07         0.27150E-09         0.00000E+00
    0.68550E-07         0.26066E-09         0.00000E+00
    0.68554E-07         0.24886E-09         0.00000E+00
    0.68559E-07         0.23613E-09         0.00000E+00
    0.68563E-07         0.22246E-09         0.00000E+00
    0.68567E-07         0.20786E-09         0.00000E+00
    0.68570E-07         0.19232E-09         0.00000E+00
    0.68574E-07         0.17585E-09         0.00000E+00
    0.68577E-07         0.15847E-09         0.00000E+00
    0.68580E-07         0.14017E-09         0.00000E+00
    0.68582E-07         0.12097E-09         0.00000E+00
    0.68585E-07         0.10089E-09         0.00000E+00
    0.68586E-07         0.79930E-10         0.00000E+00
    0.68588E-07         0.58125E-10         0.00000E+00
    0.68589E-07         0.35497E-10         0.00000E+00
    0.68589E-07         0.12073E-10         0.00000E+00
    0.65727E-07         0.10913E-10         0.00000E+00
    0.65728E-07         0.32389E-10         0.00000E+00
    0.65730E-07         0.53311E-10         0.00000E+00
    0.65733E-07         0.73602E-10         0.00000E+00
    0.65737E-07         0.93194E-10         0.00000E+00
    0.65742E-07         0.11203E-09         0.00000E+00
    0.65747E-07         0.13005E-09         0.00000E+00
    0.65753E-07         0.14721E-09         0.00000E+00
    0.65759E-07         0.16348E-09         0.00000E+00
    0.65766E-07         0.17883E-09         0.00000E+00
    0.65773E-07         0.19322E-09         0.00000E+00
    0.65781E-07         0.20665E-09         0.00000E+00
    0.65789E-07         0.21909E-09         0.00000E+00
    0.65797E-07         0.23053E-09         0.00000E+00
    0.65805E-07         0.24097E-09         0.00000E+00
    0.65814E-07         0.25039E-09         0.00000E+00
    0.65822E-07         0.25881E-09         0.00000E+00
    0.65831E-07         0.26622E-09         0.00000E+00
    0.65840E-07         0.27262E-09         0.00000E+00
    0.65848E-07         0.27802E-09         0.00000E+00
    0.65857E-07         0.28243E-09         0.00000E+00
    0.65866E-07         0.28584E-09         0.00000E+00
    0.65874E-07         0.28827E-09         0.00000E+00
    0.65883E-07         0.28973E-09         0.00000E+00
    0.65891E-07         0.29022E-09         0.00000E+00
    0.65899E-07         0.28974E-09         0.00000E+00
    0.65907E-07         0.28832E-09         0.00000E+00
    0.65915E-07         0.28595E-09         0.00000E+00
    0.65923E-07         0.28264E-09         0.00000E+00
    0.65931E-07         0.27841E-09         0.00000E+00
    0.65938E-07         0.27325E-09         0.00000E+00
    0.65945E-07         0.26717E-09         0.00000E+00
    0.65952E-07         0.26018E-09         0.00000E+00
    0.65959E-07         0.25229E-09         0.00000E+00
    0.65965E-07         0.24350E-09         0.00000E+00
    0.65972E-07         0.23383E-09         0.00000E+00
    0.65977E-07         0.22327E-09         0.00000E+00
    0.65983E-07         0.21183E-09         0.00000E+00
    0.65988E-07         0.19953E-09         0.00000E+00
    0.65993E-07         0.18637E-09         0.00000E+00
    0.65998E-07         0.17236E-09         0.00000E+00
    0.66002E-07         0.15752E-09         0.00000E+00
    0.66006E-07         0.14186E-09         0.00000E+00
    0.66009E-07         0.12539E-09         0.00000E+00
    0.66012E-07         0.10814E-09         0.00000E+00
    0.66015E-07         0.90108E-10         0.00000E+00
    0.66017E-07         0.71329E-10         0.00000E+00
    0.66019E-07         0.51824E-10         0.00000E+00
    0.66020E-07         0.31619E-10         0.00000E+00
    0.66020E-07         0.10741E-10         0.00000E+00
    0.63260E-07         0.83058E-11         0.00000E+00
    0.63261E-07         0.24828E-10         0.00000E+00
    0.63263E-07         0.41157E-10         0.00000E+00
    0.63266E-07         0.57211E-10         0.00000E+00
    0.63269E-07         0.72914E-10         0.00000E+00
    0.63274E-07         0.88198E-10         0.00000E+00
    0.63279E-07         0.10300E-09         0.00000E+00
    0.63284E-07         0.11727E-09         0.00000E+00
    0.63290E-07         0.13095E-09         0.00000E+00
    0.63297E-07         0.14400E-09         0.00000E+00
    0.63304E-07         0.15638E-09         0.00000E+00
    0.63312E-07         0.16806E-09         0.00000E+00
    0.63319E-07         0.17901E-09         0.00000E+00
    0.63328E-07         0.18919E-09         0.00000E+00
    0.63336E-07         0.19860E-09         0.00000E+00
    0.63345E-07         0.20721E-09         0.00000E+00
    0.63353E-07         0.21500E-09         0.00000E+00
    0.63362E-07         0.22197E-09         0.00000E+00
    0.63371E-07         0.22809E-09         0.00000E+00
    0.63381E-07         0.23338E-09         0.00000E+00
    0.63390E-07         0.23781E-09         0.00000E+00
    0.63399E-07         0.24139E-09         0.00000E+00
    0.63408E-07         0.24412E-09         0.00000E+00
    0.63417E-07         0.24598E-09         0.00000E+00
    0.63426E-07         0.24699E-09         0.00000E+00
    0.63435E-07         0.24714E-09         0.00000E+00
    0.63444E-07         0.24643E-09         0.00000E+00
    0.63452E-07         0.24488E-09         0.00000E+00
    0.63461E-07         0.24247E-09         0.00000E+00
    0.63469E-07         0.23921E-09         0.00000E+00
    0.63477E-07         0.23512E-09         0.00000E+00
    0.63485E-07         0.23019E-09         0.00000E+00
    0.63493E-07         0.22443E-09         0.00000E+00
    0.63500E-07         0.21785E-09         0.00000E+00
    0.63507E-07         0.21045E-09         0.00000E+00
    0.63514E-07         0.20225E-09         0.00000E+00
    0.63520E-07         0.19324E-09         0.00000E+00
    0.63526E-07         0.18345E-09         0.00000E+00
    0.63532E-07         0.17287E-09         0.00000E+00
    0.63537E-07         0.16153E-09         0.00000E+00
    0.63542E-07         0.14944E-09         0.00000E+00
    0.63547E-07         0.13660E-09         0.00000E+00
    0.63551E-07         0.12304E-09         0.00000E+00
    0.63555E-07         0.10876E-09         0.00000E+00
    0.63558E-07         0.93796E-10         0.00000E+00
    0.63561E-07         0.78157E-10         0.00000E+00
    0.63563E-07         0.61867E-10         0.00000E+00
    0.63564E-07         0.44947E-10         0.00000E+00
    0.63566E-07         0.27421E-10         0.00000E+00
    0.63566E-07         0.93147E-11         0.00000E+00
    0.60931E-07         0.59629E-11         0.00000E+00
    0.60932E-07         0.17994E-10         0.00000E+00
    0.60933E-07         0.30103E-10         0.00000E+00
    0.60936E-07         0.42207E-10         0.00000E+00
    0.60939E-07         0.54230E-10         0.00000E+00
    0.60943E-07         0.66102E-10         0.00000E+00
    0.60947E-07         0.77757E-10         0.00000E+00
    0.60952E-07         0.89136E-10         0.00000E+00
    0.60958E-07         0.10018E-09         0.00000E+00
    0.60964E-07         0.11085E-09         0.00000E+00
    0.60971E-07         0.12109E-09         0.00000E+00
    0.60978E-07         0.13085E-09         0.00000E+00
    0.60985E-07         0.14011E-09         0.00000E+00
    0.60993E-07         0.14883E-09         0.00000E+00
    0.61001E-07         0.15698E-09         0.00000E+00
    0.61009E-07         0.16452E-09         0.00000E+00
    0.61017E-07         0.17145E-09         0.00000E+00
    0.61026E-07         0.17773E-09         0.00000E+00
    0.61035E-07         0.18335E-09         0.00000E+00
    0.61044E-07         0.18829E-09         0.00000E+00
    0.61053E-07         0.19254E-09         0.00000E+00
    0.61062E-07         0.19608E-09         0.00000E+00
    0.61071E-07         0.19892E-09         0.00000E+00
    0.61079E-07         0.20103E-09         0.00000E+00
    0.61088E-07         0.20242E-09         0.00000E+00
    0.61097E-07         0.20307E-09         0.00000E+00
    0.61106E-07         0.20299E-09         0.00000E+00
    0.61114E-07         0.20217E-09         0.00000E+00
    0.61123E-07         0.20062E-09         0.00000E+00
    0.61131E-07         0.19833E-09         0.00000E+00
    0.61139E-07         0.19530E-09         0.00000E+00
    0.61147E-07         0.19154E-09         0.00000E+00
    0.61155E-07         0.18706E-09         0.00000E+00
    0.61162E-07         0.18185E-09         0.00000E+00
    0.61169E-07         0.17592E-09         0.00000E+00
    0.61176E-07         0.16928E-09         0.00000E+00
    0.61182E-07         0.16194E-09         0.00000E+00
    0.61188E-07         0.15390E-09         0.00000E+00
    0.61194E-07         0.14518E-09         0.00000E+00
    0.61199E-07         0.13578E-09         0.00000E+00
    0.61204E-07         0.12572E-09         0.00000E+00
    0.61209E-07         0.11501E-09         0.00000E+00
    0.61213E-07         0.10367E-09         0.00000E+00
    0.61217E-07         0.91708E-10         0.00000E+00
    0.61220E-07         0.79140E-10         0.00000E+00
    0.61222E-07         0.65986E-10         0.00000E+00
    0.61225E-07         0.52264E-10         0.00000E+00
    0.61226E-07         0.37992E-10         0.00000E+00
    0.61227E-07         0.23191E-10         0.00000E+00
    0.61228E-07         0.78834E-11         0.00000E+00
    0.58729E-07         0.39227E-11         0.00000E+00
    0.58730E-07         0.12015E-10         0.00000E+00
    0.58732E-07         0.20382E-10         0.00000E+00
    0.58734E-07         0.28948E-10         0.00000E+00
    0.58737E-07         0.37637E-10         0.00000E+00
    0.58740E-07         0.46382E-10         0.00000E+00
    0.58744E-07         0.55118E-10         0.00000E+00
    0.58748E-07         0.63784E-10         0.00000E+00
    0.58753E-07         0.72324E-10         0.00000E+00
    0.58759E-07         0.80686E-10         0.00000E+00
    0.58765E-07         0.88820E-10         0.00000E+00
    0.58771E-07         0.96683E-10         0.00000E+00
    0.58778E-07         0.10423E-09         0.00000E+00
    0.58785E-07         0.11143E-09         0.00000E+00
    0.58792E-07         0.11824E-09         0.00000E+00
    0.58799E-07         0.12464E-09         0.00000E+00
    0.58807E-07         0.13058E-09         0.00000E+00
    0.58815E-07         0.13606E-09         0.00000E+00
    0.58823E-07         0.14104E-09         0.00000E+00
    0.58831E-07         0.14550E-09         0.00000E+00
    0.58839E-07         0.14943E-09         0.00000E+00
    0.58848E-07         0.15280E-09         0.00000E+00
    0.58856E-07         0.15561E-09         0.00000E+00
    0.58865E-07         0.15784E-09         0.00000E+00
    0.58873E-07         0.15948E-09         0.00000E+00
    0.58881E-07         0.16052E-09         0.00000E+00
    0.58889E-07         0.16095E-09         0.00000E+00
    0.58897E-07         0.16078E-09         0.00000E+00
    0.58905E-07         0.15998E-09         0.00000E+00
    0.58913E-07         0.15857E-09         0.00000E+00
    0.58921E-07         0.15654E-09         0.00000E+00
    0.58928E-07         0.15389E-09         0.00000E+00
    0.58935E-07         0.15061E-09         0.00000E+00
    0.58942E-07         0.14673E-09         0.00000E+00
    0.58949E-07         0.14222E-09         0.00000E+00
    0.58956E-07         0.13711E-09         0.00000E+00
    0.58962E-07         0.13140E-09         0.00000E+00
    0.58967E-07         0.12508E-09         0.00000E+00
    0.58973E-07         0.11818E-09         0.00000E+00
    0.58978E-07         0.11070E-09         0.00000E+00
    0.58983E-07         0.10265E-09         0.00000E+00
    0.58987E-07         0.94034E-10         0.00000E+00
    0.58991E-07         0.84871E-10         0.00000E+00
    0.58994E-07         0.75172E-10         0.00000E+00
    0.58997E-07         0.64949E-10         0.00000E+00
    0.59000E-07         0.54217E-10         0.00000E+00
    0.59002E-07         0.42992E-10         0.00000E+00
    0.59003E-07         0.31287E-10         0.00000E+00
    0.59004E-07         0.19121E-10         0.00000E+00
    0.59005E-07         0.65085E-11         0.00000E+00
    0.56648E-07         0.21915E-11         0.00000E+00
    0.56649E-07         0.69195E-11         0.00000E+00
    0.56650E-07         0.12065E-10         0.00000E+00
    0.56652E-07         0.17554E-10         0.00000E+00
    0.56654E-07         0.23321E-10         0.00000E+00
    0.56657E-07         0.29298E-10         0.00000E+00
    0.56660E-07         0.35425E-10         0.00000E+00
    0.56664E-07         0.41643E-10         0.00000E+00
    0.56668E-07         0.47897E-10         0.00000E+00
    0.56673E-07         0.54137E-10         0.00000E+00
    0.56678E-07         0.60314E-10         0.00000E+00
    0.56684E-07         0.66382E-10         0.00000E+00
    0.56690E-07         0.72301E-10         0.00000E+00
    0.56696E-07         0.78029E-10         0.00000E+00
    0.56702E-07         0.83532E-10         0.00000E+00
    0.56709E-07         0.88775E-10         0.00000E+00
    0.56716E-07         0.93727E-10         0.00000E+00
    0.56723E-07         0.98359E-10         0.00000E+00
    0.56730E-07         0.10265E-09         0.00000E+00
    0.56737E-07         0.10656E-09         0.00000E+00
    0.56744E-07         0.11009E-09         0.00000E+00
    0.56752E-07         0.11321E-09         0.00000E+00
    0.56759E-07         0.11590E-09         0.00000E+00
    0.56767E-07         0.11814E-09         0.00000E+00
    0.56774E-07         0.11993E-09         0.00000E+00
    0.56782E-07         0.12125E-09         0.00000E+00
    0.56789E-07         0.12209E-09         0.00000E+00
    0.56797E-07         0.12244E-09         0.00000E+00
    0.56804E-07         0.12229E-09         0.00000E+00
    0.56811E-07         0.12164E-09         0.00000E+00
    0.56818E-07         0.12049E-09         0.00000E+00
    0.56825E-07         0.11883E-09         0.00000E+00
    0.56831E-07         0.11666E-09         0.00000E+00
    0.56838E-07         0.11397E-09         0.00000E+00
    0.56844E-07         0.11078E-09         0.00000E+00
    0.56850E-07         0.10708E-09         0.00000E+00
    0.56855E-07         0.10287E-09         0.00000E+00
    0.56861E-07         0.98166E-10         0.00000E+00
    0.56866E-07         0.92961E-10         0.00000E+00
    0.56870E-07         0.87266E-10         0.00000E+00
    0.56875E-07         0.81087E-10         0.00000E+00
    0.56879E-07         0.74432E-10         0.00000E+00
    0.56882E-07         0.67310E-10         0.00000E+00
    0.56885E-07         0.59730E-10         0.00000E+00
    0.56888E-07         0.51701E-10         0.00000E+00
    0.56890E-07         0.43235E-10         0.00000E+00
    0.56892E-07         0.34342E-10         0.00000E+00
    0.56894E-07         0.25035E-10         0.00000E+00
    0.56895E-07         0.15326E-10         0.00000E+00
    0.56895E-07         0.52274E-11         0.00000E+00
    0.54679E-07         0.75600E-12         0.00000E+00
    0.54680E-07         0.26779E-11         0.00000E+00
    0.54681E-07         0.51131E-11         0.00000E+00
    0.54682E-07         0.79959E-11         0.00000E+00
    0.54684E-07         0.11264E-10         0.00000E+00
    0.54686E-07         0.14857E-10         0.00000E+00
    0.54689E-07         0.18718E-10         0.00000E+00
    0.54693E-07         0.22793E-10         0.00000E+00
    0.54696E-07         0.27031E-10         0.00000E+00
    0.54700E-07         0.31382E-10         0.00000E+00
    0.54705E-07         0.35800E-10         0.00000E+00
    0.54709E-07         0.40243E-10         0.00000E+00
    0.54714E-07         0.44668E-10         0.00000E+00
    0.54719E-07         0.49037E-10         0.00000E+00
    0.54725E-07         0.53314E-10         0.00000E+00
    0.54730E-07         0.57465E-10         0.00000E+00
    0.54736E-07         0.61459E-10         0.00000E+00
    0.54742E-07         0.65267E-10         0.00000E+00
    0.54749E-07         0.68860E-10         0.00000E+00
    0.54755E-07         0.72215E-10         0.00000E+00
    0.54761E-07         0.75308E-10         0.00000E+00
    0.54768E-07         0.78118E-10         0.00000E+00
    0.54774E-07         0.80625E-10         0.00000E+00
    0.54781E-07         0.82812E-10         0.00000E+00
    0.54788E-07         0.84664E-10         0.00000E+00
    0.54794E-07         0.86166E-10         0.00000E+00
    0.54801E-07         0.87305E-10         0.00000E+00
    0.54807E-07         0.88072E-10         0.00000E+00
    0.54814E-07         0.88455E-10         0.00000E+00
    0.54820E-07         0.88448E-10         0.00000E+00
    0.54826E-07         0.88044E-10         0.00000E+00
    0.54832E-07         0.87236E-10         0.00000E+00
    0.54838E-07         0.86021E-10         0.00000E+00
    0.54844E-07         0.84397E-10         0.00000E+00
    0.54849E-07         0.82360E-10         0.00000E+00
    0.54854E-07         0.79911E-10         0.00000E+00
    0.54859E-07         0.77050E-10         0.00000E+00
    0.54864E-07         0.73778E-10         0.00000E+00
    0.54869E-07         0.70097E-10         0.00000E+00
    0.54873E-07         0.66011E-10         0.00000E+00
    0.54877E-07         0.61523E-10         0.00000E+00
    0.54880E-07         0.56638E-10         0.00000E+00
    0.54883E-07         0.51362E-10         0.00000E+00
    0.54886E-07         0.45701E-10         0.00000E+00
    0.54889E-07         0.39662E-10         0.00000E+00
    0.54891E-07         0.33251E-10         0.00000E+00
    0.54892E-07         0.26477E-10         0.00000E+00
    0.54894E-07         0.19349E-10         0.00000E+00
    0.54895E-07         0.11874E-10         0.00000E+00
    0.54895E-07         0.40613E-11         0.00000E+00
    0.52816E-07        -0.40901E-12         0.00000E+00
    0.52817E-07        -0.77758E-12         0.00000E+00
    0.52817E-07        -0.57208E-12         0.00000E+00
    0.52819E-07         0.14913E-12         0.00000E+00
    0.52820E-07         0.13299E-11         0.00000E+00
    0.52822E-07         0.29163E-11         0.00000E+00
    0.52824E-07         0.48565E-11         0.00000E+00
    0.52827E-07         0.71010E-11         0.00000E+00
    0.52830E-07         0.96024E-11         0.00000E+00
    0.52833E-07         0.12316E-10         0.00000E+00
    0.52837E-07         0.15197E-10         0.00000E+00
    0.52841E-07         0.18207E-10         0.00000E+00
    0.52845E-07         0.21306E-10         0.00000E+00
    0.52849E-07         0.24456E-10         0.00000E+00
    0.52854E-07         0.27625E-10         0.00000E+00
    0.52859E-07         0.30778E-10         0.00000E+00
    0.52864E-07         0.33885E-10         0.00000E+00
    0.52869E-07         0.36917E-10         0.00000E+00
    0.52874E-07         0.39847E-10         0.00000E+00
    0.52879E-07         0.42651E-10         0.00000E+00
    0.52885E-07         0.45303E-10         0.00000E+00
    0.52891E-07         0.47784E-10         0.00000E+00
    0.52896E-07         0.50072E-10         0.00000E+00
    0.52902E-07         0.52149E-10         0.00000E+00
    0.52907E-07         0.53999E-10         0.00000E+00
    0.52913E-07         0.55606E-10         0.00000E+00
    0.52919E-07         0.56956E-10         0.00000E+00
    0.52924E-07         0.58037E-10         0.00000E+00
    0.52930E-07         0.58838E-10         0.00000E+00
    0.52935E-07         0.59348E-10         0.00000E+00
    0.52941E-07         0.59559E-10         0.00000E+00
    0.52946E-07         0.59464E-10         0.00000E+00
    0.52951E-07         0.59057E-10         0.00000E+00
    0.52956E-07         0.58333E-10         0.00000E+00
    0.52961E-07         0.57287E-10         0.00000E+00
    0.52965E-07         0.55918E-10         0.00000E+00
    0.52970E-07         0.54222E-10         0.00000E+00
    0.52974E-07         0.52198E-10         0.00000E+00
    0.52978E-07         0.49847E-10         0.00000E+00
    0.52981E-07         0.47169E-10         0.00000E+00
    0.52985E-07         0.44166E-10         0.00000E+00
    0.52988E-07         0.40839E-10         0.00000E+00
    0.52991E-07         0.37191E-10         0.00000E+00
    0.52993E-07         0.33226E-10         0.00000E+00
    0.52995E-07         0.28947E-10         0.00000E+00
    0.52997E-07         0.24359E-10         0.00000E+00
    0.52999E-07         0.19467E-10         0.00000E+00
    0.53000E-07         0.14276E-10         0.00000E+00
    0.53001E-07         0.87917E-11         0.00000E+00
    0.53001E-07         0.30193E-11         0.00000E+00
    0.51053E-07        -0.13343E-11         0.00000E+00
    0.51053E-07        -0.35332E-11         0.00000E+00
    0.51054E-07        -0.51242E-11         0.00000E+00
    0.51055E-07        -0.61584E-11         0.00000E+00
    0.51056E-07        -0.66855E-11         0.00000E+00
    0.51058E-07        -0.67534E-11         0.00000E+00
    0.51060E-07        -0.64084E-11         0.00000E+00
    0.51062E-07        -0.56951E-11         0.00000E+00
    0.51064E-07        -0.46561E-11         0.00000E+00
    0.51067E-07        -0.33327E-11         0.00000E+00
    0.51070E-07        -0.17641E-11         0.00000E+00
    0.51073E-07         0.12055E-13         0.00000E+00
    0.51077E-07         0.19598E-11         0.00000E+00
    0.51080E-07         0.40449E-11         0.00000E+00
    0.51084E-07         0.62347E-11         0.00000E+00
    0.51088E-07         0.84985E-11         0.00000E+00
    0.51092E-07         0.10807E-10         0.00000E+00
    0.51096E-07         0.13132E-10         0.00000E+00
    0.51101E-07         0.15449E-10         0.00000E+00
    0.51105E-07         0.17731E-10         0.00000E+00
    0.51110E-07         0.19957E-10         0.00000E+00
    0.51114E-07         0.22105E-10         0.00000E+00
    0.51119E-07         0.24155E-10         0.00000E+00
    0.51124E-07         0.26088E-10         0.00000E+00
    0.51128E-07         0.27887E-10         0.00000E+00
    0.51133E-07         0.29535E-10         0.00000E+00
    0.51138E-07         0.31019E-10         0.00000E+00
    0.51143E-07         0.32325E-10         0.00000E+00
    0.51147E-07         0.33440E-10         0.00000E+00
    0.51152E-07         0.34355E-10         0.00000E+00
    0.51157E-07         0.35058E-10         0.00000E+00
    0.51161E-07         0.35541E-10         0.00000E+00
    0.51165E-07         0.35797E-10         0.00000E+00
    0.51170E-07         0.35819E-10         0.00000E+00
    0.51174E-07         0.35601E-10         0.00000E+00
    0.51178E-07         0.35138E-10         0.00000E+00
    0.51181E-07         0.34426E-10         0.00000E+00
    0.51185E-07         0.33463E-10         0.00000E+00
    0.51188E-07         0.32246E-10         0.00000E+00
    0.51191E-07         0.30774E-10         0.00000E+00
    0.51194E-07         0.29045E-10         0.00000E+00
    0.51197E-07         0.27060E-10         0.00000E+00
    0.51199E-07         0.24819E-10         0.00000E+00
    0.51202E-07         0.22323E-10         0.00000E+00
    0.51204E-07         0.19573E-10         0.00000E+00
    0.51205E-07         0.16572E-10         0.00000E+00
    0.51206E-07         0.13321E-10         0.00000E+00
    0.51207E-07         0.98243E-11         0.00000E+00
    0.51208E-07         0.60836E-11         0.00000E+00
    0.51208E-07         0.21025E-11         0.00000E+00
    0.49385E-07        -0.20524E-11         0.00000E+00
    0.49385E-07        -0.56817E-11         0.00000E+00
    0.49386E-07        -0.86892E-11         0.00000E+00
    0.49386E-07        -0.11119E-10         0.00000E+00
    0.49387E-07        -0.13016E-10         0.00000E+00
    0.49389E-07        -0.14421E-10         0.00000E+00
    0.49390E-07        -0.15375E-10         0.00000E+00
    0.49392E-07        -0.15917E-10         0.00000E+00
    0.49394E-07        -0.16086E-10         0.00000E+00
    0.49396E-07        -0.15919E-10         0.00000E+00
    0.49398E-07        -0.15452E-10         0.00000E+00
    0.49401E-07        -0.14717E-10         0.00000E+00
    0.49403E-07        -0.13748E-10         0.00000E+00
    0.49406E-07        -0.12577E-10         0.00000E+00
    0.49409E-07        -0.11233E-10         0.00000E+00
    0.49412E-07        -0.97449E-11         0.00000E+00
    0.49416E-07        -0.81402E-11         0.00000E+00
    0.49419E-07        -0.64447E-11         0.00000E+00
    0.49423E-07        -0.46832E-11         0.00000E+00
    0.49426E-07        -0.28789E-11         0.00000E+00
    0.49430E-07        -0.10539E-11         0.00000E+00
    0.49434E-07         0.77100E-12         0.00000E+00
    0.49438E-07         0.25762E-11         0.00000E+00
    0.49442E-07         0.43434E-11         0.00000E+00
    0.49446E-07         0.60555E-11         0.00000E+00
    0.49450E-07         0.76963E-11         0.00000E+00
    0.49454E-07         0.92511E-11         0.00000E+00
    0.49458E-07         0.10706E-10         0.00000E+00
    0.49461E-07         0.12049E-10         0.00000E+00
    0.49465E-07         0.13267E-10         0.00000E+00
    0.49469E-07         0.14351E-10         0.00000E+00
    0.49473E-07         0.15290E-10         0.00000E+00
    0.49477E-07         0.16076E-10         0.00000E+00
    0.49480E-07         0.16700E-10         0.00000E+00
    0.49484E-07         0.17157E-10         0.00000E+00
    0.49487E-07         0.17440E-10         0.00000E+00
    0.49490E-07         0.17543E-10         0.00000E+00
    0.49493E-07         0.17462E-10         0.00000E+00
    0.49496E-07         0.17193E-10         0.00000E+00
    0.49499E-07         0.16732E-10         0.00000E+00
    0.49501E-07         0.16078E-10         0.00000E+00
    0.49503E-07         0.15228E-10         0.00000E+00
    0.49505E-07         0.14181E-10         0.00000E+00
    0.49507E-07         0.12936E-10         0.00000E+00
    0.49509E-07         0.11492E-10         0.00000E+00
    0.49510E-07         0.98498E-11         0.00000E+00
    0.49511E-07         0.80092E-11         0.00000E+00
    0.49512E-07         0.59711E-11         0.00000E+00
    0.49513E-07         0.37365E-11         0.00000E+00
    0.49513E-07         0.13065E-11         0.00000E+00
    0.47806E-07        -0.25952E-11         0.00000E+00
    0.47806E-07        -0.73144E-11         0.00000E+00
    0.47807E-07        -0.11413E-10         0.00000E+00
    0.47807E-07        -0.14929E-10         0.00000E+00
    0.47808E-07        -0.17900E-10         0.00000E+00
    0.47809E-07        -0.20363E-10         0.00000E+00
    0.47810E-07        -0.22353E-10         0.00000E+00
    0.47811E-07        -0.23906E-10         0.00000E+00
    0.47813E-07        -0.25055E-10         0.00000E+00
    0.47814E-07        -0.25833E-10         0.00000E+00
    0.47816E-07        -0.26271E-10         0.00000E+00
    0.47818E-07        -0.26400E-10         0.00000E+00
    0.47820E-07        -0.26250E-10         0.00000E+00
    0.47823E-07        -0.25849E-10         0.00000E+00
    0.47825E-07        -0.25223E-10         0.00000E+00
    0.47828E-07        -0.24400E-10         0.00000E+00
    0.47830E-07        -0.23405E-10         0.00000E+00
    0.47833E-07        -0.22261E-10         0.00000E+00
    0.47836E-07        -0.20991E-10         0.00000E+00
    0.47839E-07        -0.19617E-10         0.00000E+00
    0.47842E-07        -0.18161E-10         0.00000E+00
    0.47845E-07        -0.16641E-10         0.00000E+00
    0.47848E-07        -0.15077E-10         0.00000E+00
    0.47851E-07        -0.13485E-10         0.00000E+00
    0.47854E-07        -0.11884E-10         0.00000E+00
    0.47858E-07        -0.10288E-10         0.00000E+00
    0.47861E-07        -0.87117E-11         0.00000E+00
    0.47864E-07        -0.71696E-11         0.00000E+00
    0.47867E-07        -0.56740E-11         0.00000E+00
    0.47871E-07        -0.42371E-11         0.00000E+00
    0.47874E-07        -0.28698E-11         0.00000E+00
    0.47877E-07        -0.15823E-11         0.00000E+00
    0.47880E-07        -0.38402E-12         0.00000E+00
    0.47883E-07         0.71648E-12         0.00000E+00
    0.47886E-07         0.17114E-11         0.00000E+00
    0.47888E-07         0.25936E-11         0.00000E+00
    0.47891E-07         0.33567E-11         0.00000E+00
    0.47893E-07         0.39951E-11         0.00000E+00
    0.47896E-07         0.45037E-11         0.00000E+00
    0.47898E-07         0.48780E-11         0.00000E+00
    0.47900E-07         0.51141E-11         0.00000E+00
    0.47902E-07         0.52088E-11         0.00000E+00
    0.47904E-07         0.51591E-11         0.00000E+00
    0.47905E-07         0.49627E-11         0.00000E+00
    0.47907E-07         0.46178E-11         0.00000E+00
    0.47908E-07         0.41228E-11         0.00000E+00
    0.47909E-07         0.34766E-11         0.00000E+00
    0.47910E-07         0.26783E-11         0.00000E+00
    0.47910E-07         0.17275E-11         0.00000E+00
    0.47910E-07         0.62395E-12         0.00000E+00
    0.46313E-07        -0.29920E-11         0.00000E+00
    0.46313E-07        -0.85162E-11         0.00000E+00
    0.46313E-07        -0.13431E-10         0.00000E+00
    0.46313E-07        -0.17769E-10         0.00000E+00
    0.46314E-07        -0.21563E-10         0.00000E+00
    0.46315E-07        -0.24845E-10         0.00000E+00
    0.46315E-07        -0.27645E-10         0.00000E+00
    0.46316E-07        -0.29995E-10         0.00000E+00
    0.46318E-07        -0.31923E-10         0.00000E+00
    0.46319E-07        -0.33459E-10         0.00000E+00
    0.46320E-07        -0.34630E-10         0.00000E+00
    0.46322E-07        -0.35463E-10         0.00000E+00
    0.46323E-07        -0.35985E-10         0.00000E+00
    0.46325E-07        -0.36222E-10         0.00000E+00
    0.46327E-07        -0.36197E-10         0.00000E+00
    0.46329E-07        -0.35935E-10         0.00000E+00
    0.46331E-07        -0.35459E-10         0.00000E+00
    0.46333E-07        -0.34790E-10         0.00000E+00
    0.46335E-07        -0.33949E-10         0.00000E+00
    0.46338E-07        -0.32957E-10         0.00000E+00
    0.46340E-07        -0.31833E-10         0.00000E+00
    0.46343E-07        -0.30595E-10         0.00000E+00
    0.46345E-07        -0.29261E-10         0.00000E+00
    0.46348E-07        -0.27848E-10         0.00000E+00
    0.46350E-07        -0.26372E-10         0.00000E+00
    0.46353E-07        -0.24847E-10         0.00000E+00
    0.46355E-07        -0.23287E-10         0.00000E+00
    0.46358E-07        -0.21708E-10         0.00000E+00
    0.46360E-07        -0.20120E-10         0.00000E+00
    0.46363E-07        -0.18535E-10         0.00000E+00
    0.46366E-07        -0.16966E-10         0.00000E+00
    0.46368E-07        -0.15421E-10         0.00000E+00
    0.46371E-07        -0.13912E-10         0.00000E+00
    0.46373E-07        -0.12446E-10         0.00000E+00
    0.46375E-07        -0.11033E-10         0.00000E+00
    0.46378E-07        -0.96788E-11         0.00000E+00
    0.46380E-07        -0.83917E-11         0.00000E+00
    0.46382E-07        -0.71778E-11         0.00000E+00
    0.46384E-07        -0.60429E-11         0.00000E+00
    0.46386E-07        -0.49924E-11         0.00000E+00
    0.46387E-07        -0.40310E-11         0.00000E+00
    0.46389E-07        -0.31631E-11         0.00000E+00
    0.46390E-07        -0.23923E-11         0.00000E+00
    0.46392E-07        -0.17222E-11         0.00000E+00
    0.46393E-07        -0.11556E-11         0.00000E+00
    0.46394E-07        -0.69515E-12         0.00000E+00
    0.46394E-07        -0.34308E-12         0.00000E+00
    0.46395E-07        -0.10127E-12         0.00000E+00
    0.46396E-07         0.28701E-13         0.00000E+00
    0.46396E-07         0.45516E-13         0.00000E+00
    0.44900E-07        -0.32690E-11         0.00000E+00
    0.44900E-07        -0.93635E-11         0.00000E+00
    0.44900E-07        -0.14867E-10         0.00000E+00
    0.44901E-07        -0.19808E-10         0.00000E+00
    0.44901E-07        -0.24213E-10         0.00000E+00
    0.44901E-07        -0.28111E-10         0.00000E+00
    0.44902E-07        -0.31529E-10         0.00000E+00
    0.44903E-07        -0.34492E-10         0.00000E+00
    0.44904E-07        -0.37026E-10         0.00000E+00
    0.44905E-07        -0.39157E-10         0.00000E+00
    0.44906E-07        -0.40909E-10         0.00000E+00
    0.44907E-07        -0.42306E-10         0.00000E+00
    0.44908E-07        -0.43372E-10         0.00000E+00
    0.44909E-07        -0.44129E-10         0.00000E+00
    0.44911E-07        -0.44599E-10         0.00000E+00
    0.44912E-07        -0.44803E-10         0.00000E+00
    0.44914E-07        -0.44763E-10         0.00000E+00
    0.44915E-07        -0.44497E-10         0.00000E+00
    0.44917E-07        -0.44025E-10         0.00000E+00
    0.44919E-07        -0.43366E-10         0.00000E+00
    0.44921E-07        -0.42537E-10         0.00000E+00
    0.44922E-07        -0.41555E-10         0.00000E+00
    0.44924E-07        -0.40437E-10         0.00000E+00
    0.44926E-07        -0.39198E-10         0.00000E+00
    0.44928E-07        -0.37854E-10         0.00000E+00
    0.44930E-07        -0.36418E-10         0.00000E+00
    0.44932E-07        -0.34904E-10         0.00000E+00
    0.44935E-07        -0.33324E-10         0.00000E+00
    0.44937E-07        -0.31692E-10         0.00000E+00
    0.44939E-07        -0.30018E-10         0.00000E+00
    0.44941E-07        -0.28313E-10         0.00000E+00
    0.44943E-07        -0.26589E-10         0.00000E+00
    0.44945E-07        -0.24853E-10         0.00000E+00
    0.44947E-07        -0.23116E-10         0.00000E+00
    0.44948E-07        -0.21386E-10         0.00000E+00
    0.44950E-07        -0.19671E-10         0.00000E+00
    0.44952E-07        -0.17977E-10         0.00000E+00
    0.44954E-07        -0.16313E-10         0.00000E+00
    0.44955E-07        -0.14683E-10         0.00000E+00
    0.44957E-07        -0.13095E-10         0.00000E+00
    0.44958E-07        -0.11553E-10         0.00000E+00
    0.44959E-07        -0.10063E-10         0.00000E+00
    0.44961E-07        -0.86279E-11         0.00000E+00
    0.44962E-07        -0.72528E-11         0.00000E+00
    0.44963E-07        -0.59412E-11         0.00000E+00
    0.44963E-07        -0.46964E-11         0.00000E+00
    0.44964E-07        -0.35212E-11         0.00000E+00
    0.44965E-07        -0.24184E-11         0.00000E+00
    0.44965E-07        -0.13902E-11         0.00000E+00
    0.44965E-07        -0.43873E-12         0.00000E+00
    0.43565E-07        -0.34489E-11         0.00000E+00
    0.43565E-07        -0.99224E-11         0.00000E+00
    0.43565E-07        -0.15828E-10         0.00000E+00
    0.43565E-07        -0.21190E-10         0.00000E+00
    0.43565E-07        -0.26032E-10         0.00000E+00
    0.43566E-07        -0.30377E-10         0.00000E+00
    0.43566E-07        -0.34249E-10         0.00000E+00
    0.43567E-07        -0.37671E-10         0.00000E+00
    0.43567E-07        -0.40665E-10         0.00000E+00
    0.43568E-07        -0.43253E-10         0.00000E+00
    0.43568E-07        -0.45456E-10         0.00000E+00
    0.43569E-07        -0.47295E-10         0.00000E+00
    0.43570E-07        -0.48792E-10         0.00000E+00
    0.43571E-07        -0.49965E-10         0.00000E+00
    0.43572E-07        -0.50836E-10         0.00000E+00
    0.43573E-07        -0.51422E-10         0.00000E+00
    0.43574E-07        -0.51742E-10         0.00000E+00
    0.43575E-07        -0.51814E-10         0.00000E+00
    0.43577E-07        -0.51655E-10         0.00000E+00
    0.43578E-07        -0.51282E-10         0.00000E+00
    0.43579E-07        -0.50712E-10         0.00000E+00
    0.43581E-07        -0.49959E-10         0.00000E+00
    0.43582E-07        -0.49040E-10         0.00000E+00
    0.43584E-07        -0.47967E-10         0.00000E+00
    0.43585E-07        -0.46756E-10         0.00000E+00
    0.43587E-07        -0.45420E-10         0.00000E+00
    0.43588E-07        -0.43970E-10         0.00000E+00
    0.43590E-07        -0.42420E-10         0.00000E+00
    0.43592E-07        -0.40780E-10         0.00000E+00
    0.43593E-07        -0.39063E-10         0.00000E+00
    0.43595E-07        -0.37278E-10         0.00000E+00
    0.43596E-07        -0.35435E-10         0.00000E+00
    0.43598E-07        -0.33544E-10         0.00000E+00
    0.43599E-07        -0.31614E-10         0.00000E+00
    0.43601E-07        -0.29653E-10         0.00000E+00
    0.43602E-07        -0.27669E-10         0.00000E+00
    0.43604E-07        -0.25669E-10         0.00000E+00
    0.43605E-07        -0.23661E-10         0.00000E+00
    0.43606E-07        -0.21650E-10         0.00000E+00
    0.43608E-07        -0.19644E-10         0.00000E+00
    0.43609E-07        -0.17646E-10         0.00000E+00
    0.43610E-07        -0.15664E-10         0.00000E+00
    0.43611E-07        -0.13701E-10         0.00000E+00
    0.43612E-07        -0.11762E-10         0.00000E+00
    0.43612E-07        -0.98516E-11         0.00000E+00
    0.43613E-07        -0.79728E-11         0.00000E+00
    0.43613E-07        -0.61291E-11         0.00000E+00
    0.43614E-07        -0.43238E-11         0.00000E+00
    0.43614E-07        -0.25595E-11         0.00000E+00
    0.43614E-07        -0.83877E-12         0.00000E+00
    0.42303E-07        -0.35509E-11         0.00000E+00
    0.42303E-07        -0.10249E-10         0.00000E+00
    0.42303E-07        -0.16406E-10         0.00000E+00
    0.42303E-07        -0.22041E-10         0.00000E+00
    0.42303E-07        -0.27175E-10         0.00000E+00
    0.42303E-07        -0.31829E-10         0.00000E+00
    0.42304E-07        -0.36021E-10         0.00000E+00
    0.42304E-07        -0.39773E-10         0.00000E+00
    0.42304E-07        -0.43103E-10         0.00000E+00
    0.42305E-07        -0.46030E-10         0.00000E+00
    0.42305E-07        -0.48573E-10         0.00000E+00
    0.42306E-07        -0.50751E-10         0.00000E+00
    0.42306E-07        -0.52581E-10         0.00000E+00
    0.42307E-07        -0.54082E-10         0.00000E+00
    0.42308E-07        -0.55271E-10         0.00000E+00
    0.42308E-07        -0.56164E-10         0.00000E+00
    0.42309E-07        -0.56778E-10         0.00000E+00
    0.42310E-07        -0.57128E-10         0.00000E+00
    0.42311E-07        -0.57232E-10         0.00000E+00
    0.42312E-07        -0.57103E-10         0.00000E+00
    0.42313E-07        -0.56756E-10         0.00000E+00
    0.42314E-07        -0.56206E-10         0.00000E+00
    0.42315E-07        -0.55465E-10         0.00000E+00
    0.42316E-07        -0.54549E-10         0.00000E+00
    0.42317E-07        -0.53468E-10         0.00000E+00
    0.42318E-07        -0.52236E-10         0.00000E+00
    0.42320E-07        -0.50864E-10         0.00000E+00
    0.42321E-07        -0.49363E-10         0.00000E+00
    0.42322E-07        -0.47745E-10         0.00000E+00
    0.42323E-07        -0.46020E-10         0.00000E+00
    0.42324E-07        -0.44197E-10         0.00000E+00
    0.42326E-07        -0.42287E-10         0.00000E+00
    0.42327E-07        -0.40298E-10         0.00000E+00
    0.42328E-07        -0.38239E-10         0.00000E+00
    0.42329E-07        -0.36118E-10         0.00000E+00
    0.42330E-07        -0.33943E-10         0.00000E+00
    0.42331E-07        -0.31721E-10         0.00000E+00
    0.42332E-07        -0.29458E-10         0.00000E+00
    0.42333E-07        -0.27162E-10         0.00000E+00
    0.42334E-07        -0.24839E-10         0.00000E+00
    0.42335E-07        -0.22493E-10         0.00000E+00
    0.42336E-07        -0.20131E-10         0.00000E+00
    0.42337E-07        -0.17757E-10         0.00000E+00
    0.42337E-07        -0.15377E-10         0.00000E+00
    0.42338E-07        -0.12994E-10         0.00000E+00
    0.42338E-07        -0.10612E-10         0.00000E+00
    0.42339E-07        -0.82346E-11         0.00000E+00
    0.42339E-07        -0.58657E-11         0.00000E+00
    0.42339E-07        -0.35080E-11         0.00000E+00
    0.42340E-07        -0.11642E-11         0.00000E+00
    0.41112E-07        -0.35910E-11         0.00000E+00
    0.41112E-07        -0.10391E-10         0.00000E+00
    0.41112E-07        -0.16677E-10         0.00000E+00
    0.41112E-07        -0.22466E-10         0.00000E+00
    0.41112E-07        -0.27776E-10         0.00000E+00
    0.41112E-07        -0.32623E-10         0.00000E+00
    0.41112E-07        -0.37025E-10         0.00000E+00
    0.41112E-07        -0.41000E-10         0.00000E+00
    0.41112E-07        -0.44563E-10         0.00000E+00
    0.41112E-07        -0.47731E-10         0.00000E+00
    0.41113E-07        -0.50522E-10         0.00000E+00
    0.41113E-07        -0.52950E-10         0.00000E+00
    0.41113E-07        -0.55032E-10         0.00000E+00
    0.41114E-07        -0.56783E-10         0.00000E+00
    0.41114E-07        -0.58218E-10         0.00000E+00
    0.41115E-07        -0.59353E-10         0.00000E+00
    0.41115E-07        -0.60202E-10         0.00000E+00
    0.41116E-07        -0.60780E-10         0.00000E+00
    0.41116E-07        -0.61099E-10         0.00000E+00
    0.41117E-07        -0.61174E-10         0.00000E+00
    0.41118E-07        -0.61019E-10         0.00000E+00
    0.41118E-07        -0.60644E-10         0.00000E+00
    0.41119E-07        -0.60064E-10         0.00000E+00
    0.41120E-07        -0.59291E-10         0.00000E+00
    0.41121E-07        -0.58334E-10         0.00000E+00
    0.41121E-07        -0.57208E-10         0.00000E+00
    0.41122E-07        -0.55921E-10         0.00000E+00
    0.41123E-07        -0.54484E-10         0.00000E+00
    0.41124E-07        -0.52908E-10         0.00000E+00
    0.41125E-07        -0.51203E-10         0.00000E+00
    0.41126E-07        -0.49376E-10         0.00000E+00
    0.41127E-07        -0.47439E-10         0.00000E+00
    0.41128E-07        -0.45398E-10         0.00000E+00
    0.41128E-07        -0.43262E-10         0.00000E+00
    0.41129E-07        -0.41039E-10         0.00000E+00
    0.41130E-07        -0.38737E-10         0.00000E+00
    0.41131E-07        -0.36361E-10         0.00000E+00
    0.41132E-07        -0.33920E-10         0.00000E+00
    0.41132E-07        -0.31419E-10         0.00000E+00
    0.41133E-07        -0.28864E-10         0.00000E+00
    0.41134E-07        -0.26261E-10         0.00000E+00
    0.41134E-07        -0.23615E-10         0.00000E+00
    0.41135E-07        -0.20930E-10         0.00000E+00
    0.41136E-07        -0.18213E-10         0.00000E+00
    0.41136E-07        -0.15466E-10         0.00000E+00
    0.41136E-07        -0.12694E-10         0.00000E+00
    0.41137E-07        -0.99007E-11         0.00000E+00
    0.41137E-07        -0.70892E-11         0.00000E+00
    0.41137E-07        -0.42627E-11         0.00000E+00
    0.41137E-07        -0.14240E-11         0.00000E+00
    0.39988E-07        -0.35822E-11         0.00000E+00
    0.39988E-07        -0.10387E-10         0.00000E+00
    0.39988E-07        -0.16705E-10         0.00000E+00
    0.39988E-07        -0.22552E-10         0.00000E+00
    0.39987E-07        -0.27942E-10         0.00000E+00
    0.39987E-07        -0.32890E-10         0.00000E+00
    0.39988E-07        -0.37412E-10         0.00000E+00
    0.39988E-07        -0.41522E-10         0.00000E+00
    0.39988E-07        -0.45233E-10         0.00000E+00
    0.39988E-07        -0.48562E-10         0.00000E+00
    0.39988E-07        -0.51521E-10         0.00000E+00
    0.39988E-07        -0.54126E-10         0.00000E+00
    0.39988E-07        -0.56389E-10         0.00000E+00
    0.39988E-07        -0.58325E-10         0.00000E+00
    0.39988E-07        -0.59947E-10         0.00000E+00
    0.39989E-07        -0.61268E-10         0.00000E+00
    0.39989E-07        -0.62301E-10         0.00000E+00
    0.39989E-07        -0.63058E-10         0.00000E+00
    0.39990E-07        -0.63553E-10         0.00000E+00
    0.39990E-07        -0.63797E-10         0.00000E+00
    0.39990E-07        -0.63802E-10         0.00000E+00
    0.39991E-07        -0.63579E-10         0.00000E+00
    0.39991E-07        -0.63141E-10         0.00000E+00
    0.39992E-07        -0.62496E-10         0.00000E+00
    0.39992E-07        -0.61657E-10         0.00000E+00
    0.39993E-07        -0.60633E-10         0.00000E+00
    0.39993E-07        -0.59435E-10         0.00000E+00
    0.39994E-07        -0.58072E-10         0.00000E+00
    0.39995E-07        -0.56552E-10         0.00000E+00
    0.39995E-07        -0.54886E-10         0.00000E+00
    0.39996E-07        -0.53082E-10         0.00000E+00
    0.39996E-07        -0.51148E-10         0.00000E+00
    0.39997E-07        -0.49092E-10         0.00000E+00
    0.39998E-07        -0.46922E-10         0.00000E+00
    0.39998E-07        -0.44644E-10         0.00000E+00
    0.39999E-07        -0.42267E-10         0.00000E+00
    0.39999E-07        -0.39796E-10         0.00000E+00
    0.40000E-07        -0.37237E-10         0.00000E+00
    0.40001E-07        -0.34598E-10         0.00000E+00
    0.40001E-07        -0.31884E-10         0.00000E+00
    0.40002E-07        -0.29099E-10         0.00000E+00
    0.40002E-07        -0.26249E-10         0.00000E+00
    0.40002E-07        -0.23339E-10         0.00000E+00
    0.40003E-07        -0.20374E-10         0.00000E+00
    0.40003E-07        -0.17357E-10         0.00000E+00
    0.40003E-07        -0.14293E-10         0.00000E+00
    0.40004E-07        -0.11184E-10         0.00000E+00
    0.40004E-07        -0.80347E-11         0.00000E+00
    0.40004E-07        -0.48479E-11         0.00000E+00
    0.40004E-07        -0.16262E-11         0.00000E+00
    0.38928E-07        -0.35351E-11         0.00000E+00
    0.38928E-07        -0.10267E-10         0.00000E+00
    0.38928E-07        -0.16540E-10         0.00000E+00
    0.38928E-07        -0.22368E-10         0.00000E+00
    0.38928E-07        -0.27763E-10         0.00000E+00
    0.38928E-07        -0.32738E-10         0.00000E+00
    0.38928E-07        -0.37305E-10         0.00000E+00
    0.38928E-07        -0.41478E-10         0.00000E+00
    0.38928E-07        -0.45269E-10         0.00000E+00
    0.38928E-07        -0.48690E-10         0.00000E+00
    0.38928E-07        -0.51754E-10         0.00000E+00
    0.38928E-07        -0.54473E-10         0.00000E+00
    0.38928E-07        -0.56859E-10         0.00000E+00
    0.38928E-07        -0.58924E-10         0.00000E+00
    0.38928E-07        -0.60680E-10         0.00000E+00
    0.38928E-07        -0.62139E-10         0.00000E+00
    0.38928E-07        -0.63312E-10         0.00000E+00
    0.38928E-07        -0.64210E-10         0.00000E+00
    0.38928E-07        -0.64843E-10         0.00000E+00
    0.38928E-07        -0.65224E-10         0.00000E+00
    0.38928E-07        -0.65363E-10         0.00000E+00
    0.38929E-07        -0.65269E-10         0.00000E+00
    0.38929E-07        -0.64953E-10         0.00000E+00
    0.38929E-07        -0.64424E-10         0.00000E+00
    0.38929E-07        -0.63693E-10         0.00000E+00
    0.38930E-07        -0.62768E-10         0.00000E+00
    0.38930E-07        -0.61659E-10         0.00000E+00
    0.38930E-07        -0.60374E-10         0.00000E+00
    0.38931E-07        -0.58921E-10         0.00000E+00
    0.38931E-07        -0.57310E-10         0.00000E+00
    0.38931E-07        -0.55547E-10         0.00000E+00
    0.38932E-07        -0.53640E-10         0.00000E+00
    0.38932E-07        -0.51598E-10         0.00000E+00
    0.38933E-07        -0.49426E-10         0.00000E+00
    0.38933E-07        -0.47132E-10         0.00000E+00
    0.38933E-07        -0.44721E-10         0.00000E+00
    0.38934E-07        -0.42202E-10         0.00000E+00
    0.38934E-07        -0.39578E-10         0.00000E+00
    0.38935E-07        -0.36856E-10         0.00000E+00
    0.38935E-07        -0.34042E-10         0.00000E+00
    0.38935E-07        -0.31139E-10         0.00000E+00
    0.38936E-07        -0.28154E-10         0.00000E+00
    0.38936E-07        -0.25091E-10         0.00000E+00
    0.38936E-07        -0.21953E-10         0.00000E+00
    0.38936E-07        -0.18746E-10         0.00000E+00
    0.38937E-07        -0.15472E-10         0.00000E+00
    0.38937E-07        -0.12135E-10         0.00000E+00
    0.38937E-07        -0.87387E-11         0.00000E+00
    0.38937E-07        -0.52855E-11         0.00000E+00
    0.38937E-07        -0.17781E-11         0.00000E+00
    0.37931E-07        -0.34582E-11         0.00000E+00
    0.37931E-07        -0.10057E-10         0.00000E+00
    0.37931E-07        -0.16225E-10         0.00000E+00
    0.37930E-07        -0.21972E-10         0.00000E+00
    0.37930E-07        -0.27311E-10         0.00000E+00
    0.37930E-07        -0.32252E-10         0.00000E+00
    0.37930E-07        -0.36806E-10         0.00000E+00
    0.37930E-07        -0.40983E-10         0.00000E+00
    0.37930E-07        -0.44796E-10         0.00000E+00
    0.37930E-07        -0.48254E-10         0.00000E+00
    0.37930E-07        -0.51369E-10         0.00000E+00
    0.37929E-07        -0.54151E-10         0.00000E+00
    0.37929E-07        -0.56610E-10         0.00000E+00
    0.37929E-07        -0.58758E-10         0.00000E+00
    0.37929E-07        -0.60605E-10         0.00000E+00
    0.37929E-07        -0.62160E-10         0.00000E+00
    0.37929E-07        -0.63434E-10         0.00000E+00
    0.37929E-07        -0.64437E-10         0.00000E+00
    0.37929E-07        -0.65178E-10         0.00000E+00
    0.37929E-07        -0.65668E-10         0.00000E+00
    0.37929E-07        -0.65915E-10         0.00000E+00
    0.37929E-07        -0.65929E-10         0.00000E+00
    0.37929E-07        -0.65718E-10         0.00000E+00
    0.37929E-07        -0.65292E-10         0.00000E+00
    0.37929E-07        -0.64659E-10         0.00000E+00
    0.37929E-07        -0.63828E-10         0.00000E+00
    0.37929E-07        -0.62806E-10         0.00000E+00
    0.37929E-07        -0.61601E-10         0.00000E+00
    0.37930E-07        -0.60221E-10         0.00000E+00
    0.37930E-07        -0.58675E-10         0.00000E+00
    0.37930E-07        -0.56967E-10         0.00000E+00
    0.37930E-07        -0.55107E-10         0.00000E+00
    0.37930E-07        -0.53100E-10         0.00000E+00
    0.37931E-07        -0.50953E-10         0.00000E+00
    0.37931E-07        -0.48673E-10         0.00000E+00
    0.37931E-07        -0.46264E-10         0.00000E+00
    0.37931E-07        -0.43734E-10         0.00000E+00
    0.37931E-07        -0.41086E-10         0.00000E+00
    0.37932E-07        -0.38328E-10         0.00000E+00
    0.37932E-07        -0.35463E-10         0.00000E+00
    0.37932E-07        -0.32497E-10         0.00000E+00
    0.37932E-07        -0.29433E-10         0.00000E+00
    0.37933E-07        -0.26277E-10         0.00000E+00
    0.37933E-07        -0.23032E-10         0.00000E+00
    0.37933E-07        -0.19701E-10         0.00000E+00
    0.37933E-07        -0.16289E-10         0.00000E+00
    0.37933E-07        -0.12799E-10         0.00000E+00
    0.37933E-07        -0.92331E-11         0.00000E+00
    0.37933E-07        -0.55948E-11         0.00000E+00
    0.37933E-07        -0.18863E-11         0.00000E+00
    0.36993E-07        -0.33579E-11         0.00000E+00
    0.36993E-07        -0.97762E-11         0.00000E+00
    0.36993E-07        -0.15790E-10         0.00000E+00
    0.36993E-07        -0.21410E-10         0.00000E+00
    0.36992E-07        -0.26644E-10         0.00000E+00
    0.36992E-07        -0.31502E-10         0.00000E+00
    0.36992E-07        -0.35994E-10         0.00000E+00
    0.36992E-07        -0.40129E-10         0.00000E+00
    0.36992E-07        -0.43916E-10         0.00000E+00
    0.36991E-07        -0.47366E-10         0.00000E+00
    0.36991E-07        -0.50487E-10         0.00000E+00
    0.36991E-07        -0.53289E-10         0.00000E+00
    0.36991E-07        -0.55781E-10         0.00000E+00
    0.36991E-07        -0.57972E-10         0.00000E+00
    0.36990E-07        -0.59871E-10         0.00000E+00
    0.36990E-07        -0.61488E-10         0.00000E+00
    0.36990E-07        -0.62831E-10         0.00000E+00
    0.36990E-07        -0.63909E-10         0.00000E+00
    0.36990E-07        -0.64730E-10         0.00000E+00
    0.36989E-07        -0.65304E-10         0.00000E+00
    0.36989E-07        -0.65638E-10         0.00000E+00
    0.36989E-07        -0.65740E-10         0.00000E+00
    0.36989E-07        -0.65619E-10         0.00000E+00
    0.36989E-07        -0.65282E-10         0.00000E+00
    0.36989E-07        -0.64738E-10         0.00000E+00
    0.36989E-07        -0.63993E-10         0.00000E+00
    0.36989E-07        -0.63055E-10         0.00000E+00
    0.36989E-07        -0.61931E-10         0.00000E+00
    0.36989E-07        -0.60628E-10         0.00000E+00
    0.36989E-07        -0.59152E-10         0.00000E+00
    0.36989E-07        -0.57511E-10         0.00000E+00
    0.36989E-07        -0.55711E-10         0.00000E+00
    0.36989E-07        -0.53757E-10         0.00000E+00
    0.36989E-07        -0.51656E-10         0.00000E+00
    0.36989E-07        -0.49413E-10         0.00000E+00
    0.36989E-07        -0.47033E-10         0.00000E+00
    0.36989E-07        -0.44523E-10         0.00000E+00
    0.36989E-07        -0.41887E-10         0.00000E+00
    0.36989E-07        -0.39129E-10         0.00000E+00
    0.36989E-07        -0.36256E-10         0.00000E+00
    0.36990E-07        -0.33269E-10         0.00000E+00
    0.36990E-07        -0.30175E-10         0.00000E+00
    0.36990E-07        -0.26977E-10         0.00000E+00
    0.36990E-07        -0.23679E-10         0.00000E+00
    0.36990E-07        -0.20283E-10         0.00000E+00
    0.36990E-07        -0.16794E-10         0.00000E+00
    0.36990E-07        -0.13214E-10         0.00000E+00
    0.36990E-07        -0.95460E-11         0.00000E+00
    0.36990E-07        -0.57927E-11         0.00000E+00
    0.36990E-07        -0.19564E-11         0.00000E+00
    0.36112E-07        -0.32395E-11         0.00000E+00
    0.36112E-07        -0.94406E-11         0.00000E+00
    0.36112E-07        -0.15263E-10         0.00000E+00
    0.36112E-07        -0.20716E-10         0.00000E+00
    0.36112E-07        -0.25806E-10         0.00000E+00
    0.36112E-07        -0.30543E-10         0.00000E+00
    0.36111E-07        -0.34934E-10         0.00000E+00
    0.36111E-07        -0.38987E-10         0.00000E+00
    0.36111E-07        -0.42712E-10         0.00000E+00
    0.36111E-07        -0.46115E-10         0.00000E+00
    0.36110E-07        -0.49206E-10         0.00000E+00
    0.36110E-07        -0.51992E-10         0.00000E+00
    0.36110E-07        -0.54482E-10         0.00000E+00
    0.36109E-07        -0.56683E-10         0.00000E+00
    0.36109E-07        -0.58604E-10         0.00000E+00
    0.36109E-07        -0.60253E-10         0.00000E+00
    0.36109E-07        -0.61636E-10         0.00000E+00
    0.36108E-07        -0.62763E-10         0.00000E+00
    0.36108E-07        -0.63640E-10         0.00000E+00
    0.36108E-07        -0.64276E-10         0.00000E+00
    0.36107E-07        -0.64677E-10         0.00000E+00
    0.36107E-07        -0.64850E-10         0.00000E+00
    0.36107E-07        -0.64804E-10         0.00000E+00
    0.36107E-07        -0.64545E-10         0.00000E+00
    0.36107E-07        -0.64079E-10         0.00000E+00
    0.36106E-07        -0.63414E-10         0.00000E+00
    0.36106E-07        -0.62555E-10         0.00000E+00
    0.36106E-07        -0.61511E-10         0.00000E+00
    0.36106E-07        -0.60286E-10         0.00000E+00
    0.36106E-07        -0.58886E-10         0.00000E+00
    0.36106E-07        -0.57318E-10         0.00000E+00
    0.36106E-07        -0.55588E-10         0.00000E+00
    0.36105E-07        -0.53700E-10         0.00000E+00
    0.36105E-07        -0.51661E-10         0.00000E+00
    0.36105E-07        -0.49474E-10         0.00000E+00
    0.36105E-07        -0.47146E-10         0.00000E+00
    0.36105E-07        -0.44682E-10         0.00000E+00
    0.36105E-07        -0.42085E-10         0.00000E+00
    0.36105E-07        -0.39359E-10         0.00000E+00
    0.36105E-07        -0.36511E-10         0.00000E+00
    0.36105E-07        -0.33542E-10         0.00000E+00
    0.36105E-07        -0.30458E-10         0.00000E+00
    0.36105E-07        -0.27261E-10         0.00000E+00
    0.36105E-07        -0.23955E-10         0.00000E+00
    0.36105E-07        -0.20543E-10         0.00000E+00
    0.36105E-07        -0.17028E-10         0.00000E+00
    0.36105E-07        -0.13414E-10         0.00000E+00
    0.36105E-07        -0.97015E-11         0.00000E+00
    0.36105E-07        -0.58940E-11         0.00000E+00
    0.36105E-07        -0.19934E-11         0.00000E+00
    0.35287E-07        -0.31071E-11         0.00000E+00
    0.35287E-07        -0.90620E-11         0.00000E+00
    0.35287E-07        -0.14663E-10         0.00000E+00
    0.35287E-07        -0.19918E-10         0.00000E+00
    0.35287E-07        -0.24834E-10         0.00000E+00
    0.35287E-07        -0.29418E-10         0.00000E+00
    0.35286E-07        -0.33676E-10         0.00000E+00
    0.35286E-07        -0.37617E-10         0.00000E+00
    0.35286E-07        -0.41247E-10         0.00000E+00
    0.35285E-07        -0.44573E-10         0.00000E+00
    0.35285E-07        -0.47604E-10         0.00000E+00
    0.35285E-07        -0.50345E-10         0.00000E+00
    0.35284E-07        -0.52803E-10         0.00000E+00
    0.35284E-07        -0.54987E-10         0.00000E+00
    0.35284E-07        -0.56903E-10         0.00000E+00
    0.35283E-07        -0.58557E-10         0.00000E+00
    0.35283E-07        -0.59958E-10         0.00000E+00
    0.35282E-07        -0.61111E-10         0.00000E+00
    0.35282E-07        -0.62023E-10         0.00000E+00
    0.35282E-07        -0.62701E-10         0.00000E+00
    0.35281E-07        -0.63152E-10         0.00000E+00
    0.35281E-07        -0.63381E-10         0.00000E+00
    0.35281E-07        -0.63396E-10         0.00000E+00
    0.35280E-07        -0.63203E-10         0.00000E+00
    0.35280E-07        -0.62807E-10         0.00000E+00
    0.35280E-07        -0.62214E-10         0.00000E+00
    0.35279E-07        -0.61431E-10         0.00000E+00
    0.35279E-07        -0.60463E-10         0.00000E+00
    0.35279E-07        -0.59316E-10         0.00000E+00
    0.35279E-07        -0.57995E-10         0.00000E+00
    0.35278E-07        -0.56506E-10         0.00000E+00
    0.35278E-07        -0.54852E-10         0.00000E+00
    0.35278E-07        -0.53041E-10         0.00000E+00
    0.35278E-07        -0.51076E-10         0.00000E+00
    0.35278E-07        -0.48962E-10         0.00000E+00
    0.35277E-07        -0.46703E-10         0.00000E+00
    0.35277E-07        -0.44304E-10         0.00000E+00
    0.35277E-07        -0.41769E-10         0.00000E+00
    0.35277E-07        -0.39102E-10         0.00000E+00
    0.35277E-07        -0.36306E-10         0.00000E+00
    0.35277E-07        -0.33386E-10         0.00000E+00
    0.35277E-07        -0.30345E-10         0.00000E+00
    0.35277E-07        -0.27186E-10         0.00000E+00
    0.35277E-07        -0.23912E-10         0.00000E+00
    0.35277E-07        -0.20526E-10         0.00000E+00
    0.35277E-07        -0.17030E-10         0.00000E+00
    0.35277E-07        -0.13428E-10         0.00000E+00
    0.35277E-07        -0.97209E-11         0.00000E+00
    0.35277E-07        -0.59115E-11         0.00000E+00
    0.35277E-07        -0.20016E-11         0.00000E+00
    0.34516E-07        -0.29638E-11         0.00000E+00
    0.34516E-07        -0.86498E-11         0.00000E+00
    0.34516E-07        -0.14006E-10         0.00000E+00
    0.34515E-07        -0.19040E-10         0.00000E+00
    0.34515E-07        -0.23756E-10         0.00000E+00
    0.34515E-07        -0.28161E-10         0.00000E+00
    0.34515E-07        -0.32262E-10         0.00000E+00
    0.34514E-07        -0.36064E-10         0.00000E+00
    0.34514E-07        -0.39573E-10         0.00000E+00
    0.34514E-07        -0.42797E-10         0.00000E+00
    0.34513E-07        -0.45742E-10         0.00000E+00
    0.34513E-07        -0.48413E-10         0.00000E+00
    0.34512E-07        -0.50816E-10         0.00000E+00
    0.34512E-07        -0.52959E-10         0.00000E+00
    0.34512E-07        -0.54847E-10         0.00000E+00
    0.34511E-07        -0.56486E-10         0.00000E+00
    0.34511E-07        -0.57882E-10         0.00000E+00
    0.34510E-07        -0.59042E-10         0.00000E+00
    0.34510E-07        -0.59971E-10         0.00000E+00
    0.34509E-07        -0.60676E-10         0.00000E+00
    0.34509E-07        -0.61161E-10         0.00000E+00
    0.34508E-07        -0.61432E-10         0.00000E+00
    0.34508E-07        -0.61496E-10         0.00000E+00
    0.34508E-07        -0.61358E-10         0.00000E+00
    0.34507E-07        -0.61023E-10         0.00000E+00
    0.34507E-07        -0.60497E-10         0.00000E+00
    0.34506E-07        -0.59784E-10         0.00000E+00
    0.34506E-07        -0.58890E-10         0.00000E+00
    0.34506E-07        -0.57820E-10         0.00000E+00
    0.34505E-07        -0.56578E-10         0.00000E+00
    0.34505E-07        -0.55170E-10         0.00000E+00
    0.34505E-07        -0.53600E-10         0.00000E+00
    0.34504E-07        -0.51872E-10         0.00000E+00
    0.34504E-07        -0.49991E-10         0.00000E+00
    0.34504E-07        -0.47961E-10         0.00000E+00
    0.34504E-07        -0.45785E-10         0.00000E+00
    0.34503E-07        -0.43469E-10         0.00000E+00
    0.34503E-07        -0.41015E-10         0.00000E+00
    0.34503E-07        -0.38427E-10         0.00000E+00
    0.34503E-07        -0.35709E-10         0.00000E+00
    0.34503E-07        -0.32863E-10         0.00000E+00
    0.34503E-07        -0.29894E-10         0.00000E+00
    0.34502E-07        -0.26803E-10         0.00000E+00
    0.34502E-07        -0.23594E-10         0.00000E+00
    0.34502E-07        -0.20269E-10         0.00000E+00
    0.34502E-07        -0.16830E-10         0.00000E+00
    0.34502E-07        -0.13281E-10         0.00000E+00
    0.34502E-07        -0.96221E-11         0.00000E+00
    0.34502E-07        -0.58562E-11         0.00000E+00
    0.34502E-07        -0.19848E-11         0.00000E+00
    0.33796E-07        -0.28118E-11         0.00000E+00
    0.33796E-07        -0.82112E-11         0.00000E+00
    0.33796E-07        -0.13304E-10         0.00000E+00
    0.33796E-07        -0.18096E-10         0.00000E+00
    0.33795E-07        -0.22593E-10         0.00000E+00
    0.33795E-07        -0.26799E-10         0.00000E+00
    0.33795E-07        -0.30721E-10         0.00000E+00
    0.33795E-07        -0.34363E-10         0.00000E+00
    0.33794E-07        -0.37732E-10         0.00000E+00
    0.33794E-07        -0.40832E-10         0.00000E+00
    0.33793E-07        -0.43669E-10         0.00000E+00
    0.33793E-07        -0.46249E-10         0.00000E+00
    0.33792E-07        -0.48578E-10         0.00000E+00
    0.33792E-07        -0.50660E-10         0.00000E+00
    0.33791E-07        -0.52500E-10         0.00000E+00
    0.33791E-07        -0.54106E-10         0.00000E+00
    0.33790E-07        -0.55481E-10         0.00000E+00
    0.33790E-07        -0.56630E-10         0.00000E+00
    0.33789E-07        -0.57561E-10         0.00000E+00
    0.33789E-07        -0.58276E-10         0.00000E+00
    0.33788E-07        -0.58782E-10         0.00000E+00
    0.33788E-07        -0.59084E-10         0.00000E+00
    0.33787E-07        -0.59186E-10         0.00000E+00
    0.33787E-07        -0.59094E-10         0.00000E+00
    0.33786E-07        -0.58812E-10         0.00000E+00
    0.33786E-07        -0.58345E-10         0.00000E+00
    0.33785E-07        -0.57697E-10         0.00000E+00
    0.33785E-07        -0.56874E-10         0.00000E+00
    0.33785E-07        -0.55879E-10         0.00000E+00
    0.33784E-07        -0.54717E-10         0.00000E+00
    0.33784E-07        -0.53392E-10         0.00000E+00
    0.33783E-07        -0.51909E-10         0.00000E+00
    0.33783E-07        -0.50270E-10         0.00000E+00
    0.33783E-07        -0.48481E-10         0.00000E+00
    0.33782E-07        -0.46544E-10         0.00000E+00
    0.33782E-07        -0.44464E-10         0.00000E+00
    0.33782E-07        -0.42244E-10         0.00000E+00
    0.33781E-07        -0.39886E-10         0.00000E+00
    0.33781E-07        -0.37395E-10         0.00000E+00
    0.33781E-07        -0.34774E-10         0.00000E+00
    0.33781E-07        -0.32025E-10         0.00000E+00
    0.33781E-07        -0.29151E-10         0.00000E+00
    0.33780E-07        -0.26155E-10         0.00000E+00
    0.33780E-07        -0.23039E-10         0.00000E+00
    0.33780E-07        -0.19805E-10         0.00000E+00
    0.33780E-07        -0.16456E-10         0.00000E+00
    0.33780E-07        -0.12994E-10         0.00000E+00
    0.33780E-07        -0.94209E-11         0.00000E+00
    0.33780E-07        -0.57377E-11         0.00000E+00
    0.33780E-07        -0.19462E-11         0.00000E+00
    0.33126E-07        -0.26532E-11         0.00000E+00
    0.33126E-07        -0.77516E-11         0.00000E+00
    0.33126E-07        -0.12566E-10         0.00000E+00
    0.33126E-07        -0.17101E-10         0.00000E+00
    0.33126E-07        -0.21362E-10         0.00000E+00
    0.33126E-07        -0.25352E-10         0.00000E+00
    0.33125E-07        -0.29078E-10         0.00000E+00
    0.33125E-07        -0.32543E-10         0.00000E+00
    0.33125E-07        -0.35753E-10         0.00000E+00
    0.33124E-07        -0.38712E-10         0.00000E+00
    0.33124E-07        -0.41425E-10         0.00000E+00
    0.33123E-07        -0.43897E-10         0.00000E+00
    0.33123E-07        -0.46133E-10         0.00000E+00
    0.33122E-07        -0.48137E-10         0.00000E+00
    0.33122E-07        -0.49915E-10         0.00000E+00
    0.33121E-07        -0.51470E-10         0.00000E+00
    0.33121E-07        -0.52808E-10         0.00000E+00
    0.33120E-07        -0.53934E-10         0.00000E+00
    0.33119E-07        -0.54851E-10         0.00000E+00
    0.33119E-07        -0.55566E-10         0.00000E+00
    0.33118E-07        -0.56081E-10         0.00000E+00
    0.33118E-07        -0.56402E-10         0.00000E+00
    0.33117E-07        -0.56532E-10         0.00000E+00
    0.33117E-07        -0.56477E-10         0.00000E+00
    0.33116E-07        -0.56241E-10         0.00000E+00
    0.33115E-07        -0.55827E-10         0.00000E+00
    0.33115E-07        -0.55240E-10         0.00000E+00
    0.33114E-07        -0.54484E-10         0.00000E+00
    0.33114E-07        -0.53563E-10         0.00000E+00
    0.33113E-07        -0.52480E-10         0.00000E+00
    0.33113E-07        -0.51240E-10         0.00000E+00
    0.33112E-07        -0.49845E-10         0.00000E+00
    0.33112E-07        -0.48300E-10         0.00000E+00
    0.33112E-07        -0.46609E-10         0.00000E+00
    0.33111E-07        -0.44773E-10         0.00000E+00
    0.33111E-07        -0.42797E-10         0.00000E+00
    0.33111E-07        -0.40684E-10         0.00000E+00
    0.33110E-07        -0.38436E-10         0.00000E+00
    0.33110E-07        -0.36057E-10         0.00000E+00
    0.33110E-07        -0.33549E-10         0.00000E+00
    0.33109E-07        -0.30914E-10         0.00000E+00
    0.33109E-07        -0.28156E-10         0.00000E+00
    0.33109E-07        -0.25277E-10         0.00000E+00
    0.33109E-07        -0.22278E-10         0.00000E+00
    0.33109E-07        -0.19162E-10         0.00000E+00
    0.33108E-07        -0.15931E-10         0.00000E+00
    0.33108E-07        -0.12587E-10         0.00000E+00
    0.33108E-07        -0.91306E-11         0.00000E+00
    0.33108E-07        -0.55641E-11         0.00000E+00
    0.33108E-07        -0.18886E-11         0.00000E+00
    0.32506E-07        -0.24891E-11         0.00000E+00
    0.32506E-07        -0.72754E-11         0.00000E+00
    0.32505E-07        -0.11799E-10         0.00000E+00
    0.32505E-07        -0.16065E-10         0.00000E+00
    0.32505E-07        -0.20076E-10         0.00000E+00
    0.32505E-07        -0.23837E-10         0.00000E+00
    0.32504E-07        -0.27352E-10         0.00000E+00
    0.32504E-07        -0.30626E-10         0.00000E+00
    0.32504E-07        -0.33662E-10         0.00000E+00
    0.32503E-07        -0.36465E-10         0.00000E+00
    0.32503E-07        -0.39039E-10         0.00000E+00
    0.32502E-07        -0.41389E-10         0.00000E+00
    0.32502E-07        -0.43517E-10         0.00000E+00
    0.32501E-07        -0.45430E-10         0.00000E+00
    0.32501E-07        -0.47130E-10         0.00000E+00
    0.32500E-07        -0.48622E-10         0.00000E+00
    0.32499E-07        -0.49911E-10         0.00000E+00
    0.32499E-07        -0.51000E-10         0.00000E+00
    0.32498E-07        -0.51893E-10         0.00000E+00
    0.32498E-07        -0.52594E-10         0.00000E+00
    0.32497E-07        -0.53108E-10         0.00000E+00
    0.32496E-07        -0.53439E-10         0.00000E+00
    0.32496E-07        -0.53589E-10         0.00000E+00
    0.32495E-07        -0.53564E-10         0.00000E+00
    0.32495E-07        -0.53366E-10         0.00000E+00
    0.32494E-07        -0.53000E-10         0.00000E+00
    0.32493E-07        -0.52469E-10         0.00000E+00
    0.32493E-07        -0.51777E-10         0.00000E+00
    0.32492E-07        -0.50927E-10         0.00000E+00
    0.32492E-07        -0.49922E-10         0.00000E+00
    0.32491E-07        -0.48767E-10         0.00000E+00
    0.32491E-07        -0.47464E-10         0.00000E+00
    0.32490E-07        -0.46016E-10         0.00000E+00
    0.32490E-07        -0.44426E-10         0.00000E+00
    0.32489E-07        -0.42698E-10         0.00000E+00
    0.32489E-07        -0.40834E-10         0.00000E+00
    0.32488E-07        -0.38837E-10         0.00000E+00
    0.32488E-07        -0.36709E-10         0.00000E+00
    0.32488E-07        -0.34454E-10         0.00000E+00
    0.32487E-07        -0.32073E-10         0.00000E+00
    0.32487E-07        -0.29569E-10         0.00000E+00
    0.32487E-07        -0.26944E-10         0.00000E+00
    0.32486E-07        -0.24200E-10         0.00000E+00
    0.32486E-07        -0.21340E-10         0.00000E+00
    0.32486E-07        -0.18364E-10         0.00000E+00
    0.32486E-07        -0.15275E-10         0.00000E+00
    0.32486E-07        -0.12074E-10         0.00000E+00
    0.32486E-07        -0.87627E-11         0.00000E+00
    0.32486E-07        -0.53425E-11         0.00000E+00
    0.32486E-07        -0.18145E-11         0.00000E+00
    0.31932E-07        -0.23207E-11         0.00000E+00
    0.31932E-07        -0.67856E-11         0.00000E+00
    0.31932E-07        -0.11009E-10         0.00000E+00
    0.31932E-07        -0.14994E-10         0.00000E+00
    0.31932E-07        -0.18745E-10         0.00000E+00
    0.31931E-07        -0.22266E-10         0.00000E+00
    0.31931E-07        -0.25559E-10         0.00000E+00
    0.31931E-07        -0.28629E-10         0.00000E+00
    0.31930E-07        -0.31480E-10         0.00000E+00
    0.31930E-07        -0.34114E-10         0.00000E+00
    0.31929E-07        -0.36537E-10         0.00000E+00
    0.31929E-07        -0.38751E-10         0.00000E+00
    0.31928E-07        -0.40760E-10         0.00000E+00
    0.31928E-07        -0.42569E-10         0.00000E+00
    0.31927E-07        -0.44180E-10         0.00000E+00
    0.31926E-07        -0.45597E-10         0.00000E+00
    0.31926E-07        -0.46825E-10         0.00000E+00
    0.31925E-07        -0.47866E-10         0.00000E+00
    0.31925E-07        -0.48724E-10         0.00000E+00
    0.31924E-07        -0.49403E-10         0.00000E+00
    0.31923E-07        -0.49907E-10         0.00000E+00
    0.31923E-07        -0.50238E-10         0.00000E+00
    0.31922E-07        -0.50401E-10         0.00000E+00
    0.31921E-07        -0.50398E-10         0.00000E+00
    0.31921E-07        -0.50233E-10         0.00000E+00
    0.31920E-07        -0.49909E-10         0.00000E+00
    0.31919E-07        -0.49430E-10         0.00000E+00
    0.31919E-07        -0.48799E-10         0.00000E+00
    0.31918E-07        -0.48018E-10         0.00000E+00
    0.31917E-07        -0.47091E-10         0.00000E+00
    0.31917E-07        -0.46020E-10         0.00000E+00
    0.31916E-07        -0.44809E-10         0.00000E+00
    0.31916E-07        -0.43461E-10         0.00000E+00
    0.31915E-07        -0.41977E-10         0.00000E+00
    0.31915E-07        -0.40361E-10         0.00000E+00
    0.31914E-07        -0.38615E-10         0.00000E+00
    0.31914E-07        -0.36742E-10         0.00000E+00
    0.31913E-07        -0.34744E-10         0.00000E+00
    0.31913E-07        -0.32622E-10         0.00000E+00
    0.31913E-07        -0.30381E-10         0.00000E+00
    0.31912E-07        -0.28020E-10         0.00000E+00
    0.31912E-07        -0.25543E-10         0.00000E+00
    0.31912E-07        -0.22952E-10         0.00000E+00
    0.31911E-07        -0.20247E-10         0.00000E+00
    0.31911E-07        -0.17430E-10         0.00000E+00
    0.31911E-07        -0.14504E-10         0.00000E+00
    0.31911E-07        -0.11469E-10         0.00000E+00
    0.31911E-07        -0.83273E-11         0.00000E+00
    0.31911E-07        -0.50791E-11         0.00000E+00
    0.31911E-07        -0.17258E-11         0.00000E+00
    0.31405E-07        -0.21488E-11         0.00000E+00
    0.31405E-07        -0.62848E-11         0.00000E+00
    0.31405E-07        -0.10199E-10         0.00000E+00
    0.31405E-07        -0.13896E-10         0.00000E+00
    0.31405E-07        -0.17378E-10         0.00000E+00
    0.31404E-07        -0.20648E-10         0.00000E+00
    0.31404E-07        -0.23709E-10         0.00000E+00
    0.31404E-07        -0.26566E-10         0.00000E+00
    0.31403E-07        -0.29220E-10         0.00000E+00
    0.31403E-07        -0.31676E-10         0.00000E+00
    0.31402E-07        -0.33936E-10         0.00000E+00
    0.31402E-07        -0.36005E-10         0.00000E+00
    0.31401E-07        -0.37884E-10         0.00000E+00
    0.31400E-07        -0.39578E-10         0.00000E+00
    0.31400E-07        -0.41090E-10         0.00000E+00
    0.31399E-07        -0.42423E-10         0.00000E+00
    0.31399E-07        -0.43579E-10         0.00000E+00
    0.31398E-07        -0.44563E-10         0.00000E+00
    0.31397E-07        -0.45378E-10         0.00000E+00
    0.31397E-07        -0.46026E-10         0.00000E+00
    0.31396E-07        -0.46511E-10         0.00000E+00
    0.31395E-07        -0.46836E-10         0.00000E+00
    0.31394E-07        -0.47004E-10         0.00000E+00
    0.31394E-07        -0.47018E-10         0.00000E+00
    0.31393E-07        -0.46880E-10         0.00000E+00
    0.31392E-07        -0.46594E-10         0.00000E+00
    0.31392E-07        -0.46163E-10         0.00000E+00
    0.31391E-07        -0.45589E-10         0.00000E+00
    0.31390E-07        -0.44875E-10         0.00000E+00
    0.31390E-07        -0.44024E-10         0.00000E+00
    0.31389E-07        -0.43038E-10         0.00000E+00
    0.31388E-07        -0.41920E-10         0.00000E+00
    0.31388E-07        -0.40673E-10         0.00000E+00
    0.31387E-07        -0.39298E-10         0.00000E+00
    0.31387E-07        -0.37798E-10         0.00000E+00
    0.31386E-07        -0.36176E-10         0.00000E+00
    0.31386E-07        -0.34433E-10         0.00000E+00
    0.31385E-07        -0.32571E-10         0.00000E+00
    0.31385E-07        -0.30593E-10         0.00000E+00
    0.31384E-07        -0.28501E-10         0.00000E+00
    0.31384E-07        -0.26295E-10         0.00000E+00
    0.31384E-07        -0.23979E-10         0.00000E+00
    0.31383E-07        -0.21553E-10         0.00000E+00
    0.31383E-07        -0.19019E-10         0.00000E+00
    0.31383E-07        -0.16379E-10         0.00000E+00
    0.31383E-07        -0.13634E-10         0.00000E+00
    0.31383E-07        -0.10785E-10         0.00000E+00
    0.31382E-07        -0.78328E-11         0.00000E+00
    0.31382E-07        -0.47791E-11         0.00000E+00
    0.31382E-07        -0.16245E-11         0.00000E+00
    0.30923E-07        -0.19740E-11         0.00000E+00
    0.30923E-07        -0.57748E-11         0.00000E+00
    0.30923E-07        -0.93741E-11         0.00000E+00
    0.30923E-07        -0.12775E-10         0.00000E+00
    0.30923E-07        -0.15979E-10         0.00000E+00
    0.30922E-07        -0.18991E-10         0.00000E+00
    0.30922E-07        -0.21812E-10         0.00000E+00
    0.30922E-07        -0.24446E-10         0.00000E+00
    0.30921E-07        -0.26896E-10         0.00000E+00
    0.30921E-07        -0.29164E-10         0.00000E+00
    0.30920E-07        -0.31253E-10         0.00000E+00
    0.30920E-07        -0.33167E-10         0.00000E+00
    0.30919E-07        -0.34907E-10         0.00000E+00
    0.30918E-07        -0.36478E-10         0.00000E+00
    0.30918E-07        -0.37881E-10         0.00000E+00
    0.30917E-07        -0.39120E-10         0.00000E+00
    0.30916E-07        -0.40198E-10         0.00000E+00
    0.30916E-07        -0.41117E-10         0.00000E+00
    0.30915E-07        -0.41880E-10         0.00000E+00
    0.30914E-07        -0.42490E-10         0.00000E+00
    0.30914E-07        -0.42950E-10         0.00000E+00
    0.30913E-07        -0.43262E-10         0.00000E+00
    0.30912E-07        -0.43429E-10         0.00000E+00
    0.30911E-07        -0.43453E-10         0.00000E+00
    0.30911E-07        -0.43338E-10         0.00000E+00
    0.30910E-07        -0.43086E-10         0.00000E+00
    0.30909E-07        -0.42699E-10         0.00000E+00
    0.30908E-07        -0.42180E-10         0.00000E+00
    0.30908E-07        -0.41531E-10         0.00000E+00
    0.30907E-07        -0.40755E-10         0.00000E+00
    0.30906E-07        -0.39853E-10         0.00000E+00
    0.30906E-07        -0.38829E-10         0.00000E+00
    0.30905E-07        -0.37684E-10         0.00000E+00
    0.30905E-07        -0.36420E-10         0.00000E+00
    0.30904E-07        -0.35040E-10         0.00000E+00
    0.30903E-07        -0.33545E-10         0.00000E+00
    0.30903E-07        -0.31938E-10         0.00000E+00
    0.30902E-07        -0.30219E-10         0.00000E+00
    0.30902E-07        -0.28392E-10         0.00000E+00
    0.30901E-07        -0.26457E-10         0.00000E+00
    0.30901E-07        -0.24417E-10         0.00000E+00
    0.30901E-07        -0.22272E-10         0.00000E+00
    0.30900E-07        -0.20024E-10         0.00000E+00
    0.30900E-07        -0.17675E-10         0.00000E+00
    0.30900E-07        -0.15225E-10         0.00000E+00
    0.30900E-07        -0.12677E-10         0.00000E+00
    0.30899E-07        -0.10030E-10         0.00000E+00
    0.30899E-07        -0.72868E-11         0.00000E+00
    0.30899E-07        -0.44471E-11         0.00000E+00
    0.30899E-07        -0.15122E-11         0.00000E+00
    0.30486E-07        -0.17967E-11         0.00000E+00
    0.30485E-07        -0.52571E-11         0.00000E+00
    0.30485E-07        -0.85353E-11         0.00000E+00
    0.30485E-07        -0.11634E-10         0.00000E+00
    0.30485E-07        -0.14555E-10         0.00000E+00
    0.30485E-07        -0.17301E-10         0.00000E+00
    0.30484E-07        -0.19875E-10         0.00000E+00
    0.30484E-07        -0.22280E-10         0.00000E+00
    0.30483E-07        -0.24517E-10         0.00000E+00
    0.30483E-07        -0.26589E-10         0.00000E+00
    0.30482E-07        -0.28500E-10         0.00000E+00
    0.30482E-07        -0.30251E-10         0.00000E+00
    0.30481E-07        -0.31845E-10         0.00000E+00
    0.30480E-07        -0.33284E-10         0.00000E+00
    0.30480E-07        -0.34571E-10         0.00000E+00
    0.30479E-07        -0.35710E-10         0.00000E+00
    0.30478E-07        -0.36701E-10         0.00000E+00
    0.30478E-07        -0.37547E-10         0.00000E+00
    0.30477E-07        -0.38252E-10         0.00000E+00
    0.30476E-07        -0.38817E-10         0.00000E+00
    0.30475E-07        -0.39245E-10         0.00000E+00
    0.30475E-07        -0.39538E-10         0.00000E+00
    0.30474E-07        -0.39699E-10         0.00000E+00
    0.30473E-07        -0.39730E-10         0.00000E+00
    0.30472E-07        -0.39633E-10         0.00000E+00
    0.30472E-07        -0.39411E-10         0.00000E+00
    0.30471E-07        -0.39065E-10         0.00000E+00
    0.30470E-07        -0.38598E-10         0.00000E+00
    0.30469E-07        -0.38012E-10         0.00000E+00
    0.30469E-07        -0.37310E-10         0.00000E+00
    0.30468E-07        -0.36492E-10         0.00000E+00
    0.30467E-07        -0.35562E-10         0.00000E+00
    0.30467E-07        -0.34520E-10         0.00000E+00
    0.30466E-07        -0.33370E-10         0.00000E+00
    0.30465E-07        -0.32112E-10         0.00000E+00
    0.30465E-07        -0.30748E-10         0.00000E+00
    0.30464E-07        -0.29281E-10         0.00000E+00
    0.30464E-07        -0.27711E-10         0.00000E+00
    0.30463E-07        -0.26041E-10         0.00000E+00
    0.30463E-07        -0.24271E-10         0.00000E+00
    0.30462E-07        -0.22404E-10         0.00000E+00
    0.30462E-07        -0.20440E-10         0.00000E+00
    0.30462E-07        -0.18381E-10         0.00000E+00
    0.30461E-07        -0.16228E-10         0.00000E+00
    0.30461E-07        -0.13982E-10         0.00000E+00
    0.30461E-07        -0.11644E-10         0.00000E+00
    0.30461E-07        -0.92146E-11         0.00000E+00
    0.30460E-07        -0.66955E-11         0.00000E+00
    0.30460E-07        -0.40871E-11         0.00000E+00
    0.30460E-07        -0.13901E-11         0.00000E+00
    0.30091E-07        -0.16174E-11         0.00000E+00
    0.30091E-07        -0.47329E-11         0.00000E+00
    0.30091E-07        -0.76851E-11         0.00000E+00
    0.30091E-07        -0.10476E-10         0.00000E+00
    0.30090E-07        -0.13108E-10         0.00000E+00
    0.30090E-07        -0.15583E-10         0.00000E+00
    0.30090E-07        -0.17904E-10         0.00000E+00
    0.30089E-07        -0.20072E-10         0.00000E+00
    0.30089E-07        -0.22091E-10         0.00000E+00
    0.30088E-07        -0.23961E-10         0.00000E+00
    0.30088E-07        -0.25686E-10         0.00000E+00
    0.30087E-07        -0.27267E-10         0.00000E+00
    0.30086E-07        -0.28708E-10         0.00000E+00
    0.30086E-07        -0.30009E-10         0.00000E+00
    0.30085E-07        -0.31174E-10         0.00000E+00
    0.30084E-07        -0.32204E-10         0.00000E+00
    0.30084E-07        -0.33103E-10         0.00000E+00
    0.30083E-07        -0.33871E-10         0.00000E+00
    0.30082E-07        -0.34511E-10         0.00000E+00
    0.30081E-07        -0.35026E-10         0.00000E+00
    0.30081E-07        -0.35417E-10         0.00000E+00
    0.30080E-07        -0.35686E-10         0.00000E+00
    0.30079E-07        -0.35836E-10         0.00000E+00
    0.30078E-07        -0.35869E-10         0.00000E+00
    0.30078E-07        -0.35786E-10         0.00000E+00
    0.30077E-07        -0.35590E-10         0.00000E+00
    0.30076E-07        -0.35283E-10         0.00000E+00
    0.30075E-07        -0.34866E-10         0.00000E+00
    0.30074E-07        -0.34342E-10         0.00000E+00
    0.30074E-07        -0.33712E-10         0.00000E+00
    0.30073E-07        -0.32977E-10         0.00000E+00
    0.30072E-07        -0.32141E-10         0.00000E+00
    0.30072E-07        -0.31204E-10         0.00000E+00
    0.30071E-07        -0.30168E-10         0.00000E+00
    0.30070E-07        -0.29035E-10         0.00000E+00
    0.30070E-07        -0.27806E-10         0.00000E+00
    0.30069E-07        -0.26483E-10         0.00000E+00
    0.30069E-07        -0.25066E-10         0.00000E+00
    0.30068E-07        -0.23559E-10         0.00000E+00
    0.30067E-07        -0.21961E-10         0.00000E+00
    0.30067E-07        -0.20274E-10         0.00000E+00
    0.30067E-07        -0.18499E-10         0.00000E+00
    0.30066E-07        -0.16638E-10         0.00000E+00
    0.30066E-07        -0.14691E-10         0.00000E+00
    0.30066E-07        -0.12659E-10         0.00000E+00
    0.30065E-07        -0.10544E-10         0.00000E+00
    0.30065E-07        -0.83452E-11         0.00000E+00
    0.30065E-07        -0.60646E-11         0.00000E+00
    0.30065E-07        -0.37025E-11         0.00000E+00
    0.30065E-07        -0.12595E-11         0.00000E+00
    0.29739E-07        -0.14362E-11         0.00000E+00
    0.29739E-07        -0.42030E-11         0.00000E+00
    0.29739E-07        -0.68249E-11         0.00000E+00
    0.29738E-07        -0.93038E-11         0.00000E+00
    0.29738E-07        -0.11642E-10         0.00000E+00
    0.29738E-07        -0.13841E-10         0.00000E+00
    0.29737E-07        -0.15903E-10         0.00000E+00
    0.29737E-07        -0.17830E-10         0.00000E+00
    0.29736E-07        -0.19623E-10         0.00000E+00
    0.29736E-07        -0.21286E-10         0.00000E+00
    0.29735E-07        -0.22819E-10         0.00000E+00
    0.29735E-07        -0.24225E-10         0.00000E+00
    0.29734E-07        -0.25506E-10         0.00000E+00
    0.29734E-07        -0.26664E-10         0.00000E+00
    0.29733E-07        -0.27701E-10         0.00000E+00
    0.29732E-07        -0.28618E-10         0.00000E+00
    0.29731E-07        -0.29417E-10         0.00000E+00
    0.29731E-07        -0.30102E-10         0.00000E+00
    0.29730E-07        -0.30672E-10         0.00000E+00
    0.29729E-07        -0.31131E-10         0.00000E+00
    0.29728E-07        -0.31480E-10         0.00000E+00
    0.29727E-07        -0.31722E-10         0.00000E+00
    0.29727E-07        -0.31857E-10         0.00000E+00
    0.29726E-07        -0.31888E-10         0.00000E+00
    0.29725E-07        -0.31816E-10         0.00000E+00
    0.29724E-07        -0.31644E-10         0.00000E+00
    0.29723E-07        -0.31372E-10         0.00000E+00
    0.29723E-07        -0.31003E-10         0.00000E+00
    0.29722E-07        -0.30539E-10         0.00000E+00
    0.29721E-07        -0.29980E-10         0.00000E+00
    0.29720E-07        -0.29329E-10         0.00000E+00
    0.29720E-07        -0.28587E-10         0.00000E+00
    0.29719E-07        -0.27755E-10         0.00000E+00
    0.29718E-07        -0.26835E-10         0.00000E+00
    0.29718E-07        -0.25829E-10         0.00000E+00
    0.29717E-07        -0.24737E-10         0.00000E+00
    0.29716E-07        -0.23561E-10         0.00000E+00
    0.29716E-07        -0.22302E-10         0.00000E+00
    0.29715E-07        -0.20962E-10         0.00000E+00
    0.29715E-07        -0.19541E-10         0.00000E+00
    0.29714E-07        -0.18041E-10         0.00000E+00
    0.29714E-07        -0.16463E-10         0.00000E+00
    0.29713E-07        -0.14807E-10         0.00000E+00
    0.29713E-07        -0.13075E-10         0.00000E+00
    0.29713E-07        -0.11268E-10         0.00000E+00
    0.29712E-07        -0.93852E-11         0.00000E+00
    0.29712E-07        -0.74287E-11         0.00000E+00
    0.29712E-07        -0.53989E-11         0.00000E+00
    0.29712E-07        -0.32962E-11         0.00000E+00
    0.29712E-07        -0.11214E-11         0.00000E+00
    0.29428E-07        -0.12535E-11         0.00000E+00
    0.29428E-07        -0.36680E-11         0.00000E+00
    0.29428E-07        -0.59559E-11         0.00000E+00
    0.29428E-07        -0.81188E-11         0.00000E+00
    0.29428E-07        -0.10159E-10         0.00000E+00
    0.29427E-07        -0.12077E-10         0.00000E+00
    0.29427E-07        -0.13875E-10         0.00000E+00
    0.29426E-07        -0.15556E-10         0.00000E+00
    0.29426E-07        -0.17120E-10         0.00000E+00
    0.29425E-07        -0.18570E-10         0.00000E+00
    0.29425E-07        -0.19907E-10         0.00000E+00
    0.29424E-07        -0.21132E-10         0.00000E+00
    0.29424E-07        -0.22249E-10         0.00000E+00
    0.29423E-07        -0.23258E-10         0.00000E+00
    0.29422E-07        -0.24160E-10         0.00000E+00
    0.29422E-07        -0.24959E-10         0.00000E+00
    0.29421E-07        -0.25656E-10         0.00000E+00
    0.29420E-07        -0.26251E-10         0.00000E+00
    0.29419E-07        -0.26748E-10         0.00000E+00
    0.29418E-07        -0.27147E-10         0.00000E+00
    0.29418E-07        -0.27450E-10         0.00000E+00
    0.29417E-07        -0.27659E-10         0.00000E+00
    0.29416E-07        -0.27776E-10         0.00000E+00
    0.29415E-07        -0.27802E-10         0.00000E+00
    0.29414E-07        -0.27738E-10         0.00000E+00
    0.29414E-07        -0.27586E-10         0.00000E+00
    0.29413E-07        -0.27348E-10         0.00000E+00
    0.29412E-07        -0.27026E-10         0.00000E+00
    0.29411E-07        -0.26620E-10         0.00000E+00
    0.29410E-07        -0.26132E-10         0.00000E+00
    0.29410E-07        -0.25563E-10         0.00000E+00
    0.29409E-07        -0.24915E-10         0.00000E+00
    0.29408E-07        -0.24189E-10         0.00000E+00
    0.29407E-07        -0.23386E-10         0.00000E+00
    0.29407E-07        -0.22508E-10         0.00000E+00
    0.29406E-07        -0.21556E-10         0.00000E+00
    0.29405E-07        -0.20530E-10         0.00000E+00
    0.29405E-07        -0.19433E-10         0.00000E+00
    0.29404E-07        -0.18264E-10         0.00000E+00
    0.29404E-07        -0.17026E-10         0.00000E+00
    0.29403E-07        -0.15718E-10         0.00000E+00
    0.29403E-07        -0.14343E-10         0.00000E+00
    0.29402E-07        -0.12900E-10         0.00000E+00
    0.29402E-07        -0.11390E-10         0.00000E+00
    0.29402E-07        -0.98154E-11         0.00000E+00
    0.29401E-07        -0.81753E-11         0.00000E+00
    0.29401E-07        -0.64708E-11         0.00000E+00
    0.29401E-07        -0.47026E-11         0.00000E+00
    0.29401E-07        -0.28710E-11         0.00000E+00
    0.29401E-07        -0.97665E-12         0.00000E+00
    0.29159E-07        -0.10693E-11         0.00000E+00
    0.29159E-07        -0.31285E-11         0.00000E+00
    0.29159E-07        -0.50790E-11         0.00000E+00
    0.29158E-07        -0.69224E-11         0.00000E+00
    0.29158E-07        -0.86602E-11         0.00000E+00
    0.29158E-07        -0.10294E-10         0.00000E+00
    0.29157E-07        -0.11825E-10         0.00000E+00
    0.29157E-07        -0.13255E-10         0.00000E+00
    0.29157E-07        -0.14585E-10         0.00000E+00
    0.29156E-07        -0.15817E-10         0.00000E+00
    0.29155E-07        -0.16953E-10         0.00000E+00
    0.29155E-07        -0.17994E-10         0.00000E+00
    0.29154E-07        -0.18941E-10         0.00000E+00
    0.29154E-07        -0.19797E-10         0.00000E+00
    0.29153E-07        -0.20562E-10         0.00000E+00
    0.29152E-07        -0.21238E-10         0.00000E+00
    0.29151E-07        -0.21826E-10         0.00000E+00
    0.29151E-07        -0.22329E-10         0.00000E+00
    0.29150E-07        -0.22747E-10         0.00000E+00
    0.29149E-07        -0.23083E-10         0.00000E+00
    0.29148E-07        -0.23336E-10         0.00000E+00
    0.29147E-07        -0.23510E-10         0.00000E+00
    0.29146E-07        -0.23605E-10         0.00000E+00
    0.29146E-07        -0.23623E-10         0.00000E+00
    0.29145E-07        -0.23564E-10         0.00000E+00
    0.29144E-07        -0.23432E-10         0.00000E+00
    0.29143E-07        -0.23225E-10         0.00000E+00
    0.29142E-07        -0.22947E-10         0.00000E+00
    0.29141E-07        -0.22598E-10         0.00000E+00
    0.29141E-07        -0.22180E-10         0.00000E+00
    0.29140E-07        -0.21694E-10         0.00000E+00
    0.29139E-07        -0.21140E-10         0.00000E+00
    0.29138E-07        -0.20520E-10         0.00000E+00
    0.29138E-07        -0.19836E-10         0.00000E+00
    0.29137E-07        -0.19088E-10         0.00000E+00
    0.29136E-07        -0.18277E-10         0.00000E+00
    0.29135E-07        -0.17405E-10         0.00000E+00
    0.29135E-07        -0.16471E-10         0.00000E+00
    0.29134E-07        -0.15478E-10         0.00000E+00
    0.29134E-07        -0.14426E-10         0.00000E+00
    0.29133E-07        -0.13316E-10         0.00000E+00
    0.29133E-07        -0.12149E-10         0.00000E+00
    0.29132E-07        -0.10925E-10         0.00000E+00
    0.29132E-07        -0.96448E-11         0.00000E+00
    0.29132E-07        -0.83098E-11         0.00000E+00
    0.29131E-07        -0.69202E-11         0.00000E+00
    0.29131E-07        -0.54765E-11         0.00000E+00
    0.29131E-07        -0.39793E-11         0.00000E+00
    0.29131E-07        -0.24291E-11         0.00000E+00
    0.29131E-07        -0.82616E-12         0.00000E+00
    0.28930E-07        -0.88377E-12         0.00000E+00
    0.28930E-07        -0.25849E-11         0.00000E+00
    0.28930E-07        -0.41951E-11         0.00000E+00
    0.28930E-07        -0.57157E-11         0.00000E+00
    0.28929E-07        -0.71481E-11         0.00000E+00
    0.28929E-07        -0.84935E-11         0.00000E+00
    0.28929E-07        -0.97533E-11         0.00000E+00
    0.28928E-07        -0.10929E-10         0.00000E+00
    0.28928E-07        -0.12021E-10         0.00000E+00
    0.28927E-07        -0.13032E-10         0.00000E+00
    0.28927E-07        -0.13963E-10         0.00000E+00
    0.28926E-07        -0.14815E-10         0.00000E+00
    0.28925E-07        -0.15589E-10         0.00000E+00
    0.28925E-07        -0.16287E-10         0.00000E+00
    0.28924E-07        -0.16910E-10         0.00000E+00
    0.28923E-07        -0.17460E-10         0.00000E+00
    0.28922E-07        -0.17937E-10         0.00000E+00
    0.28922E-07        -0.18343E-10         0.00000E+00
    0.28921E-07        -0.18680E-10         0.00000E+00
    0.28920E-07        -0.18948E-10         0.00000E+00
    0.28919E-07        -0.19149E-10         0.00000E+00
    0.28918E-07        -0.19285E-10         0.00000E+00
    0.28917E-07        -0.19355E-10         0.00000E+00
    0.28916E-07        -0.19362E-10         0.00000E+00
    0.28916E-07        -0.19307E-10         0.00000E+00
    0.28915E-07        -0.19191E-10         0.00000E+00
    0.28914E-07        -0.19015E-10         0.00000E+00
    0.28913E-07        -0.18780E-10         0.00000E+00
    0.28912E-07        -0.18487E-10         0.00000E+00
    0.28911E-07        -0.18138E-10         0.00000E+00
    0.28911E-07        -0.17733E-10         0.00000E+00
    0.28910E-07        -0.17274E-10         0.00000E+00
    0.28909E-07        -0.16761E-10         0.00000E+00
    0.28908E-07        -0.16196E-10         0.00000E+00
    0.28908E-07        -0.15579E-10         0.00000E+00
    0.28907E-07        -0.14912E-10         0.00000E+00
    0.28906E-07        -0.14195E-10         0.00000E+00
    0.28906E-07        -0.13428E-10         0.00000E+00
    0.28905E-07        -0.12614E-10         0.00000E+00
    0.28904E-07        -0.11752E-10         0.00000E+00
    0.28904E-07        -0.10844E-10         0.00000E+00
    0.28903E-07        -0.98896E-11         0.00000E+00
    0.28903E-07        -0.88900E-11         0.00000E+00
    0.28903E-07        -0.78457E-11         0.00000E+00
    0.28902E-07        -0.67572E-11         0.00000E+00
    0.28902E-07        -0.56252E-11         0.00000E+00
    0.28902E-07        -0.44501E-11         0.00000E+00
    0.28902E-07        -0.32324E-11         0.00000E+00
    0.28901E-07        -0.19724E-11         0.00000E+00
    0.28901E-07        -0.67057E-12         0.00000E+00
    0.28741E-07        -0.69706E-12         0.00000E+00
    0.28741E-07        -0.20375E-11         0.00000E+00
    0.28741E-07        -0.33046E-11         0.00000E+00
    0.28741E-07        -0.44996E-11         0.00000E+00
    0.28740E-07        -0.56235E-11         0.00000E+00
    0.28740E-07        -0.66775E-11         0.00000E+00
    0.28740E-07        -0.76628E-11         0.00000E+00
    0.28739E-07        -0.85806E-11         0.00000E+00
    0.28739E-07        -0.94320E-11         0.00000E+00
    0.28738E-07        -0.10218E-10         0.00000E+00
    0.28738E-07        -0.10940E-10         0.00000E+00
    0.28737E-07        -0.11600E-10         0.00000E+00
    0.28736E-07        -0.12198E-10         0.00000E+00
    0.28736E-07        -0.12735E-10         0.00000E+00
    0.28735E-07        -0.13212E-10         0.00000E+00
    0.28734E-07        -0.13632E-10         0.00000E+00
    0.28733E-07        -0.13995E-10         0.00000E+00
    0.28733E-07        -0.14301E-10         0.00000E+00
    0.28732E-07        -0.14553E-10         0.00000E+00
    0.28731E-07        -0.14751E-10         0.00000E+00
    0.28730E-07        -0.14897E-10         0.00000E+00
    0.28729E-07        -0.14991E-10         0.00000E+00
    0.28728E-07        -0.15035E-10         0.00000E+00
    0.28727E-07        -0.15029E-10         0.00000E+00
    0.28727E-07        -0.14975E-10         0.00000E+00
    0.28726E-07        -0.14874E-10         0.00000E+00
    0.28725E-07        -0.14726E-10         0.00000E+00
    0.28724E-07        -0.14533E-10         0.00000E+00
    0.28723E-07        -0.14296E-10         0.00000E+00
    0.28722E-07        -0.14015E-10         0.00000E+00
    0.28722E-07        -0.13692E-10         0.00000E+00
    0.28721E-07        -0.13328E-10         0.00000E+00
    0.28720E-07        -0.12922E-10         0.00000E+00
    0.28719E-07        -0.12477E-10         0.00000E+00
    0.28718E-07        -0.11993E-10         0.00000E+00
    0.28718E-07        -0.11470E-10         0.00000E+00
    0.28717E-07        -0.10910E-10         0.00000E+00
    0.28716E-07        -0.10314E-10         0.00000E+00
    0.28716E-07        -0.96811E-11         0.00000E+00
    0.28715E-07        -0.90131E-11         0.00000E+00
    0.28715E-07        -0.83102E-11         0.00000E+00
    0.28714E-07        -0.75733E-11         0.00000E+00
    0.28714E-07        -0.68028E-11         0.00000E+00
    0.28713E-07        -0.59993E-11         0.00000E+00
    0.28713E-07        -0.51633E-11         0.00000E+00
    0.28713E-07        -0.42953E-11         0.00000E+00
    0.28712E-07        -0.33956E-11         0.00000E+00
    0.28712E-07        -0.24647E-11         0.00000E+00
    0.28712E-07        -0.15029E-11         0.00000E+00
    0.28712E-07        -0.51049E-12         0.00000E+00
    0.28592E-07        -0.50920E-12         0.00000E+00
    0.28592E-07        -0.14866E-11         0.00000E+00
    0.28592E-07        -0.24081E-11         0.00000E+00
    0.28592E-07        -0.32747E-11         0.00000E+00
    0.28591E-07        -0.40873E-11         0.00000E+00
    0.28591E-07        -0.48471E-11         0.00000E+00
    0.28591E-07        -0.55549E-11         0.00000E+00
    0.28590E-07        -0.62120E-11         0.00000E+00
    0.28590E-07        -0.68191E-11         0.00000E+00
    0.28589E-07        -0.73775E-11         0.00000E+00
    0.28588E-07        -0.78880E-11         0.00000E+00
    0.28588E-07        -0.83518E-11         0.00000E+00
    0.28587E-07        -0.87698E-11         0.00000E+00
    0.28586E-07        -0.91430E-11         0.00000E+00
    0.28586E-07        -0.94725E-11         0.00000E+00
    0.28585E-07        -0.97592E-11         0.00000E+00
    0.28584E-07        -0.10004E-10         0.00000E+00
    0.28583E-07        -0.10208E-10         0.00000E+00
    0.28582E-07        -0.10373E-10         0.00000E+00
    0.28582E-07        -0.10498E-10         0.00000E+00
    0.28581E-07        -0.10586E-10         0.00000E+00
    0.28580E-07        -0.10637E-10         0.00000E+00
    0.28579E-07        -0.10651E-10         0.00000E+00
    0.28578E-07        -0.10631E-10         0.00000E+00
    0.28577E-07        -0.10576E-10         0.00000E+00
    0.28576E-07        -0.10489E-10         0.00000E+00
    0.28575E-07        -0.10368E-10         0.00000E+00
    0.28575E-07        -0.10216E-10         0.00000E+00
    0.28574E-07        -0.10034E-10         0.00000E+00
    0.28573E-07        -0.98214E-11         0.00000E+00
    0.28572E-07        -0.95799E-11         0.00000E+00
    0.28571E-07        -0.93099E-11         0.00000E+00
    0.28570E-07        -0.90124E-11         0.00000E+00
    0.28570E-07        -0.86880E-11         0.00000E+00
    0.28569E-07        -0.83375E-11         0.00000E+00
    0.28568E-07        -0.79616E-11         0.00000E+00
    0.28568E-07        -0.75608E-11         0.00000E+00
    0.28567E-07        -0.71359E-11         0.00000E+00
    0.28566E-07        -0.66875E-11         0.00000E+00
    0.28566E-07        -0.62161E-11         0.00000E+00
    0.28565E-07        -0.57223E-11         0.00000E+00
    0.28565E-07        -0.52066E-11         0.00000E+00
    0.28564E-07        -0.46695E-11         0.00000E+00
    0.28564E-07        -0.41115E-11         0.00000E+00
    0.28563E-07        -0.35330E-11         0.00000E+00
    0.28563E-07        -0.29344E-11         0.00000E+00
    0.28563E-07        -0.23162E-11         0.00000E+00
    0.28563E-07        -0.16786E-11         0.00000E+00
    0.28563E-07        -0.10219E-11         0.00000E+00
    0.28562E-07        -0.34647E-12         0.00000E+00
    0.28482E-07        -0.32025E-12         0.00000E+00
    0.28482E-07        -0.93234E-12         0.00000E+00
    0.28482E-07        -0.15058E-11         0.00000E+00
    0.28482E-07        -0.20415E-11         0.00000E+00
    0.28481E-07        -0.25404E-11         0.00000E+00
    0.28481E-07        -0.30032E-11         0.00000E+00
    0.28481E-07        -0.34310E-11         0.00000E+00
    0.28480E-07        -0.38245E-11         0.00000E+00
    0.28480E-07        -0.41846E-11         0.00000E+00
    0.28479E-07        -0.45123E-11         0.00000E+00
    0.28479E-07        -0.48084E-11         0.00000E+00
    0.28478E-07        -0.50737E-11         0.00000E+00
    0.28477E-07        -0.53093E-11         0.00000E+00
    0.28477E-07        -0.55158E-11         0.00000E+00
    0.28476E-07        -0.56943E-11         0.00000E+00
    0.28475E-07        -0.58455E-11         0.00000E+00
    0.28474E-07        -0.59703E-11         0.00000E+00
    0.28473E-07        -0.60696E-11         0.00000E+00
    0.28473E-07        -0.61442E-11         0.00000E+00
    0.28472E-07        -0.61949E-11         0.00000E+00
    0.28471E-07        -0.62226E-11         0.00000E+00
    0.28470E-07        -0.62280E-11         0.00000E+00
    0.28469E-07        -0.62120E-11         0.00000E+00
    0.28468E-07        -0.61753E-11         0.00000E+00
    0.28467E-07        -0.61188E-11         0.00000E+00
    0.28466E-07        -0.60432E-11         0.00000E+00
    0.28465E-07        -0.59492E-11         0.00000E+00
    0.28465E-07        -0.58376E-11         0.00000E+00
    0.28464E-07        -0.57091E-11         0.00000E+00
    0.28463E-07        -0.55644E-11         0.00000E+00
    0.28462E-07        -0.54042E-11         0.00000E+00
    0.28461E-07        -0.52292E-11         0.00000E+00
    0.28460E-07        -0.50399E-11         0.00000E+00
    0.28460E-07        -0.48371E-11         0.00000E+00
    0.28459E-07        -0.46214E-11         0.00000E+00
    0.28458E-07        -0.43933E-11         0.00000E+00
    0.28457E-07        -0.41534E-11         0.00000E+00
    0.28457E-07        -0.39022E-11         0.00000E+00
    0.28456E-07        -0.36404E-11         0.00000E+00
    0.28455E-07        -0.33683E-11         0.00000E+00
    0.28455E-07        -0.30865E-11         0.00000E+00
    0.28454E-07        -0.27954E-11         0.00000E+00
    0.28454E-07        -0.24955E-11         0.00000E+00
    0.28454E-07        -0.21871E-11         0.00000E+00
    0.28453E-07        -0.18707E-11         0.00000E+00
    0.28453E-07        -0.15465E-11         0.00000E+00
    0.28453E-07        -0.12150E-11         0.00000E+00
    0.28452E-07        -0.87639E-12         0.00000E+00
    0.28452E-07        -0.53097E-12         0.00000E+00
    0.28452E-07        -0.17899E-12         0.00000E+00
    0.28411E-07        -0.13024E-12         0.00000E+00
    0.28411E-07        -0.37484E-12         0.00000E+00
    0.28411E-07        -0.59804E-12         0.00000E+00
    0.28411E-07        -0.80059E-12         0.00000E+00
    0.28411E-07        -0.98325E-12         0.00000E+00
    0.28410E-07        -0.11468E-11         0.00000E+00
    0.28410E-07        -0.12919E-11         0.00000E+00
    0.28409E-07        -0.14194E-11         0.00000E+00
    0.28409E-07        -0.15300E-11         0.00000E+00
    0.28408E-07        -0.16245E-11         0.00000E+00
    0.28408E-07        -0.17036E-11         0.00000E+00
    0.28407E-07        -0.17681E-11         0.00000E+00
    0.28406E-07        -0.18187E-11         0.00000E+00
    0.28406E-07        -0.18562E-11         0.00000E+00
    0.28405E-07        -0.18813E-11         0.00000E+00
    0.28404E-07        -0.18947E-11         0.00000E+00
    0.28403E-07        -0.18972E-11         0.00000E+00
    0.28402E-07        -0.18894E-11         0.00000E+00
    0.28402E-07        -0.18722E-11         0.00000E+00
    0.28401E-07        -0.18462E-11         0.00000E+00
    0.28400E-07        -0.18120E-11         0.00000E+00
    0.28399E-07        -0.17705E-11         0.00000E+00
    0.28398E-07        -0.17223E-11         0.00000E+00
    0.28397E-07        -0.16680E-11         0.00000E+00
    0.28396E-07        -0.16083E-11         0.00000E+00
    0.28395E-07        -0.15438E-11         0.00000E+00
    0.28394E-07        -0.14753E-11         0.00000E+00
    0.28394E-07        -0.14033E-11         0.00000E+00
    0.28393E-07        -0.13284E-11         0.00000E+00
    0.28392E-07        -0.12513E-11         0.00000E+00
    0.28391E-07        -0.11724E-11         0.00000E+00
    0.28390E-07        -0.10925E-11         0.00000E+00
    0.28389E-07        -0.10120E-11         0.00000E+00
    0.28389E-07        -0.93145E-12         0.00000E+00
    0.28388E-07        -0.85142E-12         0.00000E+00
    0.28387E-07        -0.77239E-12         0.00000E+00
    0.28386E-07        -0.69484E-12         0.00000E+00
    0.28386E-07        -0.61925E-12         0.00000E+00
    0.28385E-07        -0.54607E-12         0.00000E+00
    0.28384E-07        -0.47573E-12         0.00000E+00
    0.28384E-07        -0.40863E-12         0.00000E+00
    0.28383E-07        -0.34517E-12         0.00000E+00
    0.28383E-07        -0.28573E-12         0.00000E+00
    0.28382E-07        -0.23064E-12         0.00000E+00
    0.28382E-07        -0.18024E-12         0.00000E+00
    0.28382E-07        -0.13483E-12         0.00000E+00
    0.28381E-07        -0.94702E-13         0.00000E+00
    0.28381E-07        -0.60113E-13         0.00000E+00
    0.28381E-07        -0.31304E-13         0.00000E+00
    0.28381E-07        -0.84887E-14         0.00000E+00
    0.28379E-07         0.60796E-13         0.00000E+00
    0.28379E-07         0.18581E-12         0.00000E+00
    0.28379E-07         0.31504E-12         0.00000E+00
    0.28379E-07         0.44785E-12         0.00000E+00
    0.28379E-07         0.58361E-12         0.00000E+00
    0.28378E-07         0.72169E-12         0.00000E+00
    0.28378E-07         0.86144E-12         0.00000E+00
    0.28377E-07         0.10022E-11         0.00000E+00
    0.28377E-07         0.11434E-11         0.00000E+00
    0.28376E-07         0.12844E-11         0.00000E+00
    0.28376E-07         0.14245E-11         0.00000E+00
    0.28375E-07         0.15631E-11         0.00000E+00
    0.28374E-07         0.16995E-11         0.00000E+00
    0.28374E-07         0.18333E-11         0.00000E+00
    0.28373E-07         0.19636E-11         0.00000E+00
    0.28372E-07         0.20900E-11         0.00000E+00
    0.28371E-07         0.22118E-11         0.00000E+00
    0.28371E-07         0.23284E-11         0.00000E+00
    0.28370E-07         0.24392E-11         0.00000E+00
    0.28369E-07         0.25436E-11         0.00000E+00
    0.28368E-07         0.26411E-11         0.00000E+00
    0.28367E-07         0.27310E-11         0.00000E+00
    0.28366E-07         0.28128E-11         0.00000E+00
    0.28365E-07         0.28859E-11         0.00000E+00
    0.28364E-07         0.29497E-11         0.00000E+00
    0.28363E-07         0.30038E-11         0.00000E+00
    0.28362E-07         0.30476E-11         0.00000E+00
    0.28362E-07         0.30805E-11         0.00000E+00
    0.28361E-07         0.31021E-11         0.00000E+00
    0.28360E-07         0.31118E-11         0.00000E+00
    0.28359E-07         0.31092E-11         0.00000E+00
    0.28358E-07         0.30938E-11         0.00000E+00
    0.28357E-07         0.30651E-11         0.00000E+00
    0.28356E-07         0.30226E-11         0.00000E+00
    0.28356E-07         0.29660E-11         0.00000E+00
    0.28355E-07         0.28948E-11         0.00000E+00
    0.28354E-07         0.28086E-11         0.00000E+00
    0.28353E-07         0.27070E-11         0.00000E+00
    0.28353E-07         0.25896E-11         0.00000E+00
    0.28352E-07         0.24561E-11         0.00000E+00
    0.28352E-07         0.23061E-11         0.00000E+00
    0.28351E-07         0.21393E-11         0.00000E+00
    0.28351E-07         0.19553E-11         0.00000E+00
    0.28350E-07         0.17539E-11         0.00000E+00
    0.28350E-07         0.15347E-11         0.00000E+00
    0.28349E-07         0.12976E-11         0.00000E+00
    0.28349E-07         0.10423E-11         0.00000E+00
    0.28349E-07         0.76845E-12         0.00000E+00
    0.28349E-07         0.47598E-12         0.00000E+00
    0.28349E-07         0.16465E-12         0.00000E+00
    0.28386E-07         0.25285E-12         0.00000E+00
    0.28386E-07         0.74953E-12         0.00000E+00
    0.28386E-07         0.12333E-11         0.00000E+00
    0.28386E-07         0.17036E-11         0.00000E+00
    0.28385E-07         0.21598E-11         0.00000E+00
    0.28385E-07         0.26016E-11         0.00000E+00
    0.28385E-07         0.30284E-11         0.00000E+00
    0.28384E-07         0.34395E-11         0.00000E+00
    0.28384E-07         0.38346E-11         0.00000E+00
    0.28383E-07         0.42130E-11         0.00000E+00
    0.28383E-07         0.45744E-11         0.00000E+00
    0.28382E-07         0.49180E-11         0.00000E+00
    0.28381E-07         0.52435E-11         0.00000E+00
    0.28381E-07         0.55503E-11         0.00000E+00
    0.28380E-07         0.58379E-11         0.00000E+00
    0.28379E-07         0.61059E-11         0.00000E+00
    0.28378E-07         0.63536E-11         0.00000E+00
    0.28377E-07         0.65806E-11         0.00000E+00
    0.28376E-07         0.67865E-11         0.00000E+00
    0.28376E-07         0.69707E-11         0.00000E+00
    0.28375E-07         0.71327E-11         0.00000E+00
    0.28374E-07         0.72722E-11         0.00000E+00
    0.28373E-07         0.73885E-11         0.00000E+00
    0.28372E-07         0.74813E-11         0.00000E+00
    0.28371E-07         0.75501E-11         0.00000E+00
    0.28370E-07         0.75945E-11         0.00000E+00
    0.28369E-07         0.76140E-11         0.00000E+00
    0.28368E-07         0.76082E-11         0.00000E+00
    0.28367E-07         0.75767E-11         0.00000E+00
    0.28366E-07         0.75191E-11         0.00000E+00
    0.28366E-07         0.74349E-11         0.00000E+00
    0.28365E-07         0.73238E-11         0.00000E+00
    0.28364E-07         0.71854E-11         0.00000E+00
    0.28363E-07         0.70193E-11         0.00000E+00
    0.28362E-07         0.68252E-11         0.00000E+00
    0.28362E-07         0.66027E-11         0.00000E+00
    0.28361E-07         0.63515E-11         0.00000E+00
    0.28360E-07         0.60712E-11         0.00000E+00
    0.28359E-07         0.57615E-11         0.00000E+00
    0.28359E-07         0.54222E-11         0.00000E+00
    0.28358E-07         0.50530E-11         0.00000E+00
    0.28358E-07         0.46535E-11         0.00000E+00
    0.28357E-07         0.42235E-11         0.00000E+00
    0.28357E-07         0.37627E-11         0.00000E+00
    0.28356E-07         0.32710E-11         0.00000E+00
    0.28356E-07         0.27480E-11         0.00000E+00
    0.28356E-07         0.21936E-11         0.00000E+00
    0.28356E-07         0.16076E-11         0.00000E+00
    0.28355E-07         0.98984E-12         0.00000E+00
    0.28355E-07         0.34006E-12         0.00000E+00
    0.28432E-07         0.44593E-12         0.00000E+00
    0.28432E-07         0.13163E-11         0.00000E+00
    0.28432E-07         0.21566E-11         0.00000E+00
    0.28431E-07         0.29663E-11         0.00000E+00
    0.28431E-07         0.37452E-11         0.00000E+00
    0.28431E-07         0.44926E-11         0.00000E+00
    0.28430E-07         0.52083E-11         0.00000E+00
    0.28430E-07         0.58918E-11         0.00000E+00
    0.28429E-07         0.65426E-11         0.00000E+00
    0.28429E-07         0.71604E-11         0.00000E+00
    0.28428E-07         0.77448E-11         0.00000E+00
    0.28428E-07         0.82952E-11         0.00000E+00
    0.28427E-07         0.88114E-11         0.00000E+00
    0.28426E-07         0.92930E-11         0.00000E+00
    0.28425E-07         0.97394E-11         0.00000E+00
    0.28425E-07         0.10150E-10         0.00000E+00
    0.28424E-07         0.10525E-10         0.00000E+00
    0.28423E-07         0.10864E-10         0.00000E+00
    0.28422E-07         0.11166E-10         0.00000E+00
    0.28421E-07         0.11431E-10         0.00000E+00
    0.28420E-07         0.11659E-10         0.00000E+00
    0.28419E-07         0.11849E-10         0.00000E+00
    0.28418E-07         0.12001E-10         0.00000E+00
    0.28417E-07         0.12114E-10         0.00000E+00
    0.28416E-07         0.12189E-10         0.00000E+00
    0.28416E-07         0.12224E-10         0.00000E+00
    0.28415E-07         0.12219E-10         0.00000E+00
    0.28414E-07         0.12175E-10         0.00000E+00
    0.28413E-07         0.12090E-10         0.00000E+00
    0.28412E-07         0.11965E-10         0.00000E+00
    0.28411E-07         0.11799E-10         0.00000E+00
    0.28410E-07         0.11592E-10         0.00000E+00
    0.28409E-07         0.11344E-10         0.00000E+00
    0.28408E-07         0.11053E-10         0.00000E+00
    0.28408E-07         0.10721E-10         0.00000E+00
    0.28407E-07         0.10346E-10         0.00000E+00
    0.28406E-07         0.99286E-11         0.00000E+00
    0.28405E-07         0.94683E-11         0.00000E+00
    0.28405E-07         0.89649E-11         0.00000E+00
    0.28404E-07         0.84181E-11         0.00000E+00
    0.28404E-07         0.78277E-11         0.00000E+00
    0.28403E-07         0.71934E-11         0.00000E+00
    0.28403E-07         0.65151E-11         0.00000E+00
    0.28402E-07         0.57926E-11         0.00000E+00
    0.28402E-07         0.50256E-11         0.00000E+00
    0.28401E-07         0.42139E-11         0.00000E+00
    0.28401E-07         0.33574E-11         0.00000E+00
    0.28401E-07         0.24559E-11         0.00000E+00
    0.28401E-07         0.15093E-11         0.00000E+00
    0.28401E-07         0.51741E-12         0.00000E+00
    0.28516E-07         0.64002E-12         0.00000E+00
    0.28516E-07         0.18861E-11         0.00000E+00
    0.28516E-07         0.30849E-11         0.00000E+00
    0.28516E-07         0.42361E-11         0.00000E+00
    0.28515E-07         0.53394E-11         0.00000E+00
    0.28515E-07         0.63944E-11         0.00000E+00
    0.28515E-07         0.74008E-11         0.00000E+00
    0.28514E-07         0.83584E-11         0.00000E+00
    0.28514E-07         0.92667E-11         0.00000E+00
    0.28513E-07         0.10126E-10         0.00000E+00
    0.28512E-07         0.10935E-10         0.00000E+00
    0.28512E-07         0.11693E-10         0.00000E+00
    0.28511E-07         0.12402E-10         0.00000E+00
    0.28510E-07         0.13059E-10         0.00000E+00
    0.28510E-07         0.13666E-10         0.00000E+00
    0.28509E-07         0.14221E-10         0.00000E+00
    0.28508E-07         0.14725E-10         0.00000E+00
    0.28507E-07         0.15176E-10         0.00000E+00
    0.28506E-07         0.15576E-10         0.00000E+00
    0.28505E-07         0.15923E-10         0.00000E+00
    0.28504E-07         0.16217E-10         0.00000E+00
    0.28504E-07         0.16458E-10         0.00000E+00
    0.28503E-07         0.16646E-10         0.00000E+00
    0.28502E-07         0.16780E-10         0.00000E+00
    0.28501E-07         0.16861E-10         0.00000E+00
    0.28500E-07         0.16887E-10         0.00000E+00
    0.28499E-07         0.16859E-10         0.00000E+00
    0.28498E-07         0.16776E-10         0.00000E+00
    0.28497E-07         0.16639E-10         0.00000E+00
    0.28496E-07         0.16446E-10         0.00000E+00
    0.28495E-07         0.16198E-10         0.00000E+00
    0.28494E-07         0.15894E-10         0.00000E+00
    0.28493E-07         0.15535E-10         0.00000E+00
    0.28493E-07         0.15120E-10         0.00000E+00
    0.28492E-07         0.14648E-10         0.00000E+00
    0.28491E-07         0.14120E-10         0.00000E+00
    0.28490E-07         0.13535E-10         0.00000E+00
    0.28490E-07         0.12894E-10         0.00000E+00
    0.28489E-07         0.12195E-10         0.00000E+00
    0.28488E-07         0.11439E-10         0.00000E+00
    0.28488E-07         0.10626E-10         0.00000E+00
    0.28487E-07         0.97552E-11         0.00000E+00
    0.28487E-07         0.88267E-11         0.00000E+00
    0.28486E-07         0.78402E-11         0.00000E+00
    0.28486E-07         0.67956E-11         0.00000E+00
    0.28486E-07         0.56928E-11         0.00000E+00
    0.28485E-07         0.45316E-11         0.00000E+00
    0.28485E-07         0.33119E-11         0.00000E+00
    0.28485E-07         0.20336E-11         0.00000E+00
    0.28485E-07         0.69639E-12         0.00000E+00
    0.28639E-07         0.83514E-12         0.00000E+00
    0.28639E-07         0.24589E-11         0.00000E+00
    0.28639E-07         0.40182E-11         0.00000E+00
    0.28639E-07         0.55127E-11         0.00000E+00
    0.28639E-07         0.69423E-11         0.00000E+00
    0.28638E-07         0.83066E-11         0.00000E+00
    0.28638E-07         0.96055E-11         0.00000E+00
    0.28637E-07         0.10839E-10         0.00000E+00
    0.28637E-07         0.12006E-10         0.00000E+00
    0.28636E-07         0.13107E-10         0.00000E+00
    0.28636E-07         0.14143E-10         0.00000E+00
    0.28635E-07         0.15111E-10         0.00000E+00
    0.28634E-07         0.16013E-10         0.00000E+00
    0.28634E-07         0.16848E-10         0.00000E+00
    0.28633E-07         0.17616E-10         0.00000E+00
    0.28632E-07         0.18316E-10         0.00000E+00
    0.28631E-07         0.18949E-10         0.00000E+00
    0.28630E-07         0.19515E-10         0.00000E+00
    0.28629E-07         0.20012E-10         0.00000E+00
    0.28628E-07         0.20442E-10         0.00000E+00
    0.28628E-07         0.20803E-10         0.00000E+00
    0.28627E-07         0.21096E-10         0.00000E+00
    0.28626E-07         0.21320E-10         0.00000E+00
    0.28625E-07         0.21476E-10         0.00000E+00
    0.28624E-07         0.21563E-10         0.00000E+00
    0.28623E-07         0.21580E-10         0.00000E+00
    0.28622E-07         0.21528E-10         0.00000E+00
    0.28621E-07         0.21407E-10         0.00000E+00
    0.28620E-07         0.21216E-10         0.00000E+00
    0.28619E-07         0.20956E-10         0.00000E+00
    0.28618E-07         0.20626E-10         0.00000E+00
    0.28617E-07         0.20225E-10         0.00000E+00
    0.28617E-07         0.19754E-10         0.00000E+00
    0.28616E-07         0.19213E-10         0.00000E+00
    0.28615E-07         0.18602E-10         0.00000E+00
    0.28614E-07         0.17920E-10         0.00000E+00
    0.28613E-07         0.17167E-10         0.00000E+00
    0.28613E-07         0.16343E-10         0.00000E+00
    0.28612E-07         0.15448E-10         0.00000E+00
    0.28611E-07         0.14482E-10         0.00000E+00
    0.28611E-07         0.13444E-10         0.00000E+00
    0.28610E-07         0.12335E-10         0.00000E+00
    0.28610E-07         0.11155E-10         0.00000E+00
    0.28609E-07         0.99026E-11         0.00000E+00
    0.28609E-07         0.85785E-11         0.00000E+00
    0.28609E-07         0.71825E-11         0.00000E+00
    0.28608E-07         0.57144E-11         0.00000E+00
    0.28608E-07         0.41742E-11         0.00000E+00
    0.28608E-07         0.25616E-11         0.00000E+00
    0.28608E-07         0.87671E-12         0.00000E+00
    0.28802E-07         0.10313E-11         0.00000E+00
    0.28801E-07         0.30348E-11         0.00000E+00
    0.28801E-07         0.49565E-11         0.00000E+00
    0.28801E-07         0.67962E-11         0.00000E+00
    0.28801E-07         0.85537E-11         0.00000E+00
    0.28800E-07         0.10229E-10         0.00000E+00
    0.28800E-07         0.11822E-10         0.00000E+00
    0.28800E-07         0.13332E-10         0.00000E+00
    0.28799E-07         0.14760E-10         0.00000E+00
    0.28798E-07         0.16105E-10         0.00000E+00
    0.28798E-07         0.17368E-10         0.00000E+00
    0.28797E-07         0.18547E-10         0.00000E+00
    0.28796E-07         0.19644E-10         0.00000E+00
    0.28796E-07         0.20657E-10         0.00000E+00
    0.28795E-07         0.21587E-10         0.00000E+00
    0.28794E-07         0.22434E-10         0.00000E+00
    0.28793E-07         0.23197E-10         0.00000E+00
    0.28792E-07         0.23877E-10         0.00000E+00
    0.28792E-07         0.24473E-10         0.00000E+00
    0.28791E-07         0.24986E-10         0.00000E+00
    0.28790E-07         0.25414E-10         0.00000E+00
    0.28789E-07         0.25759E-10         0.00000E+00
    0.28788E-07         0.26020E-10         0.00000E+00
    0.28787E-07         0.26198E-10         0.00000E+00
    0.28786E-07         0.26290E-10         0.00000E+00
    0.28785E-07         0.26299E-10         0.00000E+00
    0.28784E-07         0.26224E-10         0.00000E+00
    0.28783E-07         0.26064E-10         0.00000E+00
    0.28782E-07         0.25820E-10         0.00000E+00
    0.28781E-07         0.25491E-10         0.00000E+00
    0.28780E-07         0.25078E-10         0.00000E+00
    0.28779E-07         0.24580E-10         0.00000E+00
    0.28779E-07         0.23998E-10         0.00000E+00
    0.28778E-07         0.23330E-10         0.00000E+00
    0.28777E-07         0.22578E-10         0.00000E+00
    0.28776E-07         0.21741E-10         0.00000E+00
    0.28775E-07         0.20819E-10         0.00000E+00
    0.28775E-07         0.19811E-10         0.00000E+00
    0.28774E-07         0.18719E-10         0.00000E+00
    0.28773E-07         0.17541E-10         0.00000E+00
    0.28773E-07         0.16278E-10         0.00000E+00
    0.28772E-07         0.14930E-10         0.00000E+00
    0.28772E-07         0.13496E-10         0.00000E+00
    0.28771E-07         0.11977E-10         0.00000E+00
    0.28771E-07         0.10372E-10         0.00000E+00
    0.28771E-07         0.86807E-11         0.00000E+00
    0.28770E-07         0.69040E-11         0.00000E+00
    0.28770E-07         0.50414E-11         0.00000E+00
    0.28770E-07         0.30928E-11         0.00000E+00
    0.28770E-07         0.10581E-11         0.00000E+00
    0.29003E-07         0.12285E-11         0.00000E+00
    0.29003E-07         0.36137E-11         0.00000E+00
    0.29003E-07         0.58997E-11         0.00000E+00
    0.29002E-07         0.80863E-11         0.00000E+00
    0.29002E-07         0.10174E-10         0.00000E+00
    0.29002E-07         0.12161E-10         0.00000E+00
    0.29001E-07         0.14050E-10         0.00000E+00
    0.29001E-07         0.15839E-10         0.00000E+00
    0.29000E-07         0.17528E-10         0.00000E+00
    0.29000E-07         0.19119E-10         0.00000E+00
    0.28999E-07         0.20609E-10         0.00000E+00
    0.28999E-07         0.22001E-10         0.00000E+00
    0.28998E-07         0.23292E-10         0.00000E+00
    0.28997E-07         0.24485E-10         0.00000E+00
    0.28996E-07         0.25578E-10         0.00000E+00
    0.28995E-07         0.26571E-10         0.00000E+00
    0.28995E-07         0.27465E-10         0.00000E+00
    0.28994E-07         0.28260E-10         0.00000E+00
    0.28993E-07         0.28955E-10         0.00000E+00
    0.28992E-07         0.29551E-10         0.00000E+00
    0.28991E-07         0.30048E-10         0.00000E+00
    0.28990E-07         0.30445E-10         0.00000E+00
    0.28989E-07         0.30743E-10         0.00000E+00
    0.28988E-07         0.30941E-10         0.00000E+00
    0.28987E-07         0.31040E-10         0.00000E+00
    0.28986E-07         0.31040E-10         0.00000E+00
    0.28985E-07         0.30941E-10         0.00000E+00
    0.28984E-07         0.30742E-10         0.00000E+00
    0.28983E-07         0.30444E-10         0.00000E+00
    0.28983E-07         0.30047E-10         0.00000E+00
    0.28982E-07         0.29550E-10         0.00000E+00
    0.28981E-07         0.28955E-10         0.00000E+00
    0.28980E-07         0.28260E-10         0.00000E+00
    0.28979E-07         0.27465E-10         0.00000E+00
    0.28978E-07         0.26572E-10         0.00000E+00
    0.28977E-07         0.25579E-10         0.00000E+00
    0.28977E-07         0.24487E-10         0.00000E+00
    0.28976E-07         0.23295E-10         0.00000E+00
    0.28975E-07         0.22004E-10         0.00000E+00
    0.28975E-07         0.20614E-10         0.00000E+00
    0.28974E-07         0.19125E-10         0.00000E+00
    0.28974E-07         0.17536E-10         0.00000E+00
    0.28973E-07         0.15847E-10         0.00000E+00
    0.28973E-07         0.14060E-10         0.00000E+00
    0.28972E-07         0.12172E-10         0.00000E+00
    0.28972E-07         0.10185E-10         0.00000E+00
    0.28972E-07         0.80985E-11         0.00000E+00
    0.28971E-07         0.59122E-11         0.00000E+00
    0.28971E-07         0.36261E-11         0.00000E+00
    0.28971E-07         0.12402E-11         0.00000E+00
    0.29244E-07         0.14267E-11         0.00000E+00
    0.29244E-07         0.41957E-11         0.00000E+00
    0.29244E-07         0.68478E-11         0.00000E+00
    0.29243E-07         0.93830E-11         0.00000E+00
    0.29243E-07         0.11802E-10         0.00000E+00
    0.29243E-07         0.14103E-10         0.00000E+00
    0.29242E-07         0.16289E-10         0.00000E+00
    0.29242E-07         0.18358E-10         0.00000E+00
    0.29241E-07         0.20310E-10         0.00000E+00
    0.29241E-07         0.22146E-10         0.00000E+00
    0.29240E-07         0.23866E-10         0.00000E+00
    0.29239E-07         0.25470E-10         0.00000E+00
    0.29239E-07         0.26958E-10         0.00000E+00
    0.29238E-07         0.28330E-10         0.00000E+00
    0.29237E-07         0.29586E-10         0.00000E+00
    0.29236E-07         0.30727E-10         0.00000E+00
    0.29236E-07         0.31752E-10         0.00000E+00
    0.29235E-07         0.32662E-10         0.00000E+00
    0.29234E-07         0.33456E-10         0.00000E+00
    0.29233E-07         0.34136E-10         0.00000E+00
    0.29232E-07         0.34700E-10         0.00000E+00
    0.29231E-07         0.35149E-10         0.00000E+00
    0.29230E-07         0.35484E-10         0.00000E+00
    0.29229E-07         0.35703E-10         0.00000E+00
    0.29228E-07         0.35809E-10         0.00000E+00
    0.29227E-07         0.35799E-10         0.00000E+00
    0.29226E-07         0.35675E-10         0.00000E+00
    0.29225E-07         0.35437E-10         0.00000E+00
    0.29224E-07         0.35085E-10         0.00000E+00
    0.29223E-07         0.34619E-10         0.00000E+00
    0.29223E-07         0.34038E-10         0.00000E+00
    0.29222E-07         0.33344E-10         0.00000E+00
    0.29221E-07         0.32536E-10         0.00000E+00
    0.29220E-07         0.31614E-10         0.00000E+00
    0.29219E-07         0.30578E-10         0.00000E+00
    0.29218E-07         0.29429E-10         0.00000E+00
    0.29218E-07         0.28166E-10         0.00000E+00
    0.29217E-07         0.26790E-10         0.00000E+00
    0.29216E-07         0.25300E-10         0.00000E+00
    0.29216E-07         0.23696E-10         0.00000E+00
    0.29215E-07         0.21979E-10         0.00000E+00
    0.29214E-07         0.20149E-10         0.00000E+00
    0.29214E-07         0.18205E-10         0.00000E+00
    0.29213E-07         0.16148E-10         0.00000E+00
    0.29213E-07         0.13978E-10         0.00000E+00
    0.29213E-07         0.11694E-10         0.00000E+00
    0.29212E-07         0.92961E-11         0.00000E+00
    0.29212E-07         0.67852E-11         0.00000E+00
    0.29212E-07         0.41607E-11         0.00000E+00
    0.29212E-07         0.14227E-11         0.00000E+00
    0.29525E-07         0.16260E-11         0.00000E+00
    0.29525E-07         0.47807E-11         0.00000E+00
    0.29524E-07         0.78007E-11         0.00000E+00
    0.29524E-07         0.10686E-10         0.00000E+00
    0.29524E-07         0.13438E-10         0.00000E+00
    0.29524E-07         0.16055E-10         0.00000E+00
    0.29523E-07         0.18538E-10         0.00000E+00
    0.29523E-07         0.20888E-10         0.00000E+00
    0.29522E-07         0.23104E-10         0.00000E+00
    0.29522E-07         0.25187E-10         0.00000E+00
    0.29521E-07         0.27137E-10         0.00000E+00
    0.29520E-07         0.28954E-10         0.00000E+00
    0.29519E-07         0.30638E-10         0.00000E+00
    0.29519E-07         0.32190E-10         0.00000E+00
    0.29518E-07         0.33610E-10         0.00000E+00
    0.29517E-07         0.34898E-10         0.00000E+00
    0.29516E-07         0.36055E-10         0.00000E+00
    0.29515E-07         0.37079E-10         0.00000E+00
    0.29515E-07         0.37973E-10         0.00000E+00
    0.29514E-07         0.38736E-10         0.00000E+00
    0.29513E-07         0.39367E-10         0.00000E+00
    0.29512E-07         0.39868E-10         0.00000E+00
    0.29511E-07         0.40239E-10         0.00000E+00
    0.29510E-07         0.40480E-10         0.00000E+00
    0.29509E-07         0.40590E-10         0.00000E+00
    0.29508E-07         0.40571E-10         0.00000E+00
    0.29507E-07         0.40423E-10         0.00000E+00
    0.29506E-07         0.40145E-10         0.00000E+00
    0.29505E-07         0.39738E-10         0.00000E+00
    0.29504E-07         0.39202E-10         0.00000E+00
    0.29503E-07         0.38537E-10         0.00000E+00
    0.29502E-07         0.37743E-10         0.00000E+00
    0.29501E-07         0.36821E-10         0.00000E+00
    0.29501E-07         0.35771E-10         0.00000E+00
    0.29500E-07         0.34593E-10         0.00000E+00
    0.29499E-07         0.33286E-10         0.00000E+00
    0.29498E-07         0.31852E-10         0.00000E+00
    0.29498E-07         0.30290E-10         0.00000E+00
    0.29497E-07         0.28600E-10         0.00000E+00
    0.29496E-07         0.26783E-10         0.00000E+00
    0.29496E-07         0.24838E-10         0.00000E+00
    0.29495E-07         0.22766E-10         0.00000E+00
    0.29495E-07         0.20566E-10         0.00000E+00
    0.29494E-07         0.18239E-10         0.00000E+00
    0.29494E-07         0.15785E-10         0.00000E+00
    0.29493E-07         0.13204E-10         0.00000E+00
    0.29493E-07         0.10495E-10         0.00000E+00
    0.29493E-07         0.76590E-11         0.00000E+00
    0.29493E-07         0.46958E-11         0.00000E+00
    0.29493E-07         0.16054E-11         0.00000E+00
    0.29846E-07         0.18263E-11         0.00000E+00
    0.29846E-07         0.53686E-11         0.00000E+00
    0.29846E-07         0.87583E-11         0.00000E+00
    0.29845E-07         0.11996E-10         0.00000E+00
    0.29845E-07         0.15081E-10         0.00000E+00
    0.29845E-07         0.18015E-10         0.00000E+00
    0.29844E-07         0.20797E-10         0.00000E+00
    0.29844E-07         0.23429E-10         0.00000E+00
    0.29843E-07         0.25910E-10         0.00000E+00
    0.29843E-07         0.28240E-10         0.00000E+00
    0.29842E-07         0.30420E-10         0.00000E+00
    0.29841E-07         0.32451E-10         0.00000E+00
    0.29841E-07         0.34332E-10         0.00000E+00
    0.29840E-07         0.36064E-10         0.00000E+00
    0.29839E-07         0.37648E-10         0.00000E+00
    0.29838E-07         0.39083E-10         0.00000E+00
    0.29837E-07         0.40370E-10         0.00000E+00
    0.29836E-07         0.41510E-10         0.00000E+00
    0.29836E-07         0.42502E-10         0.00000E+00
    0.29835E-07         0.43348E-10         0.00000E+00
    0.29834E-07         0.44046E-10         0.00000E+00
    0.29833E-07         0.44599E-10         0.00000E+00
    0.29832E-07         0.45005E-10         0.00000E+00
    0.29831E-07         0.45266E-10         0.00000E+00
    0.29830E-07         0.45382E-10         0.00000E+00
    0.29829E-07         0.45352E-10         0.00000E+00
    0.29828E-07         0.45178E-10         0.00000E+00
    0.29827E-07         0.44860E-10         0.00000E+00
    0.29826E-07         0.44397E-10         0.00000E+00
    0.29825E-07         0.43791E-10         0.00000E+00
    0.29824E-07         0.43041E-10         0.00000E+00
    0.29823E-07         0.42147E-10         0.00000E+00
    0.29823E-07         0.41111E-10         0.00000E+00
    0.29822E-07         0.39932E-10         0.00000E+00
    0.29821E-07         0.38610E-10         0.00000E+00
    0.29820E-07         0.37146E-10         0.00000E+00
    0.29819E-07         0.35540E-10         0.00000E+00
    0.29819E-07         0.33791E-10         0.00000E+00
    0.29818E-07         0.31901E-10         0.00000E+00
    0.29817E-07         0.29870E-10         0.00000E+00
    0.29817E-07         0.27697E-10         0.00000E+00
    0.29816E-07         0.25382E-10         0.00000E+00
    0.29816E-07         0.22926E-10         0.00000E+00
    0.29815E-07         0.20329E-10         0.00000E+00
    0.29815E-07         0.17592E-10         0.00000E+00
    0.29814E-07         0.14713E-10         0.00000E+00
    0.29814E-07         0.11693E-10         0.00000E+00
    0.29814E-07         0.85320E-11         0.00000E+00
    0.29814E-07         0.52304E-11         0.00000E+00
    0.29814E-07         0.17878E-11         0.00000E+00
    0.30208E-07         0.20277E-11         0.00000E+00
    0.30208E-07         0.59595E-11         0.00000E+00
    0.30207E-07         0.97206E-11         0.00000E+00
    0.30207E-07         0.13311E-10         0.00000E+00
    0.30207E-07         0.16732E-10         0.00000E+00
    0.30207E-07         0.19984E-10         0.00000E+00
    0.30206E-07         0.23066E-10         0.00000E+00
    0.30206E-07         0.25980E-10         0.00000E+00
    0.30205E-07         0.28726E-10         0.00000E+00
    0.30205E-07         0.31304E-10         0.00000E+00
    0.30204E-07         0.33715E-10         0.00000E+00
    0.30203E-07         0.35959E-10         0.00000E+00
    0.30202E-07         0.38037E-10         0.00000E+00
    0.30202E-07         0.39949E-10         0.00000E+00
    0.30201E-07         0.41696E-10         0.00000E+00
    0.30200E-07         0.43278E-10         0.00000E+00
    0.30199E-07         0.44696E-10         0.00000E+00
    0.30198E-07         0.45950E-10         0.00000E+00
    0.30197E-07         0.47041E-10         0.00000E+00
    0.30197E-07         0.47968E-10         0.00000E+00
    0.30196E-07         0.48733E-10         0.00000E+00
    0.30195E-07         0.49336E-10         0.00000E+00
    0.30194E-07         0.49778E-10         0.00000E+00
    0.30193E-07         0.50058E-10         0.00000E+00
    0.30192E-07         0.50178E-10         0.00000E+00
    0.30191E-07         0.50137E-10         0.00000E+00
    0.30190E-07         0.49937E-10         0.00000E+00
    0.30189E-07         0.49577E-10         0.00000E+00
    0.30188E-07         0.49058E-10         0.00000E+00
    0.30187E-07         0.48380E-10         0.00000E+00
    0.30186E-07         0.47544E-10         0.00000E+00
    0.30185E-07         0.46550E-10         0.00000E+00
    0.30184E-07         0.45398E-10         0.00000E+00
    0.30184E-07         0.44090E-10         0.00000E+00
    0.30183E-07         0.42624E-10         0.00000E+00
    0.30182E-07         0.41002E-10         0.00000E+00
    0.30181E-07         0.39223E-10         0.00000E+00
    0.30181E-07         0.37288E-10         0.00000E+00
    0.30180E-07         0.35198E-10         0.00000E+00
    0.30179E-07         0.32952E-10         0.00000E+00
    0.30179E-07         0.30550E-10         0.00000E+00
    0.30178E-07         0.27993E-10         0.00000E+00
    0.30178E-07         0.25282E-10         0.00000E+00
    0.30177E-07         0.22415E-10         0.00000E+00
    0.30177E-07         0.19394E-10         0.00000E+00
    0.30176E-07         0.16218E-10         0.00000E+00
    0.30176E-07         0.12887E-10         0.00000E+00
    0.30176E-07         0.94026E-11         0.00000E+00
    0.30176E-07         0.57634E-11         0.00000E+00
    0.30176E-07         0.19697E-11         0.00000E+00
    0.30611E-07         0.22301E-11         0.00000E+00
    0.30611E-07         0.65532E-11         0.00000E+00
    0.30611E-07         0.10687E-10         0.00000E+00
    0.30611E-07         0.14633E-10         0.00000E+00
    0.30610E-07         0.18390E-10         0.00000E+00
    0.30610E-07         0.21960E-10         0.00000E+00
    0.30609E-07         0.25343E-10         0.00000E+00
    0.30609E-07         0.28540E-10         0.00000E+00
    0.30608E-07         0.31551E-10         0.00000E+00
    0.30608E-07         0.34377E-10         0.00000E+00
    0.30607E-07         0.37019E-10         0.00000E+00
    0.30606E-07         0.39477E-10         0.00000E+00
    0.30606E-07         0.41751E-10         0.00000E+00
    0.30605E-07         0.43843E-10         0.00000E+00
    0.30604E-07         0.45753E-10         0.00000E+00
    0.30603E-07         0.47481E-10         0.00000E+00
    0.30603E-07         0.49029E-10         0.00000E+00
    0.30602E-07         0.50396E-10         0.00000E+00
    0.30601E-07         0.51584E-10         0.00000E+00
    0.30600E-07         0.52593E-10         0.00000E+00
    0.30599E-07         0.53423E-10         0.00000E+00
    0.30598E-07         0.54076E-10         0.00000E+00
    0.30597E-07         0.54551E-10         0.00000E+00
    0.30596E-07         0.54850E-10         0.00000E+00
    0.30595E-07         0.54972E-10         0.00000E+00
    0.30594E-07         0.54920E-10         0.00000E+00
    0.30593E-07         0.54692E-10         0.00000E+00
    0.30592E-07         0.54289E-10         0.00000E+00
    0.30591E-07         0.53713E-10         0.00000E+00
    0.30590E-07         0.52963E-10         0.00000E+00
    0.30589E-07         0.52040E-10         0.00000E+00
    0.30589E-07         0.50945E-10         0.00000E+00
    0.30588E-07         0.49678E-10         0.00000E+00
    0.30587E-07         0.48239E-10         0.00000E+00
    0.30586E-07         0.46629E-10         0.00000E+00
    0.30585E-07         0.44848E-10         0.00000E+00
    0.30585E-07         0.42896E-10         0.00000E+00
    0.30584E-07         0.40775E-10         0.00000E+00
    0.30583E-07         0.38484E-10         0.00000E+00
    0.30582E-07         0.36023E-10         0.00000E+00
    0.30582E-07         0.33394E-10         0.00000E+00
    0.30581E-07         0.30595E-10         0.00000E+00
    0.30581E-07         0.27628E-10         0.00000E+00
    0.30580E-07         0.24492E-10         0.00000E+00
    0.30580E-07         0.21188E-10         0.00000E+00
    0.30580E-07         0.17716E-10         0.00000E+00
    0.30579E-07         0.14077E-10         0.00000E+00
    0.30579E-07         0.10269E-10         0.00000E+00
    0.30579E-07         0.62937E-11         0.00000E+00
    0.30579E-07         0.21507E-11         0.00000E+00
    0.31056E-07         0.24334E-11         0.00000E+00
    0.31056E-07         0.71497E-11         0.00000E+00
    0.31056E-07         0.11658E-10         0.00000E+00
    0.31056E-07         0.15959E-10         0.00000E+00
    0.31056E-07         0.20054E-10         0.00000E+00
    0.31055E-07         0.23943E-10         0.00000E+00
    0.31055E-07         0.27628E-10         0.00000E+00
    0.31054E-07         0.31108E-10         0.00000E+00
    0.31054E-07         0.34384E-10         0.00000E+00
    0.31053E-07         0.37458E-10         0.00000E+00
    0.31052E-07         0.40330E-10         0.00000E+00
    0.31052E-07         0.43001E-10         0.00000E+00
    0.31051E-07         0.45471E-10         0.00000E+00
    0.31050E-07         0.47742E-10         0.00000E+00
    0.31050E-07         0.49814E-10         0.00000E+00
    0.31049E-07         0.51687E-10         0.00000E+00
    0.31048E-07         0.53364E-10         0.00000E+00
    0.31047E-07         0.54843E-10         0.00000E+00
    0.31046E-07         0.56127E-10         0.00000E+00
    0.31045E-07         0.57216E-10         0.00000E+00
    0.31044E-07         0.58111E-10         0.00000E+00
    0.31043E-07         0.58812E-10         0.00000E+00
    0.31042E-07         0.59320E-10         0.00000E+00
    0.31041E-07         0.59635E-10         0.00000E+00
    0.31040E-07         0.59760E-10         0.00000E+00
    0.31039E-07         0.59693E-10         0.00000E+00
    0.31038E-07         0.59437E-10         0.00000E+00
    0.31038E-07         0.58991E-10         0.00000E+00
    0.31037E-07         0.58356E-10         0.00000E+00
    0.31036E-07         0.57533E-10         0.00000E+00
    0.31035E-07         0.56523E-10         0.00000E+00
    0.31034E-07         0.55325E-10         0.00000E+00
    0.31033E-07         0.53942E-10         0.00000E+00
    0.31032E-07         0.52372E-10         0.00000E+00
    0.31031E-07         0.50617E-10         0.00000E+00
    0.31031E-07         0.48677E-10         0.00000E+00
    0.31030E-07         0.46553E-10         0.00000E+00
    0.31029E-07         0.44245E-10         0.00000E+00
    0.31028E-07         0.41753E-10         0.00000E+00
    0.31028E-07         0.39078E-10         0.00000E+00
    0.31027E-07         0.36221E-10         0.00000E+00
    0.31027E-07         0.33181E-10         0.00000E+00
    0.31026E-07         0.29960E-10         0.00000E+00
    0.31026E-07         0.26556E-10         0.00000E+00
    0.31025E-07         0.22971E-10         0.00000E+00
    0.31025E-07         0.19205E-10         0.00000E+00
    0.31025E-07         0.15258E-10         0.00000E+00
    0.31025E-07         0.11129E-10         0.00000E+00
    0.31024E-07         0.68201E-11         0.00000E+00
    0.31024E-07         0.23302E-11         0.00000E+00
    0.31544E-07         0.26377E-11         0.00000E+00
    0.31544E-07         0.77486E-11         0.00000E+00
    0.31544E-07         0.12633E-10         0.00000E+00
    0.31544E-07         0.17291E-10         0.00000E+00
    0.31544E-07         0.21724E-10         0.00000E+00
    0.31543E-07         0.25933E-10         0.00000E+00
    0.31543E-07         0.29918E-10         0.00000E+00
    0.31542E-07         0.33682E-10         0.00000E+00
    0.31542E-07         0.37223E-10         0.00000E+00
    0.31541E-07         0.40545E-10         0.00000E+00
    0.31541E-07         0.43646E-10         0.00000E+00
    0.31540E-07         0.46529E-10         0.00000E+00
    0.31539E-07         0.49194E-10         0.00000E+00
    0.31538E-07         0.51643E-10         0.00000E+00
    0.31538E-07         0.53875E-10         0.00000E+00
    0.31537E-07         0.55893E-10         0.00000E+00
    0.31536E-07         0.57697E-10         0.00000E+00
    0.31535E-07         0.59287E-10         0.00000E+00
    0.31534E-07         0.60666E-10         0.00000E+00
    0.31533E-07         0.61833E-10         0.00000E+00
    0.31532E-07         0.62790E-10         0.00000E+00
    0.31531E-07         0.63538E-10         0.00000E+00
    0.31530E-07         0.64077E-10         0.00000E+00
    0.31529E-07         0.64408E-10         0.00000E+00
    0.31528E-07         0.64533E-10         0.00000E+00
    0.31528E-07         0.64451E-10         0.00000E+00
    0.31527E-07         0.64165E-10         0.00000E+00
    0.31526E-07         0.63674E-10         0.00000E+00
    0.31525E-07         0.62980E-10         0.00000E+00
    0.31524E-07         0.62083E-10         0.00000E+00
    0.31523E-07         0.60984E-10         0.00000E+00
    0.31522E-07         0.59683E-10         0.00000E+00
    0.31521E-07         0.58182E-10         0.00000E+00
    0.31520E-07         0.56481E-10         0.00000E+00
    0.31520E-07         0.54581E-10         0.00000E+00
    0.31519E-07         0.52482E-10         0.00000E+00
    0.31518E-07         0.50185E-10         0.00000E+00
    0.31517E-07         0.47690E-10         0.00000E+00
    0.31517E-07         0.44999E-10         0.00000E+00
    0.31516E-07         0.42111E-10         0.00000E+00
    0.31515E-07         0.39026E-10         0.00000E+00
    0.31515E-07         0.35747E-10         0.00000E+00
    0.31514E-07         0.32272E-10         0.00000E+00
    0.31514E-07         0.28602E-10         0.00000E+00
    0.31514E-07         0.24738E-10         0.00000E+00
    0.31513E-07         0.20680E-10         0.00000E+00
    0.31513E-07         0.16427E-10         0.00000E+00
    0.31513E-07         0.11981E-10         0.00000E+00
    0.31513E-07         0.73412E-11         0.00000E+00
    0.31513E-07         0.25080E-11         0.00000E+00
    0.32076E-07         0.28428E-11         0.00000E+00
    0.32076E-07         0.83499E-11         0.00000E+00
    0.32076E-07         0.13611E-10         0.00000E+00
    0.32075E-07         0.18627E-10         0.00000E+00
    0.32075E-07         0.23398E-10         0.00000E+00
    0.32075E-07         0.27927E-10         0.00000E+00
    0.32074E-07         0.32214E-10         0.00000E+00
    0.32074E-07         0.36260E-10         0.00000E+00
    0.32073E-07         0.40066E-10         0.00000E+00
    0.32073E-07         0.43634E-10         0.00000E+00
    0.32072E-07         0.46964E-10         0.00000E+00
    0.32071E-07         0.50058E-10         0.00000E+00
    0.32071E-07         0.52917E-10         0.00000E+00
    0.32070E-07         0.55542E-10         0.00000E+00
    0.32069E-07         0.57933E-10         0.00000E+00
    0.32068E-07         0.60093E-10         0.00000E+00
    0.32067E-07         0.62023E-10         0.00000E+00
    0.32067E-07         0.63722E-10         0.00000E+00
    0.32066E-07         0.65193E-10         0.00000E+00
    0.32065E-07         0.66437E-10         0.00000E+00
    0.32064E-07         0.67455E-10         0.00000E+00
    0.32063E-07         0.68247E-10         0.00000E+00
    0.32062E-07         0.68815E-10         0.00000E+00
    0.32061E-07         0.69160E-10         0.00000E+00
    0.32060E-07         0.69283E-10         0.00000E+00
    0.32059E-07         0.69185E-10         0.00000E+00
    0.32058E-07         0.68867E-10         0.00000E+00
    0.32057E-07         0.68330E-10         0.00000E+00
    0.32056E-07         0.67575E-10         0.00000E+00
    0.32055E-07         0.66602E-10         0.00000E+00
    0.32055E-07         0.65413E-10         0.00000E+00
    0.32054E-07         0.64009E-10         0.00000E+00
    0.32053E-07         0.62390E-10         0.00000E+00
    0.32052E-07         0.60557E-10         0.00000E+00
    0.32051E-07         0.58511E-10         0.00000E+00
    0.32050E-07         0.56253E-10         0.00000E+00
    0.32050E-07         0.53783E-10         0.00000E+00
    0.32049E-07         0.51103E-10         0.00000E+00
    0.32048E-07         0.48212E-10         0.00000E+00
    0.32048E-07         0.45112E-10         0.00000E+00
    0.32047E-07         0.41802E-10         0.00000E+00
    0.32047E-07         0.38284E-10         0.00000E+00
    0.32046E-07         0.34558E-10         0.00000E+00
    0.32046E-07         0.30625E-10         0.00000E+00
    0.32045E-07         0.26484E-10         0.00000E+00
    0.32045E-07         0.22136E-10         0.00000E+00
    0.32045E-07         0.17582E-10         0.00000E+00
    0.32045E-07         0.12822E-10         0.00000E+00
    0.32044E-07         0.78555E-11         0.00000E+00
    0.32044E-07         0.26832E-11         0.00000E+00
    0.32652E-07         0.30486E-11         0.00000E+00
    0.32652E-07         0.89531E-11         0.00000E+00
    0.32652E-07         0.14592E-10         0.00000E+00
    0.32652E-07         0.19966E-10         0.00000E+00
    0.32651E-07         0.25076E-10         0.00000E+00
    0.32651E-07         0.29924E-10         0.00000E+00
    0.32650E-07         0.34512E-10         0.00000E+00
    0.32650E-07         0.38840E-10         0.00000E+00
    0.32649E-07         0.42910E-10         0.00000E+00
    0.32649E-07         0.46723E-10         0.00000E+00
    0.32648E-07         0.50280E-10         0.00000E+00
    0.32647E-07         0.53584E-10         0.00000E+00
    0.32647E-07         0.56634E-10         0.00000E+00
    0.32646E-07         0.59433E-10         0.00000E+00
    0.32645E-07         0.61982E-10         0.00000E+00
    0.32644E-07         0.64282E-10         0.00000E+00
    0.32644E-07         0.66335E-10         0.00000E+00
    0.32643E-07         0.68141E-10         0.00000E+00
    0.32642E-07         0.69703E-10         0.00000E+00
    0.32641E-07         0.71021E-10         0.00000E+00
    0.32640E-07         0.72097E-10         0.00000E+00
    0.32639E-07         0.72931E-10         0.00000E+00
    0.32638E-07         0.73526E-10         0.00000E+00
    0.32637E-07         0.73883E-10         0.00000E+00
    0.32636E-07         0.74002E-10         0.00000E+00
    0.32635E-07         0.73886E-10         0.00000E+00
    0.32634E-07         0.73534E-10         0.00000E+00
    0.32633E-07         0.72949E-10         0.00000E+00
    0.32632E-07         0.72131E-10         0.00000E+00
    0.32632E-07         0.71081E-10         0.00000E+00
    0.32631E-07         0.69801E-10         0.00000E+00
    0.32630E-07         0.68292E-10         0.00000E+00
    0.32629E-07         0.66555E-10         0.00000E+00
    0.32628E-07         0.64590E-10         0.00000E+00
    0.32627E-07         0.62398E-10         0.00000E+00
    0.32627E-07         0.59981E-10         0.00000E+00
    0.32626E-07         0.57339E-10         0.00000E+00
    0.32625E-07         0.54473E-10         0.00000E+00
    0.32625E-07         0.51385E-10         0.00000E+00
    0.32624E-07         0.48073E-10         0.00000E+00
    0.32623E-07         0.44540E-10         0.00000E+00
    0.32623E-07         0.40786E-10         0.00000E+00
    0.32622E-07         0.36812E-10         0.00000E+00
    0.32622E-07         0.32617E-10         0.00000E+00
    0.32622E-07         0.28203E-10         0.00000E+00
    0.32621E-07         0.23570E-10         0.00000E+00
    0.32621E-07         0.18719E-10         0.00000E+00
    0.32621E-07         0.13649E-10         0.00000E+00
    0.32621E-07         0.83611E-11         0.00000E+00
    0.32621E-07         0.28555E-11         0.00000E+00
    0.33273E-07         0.32552E-11         0.00000E+00
    0.33273E-07         0.95580E-11         0.00000E+00
    0.33273E-07         0.15575E-10         0.00000E+00
    0.33273E-07         0.21307E-10         0.00000E+00
    0.33273E-07         0.26756E-10         0.00000E+00
    0.33272E-07         0.31923E-10         0.00000E+00
    0.33272E-07         0.36811E-10         0.00000E+00
    0.33271E-07         0.41420E-10         0.00000E+00
    0.33271E-07         0.45752E-10         0.00000E+00
    0.33270E-07         0.49808E-10         0.00000E+00
    0.33270E-07         0.53591E-10         0.00000E+00
    0.33269E-07         0.57102E-10         0.00000E+00
    0.33268E-07         0.60342E-10         0.00000E+00
    0.33267E-07         0.63312E-10         0.00000E+00
    0.33267E-07         0.66016E-10         0.00000E+00
    0.33266E-07         0.68453E-10         0.00000E+00
    0.33265E-07         0.70626E-10         0.00000E+00
    0.33264E-07         0.72537E-10         0.00000E+00
    0.33263E-07         0.74186E-10         0.00000E+00
    0.33262E-07         0.75575E-10         0.00000E+00
    0.33261E-07         0.76706E-10         0.00000E+00
    0.33260E-07         0.77581E-10         0.00000E+00
    0.33260E-07         0.78200E-10         0.00000E+00
    0.33259E-07         0.78566E-10         0.00000E+00
    0.33258E-07         0.78679E-10         0.00000E+00
    0.33257E-07         0.78541E-10         0.00000E+00
    0.33256E-07         0.78154E-10         0.00000E+00
    0.33255E-07         0.77519E-10         0.00000E+00
    0.33254E-07         0.76636E-10         0.00000E+00
    0.33253E-07         0.75509E-10         0.00000E+00
    0.33252E-07         0.74137E-10         0.00000E+00
    0.33251E-07         0.72522E-10         0.00000E+00
    0.33251E-07         0.70665E-10         0.00000E+00
    0.33250E-07         0.68567E-10         0.00000E+00
    0.33249E-07         0.66230E-10         0.00000E+00
    0.33248E-07         0.63654E-10         0.00000E+00
    0.33248E-07         0.60841E-10         0.00000E+00
    0.33247E-07         0.57791E-10         0.00000E+00
    0.33246E-07         0.54506E-10         0.00000E+00
    0.33246E-07         0.50986E-10         0.00000E+00
    0.33245E-07         0.47231E-10         0.00000E+00
    0.33245E-07         0.43244E-10         0.00000E+00
    0.33244E-07         0.39024E-10         0.00000E+00
    0.33244E-07         0.34573E-10         0.00000E+00
    0.33243E-07         0.29890E-10         0.00000E+00
    0.33243E-07         0.24976E-10         0.00000E+00
    0.33243E-07         0.19832E-10         0.00000E+00
    0.33243E-07         0.14459E-10         0.00000E+00
    0.33242E-07         0.88561E-11         0.00000E+00
    0.33242E-07         0.30241E-11         0.00000E+00
    0.33941E-07         0.34622E-11         0.00000E+00
    0.33941E-07         0.10164E-10         0.00000E+00
    0.33941E-07         0.16559E-10         0.00000E+00
    0.33941E-07         0.22649E-10         0.00000E+00
    0.33941E-07         0.28436E-10         0.00000E+00
    0.33940E-07         0.33922E-10         0.00000E+00
    0.33940E-07         0.39107E-10         0.00000E+00
    0.33939E-07         0.43995E-10         0.00000E+00
    0.33939E-07         0.48587E-10         0.00000E+00
    0.33938E-07         0.52885E-10         0.00000E+00
    0.33937E-07         0.56891E-10         0.00000E+00
    0.33937E-07         0.60606E-10         0.00000E+00
    0.33936E-07         0.64032E-10         0.00000E+00
    0.33935E-07         0.67172E-10         0.00000E+00
    0.33935E-07         0.70027E-10         0.00000E+00
    0.33934E-07         0.72598E-10         0.00000E+00
    0.33933E-07         0.74889E-10         0.00000E+00
    0.33932E-07         0.76900E-10         0.00000E+00
    0.33931E-07         0.78633E-10         0.00000E+00
    0.33930E-07         0.80090E-10         0.00000E+00
    0.33929E-07         0.81273E-10         0.00000E+00
    0.33928E-07         0.82184E-10         0.00000E+00
    0.33928E-07         0.82825E-10         0.00000E+00
    0.33927E-07         0.83196E-10         0.00000E+00
    0.33926E-07         0.83301E-10         0.00000E+00
    0.33925E-07         0.83139E-10         0.00000E+00
    0.33924E-07         0.82714E-10         0.00000E+00
    0.33923E-07         0.82026E-10         0.00000E+00
    0.33922E-07         0.81078E-10         0.00000E+00
    0.33921E-07         0.79871E-10         0.00000E+00
    0.33920E-07         0.78405E-10         0.00000E+00
    0.33919E-07         0.76683E-10         0.00000E+00
    0.33919E-07         0.74707E-10         0.00000E+00
    0.33918E-07         0.72476E-10         0.00000E+00
    0.33917E-07         0.69994E-10         0.00000E+00
    0.33916E-07         0.67260E-10         0.00000E+00
    0.33916E-07         0.64276E-10         0.00000E+00
    0.33915E-07         0.61044E-10         0.00000E+00
    0.33914E-07         0.57564E-10         0.00000E+00
    0.33914E-07         0.53837E-10         0.00000E+00
    0.33913E-07         0.49865E-10         0.00000E+00
    0.33913E-07         0.45648E-10         0.00000E+00
    0.33912E-07         0.41187E-10         0.00000E+00
    0.33912E-07         0.36483E-10         0.00000E+00
    0.33912E-07         0.31536E-10         0.00000E+00
    0.33911E-07         0.26348E-10         0.00000E+00
    0.33911E-07         0.20919E-10         0.00000E+00
    0.33911E-07         0.15249E-10         0.00000E+00
    0.33911E-07         0.93383E-11         0.00000E+00
    0.33911E-07         0.31882E-11         0.00000E+00
    0.34657E-07         0.36695E-11         0.00000E+00
    0.34657E-07         0.10771E-10         0.00000E+00
    0.34657E-07         0.17544E-10         0.00000E+00
    0.34656E-07         0.23991E-10         0.00000E+00
    0.34656E-07         0.30115E-10         0.00000E+00
    0.34656E-07         0.35917E-10         0.00000E+00
    0.34655E-07         0.41399E-10         0.00000E+00
    0.34655E-07         0.46564E-10         0.00000E+00
    0.34654E-07         0.51413E-10         0.00000E+00
    0.34654E-07         0.55949E-10         0.00000E+00
    0.34653E-07         0.60174E-10         0.00000E+00
    0.34652E-07         0.64090E-10         0.00000E+00
    0.34652E-07         0.67700E-10         0.00000E+00
    0.34651E-07         0.71005E-10         0.00000E+00
    0.34650E-07         0.74007E-10         0.00000E+00
    0.34649E-07         0.76708E-10         0.00000E+00
    0.34648E-07         0.79112E-10         0.00000E+00
    0.34648E-07         0.81219E-10         0.00000E+00
    0.34647E-07         0.83033E-10         0.00000E+00
    0.34646E-07         0.84554E-10         0.00000E+00
    0.34645E-07         0.85786E-10         0.00000E+00
    0.34644E-07         0.86729E-10         0.00000E+00
    0.34643E-07         0.87387E-10         0.00000E+00
    0.34642E-07         0.87761E-10         0.00000E+00
    0.34641E-07         0.87853E-10         0.00000E+00
    0.34640E-07         0.87665E-10         0.00000E+00
    0.34639E-07         0.87199E-10         0.00000E+00
    0.34639E-07         0.86457E-10         0.00000E+00
    0.34638E-07         0.85441E-10         0.00000E+00
    0.34637E-07         0.84151E-10         0.00000E+00
    0.34636E-07         0.82591E-10         0.00000E+00
    0.34635E-07         0.80762E-10         0.00000E+00
    0.34634E-07         0.78665E-10         0.00000E+00
    0.34634E-07         0.76301E-10         0.00000E+00
    0.34633E-07         0.73674E-10         0.00000E+00
    0.34632E-07         0.70783E-10         0.00000E+00
    0.34632E-07         0.67630E-10         0.00000E+00
    0.34631E-07         0.64217E-10         0.00000E+00
    0.34630E-07         0.60545E-10         0.00000E+00
    0.34630E-07         0.56615E-10         0.00000E+00
    0.34629E-07         0.52428E-10         0.00000E+00
    0.34629E-07         0.47986E-10         0.00000E+00
    0.34628E-07         0.43289E-10         0.00000E+00
    0.34628E-07         0.38338E-10         0.00000E+00
    0.34628E-07         0.33134E-10         0.00000E+00
    0.34627E-07         0.27679E-10         0.00000E+00
    0.34627E-07         0.21971E-10         0.00000E+00
    0.34627E-07         0.16013E-10         0.00000E+00
    0.34627E-07         0.98050E-11         0.00000E+00
    0.34627E-07         0.33469E-11         0.00000E+00
    0.35421E-07         0.38769E-11         0.00000E+00
    0.35421E-07         0.11377E-10         0.00000E+00
    0.35421E-07         0.18527E-10         0.00000E+00
    0.35421E-07         0.25331E-10         0.00000E+00
    0.35420E-07         0.31789E-10         0.00000E+00
    0.35420E-07         0.37905E-10         0.00000E+00
    0.35419E-07         0.43681E-10         0.00000E+00
    0.35419E-07         0.49120E-10         0.00000E+00
    0.35418E-07         0.54223E-10         0.00000E+00
    0.35418E-07         0.58994E-10         0.00000E+00
    0.35417E-07         0.63434E-10         0.00000E+00
    0.35417E-07         0.67547E-10         0.00000E+00
    0.35416E-07         0.71335E-10         0.00000E+00
    0.35415E-07         0.74800E-10         0.00000E+00
    0.35414E-07         0.77945E-10         0.00000E+00
    0.35414E-07         0.80773E-10         0.00000E+00
    0.35413E-07         0.83285E-10         0.00000E+00
    0.35412E-07         0.85484E-10         0.00000E+00
    0.35411E-07         0.87373E-10         0.00000E+00
    0.35410E-07         0.88953E-10         0.00000E+00
    0.35409E-07         0.90229E-10         0.00000E+00
    0.35408E-07         0.91201E-10         0.00000E+00
    0.35408E-07         0.91872E-10         0.00000E+00
    0.35407E-07         0.92244E-10         0.00000E+00
    0.35406E-07         0.92321E-10         0.00000E+00
    0.35405E-07         0.92103E-10         0.00000E+00
    0.35404E-07         0.91593E-10         0.00000E+00
    0.35403E-07         0.90793E-10         0.00000E+00
    0.35402E-07         0.89706E-10         0.00000E+00
    0.35401E-07         0.88333E-10         0.00000E+00
    0.35401E-07         0.86677E-10         0.00000E+00
    0.35400E-07         0.84739E-10         0.00000E+00
    0.35399E-07         0.82521E-10         0.00000E+00
    0.35398E-07         0.80025E-10         0.00000E+00
    0.35398E-07         0.77252E-10         0.00000E+00
    0.35397E-07         0.74206E-10         0.00000E+00
    0.35396E-07         0.70886E-10         0.00000E+00
    0.35396E-07         0.67295E-10         0.00000E+00
    0.35395E-07         0.63434E-10         0.00000E+00
    0.35395E-07         0.59305E-10         0.00000E+00
    0.35394E-07         0.54908E-10         0.00000E+00
    0.35394E-07         0.50246E-10         0.00000E+00
    0.35393E-07         0.45319E-10         0.00000E+00
    0.35393E-07         0.40128E-10         0.00000E+00
    0.35392E-07         0.34675E-10         0.00000E+00
    0.35392E-07         0.28960E-10         0.00000E+00
    0.35392E-07         0.22985E-10         0.00000E+00
    0.35392E-07         0.16749E-10         0.00000E+00
    0.35392E-07         0.10253E-10         0.00000E+00
    0.35392E-07         0.34992E-11         0.00000E+00
    0.36236E-07         0.40842E-11         0.00000E+00
    0.36235E-07         0.11982E-10         0.00000E+00
    0.36235E-07         0.19509E-10         0.00000E+00
    0.36235E-07         0.26666E-10         0.00000E+00
    0.36235E-07         0.33456E-10         0.00000E+00
    0.36234E-07         0.39883E-10         0.00000E+00
    0.36234E-07         0.45950E-10         0.00000E+00
    0.36234E-07         0.51658E-10         0.00000E+00
    0.36233E-07         0.57011E-10         0.00000E+00
    0.36232E-07         0.62011E-10         0.00000E+00
    0.36232E-07         0.66663E-10         0.00000E+00
    0.36231E-07         0.70967E-10         0.00000E+00
    0.36230E-07         0.74928E-10         0.00000E+00
    0.36230E-07         0.78549E-10         0.00000E+00
    0.36229E-07         0.81831E-10         0.00000E+00
    0.36228E-07         0.84778E-10         0.00000E+00
    0.36227E-07         0.87393E-10         0.00000E+00
    0.36227E-07         0.89678E-10         0.00000E+00
    0.36226E-07         0.91637E-10         0.00000E+00
    0.36225E-07         0.93271E-10         0.00000E+00
    0.36224E-07         0.94585E-10         0.00000E+00
    0.36223E-07         0.95580E-10         0.00000E+00
    0.36222E-07         0.96260E-10         0.00000E+00
    0.36221E-07         0.96627E-10         0.00000E+00
    0.36221E-07         0.96683E-10         0.00000E+00
    0.36220E-07         0.96431E-10         0.00000E+00
    0.36219E-07         0.95874E-10         0.00000E+00
    0.36218E-07         0.95014E-10         0.00000E+00
    0.36217E-07         0.93854E-10         0.00000E+00
    0.36216E-07         0.92395E-10         0.00000E+00
    0.36216E-07         0.90641E-10         0.00000E+00
    0.36215E-07         0.88593E-10         0.00000E+00
    0.36214E-07         0.86254E-10         0.00000E+00
    0.36213E-07         0.83626E-10         0.00000E+00
    0.36213E-07         0.80710E-10         0.00000E+00
    0.36212E-07         0.77509E-10         0.00000E+00
    0.36211E-07         0.74025E-10         0.00000E+00
    0.36211E-07         0.70259E-10         0.00000E+00
    0.36210E-07         0.66213E-10         0.00000E+00
    0.36210E-07         0.61889E-10         0.00000E+00
    0.36209E-07         0.57289E-10         0.00000E+00
    0.36209E-07         0.52413E-10         0.00000E+00
    0.36208E-07         0.47263E-10         0.00000E+00
    0.36208E-07         0.41841E-10         0.00000E+00
    0.36208E-07         0.36148E-10         0.00000E+00
    0.36207E-07         0.30184E-10         0.00000E+00
    0.36207E-07         0.23951E-10         0.00000E+00
    0.36207E-07         0.17449E-10         0.00000E+00
    0.36207E-07         0.10680E-10         0.00000E+00
    0.36207E-07         0.36439E-11         0.00000E+00
    0.37102E-07         0.42909E-11         0.00000E+00
    0.37102E-07         0.12586E-10         0.00000E+00
    0.37101E-07         0.20485E-10         0.00000E+00
    0.37101E-07         0.27993E-10         0.00000E+00
    0.37101E-07         0.35113E-10         0.00000E+00
    0.37101E-07         0.41847E-10         0.00000E+00
    0.37100E-07         0.48198E-10         0.00000E+00
    0.37100E-07         0.54171E-10         0.00000E+00
    0.37099E-07         0.59769E-10         0.00000E+00
    0.37099E-07         0.64993E-10         0.00000E+00
    0.37098E-07         0.69849E-10         0.00000E+00
    0.37097E-07         0.74339E-10         0.00000E+00
    0.37097E-07         0.78467E-10         0.00000E+00
    0.37096E-07         0.82236E-10         0.00000E+00
    0.37095E-07         0.85648E-10         0.00000E+00
    0.37094E-07         0.88709E-10         0.00000E+00
    0.37094E-07         0.91420E-10         0.00000E+00
    0.37093E-07         0.93784E-10         0.00000E+00
    0.37092E-07         0.95807E-10         0.00000E+00
    0.37091E-07         0.97489E-10         0.00000E+00
    0.37090E-07         0.98835E-10         0.00000E+00
    0.37089E-07         0.99848E-10         0.00000E+00
    0.37089E-07         0.10053E-09         0.00000E+00
    0.37088E-07         0.10089E-09         0.00000E+00
    0.37087E-07         0.10092E-09         0.00000E+00
    0.37086E-07         0.10063E-09         0.00000E+00
    0.37085E-07         0.10002E-09         0.00000E+00
    0.37084E-07         0.99095E-10         0.00000E+00
    0.37084E-07         0.97859E-10         0.00000E+00
    0.37083E-07         0.96313E-10         0.00000E+00
    0.37082E-07         0.94459E-10         0.00000E+00
    0.37081E-07         0.92301E-10         0.00000E+00
    0.37081E-07         0.89841E-10         0.00000E+00
    0.37080E-07         0.87080E-10         0.00000E+00
    0.37079E-07         0.84023E-10         0.00000E+00
    0.37079E-07         0.80670E-10         0.00000E+00
    0.37078E-07         0.77024E-10         0.00000E+00
    0.37078E-07         0.73087E-10         0.00000E+00
    0.37077E-07         0.68862E-10         0.00000E+00
    0.37077E-07         0.64349E-10         0.00000E+00
    0.37076E-07         0.59551E-10         0.00000E+00
    0.37076E-07         0.54470E-10         0.00000E+00
    0.37075E-07         0.49106E-10         0.00000E+00
    0.37075E-07         0.43463E-10         0.00000E+00
    0.37075E-07         0.37540E-10         0.00000E+00
    0.37074E-07         0.31339E-10         0.00000E+00
    0.37074E-07         0.24862E-10         0.00000E+00
    0.37074E-07         0.18109E-10         0.00000E+00
    0.37074E-07         0.11081E-10         0.00000E+00
    0.37074E-07         0.37798E-11         0.00000E+00
    0.38021E-07         0.44966E-11         0.00000E+00
    0.38021E-07         0.13185E-10         0.00000E+00
    0.38021E-07         0.21455E-10         0.00000E+00
    0.38021E-07         0.29310E-10         0.00000E+00
    0.38020E-07         0.36754E-10         0.00000E+00
    0.38020E-07         0.43789E-10         0.00000E+00
    0.38019E-07         0.50421E-10         0.00000E+00
    0.38019E-07         0.56652E-10         0.00000E+00
    0.38018E-07         0.62487E-10         0.00000E+00
    0.38018E-07         0.67929E-10         0.00000E+00
    0.38017E-07         0.72982E-10         0.00000E+00
    0.38017E-07         0.77650E-10         0.00000E+00
    0.38016E-07         0.81937E-10         0.00000E+00
    0.38015E-07         0.85846E-10         0.00000E+00
    0.38015E-07         0.89381E-10         0.00000E+00
    0.38014E-07         0.92547E-10         0.00000E+00
    0.38013E-07         0.95346E-10         0.00000E+00
    0.38012E-07         0.97783E-10         0.00000E+00
    0.38012E-07         0.99861E-10         0.00000E+00
    0.38011E-07         0.10158E-09         0.00000E+00
    0.38010E-07         0.10295E-09         0.00000E+00
    0.38009E-07         0.10398E-09         0.00000E+00
    0.38008E-07         0.10466E-09         0.00000E+00
    0.38007E-07         0.10500E-09         0.00000E+00
    0.38007E-07         0.10500E-09         0.00000E+00
    0.38006E-07         0.10466E-09         0.00000E+00
    0.38005E-07         0.10400E-09         0.00000E+00
    0.38004E-07         0.10301E-09         0.00000E+00
    0.38004E-07         0.10169E-09         0.00000E+00
    0.38003E-07         0.10006E-09         0.00000E+00
    0.38002E-07         0.98103E-10         0.00000E+00
    0.38001E-07         0.95833E-10         0.00000E+00
    0.38001E-07         0.93252E-10         0.00000E+00
    0.38000E-07         0.90361E-10         0.00000E+00
    0.37999E-07         0.87163E-10         0.00000E+00
    0.37999E-07         0.83661E-10         0.00000E+00
    0.37998E-07         0.79858E-10         0.00000E+00
    0.37998E-07         0.75755E-10         0.00000E+00
    0.37997E-07         0.71356E-10         0.00000E+00
    0.37997E-07         0.66661E-10         0.00000E+00
    0.37996E-07         0.61674E-10         0.00000E+00
    0.37996E-07         0.56397E-10         0.00000E+00
    0.37996E-07         0.50830E-10         0.00000E+00
    0.37995E-07         0.44976E-10         0.00000E+00
    0.37995E-07         0.38837E-10         0.00000E+00
    0.37995E-07         0.32414E-10         0.00000E+00
    0.37995E-07         0.25708E-10         0.00000E+00
    0.37994E-07         0.18721E-10         0.00000E+00
    0.37994E-07         0.11453E-10         0.00000E+00
    0.37994E-07         0.39053E-11         0.00000E+00
    0.38995E-07         0.47008E-11         0.00000E+00
    0.38995E-07         0.13780E-10         0.00000E+00
    0.38995E-07         0.22415E-10         0.00000E+00
    0.38995E-07         0.30612E-10         0.00000E+00
    0.38994E-07         0.38373E-10         0.00000E+00
    0.38994E-07         0.45704E-10         0.00000E+00
    0.38994E-07         0.52608E-10         0.00000E+00
    0.38993E-07         0.59090E-10         0.00000E+00
    0.38993E-07         0.65154E-10         0.00000E+00
    0.38992E-07         0.70805E-10         0.00000E+00
    0.38992E-07         0.76046E-10         0.00000E+00
    0.38991E-07         0.80883E-10         0.00000E+00
    0.38990E-07         0.85319E-10         0.00000E+00
    0.38990E-07         0.89360E-10         0.00000E+00
    0.38989E-07         0.93009E-10         0.00000E+00
    0.38988E-07         0.96270E-10         0.00000E+00
    0.38988E-07         0.99148E-10         0.00000E+00
    0.38987E-07         0.10165E-09         0.00000E+00
    0.38986E-07         0.10377E-09         0.00000E+00
    0.38985E-07         0.10553E-09         0.00000E+00
    0.38984E-07         0.10692E-09         0.00000E+00
    0.38984E-07         0.10794E-09         0.00000E+00
    0.38983E-07         0.10861E-09         0.00000E+00
    0.38982E-07         0.10893E-09         0.00000E+00
    0.38981E-07         0.10889E-09         0.00000E+00
    0.38981E-07         0.10851E-09         0.00000E+00
    0.38980E-07         0.10778E-09         0.00000E+00
    0.38979E-07         0.10672E-09         0.00000E+00
    0.38978E-07         0.10532E-09         0.00000E+00
    0.38978E-07         0.10360E-09         0.00000E+00
    0.38977E-07         0.10154E-09         0.00000E+00
    0.38976E-07         0.99157E-10         0.00000E+00
    0.38976E-07         0.96455E-10         0.00000E+00
    0.38975E-07         0.93435E-10         0.00000E+00
    0.38975E-07         0.90099E-10         0.00000E+00
    0.38974E-07         0.86452E-10         0.00000E+00
    0.38974E-07         0.82496E-10         0.00000E+00
    0.38973E-07         0.78233E-10         0.00000E+00
    0.38973E-07         0.73667E-10         0.00000E+00
    0.38972E-07         0.68800E-10         0.00000E+00
    0.38972E-07         0.63634E-10         0.00000E+00
    0.38971E-07         0.58171E-10         0.00000E+00
    0.38971E-07         0.52414E-10         0.00000E+00
    0.38971E-07         0.46364E-10         0.00000E+00
    0.38971E-07         0.40024E-10         0.00000E+00
    0.38970E-07         0.33395E-10         0.00000E+00
    0.38970E-07         0.26478E-10         0.00000E+00
    0.38970E-07         0.19276E-10         0.00000E+00
    0.38970E-07         0.11789E-10         0.00000E+00
    0.38970E-07         0.40187E-11         0.00000E+00
    0.40026E-07         0.49027E-11         0.00000E+00
    0.40026E-07         0.14367E-10         0.00000E+00
    0.40026E-07         0.23362E-10         0.00000E+00
    0.40026E-07         0.31893E-10         0.00000E+00
    0.40025E-07         0.39964E-10         0.00000E+00
    0.40025E-07         0.47581E-10         0.00000E+00
    0.40025E-07         0.54749E-10         0.00000E+00
    0.40024E-07         0.61472E-10         0.00000E+00
    0.40024E-07         0.67755E-10         0.00000E+00
    0.40023E-07         0.73604E-10         0.00000E+00
    0.40023E-07         0.79023E-10         0.00000E+00
    0.40022E-07         0.84018E-10         0.00000E+00
    0.40021E-07         0.88593E-10         0.00000E+00
    0.40021E-07         0.92754E-10         0.00000E+00
    0.40020E-07         0.96504E-10         0.00000E+00
    0.40019E-07         0.99851E-10         0.00000E+00
    0.40019E-07         0.10280E-09         0.00000E+00
    0.40018E-07         0.10535E-09         0.00000E+00
    0.40017E-07         0.10751E-09         0.00000E+00
    0.40017E-07         0.10929E-09         0.00000E+00
    0.40016E-07         0.11068E-09         0.00000E+00
    0.40015E-07         0.11170E-09         0.00000E+00
    0.40014E-07         0.11235E-09         0.00000E+00
    0.40014E-07         0.11264E-09         0.00000E+00
    0.40013E-07         0.11256E-09         0.00000E+00
    0.40012E-07         0.11212E-09         0.00000E+00
    0.40012E-07         0.11133E-09         0.00000E+00
    0.40011E-07         0.11019E-09         0.00000E+00
    0.40010E-07         0.10871E-09         0.00000E+00
    0.40010E-07         0.10689E-09         0.00000E+00
    0.40009E-07         0.10473E-09         0.00000E+00
    0.40008E-07         0.10223E-09         0.00000E+00
    0.40008E-07         0.99411E-10         0.00000E+00
    0.40007E-07         0.96263E-10         0.00000E+00
    0.40007E-07         0.92794E-10         0.00000E+00
    0.40006E-07         0.89006E-10         0.00000E+00
    0.40006E-07         0.84903E-10         0.00000E+00
    0.40005E-07         0.80488E-10         0.00000E+00
    0.40005E-07         0.75764E-10         0.00000E+00
    0.40004E-07         0.70734E-10         0.00000E+00
    0.40004E-07         0.65400E-10         0.00000E+00
    0.40004E-07         0.59766E-10         0.00000E+00
    0.40004E-07         0.53833E-10         0.00000E+00
    0.40003E-07         0.47604E-10         0.00000E+00
    0.40003E-07         0.41080E-10         0.00000E+00
    0.40003E-07         0.34265E-10         0.00000E+00
    0.40003E-07         0.27160E-10         0.00000E+00
    0.40003E-07         0.19766E-10         0.00000E+00
    0.40003E-07         0.12085E-10         0.00000E+00
    0.40003E-07         0.41179E-11         0.00000E+00
    0.41116E-07         0.51015E-11         0.00000E+00
    0.41116E-07         0.14943E-10         0.00000E+00
    0.41116E-07         0.24290E-10         0.00000E+00
    0.41115E-07         0.33146E-10         0.00000E+00
    0.41115E-07         0.41518E-10         0.00000E+00
    0.41115E-07         0.49410E-10         0.00000E+00
    0.41114E-07         0.56830E-10         0.00000E+00
    0.41114E-07         0.63782E-10         0.00000E+00
    0.41113E-07         0.70273E-10         0.00000E+00
    0.41113E-07         0.76307E-10         0.00000E+00
    0.41112E-07         0.81891E-10         0.00000E+00
    0.41112E-07         0.87030E-10         0.00000E+00
    0.41111E-07         0.91731E-10         0.00000E+00
    0.41111E-07         0.95998E-10         0.00000E+00
    0.41110E-07         0.99838E-10         0.00000E+00
    0.41109E-07         0.10326E-09         0.00000E+00
    0.41109E-07         0.10626E-09         0.00000E+00
    0.41108E-07         0.10885E-09         0.00000E+00
    0.41107E-07         0.11104E-09         0.00000E+00
    0.41107E-07         0.11282E-09         0.00000E+00
    0.41106E-07         0.11422E-09         0.00000E+00
    0.41105E-07         0.11522E-09         0.00000E+00
    0.41105E-07         0.11584E-09         0.00000E+00
    0.41104E-07         0.11608E-09         0.00000E+00
    0.41103E-07         0.11595E-09         0.00000E+00
    0.41103E-07         0.11546E-09         0.00000E+00
    0.41102E-07         0.11460E-09         0.00000E+00
    0.41101E-07         0.11338E-09         0.00000E+00
    0.41101E-07         0.11181E-09         0.00000E+00
    0.41100E-07         0.10988E-09         0.00000E+00
    0.41100E-07         0.10762E-09         0.00000E+00
    0.41099E-07         0.10501E-09         0.00000E+00
    0.41099E-07         0.10207E-09         0.00000E+00
    0.41098E-07         0.98802E-10         0.00000E+00
    0.41098E-07         0.95203E-10         0.00000E+00
    0.41097E-07         0.91280E-10         0.00000E+00
    0.41097E-07         0.87038E-10         0.00000E+00
    0.41096E-07         0.82480E-10         0.00000E+00
    0.41096E-07         0.77609E-10         0.00000E+00
    0.41096E-07         0.72428E-10         0.00000E+00
    0.41095E-07         0.66941E-10         0.00000E+00
    0.41095E-07         0.61150E-10         0.00000E+00
    0.41095E-07         0.55059E-10         0.00000E+00
    0.41095E-07         0.48670E-10         0.00000E+00
    0.41095E-07         0.41986E-10         0.00000E+00
    0.41094E-07         0.35008E-10         0.00000E+00
    0.41094E-07         0.27738E-10         0.00000E+00
    0.41094E-07         0.20180E-10         0.00000E+00
    0.41094E-07         0.12333E-10         0.00000E+00
    0.41094E-07         0.42008E-11         0.00000E+00
    0.42266E-07         0.52958E-11         0.00000E+00
    0.42266E-07         0.15506E-10         0.00000E+00
    0.42266E-07         0.25193E-10         0.00000E+00
    0.42266E-07         0.34362E-10         0.00000E+00
    0.42265E-07         0.43022E-10         0.00000E+00
    0.42265E-07         0.51177E-10         0.00000E+00
    0.42265E-07         0.58835E-10         0.00000E+00
    0.42264E-07         0.66001E-10         0.00000E+00
    0.42264E-07         0.72683E-10         0.00000E+00
    0.42263E-07         0.78888E-10         0.00000E+00
    0.42263E-07         0.84620E-10         0.00000E+00
    0.42262E-07         0.89889E-10         0.00000E+00
    0.42262E-07         0.94699E-10         0.00000E+00
    0.42261E-07         0.99057E-10         0.00000E+00
    0.42261E-07         0.10297E-09         0.00000E+00
    0.42260E-07         0.10645E-09         0.00000E+00
    0.42259E-07         0.10949E-09         0.00000E+00
    0.42259E-07         0.11210E-09         0.00000E+00
    0.42258E-07         0.11430E-09         0.00000E+00
    0.42258E-07         0.11609E-09         0.00000E+00
    0.42257E-07         0.11746E-09         0.00000E+00
    0.42256E-07         0.11844E-09         0.00000E+00
    0.42256E-07         0.11902E-09         0.00000E+00
    0.42255E-07         0.11922E-09         0.00000E+00
    0.42255E-07         0.11903E-09         0.00000E+00
    0.42254E-07         0.11846E-09         0.00000E+00
    0.42253E-07         0.11752E-09         0.00000E+00
    0.42253E-07         0.11622E-09         0.00000E+00
    0.42252E-07         0.11455E-09         0.00000E+00
    0.42252E-07         0.11253E-09         0.00000E+00
    0.42251E-07         0.11016E-09         0.00000E+00
    0.42251E-07         0.10744E-09         0.00000E+00
    0.42250E-07         0.10439E-09         0.00000E+00
    0.42250E-07         0.10100E-09         0.00000E+00
    0.42250E-07         0.97274E-10         0.00000E+00
    0.42249E-07         0.93224E-10         0.00000E+00
    0.42249E-07         0.88852E-10         0.00000E+00
    0.42249E-07         0.84161E-10         0.00000E+00
    0.42248E-07         0.79156E-10         0.00000E+00
    0.42248E-07         0.73840E-10         0.00000E+00
    0.42248E-07         0.68216E-10         0.00000E+00
    0.42248E-07         0.62289E-10         0.00000E+00
    0.42247E-07         0.56061E-10         0.00000E+00
    0.42247E-07         0.49535E-10         0.00000E+00
    0.42247E-07         0.42714E-10         0.00000E+00
    0.42247E-07         0.35600E-10         0.00000E+00
    0.42247E-07         0.28196E-10         0.00000E+00
    0.42247E-07         0.20504E-10         0.00000E+00
    0.42247E-07         0.12527E-10         0.00000E+00
    0.42247E-07         0.42645E-11         0.00000E+00
    0.43480E-07         0.54842E-11         0.00000E+00
    0.43480E-07         0.16050E-10         0.00000E+00
    0.43479E-07         0.26063E-10         0.00000E+00
    0.43479E-07         0.35531E-10         0.00000E+00
    0.43479E-07         0.44462E-10         0.00000E+00
    0.43479E-07         0.52862E-10         0.00000E+00
    0.43478E-07         0.60740E-10         0.00000E+00
    0.43478E-07         0.68103E-10         0.00000E+00
    0.43477E-07         0.74958E-10         0.00000E+00
    0.43477E-07         0.81314E-10         0.00000E+00
    0.43477E-07         0.87177E-10         0.00000E+00
    0.43476E-07         0.92554E-10         0.00000E+00
    0.43476E-07         0.97455E-10         0.00000E+00
    0.43475E-07         0.10189E-09         0.00000E+00
    0.43474E-07         0.10585E-09         0.00000E+00
    0.43474E-07         0.10937E-09         0.00000E+00
    0.43473E-07         0.11243E-09         0.00000E+00
    0.43473E-07         0.11506E-09         0.00000E+00
    0.43472E-07         0.11725E-09         0.00000E+00
    0.43472E-07         0.11902E-09         0.00000E+00
    0.43471E-07         0.12036E-09         0.00000E+00
    0.43471E-07         0.12130E-09         0.00000E+00
    0.43470E-07         0.12183E-09         0.00000E+00
    0.43470E-07         0.12196E-09         0.00000E+00
    0.43469E-07         0.12170E-09         0.00000E+00
    0.43469E-07         0.12106E-09         0.00000E+00
    0.43468E-07         0.12004E-09         0.00000E+00
    0.43468E-07         0.11864E-09         0.00000E+00
    0.43467E-07         0.11688E-09         0.00000E+00
    0.43467E-07         0.11476E-09         0.00000E+00
    0.43466E-07         0.11228E-09         0.00000E+00
    0.43466E-07         0.10946E-09         0.00000E+00
    0.43466E-07         0.10629E-09         0.00000E+00
    0.43465E-07         0.10278E-09         0.00000E+00
    0.43465E-07         0.98944E-10         0.00000E+00
    0.43465E-07         0.94777E-10         0.00000E+00
    0.43465E-07         0.90287E-10         0.00000E+00
    0.43464E-07         0.85477E-10         0.00000E+00
    0.43464E-07         0.80354E-10         0.00000E+00
    0.43464E-07         0.74921E-10         0.00000E+00
    0.43464E-07         0.69181E-10         0.00000E+00
    0.43464E-07         0.63139E-10         0.00000E+00
    0.43463E-07         0.56799E-10         0.00000E+00
    0.43463E-07         0.50163E-10         0.00000E+00
    0.43463E-07         0.43235E-10         0.00000E+00
    0.43463E-07         0.36018E-10         0.00000E+00
    0.43463E-07         0.28514E-10         0.00000E+00
    0.43463E-07         0.20726E-10         0.00000E+00
    0.43463E-07         0.12656E-10         0.00000E+00
    0.43463E-07         0.43062E-11         0.00000E+00
    0.44758E-07         0.56647E-11         0.00000E+00
    0.44758E-07         0.16568E-10         0.00000E+00
    0.44758E-07         0.26890E-10         0.00000E+00
    0.44758E-07         0.36637E-10         0.00000E+00
    0.44758E-07         0.45818E-10         0.00000E+00
    0.44758E-07         0.54443E-10         0.00000E+00
    0.44757E-07         0.62519E-10         0.00000E+00
    0.44757E-07         0.70056E-10         0.00000E+00
    0.44756E-07         0.77062E-10         0.00000E+00
    0.44756E-07         0.83545E-10         0.00000E+00
    0.44756E-07         0.89514E-10         0.00000E+00
    0.44755E-07         0.94979E-10         0.00000E+00
    0.44755E-07         0.99947E-10         0.00000E+00
    0.44754E-07         0.10443E-09         0.00000E+00
    0.44754E-07         0.10843E-09         0.00000E+00
    0.44753E-07         0.11196E-09         0.00000E+00
    0.44753E-07         0.11503E-09         0.00000E+00
    0.44752E-07         0.11764E-09         0.00000E+00
    0.44752E-07         0.11981E-09         0.00000E+00
    0.44751E-07         0.12154E-09         0.00000E+00
    0.44751E-07         0.12284E-09         0.00000E+00
    0.44750E-07         0.12372E-09         0.00000E+00
    0.44750E-07         0.12419E-09         0.00000E+00
    0.44750E-07         0.12425E-09         0.00000E+00
    0.44749E-07         0.12391E-09         0.00000E+00
    0.44749E-07         0.12318E-09         0.00000E+00
    0.44748E-07         0.12206E-09         0.00000E+00
    0.44748E-07         0.12057E-09         0.00000E+00
    0.44748E-07         0.11871E-09         0.00000E+00
    0.44748E-07         0.11649E-09         0.00000E+00
    0.44747E-07         0.11391E-09         0.00000E+00
    0.44747E-07         0.11098E-09         0.00000E+00
    0.44747E-07         0.10770E-09         0.00000E+00
    0.44747E-07         0.10409E-09         0.00000E+00
    0.44746E-07         0.10014E-09         0.00000E+00
    0.44746E-07         0.95868E-10         0.00000E+00
    0.44746E-07         0.91274E-10         0.00000E+00
    0.44746E-07         0.86363E-10         0.00000E+00
    0.44746E-07         0.81141E-10         0.00000E+00
    0.44746E-07         0.75612E-10         0.00000E+00
    0.44746E-07         0.69781E-10         0.00000E+00
    0.44745E-07         0.63652E-10         0.00000E+00
    0.44745E-07         0.57228E-10         0.00000E+00
    0.44745E-07         0.50515E-10         0.00000E+00
    0.44745E-07         0.43515E-10         0.00000E+00
    0.44745E-07         0.36232E-10         0.00000E+00
    0.44745E-07         0.28668E-10         0.00000E+00
    0.44745E-07         0.20827E-10         0.00000E+00
    0.44745E-07         0.12711E-10         0.00000E+00
    0.44745E-07         0.43223E-11         0.00000E+00
    0.46105E-07         0.58345E-11         0.00000E+00
    0.46105E-07         0.17054E-10         0.00000E+00
    0.46105E-07         0.27660E-10         0.00000E+00
    0.46105E-07         0.37661E-10         0.00000E+00
    0.46105E-07         0.47067E-10         0.00000E+00
    0.46105E-07         0.55889E-10         0.00000E+00
    0.46104E-07         0.64136E-10         0.00000E+00
    0.46104E-07         0.71819E-10         0.00000E+00
    0.46104E-07         0.78946E-10         0.00000E+00
    0.46103E-07         0.85529E-10         0.00000E+00
    0.46103E-07         0.91577E-10         0.00000E+00
    0.46102E-07         0.97101E-10         0.00000E+00
    0.46102E-07         0.10211E-09         0.00000E+00
    0.46102E-07         0.10661E-09         0.00000E+00
    0.46101E-07         0.11062E-09         0.00000E+00
    0.46101E-07         0.11414E-09         0.00000E+00
    0.46100E-07         0.11719E-09         0.00000E+00
    0.46100E-07         0.11977E-09         0.00000E+00
    0.46100E-07         0.12189E-09         0.00000E+00
    0.46099E-07         0.12357E-09         0.00000E+00
    0.46099E-07         0.12480E-09         0.00000E+00
    0.46099E-07         0.12561E-09         0.00000E+00
    0.46098E-07         0.12600E-09         0.00000E+00
    0.46098E-07         0.12597E-09         0.00000E+00
    0.46098E-07         0.12554E-09         0.00000E+00
    0.46098E-07         0.12471E-09         0.00000E+00
    0.46097E-07         0.12350E-09         0.00000E+00
    0.46097E-07         0.12191E-09         0.00000E+00
    0.46097E-07         0.11995E-09         0.00000E+00
    0.46097E-07         0.11762E-09         0.00000E+00
    0.46097E-07         0.11493E-09         0.00000E+00
    0.46096E-07         0.11190E-09         0.00000E+00
    0.46096E-07         0.10853E-09         0.00000E+00
    0.46096E-07         0.10482E-09         0.00000E+00
    0.46096E-07         0.10078E-09         0.00000E+00
    0.46096E-07         0.96412E-10         0.00000E+00
    0.46096E-07         0.91732E-10         0.00000E+00
    0.46096E-07         0.86740E-10         0.00000E+00
    0.46096E-07         0.81443E-10         0.00000E+00
    0.46096E-07         0.75845E-10         0.00000E+00
    0.46096E-07         0.69952E-10         0.00000E+00
    0.46096E-07         0.63768E-10         0.00000E+00
    0.46096E-07         0.57297E-10         0.00000E+00
    0.46096E-07         0.50545E-10         0.00000E+00
    0.46096E-07         0.43514E-10         0.00000E+00
    0.46096E-07         0.36209E-10         0.00000E+00
    0.46096E-07         0.28633E-10         0.00000E+00
    0.46096E-07         0.20789E-10         0.00000E+00
    0.46096E-07         0.12680E-10         0.00000E+00
    0.46096E-07         0.43086E-11         0.00000E+00
    0.47523E-07         0.59902E-11         0.00000E+00
    0.47523E-07         0.17496E-10         0.00000E+00
    0.47523E-07         0.28355E-10         0.00000E+00
    0.47523E-07         0.38578E-10         0.00000E+00
    0.47523E-07         0.48177E-10         0.00000E+00
    0.47522E-07         0.57162E-10         0.00000E+00
    0.47522E-07         0.65545E-10         0.00000E+00
    0.47522E-07         0.73339E-10         0.00000E+00
    0.47522E-07         0.80554E-10         0.00000E+00
    0.47521E-07         0.87202E-10         0.00000E+00
    0.47521E-07         0.93294E-10         0.00000E+00
    0.47521E-07         0.98843E-10         0.00000E+00
    0.47520E-07         0.10386E-09         0.00000E+00
    0.47520E-07         0.10835E-09         0.00000E+00
    0.47520E-07         0.11234E-09         0.00000E+00
    0.47519E-07         0.11582E-09         0.00000E+00
    0.47519E-07         0.11882E-09         0.00000E+00
    0.47519E-07         0.12134E-09         0.00000E+00
    0.47519E-07         0.12339E-09         0.00000E+00
    0.47518E-07         0.12498E-09         0.00000E+00
    0.47518E-07         0.12613E-09         0.00000E+00
    0.47518E-07         0.12685E-09         0.00000E+00
    0.47518E-07         0.12714E-09         0.00000E+00
    0.47518E-07         0.12701E-09         0.00000E+00
    0.47518E-07         0.12647E-09         0.00000E+00
    0.47518E-07         0.12554E-09         0.00000E+00
    0.47517E-07         0.12422E-09         0.00000E+00
    0.47517E-07         0.12253E-09         0.00000E+00
    0.47517E-07         0.12046E-09         0.00000E+00
    0.47517E-07         0.11803E-09         0.00000E+00
    0.47517E-07         0.11525E-09         0.00000E+00
    0.47517E-07         0.11212E-09         0.00000E+00
    0.47517E-07         0.10866E-09         0.00000E+00
    0.47518E-07         0.10486E-09         0.00000E+00
    0.47518E-07         0.10074E-09         0.00000E+00
    0.47518E-07         0.96308E-10         0.00000E+00
    0.47518E-07         0.91564E-10         0.00000E+00
    0.47518E-07         0.86517E-10         0.00000E+00
    0.47518E-07         0.81174E-10         0.00000E+00
    0.47518E-07         0.75539E-10         0.00000E+00
    0.47518E-07         0.69619E-10         0.00000E+00
    0.47518E-07         0.63419E-10         0.00000E+00
    0.47518E-07         0.56943E-10         0.00000E+00
    0.47519E-07         0.50197E-10         0.00000E+00
    0.47519E-07         0.43184E-10         0.00000E+00
    0.47519E-07         0.35909E-10         0.00000E+00
    0.47519E-07         0.28376E-10         0.00000E+00
    0.47519E-07         0.20589E-10         0.00000E+00
    0.47519E-07         0.12549E-10         0.00000E+00
    0.47519E-07         0.42605E-11         0.00000E+00
    0.49015E-07         0.61273E-11         0.00000E+00
    0.49015E-07         0.17882E-10         0.00000E+00
    0.49015E-07         0.28954E-10         0.00000E+00
    0.49014E-07         0.39358E-10         0.00000E+00
    0.49014E-07         0.49106E-10         0.00000E+00
    0.49014E-07         0.58212E-10         0.00000E+00
    0.49014E-07         0.66689E-10         0.00000E+00
    0.49014E-07         0.74550E-10         0.00000E+00
    0.49013E-07         0.81810E-10         0.00000E+00
    0.49013E-07         0.88481E-10         0.00000E+00
    0.49013E-07         0.94576E-10         0.00000E+00
    0.49013E-07         0.10011E-09         0.00000E+00
    0.49013E-07         0.10509E-09         0.00000E+00
    0.49012E-07         0.10954E-09         0.00000E+00
    0.49012E-07         0.11346E-09         0.00000E+00
    0.49012E-07         0.11687E-09         0.00000E+00
    0.49012E-07         0.11978E-09         0.00000E+00
    0.49012E-07         0.12221E-09         0.00000E+00
    0.49012E-07         0.12416E-09         0.00000E+00
    0.49012E-07         0.12565E-09         0.00000E+00
    0.49012E-07         0.12669E-09         0.00000E+00
    0.49012E-07         0.12729E-09         0.00000E+00
    0.49012E-07         0.12746E-09         0.00000E+00
    0.49012E-07         0.12722E-09         0.00000E+00
    0.49012E-07         0.12657E-09         0.00000E+00
    0.49012E-07         0.12552E-09         0.00000E+00
    0.49012E-07         0.12409E-09         0.00000E+00
    0.49012E-07         0.12228E-09         0.00000E+00
    0.49012E-07         0.12011E-09         0.00000E+00
    0.49012E-07         0.11758E-09         0.00000E+00
    0.49013E-07         0.11471E-09         0.00000E+00
    0.49013E-07         0.11150E-09         0.00000E+00
    0.49013E-07         0.10795E-09         0.00000E+00
    0.49013E-07         0.10409E-09         0.00000E+00
    0.49014E-07         0.99916E-10         0.00000E+00
    0.49014E-07         0.95435E-10         0.00000E+00
    0.49014E-07         0.90656E-10         0.00000E+00
    0.49014E-07         0.85585E-10         0.00000E+00
    0.49015E-07         0.80231E-10         0.00000E+00
    0.49015E-07         0.74598E-10         0.00000E+00
    0.49015E-07         0.68694E-10         0.00000E+00
    0.49015E-07         0.62524E-10         0.00000E+00
    0.49016E-07         0.56093E-10         0.00000E+00
    0.49016E-07         0.49407E-10         0.00000E+00
    0.49016E-07         0.42470E-10         0.00000E+00
    0.49016E-07         0.35288E-10         0.00000E+00
    0.49016E-07         0.27863E-10         0.00000E+00
    0.49016E-07         0.20200E-10         0.00000E+00
    0.49017E-07         0.12302E-10         0.00000E+00
    0.49017E-07         0.41726E-11         0.00000E+00
    0.50583E-07         0.62399E-11         0.00000E+00
    0.50583E-07         0.18192E-10         0.00000E+00
    0.50583E-07         0.29426E-10         0.00000E+00
    0.50583E-07         0.39958E-10         0.00000E+00
    0.50583E-07         0.49803E-10         0.00000E+00
    0.50583E-07         0.58976E-10         0.00000E+00
    0.50583E-07         0.67493E-10         0.00000E+00
    0.50583E-07         0.75369E-10         0.00000E+00
    0.50583E-07         0.82620E-10         0.00000E+00
    0.50582E-07         0.89261E-10         0.00000E+00
    0.50582E-07         0.95308E-10         0.00000E+00
    0.50582E-07         0.10077E-09         0.00000E+00
    0.50582E-07         0.10568E-09         0.00000E+00
    0.50582E-07         0.11003E-09         0.00000E+00
    0.50582E-07         0.11385E-09         0.00000E+00
    0.50582E-07         0.11714E-09         0.00000E+00
    0.50582E-07         0.11993E-09         0.00000E+00
    0.50582E-07         0.12223E-09         0.00000E+00
    0.50582E-07         0.12405E-09         0.00000E+00
    0.50583E-07         0.12540E-09         0.00000E+00
    0.50583E-07         0.12630E-09         0.00000E+00
    0.50583E-07         0.12676E-09         0.00000E+00
    0.50583E-07         0.12680E-09         0.00000E+00
    0.50583E-07         0.12642E-09         0.00000E+00
    0.50584E-07         0.12564E-09         0.00000E+00
    0.50584E-07         0.12446E-09         0.00000E+00
    0.50584E-07         0.12291E-09         0.00000E+00
    0.50585E-07         0.12100E-09         0.00000E+00
    0.50585E-07         0.11872E-09         0.00000E+00
    0.50585E-07         0.11610E-09         0.00000E+00
    0.50586E-07         0.11314E-09         0.00000E+00
    0.50586E-07         0.10986E-09         0.00000E+00
    0.50587E-07         0.10626E-09         0.00000E+00
    0.50587E-07         0.10235E-09         0.00000E+00
    0.50588E-07         0.98146E-10         0.00000E+00
    0.50588E-07         0.93649E-10         0.00000E+00
    0.50589E-07         0.88869E-10         0.00000E+00
    0.50589E-07         0.83815E-10         0.00000E+00
    0.50589E-07         0.78492E-10         0.00000E+00
    0.50590E-07         0.72910E-10         0.00000E+00
    0.50590E-07         0.67073E-10         0.00000E+00
    0.50591E-07         0.60989E-10         0.00000E+00
    0.50591E-07         0.54663E-10         0.00000E+00
    0.50591E-07         0.48101E-10         0.00000E+00
    0.50592E-07         0.41309E-10         0.00000E+00
    0.50592E-07         0.34290E-10         0.00000E+00
    0.50592E-07         0.27049E-10         0.00000E+00
    0.50592E-07         0.19592E-10         0.00000E+00
    0.50592E-07         0.11920E-10         0.00000E+00
    0.50593E-07         0.40386E-11         0.00000E+00
    0.52232E-07         0.63205E-11         0.00000E+00
    0.52232E-07         0.18406E-10         0.00000E+00
    0.52232E-07         0.29735E-10         0.00000E+00
    0.52232E-07         0.40328E-10         0.00000E+00
    0.52232E-07         0.50202E-10         0.00000E+00
    0.52232E-07         0.59374E-10         0.00000E+00
    0.52232E-07         0.67864E-10         0.00000E+00
    0.52232E-07         0.75689E-10         0.00000E+00
    0.52232E-07         0.82866E-10         0.00000E+00
    0.52232E-07         0.89414E-10         0.00000E+00
    0.52232E-07         0.95350E-10         0.00000E+00
    0.52232E-07         0.10069E-09         0.00000E+00
    0.52233E-07         0.10545E-09         0.00000E+00
    0.52233E-07         0.10966E-09         0.00000E+00
    0.52233E-07         0.11332E-09         0.00000E+00
    0.52233E-07         0.11645E-09         0.00000E+00
    0.52233E-07         0.11907E-09         0.00000E+00
    0.52234E-07         0.12119E-09         0.00000E+00
    0.52234E-07         0.12284E-09         0.00000E+00
    0.52234E-07         0.12402E-09         0.00000E+00
    0.52235E-07         0.12475E-09         0.00000E+00
    0.52235E-07         0.12505E-09         0.00000E+00
    0.52236E-07         0.12492E-09         0.00000E+00
    0.52236E-07         0.12439E-09         0.00000E+00
    0.52237E-07         0.12346E-09         0.00000E+00
    0.52237E-07         0.12216E-09         0.00000E+00
    0.52238E-07         0.12048E-09         0.00000E+00
    0.52239E-07         0.11845E-09         0.00000E+00
    0.52239E-07         0.11608E-09         0.00000E+00
    0.52240E-07         0.11338E-09         0.00000E+00
    0.52241E-07         0.11035E-09         0.00000E+00
    0.52241E-07         0.10702E-09         0.00000E+00
    0.52242E-07         0.10338E-09         0.00000E+00
    0.52243E-07         0.99460E-10         0.00000E+00
    0.52243E-07         0.95255E-10         0.00000E+00
    0.52244E-07         0.90781E-10         0.00000E+00
    0.52245E-07         0.86043E-10         0.00000E+00
    0.52246E-07         0.81052E-10         0.00000E+00
    0.52246E-07         0.75815E-10         0.00000E+00
    0.52247E-07         0.70340E-10         0.00000E+00
    0.52247E-07         0.64634E-10         0.00000E+00
    0.52248E-07         0.58702E-10         0.00000E+00
    0.52248E-07         0.52553E-10         0.00000E+00
    0.52249E-07         0.46192E-10         0.00000E+00
    0.52249E-07         0.39624E-10         0.00000E+00
    0.52250E-07         0.32854E-10         0.00000E+00
    0.52250E-07         0.25888E-10         0.00000E+00
    0.52250E-07         0.18729E-10         0.00000E+00
    0.52250E-07         0.11382E-10         0.00000E+00
    0.52250E-07         0.38512E-11         0.00000E+00
    0.53966E-07         0.63595E-11         0.00000E+00
    0.53966E-07         0.18493E-10         0.00000E+00
    0.53966E-07         0.29834E-10         0.00000E+00
    0.53966E-07         0.40402E-10         0.00000E+00
    0.53966E-07         0.50220E-10         0.00000E+00
    0.53966E-07         0.59307E-10         0.00000E+00
    0.53966E-07         0.67686E-10         0.00000E+00
    0.53966E-07         0.75377E-10         0.00000E+00
    0.53966E-07         0.82400E-10         0.00000E+00
    0.53966E-07         0.88777E-10         0.00000E+00
    0.53967E-07         0.94527E-10         0.00000E+00
    0.53967E-07         0.99670E-10         0.00000E+00
    0.53967E-07         0.10423E-09         0.00000E+00
    0.53968E-07         0.10821E-09         0.00000E+00
    0.53968E-07         0.11165E-09         0.00000E+00
    0.53969E-07         0.11456E-09         0.00000E+00
    0.53969E-07         0.11696E-09         0.00000E+00
    0.53970E-07         0.11886E-09         0.00000E+00
    0.53970E-07         0.12029E-09         0.00000E+00
    0.53971E-07         0.12126E-09         0.00000E+00
    0.53972E-07         0.12179E-09         0.00000E+00
    0.53973E-07         0.12189E-09         0.00000E+00
    0.53973E-07         0.12158E-09         0.00000E+00
    0.53974E-07         0.12087E-09         0.00000E+00
    0.53975E-07         0.11979E-09         0.00000E+00
    0.53976E-07         0.11834E-09         0.00000E+00
    0.53977E-07         0.11654E-09         0.00000E+00
    0.53978E-07         0.11440E-09         0.00000E+00
    0.53979E-07         0.11194E-09         0.00000E+00
    0.53980E-07         0.10917E-09         0.00000E+00
    0.53981E-07         0.10609E-09         0.00000E+00
    0.53982E-07         0.10273E-09         0.00000E+00
    0.53983E-07         0.99094E-10         0.00000E+00
    0.53984E-07         0.95191E-10         0.00000E+00
    0.53985E-07         0.91032E-10         0.00000E+00
    0.53986E-07         0.86628E-10         0.00000E+00
    0.53987E-07         0.81987E-10         0.00000E+00
    0.53988E-07         0.77119E-10         0.00000E+00
    0.53989E-07         0.72032E-10         0.00000E+00
    0.53990E-07         0.66734E-10         0.00000E+00
    0.53990E-07         0.61232E-10         0.00000E+00
    0.53991E-07         0.55535E-10         0.00000E+00
    0.53992E-07         0.49647E-10         0.00000E+00
    0.53992E-07         0.43577E-10         0.00000E+00
    0.53993E-07         0.37329E-10         0.00000E+00
    0.53993E-07         0.30909E-10         0.00000E+00
    0.53994E-07         0.24322E-10         0.00000E+00
    0.53994E-07         0.17572E-10         0.00000E+00
    0.53994E-07         0.10664E-10         0.00000E+00
    0.53995E-07         0.36023E-11         0.00000E+00
    0.55787E-07         0.63447E-11         0.00000E+00
    0.55787E-07         0.18419E-10         0.00000E+00
    0.55787E-07         0.29662E-10         0.00000E+00
    0.55788E-07         0.40098E-10         0.00000E+00
    0.55788E-07         0.49752E-10         0.00000E+00
    0.55788E-07         0.58649E-10         0.00000E+00
    0.55788E-07         0.66813E-10         0.00000E+00
    0.55788E-07         0.74269E-10         0.00000E+00
    0.55789E-07         0.81040E-10         0.00000E+00
    0.55789E-07         0.87150E-10         0.00000E+00
    0.55790E-07         0.92622E-10         0.00000E+00
    0.55790E-07         0.97479E-10         0.00000E+00
    0.55791E-07         0.10174E-09         0.00000E+00
    0.55791E-07         0.10544E-09         0.00000E+00
    0.55792E-07         0.10858E-09         0.00000E+00
    0.55793E-07         0.11120E-09         0.00000E+00
    0.55794E-07         0.11331E-09         0.00000E+00
    0.55795E-07         0.11494E-09         0.00000E+00
    0.55796E-07         0.11610E-09         0.00000E+00
    0.55797E-07         0.11681E-09         0.00000E+00
    0.55798E-07         0.11709E-09         0.00000E+00
    0.55799E-07         0.11696E-09         0.00000E+00
    0.55800E-07         0.11644E-09         0.00000E+00
    0.55801E-07         0.11555E-09         0.00000E+00
    0.55803E-07         0.11429E-09         0.00000E+00
    0.55804E-07         0.11270E-09         0.00000E+00
    0.55805E-07         0.11077E-09         0.00000E+00
    0.55807E-07         0.10853E-09         0.00000E+00
    0.55808E-07         0.10599E-09         0.00000E+00
    0.55810E-07         0.10317E-09         0.00000E+00
    0.55811E-07         0.10008E-09         0.00000E+00
    0.55812E-07         0.96725E-10         0.00000E+00
    0.55814E-07         0.93125E-10         0.00000E+00
    0.55815E-07         0.89289E-10         0.00000E+00
    0.55816E-07         0.85230E-10         0.00000E+00
    0.55818E-07         0.80956E-10         0.00000E+00
    0.55819E-07         0.76478E-10         0.00000E+00
    0.55820E-07         0.71805E-10         0.00000E+00
    0.55821E-07         0.66946E-10         0.00000E+00
    0.55823E-07         0.61910E-10         0.00000E+00
    0.55824E-07         0.56704E-10         0.00000E+00
    0.55825E-07         0.51336E-10         0.00000E+00
    0.55826E-07         0.45812E-10         0.00000E+00
    0.55826E-07         0.40140E-10         0.00000E+00
    0.55827E-07         0.34324E-10         0.00000E+00
    0.55828E-07         0.28371E-10         0.00000E+00
    0.55828E-07         0.22286E-10         0.00000E+00
    0.55829E-07         0.16074E-10         0.00000E+00
    0.55829E-07         0.97377E-11         0.00000E+00
    0.55829E-07         0.32824E-11         0.00000E+00
    0.57701E-07         0.62609E-11         0.00000E+00
    0.57702E-07         0.18138E-10         0.00000E+00
    0.57702E-07         0.29145E-10         0.00000E+00
    0.57702E-07         0.39313E-10         0.00000E+00
    0.57702E-07         0.48670E-10         0.00000E+00
    0.57702E-07         0.57245E-10         0.00000E+00
    0.57703E-07         0.65067E-10         0.00000E+00
    0.57703E-07         0.72163E-10         0.00000E+00
    0.57704E-07         0.78561E-10         0.00000E+00
    0.57705E-07         0.84288E-10         0.00000E+00
    0.57705E-07         0.89372E-10         0.00000E+00
    0.57706E-07         0.93838E-10         0.00000E+00
    0.57707E-07         0.97712E-10         0.00000E+00
    0.57708E-07         0.10102E-09         0.00000E+00
    0.57709E-07         0.10379E-09         0.00000E+00
    0.57710E-07         0.10603E-09         0.00000E+00
    0.57712E-07         0.10779E-09         0.00000E+00
    0.57713E-07         0.10907E-09         0.00000E+00
    0.57714E-07         0.10990E-09         0.00000E+00
    0.57716E-07         0.11030E-09         0.00000E+00
    0.57717E-07         0.11030E-09         0.00000E+00
    0.57719E-07         0.10991E-09         0.00000E+00
    0.57721E-07         0.10915E-09         0.00000E+00
    0.57722E-07         0.10804E-09         0.00000E+00
    0.57724E-07         0.10661E-09         0.00000E+00
    0.57726E-07         0.10486E-09         0.00000E+00
    0.57728E-07         0.10281E-09         0.00000E+00
    0.57730E-07         0.10048E-09         0.00000E+00
    0.57732E-07         0.97891E-10         0.00000E+00
    0.57733E-07         0.95050E-10         0.00000E+00
    0.57735E-07         0.91972E-10         0.00000E+00
    0.57737E-07         0.88671E-10         0.00000E+00
    0.57739E-07         0.85161E-10         0.00000E+00
    0.57741E-07         0.81453E-10         0.00000E+00
    0.57742E-07         0.77560E-10         0.00000E+00
    0.57744E-07         0.73490E-10         0.00000E+00
    0.57746E-07         0.69257E-10         0.00000E+00
    0.57747E-07         0.64867E-10         0.00000E+00
    0.57749E-07         0.60332E-10         0.00000E+00
    0.57750E-07         0.55659E-10         0.00000E+00
    0.57752E-07         0.50857E-10         0.00000E+00
    0.57753E-07         0.45933E-10         0.00000E+00
    0.57754E-07         0.40894E-10         0.00000E+00
    0.57755E-07         0.35746E-10         0.00000E+00
    0.57756E-07         0.30496E-10         0.00000E+00
    0.57757E-07         0.25148E-10         0.00000E+00
    0.57758E-07         0.19709E-10         0.00000E+00
    0.57758E-07         0.14181E-10         0.00000E+00
    0.57758E-07         0.85710E-11         0.00000E+00
    0.57759E-07         0.28810E-11         0.00000E+00
    0.59713E-07         0.60891E-11         0.00000E+00
    0.59713E-07         0.17594E-10         0.00000E+00
    0.59713E-07         0.28193E-10         0.00000E+00
    0.59713E-07         0.37923E-10         0.00000E+00
    0.59714E-07         0.46816E-10         0.00000E+00
    0.59714E-07         0.54907E-10         0.00000E+00
    0.59715E-07         0.62228E-10         0.00000E+00
    0.59716E-07         0.68812E-10         0.00000E+00
    0.59716E-07         0.74691E-10         0.00000E+00
    0.59717E-07         0.79896E-10         0.00000E+00
    0.59718E-07         0.84459E-10         0.00000E+00
    0.59720E-07         0.88408E-10         0.00000E+00
    0.59721E-07         0.91775E-10         0.00000E+00
    0.59722E-07         0.94586E-10         0.00000E+00
    0.59724E-07         0.96870E-10         0.00000E+00
    0.59726E-07         0.98655E-10         0.00000E+00
    0.59727E-07         0.99965E-10         0.00000E+00
    0.59729E-07         0.10083E-09         0.00000E+00
    0.59731E-07         0.10127E-09         0.00000E+00
    0.59733E-07         0.10131E-09         0.00000E+00
    0.59735E-07         0.10097E-09         0.00000E+00
    0.59738E-07         0.10028E-09         0.00000E+00
    0.59740E-07         0.99258E-10         0.00000E+00
    0.59742E-07         0.97922E-10         0.00000E+00
    0.59744E-07         0.96295E-10         0.00000E+00
    0.59747E-07         0.94393E-10         0.00000E+00
    0.59749E-07         0.92237E-10         0.00000E+00
    0.59752E-07         0.89842E-10         0.00000E+00
    0.59754E-07         0.87225E-10         0.00000E+00
    0.59756E-07         0.84402E-10         0.00000E+00
    0.59759E-07         0.81388E-10         0.00000E+00
    0.59761E-07         0.78197E-10         0.00000E+00
    0.59764E-07         0.74842E-10         0.00000E+00
    0.59766E-07         0.71336E-10         0.00000E+00
    0.59768E-07         0.67691E-10         0.00000E+00
    0.59770E-07         0.63918E-10         0.00000E+00
    0.59772E-07         0.60028E-10         0.00000E+00
    0.59774E-07         0.56029E-10         0.00000E+00
    0.59776E-07         0.51932E-10         0.00000E+00
    0.59778E-07         0.47745E-10         0.00000E+00
    0.59780E-07         0.43475E-10         0.00000E+00
    0.59781E-07         0.39131E-10         0.00000E+00
    0.59783E-07         0.34719E-10         0.00000E+00
    0.59784E-07         0.30245E-10         0.00000E+00
    0.59785E-07         0.25715E-10         0.00000E+00
    0.59786E-07         0.21133E-10         0.00000E+00
    0.59787E-07         0.16506E-10         0.00000E+00
    0.59788E-07         0.11836E-10         0.00000E+00
    0.59788E-07         0.71287E-11         0.00000E+00
    0.59788E-07         0.23863E-11         0.00000E+00
    0.61826E-07         0.58062E-11         0.00000E+00
    0.61826E-07         0.16719E-10         0.00000E+00
    0.61826E-07         0.26695E-10         0.00000E+00
    0.61827E-07         0.35775E-10         0.00000E+00
    0.61827E-07         0.43999E-10         0.00000E+00
    0.61828E-07         0.51406E-10         0.00000E+00
    0.61829E-07         0.58035E-10         0.00000E+00
    0.61830E-07         0.63923E-10         0.00000E+00
    0.61831E-07         0.69106E-10         0.00000E+00
    0.61833E-07         0.73622E-10         0.00000E+00
    0.61834E-07         0.77506E-10         0.00000E+00
    0.61836E-07         0.80790E-10         0.00000E+00
    0.61838E-07         0.83510E-10         0.00000E+00
    0.61840E-07         0.85697E-10         0.00000E+00
    0.61842E-07         0.87382E-10         0.00000E+00
    0.61844E-07         0.88597E-10         0.00000E+00
    0.61846E-07         0.89370E-10         0.00000E+00
    0.61849E-07         0.89730E-10         0.00000E+00
    0.61851E-07         0.89704E-10         0.00000E+00
    0.61854E-07         0.89319E-10         0.00000E+00
    0.61857E-07         0.88600E-10         0.00000E+00
    0.61860E-07         0.87571E-10         0.00000E+00
    0.61863E-07         0.86256E-10         0.00000E+00
    0.61866E-07         0.84676E-10         0.00000E+00
    0.61869E-07         0.82854E-10         0.00000E+00
    0.61872E-07         0.80809E-10         0.00000E+00
    0.61875E-07         0.78561E-10         0.00000E+00
    0.61878E-07         0.76127E-10         0.00000E+00
    0.61881E-07         0.73526E-10         0.00000E+00
    0.61884E-07         0.70774E-10         0.00000E+00
    0.61887E-07         0.67885E-10         0.00000E+00
    0.61890E-07         0.64876E-10         0.00000E+00
    0.61893E-07         0.61759E-10         0.00000E+00
    0.61896E-07         0.58547E-10         0.00000E+00
    0.61899E-07         0.55252E-10         0.00000E+00
    0.61901E-07         0.51885E-10         0.00000E+00
    0.61904E-07         0.48458E-10         0.00000E+00
    0.61906E-07         0.44978E-10         0.00000E+00
    0.61909E-07         0.41456E-10         0.00000E+00
    0.61911E-07         0.37900E-10         0.00000E+00
    0.61913E-07         0.34316E-10         0.00000E+00
    0.61915E-07         0.30712E-10         0.00000E+00
    0.61917E-07         0.27094E-10         0.00000E+00
    0.61918E-07         0.23468E-10         0.00000E+00
    0.61920E-07         0.19838E-10         0.00000E+00
    0.61921E-07         0.16210E-10         0.00000E+00
    0.61922E-07         0.12587E-10         0.00000E+00
    0.61923E-07         0.89736E-11         0.00000E+00
    0.61923E-07         0.53719E-11         0.00000E+00
    0.61924E-07         0.17852E-11         0.00000E+00
    0.64046E-07         0.53845E-11         0.00000E+00
    0.64047E-07         0.15431E-10         0.00000E+00
    0.64047E-07         0.24517E-10         0.00000E+00
    0.64048E-07         0.32688E-10         0.00000E+00
    0.64049E-07         0.39992E-10         0.00000E+00
    0.64050E-07         0.46474E-10         0.00000E+00
    0.64051E-07         0.52179E-10         0.00000E+00
    0.64052E-07         0.57149E-10         0.00000E+00
    0.64054E-07         0.61428E-10         0.00000E+00
    0.64056E-07         0.65055E-10         0.00000E+00
    0.64058E-07         0.68073E-10         0.00000E+00
    0.64060E-07         0.70519E-10         0.00000E+00
    0.64063E-07         0.72431E-10         0.00000E+00
    0.64065E-07         0.73845E-10         0.00000E+00
    0.64068E-07         0.74797E-10         0.00000E+00
    0.64071E-07         0.75320E-10         0.00000E+00
    0.64074E-07         0.75448E-10         0.00000E+00
    0.64077E-07         0.75211E-10         0.00000E+00
    0.64080E-07         0.74640E-10         0.00000E+00
    0.64084E-07         0.73763E-10         0.00000E+00
    0.64087E-07         0.72609E-10         0.00000E+00
    0.64091E-07         0.71203E-10         0.00000E+00
    0.64095E-07         0.69571E-10         0.00000E+00
    0.64099E-07         0.67736E-10         0.00000E+00
    0.64102E-07         0.65721E-10         0.00000E+00
    0.64106E-07         0.63547E-10         0.00000E+00
    0.64110E-07         0.61236E-10         0.00000E+00
    0.64114E-07         0.58805E-10         0.00000E+00
    0.64118E-07         0.56273E-10         0.00000E+00
    0.64122E-07         0.53657E-10         0.00000E+00
    0.64125E-07         0.50973E-10         0.00000E+00
    0.64129E-07         0.48234E-10         0.00000E+00
    0.64133E-07         0.45456E-10         0.00000E+00
    0.64136E-07         0.42650E-10         0.00000E+00
    0.64140E-07         0.39828E-10         0.00000E+00
    0.64143E-07         0.37002E-10         0.00000E+00
    0.64146E-07         0.34180E-10         0.00000E+00
    0.64149E-07         0.31373E-10         0.00000E+00
    0.64152E-07         0.28588E-10         0.00000E+00
    0.64155E-07         0.25832E-10         0.00000E+00
    0.64158E-07         0.23113E-10         0.00000E+00
    0.64160E-07         0.20437E-10         0.00000E+00
    0.64162E-07         0.17808E-10         0.00000E+00
    0.64164E-07         0.15232E-10         0.00000E+00
    0.64166E-07         0.12711E-10         0.00000E+00
    0.64167E-07         0.10251E-10         0.00000E+00
    0.64168E-07         0.78543E-11         0.00000E+00
    0.64169E-07         0.55226E-11         0.00000E+00
    0.64170E-07         0.32586E-11         0.00000E+00
    0.64170E-07         0.10640E-11         0.00000E+00
    0.66380E-07         0.47911E-11         0.00000E+00
    0.66381E-07         0.13636E-10         0.00000E+00
    0.66381E-07         0.21504E-10         0.00000E+00
    0.66382E-07         0.28452E-10         0.00000E+00
    0.66383E-07         0.34533E-10         0.00000E+00
    0.66384E-07         0.39799E-10         0.00000E+00
    0.66386E-07         0.44302E-10         0.00000E+00
    0.66388E-07         0.48092E-10         0.00000E+00
    0.66390E-07         0.51218E-10         0.00000E+00
    0.66393E-07         0.53725E-10         0.00000E+00
    0.66395E-07         0.55659E-10         0.00000E+00
    0.66398E-07         0.57064E-10         0.00000E+00
    0.66401E-07         0.57983E-10         0.00000E+00
    0.66405E-07         0.58456E-10         0.00000E+00
    0.66408E-07         0.58522E-10         0.00000E+00
    0.66412E-07         0.58218E-10         0.00000E+00
    0.66416E-07         0.57581E-10         0.00000E+00
    0.66420E-07         0.56645E-10         0.00000E+00
    0.66424E-07         0.55442E-10         0.00000E+00
    0.66429E-07         0.54004E-10         0.00000E+00
    0.66433E-07         0.52362E-10         0.00000E+00
    0.66438E-07         0.50542E-10         0.00000E+00
    0.66442E-07         0.48571E-10         0.00000E+00
    0.66447E-07         0.46475E-10         0.00000E+00
    0.66452E-07         0.44278E-10         0.00000E+00
    0.66456E-07         0.42002E-10         0.00000E+00
    0.66461E-07         0.39668E-10         0.00000E+00
    0.66466E-07         0.37295E-10         0.00000E+00
    0.66471E-07         0.34902E-10         0.00000E+00
    0.66475E-07         0.32505E-10         0.00000E+00
    0.66480E-07         0.30121E-10         0.00000E+00
    0.66485E-07         0.27763E-10         0.00000E+00
    0.66489E-07         0.25446E-10         0.00000E+00
    0.66493E-07         0.23180E-10         0.00000E+00
    0.66498E-07         0.20978E-10         0.00000E+00
    0.66502E-07         0.18850E-10         0.00000E+00
    0.66506E-07         0.16803E-10         0.00000E+00
    0.66509E-07         0.14847E-10         0.00000E+00
    0.66513E-07         0.12988E-10         0.00000E+00
    0.66516E-07         0.11233E-10         0.00000E+00
    0.66519E-07         0.95864E-11         0.00000E+00
    0.66522E-07         0.80533E-11         0.00000E+00
    0.66524E-07         0.66377E-11         0.00000E+00
    0.66527E-07         0.53425E-11         0.00000E+00
    0.66529E-07         0.41705E-11         0.00000E+00
    0.66530E-07         0.31235E-11         0.00000E+00
    0.66532E-07         0.22030E-11         0.00000E+00
    0.66533E-07         0.14099E-11         0.00000E+00
    0.66534E-07         0.74487E-12         0.00000E+00
    0.66534E-07         0.20799E-12         0.00000E+00
    0.68833E-07         0.39881E-11         0.00000E+00
    0.68834E-07         0.11222E-10         0.00000E+00
    0.68835E-07         0.17479E-10         0.00000E+00
    0.68836E-07         0.22825E-10         0.00000E+00
    0.68837E-07         0.27321E-10         0.00000E+00
    0.68839E-07         0.31028E-10         0.00000E+00
    0.68841E-07         0.34004E-10         0.00000E+00
    0.68844E-07         0.36306E-10         0.00000E+00
    0.68846E-07         0.37990E-10         0.00000E+00
    0.68849E-07         0.39107E-10         0.00000E+00
    0.68853E-07         0.39709E-10         0.00000E+00
    0.68857E-07         0.39845E-10         0.00000E+00
    0.68861E-07         0.39561E-10         0.00000E+00
    0.68865E-07         0.38903E-10         0.00000E+00
    0.68869E-07         0.37913E-10         0.00000E+00
    0.68874E-07         0.36633E-10         0.00000E+00
    0.68879E-07         0.35102E-10         0.00000E+00
    0.68884E-07         0.33356E-10         0.00000E+00
    0.68889E-07         0.31432E-10         0.00000E+00
    0.68895E-07         0.29363E-10         0.00000E+00
    0.68900E-07         0.27180E-10         0.00000E+00
    0.68906E-07         0.24912E-10         0.00000E+00
    0.68911E-07         0.22589E-10         0.00000E+00
    0.68917E-07         0.20236E-10         0.00000E+00
    0.68923E-07         0.17878E-10         0.00000E+00
    0.68929E-07         0.15537E-10         0.00000E+00
    0.68935E-07         0.13234E-10         0.00000E+00
    0.68940E-07         0.10990E-10         0.00000E+00
    0.68946E-07         0.88225E-11         0.00000E+00
    0.68952E-07         0.67478E-11         0.00000E+00
    0.68957E-07         0.47812E-11         0.00000E+00
    0.68963E-07         0.29363E-11         0.00000E+00
    0.68968E-07         0.12255E-11         0.00000E+00
    0.68973E-07        -0.33997E-12         0.00000E+00
    0.68978E-07        -0.17504E-11         0.00000E+00
    0.68983E-07        -0.29972E-11         0.00000E+00
    0.68988E-07        -0.40729E-11         0.00000E+00
    0.68992E-07        -0.49710E-11         0.00000E+00
    0.68997E-07        -0.56861E-11         0.00000E+00
    0.69001E-07        -0.62139E-11         0.00000E+00
    0.69004E-07        -0.65509E-11         0.00000E+00
    0.69008E-07        -0.66945E-11         0.00000E+00
    0.69011E-07        -0.66427E-11         0.00000E+00
    0.69013E-07        -0.63946E-11         0.00000E+00
    0.69016E-07        -0.59497E-11         0.00000E+00
    0.69018E-07        -0.53081E-11         0.00000E+00
    0.69019E-07        -0.44707E-11         0.00000E+00
    0.69021E-07        -0.34386E-11         0.00000E+00
    0.69021E-07        -0.22135E-11         0.00000E+00
    0.69022E-07        -0.79727E-12         0.00000E+00
    0.71413E-07         0.29329E-11         0.00000E+00
    0.71413E-07         0.80654E-11         0.00000E+00
    0.71414E-07         0.12243E-10         0.00000E+00
    0.71416E-07         0.15540E-10         0.00000E+00
    0.71417E-07         0.18028E-10         0.00000E+00
    0.71420E-07         0.19774E-10         0.00000E+00
    0.71422E-07         0.20846E-10         0.00000E+00
    0.71426E-07         0.21308E-10         0.00000E+00
    0.71429E-07         0.21221E-10         0.00000E+00
    0.71433E-07         0.20644E-10         0.00000E+00
    0.71437E-07         0.19633E-10         0.00000E+00
    0.71442E-07         0.18243E-10         0.00000E+00
    0.71447E-07         0.16526E-10         0.00000E+00
    0.71452E-07         0.14529E-10         0.00000E+00
    0.71458E-07         0.12301E-10         0.00000E+00
    0.71463E-07         0.98852E-11         0.00000E+00
    0.71469E-07         0.73236E-11         0.00000E+00
    0.71476E-07         0.46560E-11         0.00000E+00
    0.71482E-07         0.19196E-11         0.00000E+00
    0.71489E-07        -0.85021E-12         0.00000E+00
    0.71495E-07        -0.36206E-11         0.00000E+00
    0.71502E-07        -0.63609E-11         0.00000E+00
    0.71509E-07        -0.90422E-11         0.00000E+00
    0.71516E-07        -0.11638E-10         0.00000E+00
    0.71523E-07        -0.14123E-10         0.00000E+00
    0.71530E-07        -0.16476E-10         0.00000E+00
    0.71537E-07        -0.18674E-10         0.00000E+00
    0.71544E-07        -0.20700E-10         0.00000E+00
    0.71551E-07        -0.22535E-10         0.00000E+00
    0.71557E-07        -0.24165E-10         0.00000E+00
    0.71564E-07        -0.25575E-10         0.00000E+00
    0.71571E-07        -0.26752E-10         0.00000E+00
    0.71577E-07        -0.27687E-10         0.00000E+00
    0.71583E-07        -0.28369E-10         0.00000E+00
    0.71589E-07        -0.28791E-10         0.00000E+00
    0.71595E-07        -0.28946E-10         0.00000E+00
    0.71600E-07        -0.28829E-10         0.00000E+00
    0.71606E-07        -0.28435E-10         0.00000E+00
    0.71611E-07        -0.27761E-10         0.00000E+00
    0.71615E-07        -0.26806E-10         0.00000E+00
    0.71619E-07        -0.25568E-10         0.00000E+00
    0.71623E-07        -0.24048E-10         0.00000E+00
    0.71627E-07        -0.22246E-10         0.00000E+00
    0.71630E-07        -0.20164E-10         0.00000E+00
    0.71633E-07        -0.17804E-10         0.00000E+00
    0.71635E-07        -0.15170E-10         0.00000E+00
    0.71637E-07        -0.12264E-10         0.00000E+00
    0.71638E-07        -0.90922E-11         0.00000E+00
    0.71639E-07        -0.56575E-11         0.00000E+00
    0.71640E-07        -0.19653E-11         0.00000E+00
    0.74125E-07         0.15794E-11         0.00000E+00
    0.74126E-07         0.40349E-11         0.00000E+00
    0.74127E-07         0.55859E-11         0.00000E+00
    0.74129E-07         0.63165E-11         0.00000E+00
    0.74131E-07         0.63073E-11         0.00000E+00
    0.74134E-07         0.56358E-11         0.00000E+00
    0.74138E-07         0.43766E-11         0.00000E+00
    0.74141E-07         0.26009E-11         0.00000E+00
    0.74146E-07         0.37672E-12         0.00000E+00
    0.74151E-07        -0.22310E-11         0.00000E+00
    0.74156E-07        -0.51603E-11         0.00000E+00
    0.74162E-07        -0.83525E-11         0.00000E+00
    0.74168E-07        -0.11752E-10         0.00000E+00
    0.74174E-07        -0.15305E-10         0.00000E+00
    0.74181E-07        -0.18963E-10         0.00000E+00
    0.74188E-07        -0.22679E-10         0.00000E+00
    0.74195E-07        -0.26408E-10         0.00000E+00
    0.74202E-07        -0.30109E-10         0.00000E+00
    0.74210E-07        -0.33743E-10         0.00000E+00
    0.74218E-07        -0.37274E-10         0.00000E+00
    0.74226E-07        -0.40669E-10         0.00000E+00
    0.74234E-07        -0.43896E-10         0.00000E+00
    0.74242E-07        -0.46926E-10         0.00000E+00
    0.74250E-07        -0.49734E-10         0.00000E+00
    0.74259E-07        -0.52296E-10         0.00000E+00
    0.74267E-07        -0.54588E-10         0.00000E+00
    0.74275E-07        -0.56593E-10         0.00000E+00
    0.74283E-07        -0.58291E-10         0.00000E+00
    0.74291E-07        -0.59667E-10         0.00000E+00
    0.74299E-07        -0.60707E-10         0.00000E+00
    0.74307E-07        -0.61399E-10         0.00000E+00
    0.74315E-07        -0.61733E-10         0.00000E+00
    0.74322E-07        -0.61699E-10         0.00000E+00
    0.74330E-07        -0.61292E-10         0.00000E+00
    0.74337E-07        -0.60506E-10         0.00000E+00
    0.74343E-07        -0.59336E-10         0.00000E+00
    0.74350E-07        -0.57780E-10         0.00000E+00
    0.74356E-07        -0.55836E-10         0.00000E+00
    0.74361E-07        -0.53505E-10         0.00000E+00
    0.74367E-07        -0.50788E-10         0.00000E+00
    0.74372E-07        -0.47687E-10         0.00000E+00
    0.74376E-07        -0.44205E-10         0.00000E+00
    0.74380E-07        -0.40346E-10         0.00000E+00
    0.74384E-07        -0.36116E-10         0.00000E+00
    0.74387E-07        -0.31520E-10         0.00000E+00
    0.74390E-07        -0.26565E-10         0.00000E+00
    0.74392E-07        -0.21258E-10         0.00000E+00
    0.74394E-07        -0.15608E-10         0.00000E+00
    0.74395E-07        -0.96211E-11         0.00000E+00
    0.74395E-07        -0.33074E-11         0.00000E+00
    0.76980E-07        -0.11984E-12         0.00000E+00
    0.76980E-07        -0.10050E-11         0.00000E+00
    0.76982E-07        -0.27057E-11         0.00000E+00
    0.76984E-07        -0.51277E-11         0.00000E+00
    0.76987E-07        -0.81807E-11         0.00000E+00
    0.76990E-07        -0.11779E-10         0.00000E+00
    0.76994E-07        -0.15840E-10         0.00000E+00
    0.76999E-07        -0.20285E-10         0.00000E+00
    0.77005E-07        -0.25042E-10         0.00000E+00
    0.77010E-07        -0.30039E-10         0.00000E+00
    0.77017E-07        -0.35210E-10         0.00000E+00
    0.77023E-07        -0.40492E-10         0.00000E+00
    0.77031E-07        -0.45827E-10         0.00000E+00
    0.77038E-07        -0.51158E-10         0.00000E+00
    0.77046E-07        -0.56435E-10         0.00000E+00
    0.77055E-07        -0.61608E-10         0.00000E+00
    0.77063E-07        -0.66632E-10         0.00000E+00
    0.77072E-07        -0.71465E-10         0.00000E+00
    0.77081E-07        -0.76069E-10         0.00000E+00
    0.77090E-07        -0.80406E-10         0.00000E+00
    0.77100E-07        -0.84445E-10         0.00000E+00
    0.77109E-07        -0.88154E-10         0.00000E+00
    0.77119E-07        -0.91506E-10         0.00000E+00
    0.77128E-07        -0.94476E-10         0.00000E+00
    0.77138E-07        -0.97042E-10         0.00000E+00
    0.77148E-07        -0.99184E-10         0.00000E+00
    0.77157E-07        -0.10088E-09         0.00000E+00
    0.77167E-07        -0.10212E-09         0.00000E+00
    0.77176E-07        -0.10289E-09         0.00000E+00
    0.77185E-07        -0.10318E-09         0.00000E+00
    0.77194E-07        -0.10298E-09         0.00000E+00
    0.77203E-07        -0.10227E-09         0.00000E+00
    0.77211E-07        -0.10106E-09         0.00000E+00
    0.77220E-07        -0.99342E-10         0.00000E+00
    0.77228E-07        -0.97111E-10         0.00000E+00
    0.77235E-07        -0.94368E-10         0.00000E+00
    0.77243E-07        -0.91112E-10         0.00000E+00
    0.77249E-07        -0.87347E-10         0.00000E+00
    0.77256E-07        -0.83076E-10         0.00000E+00
    0.77262E-07        -0.78303E-10         0.00000E+00
    0.77268E-07        -0.73036E-10         0.00000E+00
    0.77273E-07        -0.67280E-10         0.00000E+00
    0.77277E-07        -0.61044E-10         0.00000E+00
    0.77282E-07        -0.54338E-10         0.00000E+00
    0.77285E-07        -0.47171E-10         0.00000E+00
    0.77288E-07        -0.39554E-10         0.00000E+00
    0.77291E-07        -0.31499E-10         0.00000E+00
    0.77293E-07        -0.23018E-10         0.00000E+00
    0.77294E-07        -0.14124E-10         0.00000E+00
    0.77294E-07        -0.48299E-11         0.00000E+00
    0.79984E-07        -0.22098E-11         0.00000E+00
    0.79985E-07        -0.71802E-11         0.00000E+00
    0.79987E-07        -0.12827E-10         0.00000E+00
    0.79989E-07        -0.19045E-10         0.00000E+00
    0.79993E-07        -0.25736E-10         0.00000E+00
    0.79997E-07        -0.32806E-10         0.00000E+00
    0.80002E-07        -0.40167E-10         0.00000E+00
    0.80008E-07        -0.47734E-10         0.00000E+00
    0.80014E-07        -0.55430E-10         0.00000E+00
    0.80021E-07        -0.63179E-10         0.00000E+00
    0.80028E-07        -0.70913E-10         0.00000E+00
    0.80036E-07        -0.78566E-10         0.00000E+00
    0.80045E-07        -0.86078E-10         0.00000E+00
    0.80053E-07        -0.93393E-10         0.00000E+00
    0.80063E-07        -0.10046E-09         0.00000E+00
    0.80072E-07        -0.10722E-09         0.00000E+00
    0.80082E-07        -0.11365E-09         0.00000E+00
    0.80093E-07        -0.11969E-09         0.00000E+00
    0.80103E-07        -0.12530E-09         0.00000E+00
    0.80114E-07        -0.13046E-09         0.00000E+00
    0.80124E-07        -0.13514E-09         0.00000E+00
    0.80135E-07        -0.13930E-09         0.00000E+00
    0.80146E-07        -0.14292E-09         0.00000E+00
    0.80157E-07        -0.14598E-09         0.00000E+00
    0.80168E-07        -0.14845E-09         0.00000E+00
    0.80179E-07        -0.15033E-09         0.00000E+00
    0.80190E-07        -0.15159E-09         0.00000E+00
    0.80201E-07        -0.15223E-09         0.00000E+00
    0.80211E-07        -0.15223E-09         0.00000E+00
    0.80221E-07        -0.15159E-09         0.00000E+00
    0.80232E-07        -0.15030E-09         0.00000E+00
    0.80241E-07        -0.14835E-09         0.00000E+00
    0.80251E-07        -0.14574E-09         0.00000E+00
    0.80260E-07        -0.14248E-09         0.00000E+00
    0.80269E-07        -0.13857E-09         0.00000E+00
    0.80278E-07        -0.13400E-09         0.00000E+00
    0.80286E-07        -0.12878E-09         0.00000E+00
    0.80294E-07        -0.12293E-09         0.00000E+00
    0.80301E-07        -0.11643E-09         0.00000E+00
    0.80308E-07        -0.10931E-09         0.00000E+00
    0.80314E-07        -0.10158E-09         0.00000E+00
    0.80320E-07        -0.93244E-10         0.00000E+00
    0.80325E-07        -0.84315E-10         0.00000E+00
    0.80330E-07        -0.74809E-10         0.00000E+00
    0.80334E-07        -0.64740E-10         0.00000E+00
    0.80337E-07        -0.54124E-10         0.00000E+00
    0.80340E-07        -0.42978E-10         0.00000E+00
    0.80342E-07        -0.31318E-10         0.00000E+00
    0.80343E-07        -0.19163E-10         0.00000E+00
    0.80344E-07        -0.65320E-11         0.00000E+00
    0.83148E-07        -0.47273E-11         0.00000E+00
    0.83149E-07        -0.14590E-10         0.00000E+00
    0.83152E-07        -0.24924E-10         0.00000E+00
    0.83155E-07        -0.35617E-10         0.00000E+00
    0.83159E-07        -0.46563E-10         0.00000E+00
    0.83164E-07        -0.57662E-10         0.00000E+00
    0.83169E-07        -0.68821E-10         0.00000E+00
    0.83176E-07        -0.79953E-10         0.00000E+00
    0.83183E-07        -0.90977E-10         0.00000E+00
    0.83191E-07        -0.10182E-09         0.00000E+00
    0.83200E-07        -0.11240E-09         0.00000E+00
    0.83209E-07        -0.12267E-09         0.00000E+00
    0.83219E-07        -0.13256E-09         0.00000E+00
    0.83229E-07        -0.14202E-09         0.00000E+00
    0.83239E-07        -0.15100E-09         0.00000E+00
    0.83250E-07        -0.15945E-09         0.00000E+00
    0.83261E-07        -0.16733E-09         0.00000E+00
    0.83273E-07        -0.17460E-09         0.00000E+00
    0.83285E-07        -0.18123E-09         0.00000E+00
    0.83296E-07        -0.18719E-09         0.00000E+00
    0.83309E-07        -0.19245E-09         0.00000E+00
    0.83321E-07        -0.19699E-09         0.00000E+00
    0.83333E-07        -0.20079E-09         0.00000E+00
    0.83345E-07        -0.20383E-09         0.00000E+00
    0.83357E-07        -0.20609E-09         0.00000E+00
    0.83369E-07        -0.20757E-09         0.00000E+00
    0.83381E-07        -0.20825E-09         0.00000E+00
    0.83393E-07        -0.20812E-09         0.00000E+00
    0.83405E-07        -0.20718E-09         0.00000E+00
    0.83416E-07        -0.20543E-09         0.00000E+00
    0.83427E-07        -0.20286E-09         0.00000E+00
    0.83438E-07        -0.19947E-09         0.00000E+00
    0.83448E-07        -0.19526E-09         0.00000E+00
    0.83459E-07        -0.19025E-09         0.00000E+00
    0.83468E-07        -0.18442E-09         0.00000E+00
    0.83478E-07        -0.17780E-09         0.00000E+00
    0.83487E-07        -0.17039E-09         0.00000E+00
    0.83495E-07        -0.16219E-09         0.00000E+00
    0.83503E-07        -0.15322E-09         0.00000E+00
    0.83510E-07        -0.14350E-09         0.00000E+00
    0.83517E-07        -0.13303E-09         0.00000E+00
    0.83524E-07        -0.12184E-09         0.00000E+00
    0.83529E-07        -0.10993E-09         0.00000E+00
    0.83534E-07        -0.97338E-10         0.00000E+00
    0.83539E-07        -0.84069E-10         0.00000E+00
    0.83542E-07        -0.70148E-10         0.00000E+00
    0.83545E-07        -0.55598E-10         0.00000E+00
    0.83548E-07        -0.40440E-10         0.00000E+00
    0.83549E-07        -0.24700E-10         0.00000E+00
    0.83550E-07        -0.84012E-11         0.00000E+00
    0.86483E-07        -0.76928E-11         0.00000E+00
    0.86485E-07        -0.23283E-10         0.00000E+00
    0.86487E-07        -0.39057E-10         0.00000E+00
    0.86491E-07        -0.54897E-10         0.00000E+00
    0.86495E-07        -0.70693E-10         0.00000E+00
    0.86501E-07        -0.86343E-10         0.00000E+00
    0.86507E-07        -0.10175E-09         0.00000E+00
    0.86515E-07        -0.11684E-09         0.00000E+00
    0.86523E-07        -0.13152E-09         0.00000E+00
    0.86532E-07        -0.14571E-09         0.00000E+00
    0.86542E-07        -0.15937E-09         0.00000E+00
    0.86552E-07        -0.17242E-09         0.00000E+00
    0.86562E-07        -0.18481E-09         0.00000E+00
    0.86574E-07        -0.19648E-09         0.00000E+00
    0.86585E-07        -0.20741E-09         0.00000E+00
    0.86597E-07        -0.21755E-09         0.00000E+00
    0.86610E-07        -0.22686E-09         0.00000E+00
    0.86622E-07        -0.23531E-09         0.00000E+00
    0.86635E-07        -0.24288E-09         0.00000E+00
    0.86648E-07        -0.24955E-09         0.00000E+00
    0.86661E-07        -0.25529E-09         0.00000E+00
    0.86674E-07        -0.26009E-09         0.00000E+00
    0.86687E-07        -0.26393E-09         0.00000E+00
    0.86700E-07        -0.26681E-09         0.00000E+00
    0.86713E-07        -0.26871E-09         0.00000E+00
    0.86726E-07        -0.26963E-09         0.00000E+00
    0.86739E-07        -0.26956E-09         0.00000E+00
    0.86751E-07        -0.26851E-09         0.00000E+00
    0.86763E-07        -0.26646E-09         0.00000E+00
    0.86775E-07        -0.26343E-09         0.00000E+00
    0.86787E-07        -0.25942E-09         0.00000E+00
    0.86799E-07        -0.25442E-09         0.00000E+00
    0.86810E-07        -0.24844E-09         0.00000E+00
    0.86821E-07        -0.24150E-09         0.00000E+00
    0.86831E-07        -0.23360E-09         0.00000E+00
    0.86841E-07        -0.22475E-09         0.00000E+00
    0.86850E-07        -0.21496E-09         0.00000E+00
    0.86859E-07        -0.20425E-09         0.00000E+00
    0.86867E-07        -0.19263E-09         0.00000E+00
    0.86875E-07        -0.18011E-09         0.00000E+00
    0.86882E-07        -0.16672E-09         0.00000E+00
    0.86889E-07        -0.15247E-09         0.00000E+00
    0.86895E-07        -0.13738E-09         0.00000E+00
    0.86900E-07        -0.12148E-09         0.00000E+00
    0.86905E-07        -0.10479E-09         0.00000E+00
    0.86909E-07        -0.87329E-10         0.00000E+00
    0.86912E-07        -0.69133E-10         0.00000E+00
    0.86914E-07        -0.50228E-10         0.00000E+00
    0.86916E-07        -0.30643E-10         0.00000E+00
    0.86917E-07        -0.10408E-10         0.00000E+00
    0.90001E-07        -0.11099E-10         0.00000E+00
    0.90003E-07        -0.33220E-10         0.00000E+00
    0.90005E-07        -0.55133E-10         0.00000E+00
    0.90009E-07        -0.76721E-10         0.00000E+00
    0.90014E-07        -0.97875E-10         0.00000E+00
    0.90021E-07        -0.11850E-09         0.00000E+00
    0.90028E-07        -0.13849E-09         0.00000E+00
    0.90036E-07        -0.15779E-09         0.00000E+00
    0.90045E-07        -0.17631E-09         0.00000E+00
    0.90055E-07        -0.19399E-09         0.00000E+00
    0.90065E-07        -0.21078E-09         0.00000E+00
    0.90076E-07        -0.22663E-09         0.00000E+00
    0.90087E-07        -0.24148E-09         0.00000E+00
    0.90099E-07        -0.25532E-09         0.00000E+00
    0.90112E-07        -0.26809E-09         0.00000E+00
    0.90124E-07        -0.27979E-09         0.00000E+00
    0.90137E-07        -0.29037E-09         0.00000E+00
    0.90150E-07        -0.29984E-09         0.00000E+00
    0.90163E-07        -0.30817E-09         0.00000E+00
    0.90177E-07        -0.31535E-09         0.00000E+00
    0.90190E-07        -0.32137E-09         0.00000E+00
    0.90203E-07        -0.32623E-09         0.00000E+00
    0.90217E-07        -0.32993E-09         0.00000E+00
    0.90230E-07        -0.33246E-09         0.00000E+00
    0.90243E-07        -0.33382E-09         0.00000E+00
    0.90256E-07        -0.33401E-09         0.00000E+00
    0.90269E-07        -0.33304E-09         0.00000E+00
    0.90282E-07        -0.33091E-09         0.00000E+00
    0.90294E-07        -0.32763E-09         0.00000E+00
    0.90306E-07        -0.32320E-09         0.00000E+00
    0.90318E-07        -0.31763E-09         0.00000E+00
    0.90330E-07        -0.31092E-09         0.00000E+00
    0.90341E-07        -0.30309E-09         0.00000E+00
    0.90351E-07        -0.29415E-09         0.00000E+00
    0.90362E-07        -0.28410E-09         0.00000E+00
    0.90372E-07        -0.27296E-09         0.00000E+00
    0.90381E-07        -0.26075E-09         0.00000E+00
    0.90390E-07        -0.24747E-09         0.00000E+00
    0.90398E-07        -0.23314E-09         0.00000E+00
    0.90406E-07        -0.21777E-09         0.00000E+00
    0.90413E-07        -0.20140E-09         0.00000E+00
    0.90420E-07        -0.18403E-09         0.00000E+00
    0.90426E-07        -0.16570E-09         0.00000E+00
    0.90431E-07        -0.14642E-09         0.00000E+00
    0.90436E-07        -0.12622E-09         0.00000E+00
    0.90440E-07        -0.10513E-09         0.00000E+00
    0.90443E-07        -0.83175E-10         0.00000E+00
    0.90446E-07        -0.60397E-10         0.00000E+00
    0.90447E-07        -0.36826E-10         0.00000E+00
    0.90448E-07        -0.12501E-10         0.00000E+00
    0.93715E-07        -0.14892E-10         0.00000E+00
    0.93717E-07        -0.44222E-10         0.00000E+00
    0.93720E-07        -0.72824E-10         0.00000E+00
    0.93724E-07        -0.10059E-09         0.00000E+00
    0.93730E-07        -0.12741E-09         0.00000E+00
    0.93736E-07        -0.15321E-09         0.00000E+00
    0.93744E-07        -0.17791E-09         0.00000E+00
    0.93753E-07        -0.20144E-09         0.00000E+00
    0.93762E-07        -0.22376E-09         0.00000E+00
    0.93772E-07        -0.24480E-09         0.00000E+00
    0.93782E-07        -0.26455E-09         0.00000E+00
    0.93793E-07        -0.28296E-09         0.00000E+00
    0.93805E-07        -0.30001E-09         0.00000E+00
    0.93817E-07        -0.31570E-09         0.00000E+00
    0.93829E-07        -0.33000E-09         0.00000E+00
    0.93841E-07        -0.34292E-09         0.00000E+00
    0.93854E-07        -0.35444E-09         0.00000E+00
    0.93867E-07        -0.36458E-09         0.00000E+00
    0.93880E-07        -0.37333E-09         0.00000E+00
    0.93892E-07        -0.38070E-09         0.00000E+00
    0.93905E-07        -0.38670E-09         0.00000E+00
    0.93918E-07        -0.39134E-09         0.00000E+00
    0.93930E-07        -0.39462E-09         0.00000E+00
    0.93943E-07        -0.39657E-09         0.00000E+00
    0.93955E-07        -0.39718E-09         0.00000E+00
    0.93967E-07        -0.39648E-09         0.00000E+00
    0.93979E-07        -0.39447E-09         0.00000E+00
    0.93991E-07        -0.39117E-09         0.00000E+00
    0.94002E-07        -0.38658E-09         0.00000E+00
    0.94014E-07        -0.38071E-09         0.00000E+00
    0.94024E-07        -0.37358E-09         0.00000E+00
    0.94035E-07        -0.36520E-09         0.00000E+00
    0.94045E-07        -0.35557E-09         0.00000E+00
    0.94055E-07        -0.34471E-09         0.00000E+00
    0.94065E-07        -0.33263E-09         0.00000E+00
    0.94074E-07        -0.31933E-09         0.00000E+00
    0.94082E-07        -0.30483E-09         0.00000E+00
    0.94091E-07        -0.28914E-09         0.00000E+00
    0.94098E-07        -0.27227E-09         0.00000E+00
    0.94106E-07        -0.25424E-09         0.00000E+00
    0.94112E-07        -0.23506E-09         0.00000E+00
    0.94119E-07        -0.21475E-09         0.00000E+00
    0.94124E-07        -0.19333E-09         0.00000E+00
    0.94129E-07        -0.17083E-09         0.00000E+00
    0.94134E-07        -0.14726E-09         0.00000E+00
    0.94138E-07        -0.12266E-09         0.00000E+00
    0.94141E-07        -0.97057E-10         0.00000E+00
    0.94143E-07        -0.70484E-10         0.00000E+00
    0.94145E-07        -0.42983E-10         0.00000E+00
    0.94145E-07        -0.14593E-10         0.00000E+00
    0.97642E-07        -0.18954E-10         0.00000E+00
    0.97644E-07        -0.55901E-10         0.00000E+00
    0.97647E-07        -0.91438E-10         0.00000E+00
    0.97651E-07        -0.12547E-09         0.00000E+00
    0.97657E-07        -0.15793E-09         0.00000E+00
    0.97664E-07        -0.18874E-09         0.00000E+00
    0.97671E-07        -0.21786E-09         0.00000E+00
    0.97679E-07        -0.24525E-09         0.00000E+00
    0.97688E-07        -0.27090E-09         0.00000E+00
    0.97698E-07        -0.29479E-09         0.00000E+00
    0.97708E-07        -0.31692E-09         0.00000E+00
    0.97718E-07        -0.33729E-09         0.00000E+00
    0.97728E-07        -0.35591E-09         0.00000E+00
    0.97739E-07        -0.37280E-09         0.00000E+00
    0.97750E-07        -0.38799E-09         0.00000E+00
    0.97761E-07        -0.40149E-09         0.00000E+00
    0.97772E-07        -0.41334E-09         0.00000E+00
    0.97783E-07        -0.42356E-09         0.00000E+00
    0.97793E-07        -0.43219E-09         0.00000E+00
    0.97804E-07        -0.43926E-09         0.00000E+00
    0.97815E-07        -0.44479E-09         0.00000E+00
    0.97825E-07        -0.44882E-09         0.00000E+00
    0.97835E-07        -0.45137E-09         0.00000E+00
    0.97845E-07        -0.45246E-09         0.00000E+00
    0.97855E-07        -0.45213E-09         0.00000E+00
    0.97865E-07        -0.45039E-09         0.00000E+00
    0.97874E-07        -0.44727E-09         0.00000E+00
    0.97884E-07        -0.44278E-09         0.00000E+00
    0.97892E-07        -0.43694E-09         0.00000E+00
    0.97901E-07        -0.42976E-09         0.00000E+00
    0.97910E-07        -0.42125E-09         0.00000E+00
    0.97918E-07        -0.41143E-09         0.00000E+00
    0.97926E-07        -0.40029E-09         0.00000E+00
    0.97934E-07        -0.38785E-09         0.00000E+00
    0.97941E-07        -0.37411E-09         0.00000E+00
    0.97948E-07        -0.35908E-09         0.00000E+00
    0.97955E-07        -0.34275E-09         0.00000E+00
    0.97962E-07        -0.32514E-09         0.00000E+00
    0.97968E-07        -0.30624E-09         0.00000E+00
    0.97974E-07        -0.28605E-09         0.00000E+00
    0.97979E-07        -0.26460E-09         0.00000E+00
    0.97984E-07        -0.24188E-09         0.00000E+00
    0.97989E-07        -0.21790E-09         0.00000E+00
    0.97993E-07        -0.19268E-09         0.00000E+00
    0.97997E-07        -0.16623E-09         0.00000E+00
    0.98000E-07        -0.13859E-09         0.00000E+00
    0.98003E-07        -0.10976E-09         0.00000E+00
    0.98005E-07        -0.79787E-10         0.00000E+00
    0.98006E-07        -0.48705E-10         0.00000E+00
    0.98007E-07        -0.16557E-10         0.00000E+00
    0.10180E-06        -0.23046E-10         0.00000E+00
    0.10180E-06        -0.67529E-10         0.00000E+00
    0.10181E-06        -0.10971E-09         0.00000E+00
    0.10181E-06        -0.14953E-09         0.00000E+00
    0.10181E-06        -0.18696E-09         0.00000E+00
    0.10182E-06        -0.22198E-09         0.00000E+00
    0.10183E-06        -0.25460E-09         0.00000E+00
    0.10183E-06        -0.28484E-09         0.00000E+00
    0.10184E-06        -0.31273E-09         0.00000E+00
    0.10185E-06        -0.33832E-09         0.00000E+00
    0.10186E-06        -0.36165E-09         0.00000E+00
    0.10186E-06        -0.38280E-09         0.00000E+00
    0.10187E-06        -0.40183E-09         0.00000E+00
    0.10188E-06        -0.41880E-09         0.00000E+00
    0.10189E-06        -0.43379E-09         0.00000E+00
    0.10189E-06        -0.44686E-09         0.00000E+00
    0.10190E-06        -0.45809E-09         0.00000E+00
    0.10191E-06        -0.46754E-09         0.00000E+00
    0.10191E-06        -0.47528E-09         0.00000E+00
    0.10192E-06        -0.48136E-09         0.00000E+00
    0.10193E-06        -0.48585E-09         0.00000E+00
    0.10193E-06        -0.48879E-09         0.00000E+00
    0.10194E-06        -0.49023E-09         0.00000E+00
    0.10194E-06        -0.49022E-09         0.00000E+00
    0.10195E-06        -0.48879E-09         0.00000E+00
    0.10195E-06        -0.48597E-09         0.00000E+00
    0.10196E-06        -0.48178E-09         0.00000E+00
    0.10196E-06        -0.47627E-09         0.00000E+00
    0.10197E-06        -0.46943E-09         0.00000E+00
    0.10197E-06        -0.46129E-09         0.00000E+00
    0.10198E-06        -0.45185E-09         0.00000E+00
    0.10198E-06        -0.44111E-09         0.00000E+00
    0.10198E-06        -0.42909E-09         0.00000E+00
    0.10199E-06        -0.41577E-09         0.00000E+00
    0.10199E-06        -0.40115E-09         0.00000E+00
    0.10199E-06        -0.38521E-09         0.00000E+00
    0.10200E-06        -0.36796E-09         0.00000E+00
    0.10200E-06        -0.34937E-09         0.00000E+00
    0.10200E-06        -0.32942E-09         0.00000E+00
    0.10201E-06        -0.30811E-09         0.00000E+00
    0.10201E-06        -0.28542E-09         0.00000E+00
    0.10201E-06        -0.26134E-09         0.00000E+00
    0.10202E-06        -0.23585E-09         0.00000E+00
    0.10202E-06        -0.20894E-09         0.00000E+00
    0.10202E-06        -0.18063E-09         0.00000E+00
    0.10202E-06        -0.15090E-09         0.00000E+00
    0.10202E-06        -0.11978E-09         0.00000E+00
    0.10203E-06        -0.87264E-10         0.00000E+00
    0.10203E-06        -0.53392E-10         0.00000E+00
    0.10203E-06        -0.18195E-10         0.00000E+00
    0.10621E-06        -0.26803E-10         0.00000E+00
    0.10621E-06        -0.77835E-10         0.00000E+00
    0.10622E-06        -0.12538E-09         0.00000E+00
    0.10622E-06        -0.16947E-09         0.00000E+00
    0.10622E-06        -0.21017E-09         0.00000E+00
    0.10623E-06        -0.24754E-09         0.00000E+00
    0.10623E-06        -0.28167E-09         0.00000E+00
    0.10624E-06        -0.31270E-09         0.00000E+00
    0.10624E-06        -0.34074E-09         0.00000E+00
    0.10624E-06        -0.36594E-09         0.00000E+00
    0.10625E-06        -0.38846E-09         0.00000E+00
    0.10625E-06        -0.40843E-09         0.00000E+00
    0.10625E-06        -0.42602E-09         0.00000E+00
    0.10625E-06        -0.44135E-09         0.00000E+00
    0.10625E-06        -0.45456E-09         0.00000E+00
    0.10625E-06        -0.46578E-09         0.00000E+00
    0.10625E-06        -0.47513E-09         0.00000E+00
    0.10625E-06        -0.48271E-09         0.00000E+00
    0.10625E-06        -0.48862E-09         0.00000E+00
    0.10625E-06        -0.49296E-09         0.00000E+00
    0.10625E-06        -0.49579E-09         0.00000E+00
    0.10625E-06        -0.49720E-09         0.00000E+00
    0.10624E-06        -0.49724E-09         0.00000E+00
    0.10624E-06        -0.49596E-09         0.00000E+00
    0.10624E-06        -0.49342E-09         0.00000E+00
    0.10624E-06        -0.48966E-09         0.00000E+00
    0.10623E-06        -0.48470E-09         0.00000E+00
    0.10623E-06        -0.47856E-09         0.00000E+00
    0.10623E-06        -0.47127E-09         0.00000E+00
    0.10622E-06        -0.46283E-09         0.00000E+00
    0.10622E-06        -0.45325E-09         0.00000E+00
    0.10622E-06        -0.44252E-09         0.00000E+00
    0.10621E-06        -0.43063E-09         0.00000E+00
    0.10621E-06        -0.41758E-09         0.00000E+00
    0.10621E-06        -0.40332E-09         0.00000E+00
    0.10620E-06        -0.38785E-09         0.00000E+00
    0.10620E-06        -0.37112E-09         0.00000E+00
    0.10620E-06        -0.35310E-09         0.00000E+00
    0.10620E-06        -0.33374E-09         0.00000E+00
    0.10620E-06        -0.31299E-09         0.00000E+00
    0.10620E-06        -0.29081E-09         0.00000E+00
    0.10620E-06        -0.26714E-09         0.00000E+00
    0.10620E-06        -0.24193E-09         0.00000E+00
    0.10620E-06        -0.21514E-09         0.00000E+00
    0.10620E-06        -0.18672E-09         0.00000E+00
    0.10620E-06        -0.15662E-09         0.00000E+00
    0.10620E-06        -0.12484E-09         0.00000E+00
    0.10620E-06        -0.91355E-10         0.00000E+00
    0.10620E-06        -0.56164E-10         0.00000E+00
    0.10620E-06        -0.19266E-10         0.00000E+00
    0.11091E-06        -0.29219E-10         0.00000E+00
    0.11091E-06        -0.84168E-10         0.00000E+00
    0.11091E-06        -0.13415E-09         0.00000E+00
    0.11091E-06        -0.17921E-09         0.00000E+00
    0.11091E-06        -0.21956E-09         0.00000E+00
    0.11091E-06        -0.25549E-09         0.00000E+00
    0.11091E-06        -0.28731E-09         0.00000E+00
    0.11091E-06        -0.31536E-09         0.00000E+00
    0.11090E-06        -0.33996E-09         0.00000E+00
    0.11090E-06        -0.36143E-09         0.00000E+00
    0.11089E-06        -0.38005E-09         0.00000E+00
    0.11089E-06        -0.39608E-09         0.00000E+00
    0.11088E-06        -0.40976E-09         0.00000E+00
    0.11087E-06        -0.42130E-09         0.00000E+00
    0.11086E-06        -0.43089E-09         0.00000E+00
    0.11085E-06        -0.43870E-09         0.00000E+00
    0.11084E-06        -0.44488E-09         0.00000E+00
    0.11083E-06        -0.44956E-09         0.00000E+00
    0.11081E-06        -0.45285E-09         0.00000E+00
    0.11080E-06        -0.45486E-09         0.00000E+00
    0.11079E-06        -0.45568E-09         0.00000E+00
    0.11077E-06        -0.45538E-09         0.00000E+00
    0.11076E-06        -0.45403E-09         0.00000E+00
    0.11074E-06        -0.45167E-09         0.00000E+00
    0.11073E-06        -0.44836E-09         0.00000E+00
    0.11071E-06        -0.44413E-09         0.00000E+00
    0.11070E-06        -0.43900E-09         0.00000E+00
    0.11068E-06        -0.43301E-09         0.00000E+00
    0.11067E-06        -0.42615E-09         0.00000E+00
    0.11065E-06        -0.41844E-09         0.00000E+00
    0.11064E-06        -0.40987E-09         0.00000E+00
    0.11062E-06        -0.40043E-09         0.00000E+00
    0.11061E-06        -0.39010E-09         0.00000E+00
    0.11060E-06        -0.37886E-09         0.00000E+00
    0.11059E-06        -0.36668E-09         0.00000E+00
    0.11057E-06        -0.35351E-09         0.00000E+00
    0.11056E-06        -0.33929E-09         0.00000E+00
    0.11055E-06        -0.32398E-09         0.00000E+00
    0.11054E-06        -0.30749E-09         0.00000E+00
    0.11054E-06        -0.28975E-09         0.00000E+00
    0.11053E-06        -0.27067E-09         0.00000E+00
    0.11052E-06        -0.25013E-09         0.00000E+00
    0.11052E-06        -0.22803E-09         0.00000E+00
    0.11051E-06        -0.20425E-09         0.00000E+00
    0.11051E-06        -0.17864E-09         0.00000E+00
    0.11050E-06        -0.15107E-09         0.00000E+00
    0.11050E-06        -0.12142E-09         0.00000E+00
    0.11050E-06        -0.89583E-10         0.00000E+00
    0.11050E-06        -0.55491E-10         0.00000E+00
    0.11050E-06        -0.19160E-10         0.00000E+00
    0.11593E-06        -0.29703E-10         0.00000E+00
    0.11593E-06        -0.82384E-10         0.00000E+00
    0.11593E-06        -0.12698E-09         0.00000E+00
    0.11592E-06        -0.16473E-09         0.00000E+00
    0.11591E-06        -0.19669E-09         0.00000E+00
    0.11590E-06        -0.22374E-09         0.00000E+00
    0.11589E-06        -0.24662E-09         0.00000E+00
    0.11587E-06        -0.26592E-09         0.00000E+00
    0.11586E-06        -0.28217E-09         0.00000E+00
    0.11584E-06        -0.29579E-09         0.00000E+00
    0.11581E-06        -0.30713E-09         0.00000E+00
    0.11579E-06        -0.31648E-09         0.00000E+00
    0.11577E-06        -0.32411E-09         0.00000E+00
    0.11574E-06        -0.33022E-09         0.00000E+00
    0.11571E-06        -0.33498E-09         0.00000E+00
    0.11568E-06        -0.33855E-09         0.00000E+00
    0.11565E-06        -0.34107E-09         0.00000E+00
    0.11562E-06        -0.34263E-09         0.00000E+00
    0.11559E-06        -0.34333E-09         0.00000E+00
    0.11556E-06        -0.34325E-09         0.00000E+00
    0.11553E-06        -0.34246E-09         0.00000E+00
    0.11550E-06        -0.34100E-09         0.00000E+00
    0.11547E-06        -0.33894E-09         0.00000E+00
    0.11544E-06        -0.33630E-09         0.00000E+00
    0.11541E-06        -0.33312E-09         0.00000E+00
    0.11538E-06        -0.32942E-09         0.00000E+00
    0.11535E-06        -0.32521E-09         0.00000E+00
    0.11531E-06        -0.32052E-09         0.00000E+00
    0.11528E-06        -0.31534E-09         0.00000E+00
    0.11526E-06        -0.30968E-09         0.00000E+00
    0.11523E-06        -0.30353E-09         0.00000E+00
    0.11520E-06        -0.29688E-09         0.00000E+00
    0.11517E-06        -0.28971E-09         0.00000E+00
    0.11514E-06        -0.28201E-09         0.00000E+00
    0.11512E-06        -0.27373E-09         0.00000E+00
    0.11509E-06        -0.26483E-09         0.00000E+00
    0.11507E-06        -0.25528E-09         0.00000E+00
    0.11505E-06        -0.24502E-09         0.00000E+00
    0.11503E-06        -0.23397E-09         0.00000E+00
    0.11501E-06        -0.22204E-09         0.00000E+00
    0.11499E-06        -0.20914E-09         0.00000E+00
    0.11497E-06        -0.19515E-09         0.00000E+00
    0.11496E-06        -0.17992E-09         0.00000E+00
    0.11494E-06        -0.16326E-09         0.00000E+00
    0.11493E-06        -0.14497E-09         0.00000E+00
    0.11492E-06        -0.12479E-09         0.00000E+00
    0.11492E-06        -0.10240E-09         0.00000E+00
    0.11491E-06        -0.77421E-10         0.00000E+00
    0.11491E-06        -0.49395E-10         0.00000E+00
    0.11491E-06        -0.17782E-10         0.00000E+00
    0.12136E-06        -0.14757E-10         0.00000E+00
    0.12135E-06        -0.39443E-10         0.00000E+00
    0.12133E-06        -0.58928E-10         0.00000E+00
    0.12130E-06        -0.74461E-10         0.00000E+00
    0.12127E-06        -0.86942E-10         0.00000E+00
    0.12123E-06        -0.97025E-10         0.00000E+00
    0.12119E-06        -0.10520E-09         0.00000E+00
    0.12115E-06        -0.11182E-09         0.00000E+00
    0.12110E-06        -0.11719E-09         0.00000E+00
    0.12106E-06        -0.12151E-09         0.00000E+00
    0.12101E-06        -0.12497E-09         0.00000E+00
    0.12096E-06        -0.12769E-09         0.00000E+00
    0.12090E-06        -0.12979E-09         0.00000E+00
    0.12085E-06        -0.13136E-09         0.00000E+00
    0.12080E-06        -0.13247E-09         0.00000E+00
    0.12075E-06        -0.13318E-09         0.00000E+00
    0.12069E-06        -0.13354E-09         0.00000E+00
    0.12064E-06        -0.13360E-09         0.00000E+00
    0.12059E-06        -0.13338E-09         0.00000E+00
    0.12053E-06        -0.13292E-09         0.00000E+00
    0.12048E-06        -0.13224E-09         0.00000E+00
    0.12043E-06        -0.13135E-09         0.00000E+00
    0.12037E-06        -0.13028E-09         0.00000E+00
    0.12032E-06        -0.12904E-09         0.00000E+00
    0.12027E-06        -0.12764E-09         0.00000E+00
    0.12022E-06        -0.12609E-09         0.00000E+00
    0.12017E-06        -0.12438E-09         0.00000E+00
    0.12012E-06        -0.12253E-09         0.00000E+00
    0.12007E-06        -0.12054E-09         0.00000E+00
    0.12002E-06        -0.11840E-09         0.00000E+00
    0.11998E-06        -0.11612E-09         0.00000E+00
    0.11993E-06        -0.11368E-09         0.00000E+00
    0.11989E-06        -0.11109E-09         0.00000E+00
    0.11984E-06        -0.10833E-09         0.00000E+00
    0.11980E-06        -0.10539E-09         0.00000E+00
    0.11976E-06        -0.10226E-09         0.00000E+00
    0.11972E-06        -0.98906E-10         0.00000E+00
    0.11968E-06        -0.95318E-10         0.00000E+00
    0.11964E-06        -0.91463E-10         0.00000E+00
    0.11961E-06        -0.87305E-10         0.00000E+00
    0.11957E-06        -0.82799E-10         0.00000E+00
    0.11954E-06        -0.77887E-10         0.00000E+00
    0.11951E-06        -0.72499E-10         0.00000E+00
    0.11948E-06        -0.66543E-10         0.00000E+00
    0.11946E-06        -0.59901E-10         0.00000E+00
    0.11943E-06        -0.52416E-10         0.00000E+00
    0.11942E-06        -0.43877E-10         0.00000E+00
    0.11940E-06        -0.33998E-10         0.00000E+00
    0.11939E-06        -0.22375E-10         0.00000E+00
    0.11938E-06        -0.84376E-11         0.00000E+00
POINT_DATA       5151
VECTORS vDarcyNodal double 
    0.84273E-07         0.00000E+00         0.00000E+00
    0.84269E-07         0.00000E+00         0.00000E+00
    0.84257E-07         0.00000E+00         0.00000E+00
    0.84241E-07         0.00000E+00         0.00000E+00
    0.84220E-07         0.00000E+00         0.00000E+00
    0.84195E-07         0.00000E+00         0.00000E+00
    0.84168E-07         0.00000E+00         0.00000E+00
    0.84139E-07         0.00000E+00         0.00000E+00
    0.84107E-07         0.00000E+00         0.00000E+00
    0.84074E-07         0.00000E+00         0.00000E+00
    0.84040E-07         0.00000E+00         0.00000E+00
    0.84004E-07         0.00000E+00         0.00000E+00
    0.83968E-07         0.00000E+00         0.00000E+00
    0.83932E-07         0.00000E+00         0.00000E+00
    0.83894E-07         0.00000E+00         0.00000E+00
    0.83857E-07         0.00000E+00         0.00000E+00
    0.83819E-07         0.00000E+00         0.00000E+00
    0.83781E-07         0.00000E+00         0.00000E+00
    0.83743E-07         0.00000E+00         0.00000E+00
    0.83706E-07         0.00000E+00         0.00000E+00
    0.83668E-07         0.00000E+00         0.00000E+00
    0.83630E-07         0.00000E+00         0.00000E+00
    0.83593E-07         0.00000E+00         0.00000E+00
    0.83556E-07         0.00000E+00         0.00000E+00
    0.83519E-07         0.00000E+00         0.00000E+00
    0.83483E-07         0.00000E+00         0.00000E+00
    0.83447E-07         0.00000E+00         0.00000E+00
    0.83412E-07         0.00000E+00         0.00000E+00
    0.83377E-07         0.00000E+00         0.00000E+00
    0.83343E-07         0.00000E+00         0.00000E+00
    0.83309E-07         0.00000E+00         0.00000E+00
    0.83276E-07         0.00000E+00         0.00000E+00
    0.83244E-07         0.00000E+00         0.00000E+00
    0.83212E-07         0.00000E+00         0.00000E+00
    0.83181E-07         0.00000E+00         0.00000E+00
    0.83151E-07         0.00000E+00         0.00000E+00
    0.83122E-07         0.00000E+00         0.00000E+00
    0.83094E-07         0.00000E+00         0.00000E+00
    0.83067E-07         0.00000E+00         0.00000E+00
    0.83041E-07         0.00000E+00         0.00000E+00
    0.83016E-07         0.00000E+00         0.00000E+00
    0.82992E-07         0.00000E+00         0.00000E+00
    0.82970E-07         0.00000E+00         0.00000E+00
    0.82949E-07         0.00000E+00         0.00000E+00
    0.82930E-07         0.00000E+00         0.00000E+00
    0.82913E-07         0.00000E+00         0.00000E+00
    0.82898E-07         0.00000E+00         0.00000E+00
    0.82886E-07         0.00000E+00         0.00000E+00
    0.82876E-07         0.00000E+00         0.00000E+00
    0.82870E-07         0.00000E+00         0.00000E+00
    0.82868E-07         0.00000E+00         0.00000E+00
    0.82440E-07         0.20708E-10         0.00000E+00
    0.82438E-07         0.38047E-10         0.00000E+00
    0.82432E-07         0.69093E-10         0.00000E+00
    0.82422E-07         0.93748E-10         0.00000E+00
    0.82409E-07         0.11351E-09         0.00000E+00
    0.82394E-07         0.12946E-09         0.00000E+00
    0.82376E-07         0.14240E-09         0.00000E+00
    0.82356E-07         0.15291E-09         0.00000E+00
    0.82334E-07         0.16146E-09         0.00000E+00
    0.82311E-07         0.16839E-09         0.00000E+00
    0.82286E-07         0.17398E-09         0.00000E+00
    0.82260E-07         0.17844E-09         0.00000E+00
    0.82234E-07         0.18195E-09         0.00000E+00
    0.82206E-07         0.18464E-09         0.00000E+00
    0.82178E-07         0.18663E-09         0.00000E+00
    0.82149E-07         0.18802E-09         0.00000E+00
    0.82120E-07         0.18887E-09         0.00000E+00
    0.82090E-07         0.18926E-09         0.00000E+00
    0.82061E-07         0.18923E-09         0.00000E+00
    0.82031E-07         0.18884E-09         0.00000E+00
    0.82001E-07         0.18811E-09         0.00000E+00
    0.81971E-07         0.18708E-09         0.00000E+00
    0.81941E-07         0.18577E-09         0.00000E+00
    0.81912E-07         0.18420E-09         0.00000E+00
    0.81882E-07         0.18239E-09         0.00000E+00
    0.81853E-07         0.18034E-09         0.00000E+00
    0.81824E-07         0.17808E-09         0.00000E+00
    0.81795E-07         0.17561E-09         0.00000E+00
    0.81767E-07         0.17292E-09         0.00000E+00
    0.81739E-07         0.17003E-09         0.00000E+00
    0.81712E-07         0.16692E-09         0.00000E+00
    0.81685E-07         0.16359E-09         0.00000E+00
    0.81659E-07         0.16004E-09         0.00000E+00
    0.81634E-07         0.15625E-09         0.00000E+00
    0.81609E-07         0.15220E-09         0.00000E+00
    0.81585E-07         0.14789E-09         0.00000E+00
    0.81561E-07         0.14327E-09         0.00000E+00
    0.81539E-07         0.13833E-09         0.00000E+00
    0.81518E-07         0.13302E-09         0.00000E+00
    0.81497E-07         0.12731E-09         0.00000E+00
    0.81478E-07         0.12112E-09         0.00000E+00
    0.81460E-07         0.11439E-09         0.00000E+00
    0.81443E-07         0.10704E-09         0.00000E+00
    0.81428E-07         0.98937E-10         0.00000E+00
    0.81414E-07         0.89942E-10         0.00000E+00
    0.81402E-07         0.79861E-10         0.00000E+00
    0.81392E-07         0.68436E-10         0.00000E+00
    0.81383E-07         0.55316E-10         0.00000E+00
    0.81377E-07         0.40018E-10         0.00000E+00
    0.81373E-07         0.21858E-10         0.00000E+00
    0.81372E-07         0.11963E-10         0.00000E+00
    0.78917E-07         0.21085E-10         0.00000E+00
    0.78917E-07         0.40838E-10         0.00000E+00
    0.78917E-07         0.78323E-10         0.00000E+00
    0.78916E-07         0.11176E-09         0.00000E+00
    0.78914E-07         0.14124E-09         0.00000E+00
    0.78910E-07         0.16705E-09         0.00000E+00
    0.78906E-07         0.18950E-09         0.00000E+00
    0.78900E-07         0.20894E-09         0.00000E+00
    0.78893E-07         0.22570E-09         0.00000E+00
    0.78884E-07         0.24008E-09         0.00000E+00
    0.78875E-07         0.25235E-09         0.00000E+00
    0.78865E-07         0.26275E-09         0.00000E+00
    0.78853E-07         0.27149E-09         0.00000E+00
    0.78841E-07         0.27875E-09         0.00000E+00
    0.78828E-07         0.28469E-09         0.00000E+00
    0.78814E-07         0.28944E-09         0.00000E+00
    0.78800E-07         0.29312E-09         0.00000E+00
    0.78785E-07         0.29584E-09         0.00000E+00
    0.78769E-07         0.29768E-09         0.00000E+00
    0.78754E-07         0.29873E-09         0.00000E+00
    0.78738E-07         0.29904E-09         0.00000E+00
    0.78721E-07         0.29866E-09         0.00000E+00
    0.78705E-07         0.29766E-09         0.00000E+00
    0.78688E-07         0.29606E-09         0.00000E+00
    0.78672E-07         0.29389E-09         0.00000E+00
    0.78655E-07         0.29119E-09         0.00000E+00
    0.78639E-07         0.28797E-09         0.00000E+00
    0.78622E-07         0.28424E-09         0.00000E+00
    0.78606E-07         0.28002E-09         0.00000E+00
    0.78590E-07         0.27530E-09         0.00000E+00
    0.78575E-07         0.27009E-09         0.00000E+00
    0.78559E-07         0.26438E-09         0.00000E+00
    0.78544E-07         0.25816E-09         0.00000E+00
    0.78530E-07         0.25140E-09         0.00000E+00
    0.78516E-07         0.24410E-09         0.00000E+00
    0.78503E-07         0.23620E-09         0.00000E+00
    0.78490E-07         0.22769E-09         0.00000E+00
    0.78478E-07         0.21851E-09         0.00000E+00
    0.78466E-07         0.20862E-09         0.00000E+00
    0.78456E-07         0.19794E-09         0.00000E+00
    0.78446E-07         0.18640E-09         0.00000E+00
    0.78437E-07         0.17393E-09         0.00000E+00
    0.78429E-07         0.16041E-09         0.00000E+00
    0.78422E-07         0.14573E-09         0.00000E+00
    0.78416E-07         0.12977E-09         0.00000E+00
    0.78411E-07         0.11238E-09         0.00000E+00
    0.78407E-07         0.93428E-10         0.00000E+00
    0.78405E-07         0.72761E-10         0.00000E+00
    0.78403E-07         0.50276E-10         0.00000E+00
    0.78402E-07         0.25956E-10         0.00000E+00
    0.78402E-07         0.13342E-10         0.00000E+00
    0.75651E-07         0.20236E-10         0.00000E+00
    0.75652E-07         0.39350E-10         0.00000E+00
    0.75652E-07         0.76106E-10         0.00000E+00
    0.75654E-07         0.10997E-09         0.00000E+00
    0.75655E-07         0.14101E-09         0.00000E+00
    0.75656E-07         0.16931E-09         0.00000E+00
    0.75657E-07         0.19497E-09         0.00000E+00
    0.75658E-07         0.21810E-09         0.00000E+00
    0.75658E-07         0.23883E-09         0.00000E+00
    0.75657E-07         0.25732E-09         0.00000E+00
    0.75656E-07         0.27369E-09         0.00000E+00
    0.75655E-07         0.28810E-09         0.00000E+00
    0.75653E-07         0.30069E-09         0.00000E+00
    0.75650E-07         0.31159E-09         0.00000E+00
    0.75647E-07         0.32091E-09         0.00000E+00
    0.75644E-07         0.32878E-09         0.00000E+00
    0.75640E-07         0.33529E-09         0.00000E+00
    0.75635E-07         0.34054E-09         0.00000E+00
    0.75630E-07         0.34462E-09         0.00000E+00
    0.75625E-07         0.34760E-09         0.00000E+00
    0.75619E-07         0.34954E-09         0.00000E+00
    0.75613E-07         0.35051E-09         0.00000E+00
    0.75607E-07         0.35056E-09         0.00000E+00
    0.75600E-07         0.34973E-09         0.00000E+00
    0.75594E-07         0.34806E-09         0.00000E+00
    0.75587E-07         0.34557E-09         0.00000E+00
    0.75580E-07         0.34230E-09         0.00000E+00
    0.75574E-07         0.33827E-09         0.00000E+00
    0.75567E-07         0.33347E-09         0.00000E+00
    0.75560E-07         0.32793E-09         0.00000E+00
    0.75554E-07         0.32165E-09         0.00000E+00
    0.75547E-07         0.31461E-09         0.00000E+00
    0.75541E-07         0.30682E-09         0.00000E+00
    0.75535E-07         0.29826E-09         0.00000E+00
    0.75529E-07         0.28891E-09         0.00000E+00
    0.75524E-07         0.27874E-09         0.00000E+00
    0.75519E-07         0.26773E-09         0.00000E+00
    0.75514E-07         0.25584E-09         0.00000E+00
    0.75510E-07         0.24304E-09         0.00000E+00
    0.75506E-07         0.22927E-09         0.00000E+00
    0.75502E-07         0.21448E-09         0.00000E+00
    0.75499E-07         0.19863E-09         0.00000E+00
    0.75496E-07         0.18166E-09         0.00000E+00
    0.75494E-07         0.16352E-09         0.00000E+00
    0.75493E-07         0.14414E-09         0.00000E+00
    0.75491E-07         0.12349E-09         0.00000E+00
    0.75490E-07         0.10152E-09         0.00000E+00
    0.75490E-07         0.78201E-10         0.00000E+00
    0.75490E-07         0.53522E-10         0.00000E+00
    0.75489E-07         0.27461E-10         0.00000E+00
    0.75489E-07         0.14082E-10         0.00000E+00
    0.72597E-07         0.17874E-10         0.00000E+00
    0.72598E-07         0.35051E-10         0.00000E+00
    0.72599E-07         0.68407E-10         0.00000E+00
    0.72601E-07         0.99754E-10         0.00000E+00
    0.72604E-07         0.12908E-09         0.00000E+00
    0.72607E-07         0.15639E-09         0.00000E+00
    0.72611E-07         0.18172E-09         0.00000E+00
    0.72614E-07         0.20508E-09         0.00000E+00
    0.72618E-07         0.22653E-09         0.00000E+00
    0.72622E-07         0.24612E-09         0.00000E+00
    0.72625E-07         0.26391E-09         0.00000E+00
    0.72629E-07         0.27996E-09         0.00000E+00
    0.72632E-07         0.29434E-09         0.00000E+00
    0.72635E-07         0.30712E-09         0.00000E+00
    0.72638E-07         0.31837E-09         0.00000E+00
    0.72641E-07         0.32815E-09         0.00000E+00
    0.72643E-07         0.33654E-09         0.00000E+00
    0.72645E-07         0.34360E-09         0.00000E+00
    0.72647E-07         0.34939E-09         0.00000E+00
    0.72649E-07         0.35395E-09         0.00000E+00
    0.72650E-07         0.35735E-09         0.00000E+00
    0.72651E-07         0.35963E-09         0.00000E+00
    0.72652E-07         0.36083E-09         0.00000E+00
    0.72653E-07         0.36099E-09         0.00000E+00
    0.72653E-07         0.36014E-09         0.00000E+00
    0.72653E-07         0.35831E-09         0.00000E+00
    0.72654E-07         0.35552E-09         0.00000E+00
    0.72654E-07         0.35179E-09         0.00000E+00
    0.72654E-07         0.34713E-09         0.00000E+00
    0.72654E-07         0.34156E-09         0.00000E+00
    0.72654E-07         0.33508E-09         0.00000E+00
    0.72653E-07         0.32770E-09         0.00000E+00
    0.72653E-07         0.31940E-09         0.00000E+00
    0.72653E-07         0.31020E-09         0.00000E+00
    0.72653E-07         0.30007E-09         0.00000E+00
    0.72653E-07         0.28901E-09         0.00000E+00
    0.72653E-07         0.27701E-09         0.00000E+00
    0.72654E-07         0.26404E-09         0.00000E+00
    0.72654E-07         0.25008E-09         0.00000E+00
    0.72654E-07         0.23513E-09         0.00000E+00
    0.72655E-07         0.21915E-09         0.00000E+00
    0.72655E-07         0.20213E-09         0.00000E+00
    0.72656E-07         0.18405E-09         0.00000E+00
    0.72657E-07         0.16489E-09         0.00000E+00
    0.72657E-07         0.14463E-09         0.00000E+00
    0.72658E-07         0.12327E-09         0.00000E+00
    0.72659E-07         0.10081E-09         0.00000E+00
    0.72659E-07         0.77236E-10         0.00000E+00
    0.72660E-07         0.52558E-10         0.00000E+00
    0.72660E-07         0.26791E-10         0.00000E+00
    0.72660E-07         0.13637E-10         0.00000E+00
    0.69731E-07         0.15126E-10         0.00000E+00
    0.69732E-07         0.29801E-10         0.00000E+00
    0.69734E-07         0.58502E-10         0.00000E+00
    0.69736E-07         0.85881E-10         0.00000E+00
    0.69739E-07         0.11189E-09         0.00000E+00
    0.69743E-07         0.13649E-09         0.00000E+00
    0.69748E-07         0.15966E-09         0.00000E+00
    0.69753E-07         0.18138E-09         0.00000E+00
    0.69758E-07         0.20165E-09         0.00000E+00
    0.69764E-07         0.22047E-09         0.00000E+00
    0.69770E-07         0.23784E-09         0.00000E+00
    0.69776E-07         0.25380E-09         0.00000E+00
    0.69782E-07         0.26835E-09         0.00000E+00
    0.69788E-07         0.28152E-09         0.00000E+00
    0.69794E-07         0.29334E-09         0.00000E+00
    0.69801E-07         0.30384E-09         0.00000E+00
    0.69807E-07         0.31305E-09         0.00000E+00
    0.69813E-07         0.32101E-09         0.00000E+00
    0.69819E-07         0.32774E-09         0.00000E+00
    0.69824E-07         0.33327E-09         0.00000E+00
    0.69830E-07         0.33765E-09         0.00000E+00
    0.69835E-07         0.34088E-09         0.00000E+00
    0.69841E-07         0.34301E-09         0.00000E+00
    0.69846E-07         0.34406E-09         0.00000E+00
    0.69851E-07         0.34405E-09         0.00000E+00
    0.69856E-07         0.34299E-09         0.00000E+00
    0.69860E-07         0.34092E-09         0.00000E+00
    0.69865E-07         0.33784E-09         0.00000E+00
    0.69869E-07         0.33376E-09         0.00000E+00
    0.69874E-07         0.32870E-09         0.00000E+00
    0.69878E-07         0.32267E-09         0.00000E+00
    0.69882E-07         0.31567E-09         0.00000E+00
    0.69886E-07         0.30770E-09         0.00000E+00
    0.69889E-07         0.29878E-09         0.00000E+00
    0.69893E-07         0.28889E-09         0.00000E+00
    0.69897E-07         0.27804E-09         0.00000E+00
    0.69900E-07         0.26623E-09         0.00000E+00
    0.69903E-07         0.25346E-09         0.00000E+00
    0.69907E-07         0.23971E-09         0.00000E+00
    0.69910E-07         0.22500E-09         0.00000E+00
    0.69913E-07         0.20931E-09         0.00000E+00
    0.69915E-07         0.19265E-09         0.00000E+00
    0.69918E-07         0.17502E-09         0.00000E+00
    0.69920E-07         0.15642E-09         0.00000E+00
    0.69922E-07         0.13686E-09         0.00000E+00
    0.69924E-07         0.11634E-09         0.00000E+00
    0.69926E-07         0.94873E-10         0.00000E+00
    0.69927E-07         0.72482E-10         0.00000E+00
    0.69928E-07         0.49185E-10         0.00000E+00
    0.69929E-07         0.25008E-10         0.00000E+00
    0.69929E-07         0.12703E-10         0.00000E+00
    0.67035E-07         0.12276E-10         0.00000E+00
    0.67035E-07         0.24302E-10         0.00000E+00
    0.67037E-07         0.47975E-10         0.00000E+00
    0.67040E-07         0.70852E-10         0.00000E+00
    0.67043E-07         0.92865E-10         0.00000E+00
    0.67047E-07         0.11396E-09         0.00000E+00
    0.67052E-07         0.13408E-09         0.00000E+00
    0.67058E-07         0.15318E-09         0.00000E+00
    0.67064E-07         0.17124E-09         0.00000E+00
    0.67070E-07         0.18823E-09         0.00000E+00
    0.67077E-07         0.20412E-09         0.00000E+00
    0.67084E-07         0.21890E-09         0.00000E+00
    0.67091E-07         0.23257E-09         0.00000E+00
    0.67099E-07         0.24513E-09         0.00000E+00
    0.67107E-07         0.25656E-09         0.00000E+00
    0.67115E-07         0.26687E-09         0.00000E+00
    0.67123E-07         0.27607E-09         0.00000E+00
    0.67131E-07         0.28418E-09         0.00000E+00
    0.67139E-07         0.29118E-09         0.00000E+00
    0.67147E-07         0.29711E-09         0.00000E+00
    0.67155E-07         0.30196E-09         0.00000E+00
    0.67163E-07         0.30576E-09         0.00000E+00
    0.67170E-07         0.30851E-09         0.00000E+00
    0.67178E-07         0.31023E-09         0.00000E+00
    0.67186E-07         0.31093E-09         0.00000E+00
    0.67193E-07         0.31062E-09         0.00000E+00
    0.67200E-07         0.30932E-09         0.00000E+00
    0.67207E-07         0.30702E-09         0.00000E+00
    0.67214E-07         0.30375E-09         0.00000E+00
    0.67221E-07         0.29951E-09         0.00000E+00
    0.67228E-07         0.29430E-09         0.00000E+00
    0.67234E-07         0.28815E-09         0.00000E+00
    0.67241E-07         0.28104E-09         0.00000E+00
    0.67247E-07         0.27300E-09         0.00000E+00
    0.67252E-07         0.26402E-09         0.00000E+00
    0.67258E-07         0.25412E-09         0.00000E+00
    0.67263E-07         0.24329E-09         0.00000E+00
    0.67268E-07         0.23154E-09         0.00000E+00
    0.67273E-07         0.21888E-09         0.00000E+00
    0.67278E-07         0.20532E-09         0.00000E+00
    0.67282E-07         0.19087E-09         0.00000E+00
    0.67286E-07         0.17552E-09         0.00000E+00
    0.67290E-07         0.15930E-09         0.00000E+00
    0.67293E-07         0.14222E-09         0.00000E+00
    0.67296E-07         0.12429E-09         0.00000E+00
    0.67299E-07         0.10552E-09         0.00000E+00
    0.67301E-07         0.85943E-10         0.00000E+00
    0.67303E-07         0.65573E-10         0.00000E+00
    0.67304E-07         0.44437E-10         0.00000E+00
    0.67305E-07         0.22563E-10         0.00000E+00
    0.67305E-07         0.11444E-10         0.00000E+00
    0.64494E-07         0.95507E-11         0.00000E+00
    0.64494E-07         0.19000E-10         0.00000E+00
    0.64496E-07         0.37726E-10         0.00000E+00
    0.64498E-07         0.56062E-10         0.00000E+00
    0.64501E-07         0.73931E-10         0.00000E+00
    0.64505E-07         0.91264E-10         0.00000E+00
    0.64510E-07         0.10800E-09         0.00000E+00
    0.64515E-07         0.12408E-09         0.00000E+00
    0.64521E-07         0.13946E-09         0.00000E+00
    0.64528E-07         0.15409E-09         0.00000E+00
    0.64535E-07         0.16794E-09         0.00000E+00
    0.64542E-07         0.18097E-09         0.00000E+00
    0.64550E-07         0.19316E-09         0.00000E+00
    0.64558E-07         0.20449E-09         0.00000E+00
    0.64566E-07         0.21494E-09         0.00000E+00
    0.64575E-07         0.22449E-09         0.00000E+00
    0.64583E-07         0.23313E-09         0.00000E+00
    0.64592E-07         0.24086E-09         0.00000E+00
    0.64601E-07         0.24766E-09         0.00000E+00
    0.64610E-07         0.25354E-09         0.00000E+00
    0.64619E-07         0.25849E-09         0.00000E+00
    0.64628E-07         0.26251E-09         0.00000E+00
    0.64637E-07         0.26560E-09         0.00000E+00
    0.64646E-07         0.26777E-09         0.00000E+00
    0.64654E-07         0.26901E-09         0.00000E+00
    0.64663E-07         0.26934E-09         0.00000E+00
    0.64671E-07         0.26875E-09         0.00000E+00
    0.64680E-07         0.26725E-09         0.00000E+00
    0.64688E-07         0.26485E-09         0.00000E+00
    0.64696E-07         0.26155E-09         0.00000E+00
    0.64704E-07         0.25735E-09         0.00000E+00
    0.64712E-07         0.25227E-09         0.00000E+00
    0.64719E-07         0.24631E-09         0.00000E+00
    0.64726E-07         0.23947E-09         0.00000E+00
    0.64733E-07         0.23177E-09         0.00000E+00
    0.64740E-07         0.22321E-09         0.00000E+00
    0.64746E-07         0.21380E-09         0.00000E+00
    0.64752E-07         0.20356E-09         0.00000E+00
    0.64758E-07         0.19248E-09         0.00000E+00
    0.64763E-07         0.18058E-09         0.00000E+00
    0.64768E-07         0.16787E-09         0.00000E+00
    0.64772E-07         0.15437E-09         0.00000E+00
    0.64777E-07         0.14009E-09         0.00000E+00
    0.64780E-07         0.12504E-09         0.00000E+00
    0.64784E-07         0.10925E-09         0.00000E+00
    0.64787E-07         0.92723E-10         0.00000E+00
    0.64789E-07         0.75494E-10         0.00000E+00
    0.64791E-07         0.57580E-10         0.00000E+00
    0.64792E-07         0.39006E-10         0.00000E+00
    0.64793E-07         0.19798E-10         0.00000E+00
    0.64793E-07         0.10039E-10         0.00000E+00
    0.62095E-07         0.70609E-11         0.00000E+00
    0.62096E-07         0.14134E-10         0.00000E+00
    0.62097E-07         0.28260E-10         0.00000E+00
    0.62099E-07         0.42306E-10         0.00000E+00
    0.62102E-07         0.56193E-10         0.00000E+00
    0.62106E-07         0.69847E-10         0.00000E+00
    0.62110E-07         0.83200E-10         0.00000E+00
    0.62115E-07         0.96191E-10         0.00000E+00
    0.62121E-07         0.10876E-09         0.00000E+00
    0.62127E-07         0.12086E-09         0.00000E+00
    0.62134E-07         0.13245E-09         0.00000E+00
    0.62141E-07         0.14347E-09         0.00000E+00
    0.62148E-07         0.15391E-09         0.00000E+00
    0.62156E-07         0.16371E-09         0.00000E+00
    0.62164E-07         0.17285E-09         0.00000E+00
    0.62173E-07         0.18132E-09         0.00000E+00
    0.62181E-07         0.18907E-09         0.00000E+00
    0.62190E-07         0.19611E-09         0.00000E+00
    0.62199E-07         0.20240E-09         0.00000E+00
    0.62208E-07         0.20794E-09         0.00000E+00
    0.62217E-07         0.21271E-09         0.00000E+00
    0.62226E-07         0.21670E-09         0.00000E+00
    0.62235E-07         0.21991E-09         0.00000E+00
    0.62244E-07         0.22233E-09         0.00000E+00
    0.62253E-07         0.22396E-09         0.00000E+00
    0.62262E-07         0.22479E-09         0.00000E+00
    0.62271E-07         0.22483E-09         0.00000E+00
    0.62279E-07         0.22406E-09         0.00000E+00
    0.62288E-07         0.22250E-09         0.00000E+00
    0.62296E-07         0.22014E-09         0.00000E+00
    0.62304E-07         0.21699E-09         0.00000E+00
    0.62312E-07         0.21304E-09         0.00000E+00
    0.62320E-07         0.20832E-09         0.00000E+00
    0.62327E-07         0.20281E-09         0.00000E+00
    0.62335E-07         0.19653E-09         0.00000E+00
    0.62342E-07         0.18949E-09         0.00000E+00
    0.62348E-07         0.18169E-09         0.00000E+00
    0.62354E-07         0.17314E-09         0.00000E+00
    0.62360E-07         0.16385E-09         0.00000E+00
    0.62366E-07         0.15383E-09         0.00000E+00
    0.62371E-07         0.14310E-09         0.00000E+00
    0.62376E-07         0.13167E-09         0.00000E+00
    0.62380E-07         0.11955E-09         0.00000E+00
    0.62384E-07         0.10676E-09         0.00000E+00
    0.62387E-07         0.93312E-10         0.00000E+00
    0.62390E-07         0.79230E-10         0.00000E+00
    0.62393E-07         0.64530E-10         0.00000E+00
    0.62395E-07         0.49233E-10         0.00000E+00
    0.62396E-07         0.33362E-10         0.00000E+00
    0.62397E-07         0.16938E-10         0.00000E+00
    0.62397E-07         0.85909E-11         0.00000E+00
    0.59830E-07         0.48648E-11         0.00000E+00
    0.59830E-07         0.98235E-11         0.00000E+00
    0.59831E-07         0.19837E-10         0.00000E+00
    0.59833E-07         0.30003E-10         0.00000E+00
    0.59836E-07         0.40243E-10         0.00000E+00
    0.59839E-07         0.50485E-10         0.00000E+00
    0.59843E-07         0.60659E-10         0.00000E+00
    0.59848E-07         0.70703E-10         0.00000E+00
    0.59853E-07         0.80558E-10         0.00000E+00
    0.59859E-07         0.90169E-10         0.00000E+00
    0.59865E-07         0.99487E-10         0.00000E+00
    0.59871E-07         0.10846E-09         0.00000E+00
    0.59878E-07         0.11706E-09         0.00000E+00
    0.59885E-07         0.12524E-09         0.00000E+00
    0.59892E-07         0.13295E-09         0.00000E+00
    0.59900E-07         0.14019E-09         0.00000E+00
    0.59908E-07         0.14690E-09         0.00000E+00
    0.59916E-07         0.15307E-09         0.00000E+00
    0.59925E-07         0.15868E-09         0.00000E+00
    0.59933E-07         0.16370E-09         0.00000E+00
    0.59942E-07         0.16812E-09         0.00000E+00
    0.59950E-07         0.17192E-09         0.00000E+00
    0.59959E-07         0.17509E-09         0.00000E+00
    0.59968E-07         0.17761E-09         0.00000E+00
    0.59976E-07         0.17948E-09         0.00000E+00
    0.59985E-07         0.18069E-09         0.00000E+00
    0.59993E-07         0.18123E-09         0.00000E+00
    0.60002E-07         0.18110E-09         0.00000E+00
    0.60010E-07         0.18029E-09         0.00000E+00
    0.60018E-07         0.17881E-09         0.00000E+00
    0.60026E-07         0.17664E-09         0.00000E+00
    0.60034E-07         0.17380E-09         0.00000E+00
    0.60041E-07         0.17028E-09         0.00000E+00
    0.60049E-07         0.16609E-09         0.00000E+00
    0.60056E-07         0.16123E-09         0.00000E+00
    0.60063E-07         0.15571E-09         0.00000E+00
    0.60069E-07         0.14953E-09         0.00000E+00
    0.60075E-07         0.14270E-09         0.00000E+00
    0.60081E-07         0.13523E-09         0.00000E+00
    0.60086E-07         0.12713E-09         0.00000E+00
    0.60091E-07         0.11840E-09         0.00000E+00
    0.60096E-07         0.10907E-09         0.00000E+00
    0.60100E-07         0.99137E-10         0.00000E+00
    0.60104E-07         0.88621E-10         0.00000E+00
    0.60107E-07         0.77536E-10         0.00000E+00
    0.60110E-07         0.65897E-10         0.00000E+00
    0.60112E-07         0.53720E-10         0.00000E+00
    0.60114E-07         0.41022E-10         0.00000E+00
    0.60115E-07         0.27821E-10         0.00000E+00
    0.60116E-07         0.14137E-10         0.00000E+00
    0.60117E-07         0.71760E-11         0.00000E+00
    0.57689E-07         0.29806E-11         0.00000E+00
    0.57689E-07         0.61137E-11         0.00000E+00
    0.57690E-07         0.12559E-10         0.00000E+00
    0.57692E-07         0.19327E-10         0.00000E+00
    0.57694E-07         0.26342E-10         0.00000E+00
    0.57697E-07         0.33535E-10         0.00000E+00
    0.57700E-07         0.40842E-10         0.00000E+00
    0.57704E-07         0.48199E-10         0.00000E+00
    0.57708E-07         0.55550E-10         0.00000E+00
    0.57713E-07         0.62840E-10         0.00000E+00
    0.57719E-07         0.70018E-10         0.00000E+00
    0.57724E-07         0.77038E-10         0.00000E+00
    0.57730E-07         0.83854E-10         0.00000E+00
    0.57737E-07         0.90427E-10         0.00000E+00
    0.57744E-07         0.96718E-10         0.00000E+00
    0.57750E-07         0.10269E-09         0.00000E+00
    0.57758E-07         0.10832E-09         0.00000E+00
    0.57765E-07         0.11357E-09         0.00000E+00
    0.57773E-07         0.11842E-09         0.00000E+00
    0.57780E-07         0.12284E-09         0.00000E+00
    0.57788E-07         0.12681E-09         0.00000E+00
    0.57796E-07         0.13031E-09         0.00000E+00
    0.57804E-07         0.13332E-09         0.00000E+00
    0.57812E-07         0.13584E-09         0.00000E+00
    0.57820E-07         0.13783E-09         0.00000E+00
    0.57828E-07         0.13930E-09         0.00000E+00
    0.57835E-07         0.14024E-09         0.00000E+00
    0.57843E-07         0.14063E-09         0.00000E+00
    0.57851E-07         0.14046E-09         0.00000E+00
    0.57858E-07         0.13975E-09         0.00000E+00
    0.57866E-07         0.13847E-09         0.00000E+00
    0.57873E-07         0.13662E-09         0.00000E+00
    0.57880E-07         0.13422E-09         0.00000E+00
    0.57887E-07         0.13125E-09         0.00000E+00
    0.57893E-07         0.12772E-09         0.00000E+00
    0.57900E-07         0.12363E-09         0.00000E+00
    0.57906E-07         0.11898E-09         0.00000E+00
    0.57911E-07         0.11378E-09         0.00000E+00
    0.57917E-07         0.10804E-09         0.00000E+00
    0.57922E-07         0.10176E-09         0.00000E+00
    0.57926E-07         0.94946E-10         0.00000E+00
    0.57931E-07         0.87613E-10         0.00000E+00
    0.57935E-07         0.79768E-10         0.00000E+00
    0.57938E-07         0.71421E-10         0.00000E+00
    0.57941E-07         0.62584E-10         0.00000E+00
    0.57944E-07         0.53270E-10         0.00000E+00
    0.57946E-07         0.43489E-10         0.00000E+00
    0.57948E-07         0.33257E-10         0.00000E+00
    0.57949E-07         0.22586E-10         0.00000E+00
    0.57950E-07         0.11492E-10         0.00000E+00
    0.57950E-07         0.58409E-11         0.00000E+00
    0.55663E-07         0.14025E-11         0.00000E+00
    0.55664E-07         0.29973E-11         0.00000E+00
    0.55665E-07         0.64245E-11         0.00000E+00
    0.55666E-07         0.10292E-10         0.00000E+00
    0.55668E-07         0.14533E-10         0.00000E+00
    0.55670E-07         0.19083E-10         0.00000E+00
    0.55673E-07         0.23881E-10         0.00000E+00
    0.55676E-07         0.28868E-10         0.00000E+00
    0.55680E-07         0.33990E-10         0.00000E+00
    0.55684E-07         0.39194E-10         0.00000E+00
    0.55689E-07         0.44433E-10         0.00000E+00
    0.55694E-07         0.49659E-10         0.00000E+00
    0.55699E-07         0.54829E-10         0.00000E+00
    0.55705E-07         0.59903E-10         0.00000E+00
    0.55710E-07         0.64843E-10         0.00000E+00
    0.55716E-07         0.69613E-10         0.00000E+00
    0.55723E-07         0.74180E-10         0.00000E+00
    0.55729E-07         0.78515E-10         0.00000E+00
    0.55736E-07         0.82588E-10         0.00000E+00
    0.55743E-07         0.86374E-10         0.00000E+00
    0.55749E-07         0.89849E-10         0.00000E+00
    0.55756E-07         0.92992E-10         0.00000E+00
    0.55763E-07         0.95783E-10         0.00000E+00
    0.55770E-07         0.98204E-10         0.00000E+00
    0.55778E-07         0.10024E-09         0.00000E+00
    0.55785E-07         0.10187E-09         0.00000E+00
    0.55792E-07         0.10310E-09         0.00000E+00
    0.55799E-07         0.10390E-09         0.00000E+00
    0.55805E-07         0.10426E-09         0.00000E+00
    0.55812E-07         0.10419E-09         0.00000E+00
    0.55819E-07         0.10367E-09         0.00000E+00
    0.55825E-07         0.10270E-09         0.00000E+00
    0.55832E-07         0.10127E-09         0.00000E+00
    0.55838E-07         0.99384E-10         0.00000E+00
    0.55844E-07         0.97040E-10         0.00000E+00
    0.55849E-07         0.94237E-10         0.00000E+00
    0.55855E-07         0.90975E-10         0.00000E+00
    0.55860E-07         0.87258E-10         0.00000E+00
    0.55865E-07         0.83089E-10         0.00000E+00
    0.55869E-07         0.78470E-10         0.00000E+00
    0.55874E-07         0.73408E-10         0.00000E+00
    0.55878E-07         0.67907E-10         0.00000E+00
    0.55881E-07         0.61975E-10         0.00000E+00
    0.55884E-07         0.55619E-10         0.00000E+00
    0.55887E-07         0.48846E-10         0.00000E+00
    0.55890E-07         0.41666E-10         0.00000E+00
    0.55892E-07         0.34088E-10         0.00000E+00
    0.55893E-07         0.26121E-10         0.00000E+00
    0.55894E-07         0.17775E-10         0.00000E+00
    0.55895E-07         0.90614E-11         0.00000E+00
    0.55895E-07         0.46139E-11         0.00000E+00
    0.53747E-07         0.10950E-12         0.00000E+00
    0.53748E-07         0.43661E-12         0.00000E+00
    0.53748E-07         0.13665E-11         0.00000E+00
    0.53750E-07         0.28167E-11         0.00000E+00
    0.53751E-07         0.47265E-11         0.00000E+00
    0.53753E-07         0.70377E-11         0.00000E+00
    0.53755E-07         0.96946E-11         0.00000E+00
    0.53758E-07         0.12644E-10         0.00000E+00
    0.53761E-07         0.15835E-10         0.00000E+00
    0.53765E-07         0.19219E-10         0.00000E+00
    0.53769E-07         0.22750E-10         0.00000E+00
    0.53773E-07         0.26384E-10         0.00000E+00
    0.53777E-07         0.30081E-10         0.00000E+00
    0.53782E-07         0.33802E-10         0.00000E+00
    0.53787E-07         0.37508E-10         0.00000E+00
    0.53792E-07         0.41167E-10         0.00000E+00
    0.53797E-07         0.44745E-10         0.00000E+00
    0.53803E-07         0.48212E-10         0.00000E+00
    0.53808E-07         0.51539E-10         0.00000E+00
    0.53814E-07         0.54702E-10         0.00000E+00
    0.53820E-07         0.57674E-10         0.00000E+00
    0.53826E-07         0.60433E-10         0.00000E+00
    0.53832E-07         0.62959E-10         0.00000E+00
    0.53838E-07         0.65233E-10         0.00000E+00
    0.53845E-07         0.67237E-10         0.00000E+00
    0.53851E-07         0.68956E-10         0.00000E+00
    0.53857E-07         0.70375E-10         0.00000E+00
    0.53863E-07         0.71482E-10         0.00000E+00
    0.53869E-07         0.72265E-10         0.00000E+00
    0.53875E-07         0.72715E-10         0.00000E+00
    0.53881E-07         0.72824E-10         0.00000E+00
    0.53886E-07         0.72583E-10         0.00000E+00
    0.53892E-07         0.71989E-10         0.00000E+00
    0.53897E-07         0.71035E-10         0.00000E+00
    0.53902E-07         0.69718E-10         0.00000E+00
    0.53907E-07         0.68035E-10         0.00000E+00
    0.53912E-07         0.65986E-10         0.00000E+00
    0.53917E-07         0.63570E-10         0.00000E+00
    0.53921E-07         0.60787E-10         0.00000E+00
    0.53925E-07         0.57638E-10         0.00000E+00
    0.53929E-07         0.54126E-10         0.00000E+00
    0.53932E-07         0.50254E-10         0.00000E+00
    0.53936E-07         0.46026E-10         0.00000E+00
    0.53938E-07         0.41445E-10         0.00000E+00
    0.53941E-07         0.36516E-10         0.00000E+00
    0.53943E-07         0.31246E-10         0.00000E+00
    0.53945E-07         0.25640E-10         0.00000E+00
    0.53946E-07         0.19705E-10         0.00000E+00
    0.53947E-07         0.13447E-10         0.00000E+00
    0.53948E-07         0.68736E-11         0.00000E+00
    0.53948E-07         0.35088E-11         0.00000E+00
    0.51935E-07        -0.92752E-12         0.00000E+00
    0.51935E-07        -0.16232E-11         0.00000E+00
    0.51935E-07        -0.27161E-11         0.00000E+00
    0.51936E-07        -0.32396E-11         0.00000E+00
    0.51937E-07        -0.32475E-11         0.00000E+00
    0.51939E-07        -0.27916E-11         0.00000E+00
    0.51941E-07        -0.19219E-11         0.00000E+00
    0.51943E-07        -0.68638E-12         0.00000E+00
    0.51946E-07         0.86875E-12         0.00000E+00
    0.51949E-07         0.26994E-11         0.00000E+00
    0.51952E-07         0.47632E-11         0.00000E+00
    0.51955E-07         0.70200E-11         0.00000E+00
    0.51959E-07         0.94313E-11         0.00000E+00
    0.51963E-07         0.11960E-10         0.00000E+00
    0.51967E-07         0.14573E-10         0.00000E+00
    0.51971E-07         0.17236E-10         0.00000E+00
    0.51976E-07         0.19918E-10         0.00000E+00
    0.51980E-07         0.22590E-10         0.00000E+00
    0.51985E-07         0.25225E-10         0.00000E+00
    0.51990E-07         0.27796E-10         0.00000E+00
    0.51995E-07         0.30280E-10         0.00000E+00
    0.52000E-07         0.32654E-10         0.00000E+00
    0.52005E-07         0.34896E-10         0.00000E+00
    0.52010E-07         0.36988E-10         0.00000E+00
    0.52015E-07         0.38911E-10         0.00000E+00
    0.52021E-07         0.40650E-10         0.00000E+00
    0.52026E-07         0.42188E-10         0.00000E+00
    0.52031E-07         0.43512E-10         0.00000E+00
    0.52036E-07         0.44610E-10         0.00000E+00
    0.52041E-07         0.45470E-10         0.00000E+00
    0.52046E-07         0.46083E-10         0.00000E+00
    0.52051E-07         0.46440E-10         0.00000E+00
    0.52056E-07         0.46533E-10         0.00000E+00
    0.52061E-07         0.46356E-10         0.00000E+00
    0.52065E-07         0.45903E-10         0.00000E+00
    0.52069E-07         0.45170E-10         0.00000E+00
    0.52074E-07         0.44153E-10         0.00000E+00
    0.52077E-07         0.42850E-10         0.00000E+00
    0.52081E-07         0.41258E-10         0.00000E+00
    0.52085E-07         0.39378E-10         0.00000E+00
    0.52088E-07         0.37208E-10         0.00000E+00
    0.52091E-07         0.34750E-10         0.00000E+00
    0.52094E-07         0.32004E-10         0.00000E+00
    0.52096E-07         0.28972E-10         0.00000E+00
    0.52098E-07         0.25656E-10         0.00000E+00
    0.52100E-07         0.22060E-10         0.00000E+00
    0.52102E-07         0.18186E-10         0.00000E+00
    0.52103E-07         0.14038E-10         0.00000E+00
    0.52104E-07         0.96207E-11         0.00000E+00
    0.52105E-07         0.49374E-11         0.00000E+00
    0.52105E-07         0.25299E-11         0.00000E+00
    0.50219E-07        -0.17411E-11         0.00000E+00
    0.50219E-07        -0.32443E-11         0.00000E+00
    0.50219E-07        -0.59412E-11         0.00000E+00
    0.50220E-07        -0.80429E-11         0.00000E+00
    0.50221E-07        -0.95963E-11         0.00000E+00
    0.50222E-07        -0.10647E-10         0.00000E+00
    0.50224E-07        -0.11240E-10         0.00000E+00
    0.50226E-07        -0.11417E-10         0.00000E+00
    0.50228E-07        -0.11220E-10         0.00000E+00
    0.50230E-07        -0.10688E-10         0.00000E+00
    0.50233E-07        -0.98600E-11         0.00000E+00
    0.50235E-07        -0.87720E-11         0.00000E+00
    0.50238E-07        -0.74594E-11         0.00000E+00
    0.50241E-07        -0.59558E-11         0.00000E+00
    0.50245E-07        -0.42933E-11         0.00000E+00
    0.50248E-07        -0.25025E-11         0.00000E+00
    0.50252E-07        -0.61248E-12         0.00000E+00
    0.50256E-07         0.13491E-11         0.00000E+00
    0.50260E-07         0.33562E-11         0.00000E+00
    0.50264E-07         0.53838E-11         0.00000E+00
    0.50268E-07         0.74088E-11         0.00000E+00
    0.50272E-07         0.94092E-11         0.00000E+00
    0.50276E-07         0.11364E-10         0.00000E+00
    0.50281E-07         0.13255E-10         0.00000E+00
    0.50285E-07         0.15063E-10         0.00000E+00
    0.50289E-07         0.16772E-10         0.00000E+00
    0.50294E-07         0.18367E-10         0.00000E+00
    0.50298E-07         0.19832E-10         0.00000E+00
    0.50302E-07         0.21156E-10         0.00000E+00
    0.50307E-07         0.22325E-10         0.00000E+00
    0.50311E-07         0.23329E-10         0.00000E+00
    0.50315E-07         0.24159E-10         0.00000E+00
    0.50319E-07         0.24805E-10         0.00000E+00
    0.50323E-07         0.25260E-10         0.00000E+00
    0.50327E-07         0.25516E-10         0.00000E+00
    0.50330E-07         0.25569E-10         0.00000E+00
    0.50334E-07         0.25411E-10         0.00000E+00
    0.50337E-07         0.25040E-10         0.00000E+00
    0.50341E-07         0.24451E-10         0.00000E+00
    0.50344E-07         0.23642E-10         0.00000E+00
    0.50346E-07         0.22611E-10         0.00000E+00
    0.50349E-07         0.21355E-10         0.00000E+00
    0.50351E-07         0.19875E-10         0.00000E+00
    0.50353E-07         0.18170E-10         0.00000E+00
    0.50355E-07         0.16240E-10         0.00000E+00
    0.50357E-07         0.14085E-10         0.00000E+00
    0.50358E-07         0.11707E-10         0.00000E+00
    0.50359E-07         0.91073E-11         0.00000E+00
    0.50360E-07         0.62871E-11         0.00000E+00
    0.50361E-07         0.32486E-11         0.00000E+00
    0.50361E-07         0.16751E-11         0.00000E+00
    0.48595E-07        -0.23638E-11         0.00000E+00
    0.48596E-07        -0.44898E-11         0.00000E+00
    0.48596E-07        -0.84297E-11         0.00000E+00
    0.48596E-07        -0.11766E-10         0.00000E+00
    0.48597E-07        -0.14539E-10         0.00000E+00
    0.48598E-07        -0.16789E-10         0.00000E+00
    0.48599E-07        -0.18555E-10         0.00000E+00
    0.48601E-07        -0.19874E-10         0.00000E+00
    0.48602E-07        -0.20784E-10         0.00000E+00
    0.48604E-07        -0.21318E-10         0.00000E+00
    0.48606E-07        -0.21511E-10         0.00000E+00
    0.48608E-07        -0.21396E-10         0.00000E+00
    0.48611E-07        -0.21006E-10         0.00000E+00
    0.48613E-07        -0.20369E-10         0.00000E+00
    0.48616E-07        -0.19516E-10         0.00000E+00
    0.48619E-07        -0.18475E-10         0.00000E+00
    0.48621E-07        -0.17273E-10         0.00000E+00
    0.48625E-07        -0.15934E-10         0.00000E+00
    0.48628E-07        -0.14484E-10         0.00000E+00
    0.48631E-07        -0.12946E-10         0.00000E+00
    0.48634E-07        -0.11342E-10         0.00000E+00
    0.48638E-07        -0.96921E-11         0.00000E+00
    0.48641E-07        -0.80171E-11         0.00000E+00
    0.48645E-07        -0.63354E-11         0.00000E+00
    0.48648E-07        -0.46643E-11         0.00000E+00
    0.48652E-07        -0.30205E-11         0.00000E+00
    0.48655E-07        -0.14192E-11         0.00000E+00
    0.48659E-07         0.12522E-12         0.00000E+00
    0.48663E-07         0.15993E-11         0.00000E+00
    0.48666E-07         0.29908E-11         0.00000E+00
    0.48670E-07         0.42883E-11         0.00000E+00
    0.48673E-07         0.54812E-11         0.00000E+00
    0.48677E-07         0.65600E-11         0.00000E+00
    0.48680E-07         0.75159E-11         0.00000E+00
    0.48683E-07         0.83411E-11         0.00000E+00
    0.48686E-07         0.90284E-11         0.00000E+00
    0.48689E-07         0.95714E-11         0.00000E+00
    0.48692E-07         0.99647E-11         0.00000E+00
    0.48695E-07         0.10203E-10         0.00000E+00
    0.48697E-07         0.10283E-10         0.00000E+00
    0.48700E-07         0.10200E-10         0.00000E+00
    0.48702E-07         0.99510E-11         0.00000E+00
    0.48704E-07         0.95340E-11         0.00000E+00
    0.48706E-07         0.89470E-11         0.00000E+00
    0.48707E-07         0.81882E-11         0.00000E+00
    0.48708E-07         0.72567E-11         0.00000E+00
    0.48710E-07         0.61517E-11         0.00000E+00
    0.48711E-07         0.48730E-11         0.00000E+00
    0.48711E-07         0.34204E-11         0.00000E+00
    0.48712E-07         0.17944E-11         0.00000E+00
    0.48712E-07         0.93797E-12         0.00000E+00
    0.47059E-07        -0.28266E-11         0.00000E+00
    0.47059E-07        -0.54197E-11         0.00000E+00
    0.47060E-07        -0.10297E-10         0.00000E+00
    0.47060E-07        -0.14575E-10         0.00000E+00
    0.47061E-07        -0.18289E-10         0.00000E+00
    0.47061E-07        -0.21473E-10         0.00000E+00
    0.47062E-07        -0.24160E-10         0.00000E+00
    0.47063E-07        -0.26385E-10         0.00000E+00
    0.47065E-07        -0.28178E-10         0.00000E+00
    0.47066E-07        -0.29571E-10         0.00000E+00
    0.47067E-07        -0.30593E-10         0.00000E+00
    0.47069E-07        -0.31275E-10         0.00000E+00
    0.47071E-07        -0.31645E-10         0.00000E+00
    0.47073E-07        -0.31730E-10         0.00000E+00
    0.47075E-07        -0.31556E-10         0.00000E+00
    0.47077E-07        -0.31148E-10         0.00000E+00
    0.47079E-07        -0.30532E-10         0.00000E+00
    0.47082E-07        -0.29731E-10         0.00000E+00
    0.47084E-07        -0.28767E-10         0.00000E+00
    0.47087E-07        -0.27662E-10         0.00000E+00
    0.47090E-07        -0.26436E-10         0.00000E+00
    0.47092E-07        -0.25110E-10         0.00000E+00
    0.47095E-07        -0.23701E-10         0.00000E+00
    0.47098E-07        -0.22227E-10         0.00000E+00
    0.47101E-07        -0.20705E-10         0.00000E+00
    0.47104E-07        -0.19151E-10         0.00000E+00
    0.47107E-07        -0.17580E-10         0.00000E+00
    0.47110E-07        -0.16007E-10         0.00000E+00
    0.47112E-07        -0.14443E-10         0.00000E+00
    0.47115E-07        -0.12902E-10         0.00000E+00
    0.47118E-07        -0.11395E-10         0.00000E+00
    0.47121E-07        -0.99333E-11         0.00000E+00
    0.47124E-07        -0.85263E-11         0.00000E+00
    0.47127E-07        -0.71834E-11         0.00000E+00
    0.47129E-07        -0.59132E-11         0.00000E+00
    0.47132E-07        -0.47234E-11         0.00000E+00
    0.47134E-07        -0.36211E-11         0.00000E+00
    0.47136E-07        -0.26128E-11         0.00000E+00
    0.47139E-07        -0.17044E-11         0.00000E+00
    0.47141E-07        -0.90110E-12         0.00000E+00
    0.47143E-07        -0.20761E-12         0.00000E+00
    0.47145E-07         0.37190E-12         0.00000E+00
    0.47146E-07         0.83379E-12         0.00000E+00
    0.47148E-07         0.11748E-11         0.00000E+00
    0.47149E-07         0.13923E-11         0.00000E+00
    0.47150E-07         0.14839E-11         0.00000E+00
    0.47151E-07         0.14477E-11         0.00000E+00
    0.47152E-07         0.12819E-11         0.00000E+00
    0.47153E-07         0.98540E-12         0.00000E+00
    0.47153E-07         0.55712E-12         0.00000E+00
    0.47153E-07         0.30992E-12         0.00000E+00
    0.45606E-07        -0.31574E-11         0.00000E+00
    0.45606E-07        -0.60885E-11         0.00000E+00
    0.45607E-07        -0.11650E-10         0.00000E+00
    0.45607E-07        -0.16625E-10         0.00000E+00
    0.45607E-07        -0.21043E-10         0.00000E+00
    0.45608E-07        -0.24935E-10         0.00000E+00
    0.45608E-07        -0.28330E-10         0.00000E+00
    0.45609E-07        -0.31256E-10         0.00000E+00
    0.45610E-07        -0.33740E-10         0.00000E+00
    0.45611E-07        -0.35811E-10         0.00000E+00
    0.45612E-07        -0.37495E-10         0.00000E+00
    0.45613E-07        -0.38817E-10         0.00000E+00
    0.45615E-07        -0.39803E-10         0.00000E+00
    0.45616E-07        -0.40478E-10         0.00000E+00
    0.45618E-07        -0.40864E-10         0.00000E+00
    0.45620E-07        -0.40984E-10         0.00000E+00
    0.45621E-07        -0.40862E-10         0.00000E+00
    0.45623E-07        -0.40517E-10         0.00000E+00
    0.45625E-07        -0.39971E-10         0.00000E+00
    0.45627E-07        -0.39244E-10         0.00000E+00
    0.45629E-07        -0.38353E-10         0.00000E+00
    0.45631E-07        -0.37318E-10         0.00000E+00
    0.45634E-07        -0.36156E-10         0.00000E+00
    0.45636E-07        -0.34883E-10         0.00000E+00
    0.45638E-07        -0.33515E-10         0.00000E+00
    0.45640E-07        -0.32067E-10         0.00000E+00
    0.45643E-07        -0.30554E-10         0.00000E+00
    0.45645E-07        -0.28988E-10         0.00000E+00
    0.45647E-07        -0.27384E-10         0.00000E+00
    0.45650E-07        -0.25753E-10         0.00000E+00
    0.45652E-07        -0.24106E-10         0.00000E+00
    0.45654E-07        -0.22454E-10         0.00000E+00
    0.45656E-07        -0.20807E-10         0.00000E+00
    0.45659E-07        -0.19175E-10         0.00000E+00
    0.45661E-07        -0.17566E-10         0.00000E+00
    0.45663E-07        -0.15988E-10         0.00000E+00
    0.45665E-07        -0.14449E-10         0.00000E+00
    0.45667E-07        -0.12957E-10         0.00000E+00
    0.45669E-07        -0.11516E-10         0.00000E+00
    0.45670E-07        -0.10134E-10         0.00000E+00
    0.45672E-07        -0.88158E-11         0.00000E+00
    0.45673E-07        -0.75660E-11         0.00000E+00
    0.45675E-07        -0.63891E-11         0.00000E+00
    0.45676E-07        -0.52893E-11         0.00000E+00
    0.45677E-07        -0.42701E-11         0.00000E+00
    0.45678E-07        -0.33347E-11         0.00000E+00
    0.45679E-07        -0.24859E-11         0.00000E+00
    0.45680E-07        -0.17263E-11         0.00000E+00
    0.45680E-07        -0.10580E-11         0.00000E+00
    0.45680E-07        -0.48290E-12         0.00000E+00
    0.45680E-07        -0.21889E-12         0.00000E+00
    0.44232E-07        -0.33806E-11         0.00000E+00
    0.44232E-07        -0.65440E-11         0.00000E+00
    0.44232E-07        -0.12581E-10         0.00000E+00
    0.44233E-07        -0.18050E-10         0.00000E+00
    0.44233E-07        -0.22978E-10         0.00000E+00
    0.44233E-07        -0.27389E-10         0.00000E+00
    0.44234E-07        -0.31310E-10         0.00000E+00
    0.44234E-07        -0.34765E-10         0.00000E+00
    0.44235E-07        -0.37777E-10         0.00000E+00
    0.44236E-07        -0.40372E-10         0.00000E+00
    0.44237E-07        -0.42571E-10         0.00000E+00
    0.44237E-07        -0.44398E-10         0.00000E+00
    0.44238E-07        -0.45875E-10         0.00000E+00
    0.44240E-07        -0.47023E-10         0.00000E+00
    0.44241E-07        -0.47864E-10         0.00000E+00
    0.44242E-07        -0.48418E-10         0.00000E+00
    0.44243E-07        -0.48704E-10         0.00000E+00
    0.44245E-07        -0.48742E-10         0.00000E+00
    0.44246E-07        -0.48550E-10         0.00000E+00
    0.44248E-07        -0.48147E-10         0.00000E+00
    0.44249E-07        -0.47549E-10         0.00000E+00
    0.44251E-07        -0.46774E-10         0.00000E+00
    0.44253E-07        -0.45837E-10         0.00000E+00
    0.44254E-07        -0.44753E-10         0.00000E+00
    0.44256E-07        -0.43538E-10         0.00000E+00
    0.44258E-07        -0.42205E-10         0.00000E+00
    0.44260E-07        -0.40768E-10         0.00000E+00
    0.44261E-07        -0.39239E-10         0.00000E+00
    0.44263E-07        -0.37632E-10         0.00000E+00
    0.44265E-07        -0.35957E-10         0.00000E+00
    0.44267E-07        -0.34226E-10         0.00000E+00
    0.44269E-07        -0.32448E-10         0.00000E+00
    0.44270E-07        -0.30635E-10         0.00000E+00
    0.44272E-07        -0.28795E-10         0.00000E+00
    0.44274E-07        -0.26937E-10         0.00000E+00
    0.44275E-07        -0.25069E-10         0.00000E+00
    0.44277E-07        -0.23198E-10         0.00000E+00
    0.44279E-07        -0.21333E-10         0.00000E+00
    0.44280E-07        -0.19480E-10         0.00000E+00
    0.44281E-07        -0.17644E-10         0.00000E+00
    0.44283E-07        -0.15833E-10         0.00000E+00
    0.44284E-07        -0.14050E-10         0.00000E+00
    0.44285E-07        -0.12301E-10         0.00000E+00
    0.44286E-07        -0.10591E-10         0.00000E+00
    0.44287E-07        -0.89240E-11         0.00000E+00
    0.44288E-07        -0.73029E-11         0.00000E+00
    0.44288E-07        -0.57317E-11         0.00000E+00
    0.44289E-07        -0.42134E-11         0.00000E+00
    0.44289E-07        -0.27507E-11         0.00000E+00
    0.44290E-07        -0.13461E-11         0.00000E+00
    0.44290E-07        -0.65856E-12         0.00000E+00
    0.42934E-07        -0.35172E-11         0.00000E+00
    0.42934E-07        -0.68273E-11         0.00000E+00
    0.42934E-07        -0.13170E-10         0.00000E+00
    0.42934E-07        -0.18968E-10         0.00000E+00
    0.42934E-07        -0.24244E-10         0.00000E+00
    0.42934E-07        -0.29020E-10         0.00000E+00
    0.42935E-07        -0.33317E-10         0.00000E+00
    0.42935E-07        -0.37156E-10         0.00000E+00
    0.42935E-07        -0.40559E-10         0.00000E+00
    0.42936E-07        -0.43546E-10         0.00000E+00
    0.42937E-07        -0.46137E-10         0.00000E+00
    0.42937E-07        -0.48353E-10         0.00000E+00
    0.42938E-07        -0.50212E-10         0.00000E+00
    0.42939E-07        -0.51734E-10         0.00000E+00
    0.42939E-07        -0.52937E-10         0.00000E+00
    0.42940E-07        -0.53840E-10         0.00000E+00
    0.42941E-07        -0.54459E-10         0.00000E+00
    0.42942E-07        -0.54813E-10         0.00000E+00
    0.42943E-07        -0.54918E-10         0.00000E+00
    0.42944E-07        -0.54790E-10         0.00000E+00
    0.42946E-07        -0.54445E-10         0.00000E+00
    0.42947E-07        -0.53898E-10         0.00000E+00
    0.42948E-07        -0.53163E-10         0.00000E+00
    0.42949E-07        -0.52254E-10         0.00000E+00
    0.42951E-07        -0.51186E-10         0.00000E+00
    0.42952E-07        -0.49971E-10         0.00000E+00
    0.42953E-07        -0.48622E-10         0.00000E+00
    0.42955E-07        -0.47150E-10         0.00000E+00
    0.42956E-07        -0.45568E-10         0.00000E+00
    0.42958E-07        -0.43886E-10         0.00000E+00
    0.42959E-07        -0.42115E-10         0.00000E+00
    0.42960E-07        -0.40265E-10         0.00000E+00
    0.42962E-07        -0.38345E-10         0.00000E+00
    0.42963E-07        -0.36364E-10         0.00000E+00
    0.42964E-07        -0.34331E-10         0.00000E+00
    0.42966E-07        -0.32254E-10         0.00000E+00
    0.42967E-07        -0.30140E-10         0.00000E+00
    0.42968E-07        -0.27997E-10         0.00000E+00
    0.42969E-07        -0.25831E-10         0.00000E+00
    0.42970E-07        -0.23649E-10         0.00000E+00
    0.42971E-07        -0.21457E-10         0.00000E+00
    0.42972E-07        -0.19260E-10         0.00000E+00
    0.42973E-07        -0.17064E-10         0.00000E+00
    0.42974E-07        -0.14872E-10         0.00000E+00
    0.42975E-07        -0.12690E-10         0.00000E+00
    0.42975E-07        -0.10521E-10         0.00000E+00
    0.42976E-07        -0.83701E-11         0.00000E+00
    0.42976E-07        -0.62395E-11         0.00000E+00
    0.42977E-07        -0.41326E-11         0.00000E+00
    0.42977E-07        -0.20522E-11         0.00000E+00
    0.42977E-07        -0.10190E-11         0.00000E+00
    0.41707E-07        -0.35846E-11         0.00000E+00
    0.41707E-07        -0.69729E-11         0.00000E+00
    0.41707E-07        -0.13485E-10         0.00000E+00
    0.41707E-07        -0.19479E-10         0.00000E+00
    0.41707E-07        -0.24972E-10         0.00000E+00
    0.41708E-07        -0.29984E-10         0.00000E+00
    0.41708E-07        -0.34534E-10         0.00000E+00
    0.41708E-07        -0.38638E-10         0.00000E+00
    0.41708E-07        -0.42317E-10         0.00000E+00
    0.41708E-07        -0.45587E-10         0.00000E+00
    0.41709E-07        -0.48466E-10         0.00000E+00
    0.41709E-07        -0.50971E-10         0.00000E+00
    0.41710E-07        -0.53120E-10         0.00000E+00
    0.41710E-07        -0.54930E-10         0.00000E+00
    0.41711E-07        -0.56416E-10         0.00000E+00
    0.41711E-07        -0.57595E-10         0.00000E+00
    0.41712E-07        -0.58482E-10         0.00000E+00
    0.41713E-07        -0.59092E-10         0.00000E+00
    0.41713E-07        -0.59442E-10         0.00000E+00
    0.41714E-07        -0.59544E-10         0.00000E+00
    0.41715E-07        -0.59414E-10         0.00000E+00
    0.41716E-07        -0.59064E-10         0.00000E+00
    0.41717E-07        -0.58508E-10         0.00000E+00
    0.41718E-07        -0.57760E-10         0.00000E+00
    0.41718E-07        -0.56830E-10         0.00000E+00
    0.41719E-07        -0.55732E-10         0.00000E+00
    0.41720E-07        -0.54477E-10         0.00000E+00
    0.41721E-07        -0.53076E-10         0.00000E+00
    0.41722E-07        -0.51540E-10         0.00000E+00
    0.41724E-07        -0.49879E-10         0.00000E+00
    0.41725E-07        -0.48102E-10         0.00000E+00
    0.41726E-07        -0.46220E-10         0.00000E+00
    0.41727E-07        -0.44241E-10         0.00000E+00
    0.41728E-07        -0.42174E-10         0.00000E+00
    0.41729E-07        -0.40027E-10         0.00000E+00
    0.41730E-07        -0.37808E-10         0.00000E+00
    0.41731E-07        -0.35524E-10         0.00000E+00
    0.41732E-07        -0.33182E-10         0.00000E+00
    0.41732E-07        -0.30789E-10         0.00000E+00
    0.41733E-07        -0.28351E-10         0.00000E+00
    0.41734E-07        -0.25874E-10         0.00000E+00
    0.41735E-07        -0.23364E-10         0.00000E+00
    0.41736E-07        -0.20825E-10         0.00000E+00
    0.41736E-07        -0.18262E-10         0.00000E+00
    0.41737E-07        -0.15681E-10         0.00000E+00
    0.41737E-07        -0.13084E-10         0.00000E+00
    0.41738E-07        -0.10476E-10         0.00000E+00
    0.41738E-07        -0.78609E-11         0.00000E+00
    0.41738E-07        -0.52412E-11         0.00000E+00
    0.41738E-07        -0.26200E-11         0.00000E+00
    0.41738E-07        -0.13094E-11         0.00000E+00
    0.40550E-07        -0.35974E-11         0.00000E+00
    0.40550E-07        -0.70093E-11         0.00000E+00
    0.40550E-07        -0.13583E-10         0.00000E+00
    0.40550E-07        -0.19664E-10         0.00000E+00
    0.40550E-07        -0.25269E-10         0.00000E+00
    0.40550E-07        -0.30414E-10         0.00000E+00
    0.40550E-07        -0.35115E-10         0.00000E+00
    0.40550E-07        -0.39387E-10         0.00000E+00
    0.40550E-07        -0.43246E-10         0.00000E+00
    0.40550E-07        -0.46708E-10         0.00000E+00
    0.40550E-07        -0.49788E-10         0.00000E+00
    0.40550E-07        -0.52500E-10         0.00000E+00
    0.40551E-07        -0.54861E-10         0.00000E+00
    0.40551E-07        -0.56885E-10         0.00000E+00
    0.40551E-07        -0.58586E-10         0.00000E+00
    0.40552E-07        -0.59977E-10         0.00000E+00
    0.40552E-07        -0.61074E-10         0.00000E+00
    0.40552E-07        -0.61890E-10         0.00000E+00
    0.40553E-07        -0.62437E-10         0.00000E+00
    0.40553E-07        -0.62730E-10         0.00000E+00
    0.40554E-07        -0.62779E-10         0.00000E+00
    0.40554E-07        -0.62599E-10         0.00000E+00
    0.40555E-07        -0.62200E-10         0.00000E+00
    0.40556E-07        -0.61595E-10         0.00000E+00
    0.40556E-07        -0.60795E-10         0.00000E+00
    0.40557E-07        -0.59810E-10         0.00000E+00
    0.40558E-07        -0.58651E-10         0.00000E+00
    0.40558E-07        -0.57329E-10         0.00000E+00
    0.40559E-07        -0.55853E-10         0.00000E+00
    0.40560E-07        -0.54232E-10         0.00000E+00
    0.40560E-07        -0.52477E-10         0.00000E+00
    0.40561E-07        -0.50595E-10         0.00000E+00
    0.40562E-07        -0.48595E-10         0.00000E+00
    0.40563E-07        -0.46486E-10         0.00000E+00
    0.40563E-07        -0.44274E-10         0.00000E+00
    0.40564E-07        -0.41968E-10         0.00000E+00
    0.40565E-07        -0.39574E-10         0.00000E+00
    0.40565E-07        -0.37099E-10         0.00000E+00
    0.40566E-07        -0.34550E-10         0.00000E+00
    0.40567E-07        -0.31931E-10         0.00000E+00
    0.40567E-07        -0.29250E-10         0.00000E+00
    0.40568E-07        -0.26511E-10         0.00000E+00
    0.40568E-07        -0.23720E-10         0.00000E+00
    0.40569E-07        -0.20881E-10         0.00000E+00
    0.40569E-07        -0.17998E-10         0.00000E+00
    0.40570E-07        -0.15076E-10         0.00000E+00
    0.40570E-07        -0.12118E-10         0.00000E+00
    0.40570E-07        -0.91289E-11         0.00000E+00
    0.40571E-07        -0.61107E-11         0.00000E+00
    0.40571E-07        -0.30666E-11         0.00000E+00
    0.40571E-07        -0.15385E-11         0.00000E+00
    0.39458E-07        -0.35671E-11         0.00000E+00
    0.39458E-07        -0.69596E-11         0.00000E+00
    0.39458E-07        -0.13509E-10         0.00000E+00
    0.39458E-07        -0.19592E-10         0.00000E+00
    0.39458E-07        -0.25224E-10         0.00000E+00
    0.39458E-07        -0.30418E-10         0.00000E+00
    0.39458E-07        -0.35188E-10         0.00000E+00
    0.39458E-07        -0.39547E-10         0.00000E+00
    0.39458E-07        -0.43509E-10         0.00000E+00
    0.39458E-07        -0.47087E-10         0.00000E+00
    0.39458E-07        -0.50296E-10         0.00000E+00
    0.39458E-07        -0.53147E-10         0.00000E+00
    0.39458E-07        -0.55654E-10         0.00000E+00
    0.39458E-07        -0.57829E-10         0.00000E+00
    0.39458E-07        -0.59687E-10         0.00000E+00
    0.39458E-07        -0.61237E-10         0.00000E+00
    0.39458E-07        -0.62494E-10         0.00000E+00
    0.39459E-07        -0.63469E-10         0.00000E+00
    0.39459E-07        -0.64174E-10         0.00000E+00
    0.39459E-07        -0.64621E-10         0.00000E+00
    0.39459E-07        -0.64820E-10         0.00000E+00
    0.39460E-07        -0.64782E-10         0.00000E+00
    0.39460E-07        -0.64519E-10         0.00000E+00
    0.39460E-07        -0.64041E-10         0.00000E+00
    0.39461E-07        -0.63359E-10         0.00000E+00
    0.39461E-07        -0.62481E-10         0.00000E+00
    0.39462E-07        -0.61417E-10         0.00000E+00
    0.39462E-07        -0.60178E-10         0.00000E+00
    0.39462E-07        -0.58772E-10         0.00000E+00
    0.39463E-07        -0.57207E-10         0.00000E+00
    0.39463E-07        -0.55492E-10         0.00000E+00
    0.39464E-07        -0.53635E-10         0.00000E+00
    0.39464E-07        -0.51645E-10         0.00000E+00
    0.39465E-07        -0.49528E-10         0.00000E+00
    0.39465E-07        -0.47291E-10         0.00000E+00
    0.39466E-07        -0.44943E-10         0.00000E+00
    0.39466E-07        -0.42488E-10         0.00000E+00
    0.39467E-07        -0.39934E-10         0.00000E+00
    0.39467E-07        -0.37286E-10         0.00000E+00
    0.39468E-07        -0.34550E-10         0.00000E+00
    0.39468E-07        -0.31732E-10         0.00000E+00
    0.39469E-07        -0.28837E-10         0.00000E+00
    0.39469E-07        -0.25869E-10         0.00000E+00
    0.39469E-07        -0.22833E-10         0.00000E+00
    0.39470E-07        -0.19733E-10         0.00000E+00
    0.39470E-07        -0.16574E-10         0.00000E+00
    0.39470E-07        -0.13358E-10         0.00000E+00
    0.39470E-07        -0.10090E-10         0.00000E+00
    0.39470E-07        -0.67719E-11         0.00000E+00
    0.39471E-07        -0.34074E-11         0.00000E+00
    0.39471E-07        -0.17138E-11         0.00000E+00
    0.38429E-07        -0.35032E-11         0.00000E+00
    0.38429E-07        -0.68424E-11         0.00000E+00
    0.38429E-07        -0.13299E-10         0.00000E+00
    0.38429E-07        -0.19316E-10         0.00000E+00
    0.38429E-07        -0.24907E-10         0.00000E+00
    0.38429E-07        -0.30083E-10         0.00000E+00
    0.38429E-07        -0.34856E-10         0.00000E+00
    0.38429E-07        -0.39237E-10         0.00000E+00
    0.38429E-07        -0.43238E-10         0.00000E+00
    0.38429E-07        -0.46871E-10         0.00000E+00
    0.38429E-07        -0.50148E-10         0.00000E+00
    0.38429E-07        -0.53080E-10         0.00000E+00
    0.38428E-07        -0.55678E-10         0.00000E+00
    0.38428E-07        -0.57954E-10         0.00000E+00
    0.38428E-07        -0.59918E-10         0.00000E+00
    0.38428E-07        -0.61582E-10         0.00000E+00
    0.38428E-07        -0.62956E-10         0.00000E+00
    0.38428E-07        -0.64052E-10         0.00000E+00
    0.38428E-07        -0.64879E-10         0.00000E+00
    0.38428E-07        -0.65447E-10         0.00000E+00
    0.38429E-07        -0.65767E-10         0.00000E+00
    0.38429E-07        -0.65849E-10         0.00000E+00
    0.38429E-07        -0.65702E-10         0.00000E+00
    0.38429E-07        -0.65335E-10         0.00000E+00
    0.38429E-07        -0.64759E-10         0.00000E+00
    0.38429E-07        -0.63980E-10         0.00000E+00
    0.38430E-07        -0.63009E-10         0.00000E+00
    0.38430E-07        -0.61854E-10         0.00000E+00
    0.38430E-07        -0.60523E-10         0.00000E+00
    0.38430E-07        -0.59024E-10         0.00000E+00
    0.38431E-07        -0.57364E-10         0.00000E+00
    0.38431E-07        -0.55552E-10         0.00000E+00
    0.38431E-07        -0.53593E-10         0.00000E+00
    0.38431E-07        -0.51496E-10         0.00000E+00
    0.38432E-07        -0.49266E-10         0.00000E+00
    0.38432E-07        -0.46911E-10         0.00000E+00
    0.38432E-07        -0.44435E-10         0.00000E+00
    0.38433E-07        -0.41846E-10         0.00000E+00
    0.38433E-07        -0.39148E-10         0.00000E+00
    0.38433E-07        -0.36347E-10         0.00000E+00
    0.38434E-07        -0.33449E-10         0.00000E+00
    0.38434E-07        -0.30457E-10         0.00000E+00
    0.38434E-07        -0.27376E-10         0.00000E+00
    0.38434E-07        -0.24211E-10         0.00000E+00
    0.38435E-07        -0.20966E-10         0.00000E+00
    0.38435E-07        -0.17644E-10         0.00000E+00
    0.38435E-07        -0.14249E-10         0.00000E+00
    0.38435E-07        -0.10784E-10         0.00000E+00
    0.38435E-07        -0.72522E-11         0.00000E+00
    0.38435E-07        -0.36562E-11         0.00000E+00
    0.38435E-07        -0.18424E-11         0.00000E+00
    0.37462E-07        -0.34131E-11         0.00000E+00
    0.37462E-07        -0.66725E-11         0.00000E+00
    0.37462E-07        -0.12983E-10         0.00000E+00
    0.37462E-07        -0.18881E-10         0.00000E+00
    0.37461E-07        -0.24376E-10         0.00000E+00
    0.37461E-07        -0.29480E-10         0.00000E+00
    0.37461E-07        -0.34202E-10         0.00000E+00
    0.37461E-07        -0.38552E-10         0.00000E+00
    0.37461E-07        -0.42541E-10         0.00000E+00
    0.37461E-07        -0.46178E-10         0.00000E+00
    0.37460E-07        -0.49475E-10         0.00000E+00
    0.37460E-07        -0.52439E-10         0.00000E+00
    0.37460E-07        -0.55083E-10         0.00000E+00
    0.37460E-07        -0.57415E-10         0.00000E+00
    0.37460E-07        -0.59445E-10         0.00000E+00
    0.37460E-07        -0.61182E-10         0.00000E+00
    0.37459E-07        -0.62637E-10         0.00000E+00
    0.37459E-07        -0.63819E-10         0.00000E+00
    0.37459E-07        -0.64737E-10         0.00000E+00
    0.37459E-07        -0.65399E-10         0.00000E+00
    0.37459E-07        -0.65816E-10         0.00000E+00
    0.37459E-07        -0.65995E-10         0.00000E+00
    0.37459E-07        -0.65945E-10         0.00000E+00
    0.37459E-07        -0.65675E-10         0.00000E+00
    0.37459E-07        -0.65193E-10         0.00000E+00
    0.37459E-07        -0.64507E-10         0.00000E+00
    0.37459E-07        -0.63624E-10         0.00000E+00
    0.37459E-07        -0.62552E-10         0.00000E+00
    0.37459E-07        -0.61299E-10         0.00000E+00
    0.37459E-07        -0.59872E-10         0.00000E+00
    0.37459E-07        -0.58278E-10         0.00000E+00
    0.37459E-07        -0.56523E-10         0.00000E+00
    0.37460E-07        -0.54614E-10         0.00000E+00
    0.37460E-07        -0.52558E-10         0.00000E+00
    0.37460E-07        -0.50360E-10         0.00000E+00
    0.37460E-07        -0.48026E-10         0.00000E+00
    0.37460E-07        -0.45562E-10         0.00000E+00
    0.37460E-07        -0.42974E-10         0.00000E+00
    0.37460E-07        -0.40266E-10         0.00000E+00
    0.37461E-07        -0.37444E-10         0.00000E+00
    0.37461E-07        -0.34511E-10         0.00000E+00
    0.37461E-07        -0.31473E-10         0.00000E+00
    0.37461E-07        -0.28334E-10         0.00000E+00
    0.37461E-07        -0.25097E-10         0.00000E+00
    0.37461E-07        -0.21767E-10         0.00000E+00
    0.37461E-07        -0.18346E-10         0.00000E+00
    0.37462E-07        -0.14839E-10         0.00000E+00
    0.37462E-07        -0.11248E-10         0.00000E+00
    0.37462E-07        -0.75756E-11         0.00000E+00
    0.37462E-07        -0.38249E-11         0.00000E+00
    0.37462E-07        -0.19302E-11         0.00000E+00
    0.36553E-07        -0.33027E-11         0.00000E+00
    0.36553E-07        -0.64616E-11         0.00000E+00
    0.36552E-07        -0.12584E-10         0.00000E+00
    0.36552E-07        -0.18319E-10         0.00000E+00
    0.36552E-07        -0.23677E-10         0.00000E+00
    0.36552E-07        -0.28665E-10         0.00000E+00
    0.36552E-07        -0.33294E-10         0.00000E+00
    0.36552E-07        -0.37570E-10         0.00000E+00
    0.36551E-07        -0.41504E-10         0.00000E+00
    0.36551E-07        -0.45104E-10         0.00000E+00
    0.36551E-07        -0.48378E-10         0.00000E+00
    0.36551E-07        -0.51337E-10         0.00000E+00
    0.36550E-07        -0.53987E-10         0.00000E+00
    0.36550E-07        -0.56338E-10         0.00000E+00
    0.36550E-07        -0.58399E-10         0.00000E+00
    0.36550E-07        -0.60177E-10         0.00000E+00
    0.36549E-07        -0.61682E-10         0.00000E+00
    0.36549E-07        -0.62921E-10         0.00000E+00
    0.36549E-07        -0.63903E-10         0.00000E+00
    0.36549E-07        -0.64635E-10         0.00000E+00
    0.36548E-07        -0.65126E-10         0.00000E+00
    0.36548E-07        -0.65383E-10         0.00000E+00
    0.36548E-07        -0.65414E-10         0.00000E+00
    0.36548E-07        -0.65226E-10         0.00000E+00
    0.36548E-07        -0.64827E-10         0.00000E+00
    0.36548E-07        -0.64224E-10         0.00000E+00
    0.36548E-07        -0.63424E-10         0.00000E+00
    0.36547E-07        -0.62433E-10         0.00000E+00
    0.36547E-07        -0.61259E-10         0.00000E+00
    0.36547E-07        -0.59908E-10         0.00000E+00
    0.36547E-07        -0.58386E-10         0.00000E+00
    0.36547E-07        -0.56699E-10         0.00000E+00
    0.36547E-07        -0.54853E-10         0.00000E+00
    0.36547E-07        -0.52855E-10         0.00000E+00
    0.36547E-07        -0.50708E-10         0.00000E+00
    0.36547E-07        -0.48420E-10         0.00000E+00
    0.36547E-07        -0.45994E-10         0.00000E+00
    0.36547E-07        -0.43436E-10         0.00000E+00
    0.36547E-07        -0.40750E-10         0.00000E+00
    0.36547E-07        -0.37941E-10         0.00000E+00
    0.36547E-07        -0.35014E-10         0.00000E+00
    0.36547E-07        -0.31972E-10         0.00000E+00
    0.36548E-07        -0.28819E-10         0.00000E+00
    0.36548E-07        -0.25559E-10         0.00000E+00
    0.36548E-07        -0.22195E-10         0.00000E+00
    0.36548E-07        -0.18731E-10         0.00000E+00
    0.36548E-07        -0.15169E-10         0.00000E+00
    0.36548E-07        -0.11512E-10         0.00000E+00
    0.36548E-07        -0.77630E-11         0.00000E+00
    0.36548E-07        -0.39242E-11         0.00000E+00
    0.36548E-07        -0.19826E-11         0.00000E+00
    0.35700E-07        -0.31764E-11         0.00000E+00
    0.35700E-07        -0.62186E-11         0.00000E+00
    0.35700E-07        -0.12120E-10         0.00000E+00
    0.35700E-07        -0.17660E-10         0.00000E+00
    0.35699E-07        -0.22845E-10         0.00000E+00
    0.35699E-07        -0.27683E-10         0.00000E+00
    0.35699E-07        -0.32183E-10         0.00000E+00
    0.35699E-07        -0.36351E-10         0.00000E+00
    0.35698E-07        -0.40195E-10         0.00000E+00
    0.35698E-07        -0.43723E-10         0.00000E+00
    0.35698E-07        -0.46943E-10         0.00000E+00
    0.35698E-07        -0.49862E-10         0.00000E+00
    0.35697E-07        -0.52487E-10         0.00000E+00
    0.35697E-07        -0.54827E-10         0.00000E+00
    0.35697E-07        -0.56889E-10         0.00000E+00
    0.35696E-07        -0.58680E-10         0.00000E+00
    0.35696E-07        -0.60207E-10         0.00000E+00
    0.35696E-07        -0.61478E-10         0.00000E+00
    0.35695E-07        -0.62501E-10         0.00000E+00
    0.35695E-07        -0.63281E-10         0.00000E+00
    0.35695E-07        -0.63827E-10         0.00000E+00
    0.35694E-07        -0.64144E-10         0.00000E+00
    0.35694E-07        -0.64241E-10         0.00000E+00
    0.35694E-07        -0.64123E-10         0.00000E+00
    0.35693E-07        -0.63796E-10         0.00000E+00
    0.35693E-07        -0.63269E-10         0.00000E+00
    0.35693E-07        -0.62545E-10         0.00000E+00
    0.35693E-07        -0.61633E-10         0.00000E+00
    0.35692E-07        -0.60537E-10         0.00000E+00
    0.35692E-07        -0.59264E-10         0.00000E+00
    0.35692E-07        -0.57818E-10         0.00000E+00
    0.35692E-07        -0.56207E-10         0.00000E+00
    0.35692E-07        -0.54434E-10         0.00000E+00
    0.35692E-07        -0.52506E-10         0.00000E+00
    0.35692E-07        -0.50427E-10         0.00000E+00
    0.35691E-07        -0.48201E-10         0.00000E+00
    0.35691E-07        -0.45834E-10         0.00000E+00
    0.35691E-07        -0.43330E-10         0.00000E+00
    0.35691E-07        -0.40694E-10         0.00000E+00
    0.35691E-07        -0.37929E-10         0.00000E+00
    0.35691E-07        -0.35039E-10         0.00000E+00
    0.35691E-07        -0.32028E-10         0.00000E+00
    0.35691E-07        -0.28899E-10         0.00000E+00
    0.35691E-07        -0.25657E-10         0.00000E+00
    0.35691E-07        -0.22303E-10         0.00000E+00
    0.35691E-07        -0.18841E-10         0.00000E+00
    0.35691E-07        -0.15274E-10         0.00000E+00
    0.35691E-07        -0.11603E-10         0.00000E+00
    0.35691E-07        -0.78325E-11         0.00000E+00
    0.35691E-07        -0.39632E-11         0.00000E+00
    0.35691E-07        -0.20042E-11         0.00000E+00
    0.34901E-07        -0.30379E-11         0.00000E+00
    0.34901E-07        -0.59506E-11         0.00000E+00
    0.34901E-07        -0.11605E-10         0.00000E+00
    0.34901E-07        -0.16922E-10         0.00000E+00
    0.34901E-07        -0.21908E-10         0.00000E+00
    0.34901E-07        -0.26569E-10         0.00000E+00
    0.34901E-07        -0.30911E-10         0.00000E+00
    0.34900E-07        -0.34942E-10         0.00000E+00
    0.34900E-07        -0.38669E-10         0.00000E+00
    0.34900E-07        -0.42097E-10         0.00000E+00
    0.34899E-07        -0.45234E-10         0.00000E+00
    0.34899E-07        -0.48086E-10         0.00000E+00
    0.34899E-07        -0.50661E-10         0.00000E+00
    0.34898E-07        -0.52963E-10         0.00000E+00
    0.34898E-07        -0.55001E-10         0.00000E+00
    0.34897E-07        -0.56780E-10         0.00000E+00
    0.34897E-07        -0.58308E-10         0.00000E+00
    0.34897E-07        -0.59590E-10         0.00000E+00
    0.34896E-07        -0.60633E-10         0.00000E+00
    0.34896E-07        -0.61443E-10         0.00000E+00
    0.34895E-07        -0.62026E-10         0.00000E+00
    0.34895E-07        -0.62389E-10         0.00000E+00
    0.34895E-07        -0.62537E-10         0.00000E+00
    0.34894E-07        -0.62476E-10         0.00000E+00
    0.34894E-07        -0.62213E-10         0.00000E+00
    0.34893E-07        -0.61752E-10         0.00000E+00
    0.34893E-07        -0.61100E-10         0.00000E+00
    0.34893E-07        -0.60262E-10         0.00000E+00
    0.34892E-07        -0.59243E-10         0.00000E+00
    0.34892E-07        -0.58048E-10         0.00000E+00
    0.34892E-07        -0.56682E-10         0.00000E+00
    0.34892E-07        -0.55151E-10         0.00000E+00
    0.34891E-07        -0.53459E-10         0.00000E+00
    0.34891E-07        -0.51611E-10         0.00000E+00
    0.34891E-07        -0.49611E-10         0.00000E+00
    0.34891E-07        -0.47463E-10         0.00000E+00
    0.34890E-07        -0.45172E-10         0.00000E+00
    0.34890E-07        -0.42742E-10         0.00000E+00
    0.34890E-07        -0.40177E-10         0.00000E+00
    0.34890E-07        -0.37480E-10         0.00000E+00
    0.34890E-07        -0.34654E-10         0.00000E+00
    0.34890E-07        -0.31704E-10         0.00000E+00
    0.34890E-07        -0.28632E-10         0.00000E+00
    0.34890E-07        -0.25441E-10         0.00000E+00
    0.34890E-07        -0.22135E-10         0.00000E+00
    0.34890E-07        -0.18715E-10         0.00000E+00
    0.34889E-07        -0.15184E-10         0.00000E+00
    0.34889E-07        -0.11545E-10         0.00000E+00
    0.34889E-07        -0.77999E-11         0.00000E+00
    0.34889E-07        -0.39499E-11         0.00000E+00
    0.34889E-07        -0.19990E-11         0.00000E+00
    0.34156E-07        -0.28897E-11         0.00000E+00
    0.34156E-07        -0.56630E-11         0.00000E+00
    0.34156E-07        -0.11051E-10         0.00000E+00
    0.34156E-07        -0.16124E-10         0.00000E+00
    0.34155E-07        -0.20888E-10         0.00000E+00
    0.34155E-07        -0.25348E-10         0.00000E+00
    0.34155E-07        -0.29511E-10         0.00000E+00
    0.34155E-07        -0.33383E-10         0.00000E+00
    0.34154E-07        -0.36968E-10         0.00000E+00
    0.34154E-07        -0.40274E-10         0.00000E+00
    0.34153E-07        -0.43305E-10         0.00000E+00
    0.34153E-07        -0.46068E-10         0.00000E+00
    0.34153E-07        -0.48568E-10         0.00000E+00
    0.34152E-07        -0.50812E-10         0.00000E+00
    0.34152E-07        -0.52805E-10         0.00000E+00
    0.34151E-07        -0.54552E-10         0.00000E+00
    0.34151E-07        -0.56060E-10         0.00000E+00
    0.34150E-07        -0.57335E-10         0.00000E+00
    0.34150E-07        -0.58381E-10         0.00000E+00
    0.34149E-07        -0.59204E-10         0.00000E+00
    0.34149E-07        -0.59810E-10         0.00000E+00
    0.34148E-07        -0.60204E-10         0.00000E+00
    0.34148E-07        -0.60392E-10         0.00000E+00
    0.34147E-07        -0.60378E-10         0.00000E+00
    0.34147E-07        -0.60168E-10         0.00000E+00
    0.34147E-07        -0.59767E-10         0.00000E+00
    0.34146E-07        -0.59180E-10         0.00000E+00
    0.34146E-07        -0.58412E-10         0.00000E+00
    0.34145E-07        -0.57467E-10         0.00000E+00
    0.34145E-07        -0.56350E-10         0.00000E+00
    0.34145E-07        -0.55066E-10         0.00000E+00
    0.34144E-07        -0.53619E-10         0.00000E+00
    0.34144E-07        -0.52013E-10         0.00000E+00
    0.34144E-07        -0.50252E-10         0.00000E+00
    0.34143E-07        -0.48341E-10         0.00000E+00
    0.34143E-07        -0.46283E-10         0.00000E+00
    0.34143E-07        -0.44082E-10         0.00000E+00
    0.34142E-07        -0.41742E-10         0.00000E+00
    0.34142E-07        -0.39265E-10         0.00000E+00
    0.34142E-07        -0.36657E-10         0.00000E+00
    0.34142E-07        -0.33918E-10         0.00000E+00
    0.34142E-07        -0.31053E-10         0.00000E+00
    0.34142E-07        -0.28065E-10         0.00000E+00
    0.34141E-07        -0.24956E-10         0.00000E+00
    0.34141E-07        -0.21728E-10         0.00000E+00
    0.34141E-07        -0.18384E-10         0.00000E+00
    0.34141E-07        -0.14927E-10         0.00000E+00
    0.34141E-07        -0.11358E-10         0.00000E+00
    0.34141E-07        -0.76785E-11         0.00000E+00
    0.34141E-07        -0.38911E-11         0.00000E+00
    0.34141E-07        -0.19706E-11         0.00000E+00
    0.33461E-07        -0.27340E-11         0.00000E+00
    0.33461E-07        -0.53600E-11         0.00000E+00
    0.33461E-07        -0.10465E-10         0.00000E+00
    0.33461E-07        -0.15277E-10         0.00000E+00
    0.33461E-07        -0.19801E-10         0.00000E+00
    0.33461E-07        -0.24044E-10         0.00000E+00
    0.33460E-07        -0.28008E-10         0.00000E+00
    0.33460E-07        -0.31701E-10         0.00000E+00
    0.33460E-07        -0.35126E-10         0.00000E+00
    0.33459E-07        -0.38290E-10         0.00000E+00
    0.33459E-07        -0.41196E-10         0.00000E+00
    0.33458E-07        -0.43851E-10         0.00000E+00
    0.33458E-07        -0.46259E-10         0.00000E+00
    0.33457E-07        -0.48425E-10         0.00000E+00
    0.33457E-07        -0.50355E-10         0.00000E+00
    0.33456E-07        -0.52054E-10         0.00000E+00
    0.33456E-07        -0.53526E-10         0.00000E+00
    0.33455E-07        -0.54776E-10         0.00000E+00
    0.33455E-07        -0.55810E-10         0.00000E+00
    0.33454E-07        -0.56633E-10         0.00000E+00
    0.33454E-07        -0.57248E-10         0.00000E+00
    0.33453E-07        -0.57662E-10         0.00000E+00
    0.33453E-07        -0.57878E-10         0.00000E+00
    0.33452E-07        -0.57902E-10         0.00000E+00
    0.33451E-07        -0.57737E-10         0.00000E+00
    0.33451E-07        -0.57389E-10         0.00000E+00
    0.33450E-07        -0.56862E-10         0.00000E+00
    0.33450E-07        -0.56159E-10         0.00000E+00
    0.33449E-07        -0.55286E-10         0.00000E+00
    0.33449E-07        -0.54246E-10         0.00000E+00
    0.33449E-07        -0.53044E-10         0.00000E+00
    0.33448E-07        -0.51682E-10         0.00000E+00
    0.33448E-07        -0.50166E-10         0.00000E+00
    0.33447E-07        -0.48499E-10         0.00000E+00
    0.33447E-07        -0.46684E-10         0.00000E+00
    0.33447E-07        -0.44725E-10         0.00000E+00
    0.33446E-07        -0.42626E-10         0.00000E+00
    0.33446E-07        -0.40388E-10         0.00000E+00
    0.33446E-07        -0.38016E-10         0.00000E+00
    0.33445E-07        -0.35513E-10         0.00000E+00
    0.33445E-07        -0.32880E-10         0.00000E+00
    0.33445E-07        -0.30122E-10         0.00000E+00
    0.33445E-07        -0.27240E-10         0.00000E+00
    0.33445E-07        -0.24237E-10         0.00000E+00
    0.33444E-07        -0.21116E-10         0.00000E+00
    0.33444E-07        -0.17877E-10         0.00000E+00
    0.33444E-07        -0.14524E-10         0.00000E+00
    0.33444E-07        -0.11058E-10         0.00000E+00
    0.33444E-07        -0.74800E-11         0.00000E+00
    0.33444E-07        -0.37927E-11         0.00000E+00
    0.33444E-07        -0.19218E-11         0.00000E+00
    0.32816E-07        -0.25723E-11         0.00000E+00
    0.32816E-07        -0.50448E-11         0.00000E+00
    0.32816E-07        -0.98531E-11         0.00000E+00
    0.32816E-07        -0.14391E-10         0.00000E+00
    0.32816E-07        -0.18662E-10         0.00000E+00
    0.32815E-07        -0.22671E-10         0.00000E+00
    0.32815E-07        -0.26422E-10         0.00000E+00
    0.32815E-07        -0.29920E-10         0.00000E+00
    0.32814E-07        -0.33170E-10         0.00000E+00
    0.32814E-07        -0.36175E-10         0.00000E+00
    0.32813E-07        -0.38941E-10         0.00000E+00
    0.32813E-07        -0.41471E-10         0.00000E+00
    0.32812E-07        -0.43771E-10         0.00000E+00
    0.32812E-07        -0.45845E-10         0.00000E+00
    0.32811E-07        -0.47696E-10         0.00000E+00
    0.32811E-07        -0.49331E-10         0.00000E+00
    0.32810E-07        -0.50753E-10         0.00000E+00
    0.32810E-07        -0.51966E-10         0.00000E+00
    0.32809E-07        -0.52975E-10         0.00000E+00
    0.32809E-07        -0.53784E-10         0.00000E+00
    0.32808E-07        -0.54398E-10         0.00000E+00
    0.32807E-07        -0.54820E-10         0.00000E+00
    0.32807E-07        -0.55056E-10         0.00000E+00
    0.32806E-07        -0.55108E-10         0.00000E+00
    0.32806E-07        -0.54981E-10         0.00000E+00
    0.32805E-07        -0.54679E-10         0.00000E+00
    0.32804E-07        -0.54205E-10         0.00000E+00
    0.32804E-07        -0.53565E-10         0.00000E+00
    0.32803E-07        -0.52761E-10         0.00000E+00
    0.32803E-07        -0.51796E-10         0.00000E+00
    0.32802E-07        -0.50676E-10         0.00000E+00
    0.32802E-07        -0.49402E-10         0.00000E+00
    0.32801E-07        -0.47979E-10         0.00000E+00
    0.32801E-07        -0.46410E-10         0.00000E+00
    0.32800E-07        -0.44697E-10         0.00000E+00
    0.32800E-07        -0.42845E-10         0.00000E+00
    0.32800E-07        -0.40855E-10         0.00000E+00
    0.32799E-07        -0.38732E-10         0.00000E+00
    0.32799E-07        -0.36477E-10         0.00000E+00
    0.32799E-07        -0.34093E-10         0.00000E+00
    0.32798E-07        -0.31582E-10         0.00000E+00
    0.32798E-07        -0.28948E-10         0.00000E+00
    0.32798E-07        -0.26193E-10         0.00000E+00
    0.32798E-07        -0.23317E-10         0.00000E+00
    0.32797E-07        -0.20325E-10         0.00000E+00
    0.32797E-07        -0.17216E-10         0.00000E+00
    0.32797E-07        -0.13994E-10         0.00000E+00
    0.32797E-07        -0.10660E-10         0.00000E+00
    0.32797E-07        -0.72146E-11         0.00000E+00
    0.32797E-07        -0.36599E-11         0.00000E+00
    0.32797E-07        -0.18554E-11         0.00000E+00
    0.32219E-07        -0.24059E-11         0.00000E+00
    0.32219E-07        -0.47197E-11         0.00000E+00
    0.32219E-07        -0.92214E-11         0.00000E+00
    0.32219E-07        -0.13473E-10         0.00000E+00
    0.32219E-07        -0.17479E-10         0.00000E+00
    0.32218E-07        -0.21242E-10         0.00000E+00
    0.32218E-07        -0.24768E-10         0.00000E+00
    0.32218E-07        -0.28058E-10         0.00000E+00
    0.32217E-07        -0.31119E-10         0.00000E+00
    0.32217E-07        -0.33953E-10         0.00000E+00
    0.32216E-07        -0.36564E-10         0.00000E+00
    0.32216E-07        -0.38957E-10         0.00000E+00
    0.32215E-07        -0.41135E-10         0.00000E+00
    0.32215E-07        -0.43103E-10         0.00000E+00
    0.32214E-07        -0.44864E-10         0.00000E+00
    0.32214E-07        -0.46422E-10         0.00000E+00
    0.32213E-07        -0.47781E-10         0.00000E+00
    0.32212E-07        -0.48945E-10         0.00000E+00
    0.32212E-07        -0.49918E-10         0.00000E+00
    0.32211E-07        -0.50703E-10         0.00000E+00
    0.32210E-07        -0.51305E-10         0.00000E+00
    0.32210E-07        -0.51726E-10         0.00000E+00
    0.32209E-07        -0.51972E-10         0.00000E+00
    0.32209E-07        -0.52045E-10         0.00000E+00
    0.32208E-07        -0.51949E-10         0.00000E+00
    0.32207E-07        -0.51687E-10         0.00000E+00
    0.32207E-07        -0.51263E-10         0.00000E+00
    0.32206E-07        -0.50681E-10         0.00000E+00
    0.32205E-07        -0.49943E-10         0.00000E+00
    0.32205E-07        -0.49052E-10         0.00000E+00
    0.32204E-07        -0.48013E-10         0.00000E+00
    0.32204E-07        -0.46828E-10         0.00000E+00
    0.32203E-07        -0.45500E-10         0.00000E+00
    0.32203E-07        -0.44032E-10         0.00000E+00
    0.32202E-07        -0.42427E-10         0.00000E+00
    0.32202E-07        -0.40687E-10         0.00000E+00
    0.32201E-07        -0.38815E-10         0.00000E+00
    0.32201E-07        -0.36814E-10         0.00000E+00
    0.32200E-07        -0.34686E-10         0.00000E+00
    0.32200E-07        -0.32434E-10         0.00000E+00
    0.32200E-07        -0.30059E-10         0.00000E+00
    0.32199E-07        -0.27565E-10         0.00000E+00
    0.32199E-07        -0.24952E-10         0.00000E+00
    0.32199E-07        -0.22223E-10         0.00000E+00
    0.32199E-07        -0.19379E-10         0.00000E+00
    0.32199E-07        -0.16422E-10         0.00000E+00
    0.32198E-07        -0.13355E-10         0.00000E+00
    0.32198E-07        -0.10177E-10         0.00000E+00
    0.32198E-07        -0.68906E-11         0.00000E+00
    0.32198E-07        -0.34970E-11         0.00000E+00
    0.32198E-07        -0.17735E-11         0.00000E+00
    0.31669E-07        -0.22356E-11         0.00000E+00
    0.31669E-07        -0.43866E-11         0.00000E+00
    0.31669E-07        -0.85731E-11         0.00000E+00
    0.31669E-07        -0.12530E-10         0.00000E+00
    0.31668E-07        -0.16261E-10         0.00000E+00
    0.31668E-07        -0.19769E-10         0.00000E+00
    0.31668E-07        -0.23057E-10         0.00000E+00
    0.31667E-07        -0.26130E-10         0.00000E+00
    0.31667E-07        -0.28990E-10         0.00000E+00
    0.31667E-07        -0.31641E-10         0.00000E+00
    0.31666E-07        -0.34087E-10         0.00000E+00
    0.31665E-07        -0.36331E-10         0.00000E+00
    0.31665E-07        -0.38376E-10         0.00000E+00
    0.31664E-07        -0.40226E-10         0.00000E+00
    0.31664E-07        -0.41885E-10         0.00000E+00
    0.31663E-07        -0.43356E-10         0.00000E+00
    0.31663E-07        -0.44641E-10         0.00000E+00
    0.31662E-07        -0.45746E-10         0.00000E+00
    0.31661E-07        -0.46673E-10         0.00000E+00
    0.31661E-07        -0.47425E-10         0.00000E+00
    0.31660E-07        -0.48006E-10         0.00000E+00
    0.31659E-07        -0.48419E-10         0.00000E+00
    0.31659E-07        -0.48667E-10         0.00000E+00
    0.31658E-07        -0.48754E-10         0.00000E+00
    0.31657E-07        -0.48682E-10         0.00000E+00
    0.31656E-07        -0.48456E-10         0.00000E+00
    0.31656E-07        -0.48077E-10         0.00000E+00
    0.31655E-07        -0.47548E-10         0.00000E+00
    0.31655E-07        -0.46874E-10         0.00000E+00
    0.31654E-07        -0.46056E-10         0.00000E+00
    0.31653E-07        -0.45098E-10         0.00000E+00
    0.31653E-07        -0.44001E-10         0.00000E+00
    0.31652E-07        -0.42770E-10         0.00000E+00
    0.31652E-07        -0.41406E-10         0.00000E+00
    0.31651E-07        -0.39911E-10         0.00000E+00
    0.31651E-07        -0.38289E-10         0.00000E+00
    0.31650E-07        -0.36542E-10         0.00000E+00
    0.31650E-07        -0.34671E-10         0.00000E+00
    0.31649E-07        -0.32680E-10         0.00000E+00
    0.31649E-07        -0.30569E-10         0.00000E+00
    0.31648E-07        -0.28342E-10         0.00000E+00
    0.31648E-07        -0.25999E-10         0.00000E+00
    0.31648E-07        -0.23543E-10         0.00000E+00
    0.31647E-07        -0.20976E-10         0.00000E+00
    0.31647E-07        -0.18298E-10         0.00000E+00
    0.31647E-07        -0.15512E-10         0.00000E+00
    0.31647E-07        -0.12619E-10         0.00000E+00
    0.31647E-07        -0.96197E-11         0.00000E+00
    0.31647E-07        -0.65157E-11         0.00000E+00
    0.31646E-07        -0.33079E-11         0.00000E+00
    0.31646E-07        -0.16781E-11         0.00000E+00
    0.31164E-07        -0.20621E-11         0.00000E+00
    0.31164E-07        -0.40470E-11         0.00000E+00
    0.31164E-07        -0.79111E-11         0.00000E+00
    0.31164E-07        -0.11566E-10         0.00000E+00
    0.31164E-07        -0.15013E-10         0.00000E+00
    0.31164E-07        -0.18257E-10         0.00000E+00
    0.31163E-07        -0.21300E-10         0.00000E+00
    0.31163E-07        -0.24145E-10         0.00000E+00
    0.31162E-07        -0.26796E-10         0.00000E+00
    0.31162E-07        -0.29255E-10         0.00000E+00
    0.31161E-07        -0.31525E-10         0.00000E+00
    0.31161E-07        -0.33610E-10         0.00000E+00
    0.31160E-07        -0.35513E-10         0.00000E+00
    0.31160E-07        -0.37236E-10         0.00000E+00
    0.31159E-07        -0.38783E-10         0.00000E+00
    0.31158E-07        -0.40157E-10         0.00000E+00
    0.31158E-07        -0.41360E-10         0.00000E+00
    0.31157E-07        -0.42397E-10         0.00000E+00
    0.31156E-07        -0.43269E-10         0.00000E+00
    0.31156E-07        -0.43979E-10         0.00000E+00
    0.31155E-07        -0.44532E-10         0.00000E+00
    0.31154E-07        -0.44929E-10         0.00000E+00
    0.31154E-07        -0.45173E-10         0.00000E+00
    0.31153E-07        -0.45268E-10         0.00000E+00
    0.31152E-07        -0.45215E-10         0.00000E+00
    0.31151E-07        -0.45019E-10         0.00000E+00
    0.31151E-07        -0.44681E-10         0.00000E+00
    0.31150E-07        -0.44204E-10         0.00000E+00
    0.31149E-07        -0.43590E-10         0.00000E+00
    0.31149E-07        -0.42843E-10         0.00000E+00
    0.31148E-07        -0.41965E-10         0.00000E+00
    0.31147E-07        -0.40957E-10         0.00000E+00
    0.31147E-07        -0.39823E-10         0.00000E+00
    0.31146E-07        -0.38565E-10         0.00000E+00
    0.31146E-07        -0.37185E-10         0.00000E+00
    0.31145E-07        -0.35685E-10         0.00000E+00
    0.31145E-07        -0.34067E-10         0.00000E+00
    0.31144E-07        -0.32333E-10         0.00000E+00
    0.31144E-07        -0.30485E-10         0.00000E+00
    0.31143E-07        -0.28525E-10         0.00000E+00
    0.31143E-07        -0.26454E-10         0.00000E+00
    0.31142E-07        -0.24275E-10         0.00000E+00
    0.31142E-07        -0.21989E-10         0.00000E+00
    0.31142E-07        -0.19597E-10         0.00000E+00
    0.31141E-07        -0.17100E-10         0.00000E+00
    0.31141E-07        -0.14501E-10         0.00000E+00
    0.31141E-07        -0.11800E-10         0.00000E+00
    0.31141E-07        -0.89978E-11         0.00000E+00
    0.31141E-07        -0.60962E-11         0.00000E+00
    0.31141E-07        -0.30958E-11         0.00000E+00
    0.31141E-07        -0.15709E-11         0.00000E+00
    0.30704E-07        -0.18859E-11         0.00000E+00
    0.30704E-07        -0.37018E-11         0.00000E+00
    0.30704E-07        -0.72378E-11         0.00000E+00
    0.30704E-07        -0.10583E-10         0.00000E+00
    0.30704E-07        -0.13741E-10         0.00000E+00
    0.30704E-07        -0.16713E-10         0.00000E+00
    0.30703E-07        -0.19503E-10         0.00000E+00
    0.30703E-07        -0.22114E-10         0.00000E+00
    0.30702E-07        -0.24547E-10         0.00000E+00
    0.30702E-07        -0.26805E-10         0.00000E+00
    0.30701E-07        -0.28892E-10         0.00000E+00
    0.30701E-07        -0.30810E-10         0.00000E+00
    0.30700E-07        -0.32561E-10         0.00000E+00
    0.30700E-07        -0.34149E-10         0.00000E+00
    0.30699E-07        -0.35576E-10         0.00000E+00
    0.30698E-07        -0.36845E-10         0.00000E+00
    0.30698E-07        -0.37958E-10         0.00000E+00
    0.30697E-07        -0.38918E-10         0.00000E+00
    0.30696E-07        -0.39728E-10         0.00000E+00
    0.30696E-07        -0.40391E-10         0.00000E+00
    0.30695E-07        -0.40908E-10         0.00000E+00
    0.30694E-07        -0.41282E-10         0.00000E+00
    0.30693E-07        -0.41517E-10         0.00000E+00
    0.30693E-07        -0.41614E-10         0.00000E+00
    0.30692E-07        -0.41576E-10         0.00000E+00
    0.30691E-07        -0.41405E-10         0.00000E+00
    0.30690E-07        -0.41104E-10         0.00000E+00
    0.30690E-07        -0.40675E-10         0.00000E+00
    0.30689E-07        -0.40121E-10         0.00000E+00
    0.30688E-07        -0.39443E-10         0.00000E+00
    0.30688E-07        -0.38643E-10         0.00000E+00
    0.30687E-07        -0.37725E-10         0.00000E+00
    0.30686E-07        -0.36689E-10         0.00000E+00
    0.30686E-07        -0.35539E-10         0.00000E+00
    0.30685E-07        -0.34275E-10         0.00000E+00
    0.30684E-07        -0.32900E-10         0.00000E+00
    0.30684E-07        -0.31416E-10         0.00000E+00
    0.30683E-07        -0.29824E-10         0.00000E+00
    0.30683E-07        -0.28127E-10         0.00000E+00
    0.30682E-07        -0.26324E-10         0.00000E+00
    0.30682E-07        -0.24419E-10         0.00000E+00
    0.30682E-07        -0.22413E-10         0.00000E+00
    0.30681E-07        -0.20307E-10         0.00000E+00
    0.30681E-07        -0.18102E-10         0.00000E+00
    0.30681E-07        -0.15800E-10         0.00000E+00
    0.30680E-07        -0.13401E-10         0.00000E+00
    0.30680E-07        -0.10907E-10         0.00000E+00
    0.30680E-07        -0.83192E-11         0.00000E+00
    0.30680E-07        -0.56377E-11         0.00000E+00
    0.30680E-07        -0.28635E-11         0.00000E+00
    0.30680E-07        -0.14534E-11         0.00000E+00
    0.30288E-07        -0.17075E-11         0.00000E+00
    0.30288E-07        -0.33520E-11         0.00000E+00
    0.30288E-07        -0.65547E-11         0.00000E+00
    0.30288E-07        -0.95858E-11         0.00000E+00
    0.30288E-07        -0.12448E-10         0.00000E+00
    0.30287E-07        -0.15143E-10         0.00000E+00
    0.30287E-07        -0.17673E-10         0.00000E+00
    0.30287E-07        -0.20042E-10         0.00000E+00
    0.30286E-07        -0.22250E-10         0.00000E+00
    0.30286E-07        -0.24301E-10         0.00000E+00
    0.30285E-07        -0.26197E-10         0.00000E+00
    0.30285E-07        -0.27941E-10         0.00000E+00
    0.30284E-07        -0.29534E-10         0.00000E+00
    0.30283E-07        -0.30979E-10         0.00000E+00
    0.30283E-07        -0.32279E-10         0.00000E+00
    0.30282E-07        -0.33436E-10         0.00000E+00
    0.30281E-07        -0.34452E-10         0.00000E+00
    0.30281E-07        -0.35329E-10         0.00000E+00
    0.30280E-07        -0.36071E-10         0.00000E+00
    0.30279E-07        -0.36678E-10         0.00000E+00
    0.30278E-07        -0.37154E-10         0.00000E+00
    0.30278E-07        -0.37501E-10         0.00000E+00
    0.30277E-07        -0.37720E-10         0.00000E+00
    0.30276E-07        -0.37815E-10         0.00000E+00
    0.30275E-07        -0.37787E-10         0.00000E+00
    0.30275E-07        -0.37638E-10         0.00000E+00
    0.30274E-07        -0.37371E-10         0.00000E+00
    0.30273E-07        -0.36988E-10         0.00000E+00
    0.30272E-07        -0.36490E-10         0.00000E+00
    0.30272E-07        -0.35879E-10         0.00000E+00
    0.30271E-07        -0.35158E-10         0.00000E+00
    0.30270E-07        -0.34329E-10         0.00000E+00
    0.30269E-07        -0.33392E-10         0.00000E+00
    0.30269E-07        -0.32351E-10         0.00000E+00
    0.30268E-07        -0.31206E-10         0.00000E+00
    0.30268E-07        -0.29959E-10         0.00000E+00
    0.30267E-07        -0.28613E-10         0.00000E+00
    0.30266E-07        -0.27168E-10         0.00000E+00
    0.30266E-07        -0.25626E-10         0.00000E+00
    0.30265E-07        -0.23988E-10         0.00000E+00
    0.30265E-07        -0.22256E-10         0.00000E+00
    0.30264E-07        -0.20431E-10         0.00000E+00
    0.30264E-07        -0.18514E-10         0.00000E+00
    0.30264E-07        -0.16506E-10         0.00000E+00
    0.30263E-07        -0.14409E-10         0.00000E+00
    0.30263E-07        -0.12224E-10         0.00000E+00
    0.30263E-07        -0.99508E-11         0.00000E+00
    0.30263E-07        -0.75909E-11         0.00000E+00
    0.30263E-07        -0.51449E-11         0.00000E+00
    0.30263E-07        -0.26136E-11         0.00000E+00
    0.30263E-07        -0.13268E-11         0.00000E+00
    0.29915E-07        -0.15272E-11         0.00000E+00
    0.29915E-07        -0.29982E-11         0.00000E+00
    0.29915E-07        -0.58633E-11         0.00000E+00
    0.29915E-07        -0.85753E-11         0.00000E+00
    0.29914E-07        -0.11136E-10         0.00000E+00
    0.29914E-07        -0.13549E-10         0.00000E+00
    0.29914E-07        -0.15814E-10         0.00000E+00
    0.29913E-07        -0.17935E-10         0.00000E+00
    0.29913E-07        -0.19913E-10         0.00000E+00
    0.29912E-07        -0.21750E-10         0.00000E+00
    0.29912E-07        -0.23450E-10         0.00000E+00
    0.29911E-07        -0.25012E-10         0.00000E+00
    0.29911E-07        -0.26441E-10         0.00000E+00
    0.29910E-07        -0.27738E-10         0.00000E+00
    0.29909E-07        -0.28904E-10         0.00000E+00
    0.29909E-07        -0.29943E-10         0.00000E+00
    0.29908E-07        -0.30855E-10         0.00000E+00
    0.29907E-07        -0.31644E-10         0.00000E+00
    0.29906E-07        -0.32311E-10         0.00000E+00
    0.29906E-07        -0.32858E-10         0.00000E+00
    0.29905E-07        -0.33288E-10         0.00000E+00
    0.29904E-07        -0.33602E-10         0.00000E+00
    0.29903E-07        -0.33802E-10         0.00000E+00
    0.29902E-07        -0.33890E-10         0.00000E+00
    0.29902E-07        -0.33868E-10         0.00000E+00
    0.29901E-07        -0.33738E-10         0.00000E+00
    0.29900E-07        -0.33502E-10         0.00000E+00
    0.29899E-07        -0.33162E-10         0.00000E+00
    0.29899E-07        -0.32718E-10         0.00000E+00
    0.29898E-07        -0.32174E-10         0.00000E+00
    0.29897E-07        -0.31531E-10         0.00000E+00
    0.29896E-07        -0.30790E-10         0.00000E+00
    0.29896E-07        -0.29953E-10         0.00000E+00
    0.29895E-07        -0.29021E-10         0.00000E+00
    0.29894E-07        -0.27997E-10         0.00000E+00
    0.29894E-07        -0.26882E-10         0.00000E+00
    0.29893E-07        -0.25676E-10         0.00000E+00
    0.29892E-07        -0.24381E-10         0.00000E+00
    0.29892E-07        -0.23000E-10         0.00000E+00
    0.29891E-07        -0.21532E-10         0.00000E+00
    0.29891E-07        -0.19979E-10         0.00000E+00
    0.29890E-07        -0.18343E-10         0.00000E+00
    0.29890E-07        -0.16623E-10         0.00000E+00
    0.29890E-07        -0.14822E-10         0.00000E+00
    0.29889E-07        -0.12940E-10         0.00000E+00
    0.29889E-07        -0.10979E-10         0.00000E+00
    0.29889E-07        -0.89380E-11         0.00000E+00
    0.29889E-07        -0.68189E-11         0.00000E+00
    0.29888E-07        -0.46221E-11         0.00000E+00
    0.29888E-07        -0.23483E-11         0.00000E+00
    0.29888E-07        -0.11922E-11         0.00000E+00
    0.29584E-07        -0.13452E-11         0.00000E+00
    0.29584E-07        -0.26409E-11         0.00000E+00
    0.29583E-07        -0.51645E-11         0.00000E+00
    0.29583E-07        -0.75534E-11         0.00000E+00
    0.29583E-07        -0.98093E-11         0.00000E+00
    0.29583E-07        -0.11934E-10         0.00000E+00
    0.29582E-07        -0.13930E-10         0.00000E+00
    0.29582E-07        -0.15798E-10         0.00000E+00
    0.29581E-07        -0.17540E-10         0.00000E+00
    0.29581E-07        -0.19159E-10         0.00000E+00
    0.29580E-07        -0.20656E-10         0.00000E+00
    0.29580E-07        -0.22032E-10         0.00000E+00
    0.29579E-07        -0.23291E-10         0.00000E+00
    0.29579E-07        -0.24433E-10         0.00000E+00
    0.29578E-07        -0.25461E-10         0.00000E+00
    0.29577E-07        -0.26376E-10         0.00000E+00
    0.29576E-07        -0.27180E-10         0.00000E+00
    0.29576E-07        -0.27875E-10         0.00000E+00
    0.29575E-07        -0.28463E-10         0.00000E+00
    0.29574E-07        -0.28945E-10         0.00000E+00
    0.29573E-07        -0.29324E-10         0.00000E+00
    0.29573E-07        -0.29600E-10         0.00000E+00
    0.29572E-07        -0.29777E-10         0.00000E+00
    0.29571E-07        -0.29855E-10         0.00000E+00
    0.29570E-07        -0.29836E-10         0.00000E+00
    0.29569E-07        -0.29722E-10         0.00000E+00
    0.29568E-07        -0.29514E-10         0.00000E+00
    0.29568E-07        -0.29214E-10         0.00000E+00
    0.29567E-07        -0.28824E-10         0.00000E+00
    0.29566E-07        -0.28345E-10         0.00000E+00
    0.29565E-07        -0.27778E-10         0.00000E+00
    0.29565E-07        -0.27126E-10         0.00000E+00
    0.29564E-07        -0.26389E-10         0.00000E+00
    0.29563E-07        -0.25568E-10         0.00000E+00
    0.29562E-07        -0.24666E-10         0.00000E+00
    0.29562E-07        -0.23684E-10         0.00000E+00
    0.29561E-07        -0.22622E-10         0.00000E+00
    0.29561E-07        -0.21482E-10         0.00000E+00
    0.29560E-07        -0.20264E-10         0.00000E+00
    0.29559E-07        -0.18971E-10         0.00000E+00
    0.29559E-07        -0.17603E-10         0.00000E+00
    0.29558E-07        -0.16162E-10         0.00000E+00
    0.29558E-07        -0.14647E-10         0.00000E+00
    0.29558E-07        -0.13060E-10         0.00000E+00
    0.29557E-07        -0.11402E-10         0.00000E+00
    0.29557E-07        -0.96740E-11         0.00000E+00
    0.29557E-07        -0.78759E-11         0.00000E+00
    0.29557E-07        -0.60087E-11         0.00000E+00
    0.29556E-07        -0.40730E-11         0.00000E+00
    0.29556E-07        -0.20693E-11         0.00000E+00
    0.29556E-07        -0.10505E-11         0.00000E+00
    0.29294E-07        -0.11617E-11         0.00000E+00
    0.29294E-07        -0.22805E-11         0.00000E+00
    0.29293E-07        -0.44593E-11         0.00000E+00
    0.29293E-07        -0.65213E-11         0.00000E+00
    0.29293E-07        -0.84682E-11         0.00000E+00
    0.29293E-07        -0.10301E-10         0.00000E+00
    0.29292E-07        -0.12023E-10         0.00000E+00
    0.29292E-07        -0.13634E-10         0.00000E+00
    0.29292E-07        -0.15136E-10         0.00000E+00
    0.29291E-07        -0.16531E-10         0.00000E+00
    0.29290E-07        -0.17821E-10         0.00000E+00
    0.29290E-07        -0.19007E-10         0.00000E+00
    0.29289E-07        -0.20090E-10         0.00000E+00
    0.29289E-07        -0.21073E-10         0.00000E+00
    0.29288E-07        -0.21957E-10         0.00000E+00
    0.29287E-07        -0.22744E-10         0.00000E+00
    0.29286E-07        -0.23435E-10         0.00000E+00
    0.29286E-07        -0.24032E-10         0.00000E+00
    0.29285E-07        -0.24536E-10         0.00000E+00
    0.29284E-07        -0.24949E-10         0.00000E+00
    0.29283E-07        -0.25273E-10         0.00000E+00
    0.29282E-07        -0.25509E-10         0.00000E+00
    0.29282E-07        -0.25658E-10         0.00000E+00
    0.29281E-07        -0.25723E-10         0.00000E+00
    0.29280E-07        -0.25704E-10         0.00000E+00
    0.29279E-07        -0.25603E-10         0.00000E+00
    0.29278E-07        -0.25421E-10         0.00000E+00
    0.29277E-07        -0.25160E-10         0.00000E+00
    0.29277E-07        -0.24822E-10         0.00000E+00
    0.29276E-07        -0.24406E-10         0.00000E+00
    0.29275E-07        -0.23916E-10         0.00000E+00
    0.29274E-07        -0.23352E-10         0.00000E+00
    0.29274E-07        -0.22715E-10         0.00000E+00
    0.29273E-07        -0.22007E-10         0.00000E+00
    0.29272E-07        -0.21228E-10         0.00000E+00
    0.29271E-07        -0.20380E-10         0.00000E+00
    0.29271E-07        -0.19465E-10         0.00000E+00
    0.29270E-07        -0.18482E-10         0.00000E+00
    0.29270E-07        -0.17433E-10         0.00000E+00
    0.29269E-07        -0.16319E-10         0.00000E+00
    0.29268E-07        -0.15141E-10         0.00000E+00
    0.29268E-07        -0.13899E-10         0.00000E+00
    0.29268E-07        -0.12596E-10         0.00000E+00
    0.29267E-07        -0.11230E-10         0.00000E+00
    0.29267E-07        -0.98035E-11         0.00000E+00
    0.29266E-07        -0.83167E-11         0.00000E+00
    0.29266E-07        -0.67703E-11         0.00000E+00
    0.29266E-07        -0.51647E-11         0.00000E+00
    0.29266E-07        -0.35006E-11         0.00000E+00
    0.29266E-07        -0.17784E-11         0.00000E+00
    0.29266E-07        -0.90276E-12         0.00000E+00
    0.29044E-07        -0.97684E-12         0.00000E+00
    0.29044E-07        -0.19173E-11         0.00000E+00
    0.29044E-07        -0.37482E-11         0.00000E+00
    0.29044E-07        -0.54801E-11         0.00000E+00
    0.29044E-07        -0.71145E-11         0.00000E+00
    0.29044E-07        -0.86525E-11         0.00000E+00
    0.29043E-07        -0.10096E-10         0.00000E+00
    0.29043E-07        -0.11446E-10         0.00000E+00
    0.29042E-07        -0.12704E-10         0.00000E+00
    0.29042E-07        -0.13871E-10         0.00000E+00
    0.29041E-07        -0.14950E-10         0.00000E+00
    0.29041E-07        -0.15940E-10         0.00000E+00
    0.29040E-07        -0.16845E-10         0.00000E+00
    0.29039E-07        -0.17664E-10         0.00000E+00
    0.29039E-07        -0.18401E-10         0.00000E+00
    0.29038E-07        -0.19055E-10         0.00000E+00
    0.29037E-07        -0.19629E-10         0.00000E+00
    0.29036E-07        -0.20124E-10         0.00000E+00
    0.29036E-07        -0.20540E-10         0.00000E+00
    0.29035E-07        -0.20881E-10         0.00000E+00
    0.29034E-07        -0.21146E-10         0.00000E+00
    0.29033E-07        -0.21338E-10         0.00000E+00
    0.29032E-07        -0.21457E-10         0.00000E+00
    0.29031E-07        -0.21505E-10         0.00000E+00
    0.29031E-07        -0.21484E-10         0.00000E+00
    0.29030E-07        -0.21393E-10         0.00000E+00
    0.29029E-07        -0.21236E-10         0.00000E+00
    0.29028E-07        -0.21012E-10         0.00000E+00
    0.29027E-07        -0.20724E-10         0.00000E+00
    0.29026E-07        -0.20372E-10         0.00000E+00
    0.29026E-07        -0.19958E-10         0.00000E+00
    0.29025E-07        -0.19482E-10         0.00000E+00
    0.29024E-07        -0.18945E-10         0.00000E+00
    0.29023E-07        -0.18350E-10         0.00000E+00
    0.29023E-07        -0.17696E-10         0.00000E+00
    0.29022E-07        -0.16985E-10         0.00000E+00
    0.29021E-07        -0.16217E-10         0.00000E+00
    0.29021E-07        -0.15394E-10         0.00000E+00
    0.29020E-07        -0.14517E-10         0.00000E+00
    0.29019E-07        -0.13586E-10         0.00000E+00
    0.29019E-07        -0.12602E-10         0.00000E+00
    0.29018E-07        -0.11565E-10         0.00000E+00
    0.29018E-07        -0.10478E-10         0.00000E+00
    0.29017E-07        -0.93395E-11         0.00000E+00
    0.29017E-07        -0.81512E-11         0.00000E+00
    0.29017E-07        -0.69133E-11         0.00000E+00
    0.29017E-07        -0.56264E-11         0.00000E+00
    0.29016E-07        -0.42911E-11         0.00000E+00
    0.29016E-07        -0.29078E-11         0.00000E+00
    0.29016E-07        -0.14769E-11         0.00000E+00
    0.29016E-07        -0.74956E-12         0.00000E+00
    0.28836E-07        -0.79071E-12         0.00000E+00
    0.28836E-07        -0.15514E-11         0.00000E+00
    0.28835E-07        -0.30318E-11         0.00000E+00
    0.28835E-07        -0.44307E-11         0.00000E+00
    0.28835E-07        -0.57493E-11         0.00000E+00
    0.28835E-07        -0.69890E-11         0.00000E+00
    0.28834E-07        -0.81509E-11         0.00000E+00
    0.28834E-07        -0.92363E-11         0.00000E+00
    0.28833E-07        -0.10246E-10         0.00000E+00
    0.28833E-07        -0.11183E-10         0.00000E+00
    0.28832E-07        -0.12046E-10         0.00000E+00
    0.28832E-07        -0.12838E-10         0.00000E+00
    0.28831E-07        -0.13559E-10         0.00000E+00
    0.28830E-07        -0.14212E-10         0.00000E+00
    0.28830E-07        -0.14797E-10         0.00000E+00
    0.28829E-07        -0.15315E-10         0.00000E+00
    0.28828E-07        -0.15768E-10         0.00000E+00
    0.28827E-07        -0.16157E-10         0.00000E+00
    0.28827E-07        -0.16483E-10         0.00000E+00
    0.28826E-07        -0.16748E-10         0.00000E+00
    0.28825E-07        -0.16952E-10         0.00000E+00
    0.28824E-07        -0.17096E-10         0.00000E+00
    0.28823E-07        -0.17183E-10         0.00000E+00
    0.28822E-07        -0.17212E-10         0.00000E+00
    0.28822E-07        -0.17185E-10         0.00000E+00
    0.28821E-07        -0.17104E-10         0.00000E+00
    0.28820E-07        -0.16969E-10         0.00000E+00
    0.28819E-07        -0.16782E-10         0.00000E+00
    0.28818E-07        -0.16543E-10         0.00000E+00
    0.28817E-07        -0.16253E-10         0.00000E+00
    0.28816E-07        -0.15913E-10         0.00000E+00
    0.28816E-07        -0.15526E-10         0.00000E+00
    0.28815E-07        -0.15090E-10         0.00000E+00
    0.28814E-07        -0.14608E-10         0.00000E+00
    0.28813E-07        -0.14080E-10         0.00000E+00
    0.28813E-07        -0.13507E-10         0.00000E+00
    0.28812E-07        -0.12889E-10         0.00000E+00
    0.28811E-07        -0.12229E-10         0.00000E+00
    0.28811E-07        -0.11526E-10         0.00000E+00
    0.28810E-07        -0.10781E-10         0.00000E+00
    0.28810E-07        -0.99948E-11         0.00000E+00
    0.28809E-07        -0.91682E-11         0.00000E+00
    0.28809E-07        -0.83018E-11         0.00000E+00
    0.28808E-07        -0.73961E-11         0.00000E+00
    0.28808E-07        -0.64518E-11         0.00000E+00
    0.28807E-07        -0.54692E-11         0.00000E+00
    0.28807E-07        -0.44490E-11         0.00000E+00
    0.28807E-07        -0.33914E-11         0.00000E+00
    0.28807E-07        -0.22970E-11         0.00000E+00
    0.28807E-07        -0.11661E-11         0.00000E+00
    0.28807E-07        -0.59158E-12         0.00000E+00
    0.28667E-07        -0.60340E-12         0.00000E+00
    0.28667E-07        -0.11832E-11         0.00000E+00
    0.28666E-07        -0.23104E-11         0.00000E+00
    0.28666E-07        -0.33735E-11         0.00000E+00
    0.28666E-07        -0.43737E-11         0.00000E+00
    0.28666E-07        -0.53120E-11         0.00000E+00
    0.28665E-07        -0.61894E-11         0.00000E+00
    0.28665E-07        -0.70071E-11         0.00000E+00
    0.28664E-07        -0.77662E-11         0.00000E+00
    0.28664E-07        -0.84677E-11         0.00000E+00
    0.28663E-07        -0.91128E-11         0.00000E+00
    0.28663E-07        -0.97025E-11         0.00000E+00
    0.28662E-07        -0.10238E-10         0.00000E+00
    0.28661E-07        -0.10720E-10         0.00000E+00
    0.28661E-07        -0.11150E-10         0.00000E+00
    0.28660E-07        -0.11529E-10         0.00000E+00
    0.28659E-07        -0.11859E-10         0.00000E+00
    0.28658E-07        -0.12139E-10         0.00000E+00
    0.28658E-07        -0.12371E-10         0.00000E+00
    0.28657E-07        -0.12557E-10         0.00000E+00
    0.28656E-07        -0.12697E-10         0.00000E+00
    0.28655E-07        -0.12792E-10         0.00000E+00
    0.28654E-07        -0.12843E-10         0.00000E+00
    0.28653E-07        -0.12851E-10         0.00000E+00
    0.28652E-07        -0.12818E-10         0.00000E+00
    0.28651E-07        -0.12744E-10         0.00000E+00
    0.28651E-07        -0.12630E-10         0.00000E+00
    0.28650E-07        -0.12477E-10         0.00000E+00
    0.28649E-07        -0.12286E-10         0.00000E+00
    0.28648E-07        -0.12058E-10         0.00000E+00
    0.28647E-07        -0.11794E-10         0.00000E+00
    0.28646E-07        -0.11494E-10         0.00000E+00
    0.28646E-07        -0.11160E-10         0.00000E+00
    0.28645E-07        -0.10791E-10         0.00000E+00
    0.28644E-07        -0.10390E-10         0.00000E+00
    0.28643E-07        -0.99566E-11         0.00000E+00
    0.28643E-07        -0.94914E-11         0.00000E+00
    0.28642E-07        -0.89954E-11         0.00000E+00
    0.28641E-07        -0.84691E-11         0.00000E+00
    0.28641E-07        -0.79133E-11         0.00000E+00
    0.28640E-07        -0.73285E-11         0.00000E+00
    0.28640E-07        -0.67154E-11         0.00000E+00
    0.28639E-07        -0.60744E-11         0.00000E+00
    0.28639E-07        -0.54061E-11         0.00000E+00
    0.28638E-07        -0.47109E-11         0.00000E+00
    0.28638E-07        -0.39894E-11         0.00000E+00
    0.28638E-07        -0.32419E-11         0.00000E+00
    0.28638E-07        -0.24688E-11         0.00000E+00
    0.28637E-07        -0.16705E-11         0.00000E+00
    0.28637E-07        -0.84722E-12         0.00000E+00
    0.28637E-07        -0.42940E-12         0.00000E+00
    0.28537E-07        -0.41499E-12         0.00000E+00
    0.28537E-07        -0.81264E-12         0.00000E+00
    0.28537E-07        -0.15843E-11         0.00000E+00
    0.28537E-07        -0.23092E-11         0.00000E+00
    0.28536E-07        -0.29883E-11         0.00000E+00
    0.28536E-07        -0.36224E-11         0.00000E+00
    0.28536E-07        -0.42126E-11         0.00000E+00
    0.28535E-07        -0.47598E-11         0.00000E+00
    0.28535E-07        -0.52649E-11         0.00000E+00
    0.28534E-07        -0.57289E-11         0.00000E+00
    0.28534E-07        -0.61527E-11         0.00000E+00
    0.28533E-07        -0.65373E-11         0.00000E+00
    0.28533E-07        -0.68836E-11         0.00000E+00
    0.28532E-07        -0.71926E-11         0.00000E+00
    0.28531E-07        -0.74652E-11         0.00000E+00
    0.28530E-07        -0.77023E-11         0.00000E+00
    0.28530E-07        -0.79048E-11         0.00000E+00
    0.28529E-07        -0.80737E-11         0.00000E+00
    0.28528E-07        -0.82098E-11         0.00000E+00
    0.28527E-07        -0.83142E-11         0.00000E+00
    0.28526E-07        -0.83876E-11         0.00000E+00
    0.28525E-07        -0.84309E-11         0.00000E+00
    0.28524E-07        -0.84451E-11         0.00000E+00
    0.28524E-07        -0.84309E-11         0.00000E+00
    0.28523E-07        -0.83892E-11         0.00000E+00
    0.28522E-07        -0.83209E-11         0.00000E+00
    0.28521E-07        -0.82267E-11         0.00000E+00
    0.28520E-07        -0.81075E-11         0.00000E+00
    0.28519E-07        -0.79640E-11         0.00000E+00
    0.28518E-07        -0.77971E-11         0.00000E+00
    0.28517E-07        -0.76074E-11         0.00000E+00
    0.28517E-07        -0.73957E-11         0.00000E+00
    0.28516E-07        -0.71626E-11         0.00000E+00
    0.28515E-07        -0.69090E-11         0.00000E+00
    0.28514E-07        -0.66354E-11         0.00000E+00
    0.28513E-07        -0.63426E-11         0.00000E+00
    0.28513E-07        -0.60310E-11         0.00000E+00
    0.28512E-07        -0.57014E-11         0.00000E+00
    0.28511E-07        -0.53543E-11         0.00000E+00
    0.28511E-07        -0.49903E-11         0.00000E+00
    0.28510E-07        -0.46098E-11         0.00000E+00
    0.28510E-07        -0.42135E-11         0.00000E+00
    0.28509E-07        -0.38017E-11         0.00000E+00
    0.28509E-07        -0.33749E-11         0.00000E+00
    0.28508E-07        -0.29336E-11         0.00000E+00
    0.28508E-07        -0.24781E-11         0.00000E+00
    0.28508E-07        -0.20087E-11         0.00000E+00
    0.28508E-07        -0.15260E-11         0.00000E+00
    0.28507E-07        -0.10300E-11         0.00000E+00
    0.28507E-07        -0.52115E-12         0.00000E+00
    0.28507E-07        -0.26354E-12         0.00000E+00
    0.28447E-07        -0.22550E-12         0.00000E+00
    0.28447E-07        -0.43994E-12         0.00000E+00
    0.28447E-07        -0.85382E-12         0.00000E+00
    0.28446E-07        -0.12381E-11         0.00000E+00
    0.28446E-07        -0.15936E-11         0.00000E+00
    0.28446E-07        -0.19212E-11         0.00000E+00
    0.28445E-07        -0.22216E-11         0.00000E+00
    0.28445E-07        -0.24956E-11         0.00000E+00
    0.28445E-07        -0.27442E-11         0.00000E+00
    0.28444E-07        -0.29680E-11         0.00000E+00
    0.28443E-07        -0.31679E-11         0.00000E+00
    0.28443E-07        -0.33448E-11         0.00000E+00
    0.28442E-07        -0.34994E-11         0.00000E+00
    0.28441E-07        -0.36325E-11         0.00000E+00
    0.28441E-07        -0.37449E-11         0.00000E+00
    0.28440E-07        -0.38375E-11         0.00000E+00
    0.28439E-07        -0.39110E-11         0.00000E+00
    0.28438E-07        -0.39662E-11         0.00000E+00
    0.28438E-07        -0.40039E-11         0.00000E+00
    0.28437E-07        -0.40249E-11         0.00000E+00
    0.28436E-07        -0.40299E-11         0.00000E+00
    0.28435E-07        -0.40196E-11         0.00000E+00
    0.28434E-07        -0.39949E-11         0.00000E+00
    0.28433E-07        -0.39565E-11         0.00000E+00
    0.28432E-07        -0.39050E-11         0.00000E+00
    0.28431E-07        -0.38411E-11         0.00000E+00
    0.28430E-07        -0.37657E-11         0.00000E+00
    0.28430E-07        -0.36794E-11         0.00000E+00
    0.28429E-07        -0.35827E-11         0.00000E+00
    0.28428E-07        -0.34765E-11         0.00000E+00
    0.28427E-07        -0.33613E-11         0.00000E+00
    0.28426E-07        -0.32378E-11         0.00000E+00
    0.28425E-07        -0.31065E-11         0.00000E+00
    0.28424E-07        -0.29681E-11         0.00000E+00
    0.28424E-07        -0.28231E-11         0.00000E+00
    0.28423E-07        -0.26721E-11         0.00000E+00
    0.28422E-07        -0.25156E-11         0.00000E+00
    0.28421E-07        -0.23542E-11         0.00000E+00
    0.28421E-07        -0.21883E-11         0.00000E+00
    0.28420E-07        -0.20184E-11         0.00000E+00
    0.28420E-07        -0.18449E-11         0.00000E+00
    0.28419E-07        -0.16684E-11         0.00000E+00
    0.28419E-07        -0.14892E-11         0.00000E+00
    0.28418E-07        -0.13076E-11         0.00000E+00
    0.28418E-07        -0.11242E-11         0.00000E+00
    0.28417E-07        -0.93911E-12         0.00000E+00
    0.28417E-07        -0.75276E-12         0.00000E+00
    0.28417E-07        -0.56542E-12         0.00000E+00
    0.28417E-07        -0.37736E-12         0.00000E+00
    0.28417E-07        -0.18881E-12         0.00000E+00
    0.28417E-07        -0.94445E-13         0.00000E+00
    0.28395E-07        -0.34979E-13         0.00000E+00
    0.28395E-07        -0.65135E-13         0.00000E+00
    0.28395E-07        -0.11905E-12         0.00000E+00
    0.28395E-07        -0.16051E-12         0.00000E+00
    0.28395E-07        -0.19020E-12         0.00000E+00
    0.28394E-07        -0.20883E-12         0.00000E+00
    0.28394E-07        -0.21708E-12         0.00000E+00
    0.28394E-07        -0.21565E-12         0.00000E+00
    0.28393E-07        -0.20523E-12         0.00000E+00
    0.28393E-07        -0.18651E-12         0.00000E+00
    0.28392E-07        -0.16019E-12         0.00000E+00
    0.28391E-07        -0.12694E-12         0.00000E+00
    0.28391E-07        -0.87467E-13         0.00000E+00
    0.28390E-07        -0.42441E-13         0.00000E+00
    0.28389E-07         0.74547E-14         0.00000E+00
    0.28389E-07         0.61546E-13         0.00000E+00
    0.28388E-07         0.11916E-12         0.00000E+00
    0.28387E-07         0.17964E-12         0.00000E+00
    0.28386E-07         0.24233E-12         0.00000E+00
    0.28385E-07         0.30656E-12         0.00000E+00
    0.28384E-07         0.37170E-12         0.00000E+00
    0.28383E-07         0.43712E-12         0.00000E+00
    0.28383E-07         0.50217E-12         0.00000E+00
    0.28382E-07         0.56625E-12         0.00000E+00
    0.28381E-07         0.62875E-12         0.00000E+00
    0.28380E-07         0.68906E-12         0.00000E+00
    0.28379E-07         0.74659E-12         0.00000E+00
    0.28378E-07         0.80077E-12         0.00000E+00
    0.28377E-07         0.85104E-12         0.00000E+00
    0.28376E-07         0.89683E-12         0.00000E+00
    0.28375E-07         0.93760E-12         0.00000E+00
    0.28374E-07         0.97284E-12         0.00000E+00
    0.28374E-07         0.10020E-11         0.00000E+00
    0.28373E-07         0.10246E-11         0.00000E+00
    0.28372E-07         0.10402E-11         0.00000E+00
    0.28371E-07         0.10483E-11         0.00000E+00
    0.28371E-07         0.10484E-11         0.00000E+00
    0.28370E-07         0.10401E-11         0.00000E+00
    0.28369E-07         0.10229E-11         0.00000E+00
    0.28369E-07         0.99656E-12         0.00000E+00
    0.28368E-07         0.96057E-12         0.00000E+00
    0.28367E-07         0.91459E-12         0.00000E+00
    0.28367E-07         0.85827E-12         0.00000E+00
    0.28366E-07         0.79128E-12         0.00000E+00
    0.28366E-07         0.71330E-12         0.00000E+00
    0.28366E-07         0.62404E-12         0.00000E+00
    0.28365E-07         0.52323E-12         0.00000E+00
    0.28365E-07         0.41060E-12         0.00000E+00
    0.28365E-07         0.28594E-12         0.00000E+00
    0.28365E-07         0.14902E-12         0.00000E+00
    0.28365E-07         0.77468E-13         0.00000E+00
    0.28383E-07         0.15657E-12         0.00000E+00
    0.28383E-07         0.31174E-12         0.00000E+00
    0.28383E-07         0.61989E-12         0.00000E+00
    0.28382E-07         0.92339E-12         0.00000E+00
    0.28382E-07         0.12217E-11         0.00000E+00
    0.28382E-07         0.15141E-11         0.00000E+00
    0.28382E-07         0.18002E-11         0.00000E+00
    0.28381E-07         0.20793E-11         0.00000E+00
    0.28381E-07         0.23509E-11         0.00000E+00
    0.28380E-07         0.26143E-11         0.00000E+00
    0.28379E-07         0.28690E-11         0.00000E+00
    0.28379E-07         0.31145E-11         0.00000E+00
    0.28378E-07         0.33501E-11         0.00000E+00
    0.28377E-07         0.35752E-11         0.00000E+00
    0.28377E-07         0.37894E-11         0.00000E+00
    0.28376E-07         0.39921E-11         0.00000E+00
    0.28375E-07         0.41827E-11         0.00000E+00
    0.28374E-07         0.43606E-11         0.00000E+00
    0.28373E-07         0.45253E-11         0.00000E+00
    0.28373E-07         0.46763E-11         0.00000E+00
    0.28372E-07         0.48130E-11         0.00000E+00
    0.28371E-07         0.49350E-11         0.00000E+00
    0.28370E-07         0.50416E-11         0.00000E+00
    0.28369E-07         0.51324E-11         0.00000E+00
    0.28368E-07         0.52068E-11         0.00000E+00
    0.28367E-07         0.52644E-11         0.00000E+00
    0.28366E-07         0.53047E-11         0.00000E+00
    0.28365E-07         0.53273E-11         0.00000E+00
    0.28364E-07         0.53315E-11         0.00000E+00
    0.28364E-07         0.53170E-11         0.00000E+00
    0.28363E-07         0.52834E-11         0.00000E+00
    0.28362E-07         0.52301E-11         0.00000E+00
    0.28361E-07         0.51568E-11         0.00000E+00
    0.28360E-07         0.50630E-11         0.00000E+00
    0.28359E-07         0.49484E-11         0.00000E+00
    0.28359E-07         0.48126E-11         0.00000E+00
    0.28358E-07         0.46551E-11         0.00000E+00
    0.28357E-07         0.44756E-11         0.00000E+00
    0.28356E-07         0.42737E-11         0.00000E+00
    0.28356E-07         0.40492E-11         0.00000E+00
    0.28355E-07         0.38016E-11         0.00000E+00
    0.28355E-07         0.35307E-11         0.00000E+00
    0.28354E-07         0.32362E-11         0.00000E+00
    0.28354E-07         0.29178E-11         0.00000E+00
    0.28353E-07         0.25753E-11         0.00000E+00
    0.28353E-07         0.22083E-11         0.00000E+00
    0.28353E-07         0.18166E-11         0.00000E+00
    0.28352E-07         0.14001E-11         0.00000E+00
    0.28352E-07         0.95848E-12         0.00000E+00
    0.28352E-07         0.49161E-12         0.00000E+00
    0.28352E-07         0.25183E-12         0.00000E+00
    0.28409E-07         0.34914E-12         0.00000E+00
    0.28409E-07         0.69065E-12         0.00000E+00
    0.28409E-07         0.13629E-11         0.00000E+00
    0.28409E-07         0.20134E-11         0.00000E+00
    0.28408E-07         0.26417E-11         0.00000E+00
    0.28408E-07         0.32473E-11         0.00000E+00
    0.28408E-07         0.38298E-11         0.00000E+00
    0.28407E-07         0.43886E-11         0.00000E+00
    0.28407E-07         0.49232E-11         0.00000E+00
    0.28406E-07         0.54333E-11         0.00000E+00
    0.28406E-07         0.59184E-11         0.00000E+00
    0.28405E-07         0.63779E-11         0.00000E+00
    0.28404E-07         0.68115E-11         0.00000E+00
    0.28404E-07         0.72186E-11         0.00000E+00
    0.28403E-07         0.75988E-11         0.00000E+00
    0.28402E-07         0.79517E-11         0.00000E+00
    0.28401E-07         0.82768E-11         0.00000E+00
    0.28400E-07         0.85736E-11         0.00000E+00
    0.28400E-07         0.88418E-11         0.00000E+00
    0.28399E-07         0.90809E-11         0.00000E+00
    0.28398E-07         0.92904E-11         0.00000E+00
    0.28397E-07         0.94699E-11         0.00000E+00
    0.28396E-07         0.96191E-11         0.00000E+00
    0.28395E-07         0.97375E-11         0.00000E+00
    0.28394E-07         0.98246E-11         0.00000E+00
    0.28393E-07         0.98802E-11         0.00000E+00
    0.28392E-07         0.99038E-11         0.00000E+00
    0.28391E-07         0.98950E-11         0.00000E+00
    0.28391E-07         0.98534E-11         0.00000E+00
    0.28390E-07         0.97788E-11         0.00000E+00
    0.28389E-07         0.96706E-11         0.00000E+00
    0.28388E-07         0.95286E-11         0.00000E+00
    0.28387E-07         0.93524E-11         0.00000E+00
    0.28386E-07         0.91416E-11         0.00000E+00
    0.28385E-07         0.88961E-11         0.00000E+00
    0.28385E-07         0.86153E-11         0.00000E+00
    0.28384E-07         0.82991E-11         0.00000E+00
    0.28383E-07         0.79471E-11         0.00000E+00
    0.28382E-07         0.75590E-11         0.00000E+00
    0.28382E-07         0.71346E-11         0.00000E+00
    0.28381E-07         0.66736E-11         0.00000E+00
    0.28381E-07         0.61757E-11         0.00000E+00
    0.28380E-07         0.56407E-11         0.00000E+00
    0.28380E-07         0.50683E-11         0.00000E+00
    0.28379E-07         0.44584E-11         0.00000E+00
    0.28379E-07         0.38107E-11         0.00000E+00
    0.28379E-07         0.31250E-11         0.00000E+00
    0.28378E-07         0.24012E-11         0.00000E+00
    0.28378E-07         0.16390E-11         0.00000E+00
    0.28378E-07         0.83829E-12         0.00000E+00
    0.28378E-07         0.42829E-12         0.00000E+00
    0.28474E-07         0.54272E-12         0.00000E+00
    0.28474E-07         0.10716E-11         0.00000E+00
    0.28474E-07         0.21100E-11         0.00000E+00
    0.28474E-07         0.31095E-11         0.00000E+00
    0.28473E-07         0.40698E-11         0.00000E+00
    0.28473E-07         0.49905E-11         0.00000E+00
    0.28473E-07         0.58712E-11         0.00000E+00
    0.28472E-07         0.67115E-11         0.00000E+00
    0.28472E-07         0.75112E-11         0.00000E+00
    0.28471E-07         0.82697E-11         0.00000E+00
    0.28471E-07         0.89868E-11         0.00000E+00
    0.28470E-07         0.96621E-11         0.00000E+00
    0.28469E-07         0.10295E-10         0.00000E+00
    0.28469E-07         0.10886E-10         0.00000E+00
    0.28468E-07         0.11434E-10         0.00000E+00
    0.28467E-07         0.11938E-10         0.00000E+00
    0.28466E-07         0.12399E-10         0.00000E+00
    0.28465E-07         0.12816E-10         0.00000E+00
    0.28465E-07         0.13189E-10         0.00000E+00
    0.28464E-07         0.13517E-10         0.00000E+00
    0.28463E-07         0.13800E-10         0.00000E+00
    0.28462E-07         0.14038E-10         0.00000E+00
    0.28461E-07         0.14231E-10         0.00000E+00
    0.28460E-07         0.14378E-10         0.00000E+00
    0.28459E-07         0.14478E-10         0.00000E+00
    0.28458E-07         0.14532E-10         0.00000E+00
    0.28457E-07         0.14539E-10         0.00000E+00
    0.28456E-07         0.14499E-10         0.00000E+00
    0.28455E-07         0.14412E-10         0.00000E+00
    0.28454E-07         0.14277E-10         0.00000E+00
    0.28454E-07         0.14094E-10         0.00000E+00
    0.28453E-07         0.13863E-10         0.00000E+00
    0.28452E-07         0.13584E-10         0.00000E+00
    0.28451E-07         0.13255E-10         0.00000E+00
    0.28450E-07         0.12878E-10         0.00000E+00
    0.28449E-07         0.12451E-10         0.00000E+00
    0.28449E-07         0.11975E-10         0.00000E+00
    0.28448E-07         0.11450E-10         0.00000E+00
    0.28447E-07         0.10874E-10         0.00000E+00
    0.28447E-07         0.10248E-10         0.00000E+00
    0.28446E-07         0.95721E-11         0.00000E+00
    0.28445E-07         0.88454E-11         0.00000E+00
    0.28445E-07         0.80678E-11         0.00000E+00
    0.28444E-07         0.72393E-11         0.00000E+00
    0.28444E-07         0.63597E-11         0.00000E+00
    0.28444E-07         0.54287E-11         0.00000E+00
    0.28443E-07         0.44463E-11         0.00000E+00
    0.28443E-07         0.34122E-11         0.00000E+00
    0.28443E-07         0.23263E-11         0.00000E+00
    0.28443E-07         0.11884E-11         0.00000E+00
    0.28443E-07         0.60653E-12         0.00000E+00
    0.28578E-07         0.73732E-12         0.00000E+00
    0.28578E-07         0.14545E-11         0.00000E+00
    0.28578E-07         0.28610E-11         0.00000E+00
    0.28577E-07         0.42115E-11         0.00000E+00
    0.28577E-07         0.55057E-11         0.00000E+00
    0.28577E-07         0.67433E-11         0.00000E+00
    0.28576E-07         0.79241E-11         0.00000E+00
    0.28576E-07         0.90477E-11         0.00000E+00
    0.28576E-07         0.10114E-10         0.00000E+00
    0.28575E-07         0.11123E-10         0.00000E+00
    0.28574E-07         0.12073E-10         0.00000E+00
    0.28574E-07         0.12966E-10         0.00000E+00
    0.28573E-07         0.13800E-10         0.00000E+00
    0.28572E-07         0.14575E-10         0.00000E+00
    0.28572E-07         0.15292E-10         0.00000E+00
    0.28571E-07         0.15949E-10         0.00000E+00
    0.28570E-07         0.16547E-10         0.00000E+00
    0.28569E-07         0.17085E-10         0.00000E+00
    0.28568E-07         0.17564E-10         0.00000E+00
    0.28567E-07         0.17982E-10         0.00000E+00
    0.28566E-07         0.18340E-10         0.00000E+00
    0.28566E-07         0.18637E-10         0.00000E+00
    0.28565E-07         0.18873E-10         0.00000E+00
    0.28564E-07         0.19049E-10         0.00000E+00
    0.28563E-07         0.19163E-10         0.00000E+00
    0.28562E-07         0.19216E-10         0.00000E+00
    0.28561E-07         0.19207E-10         0.00000E+00
    0.28560E-07         0.19136E-10         0.00000E+00
    0.28559E-07         0.19003E-10         0.00000E+00
    0.28558E-07         0.18807E-10         0.00000E+00
    0.28557E-07         0.18550E-10         0.00000E+00
    0.28556E-07         0.18229E-10         0.00000E+00
    0.28555E-07         0.17846E-10         0.00000E+00
    0.28555E-07         0.17399E-10         0.00000E+00
    0.28554E-07         0.16889E-10         0.00000E+00
    0.28553E-07         0.16316E-10         0.00000E+00
    0.28552E-07         0.15680E-10         0.00000E+00
    0.28551E-07         0.14979E-10         0.00000E+00
    0.28551E-07         0.14215E-10         0.00000E+00
    0.28550E-07         0.13386E-10         0.00000E+00
    0.28550E-07         0.12493E-10         0.00000E+00
    0.28549E-07         0.11536E-10         0.00000E+00
    0.28548E-07         0.10514E-10         0.00000E+00
    0.28548E-07         0.94275E-11         0.00000E+00
    0.28548E-07         0.82761E-11         0.00000E+00
    0.28547E-07         0.70597E-11         0.00000E+00
    0.28547E-07         0.57782E-11         0.00000E+00
    0.28547E-07         0.44314E-11         0.00000E+00
    0.28547E-07         0.30192E-11         0.00000E+00
    0.28546E-07         0.15415E-11         0.00000E+00
    0.28546E-07         0.78626E-12         0.00000E+00
    0.28720E-07         0.93295E-12         0.00000E+00
    0.28720E-07         0.18395E-11         0.00000E+00
    0.28720E-07         0.36161E-11         0.00000E+00
    0.28720E-07         0.53194E-11         0.00000E+00
    0.28720E-07         0.69493E-11         0.00000E+00
    0.28720E-07         0.85056E-11         0.00000E+00
    0.28719E-07         0.99881E-11         0.00000E+00
    0.28719E-07         0.11397E-10         0.00000E+00
    0.28718E-07         0.12731E-10         0.00000E+00
    0.28718E-07         0.13991E-10         0.00000E+00
    0.28717E-07         0.15177E-10         0.00000E+00
    0.28716E-07         0.16288E-10         0.00000E+00
    0.28716E-07         0.17324E-10         0.00000E+00
    0.28715E-07         0.18286E-10         0.00000E+00
    0.28714E-07         0.19172E-10         0.00000E+00
    0.28713E-07         0.19983E-10         0.00000E+00
    0.28713E-07         0.20719E-10         0.00000E+00
    0.28712E-07         0.21379E-10         0.00000E+00
    0.28711E-07         0.21964E-10         0.00000E+00
    0.28710E-07         0.22473E-10         0.00000E+00
    0.28709E-07         0.22905E-10         0.00000E+00
    0.28708E-07         0.23262E-10         0.00000E+00
    0.28707E-07         0.23543E-10         0.00000E+00
    0.28706E-07         0.23748E-10         0.00000E+00
    0.28705E-07         0.23876E-10         0.00000E+00
    0.28704E-07         0.23927E-10         0.00000E+00
    0.28703E-07         0.23902E-10         0.00000E+00
    0.28703E-07         0.23800E-10         0.00000E+00
    0.28702E-07         0.23621E-10         0.00000E+00
    0.28701E-07         0.23365E-10         0.00000E+00
    0.28700E-07         0.23032E-10         0.00000E+00
    0.28699E-07         0.22622E-10         0.00000E+00
    0.28698E-07         0.22134E-10         0.00000E+00
    0.28697E-07         0.21569E-10         0.00000E+00
    0.28696E-07         0.20926E-10         0.00000E+00
    0.28696E-07         0.20205E-10         0.00000E+00
    0.28695E-07         0.19407E-10         0.00000E+00
    0.28694E-07         0.18531E-10         0.00000E+00
    0.28693E-07         0.17576E-10         0.00000E+00
    0.28693E-07         0.16544E-10         0.00000E+00
    0.28692E-07         0.15433E-10         0.00000E+00
    0.28692E-07         0.14244E-10         0.00000E+00
    0.28691E-07         0.12976E-10         0.00000E+00
    0.28691E-07         0.11630E-10         0.00000E+00
    0.28690E-07         0.10205E-10         0.00000E+00
    0.28690E-07         0.87013E-11         0.00000E+00
    0.28689E-07         0.71188E-11         0.00000E+00
    0.28689E-07         0.54572E-11         0.00000E+00
    0.28689E-07         0.37166E-11         0.00000E+00
    0.28689E-07         0.18969E-11         0.00000E+00
    0.28689E-07         0.96716E-12         0.00000E+00
    0.28902E-07         0.11296E-11         0.00000E+00
    0.28902E-07         0.22266E-11         0.00000E+00
    0.28902E-07         0.43752E-11         0.00000E+00
    0.28902E-07         0.64332E-11         0.00000E+00
    0.28902E-07         0.84006E-11         0.00000E+00
    0.28901E-07         0.10277E-10         0.00000E+00
    0.28901E-07         0.12063E-10         0.00000E+00
    0.28900E-07         0.13758E-10         0.00000E+00
    0.28900E-07         0.15362E-10         0.00000E+00
    0.28899E-07         0.16875E-10         0.00000E+00
    0.28899E-07         0.18297E-10         0.00000E+00
    0.28898E-07         0.19627E-10         0.00000E+00
    0.28897E-07         0.20867E-10         0.00000E+00
    0.28897E-07         0.22015E-10         0.00000E+00
    0.28896E-07         0.23072E-10         0.00000E+00
    0.28895E-07         0.24038E-10         0.00000E+00
    0.28894E-07         0.24912E-10         0.00000E+00
    0.28894E-07         0.25695E-10         0.00000E+00
    0.28893E-07         0.26386E-10         0.00000E+00
    0.28892E-07         0.26986E-10         0.00000E+00
    0.28891E-07         0.27495E-10         0.00000E+00
    0.28890E-07         0.27912E-10         0.00000E+00
    0.28889E-07         0.28237E-10         0.00000E+00
    0.28888E-07         0.28470E-10         0.00000E+00
    0.28887E-07         0.28612E-10         0.00000E+00
    0.28886E-07         0.28663E-10         0.00000E+00
    0.28885E-07         0.28621E-10         0.00000E+00
    0.28884E-07         0.28488E-10         0.00000E+00
    0.28883E-07         0.28263E-10         0.00000E+00
    0.28882E-07         0.27946E-10         0.00000E+00
    0.28881E-07         0.27537E-10         0.00000E+00
    0.28881E-07         0.27036E-10         0.00000E+00
    0.28880E-07         0.26444E-10         0.00000E+00
    0.28879E-07         0.25759E-10         0.00000E+00
    0.28878E-07         0.24982E-10         0.00000E+00
    0.28877E-07         0.24114E-10         0.00000E+00
    0.28876E-07         0.23153E-10         0.00000E+00
    0.28876E-07         0.22100E-10         0.00000E+00
    0.28875E-07         0.20954E-10         0.00000E+00
    0.28874E-07         0.19717E-10         0.00000E+00
    0.28874E-07         0.18387E-10         0.00000E+00
    0.28873E-07         0.16965E-10         0.00000E+00
    0.28873E-07         0.15450E-10         0.00000E+00
    0.28872E-07         0.13843E-10         0.00000E+00
    0.28872E-07         0.12143E-10         0.00000E+00
    0.28871E-07         0.10351E-10         0.00000E+00
    0.28871E-07         0.84659E-11         0.00000E+00
    0.28871E-07         0.64882E-11         0.00000E+00
    0.28871E-07         0.44175E-11         0.00000E+00
    0.28871E-07         0.22540E-11         0.00000E+00
    0.28871E-07         0.11490E-11         0.00000E+00
    0.29123E-07         0.13273E-11         0.00000E+00
    0.29123E-07         0.26156E-11         0.00000E+00
    0.29123E-07         0.51382E-11         0.00000E+00
    0.29123E-07         0.75528E-11         0.00000E+00
    0.29123E-07         0.98593E-11         0.00000E+00
    0.29122E-07         0.12058E-10         0.00000E+00
    0.29122E-07         0.14148E-10         0.00000E+00
    0.29122E-07         0.16131E-10         0.00000E+00
    0.29121E-07         0.18006E-10         0.00000E+00
    0.29121E-07         0.19772E-10         0.00000E+00
    0.29120E-07         0.21431E-10         0.00000E+00
    0.29119E-07         0.22983E-10         0.00000E+00
    0.29119E-07         0.24426E-10         0.00000E+00
    0.29118E-07         0.25762E-10         0.00000E+00
    0.29117E-07         0.26991E-10         0.00000E+00
    0.29116E-07         0.28111E-10         0.00000E+00
    0.29115E-07         0.29125E-10         0.00000E+00
    0.29115E-07         0.30030E-10         0.00000E+00
    0.29114E-07         0.30829E-10         0.00000E+00
    0.29113E-07         0.31520E-10         0.00000E+00
    0.29112E-07         0.32104E-10         0.00000E+00
    0.29111E-07         0.32581E-10         0.00000E+00
    0.29110E-07         0.32951E-10         0.00000E+00
    0.29109E-07         0.33214E-10         0.00000E+00
    0.29108E-07         0.33369E-10         0.00000E+00
    0.29107E-07         0.33418E-10         0.00000E+00
    0.29106E-07         0.33360E-10         0.00000E+00
    0.29105E-07         0.33195E-10         0.00000E+00
    0.29104E-07         0.32924E-10         0.00000E+00
    0.29103E-07         0.32545E-10         0.00000E+00
    0.29103E-07         0.32060E-10         0.00000E+00
    0.29102E-07         0.31469E-10         0.00000E+00
    0.29101E-07         0.30771E-10         0.00000E+00
    0.29100E-07         0.29966E-10         0.00000E+00
    0.29099E-07         0.29055E-10         0.00000E+00
    0.29098E-07         0.28037E-10         0.00000E+00
    0.29098E-07         0.26913E-10         0.00000E+00
    0.29097E-07         0.25682E-10         0.00000E+00
    0.29096E-07         0.24345E-10         0.00000E+00
    0.29095E-07         0.22902E-10         0.00000E+00
    0.29095E-07         0.21352E-10         0.00000E+00
    0.29094E-07         0.19696E-10         0.00000E+00
    0.29094E-07         0.17933E-10         0.00000E+00
    0.29093E-07         0.16064E-10         0.00000E+00
    0.29093E-07         0.14088E-10         0.00000E+00
    0.29092E-07         0.12006E-10         0.00000E+00
    0.29092E-07         0.98177E-11         0.00000E+00
    0.29092E-07         0.75226E-11         0.00000E+00
    0.29092E-07         0.51208E-11         0.00000E+00
    0.29092E-07         0.26123E-11         0.00000E+00
    0.29092E-07         0.13313E-11         0.00000E+00
    0.29384E-07         0.15261E-11         0.00000E+00
    0.29384E-07         0.30068E-11         0.00000E+00
    0.29384E-07         0.59052E-11         0.00000E+00
    0.29384E-07         0.86780E-11         0.00000E+00
    0.29384E-07         0.11325E-10         0.00000E+00
    0.29383E-07         0.13847E-10         0.00000E+00
    0.29383E-07         0.16244E-10         0.00000E+00
    0.29383E-07         0.18515E-10         0.00000E+00
    0.29382E-07         0.20662E-10         0.00000E+00
    0.29381E-07         0.22684E-10         0.00000E+00
    0.29381E-07         0.24581E-10         0.00000E+00
    0.29380E-07         0.26353E-10         0.00000E+00
    0.29379E-07         0.28001E-10         0.00000E+00
    0.29379E-07         0.29526E-10         0.00000E+00
    0.29378E-07         0.30926E-10         0.00000E+00
    0.29377E-07         0.32202E-10         0.00000E+00
    0.29376E-07         0.33354E-10         0.00000E+00
    0.29375E-07         0.34383E-10         0.00000E+00
    0.29375E-07         0.35289E-10         0.00000E+00
    0.29374E-07         0.36072E-10         0.00000E+00
    0.29373E-07         0.36731E-10         0.00000E+00
    0.29372E-07         0.37268E-10         0.00000E+00
    0.29371E-07         0.37682E-10         0.00000E+00
    0.29370E-07         0.37973E-10         0.00000E+00
    0.29369E-07         0.38143E-10         0.00000E+00
    0.29368E-07         0.38190E-10         0.00000E+00
    0.29367E-07         0.38114E-10         0.00000E+00
    0.29366E-07         0.37918E-10         0.00000E+00
    0.29365E-07         0.37599E-10         0.00000E+00
    0.29364E-07         0.37159E-10         0.00000E+00
    0.29363E-07         0.36597E-10         0.00000E+00
    0.29362E-07         0.35914E-10         0.00000E+00
    0.29362E-07         0.35109E-10         0.00000E+00
    0.29361E-07         0.34184E-10         0.00000E+00
    0.29360E-07         0.33138E-10         0.00000E+00
    0.29359E-07         0.31970E-10         0.00000E+00
    0.29358E-07         0.30682E-10         0.00000E+00
    0.29358E-07         0.29273E-10         0.00000E+00
    0.29357E-07         0.27744E-10         0.00000E+00
    0.29356E-07         0.26094E-10         0.00000E+00
    0.29356E-07         0.24324E-10         0.00000E+00
    0.29355E-07         0.22433E-10         0.00000E+00
    0.29354E-07         0.20421E-10         0.00000E+00
    0.29354E-07         0.18289E-10         0.00000E+00
    0.29354E-07         0.16037E-10         0.00000E+00
    0.29353E-07         0.13665E-10         0.00000E+00
    0.29353E-07         0.11172E-10         0.00000E+00
    0.29353E-07         0.85588E-11         0.00000E+00
    0.29353E-07         0.58252E-11         0.00000E+00
    0.29352E-07         0.29712E-11         0.00000E+00
    0.29352E-07         0.15140E-11         0.00000E+00
    0.29685E-07         0.17259E-11         0.00000E+00
    0.29685E-07         0.33999E-11         0.00000E+00
    0.29685E-07         0.66761E-11         0.00000E+00
    0.29685E-07         0.98089E-11         0.00000E+00
    0.29685E-07         0.12798E-10         0.00000E+00
    0.29684E-07         0.15645E-10         0.00000E+00
    0.29684E-07         0.18349E-10         0.00000E+00
    0.29683E-07         0.20911E-10         0.00000E+00
    0.29683E-07         0.23330E-10         0.00000E+00
    0.29682E-07         0.25607E-10         0.00000E+00
    0.29682E-07         0.27743E-10         0.00000E+00
    0.29681E-07         0.29737E-10         0.00000E+00
    0.29680E-07         0.31591E-10         0.00000E+00
    0.29680E-07         0.33303E-10         0.00000E+00
    0.29679E-07         0.34875E-10         0.00000E+00
    0.29678E-07         0.36307E-10         0.00000E+00
    0.29677E-07         0.37599E-10         0.00000E+00
    0.29676E-07         0.38751E-10         0.00000E+00
    0.29676E-07         0.39763E-10         0.00000E+00
    0.29675E-07         0.40637E-10         0.00000E+00
    0.29674E-07         0.41372E-10         0.00000E+00
    0.29673E-07         0.41968E-10         0.00000E+00
    0.29672E-07         0.42426E-10         0.00000E+00
    0.29671E-07         0.42746E-10         0.00000E+00
    0.29670E-07         0.42928E-10         0.00000E+00
    0.29669E-07         0.42972E-10         0.00000E+00
    0.29668E-07         0.42880E-10         0.00000E+00
    0.29667E-07         0.42650E-10         0.00000E+00
    0.29666E-07         0.42284E-10         0.00000E+00
    0.29665E-07         0.41781E-10         0.00000E+00
    0.29664E-07         0.41142E-10         0.00000E+00
    0.29663E-07         0.40366E-10         0.00000E+00
    0.29662E-07         0.39455E-10         0.00000E+00
    0.29662E-07         0.38409E-10         0.00000E+00
    0.29661E-07         0.37226E-10         0.00000E+00
    0.29660E-07         0.35909E-10         0.00000E+00
    0.29659E-07         0.34456E-10         0.00000E+00
    0.29658E-07         0.32869E-10         0.00000E+00
    0.29658E-07         0.31146E-10         0.00000E+00
    0.29657E-07         0.29289E-10         0.00000E+00
    0.29656E-07         0.27297E-10         0.00000E+00
    0.29656E-07         0.25171E-10         0.00000E+00
    0.29655E-07         0.22911E-10         0.00000E+00
    0.29655E-07         0.20516E-10         0.00000E+00
    0.29654E-07         0.17987E-10         0.00000E+00
    0.29654E-07         0.15324E-10         0.00000E+00
    0.29654E-07         0.12526E-10         0.00000E+00
    0.29654E-07         0.95951E-11         0.00000E+00
    0.29653E-07         0.65296E-11         0.00000E+00
    0.29653E-07         0.33300E-11         0.00000E+00
    0.29653E-07         0.16967E-11         0.00000E+00
    0.30027E-07         0.19268E-11         0.00000E+00
    0.30027E-07         0.37950E-11         0.00000E+00
    0.30027E-07         0.74508E-11         0.00000E+00
    0.30026E-07         0.10945E-10         0.00000E+00
    0.30026E-07         0.14279E-10         0.00000E+00
    0.30026E-07         0.17451E-10         0.00000E+00
    0.30025E-07         0.20463E-10         0.00000E+00
    0.30025E-07         0.23316E-10         0.00000E+00
    0.30024E-07         0.26009E-10         0.00000E+00
    0.30024E-07         0.28542E-10         0.00000E+00
    0.30023E-07         0.30917E-10         0.00000E+00
    0.30023E-07         0.33134E-10         0.00000E+00
    0.30022E-07         0.35192E-10         0.00000E+00
    0.30021E-07         0.37093E-10         0.00000E+00
    0.30020E-07         0.38837E-10         0.00000E+00
    0.30020E-07         0.40424E-10         0.00000E+00
    0.30019E-07         0.41855E-10         0.00000E+00
    0.30018E-07         0.43130E-10         0.00000E+00
    0.30017E-07         0.44249E-10         0.00000E+00
    0.30016E-07         0.45213E-10         0.00000E+00
    0.30015E-07         0.46022E-10         0.00000E+00
    0.30014E-07         0.46677E-10         0.00000E+00
    0.30013E-07         0.47179E-10         0.00000E+00
    0.30012E-07         0.47526E-10         0.00000E+00
    0.30011E-07         0.47720E-10         0.00000E+00
    0.30010E-07         0.47762E-10         0.00000E+00
    0.30009E-07         0.47651E-10         0.00000E+00
    0.30008E-07         0.47388E-10         0.00000E+00
    0.30008E-07         0.46973E-10         0.00000E+00
    0.30007E-07         0.46407E-10         0.00000E+00
    0.30006E-07         0.45690E-10         0.00000E+00
    0.30005E-07         0.44821E-10         0.00000E+00
    0.30004E-07         0.43803E-10         0.00000E+00
    0.30003E-07         0.42634E-10         0.00000E+00
    0.30002E-07         0.41315E-10         0.00000E+00
    0.30001E-07         0.39847E-10         0.00000E+00
    0.30001E-07         0.38229E-10         0.00000E+00
    0.30000E-07         0.36462E-10         0.00000E+00
    0.29999E-07         0.34547E-10         0.00000E+00
    0.29999E-07         0.32482E-10         0.00000E+00
    0.29998E-07         0.30269E-10         0.00000E+00
    0.29997E-07         0.27907E-10         0.00000E+00
    0.29997E-07         0.25398E-10         0.00000E+00
    0.29996E-07         0.22740E-10         0.00000E+00
    0.29996E-07         0.19934E-10         0.00000E+00
    0.29996E-07         0.16980E-10         0.00000E+00
    0.29995E-07         0.13879E-10         0.00000E+00
    0.29995E-07         0.10630E-10         0.00000E+00
    0.29995E-07         0.72328E-11         0.00000E+00
    0.29995E-07         0.36882E-11         0.00000E+00
    0.29995E-07         0.18790E-11         0.00000E+00
    0.30409E-07         0.21286E-11         0.00000E+00
    0.30409E-07         0.41922E-11         0.00000E+00
    0.30409E-07         0.82293E-11         0.00000E+00
    0.30409E-07         0.12087E-10         0.00000E+00
    0.30409E-07         0.15765E-10         0.00000E+00
    0.30408E-07         0.19265E-10         0.00000E+00
    0.30408E-07         0.22586E-10         0.00000E+00
    0.30408E-07         0.25730E-10         0.00000E+00
    0.30407E-07         0.28697E-10         0.00000E+00
    0.30406E-07         0.31487E-10         0.00000E+00
    0.30406E-07         0.34102E-10         0.00000E+00
    0.30405E-07         0.36540E-10         0.00000E+00
    0.30404E-07         0.38804E-10         0.00000E+00
    0.30404E-07         0.40893E-10         0.00000E+00
    0.30403E-07         0.42809E-10         0.00000E+00
    0.30402E-07         0.44551E-10         0.00000E+00
    0.30401E-07         0.46120E-10         0.00000E+00
    0.30400E-07         0.47517E-10         0.00000E+00
    0.30400E-07         0.48742E-10         0.00000E+00
    0.30399E-07         0.49796E-10         0.00000E+00
    0.30398E-07         0.50679E-10         0.00000E+00
    0.30397E-07         0.51392E-10         0.00000E+00
    0.30396E-07         0.51935E-10         0.00000E+00
    0.30395E-07         0.52310E-10         0.00000E+00
    0.30394E-07         0.52515E-10         0.00000E+00
    0.30393E-07         0.52553E-10         0.00000E+00
    0.30392E-07         0.52423E-10         0.00000E+00
    0.30391E-07         0.52125E-10         0.00000E+00
    0.30390E-07         0.51661E-10         0.00000E+00
    0.30389E-07         0.51031E-10         0.00000E+00
    0.30388E-07         0.50234E-10         0.00000E+00
    0.30387E-07         0.49272E-10         0.00000E+00
    0.30386E-07         0.48146E-10         0.00000E+00
    0.30386E-07         0.46854E-10         0.00000E+00
    0.30385E-07         0.45398E-10         0.00000E+00
    0.30384E-07         0.43779E-10         0.00000E+00
    0.30383E-07         0.41996E-10         0.00000E+00
    0.30383E-07         0.40049E-10         0.00000E+00
    0.30382E-07         0.37940E-10         0.00000E+00
    0.30381E-07         0.35667E-10         0.00000E+00
    0.30381E-07         0.33233E-10         0.00000E+00
    0.30380E-07         0.30636E-10         0.00000E+00
    0.30379E-07         0.27877E-10         0.00000E+00
    0.30379E-07         0.24957E-10         0.00000E+00
    0.30379E-07         0.21875E-10         0.00000E+00
    0.30378E-07         0.18631E-10         0.00000E+00
    0.30378E-07         0.15227E-10         0.00000E+00
    0.30378E-07         0.11660E-10         0.00000E+00
    0.30377E-07         0.79332E-11         0.00000E+00
    0.30377E-07         0.40449E-11         0.00000E+00
    0.30377E-07         0.20605E-11         0.00000E+00
    0.30834E-07         0.23315E-11         0.00000E+00
    0.30834E-07         0.45911E-11         0.00000E+00
    0.30833E-07         0.90112E-11         0.00000E+00
    0.30833E-07         0.13233E-10         0.00000E+00
    0.30833E-07         0.17258E-10         0.00000E+00
    0.30833E-07         0.21085E-10         0.00000E+00
    0.30832E-07         0.24717E-10         0.00000E+00
    0.30832E-07         0.28153E-10         0.00000E+00
    0.30831E-07         0.31394E-10         0.00000E+00
    0.30831E-07         0.34441E-10         0.00000E+00
    0.30830E-07         0.37294E-10         0.00000E+00
    0.30829E-07         0.39955E-10         0.00000E+00
    0.30829E-07         0.42424E-10         0.00000E+00
    0.30828E-07         0.44701E-10         0.00000E+00
    0.30827E-07         0.46787E-10         0.00000E+00
    0.30826E-07         0.48683E-10         0.00000E+00
    0.30826E-07         0.50390E-10         0.00000E+00
    0.30825E-07         0.51908E-10         0.00000E+00
    0.30824E-07         0.53238E-10         0.00000E+00
    0.30823E-07         0.54381E-10         0.00000E+00
    0.30822E-07         0.55337E-10         0.00000E+00
    0.30821E-07         0.56107E-10         0.00000E+00
    0.30820E-07         0.56691E-10         0.00000E+00
    0.30819E-07         0.57091E-10         0.00000E+00
    0.30818E-07         0.57307E-10         0.00000E+00
    0.30817E-07         0.57339E-10         0.00000E+00
    0.30816E-07         0.57189E-10         0.00000E+00
    0.30815E-07         0.56856E-10         0.00000E+00
    0.30814E-07         0.56341E-10         0.00000E+00
    0.30813E-07         0.55645E-10         0.00000E+00
    0.30813E-07         0.54769E-10         0.00000E+00
    0.30812E-07         0.53713E-10         0.00000E+00
    0.30811E-07         0.52477E-10         0.00000E+00
    0.30810E-07         0.51062E-10         0.00000E+00
    0.30809E-07         0.49469E-10         0.00000E+00
    0.30808E-07         0.47698E-10         0.00000E+00
    0.30808E-07         0.45749E-10         0.00000E+00
    0.30807E-07         0.43622E-10         0.00000E+00
    0.30806E-07         0.41319E-10         0.00000E+00
    0.30805E-07         0.38840E-10         0.00000E+00
    0.30805E-07         0.36184E-10         0.00000E+00
    0.30804E-07         0.33352E-10         0.00000E+00
    0.30804E-07         0.30345E-10         0.00000E+00
    0.30803E-07         0.27163E-10         0.00000E+00
    0.30803E-07         0.23806E-10         0.00000E+00
    0.30803E-07         0.20273E-10         0.00000E+00
    0.30802E-07         0.16567E-10         0.00000E+00
    0.30802E-07         0.12685E-10         0.00000E+00
    0.30802E-07         0.86295E-11         0.00000E+00
    0.30802E-07         0.43995E-11         0.00000E+00
    0.30802E-07         0.22409E-11         0.00000E+00
    0.31300E-07         0.25353E-11         0.00000E+00
    0.31300E-07         0.49919E-11         0.00000E+00
    0.31300E-07         0.97965E-11         0.00000E+00
    0.31300E-07         0.14384E-10         0.00000E+00
    0.31300E-07         0.18756E-10         0.00000E+00
    0.31299E-07         0.22912E-10         0.00000E+00
    0.31299E-07         0.26854E-10         0.00000E+00
    0.31299E-07         0.30583E-10         0.00000E+00
    0.31298E-07         0.34098E-10         0.00000E+00
    0.31297E-07         0.37401E-10         0.00000E+00
    0.31297E-07         0.40494E-10         0.00000E+00
    0.31296E-07         0.43376E-10         0.00000E+00
    0.31295E-07         0.46048E-10         0.00000E+00
    0.31295E-07         0.48512E-10         0.00000E+00
    0.31294E-07         0.50769E-10         0.00000E+00
    0.31293E-07         0.52818E-10         0.00000E+00
    0.31292E-07         0.54661E-10         0.00000E+00
    0.31291E-07         0.56299E-10         0.00000E+00
    0.31291E-07         0.57733E-10         0.00000E+00
    0.31290E-07         0.58963E-10         0.00000E+00
    0.31289E-07         0.59990E-10         0.00000E+00
    0.31288E-07         0.60816E-10         0.00000E+00
    0.31287E-07         0.61440E-10         0.00000E+00
    0.31286E-07         0.61864E-10         0.00000E+00
    0.31285E-07         0.62088E-10         0.00000E+00
    0.31284E-07         0.62114E-10         0.00000E+00
    0.31283E-07         0.61942E-10         0.00000E+00
    0.31282E-07         0.61572E-10         0.00000E+00
    0.31281E-07         0.61006E-10         0.00000E+00
    0.31280E-07         0.60244E-10         0.00000E+00
    0.31279E-07         0.59287E-10         0.00000E+00
    0.31278E-07         0.58135E-10         0.00000E+00
    0.31278E-07         0.56790E-10         0.00000E+00
    0.31277E-07         0.55251E-10         0.00000E+00
    0.31276E-07         0.53520E-10         0.00000E+00
    0.31275E-07         0.51596E-10         0.00000E+00
    0.31274E-07         0.49481E-10         0.00000E+00
    0.31274E-07         0.47175E-10         0.00000E+00
    0.31273E-07         0.44679E-10         0.00000E+00
    0.31272E-07         0.41992E-10         0.00000E+00
    0.31272E-07         0.39116E-10         0.00000E+00
    0.31271E-07         0.36050E-10         0.00000E+00
    0.31271E-07         0.32796E-10         0.00000E+00
    0.31270E-07         0.29353E-10         0.00000E+00
    0.31270E-07         0.25722E-10         0.00000E+00
    0.31269E-07         0.21903E-10         0.00000E+00
    0.31269E-07         0.17896E-10         0.00000E+00
    0.31269E-07         0.13702E-10         0.00000E+00
    0.31269E-07         0.93198E-11         0.00000E+00
    0.31269E-07         0.47509E-11         0.00000E+00
    0.31268E-07         0.24196E-11         0.00000E+00
    0.31810E-07         0.27400E-11         0.00000E+00
    0.31810E-07         0.53944E-11         0.00000E+00
    0.31810E-07         0.10585E-10         0.00000E+00
    0.31810E-07         0.15539E-10         0.00000E+00
    0.31810E-07         0.20259E-10         0.00000E+00
    0.31809E-07         0.24745E-10         0.00000E+00
    0.31809E-07         0.28997E-10         0.00000E+00
    0.31808E-07         0.33018E-10         0.00000E+00
    0.31808E-07         0.36807E-10         0.00000E+00
    0.31807E-07         0.40366E-10         0.00000E+00
    0.31807E-07         0.43697E-10         0.00000E+00
    0.31806E-07         0.46799E-10         0.00000E+00
    0.31805E-07         0.49675E-10         0.00000E+00
    0.31805E-07         0.52325E-10         0.00000E+00
    0.31804E-07         0.54750E-10         0.00000E+00
    0.31803E-07         0.56951E-10         0.00000E+00
    0.31802E-07         0.58929E-10         0.00000E+00
    0.31801E-07         0.60685E-10         0.00000E+00
    0.31800E-07         0.62221E-10         0.00000E+00
    0.31799E-07         0.63536E-10         0.00000E+00
    0.31799E-07         0.64633E-10         0.00000E+00
    0.31798E-07         0.65512E-10         0.00000E+00
    0.31797E-07         0.66175E-10         0.00000E+00
    0.31796E-07         0.66621E-10         0.00000E+00
    0.31795E-07         0.66853E-10         0.00000E+00
    0.31794E-07         0.66870E-10         0.00000E+00
    0.31793E-07         0.66675E-10         0.00000E+00
    0.31792E-07         0.66267E-10         0.00000E+00
    0.31791E-07         0.65648E-10         0.00000E+00
    0.31790E-07         0.64818E-10         0.00000E+00
    0.31789E-07         0.63779E-10         0.00000E+00
    0.31788E-07         0.62531E-10         0.00000E+00
    0.31787E-07         0.61075E-10         0.00000E+00
    0.31787E-07         0.59412E-10         0.00000E+00
    0.31786E-07         0.57542E-10         0.00000E+00
    0.31785E-07         0.55466E-10         0.00000E+00
    0.31784E-07         0.53185E-10         0.00000E+00
    0.31784E-07         0.50700E-10         0.00000E+00
    0.31783E-07         0.48010E-10         0.00000E+00
    0.31782E-07         0.45117E-10         0.00000E+00
    0.31782E-07         0.42021E-10         0.00000E+00
    0.31781E-07         0.38723E-10         0.00000E+00
    0.31781E-07         0.35223E-10         0.00000E+00
    0.31780E-07         0.31521E-10         0.00000E+00
    0.31780E-07         0.27618E-10         0.00000E+00
    0.31779E-07         0.23515E-10         0.00000E+00
    0.31779E-07         0.19211E-10         0.00000E+00
    0.31779E-07         0.14707E-10         0.00000E+00
    0.31779E-07         0.10002E-10         0.00000E+00
    0.31779E-07         0.50983E-11         0.00000E+00
    0.31778E-07         0.25963E-11         0.00000E+00
    0.32364E-07         0.29455E-11         0.00000E+00
    0.32364E-07         0.57983E-11         0.00000E+00
    0.32364E-07         0.11376E-10         0.00000E+00
    0.32364E-07         0.16698E-10         0.00000E+00
    0.32363E-07         0.21766E-10         0.00000E+00
    0.32363E-07         0.26581E-10         0.00000E+00
    0.32363E-07         0.31144E-10         0.00000E+00
    0.32362E-07         0.35456E-10         0.00000E+00
    0.32362E-07         0.39519E-10         0.00000E+00
    0.32361E-07         0.43333E-10         0.00000E+00
    0.32360E-07         0.46901E-10         0.00000E+00
    0.32360E-07         0.50223E-10         0.00000E+00
    0.32359E-07         0.53300E-10         0.00000E+00
    0.32358E-07         0.56134E-10         0.00000E+00
    0.32358E-07         0.58725E-10         0.00000E+00
    0.32357E-07         0.61076E-10         0.00000E+00
    0.32356E-07         0.63187E-10         0.00000E+00
    0.32355E-07         0.65060E-10         0.00000E+00
    0.32354E-07         0.66695E-10         0.00000E+00
    0.32353E-07         0.68094E-10         0.00000E+00
    0.32352E-07         0.69259E-10         0.00000E+00
    0.32351E-07         0.70190E-10         0.00000E+00
    0.32351E-07         0.70888E-10         0.00000E+00
    0.32350E-07         0.71355E-10         0.00000E+00
    0.32349E-07         0.71591E-10         0.00000E+00
    0.32348E-07         0.71599E-10         0.00000E+00
    0.32347E-07         0.71378E-10         0.00000E+00
    0.32346E-07         0.70930E-10         0.00000E+00
    0.32345E-07         0.70257E-10         0.00000E+00
    0.32344E-07         0.69358E-10         0.00000E+00
    0.32343E-07         0.68236E-10         0.00000E+00
    0.32342E-07         0.66891E-10         0.00000E+00
    0.32341E-07         0.65323E-10         0.00000E+00
    0.32341E-07         0.63535E-10         0.00000E+00
    0.32340E-07         0.61526E-10         0.00000E+00
    0.32339E-07         0.59298E-10         0.00000E+00
    0.32338E-07         0.56851E-10         0.00000E+00
    0.32337E-07         0.54187E-10         0.00000E+00
    0.32337E-07         0.51305E-10         0.00000E+00
    0.32336E-07         0.48207E-10         0.00000E+00
    0.32336E-07         0.44893E-10         0.00000E+00
    0.32335E-07         0.41363E-10         0.00000E+00
    0.32335E-07         0.37620E-10         0.00000E+00
    0.32334E-07         0.33662E-10         0.00000E+00
    0.32334E-07         0.29490E-10         0.00000E+00
    0.32333E-07         0.25105E-10         0.00000E+00
    0.32333E-07         0.20508E-10         0.00000E+00
    0.32333E-07         0.15697E-10         0.00000E+00
    0.32333E-07         0.10675E-10         0.00000E+00
    0.32333E-07         0.54404E-11         0.00000E+00
    0.32333E-07         0.27702E-11         0.00000E+00
    0.32963E-07         0.31518E-11         0.00000E+00
    0.32963E-07         0.62035E-11         0.00000E+00
    0.32963E-07         0.12169E-10         0.00000E+00
    0.32962E-07         0.17859E-10         0.00000E+00
    0.32962E-07         0.23276E-10         0.00000E+00
    0.32962E-07         0.28420E-10         0.00000E+00
    0.32961E-07         0.33293E-10         0.00000E+00
    0.32961E-07         0.37896E-10         0.00000E+00
    0.32960E-07         0.42231E-10         0.00000E+00
    0.32960E-07         0.46299E-10         0.00000E+00
    0.32959E-07         0.50102E-10         0.00000E+00
    0.32959E-07         0.53642E-10         0.00000E+00
    0.32958E-07         0.56918E-10         0.00000E+00
    0.32957E-07         0.59934E-10         0.00000E+00
    0.32956E-07         0.62690E-10         0.00000E+00
    0.32956E-07         0.65188E-10         0.00000E+00
    0.32955E-07         0.67430E-10         0.00000E+00
    0.32954E-07         0.69416E-10         0.00000E+00
    0.32953E-07         0.71149E-10         0.00000E+00
    0.32952E-07         0.72629E-10         0.00000E+00
    0.32951E-07         0.73859E-10         0.00000E+00
    0.32950E-07         0.74838E-10         0.00000E+00
    0.32949E-07         0.75570E-10         0.00000E+00
    0.32948E-07         0.76055E-10         0.00000E+00
    0.32947E-07         0.76294E-10         0.00000E+00
    0.32946E-07         0.76289E-10         0.00000E+00
    0.32946E-07         0.76042E-10         0.00000E+00
    0.32945E-07         0.75552E-10         0.00000E+00
    0.32944E-07         0.74822E-10         0.00000E+00
    0.32943E-07         0.73854E-10         0.00000E+00
    0.32942E-07         0.72647E-10         0.00000E+00
    0.32941E-07         0.71203E-10         0.00000E+00
    0.32940E-07         0.69524E-10         0.00000E+00
    0.32939E-07         0.67609E-10         0.00000E+00
    0.32939E-07         0.65462E-10         0.00000E+00
    0.32938E-07         0.63081E-10         0.00000E+00
    0.32937E-07         0.60469E-10         0.00000E+00
    0.32936E-07         0.57626E-10         0.00000E+00
    0.32936E-07         0.54553E-10         0.00000E+00
    0.32935E-07         0.51251E-10         0.00000E+00
    0.32935E-07         0.47721E-10         0.00000E+00
    0.32934E-07         0.43963E-10         0.00000E+00
    0.32933E-07         0.39978E-10         0.00000E+00
    0.32933E-07         0.35767E-10         0.00000E+00
    0.32933E-07         0.31330E-10         0.00000E+00
    0.32932E-07         0.26668E-10         0.00000E+00
    0.32932E-07         0.21781E-10         0.00000E+00
    0.32932E-07         0.16670E-10         0.00000E+00
    0.32932E-07         0.11335E-10         0.00000E+00
    0.32932E-07         0.57762E-11         0.00000E+00
    0.32932E-07         0.29408E-11         0.00000E+00
    0.33607E-07         0.33586E-11         0.00000E+00
    0.33607E-07         0.66097E-11         0.00000E+00
    0.33607E-07         0.12964E-10         0.00000E+00
    0.33607E-07         0.19022E-10         0.00000E+00
    0.33607E-07         0.24787E-10         0.00000E+00
    0.33606E-07         0.30260E-10         0.00000E+00
    0.33606E-07         0.35441E-10         0.00000E+00
    0.33606E-07         0.40334E-10         0.00000E+00
    0.33605E-07         0.44940E-10         0.00000E+00
    0.33604E-07         0.49260E-10         0.00000E+00
    0.33604E-07         0.53297E-10         0.00000E+00
    0.33603E-07         0.57051E-10         0.00000E+00
    0.33602E-07         0.60525E-10         0.00000E+00
    0.33602E-07         0.63720E-10         0.00000E+00
    0.33601E-07         0.66638E-10         0.00000E+00
    0.33600E-07         0.69281E-10         0.00000E+00
    0.33599E-07         0.71650E-10         0.00000E+00
    0.33598E-07         0.73747E-10         0.00000E+00
    0.33598E-07         0.75574E-10         0.00000E+00
    0.33597E-07         0.77132E-10         0.00000E+00
    0.33596E-07         0.78423E-10         0.00000E+00
    0.33595E-07         0.79449E-10         0.00000E+00
    0.33594E-07         0.80211E-10         0.00000E+00
    0.33593E-07         0.80711E-10         0.00000E+00
    0.33592E-07         0.80950E-10         0.00000E+00
    0.33591E-07         0.80931E-10         0.00000E+00
    0.33590E-07         0.80653E-10         0.00000E+00
    0.33589E-07         0.80120E-10         0.00000E+00
    0.33588E-07         0.79332E-10         0.00000E+00
    0.33588E-07         0.78291E-10         0.00000E+00
    0.33587E-07         0.76999E-10         0.00000E+00
    0.33586E-07         0.75455E-10         0.00000E+00
    0.33585E-07         0.73663E-10         0.00000E+00
    0.33584E-07         0.71623E-10         0.00000E+00
    0.33583E-07         0.69336E-10         0.00000E+00
    0.33583E-07         0.66803E-10         0.00000E+00
    0.33582E-07         0.64026E-10         0.00000E+00
    0.33581E-07         0.61006E-10         0.00000E+00
    0.33581E-07         0.57744E-10         0.00000E+00
    0.33580E-07         0.54240E-10         0.00000E+00
    0.33579E-07         0.50496E-10         0.00000E+00
    0.33579E-07         0.46512E-10         0.00000E+00
    0.33578E-07         0.42290E-10         0.00000E+00
    0.33578E-07         0.37830E-10         0.00000E+00
    0.33578E-07         0.33132E-10         0.00000E+00
    0.33577E-07         0.28198E-10         0.00000E+00
    0.33577E-07         0.23027E-10         0.00000E+00
    0.33577E-07         0.17621E-10         0.00000E+00
    0.33577E-07         0.11980E-10         0.00000E+00
    0.33577E-07         0.61040E-11         0.00000E+00
    0.33577E-07         0.31074E-11         0.00000E+00
    0.34299E-07         0.35658E-11         0.00000E+00
    0.34299E-07         0.70165E-11         0.00000E+00
    0.34299E-07         0.13759E-10         0.00000E+00
    0.34299E-07         0.20186E-10         0.00000E+00
    0.34298E-07         0.26298E-10         0.00000E+00
    0.34298E-07         0.32098E-10         0.00000E+00
    0.34298E-07         0.37588E-10         0.00000E+00
    0.34297E-07         0.42768E-10         0.00000E+00
    0.34297E-07         0.47643E-10         0.00000E+00
    0.34296E-07         0.52212E-10         0.00000E+00
    0.34296E-07         0.56479E-10         0.00000E+00
    0.34295E-07         0.60446E-10         0.00000E+00
    0.34294E-07         0.64114E-10         0.00000E+00
    0.34293E-07         0.67485E-10         0.00000E+00
    0.34293E-07         0.70561E-10         0.00000E+00
    0.34292E-07         0.73345E-10         0.00000E+00
    0.34291E-07         0.75837E-10         0.00000E+00
    0.34290E-07         0.78042E-10         0.00000E+00
    0.34289E-07         0.79959E-10         0.00000E+00
    0.34288E-07         0.81591E-10         0.00000E+00
    0.34288E-07         0.82941E-10         0.00000E+00
    0.34287E-07         0.84009E-10         0.00000E+00
    0.34286E-07         0.84798E-10         0.00000E+00
    0.34285E-07         0.85310E-10         0.00000E+00
    0.34284E-07         0.85547E-10         0.00000E+00
    0.34283E-07         0.85509E-10         0.00000E+00
    0.34282E-07         0.85200E-10         0.00000E+00
    0.34281E-07         0.84620E-10         0.00000E+00
    0.34280E-07         0.83772E-10         0.00000E+00
    0.34279E-07         0.82657E-10         0.00000E+00
    0.34279E-07         0.81277E-10         0.00000E+00
    0.34278E-07         0.79633E-10         0.00000E+00
    0.34277E-07         0.77727E-10         0.00000E+00
    0.34276E-07         0.75560E-10         0.00000E+00
    0.34275E-07         0.73134E-10         0.00000E+00
    0.34275E-07         0.70450E-10         0.00000E+00
    0.34274E-07         0.67510E-10         0.00000E+00
    0.34273E-07         0.64314E-10         0.00000E+00
    0.34273E-07         0.60864E-10         0.00000E+00
    0.34272E-07         0.57161E-10         0.00000E+00
    0.34271E-07         0.53206E-10         0.00000E+00
    0.34271E-07         0.49000E-10         0.00000E+00
    0.34271E-07         0.44545E-10         0.00000E+00
    0.34270E-07         0.39840E-10         0.00000E+00
    0.34270E-07         0.34887E-10         0.00000E+00
    0.34269E-07         0.29686E-10         0.00000E+00
    0.34269E-07         0.24239E-10         0.00000E+00
    0.34269E-07         0.18546E-10         0.00000E+00
    0.34269E-07         0.12607E-10         0.00000E+00
    0.34269E-07         0.64224E-11         0.00000E+00
    0.34269E-07         0.32690E-11         0.00000E+00
    0.35039E-07         0.37732E-11         0.00000E+00
    0.35039E-07         0.74236E-11         0.00000E+00
    0.35039E-07         0.14555E-10         0.00000E+00
    0.35039E-07         0.21349E-10         0.00000E+00
    0.35038E-07         0.27808E-10         0.00000E+00
    0.35038E-07         0.33933E-10         0.00000E+00
    0.35038E-07         0.39728E-10         0.00000E+00
    0.35037E-07         0.45194E-10         0.00000E+00
    0.35037E-07         0.50334E-10         0.00000E+00
    0.35036E-07         0.55150E-10         0.00000E+00
    0.35035E-07         0.59644E-10         0.00000E+00
    0.35035E-07         0.63819E-10         0.00000E+00
    0.35034E-07         0.67677E-10         0.00000E+00
    0.35033E-07         0.71220E-10         0.00000E+00
    0.35033E-07         0.74450E-10         0.00000E+00
    0.35032E-07         0.77371E-10         0.00000E+00
    0.35031E-07         0.79983E-10         0.00000E+00
    0.35030E-07         0.82290E-10         0.00000E+00
    0.35029E-07         0.84293E-10         0.00000E+00
    0.35028E-07         0.85996E-10         0.00000E+00
    0.35028E-07         0.87399E-10         0.00000E+00
    0.35027E-07         0.88506E-10         0.00000E+00
    0.35026E-07         0.89318E-10         0.00000E+00
    0.35025E-07         0.89838E-10         0.00000E+00
    0.35024E-07         0.90068E-10         0.00000E+00
    0.35023E-07         0.90010E-10         0.00000E+00
    0.35022E-07         0.89665E-10         0.00000E+00
    0.35021E-07         0.89036E-10         0.00000E+00
    0.35020E-07         0.88126E-10         0.00000E+00
    0.35020E-07         0.86935E-10         0.00000E+00
    0.35019E-07         0.85466E-10         0.00000E+00
    0.35018E-07         0.83720E-10         0.00000E+00
    0.35017E-07         0.81699E-10         0.00000E+00
    0.35016E-07         0.79406E-10         0.00000E+00
    0.35016E-07         0.76841E-10         0.00000E+00
    0.35015E-07         0.74006E-10         0.00000E+00
    0.35014E-07         0.70903E-10         0.00000E+00
    0.35014E-07         0.67533E-10         0.00000E+00
    0.35013E-07         0.63898E-10         0.00000E+00
    0.35012E-07         0.59999E-10         0.00000E+00
    0.35012E-07         0.55838E-10         0.00000E+00
    0.35011E-07         0.51414E-10         0.00000E+00
    0.35011E-07         0.46731E-10         0.00000E+00
    0.35010E-07         0.41787E-10         0.00000E+00
    0.35010E-07         0.36586E-10         0.00000E+00
    0.35010E-07         0.31127E-10         0.00000E+00
    0.35010E-07         0.25411E-10         0.00000E+00
    0.35009E-07         0.19439E-10         0.00000E+00
    0.35009E-07         0.13212E-10         0.00000E+00
    0.35009E-07         0.67295E-11         0.00000E+00
    0.35009E-07         0.34248E-11         0.00000E+00
    0.35828E-07         0.39806E-11         0.00000E+00
    0.35828E-07         0.78304E-11         0.00000E+00
    0.35828E-07         0.15349E-10         0.00000E+00
    0.35828E-07         0.22509E-10         0.00000E+00
    0.35828E-07         0.29312E-10         0.00000E+00
    0.35827E-07         0.35761E-10         0.00000E+00
    0.35827E-07         0.41858E-10         0.00000E+00
    0.35827E-07         0.47607E-10         0.00000E+00
    0.35826E-07         0.53009E-10         0.00000E+00
    0.35825E-07         0.58067E-10         0.00000E+00
    0.35825E-07         0.62784E-10         0.00000E+00
    0.35824E-07         0.67163E-10         0.00000E+00
    0.35824E-07         0.71206E-10         0.00000E+00
    0.35823E-07         0.74916E-10         0.00000E+00
    0.35822E-07         0.78295E-10         0.00000E+00
    0.35821E-07         0.81347E-10         0.00000E+00
    0.35820E-07         0.84074E-10         0.00000E+00
    0.35820E-07         0.86478E-10         0.00000E+00
    0.35819E-07         0.88563E-10         0.00000E+00
    0.35818E-07         0.90330E-10         0.00000E+00
    0.35817E-07         0.91783E-10         0.00000E+00
    0.35816E-07         0.92923E-10         0.00000E+00
    0.35815E-07         0.93754E-10         0.00000E+00
    0.35814E-07         0.94278E-10         0.00000E+00
    0.35814E-07         0.94497E-10         0.00000E+00
    0.35813E-07         0.94414E-10         0.00000E+00
    0.35812E-07         0.94030E-10         0.00000E+00
    0.35811E-07         0.93350E-10         0.00000E+00
    0.35810E-07         0.92374E-10         0.00000E+00
    0.35809E-07         0.91105E-10         0.00000E+00
    0.35809E-07         0.89545E-10         0.00000E+00
    0.35808E-07         0.87696E-10         0.00000E+00
    0.35807E-07         0.85560E-10         0.00000E+00
    0.35806E-07         0.83140E-10         0.00000E+00
    0.35805E-07         0.80436E-10         0.00000E+00
    0.35805E-07         0.77452E-10         0.00000E+00
    0.35804E-07         0.74189E-10         0.00000E+00
    0.35803E-07         0.70648E-10         0.00000E+00
    0.35803E-07         0.66831E-10         0.00000E+00
    0.35802E-07         0.62740E-10         0.00000E+00
    0.35802E-07         0.58376E-10         0.00000E+00
    0.35801E-07         0.53740E-10         0.00000E+00
    0.35801E-07         0.48835E-10         0.00000E+00
    0.35801E-07         0.43660E-10         0.00000E+00
    0.35800E-07         0.38218E-10         0.00000E+00
    0.35800E-07         0.32509E-10         0.00000E+00
    0.35800E-07         0.26534E-10         0.00000E+00
    0.35799E-07         0.20294E-10         0.00000E+00
    0.35799E-07         0.13791E-10         0.00000E+00
    0.35799E-07         0.70231E-11         0.00000E+00
    0.35799E-07         0.35736E-11         0.00000E+00
    0.36669E-07         0.41877E-11         0.00000E+00
    0.36669E-07         0.82362E-11         0.00000E+00
    0.36668E-07         0.16142E-10         0.00000E+00
    0.36668E-07         0.23665E-10         0.00000E+00
    0.36668E-07         0.30810E-10         0.00000E+00
    0.36668E-07         0.37579E-10         0.00000E+00
    0.36667E-07         0.43975E-10         0.00000E+00
    0.36667E-07         0.50001E-10         0.00000E+00
    0.36666E-07         0.55660E-10         0.00000E+00
    0.36666E-07         0.60955E-10         0.00000E+00
    0.36665E-07         0.65890E-10         0.00000E+00
    0.36665E-07         0.70467E-10         0.00000E+00
    0.36664E-07         0.74690E-10         0.00000E+00
    0.36663E-07         0.78561E-10         0.00000E+00
    0.36662E-07         0.82084E-10         0.00000E+00
    0.36662E-07         0.85261E-10         0.00000E+00
    0.36661E-07         0.88096E-10         0.00000E+00
    0.36660E-07         0.90592E-10         0.00000E+00
    0.36659E-07         0.92751E-10         0.00000E+00
    0.36658E-07         0.94578E-10         0.00000E+00
    0.36658E-07         0.96074E-10         0.00000E+00
    0.36657E-07         0.97242E-10         0.00000E+00
    0.36656E-07         0.98086E-10         0.00000E+00
    0.36655E-07         0.98609E-10         0.00000E+00
    0.36654E-07         0.98812E-10         0.00000E+00
    0.36653E-07         0.98700E-10         0.00000E+00
    0.36652E-07         0.98274E-10         0.00000E+00
    0.36652E-07         0.97538E-10         0.00000E+00
    0.36651E-07         0.96494E-10         0.00000E+00
    0.36650E-07         0.95144E-10         0.00000E+00
    0.36649E-07         0.93492E-10         0.00000E+00
    0.36648E-07         0.91538E-10         0.00000E+00
    0.36648E-07         0.89287E-10         0.00000E+00
    0.36647E-07         0.86740E-10         0.00000E+00
    0.36646E-07         0.83899E-10         0.00000E+00
    0.36646E-07         0.80767E-10         0.00000E+00
    0.36645E-07         0.77345E-10         0.00000E+00
    0.36644E-07         0.73636E-10         0.00000E+00
    0.36644E-07         0.69641E-10         0.00000E+00
    0.36643E-07         0.65363E-10         0.00000E+00
    0.36643E-07         0.60803E-10         0.00000E+00
    0.36642E-07         0.55962E-10         0.00000E+00
    0.36642E-07         0.50842E-10         0.00000E+00
    0.36642E-07         0.45445E-10         0.00000E+00
    0.36641E-07         0.39771E-10         0.00000E+00
    0.36641E-07         0.33823E-10         0.00000E+00
    0.36641E-07         0.27601E-10         0.00000E+00
    0.36641E-07         0.21106E-10         0.00000E+00
    0.36640E-07         0.14339E-10         0.00000E+00
    0.36640E-07         0.73009E-11         0.00000E+00
    0.36640E-07         0.37143E-11         0.00000E+00
    0.37561E-07         0.43941E-11         0.00000E+00
    0.37561E-07         0.86403E-11         0.00000E+00
    0.37561E-07         0.16929E-10         0.00000E+00
    0.37561E-07         0.24814E-10         0.00000E+00
    0.37561E-07         0.32296E-10         0.00000E+00
    0.37560E-07         0.39381E-10         0.00000E+00
    0.37560E-07         0.46071E-10         0.00000E+00
    0.37560E-07         0.52369E-10         0.00000E+00
    0.37559E-07         0.58280E-10         0.00000E+00
    0.37559E-07         0.63807E-10         0.00000E+00
    0.37558E-07         0.68953E-10         0.00000E+00
    0.37557E-07         0.73721E-10         0.00000E+00
    0.37557E-07         0.78117E-10         0.00000E+00
    0.37556E-07         0.82142E-10         0.00000E+00
    0.37555E-07         0.85800E-10         0.00000E+00
    0.37554E-07         0.89096E-10         0.00000E+00
    0.37554E-07         0.92032E-10         0.00000E+00
    0.37553E-07         0.94612E-10         0.00000E+00
    0.37552E-07         0.96840E-10         0.00000E+00
    0.37551E-07         0.98718E-10         0.00000E+00
    0.37551E-07         0.10025E-09         0.00000E+00
    0.37550E-07         0.10144E-09         0.00000E+00
    0.37549E-07         0.10229E-09         0.00000E+00
    0.37548E-07         0.10281E-09         0.00000E+00
    0.37547E-07         0.10299E-09         0.00000E+00
    0.37546E-07         0.10284E-09         0.00000E+00
    0.37546E-07         0.10237E-09         0.00000E+00
    0.37545E-07         0.10158E-09         0.00000E+00
    0.37544E-07         0.10046E-09         0.00000E+00
    0.37543E-07         0.99027E-10         0.00000E+00
    0.37542E-07         0.97280E-10         0.00000E+00
    0.37542E-07         0.95222E-10         0.00000E+00
    0.37541E-07         0.92854E-10         0.00000E+00
    0.37540E-07         0.90181E-10         0.00000E+00
    0.37540E-07         0.87204E-10         0.00000E+00
    0.37539E-07         0.83926E-10         0.00000E+00
    0.37538E-07         0.80349E-10         0.00000E+00
    0.37538E-07         0.76475E-10         0.00000E+00
    0.37537E-07         0.72308E-10         0.00000E+00
    0.37537E-07         0.67848E-10         0.00000E+00
    0.37536E-07         0.63098E-10         0.00000E+00
    0.37536E-07         0.58059E-10         0.00000E+00
    0.37536E-07         0.52734E-10         0.00000E+00
    0.37535E-07         0.47125E-10         0.00000E+00
    0.37535E-07         0.41231E-10         0.00000E+00
    0.37535E-07         0.35056E-10         0.00000E+00
    0.37535E-07         0.28600E-10         0.00000E+00
    0.37534E-07         0.21865E-10         0.00000E+00
    0.37534E-07         0.14851E-10         0.00000E+00
    0.37534E-07         0.75602E-11         0.00000E+00
    0.37534E-07         0.38453E-11         0.00000E+00
    0.38508E-07         0.45992E-11         0.00000E+00
    0.38508E-07         0.90416E-11         0.00000E+00
    0.38508E-07         0.17711E-10         0.00000E+00
    0.38508E-07         0.25952E-10         0.00000E+00
    0.38508E-07         0.33767E-10         0.00000E+00
    0.38507E-07         0.41162E-10         0.00000E+00
    0.38507E-07         0.48139E-10         0.00000E+00
    0.38506E-07         0.54704E-10         0.00000E+00
    0.38506E-07         0.60859E-10         0.00000E+00
    0.38505E-07         0.66609E-10         0.00000E+00
    0.38505E-07         0.71959E-10         0.00000E+00
    0.38504E-07         0.76911E-10         0.00000E+00
    0.38504E-07         0.81470E-10         0.00000E+00
    0.38503E-07         0.85641E-10         0.00000E+00
    0.38502E-07         0.89427E-10         0.00000E+00
    0.38501E-07         0.92832E-10         0.00000E+00
    0.38501E-07         0.95861E-10         0.00000E+00
    0.38500E-07         0.98517E-10         0.00000E+00
    0.38499E-07         0.10080E-09         0.00000E+00
    0.38498E-07         0.10273E-09         0.00000E+00
    0.38498E-07         0.10429E-09         0.00000E+00
    0.38497E-07         0.10549E-09         0.00000E+00
    0.38496E-07         0.10634E-09         0.00000E+00
    0.38495E-07         0.10685E-09         0.00000E+00
    0.38494E-07         0.10700E-09         0.00000E+00
    0.38494E-07         0.10682E-09         0.00000E+00
    0.38493E-07         0.10629E-09         0.00000E+00
    0.38492E-07         0.10543E-09         0.00000E+00
    0.38491E-07         0.10424E-09         0.00000E+00
    0.38491E-07         0.10272E-09         0.00000E+00
    0.38490E-07         0.10088E-09         0.00000E+00
    0.38489E-07         0.98715E-10         0.00000E+00
    0.38489E-07         0.96231E-10         0.00000E+00
    0.38488E-07         0.93432E-10         0.00000E+00
    0.38487E-07         0.90320E-10         0.00000E+00
    0.38487E-07         0.86899E-10         0.00000E+00
    0.38486E-07         0.83170E-10         0.00000E+00
    0.38486E-07         0.79138E-10         0.00000E+00
    0.38485E-07         0.74803E-10         0.00000E+00
    0.38485E-07         0.70169E-10         0.00000E+00
    0.38484E-07         0.65238E-10         0.00000E+00
    0.38484E-07         0.60012E-10         0.00000E+00
    0.38484E-07         0.54492E-10         0.00000E+00
    0.38483E-07         0.48682E-10         0.00000E+00
    0.38483E-07         0.42582E-10         0.00000E+00
    0.38483E-07         0.36195E-10         0.00000E+00
    0.38482E-07         0.29522E-10         0.00000E+00
    0.38482E-07         0.22564E-10         0.00000E+00
    0.38482E-07         0.15322E-10         0.00000E+00
    0.38482E-07         0.77978E-11         0.00000E+00
    0.38482E-07         0.39652E-11         0.00000E+00
    0.39511E-07         0.48024E-11         0.00000E+00
    0.39511E-07         0.94389E-11         0.00000E+00
    0.39511E-07         0.18484E-10         0.00000E+00
    0.39510E-07         0.27075E-10         0.00000E+00
    0.39510E-07         0.35217E-10         0.00000E+00
    0.39510E-07         0.42915E-10         0.00000E+00
    0.39509E-07         0.50172E-10         0.00000E+00
    0.39509E-07         0.56994E-10         0.00000E+00
    0.39509E-07         0.63385E-10         0.00000E+00
    0.39508E-07         0.69349E-10         0.00000E+00
    0.39507E-07         0.74892E-10         0.00000E+00
    0.39507E-07         0.80018E-10         0.00000E+00
    0.39506E-07         0.84732E-10         0.00000E+00
    0.39506E-07         0.89038E-10         0.00000E+00
    0.39505E-07         0.92941E-10         0.00000E+00
    0.39504E-07         0.96446E-10         0.00000E+00
    0.39503E-07         0.99557E-10         0.00000E+00
    0.39503E-07         0.10228E-09         0.00000E+00
    0.39502E-07         0.10462E-09         0.00000E+00
    0.39501E-07         0.10657E-09         0.00000E+00
    0.39501E-07         0.10816E-09         0.00000E+00
    0.39500E-07         0.10937E-09         0.00000E+00
    0.39499E-07         0.11021E-09         0.00000E+00
    0.39498E-07         0.11069E-09         0.00000E+00
    0.39498E-07         0.11081E-09         0.00000E+00
    0.39497E-07         0.11058E-09         0.00000E+00
    0.39496E-07         0.11000E-09         0.00000E+00
    0.39495E-07         0.10907E-09         0.00000E+00
    0.39495E-07         0.10780E-09         0.00000E+00
    0.39494E-07         0.10620E-09         0.00000E+00
    0.39493E-07         0.10425E-09         0.00000E+00
    0.39493E-07         0.10198E-09         0.00000E+00
    0.39492E-07         0.99381E-10         0.00000E+00
    0.39491E-07         0.96458E-10         0.00000E+00
    0.39491E-07         0.93214E-10         0.00000E+00
    0.39490E-07         0.89653E-10         0.00000E+00
    0.39490E-07         0.85778E-10         0.00000E+00
    0.39489E-07         0.81592E-10         0.00000E+00
    0.39489E-07         0.77097E-10         0.00000E+00
    0.39488E-07         0.72298E-10         0.00000E+00
    0.39488E-07         0.67195E-10         0.00000E+00
    0.39488E-07         0.61793E-10         0.00000E+00
    0.39487E-07         0.56092E-10         0.00000E+00
    0.39487E-07         0.50096E-10         0.00000E+00
    0.39487E-07         0.43805E-10         0.00000E+00
    0.39487E-07         0.37223E-10         0.00000E+00
    0.39487E-07         0.30351E-10         0.00000E+00
    0.39486E-07         0.23191E-10         0.00000E+00
    0.39486E-07         0.15743E-10         0.00000E+00
    0.39486E-07         0.80100E-11         0.00000E+00
    0.39486E-07         0.40721E-11         0.00000E+00
    0.40571E-07         0.50030E-11         0.00000E+00
    0.40571E-07         0.98305E-11         0.00000E+00
    0.40571E-07         0.19244E-10         0.00000E+00
    0.40571E-07         0.28179E-10         0.00000E+00
    0.40570E-07         0.36639E-10         0.00000E+00
    0.40570E-07         0.44630E-10         0.00000E+00
    0.40570E-07         0.52158E-10         0.00000E+00
    0.40569E-07         0.59227E-10         0.00000E+00
    0.40569E-07         0.65842E-10         0.00000E+00
    0.40568E-07         0.72010E-10         0.00000E+00
    0.40568E-07         0.77735E-10         0.00000E+00
    0.40567E-07         0.83023E-10         0.00000E+00
    0.40567E-07         0.87879E-10         0.00000E+00
    0.40566E-07         0.92308E-10         0.00000E+00
    0.40565E-07         0.96317E-10         0.00000E+00
    0.40565E-07         0.99909E-10         0.00000E+00
    0.40564E-07         0.10309E-09         0.00000E+00
    0.40563E-07         0.10587E-09         0.00000E+00
    0.40563E-07         0.10824E-09         0.00000E+00
    0.40562E-07         0.11022E-09         0.00000E+00
    0.40561E-07         0.11182E-09         0.00000E+00
    0.40561E-07         0.11302E-09         0.00000E+00
    0.40560E-07         0.11385E-09         0.00000E+00
    0.40559E-07         0.11430E-09         0.00000E+00
    0.40558E-07         0.11438E-09         0.00000E+00
    0.40558E-07         0.11410E-09         0.00000E+00
    0.40557E-07         0.11345E-09         0.00000E+00
    0.40556E-07         0.11245E-09         0.00000E+00
    0.40556E-07         0.11110E-09         0.00000E+00
    0.40555E-07         0.10940E-09         0.00000E+00
    0.40555E-07         0.10736E-09         0.00000E+00
    0.40554E-07         0.10498E-09         0.00000E+00
    0.40553E-07         0.10226E-09         0.00000E+00
    0.40553E-07         0.99217E-10         0.00000E+00
    0.40552E-07         0.95844E-10         0.00000E+00
    0.40552E-07         0.92148E-10         0.00000E+00
    0.40551E-07         0.88132E-10         0.00000E+00
    0.40551E-07         0.83800E-10         0.00000E+00
    0.40551E-07         0.79155E-10         0.00000E+00
    0.40550E-07         0.74200E-10         0.00000E+00
    0.40550E-07         0.68939E-10         0.00000E+00
    0.40550E-07         0.63373E-10         0.00000E+00
    0.40549E-07         0.57506E-10         0.00000E+00
    0.40549E-07         0.51341E-10         0.00000E+00
    0.40549E-07         0.44879E-10         0.00000E+00
    0.40549E-07         0.38122E-10         0.00000E+00
    0.40549E-07         0.31074E-10         0.00000E+00
    0.40548E-07         0.23735E-10         0.00000E+00
    0.40548E-07         0.16108E-10         0.00000E+00
    0.40548E-07         0.81928E-11         0.00000E+00
    0.40548E-07         0.41637E-11         0.00000E+00
    0.41691E-07         0.51999E-11         0.00000E+00
    0.41691E-07         0.10214E-10         0.00000E+00
    0.41691E-07         0.19988E-10         0.00000E+00
    0.41691E-07         0.29256E-10         0.00000E+00
    0.41690E-07         0.38024E-10         0.00000E+00
    0.41690E-07         0.46297E-10         0.00000E+00
    0.41690E-07         0.54083E-10         0.00000E+00
    0.41689E-07         0.61386E-10         0.00000E+00
    0.41689E-07         0.68213E-10         0.00000E+00
    0.41688E-07         0.74570E-10         0.00000E+00
    0.41688E-07         0.80463E-10         0.00000E+00
    0.41687E-07         0.85898E-10         0.00000E+00
    0.41687E-07         0.90882E-10         0.00000E+00
    0.41686E-07         0.95420E-10         0.00000E+00
    0.41686E-07         0.99519E-10         0.00000E+00
    0.41685E-07         0.10319E-09         0.00000E+00
    0.41684E-07         0.10642E-09         0.00000E+00
    0.41684E-07         0.10924E-09         0.00000E+00
    0.41683E-07         0.11164E-09         0.00000E+00
    0.41682E-07         0.11364E-09         0.00000E+00
    0.41682E-07         0.11522E-09         0.00000E+00
    0.41681E-07         0.11642E-09         0.00000E+00
    0.41680E-07         0.11721E-09         0.00000E+00
    0.41680E-07         0.11763E-09         0.00000E+00
    0.41679E-07         0.11766E-09         0.00000E+00
    0.41679E-07         0.11731E-09         0.00000E+00
    0.41678E-07         0.11660E-09         0.00000E+00
    0.41677E-07         0.11552E-09         0.00000E+00
    0.41677E-07         0.11408E-09         0.00000E+00
    0.41676E-07         0.11229E-09         0.00000E+00
    0.41676E-07         0.11014E-09         0.00000E+00
    0.41675E-07         0.10765E-09         0.00000E+00
    0.41675E-07         0.10483E-09         0.00000E+00
    0.41674E-07         0.10166E-09         0.00000E+00
    0.41674E-07         0.98161E-10         0.00000E+00
    0.41673E-07         0.94336E-10         0.00000E+00
    0.41673E-07         0.90187E-10         0.00000E+00
    0.41673E-07         0.85718E-10         0.00000E+00
    0.41672E-07         0.80933E-10         0.00000E+00
    0.41672E-07         0.75836E-10         0.00000E+00
    0.41672E-07         0.70430E-10         0.00000E+00
    0.41671E-07         0.64718E-10         0.00000E+00
    0.41671E-07         0.58703E-10         0.00000E+00
    0.41671E-07         0.52389E-10         0.00000E+00
    0.41671E-07         0.45777E-10         0.00000E+00
    0.41671E-07         0.38871E-10         0.00000E+00
    0.41671E-07         0.31672E-10         0.00000E+00
    0.41671E-07         0.24183E-10         0.00000E+00
    0.41670E-07         0.16405E-10         0.00000E+00
    0.41670E-07         0.83412E-11         0.00000E+00
    0.41670E-07         0.42378E-11         0.00000E+00
    0.42873E-07         0.53917E-11         0.00000E+00
    0.42873E-07         0.10587E-10         0.00000E+00
    0.42873E-07         0.20710E-10         0.00000E+00
    0.42873E-07         0.30299E-10         0.00000E+00
    0.42872E-07         0.39360E-10         0.00000E+00
    0.42872E-07         0.47901E-10         0.00000E+00
    0.42872E-07         0.55929E-10         0.00000E+00
    0.42871E-07         0.63450E-10         0.00000E+00
    0.42871E-07         0.70472E-10         0.00000E+00
    0.42870E-07         0.77001E-10         0.00000E+00
    0.42870E-07         0.83045E-10         0.00000E+00
    0.42869E-07         0.88611E-10         0.00000E+00
    0.42869E-07         0.93705E-10         0.00000E+00
    0.42868E-07         0.98335E-10         0.00000E+00
    0.42868E-07         0.10251E-09         0.00000E+00
    0.42867E-07         0.10623E-09         0.00000E+00
    0.42867E-07         0.10951E-09         0.00000E+00
    0.42866E-07         0.11235E-09         0.00000E+00
    0.42865E-07         0.11476E-09         0.00000E+00
    0.42865E-07         0.11675E-09         0.00000E+00
    0.42864E-07         0.11833E-09         0.00000E+00
    0.42864E-07         0.11949E-09         0.00000E+00
    0.42863E-07         0.12025E-09         0.00000E+00
    0.42863E-07         0.12061E-09         0.00000E+00
    0.42862E-07         0.12058E-09         0.00000E+00
    0.42862E-07         0.12017E-09         0.00000E+00
    0.42861E-07         0.11938E-09         0.00000E+00
    0.42860E-07         0.11822E-09         0.00000E+00
    0.42860E-07         0.11669E-09         0.00000E+00
    0.42860E-07         0.11479E-09         0.00000E+00
    0.42859E-07         0.11255E-09         0.00000E+00
    0.42859E-07         0.10995E-09         0.00000E+00
    0.42858E-07         0.10701E-09         0.00000E+00
    0.42858E-07         0.10373E-09         0.00000E+00
    0.42858E-07         0.10011E-09         0.00000E+00
    0.42857E-07         0.96162E-10         0.00000E+00
    0.42857E-07         0.91889E-10         0.00000E+00
    0.42857E-07         0.87295E-10         0.00000E+00
    0.42856E-07         0.82384E-10         0.00000E+00
    0.42856E-07         0.77160E-10         0.00000E+00
    0.42856E-07         0.71626E-10         0.00000E+00
    0.42856E-07         0.65787E-10         0.00000E+00
    0.42856E-07         0.59646E-10         0.00000E+00
    0.42855E-07         0.53207E-10         0.00000E+00
    0.42855E-07         0.46471E-10         0.00000E+00
    0.42855E-07         0.39443E-10         0.00000E+00
    0.42855E-07         0.32124E-10         0.00000E+00
    0.42855E-07         0.24518E-10         0.00000E+00
    0.42855E-07         0.16626E-10         0.00000E+00
    0.42855E-07         0.84499E-11         0.00000E+00
    0.42855E-07         0.42913E-11         0.00000E+00
    0.44119E-07         0.55768E-11         0.00000E+00
    0.44119E-07         0.10946E-10         0.00000E+00
    0.44119E-07         0.21402E-10         0.00000E+00
    0.44119E-07         0.31295E-10         0.00000E+00
    0.44119E-07         0.40633E-10         0.00000E+00
    0.44118E-07         0.49423E-10         0.00000E+00
    0.44118E-07         0.57674E-10         0.00000E+00
    0.44118E-07         0.65393E-10         0.00000E+00
    0.44117E-07         0.72590E-10         0.00000E+00
    0.44117E-07         0.79271E-10         0.00000E+00
    0.44116E-07         0.85445E-10         0.00000E+00
    0.44116E-07         0.91120E-10         0.00000E+00
    0.44115E-07         0.96304E-10         0.00000E+00
    0.44115E-07         0.10101E-09         0.00000E+00
    0.44114E-07         0.10523E-09         0.00000E+00
    0.44114E-07         0.10899E-09         0.00000E+00
    0.44113E-07         0.11229E-09         0.00000E+00
    0.44113E-07         0.11514E-09         0.00000E+00
    0.44112E-07         0.11754E-09         0.00000E+00
    0.44112E-07         0.11951E-09         0.00000E+00
    0.44111E-07         0.12106E-09         0.00000E+00
    0.44111E-07         0.12218E-09         0.00000E+00
    0.44110E-07         0.12288E-09         0.00000E+00
    0.44110E-07         0.12318E-09         0.00000E+00
    0.44109E-07         0.12308E-09         0.00000E+00
    0.44109E-07         0.12259E-09         0.00000E+00
    0.44108E-07         0.12172E-09         0.00000E+00
    0.44108E-07         0.12046E-09         0.00000E+00
    0.44108E-07         0.11884E-09         0.00000E+00
    0.44107E-07         0.11685E-09         0.00000E+00
    0.44107E-07         0.11450E-09         0.00000E+00
    0.44107E-07         0.11179E-09         0.00000E+00
    0.44106E-07         0.10874E-09         0.00000E+00
    0.44106E-07         0.10535E-09         0.00000E+00
    0.44106E-07         0.10162E-09         0.00000E+00
    0.44106E-07         0.97559E-10         0.00000E+00
    0.44105E-07         0.93174E-10         0.00000E+00
    0.44105E-07         0.88469E-10         0.00000E+00
    0.44105E-07         0.83448E-10         0.00000E+00
    0.44105E-07         0.78115E-10         0.00000E+00
    0.44105E-07         0.72475E-10         0.00000E+00
    0.44105E-07         0.66533E-10         0.00000E+00
    0.44104E-07         0.60292E-10         0.00000E+00
    0.44104E-07         0.53755E-10         0.00000E+00
    0.44104E-07         0.46927E-10         0.00000E+00
    0.44104E-07         0.39810E-10         0.00000E+00
    0.44104E-07         0.32407E-10         0.00000E+00
    0.44104E-07         0.24722E-10         0.00000E+00
    0.44104E-07         0.16756E-10         0.00000E+00
    0.44104E-07         0.85123E-11         0.00000E+00
    0.44104E-07         0.43211E-11         0.00000E+00
    0.45432E-07         0.57526E-11         0.00000E+00
    0.45432E-07         0.11287E-10         0.00000E+00
    0.45432E-07         0.22056E-10         0.00000E+00
    0.45432E-07         0.32231E-10         0.00000E+00
    0.45431E-07         0.41823E-10         0.00000E+00
    0.45431E-07         0.50839E-10         0.00000E+00
    0.45431E-07         0.59289E-10         0.00000E+00
    0.45431E-07         0.67182E-10         0.00000E+00
    0.45430E-07         0.74528E-10         0.00000E+00
    0.45430E-07         0.81335E-10         0.00000E+00
    0.45429E-07         0.87614E-10         0.00000E+00
    0.45429E-07         0.93373E-10         0.00000E+00
    0.45429E-07         0.98622E-10         0.00000E+00
    0.45428E-07         0.10337E-09         0.00000E+00
    0.45428E-07         0.10762E-09         0.00000E+00
    0.45427E-07         0.11140E-09         0.00000E+00
    0.45427E-07         0.11470E-09         0.00000E+00
    0.45426E-07         0.11753E-09         0.00000E+00
    0.45426E-07         0.11991E-09         0.00000E+00
    0.45426E-07         0.12184E-09         0.00000E+00
    0.45425E-07         0.12333E-09         0.00000E+00
    0.45425E-07         0.12439E-09         0.00000E+00
    0.45424E-07         0.12503E-09         0.00000E+00
    0.45424E-07         0.12525E-09         0.00000E+00
    0.45424E-07         0.12507E-09         0.00000E+00
    0.45423E-07         0.12449E-09         0.00000E+00
    0.45423E-07         0.12352E-09         0.00000E+00
    0.45423E-07         0.12217E-09         0.00000E+00
    0.45423E-07         0.12045E-09         0.00000E+00
    0.45422E-07         0.11835E-09         0.00000E+00
    0.45422E-07         0.11590E-09         0.00000E+00
    0.45422E-07         0.11309E-09         0.00000E+00
    0.45422E-07         0.10994E-09         0.00000E+00
    0.45421E-07         0.10644E-09         0.00000E+00
    0.45421E-07         0.10261E-09         0.00000E+00
    0.45421E-07         0.98450E-10         0.00000E+00
    0.45421E-07         0.93967E-10         0.00000E+00
    0.45421E-07         0.89168E-10         0.00000E+00
    0.45421E-07         0.84056E-10         0.00000E+00
    0.45421E-07         0.78637E-10         0.00000E+00
    0.45421E-07         0.72917E-10         0.00000E+00
    0.45421E-07         0.66899E-10         0.00000E+00
    0.45421E-07         0.60588E-10         0.00000E+00
    0.45421E-07         0.53989E-10         0.00000E+00
    0.45421E-07         0.47104E-10         0.00000E+00
    0.45421E-07         0.39937E-10         0.00000E+00
    0.45421E-07         0.32493E-10         0.00000E+00
    0.45421E-07         0.24774E-10         0.00000E+00
    0.45421E-07         0.16782E-10         0.00000E+00
    0.45421E-07         0.85211E-11         0.00000E+00
    0.45421E-07         0.43234E-11         0.00000E+00
    0.46814E-07         0.59164E-11         0.00000E+00
    0.46814E-07         0.11602E-10         0.00000E+00
    0.46814E-07         0.22658E-10         0.00000E+00
    0.46814E-07         0.33089E-10         0.00000E+00
    0.46814E-07         0.42905E-10         0.00000E+00
    0.46814E-07         0.52118E-10         0.00000E+00
    0.46813E-07         0.60737E-10         0.00000E+00
    0.46813E-07         0.68773E-10         0.00000E+00
    0.46813E-07         0.76237E-10         0.00000E+00
    0.46812E-07         0.83140E-10         0.00000E+00
    0.46812E-07         0.89493E-10         0.00000E+00
    0.46812E-07         0.95305E-10         0.00000E+00
    0.46811E-07         0.10059E-09         0.00000E+00
    0.46811E-07         0.10535E-09         0.00000E+00
    0.46811E-07         0.10961E-09         0.00000E+00
    0.46810E-07         0.11337E-09         0.00000E+00
    0.46810E-07         0.11664E-09         0.00000E+00
    0.46810E-07         0.11943E-09         0.00000E+00
    0.46809E-07         0.12175E-09         0.00000E+00
    0.46809E-07         0.12362E-09         0.00000E+00
    0.46809E-07         0.12504E-09         0.00000E+00
    0.46809E-07         0.12602E-09         0.00000E+00
    0.46808E-07         0.12658E-09         0.00000E+00
    0.46808E-07         0.12671E-09         0.00000E+00
    0.46808E-07         0.12644E-09         0.00000E+00
    0.46808E-07         0.12576E-09         0.00000E+00
    0.46807E-07         0.12469E-09         0.00000E+00
    0.46807E-07         0.12324E-09         0.00000E+00
    0.46807E-07         0.12141E-09         0.00000E+00
    0.46807E-07         0.11921E-09         0.00000E+00
    0.46807E-07         0.11665E-09         0.00000E+00
    0.46807E-07         0.11375E-09         0.00000E+00
    0.46807E-07         0.11049E-09         0.00000E+00
    0.46807E-07         0.10690E-09         0.00000E+00
    0.46807E-07         0.10298E-09         0.00000E+00
    0.46807E-07         0.98738E-10         0.00000E+00
    0.46807E-07         0.94177E-10         0.00000E+00
    0.46807E-07         0.89304E-10         0.00000E+00
    0.46807E-07         0.84127E-10         0.00000E+00
    0.46807E-07         0.78650E-10         0.00000E+00
    0.46807E-07         0.72880E-10         0.00000E+00
    0.46807E-07         0.66820E-10         0.00000E+00
    0.46807E-07         0.60476E-10         0.00000E+00
    0.46807E-07         0.53853E-10         0.00000E+00
    0.46807E-07         0.46955E-10         0.00000E+00
    0.46807E-07         0.39786E-10         0.00000E+00
    0.46808E-07         0.32349E-10         0.00000E+00
    0.46808E-07         0.24648E-10         0.00000E+00
    0.46808E-07         0.16687E-10         0.00000E+00
    0.46808E-07         0.84676E-11         0.00000E+00
    0.46808E-07         0.42938E-11         0.00000E+00
    0.48269E-07         0.60640E-11         0.00000E+00
    0.48269E-07         0.11885E-10         0.00000E+00
    0.48269E-07         0.23194E-10         0.00000E+00
    0.48269E-07         0.33844E-10         0.00000E+00
    0.48269E-07         0.43849E-10         0.00000E+00
    0.48268E-07         0.53221E-10         0.00000E+00
    0.48268E-07         0.61970E-10         0.00000E+00
    0.48268E-07         0.70111E-10         0.00000E+00
    0.48268E-07         0.77656E-10         0.00000E+00
    0.48267E-07         0.84616E-10         0.00000E+00
    0.48267E-07         0.91004E-10         0.00000E+00
    0.48267E-07         0.96832E-10         0.00000E+00
    0.48267E-07         0.10211E-09         0.00000E+00
    0.48266E-07         0.10686E-09         0.00000E+00
    0.48266E-07         0.11108E-09         0.00000E+00
    0.48266E-07         0.11479E-09         0.00000E+00
    0.48266E-07         0.11800E-09         0.00000E+00
    0.48266E-07         0.12072E-09         0.00000E+00
    0.48265E-07         0.12297E-09         0.00000E+00
    0.48265E-07         0.12475E-09         0.00000E+00
    0.48265E-07         0.12607E-09         0.00000E+00
    0.48265E-07         0.12696E-09         0.00000E+00
    0.48265E-07         0.12740E-09         0.00000E+00
    0.48265E-07         0.12743E-09         0.00000E+00
    0.48265E-07         0.12705E-09         0.00000E+00
    0.48265E-07         0.12626E-09         0.00000E+00
    0.48265E-07         0.12508E-09         0.00000E+00
    0.48265E-07         0.12352E-09         0.00000E+00
    0.48265E-07         0.12158E-09         0.00000E+00
    0.48265E-07         0.11928E-09         0.00000E+00
    0.48265E-07         0.11663E-09         0.00000E+00
    0.48265E-07         0.11363E-09         0.00000E+00
    0.48265E-07         0.11029E-09         0.00000E+00
    0.48265E-07         0.10661E-09         0.00000E+00
    0.48266E-07         0.10262E-09         0.00000E+00
    0.48266E-07         0.98312E-10         0.00000E+00
    0.48266E-07         0.93695E-10         0.00000E+00
    0.48266E-07         0.88777E-10         0.00000E+00
    0.48266E-07         0.83564E-10         0.00000E+00
    0.48266E-07         0.78063E-10         0.00000E+00
    0.48267E-07         0.72279E-10         0.00000E+00
    0.48267E-07         0.66218E-10         0.00000E+00
    0.48267E-07         0.59885E-10         0.00000E+00
    0.48267E-07         0.53286E-10         0.00000E+00
    0.48267E-07         0.46426E-10         0.00000E+00
    0.48267E-07         0.39308E-10         0.00000E+00
    0.48268E-07         0.31937E-10         0.00000E+00
    0.48268E-07         0.24317E-10         0.00000E+00
    0.48268E-07         0.16451E-10         0.00000E+00
    0.48268E-07         0.83419E-11         0.00000E+00
    0.48268E-07         0.42273E-11         0.00000E+00
    0.49799E-07         0.61905E-11         0.00000E+00
    0.49799E-07         0.12124E-10         0.00000E+00
    0.49799E-07         0.23642E-10         0.00000E+00
    0.49799E-07         0.34467E-10         0.00000E+00
    0.49799E-07         0.44614E-10         0.00000E+00
    0.49799E-07         0.54097E-10         0.00000E+00
    0.49798E-07         0.62930E-10         0.00000E+00
    0.49798E-07         0.71128E-10         0.00000E+00
    0.49798E-07         0.78705E-10         0.00000E+00
    0.49798E-07         0.85675E-10         0.00000E+00
    0.49798E-07         0.92052E-10         0.00000E+00
    0.49798E-07         0.97851E-10         0.00000E+00
    0.49797E-07         0.10309E-09         0.00000E+00
    0.49797E-07         0.10777E-09         0.00000E+00
    0.49797E-07         0.11192E-09         0.00000E+00
    0.49797E-07         0.11554E-09         0.00000E+00
    0.49797E-07         0.11865E-09         0.00000E+00
    0.49797E-07         0.12127E-09         0.00000E+00
    0.49797E-07         0.12340E-09         0.00000E+00
    0.49797E-07         0.12506E-09         0.00000E+00
    0.49797E-07         0.12627E-09         0.00000E+00
    0.49797E-07         0.12702E-09         0.00000E+00
    0.49797E-07         0.12735E-09         0.00000E+00
    0.49798E-07         0.12725E-09         0.00000E+00
    0.49798E-07         0.12674E-09         0.00000E+00
    0.49798E-07         0.12583E-09         0.00000E+00
    0.49798E-07         0.12453E-09         0.00000E+00
    0.49798E-07         0.12285E-09         0.00000E+00
    0.49799E-07         0.12081E-09         0.00000E+00
    0.49799E-07         0.11841E-09         0.00000E+00
    0.49799E-07         0.11566E-09         0.00000E+00
    0.49799E-07         0.11258E-09         0.00000E+00
    0.49800E-07         0.10917E-09         0.00000E+00
    0.49800E-07         0.10543E-09         0.00000E+00
    0.49800E-07         0.10139E-09         0.00000E+00
    0.49801E-07         0.97038E-10         0.00000E+00
    0.49801E-07         0.92395E-10         0.00000E+00
    0.49802E-07         0.87464E-10         0.00000E+00
    0.49802E-07         0.82252E-10         0.00000E+00
    0.49802E-07         0.76767E-10         0.00000E+00
    0.49803E-07         0.71014E-10         0.00000E+00
    0.49803E-07         0.65001E-10         0.00000E+00
    0.49803E-07         0.58732E-10         0.00000E+00
    0.49803E-07         0.52214E-10         0.00000E+00
    0.49804E-07         0.45452E-10         0.00000E+00
    0.49804E-07         0.38450E-10         0.00000E+00
    0.49804E-07         0.31213E-10         0.00000E+00
    0.49804E-07         0.23745E-10         0.00000E+00
    0.49804E-07         0.16051E-10         0.00000E+00
    0.49805E-07         0.81326E-11         0.00000E+00
    0.49805E-07         0.41180E-11         0.00000E+00
    0.51408E-07         0.62893E-11         0.00000E+00
    0.51408E-07         0.12308E-10         0.00000E+00
    0.51408E-07         0.23977E-10         0.00000E+00
    0.51408E-07         0.34917E-10         0.00000E+00
    0.51408E-07         0.45147E-10         0.00000E+00
    0.51408E-07         0.54682E-10         0.00000E+00
    0.51408E-07         0.63539E-10         0.00000E+00
    0.51407E-07         0.71734E-10         0.00000E+00
    0.51407E-07         0.79285E-10         0.00000E+00
    0.51407E-07         0.86207E-10         0.00000E+00
    0.51407E-07         0.92517E-10         0.00000E+00
    0.51407E-07         0.98231E-10         0.00000E+00
    0.51407E-07         0.10337E-09         0.00000E+00
    0.51407E-07         0.10794E-09         0.00000E+00
    0.51407E-07         0.11196E-09         0.00000E+00
    0.51408E-07         0.11545E-09         0.00000E+00
    0.51408E-07         0.11842E-09         0.00000E+00
    0.51408E-07         0.12089E-09         0.00000E+00
    0.51408E-07         0.12287E-09         0.00000E+00
    0.51408E-07         0.12438E-09         0.00000E+00
    0.51409E-07         0.12543E-09         0.00000E+00
    0.51409E-07         0.12604E-09         0.00000E+00
    0.51409E-07         0.12621E-09         0.00000E+00
    0.51410E-07         0.12596E-09         0.00000E+00
    0.51410E-07         0.12531E-09         0.00000E+00
    0.51410E-07         0.12427E-09         0.00000E+00
    0.51411E-07         0.12285E-09         0.00000E+00
    0.51411E-07         0.12106E-09         0.00000E+00
    0.51412E-07         0.11891E-09         0.00000E+00
    0.51412E-07         0.11641E-09         0.00000E+00
    0.51413E-07         0.11358E-09         0.00000E+00
    0.51414E-07         0.11043E-09         0.00000E+00
    0.51414E-07         0.10696E-09         0.00000E+00
    0.51415E-07         0.10318E-09         0.00000E+00
    0.51415E-07         0.99113E-10         0.00000E+00
    0.51416E-07         0.94757E-10         0.00000E+00
    0.51416E-07         0.90123E-10         0.00000E+00
    0.51417E-07         0.85220E-10         0.00000E+00
    0.51418E-07         0.80055E-10         0.00000E+00
    0.51418E-07         0.74636E-10         0.00000E+00
    0.51419E-07         0.68969E-10         0.00000E+00
    0.51419E-07         0.63062E-10         0.00000E+00
    0.51420E-07         0.56920E-10         0.00000E+00
    0.51420E-07         0.50550E-10         0.00000E+00
    0.51420E-07         0.43958E-10         0.00000E+00
    0.51421E-07         0.37148E-10         0.00000E+00
    0.51421E-07         0.30126E-10         0.00000E+00
    0.51421E-07         0.22895E-10         0.00000E+00
    0.51421E-07         0.15461E-10         0.00000E+00
    0.51421E-07         0.78262E-11         0.00000E+00
    0.51422E-07         0.39592E-11         0.00000E+00
    0.53099E-07         0.63517E-11         0.00000E+00
    0.53099E-07         0.12418E-10         0.00000E+00
    0.53099E-07         0.24164E-10         0.00000E+00
    0.53099E-07         0.35146E-10         0.00000E+00
    0.53099E-07         0.45383E-10         0.00000E+00
    0.53099E-07         0.54894E-10         0.00000E+00
    0.53099E-07         0.63700E-10         0.00000E+00
    0.53099E-07         0.71819E-10         0.00000E+00
    0.53099E-07         0.79270E-10         0.00000E+00
    0.53099E-07         0.86074E-10         0.00000E+00
    0.53099E-07         0.92247E-10         0.00000E+00
    0.53100E-07         0.97810E-10         0.00000E+00
    0.53100E-07         0.10278E-09         0.00000E+00
    0.53100E-07         0.10718E-09         0.00000E+00
    0.53100E-07         0.11102E-09         0.00000E+00
    0.53101E-07         0.11432E-09         0.00000E+00
    0.53101E-07         0.11710E-09         0.00000E+00
    0.53101E-07         0.11937E-09         0.00000E+00
    0.53102E-07         0.12116E-09         0.00000E+00
    0.53102E-07         0.12248E-09         0.00000E+00
    0.53103E-07         0.12334E-09         0.00000E+00
    0.53104E-07         0.12376E-09         0.00000E+00
    0.53104E-07         0.12376E-09         0.00000E+00
    0.53105E-07         0.12335E-09         0.00000E+00
    0.53106E-07         0.12254E-09         0.00000E+00
    0.53106E-07         0.12135E-09         0.00000E+00
    0.53107E-07         0.11979E-09         0.00000E+00
    0.53108E-07         0.11788E-09         0.00000E+00
    0.53109E-07         0.11563E-09         0.00000E+00
    0.53110E-07         0.11305E-09         0.00000E+00
    0.53110E-07         0.11015E-09         0.00000E+00
    0.53111E-07         0.10695E-09         0.00000E+00
    0.53112E-07         0.10345E-09         0.00000E+00
    0.53113E-07         0.99661E-10         0.00000E+00
    0.53114E-07         0.95602E-10         0.00000E+00
    0.53115E-07         0.91279E-10         0.00000E+00
    0.53115E-07         0.86701E-10         0.00000E+00
    0.53116E-07         0.81876E-10         0.00000E+00
    0.53117E-07         0.76813E-10         0.00000E+00
    0.53118E-07         0.71520E-10         0.00000E+00
    0.53119E-07         0.66005E-10         0.00000E+00
    0.53119E-07         0.60274E-10         0.00000E+00
    0.53120E-07         0.54336E-10         0.00000E+00
    0.53120E-07         0.48195E-10         0.00000E+00
    0.53121E-07         0.41857E-10         0.00000E+00
    0.53121E-07         0.35329E-10         0.00000E+00
    0.53122E-07         0.28616E-10         0.00000E+00
    0.53122E-07         0.21722E-10         0.00000E+00
    0.53122E-07         0.14651E-10         0.00000E+00
    0.53122E-07         0.74075E-11         0.00000E+00
    0.53123E-07         0.37433E-11         0.00000E+00
    0.54877E-07         0.63672E-11         0.00000E+00
    0.54877E-07         0.12434E-10         0.00000E+00
    0.54877E-07         0.24163E-10         0.00000E+00
    0.54877E-07         0.35090E-10         0.00000E+00
    0.54877E-07         0.45239E-10         0.00000E+00
    0.54877E-07         0.54633E-10         0.00000E+00
    0.54877E-07         0.63294E-10         0.00000E+00
    0.54877E-07         0.71244E-10         0.00000E+00
    0.54877E-07         0.78507E-10         0.00000E+00
    0.54878E-07         0.85104E-10         0.00000E+00
    0.54878E-07         0.91056E-10         0.00000E+00
    0.54878E-07         0.96386E-10         0.00000E+00
    0.54879E-07         0.10111E-09         0.00000E+00
    0.54879E-07         0.10526E-09         0.00000E+00
    0.54880E-07         0.10885E-09         0.00000E+00
    0.54880E-07         0.11190E-09         0.00000E+00
    0.54881E-07         0.11442E-09         0.00000E+00
    0.54882E-07         0.11645E-09         0.00000E+00
    0.54883E-07         0.11799E-09         0.00000E+00
    0.54883E-07         0.11907E-09         0.00000E+00
    0.54884E-07         0.11971E-09         0.00000E+00
    0.54885E-07         0.11991E-09         0.00000E+00
    0.54886E-07         0.11970E-09         0.00000E+00
    0.54887E-07         0.11910E-09         0.00000E+00
    0.54888E-07         0.11812E-09         0.00000E+00
    0.54889E-07         0.11678E-09         0.00000E+00
    0.54891E-07         0.11508E-09         0.00000E+00
    0.54892E-07         0.11306E-09         0.00000E+00
    0.54893E-07         0.11071E-09         0.00000E+00
    0.54894E-07         0.10806E-09         0.00000E+00
    0.54895E-07         0.10511E-09         0.00000E+00
    0.54897E-07         0.10188E-09         0.00000E+00
    0.54898E-07         0.98381E-10         0.00000E+00
    0.54899E-07         0.94625E-10         0.00000E+00
    0.54900E-07         0.90621E-10         0.00000E+00
    0.54901E-07         0.86381E-10         0.00000E+00
    0.54902E-07         0.81915E-10         0.00000E+00
    0.54903E-07         0.77231E-10         0.00000E+00
    0.54905E-07         0.72338E-10         0.00000E+00
    0.54906E-07         0.67246E-10         0.00000E+00
    0.54907E-07         0.61962E-10         0.00000E+00
    0.54907E-07         0.56493E-10         0.00000E+00
    0.54908E-07         0.50847E-10         0.00000E+00
    0.54909E-07         0.45030E-10         0.00000E+00
    0.54910E-07         0.39048E-10         0.00000E+00
    0.54910E-07         0.32908E-10         0.00000E+00
    0.54911E-07         0.26614E-10         0.00000E+00
    0.54911E-07         0.20172E-10         0.00000E+00
    0.54912E-07         0.13586E-10         0.00000E+00
    0.54912E-07         0.68591E-11         0.00000E+00
    0.54912E-07         0.34614E-11         0.00000E+00
    0.56744E-07         0.63222E-11         0.00000E+00
    0.56744E-07         0.12329E-10         0.00000E+00
    0.56745E-07         0.23918E-10         0.00000E+00
    0.56745E-07         0.34670E-10         0.00000E+00
    0.56745E-07         0.44611E-10         0.00000E+00
    0.56745E-07         0.53769E-10         0.00000E+00
    0.56745E-07         0.62169E-10         0.00000E+00
    0.56746E-07         0.69838E-10         0.00000E+00
    0.56746E-07         0.76802E-10         0.00000E+00
    0.56747E-07         0.83086E-10         0.00000E+00
    0.56747E-07         0.88715E-10         0.00000E+00
    0.56748E-07         0.93714E-10         0.00000E+00
    0.56748E-07         0.98108E-10         0.00000E+00
    0.56749E-07         0.10192E-09         0.00000E+00
    0.56750E-07         0.10517E-09         0.00000E+00
    0.56751E-07         0.10789E-09         0.00000E+00
    0.56752E-07         0.11009E-09         0.00000E+00
    0.56753E-07         0.11180E-09         0.00000E+00
    0.56754E-07         0.11304E-09         0.00000E+00
    0.56756E-07         0.11383E-09         0.00000E+00
    0.56757E-07         0.11420E-09         0.00000E+00
    0.56758E-07         0.11415E-09         0.00000E+00
    0.56760E-07         0.11370E-09         0.00000E+00
    0.56761E-07         0.11289E-09         0.00000E+00
    0.56763E-07         0.11172E-09         0.00000E+00
    0.56764E-07         0.11021E-09         0.00000E+00
    0.56766E-07         0.10838E-09         0.00000E+00
    0.56767E-07         0.10624E-09         0.00000E+00
    0.56769E-07         0.10381E-09         0.00000E+00
    0.56771E-07         0.10111E-09         0.00000E+00
    0.56772E-07         0.98140E-10         0.00000E+00
    0.56774E-07         0.94923E-10         0.00000E+00
    0.56776E-07         0.91468E-10         0.00000E+00
    0.56777E-07         0.87790E-10         0.00000E+00
    0.56779E-07         0.83898E-10         0.00000E+00
    0.56780E-07         0.79804E-10         0.00000E+00
    0.56782E-07         0.75519E-10         0.00000E+00
    0.56783E-07         0.71052E-10         0.00000E+00
    0.56785E-07         0.66413E-10         0.00000E+00
    0.56786E-07         0.61610E-10         0.00000E+00
    0.56787E-07         0.56652E-10         0.00000E+00
    0.56788E-07         0.51547E-10         0.00000E+00
    0.56789E-07         0.46301E-10         0.00000E+00
    0.56790E-07         0.40922E-10         0.00000E+00
    0.56791E-07         0.35415E-10         0.00000E+00
    0.56792E-07         0.29787E-10         0.00000E+00
    0.56793E-07         0.24043E-10         0.00000E+00
    0.56793E-07         0.18188E-10         0.00000E+00
    0.56794E-07         0.12226E-10         0.00000E+00
    0.56794E-07         0.61610E-11         0.00000E+00
    0.56794E-07         0.31035E-11         0.00000E+00
    0.58707E-07         0.61995E-11         0.00000E+00
    0.58707E-07         0.12069E-10         0.00000E+00
    0.58707E-07         0.23365E-10         0.00000E+00
    0.58707E-07         0.33789E-10         0.00000E+00
    0.58708E-07         0.43372E-10         0.00000E+00
    0.58708E-07         0.52147E-10         0.00000E+00
    0.58708E-07         0.60143E-10         0.00000E+00
    0.58709E-07         0.67391E-10         0.00000E+00
    0.58710E-07         0.73921E-10         0.00000E+00
    0.58711E-07         0.79763E-10         0.00000E+00
    0.58711E-07         0.84945E-10         0.00000E+00
    0.58712E-07         0.89495E-10         0.00000E+00
    0.58713E-07         0.93442E-10         0.00000E+00
    0.58715E-07         0.96813E-10         0.00000E+00
    0.58716E-07         0.99633E-10         0.00000E+00
    0.58717E-07         0.10193E-09         0.00000E+00
    0.58719E-07         0.10373E-09         0.00000E+00
    0.58720E-07         0.10505E-09         0.00000E+00
    0.58722E-07         0.10592E-09         0.00000E+00
    0.58724E-07         0.10637E-09         0.00000E+00
    0.58726E-07         0.10641E-09         0.00000E+00
    0.58727E-07         0.10606E-09         0.00000E+00
    0.58729E-07         0.10536E-09         0.00000E+00
    0.58731E-07         0.10431E-09         0.00000E+00
    0.58733E-07         0.10293E-09         0.00000E+00
    0.58735E-07         0.10125E-09         0.00000E+00
    0.58737E-07         0.99287E-10         0.00000E+00
    0.58740E-07         0.97051E-10         0.00000E+00
    0.58742E-07         0.94561E-10         0.00000E+00
    0.58744E-07         0.91832E-10         0.00000E+00
    0.58746E-07         0.88881E-10         0.00000E+00
    0.58748E-07         0.85720E-10         0.00000E+00
    0.58750E-07         0.82364E-10         0.00000E+00
    0.58752E-07         0.78825E-10         0.00000E+00
    0.58754E-07         0.75115E-10         0.00000E+00
    0.58756E-07         0.71246E-10         0.00000E+00
    0.58758E-07         0.67228E-10         0.00000E+00
    0.58760E-07         0.63072E-10         0.00000E+00
    0.58762E-07         0.58787E-10         0.00000E+00
    0.58763E-07         0.54381E-10         0.00000E+00
    0.58765E-07         0.49864E-10         0.00000E+00
    0.58767E-07         0.45243E-10         0.00000E+00
    0.58768E-07         0.40526E-10         0.00000E+00
    0.58769E-07         0.35718E-10         0.00000E+00
    0.58770E-07         0.30826E-10         0.00000E+00
    0.58771E-07         0.25856E-10         0.00000E+00
    0.58772E-07         0.20813E-10         0.00000E+00
    0.58773E-07         0.15702E-10         0.00000E+00
    0.58773E-07         0.10527E-10         0.00000E+00
    0.58773E-07         0.52910E-11         0.00000E+00
    0.58773E-07         0.26585E-11         0.00000E+00
    0.60769E-07         0.59786E-11         0.00000E+00
    0.60769E-07         0.11613E-10         0.00000E+00
    0.60769E-07         0.22422E-10         0.00000E+00
    0.60770E-07         0.32327E-10         0.00000E+00
    0.60770E-07         0.41367E-10         0.00000E+00
    0.60771E-07         0.49576E-10         0.00000E+00
    0.60771E-07         0.56992E-10         0.00000E+00
    0.60772E-07         0.63649E-10         0.00000E+00
    0.60773E-07         0.69581E-10         0.00000E+00
    0.60774E-07         0.74824E-10         0.00000E+00
    0.60776E-07         0.79410E-10         0.00000E+00
    0.60777E-07         0.83372E-10         0.00000E+00
    0.60779E-07         0.86741E-10         0.00000E+00
    0.60780E-07         0.89548E-10         0.00000E+00
    0.60782E-07         0.91823E-10         0.00000E+00
    0.60784E-07         0.93595E-10         0.00000E+00
    0.60786E-07         0.94892E-10         0.00000E+00
    0.60788E-07         0.95743E-10         0.00000E+00
    0.60790E-07         0.96173E-10         0.00000E+00
    0.60793E-07         0.96207E-10         0.00000E+00
    0.60795E-07         0.95872E-10         0.00000E+00
    0.60797E-07         0.95189E-10         0.00000E+00
    0.60800E-07         0.94183E-10         0.00000E+00
    0.60803E-07         0.92875E-10         0.00000E+00
    0.60805E-07         0.91285E-10         0.00000E+00
    0.60808E-07         0.89435E-10         0.00000E+00
    0.60811E-07         0.87343E-10         0.00000E+00
    0.60813E-07         0.85027E-10         0.00000E+00
    0.60816E-07         0.82506E-10         0.00000E+00
    0.60819E-07         0.79794E-10         0.00000E+00
    0.60822E-07         0.76909E-10         0.00000E+00
    0.60824E-07         0.73865E-10         0.00000E+00
    0.60827E-07         0.70675E-10         0.00000E+00
    0.60830E-07         0.67354E-10         0.00000E+00
    0.60832E-07         0.63913E-10         0.00000E+00
    0.60835E-07         0.60364E-10         0.00000E+00
    0.60837E-07         0.56718E-10         0.00000E+00
    0.60839E-07         0.52985E-10         0.00000E+00
    0.60842E-07         0.49175E-10         0.00000E+00
    0.60844E-07         0.45296E-10         0.00000E+00
    0.60846E-07         0.41356E-10         0.00000E+00
    0.60847E-07         0.37363E-10         0.00000E+00
    0.60849E-07         0.33325E-10         0.00000E+00
    0.60851E-07         0.29246E-10         0.00000E+00
    0.60852E-07         0.25133E-10         0.00000E+00
    0.60853E-07         0.20992E-10         0.00000E+00
    0.60854E-07         0.16826E-10         0.00000E+00
    0.60855E-07         0.12640E-10         0.00000E+00
    0.60855E-07         0.84385E-11         0.00000E+00
    0.60856E-07         0.42240E-11         0.00000E+00
    0.60856E-07         0.21140E-11         0.00000E+00
    0.62936E-07         0.56339E-11         0.00000E+00
    0.62936E-07         0.10911E-10         0.00000E+00
    0.62936E-07         0.20991E-10         0.00000E+00
    0.62937E-07         0.30142E-10         0.00000E+00
    0.62938E-07         0.38407E-10         0.00000E+00
    0.62938E-07         0.45829E-10         0.00000E+00
    0.62939E-07         0.52449E-10         0.00000E+00
    0.62940E-07         0.58309E-10         0.00000E+00
    0.62942E-07         0.63448E-10         0.00000E+00
    0.62943E-07         0.67905E-10         0.00000E+00
    0.62945E-07         0.71718E-10         0.00000E+00
    0.62947E-07         0.74924E-10         0.00000E+00
    0.62949E-07         0.77560E-10         0.00000E+00
    0.62951E-07         0.79659E-10         0.00000E+00
    0.62954E-07         0.81257E-10         0.00000E+00
    0.62956E-07         0.82385E-10         0.00000E+00
    0.62959E-07         0.83075E-10         0.00000E+00
    0.62962E-07         0.83357E-10         0.00000E+00
    0.62964E-07         0.83261E-10         0.00000E+00
    0.62967E-07         0.82816E-10         0.00000E+00
    0.62971E-07         0.82047E-10         0.00000E+00
    0.62974E-07         0.80981E-10         0.00000E+00
    0.62977E-07         0.79644E-10         0.00000E+00
    0.62980E-07         0.78057E-10         0.00000E+00
    0.62984E-07         0.76245E-10         0.00000E+00
    0.62987E-07         0.74228E-10         0.00000E+00
    0.62991E-07         0.72026E-10         0.00000E+00
    0.62994E-07         0.69660E-10         0.00000E+00
    0.62998E-07         0.67147E-10         0.00000E+00
    0.63001E-07         0.64505E-10         0.00000E+00
    0.63004E-07         0.61750E-10         0.00000E+00
    0.63008E-07         0.58896E-10         0.00000E+00
    0.63011E-07         0.55959E-10         0.00000E+00
    0.63014E-07         0.52951E-10         0.00000E+00
    0.63018E-07         0.49886E-10         0.00000E+00
    0.63021E-07         0.46774E-10         0.00000E+00
    0.63024E-07         0.43625E-10         0.00000E+00
    0.63027E-07         0.40451E-10         0.00000E+00
    0.63029E-07         0.37260E-10         0.00000E+00
    0.63032E-07         0.34061E-10         0.00000E+00
    0.63034E-07         0.30860E-10         0.00000E+00
    0.63036E-07         0.27665E-10         0.00000E+00
    0.63039E-07         0.24482E-10         0.00000E+00
    0.63040E-07         0.21316E-10         0.00000E+00
    0.63042E-07         0.18173E-10         0.00000E+00
    0.63043E-07         0.15057E-10         0.00000E+00
    0.63045E-07         0.11972E-10         0.00000E+00
    0.63046E-07         0.89207E-11         0.00000E+00
    0.63046E-07         0.59070E-11         0.00000E+00
    0.63047E-07         0.29331E-11         0.00000E+00
    0.63047E-07         0.14564E-11         0.00000E+00
    0.65213E-07         0.51352E-11         0.00000E+00
    0.65213E-07         0.99044E-11         0.00000E+00
    0.65214E-07         0.18957E-10         0.00000E+00
    0.65214E-07         0.27063E-10         0.00000E+00
    0.65215E-07         0.34273E-10         0.00000E+00
    0.65216E-07         0.40638E-10         0.00000E+00
    0.65218E-07         0.46204E-10         0.00000E+00
    0.65219E-07         0.51019E-10         0.00000E+00
    0.65221E-07         0.55129E-10         0.00000E+00
    0.65223E-07         0.58578E-10         0.00000E+00
    0.65225E-07         0.61411E-10         0.00000E+00
    0.65228E-07         0.63667E-10         0.00000E+00
    0.65231E-07         0.65389E-10         0.00000E+00
    0.65233E-07         0.66616E-10         0.00000E+00
    0.65237E-07         0.67385E-10         0.00000E+00
    0.65240E-07         0.67732E-10         0.00000E+00
    0.65243E-07         0.67693E-10         0.00000E+00
    0.65247E-07         0.67301E-10         0.00000E+00
    0.65250E-07         0.66589E-10         0.00000E+00
    0.65254E-07         0.65587E-10         0.00000E+00
    0.65258E-07         0.64325E-10         0.00000E+00
    0.65262E-07         0.62830E-10         0.00000E+00
    0.65266E-07         0.61130E-10         0.00000E+00
    0.65271E-07         0.59249E-10         0.00000E+00
    0.65275E-07         0.57212E-10         0.00000E+00
    0.65279E-07         0.55041E-10         0.00000E+00
    0.65283E-07         0.52757E-10         0.00000E+00
    0.65288E-07         0.50381E-10         0.00000E+00
    0.65292E-07         0.47931E-10         0.00000E+00
    0.65296E-07         0.45426E-10         0.00000E+00
    0.65301E-07         0.42880E-10         0.00000E+00
    0.65305E-07         0.40311E-10         0.00000E+00
    0.65309E-07         0.37731E-10         0.00000E+00
    0.65313E-07         0.35154E-10         0.00000E+00
    0.65317E-07         0.32592E-10         0.00000E+00
    0.65321E-07         0.30056E-10         0.00000E+00
    0.65324E-07         0.27557E-10         0.00000E+00
    0.65328E-07         0.25102E-10         0.00000E+00
    0.65331E-07         0.22700E-10         0.00000E+00
    0.65334E-07         0.20360E-10         0.00000E+00
    0.65337E-07         0.18086E-10         0.00000E+00
    0.65340E-07         0.15886E-10         0.00000E+00
    0.65342E-07         0.13763E-10         0.00000E+00
    0.65344E-07         0.11724E-10         0.00000E+00
    0.65346E-07         0.97701E-11         0.00000E+00
    0.65348E-07         0.79060E-11         0.00000E+00
    0.65350E-07         0.61340E-11         0.00000E+00
    0.65351E-07         0.44562E-11         0.00000E+00
    0.65351E-07         0.28743E-11         0.00000E+00
    0.65352E-07         0.13895E-11         0.00000E+00
    0.65352E-07         0.67151E-12         0.00000E+00
    0.67607E-07         0.44471E-11         0.00000E+00
    0.67607E-07         0.85225E-11         0.00000E+00
    0.67607E-07         0.16183E-10         0.00000E+00
    0.67608E-07         0.22893E-10         0.00000E+00
    0.67609E-07         0.28711E-10         0.00000E+00
    0.67611E-07         0.33694E-10         0.00000E+00
    0.67613E-07         0.37898E-10         0.00000E+00
    0.67615E-07         0.41376E-10         0.00000E+00
    0.67617E-07         0.44181E-10         0.00000E+00
    0.67620E-07         0.46364E-10         0.00000E+00
    0.67623E-07         0.47973E-10         0.00000E+00
    0.67626E-07         0.49056E-10         0.00000E+00
    0.67629E-07         0.49658E-10         0.00000E+00
    0.67633E-07         0.49823E-10         0.00000E+00
    0.67637E-07         0.49593E-10         0.00000E+00
    0.67641E-07         0.49007E-10         0.00000E+00
    0.67645E-07         0.48106E-10         0.00000E+00
    0.67650E-07         0.46924E-10         0.00000E+00
    0.67654E-07         0.45497E-10         0.00000E+00
    0.67659E-07         0.43859E-10         0.00000E+00
    0.67664E-07         0.42041E-10         0.00000E+00
    0.67669E-07         0.40073E-10         0.00000E+00
    0.67674E-07         0.37983E-10         0.00000E+00
    0.67679E-07         0.35797E-10         0.00000E+00
    0.67685E-07         0.33542E-10         0.00000E+00
    0.67690E-07         0.31240E-10         0.00000E+00
    0.67695E-07         0.28913E-10         0.00000E+00
    0.67701E-07         0.26582E-10         0.00000E+00
    0.67706E-07         0.24265E-10         0.00000E+00
    0.67711E-07         0.21981E-10         0.00000E+00
    0.67716E-07         0.19745E-10         0.00000E+00
    0.67721E-07         0.17573E-10         0.00000E+00
    0.67726E-07         0.15478E-10         0.00000E+00
    0.67731E-07         0.13472E-10         0.00000E+00
    0.67736E-07         0.11567E-10         0.00000E+00
    0.67740E-07         0.97719E-11         0.00000E+00
    0.67745E-07         0.80966E-11         0.00000E+00
    0.67749E-07         0.65487E-11         0.00000E+00
    0.67753E-07         0.51351E-11         0.00000E+00
    0.67757E-07         0.38615E-11         0.00000E+00
    0.67760E-07         0.27331E-11         0.00000E+00
    0.67763E-07         0.17540E-11         0.00000E+00
    0.67766E-07         0.92762E-12         0.00000E+00
    0.67769E-07         0.25661E-12         0.00000E+00
    0.67771E-07        -0.25707E-12         0.00000E+00
    0.67773E-07        -0.61206E-12         0.00000E+00
    0.67775E-07        -0.80757E-12         0.00000E+00
    0.67776E-07        -0.84332E-12         0.00000E+00
    0.67777E-07        -0.71948E-12         0.00000E+00
    0.67778E-07        -0.43662E-12         0.00000E+00
    0.67778E-07        -0.25553E-12         0.00000E+00
    0.70123E-07         0.35292E-11         0.00000E+00
    0.70123E-07         0.66872E-11         0.00000E+00
    0.70124E-07         0.12517E-10         0.00000E+00
    0.70125E-07         0.17411E-10         0.00000E+00
    0.70126E-07         0.21434E-10         0.00000E+00
    0.70128E-07         0.24654E-10         0.00000E+00
    0.70130E-07         0.27134E-10         0.00000E+00
    0.70133E-07         0.28934E-10         0.00000E+00
    0.70136E-07         0.30115E-10         0.00000E+00
    0.70139E-07         0.30733E-10         0.00000E+00
    0.70143E-07         0.30843E-10         0.00000E+00
    0.70147E-07         0.30498E-10         0.00000E+00
    0.70151E-07         0.29748E-10         0.00000E+00
    0.70156E-07         0.28641E-10         0.00000E+00
    0.70161E-07         0.27223E-10         0.00000E+00
    0.70166E-07         0.25539E-10         0.00000E+00
    0.70171E-07         0.23629E-10         0.00000E+00
    0.70177E-07         0.21534E-10         0.00000E+00
    0.70183E-07         0.19291E-10         0.00000E+00
    0.70189E-07         0.16936E-10         0.00000E+00
    0.70195E-07         0.14501E-10         0.00000E+00
    0.70201E-07         0.12019E-10         0.00000E+00
    0.70207E-07         0.95188E-11         0.00000E+00
    0.70213E-07         0.70277E-11         0.00000E+00
    0.70220E-07         0.45716E-11         0.00000E+00
    0.70226E-07         0.21743E-11         0.00000E+00
    0.70233E-07        -0.14209E-12         0.00000E+00
    0.70239E-07        -0.23572E-11         0.00000E+00
    0.70245E-07        -0.44523E-11         0.00000E+00
    0.70252E-07        -0.64105E-11         0.00000E+00
    0.70258E-07        -0.82162E-11         0.00000E+00
    0.70264E-07        -0.98555E-11         0.00000E+00
    0.70270E-07        -0.11316E-10         0.00000E+00
    0.70275E-07        -0.12586E-10         0.00000E+00
    0.70281E-07        -0.13657E-10         0.00000E+00
    0.70286E-07        -0.14520E-10         0.00000E+00
    0.70292E-07        -0.15167E-10         0.00000E+00
    0.70297E-07        -0.15593E-10         0.00000E+00
    0.70301E-07        -0.15792E-10         0.00000E+00
    0.70306E-07        -0.15762E-10         0.00000E+00
    0.70310E-07        -0.15498E-10         0.00000E+00
    0.70314E-07        -0.14999E-10         0.00000E+00
    0.70317E-07        -0.14265E-10         0.00000E+00
    0.70320E-07        -0.13294E-10         0.00000E+00
    0.70323E-07        -0.12087E-10         0.00000E+00
    0.70325E-07        -0.10646E-10         0.00000E+00
    0.70327E-07        -0.89713E-11         0.00000E+00
    0.70329E-07        -0.70660E-11         0.00000E+00
    0.70330E-07        -0.49326E-11         0.00000E+00
    0.70331E-07        -0.25741E-11         0.00000E+00
    0.70331E-07        -0.13390E-11         0.00000E+00
    0.72769E-07         0.23367E-11         0.00000E+00
    0.72769E-07         0.43112E-11         0.00000E+00
    0.72770E-07         0.77914E-11         0.00000E+00
    0.72771E-07         0.10373E-10         0.00000E+00
    0.72773E-07         0.12134E-10         0.00000E+00
    0.72776E-07         0.13147E-10         0.00000E+00
    0.72778E-07         0.13486E-10         0.00000E+00
    0.72782E-07         0.13220E-10         0.00000E+00
    0.72785E-07         0.12414E-10         0.00000E+00
    0.72790E-07         0.11131E-10         0.00000E+00
    0.72794E-07         0.94339E-11         0.00000E+00
    0.72799E-07         0.73789E-11         0.00000E+00
    0.72804E-07         0.50216E-11         0.00000E+00
    0.72810E-07         0.24146E-11         0.00000E+00
    0.72816E-07        -0.39247E-12         0.00000E+00
    0.72822E-07        -0.33523E-11         0.00000E+00
    0.72829E-07        -0.64204E-11         0.00000E+00
    0.72836E-07        -0.95547E-11         0.00000E+00
    0.72842E-07        -0.12716E-10         0.00000E+00
    0.72850E-07        -0.15867E-10         0.00000E+00
    0.72857E-07        -0.18972E-10         0.00000E+00
    0.72864E-07        -0.22001E-10         0.00000E+00
    0.72872E-07        -0.24922E-10         0.00000E+00
    0.72879E-07        -0.27708E-10         0.00000E+00
    0.72887E-07        -0.30333E-10         0.00000E+00
    0.72895E-07        -0.32773E-10         0.00000E+00
    0.72902E-07        -0.35008E-10         0.00000E+00
    0.72910E-07        -0.37017E-10         0.00000E+00
    0.72917E-07        -0.38783E-10         0.00000E+00
    0.72925E-07        -0.40290E-10         0.00000E+00
    0.72932E-07        -0.41523E-10         0.00000E+00
    0.72939E-07        -0.42471E-10         0.00000E+00
    0.72946E-07        -0.43123E-10         0.00000E+00
    0.72953E-07        -0.43470E-10         0.00000E+00
    0.72960E-07        -0.43503E-10         0.00000E+00
    0.72966E-07        -0.43218E-10         0.00000E+00
    0.72972E-07        -0.42608E-10         0.00000E+00
    0.72978E-07        -0.41671E-10         0.00000E+00
    0.72983E-07        -0.40403E-10         0.00000E+00
    0.72988E-07        -0.38805E-10         0.00000E+00
    0.72993E-07        -0.36876E-10         0.00000E+00
    0.72998E-07        -0.34616E-10         0.00000E+00
    0.73002E-07        -0.32028E-10         0.00000E+00
    0.73005E-07        -0.29115E-10         0.00000E+00
    0.73009E-07        -0.25880E-10         0.00000E+00
    0.73011E-07        -0.22328E-10         0.00000E+00
    0.73014E-07        -0.18463E-10         0.00000E+00
    0.73015E-07        -0.14291E-10         0.00000E+00
    0.73017E-07        -0.98171E-11         0.00000E+00
    0.73017E-07        -0.50488E-11         0.00000E+00
    0.73018E-07        -0.25917E-11         0.00000E+00
    0.75552E-07         0.82213E-12         0.00000E+00
    0.75553E-07         0.13031E-11         0.00000E+00
    0.75554E-07         0.18294E-11         0.00000E+00
    0.75555E-07         0.15294E-11         0.00000E+00
    0.75558E-07         0.49021E-12         0.00000E+00
    0.75561E-07        -0.12043E-11         0.00000E+00
    0.75564E-07        -0.34740E-11         0.00000E+00
    0.75568E-07        -0.62423E-11         0.00000E+00
    0.75573E-07        -0.94360E-11         0.00000E+00
    0.75578E-07        -0.12986E-10         0.00000E+00
    0.75583E-07        -0.16825E-10         0.00000E+00
    0.75589E-07        -0.20892E-10         0.00000E+00
    0.75596E-07        -0.25126E-10         0.00000E+00
    0.75603E-07        -0.29472E-10         0.00000E+00
    0.75610E-07        -0.33876E-10         0.00000E+00
    0.75617E-07        -0.38290E-10         0.00000E+00
    0.75625E-07        -0.42667E-10         0.00000E+00
    0.75633E-07        -0.46962E-10         0.00000E+00
    0.75641E-07        -0.51136E-10         0.00000E+00
    0.75650E-07        -0.55150E-10         0.00000E+00
    0.75658E-07        -0.58970E-10         0.00000E+00
    0.75667E-07        -0.62563E-10         0.00000E+00
    0.75676E-07        -0.65900E-10         0.00000E+00
    0.75685E-07        -0.68953E-10         0.00000E+00
    0.75694E-07        -0.71697E-10         0.00000E+00
    0.75703E-07        -0.74111E-10         0.00000E+00
    0.75712E-07        -0.76173E-10         0.00000E+00
    0.75721E-07        -0.77866E-10         0.00000E+00
    0.75729E-07        -0.79174E-10         0.00000E+00
    0.75738E-07        -0.80083E-10         0.00000E+00
    0.75746E-07        -0.80582E-10         0.00000E+00
    0.75755E-07        -0.80660E-10         0.00000E+00
    0.75763E-07        -0.80309E-10         0.00000E+00
    0.75771E-07        -0.79522E-10         0.00000E+00
    0.75778E-07        -0.78295E-10         0.00000E+00
    0.75786E-07        -0.76624E-10         0.00000E+00
    0.75793E-07        -0.74508E-10         0.00000E+00
    0.75799E-07        -0.71946E-10         0.00000E+00
    0.75806E-07        -0.68938E-10         0.00000E+00
    0.75812E-07        -0.65489E-10         0.00000E+00
    0.75817E-07        -0.61599E-10         0.00000E+00
    0.75822E-07        -0.57275E-10         0.00000E+00
    0.75827E-07        -0.52522E-10         0.00000E+00
    0.75831E-07        -0.47346E-10         0.00000E+00
    0.75835E-07        -0.41755E-10         0.00000E+00
    0.75838E-07        -0.35757E-10         0.00000E+00
    0.75840E-07        -0.29360E-10         0.00000E+00
    0.75842E-07        -0.22575E-10         0.00000E+00
    0.75844E-07        -0.15412E-10         0.00000E+00
    0.75845E-07        -0.78797E-11         0.00000E+00
    0.75845E-07        -0.40230E-11         0.00000E+00
    0.78482E-07        -0.10618E-11         0.00000E+00
    0.78482E-07        -0.24279E-11         0.00000E+00
    0.78483E-07        -0.55402E-11         0.00000E+00
    0.78485E-07        -0.93628E-11         0.00000E+00
    0.78488E-07        -0.13799E-10         0.00000E+00
    0.78492E-07        -0.18755E-10         0.00000E+00
    0.78496E-07        -0.24144E-10         0.00000E+00
    0.78501E-07        -0.29883E-10         0.00000E+00
    0.78506E-07        -0.35891E-10         0.00000E+00
    0.78512E-07        -0.42095E-10         0.00000E+00
    0.78519E-07        -0.48423E-10         0.00000E+00
    0.78526E-07        -0.54810E-10         0.00000E+00
    0.78534E-07        -0.61193E-10         0.00000E+00
    0.78542E-07        -0.67513E-10         0.00000E+00
    0.78550E-07        -0.73717E-10         0.00000E+00
    0.78559E-07        -0.79752E-10         0.00000E+00
    0.78568E-07        -0.85573E-10         0.00000E+00
    0.78577E-07        -0.91135E-10         0.00000E+00
    0.78587E-07        -0.96398E-10         0.00000E+00
    0.78597E-07        -0.10132E-09         0.00000E+00
    0.78607E-07        -0.10588E-09         0.00000E+00
    0.78617E-07        -0.11004E-09         0.00000E+00
    0.78627E-07        -0.11376E-09         0.00000E+00
    0.78638E-07        -0.11703E-09         0.00000E+00
    0.78648E-07        -0.11982E-09         0.00000E+00
    0.78658E-07        -0.12212E-09         0.00000E+00
    0.78668E-07        -0.12389E-09         0.00000E+00
    0.78679E-07        -0.12514E-09         0.00000E+00
    0.78689E-07        -0.12584E-09         0.00000E+00
    0.78698E-07        -0.12599E-09         0.00000E+00
    0.78708E-07        -0.12558E-09         0.00000E+00
    0.78718E-07        -0.12459E-09         0.00000E+00
    0.78727E-07        -0.12303E-09         0.00000E+00
    0.78736E-07        -0.12088E-09         0.00000E+00
    0.78744E-07        -0.11816E-09         0.00000E+00
    0.78753E-07        -0.11485E-09         0.00000E+00
    0.78761E-07        -0.11097E-09         0.00000E+00
    0.78768E-07        -0.10651E-09         0.00000E+00
    0.78775E-07        -0.10148E-09         0.00000E+00
    0.78782E-07        -0.95891E-10         0.00000E+00
    0.78788E-07        -0.89740E-10         0.00000E+00
    0.78794E-07        -0.83040E-10         0.00000E+00
    0.78799E-07        -0.75802E-10         0.00000E+00
    0.78804E-07        -0.68036E-10         0.00000E+00
    0.78808E-07        -0.59754E-10         0.00000E+00
    0.78811E-07        -0.50968E-10         0.00000E+00
    0.78814E-07        -0.41693E-10         0.00000E+00
    0.78816E-07        -0.31942E-10         0.00000E+00
    0.78818E-07        -0.21731E-10         0.00000E+00
    0.78819E-07        -0.11074E-10         0.00000E+00
    0.78819E-07        -0.56367E-11         0.00000E+00
    0.81566E-07        -0.33577E-11         0.00000E+00
    0.81566E-07        -0.69620E-11         0.00000E+00
    0.81568E-07        -0.14467E-10         0.00000E+00
    0.81570E-07        -0.22509E-10         0.00000E+00
    0.81574E-07        -0.30982E-10         0.00000E+00
    0.81578E-07        -0.39787E-10         0.00000E+00
    0.81583E-07        -0.48829E-10         0.00000E+00
    0.81588E-07        -0.58019E-10         0.00000E+00
    0.81595E-07        -0.67273E-10         0.00000E+00
    0.81602E-07        -0.76515E-10         0.00000E+00
    0.81610E-07        -0.85669E-10         0.00000E+00
    0.81618E-07        -0.94670E-10         0.00000E+00
    0.81627E-07        -0.10345E-09         0.00000E+00
    0.81636E-07        -0.11196E-09         0.00000E+00
    0.81646E-07        -0.12013E-09         0.00000E+00
    0.81656E-07        -0.12793E-09         0.00000E+00
    0.81666E-07        -0.13530E-09         0.00000E+00
    0.81677E-07        -0.14220E-09         0.00000E+00
    0.81688E-07        -0.14859E-09         0.00000E+00
    0.81699E-07        -0.15444E-09         0.00000E+00
    0.81711E-07        -0.15972E-09         0.00000E+00
    0.81722E-07        -0.16440E-09         0.00000E+00
    0.81734E-07        -0.16846E-09         0.00000E+00
    0.81745E-07        -0.17187E-09         0.00000E+00
    0.81757E-07        -0.17461E-09         0.00000E+00
    0.81768E-07        -0.17667E-09         0.00000E+00
    0.81780E-07        -0.17803E-09         0.00000E+00
    0.81791E-07        -0.17868E-09         0.00000E+00
    0.81802E-07        -0.17862E-09         0.00000E+00
    0.81813E-07        -0.17783E-09         0.00000E+00
    0.81824E-07        -0.17631E-09         0.00000E+00
    0.81835E-07        -0.17405E-09         0.00000E+00
    0.81845E-07        -0.17107E-09         0.00000E+00
    0.81855E-07        -0.16735E-09         0.00000E+00
    0.81864E-07        -0.16289E-09         0.00000E+00
    0.81873E-07        -0.15771E-09         0.00000E+00
    0.81882E-07        -0.15181E-09         0.00000E+00
    0.81891E-07        -0.14520E-09         0.00000E+00
    0.81898E-07        -0.13787E-09         0.00000E+00
    0.81906E-07        -0.12986E-09         0.00000E+00
    0.81913E-07        -0.12116E-09         0.00000E+00
    0.81919E-07        -0.11178E-09         0.00000E+00
    0.81925E-07        -0.10176E-09         0.00000E+00
    0.81930E-07        -0.91089E-10         0.00000E+00
    0.81934E-07        -0.79796E-10         0.00000E+00
    0.81938E-07        -0.67896E-10         0.00000E+00
    0.81941E-07        -0.55409E-10         0.00000E+00
    0.81944E-07        -0.42354E-10         0.00000E+00
    0.81946E-07        -0.28751E-10         0.00000E+00
    0.81947E-07        -0.14621E-10         0.00000E+00
    0.81947E-07        -0.74272E-11         0.00000E+00
    0.84816E-07        -0.60968E-11         0.00000E+00
    0.84816E-07        -0.12355E-10         0.00000E+00
    0.84818E-07        -0.25048E-10         0.00000E+00
    0.84821E-07        -0.38033E-10         0.00000E+00
    0.84825E-07        -0.51198E-10         0.00000E+00
    0.84829E-07        -0.64438E-10         0.00000E+00
    0.84835E-07        -0.77654E-10         0.00000E+00
    0.84842E-07        -0.90755E-10         0.00000E+00
    0.84849E-07        -0.10366E-09         0.00000E+00
    0.84857E-07        -0.11628E-09         0.00000E+00
    0.84866E-07        -0.12855E-09         0.00000E+00
    0.84875E-07        -0.14041E-09         0.00000E+00
    0.84885E-07        -0.15179E-09         0.00000E+00
    0.84896E-07        -0.16263E-09         0.00000E+00
    0.84907E-07        -0.17289E-09         0.00000E+00
    0.84918E-07        -0.18252E-09         0.00000E+00
    0.84930E-07        -0.19148E-09         0.00000E+00
    0.84941E-07        -0.19973E-09         0.00000E+00
    0.84954E-07        -0.20723E-09         0.00000E+00
    0.84966E-07        -0.21397E-09         0.00000E+00
    0.84978E-07        -0.21991E-09         0.00000E+00
    0.84991E-07        -0.22504E-09         0.00000E+00
    0.85004E-07        -0.22932E-09         0.00000E+00
    0.85016E-07        -0.23275E-09         0.00000E+00
    0.85029E-07        -0.23531E-09         0.00000E+00
    0.85041E-07        -0.23699E-09         0.00000E+00
    0.85054E-07        -0.23779E-09         0.00000E+00
    0.85066E-07        -0.23769E-09         0.00000E+00
    0.85078E-07        -0.23669E-09         0.00000E+00
    0.85090E-07        -0.23478E-09         0.00000E+00
    0.85102E-07        -0.23198E-09         0.00000E+00
    0.85113E-07        -0.22827E-09         0.00000E+00
    0.85124E-07        -0.22366E-09         0.00000E+00
    0.85134E-07        -0.21817E-09         0.00000E+00
    0.85145E-07        -0.21178E-09         0.00000E+00
    0.85155E-07        -0.20451E-09         0.00000E+00
    0.85164E-07        -0.19638E-09         0.00000E+00
    0.85173E-07        -0.18738E-09         0.00000E+00
    0.85181E-07        -0.17754E-09         0.00000E+00
    0.85189E-07        -0.16687E-09         0.00000E+00
    0.85196E-07        -0.15538E-09         0.00000E+00
    0.85203E-07        -0.14309E-09         0.00000E+00
    0.85209E-07        -0.13002E-09         0.00000E+00
    0.85215E-07        -0.11618E-09         0.00000E+00
    0.85220E-07        -0.10161E-09         0.00000E+00
    0.85224E-07        -0.86321E-10         0.00000E+00
    0.85227E-07        -0.70337E-10         0.00000E+00
    0.85230E-07        -0.53684E-10         0.00000E+00
    0.85232E-07        -0.36389E-10         0.00000E+00
    0.85233E-07        -0.18480E-10         0.00000E+00
    0.85233E-07        -0.93752E-11         0.00000E+00
    0.88242E-07        -0.92888E-11         0.00000E+00
    0.88243E-07        -0.18620E-10         0.00000E+00
    0.88245E-07        -0.37292E-10         0.00000E+00
    0.88248E-07        -0.55921E-10         0.00000E+00
    0.88252E-07        -0.74392E-10         0.00000E+00
    0.88258E-07        -0.92599E-10         0.00000E+00
    0.88264E-07        -0.11044E-09         0.00000E+00
    0.88271E-07        -0.12784E-09         0.00000E+00
    0.88280E-07        -0.14470E-09         0.00000E+00
    0.88288E-07        -0.16095E-09         0.00000E+00
    0.88298E-07        -0.17653E-09         0.00000E+00
    0.88308E-07        -0.19138E-09         0.00000E+00
    0.88319E-07        -0.20544E-09         0.00000E+00
    0.88331E-07        -0.21866E-09         0.00000E+00
    0.88342E-07        -0.23101E-09         0.00000E+00
    0.88354E-07        -0.24244E-09         0.00000E+00
    0.88367E-07        -0.25293E-09         0.00000E+00
    0.88380E-07        -0.26244E-09         0.00000E+00
    0.88393E-07        -0.27096E-09         0.00000E+00
    0.88406E-07        -0.27846E-09         0.00000E+00
    0.88419E-07        -0.28492E-09         0.00000E+00
    0.88432E-07        -0.29034E-09         0.00000E+00
    0.88445E-07        -0.29469E-09         0.00000E+00
    0.88458E-07        -0.29798E-09         0.00000E+00
    0.88472E-07        -0.30020E-09         0.00000E+00
    0.88485E-07        -0.30134E-09         0.00000E+00
    0.88497E-07        -0.30140E-09         0.00000E+00
    0.88510E-07        -0.30038E-09         0.00000E+00
    0.88523E-07        -0.29828E-09         0.00000E+00
    0.88535E-07        -0.29511E-09         0.00000E+00
    0.88547E-07        -0.29087E-09         0.00000E+00
    0.88558E-07        -0.28556E-09         0.00000E+00
    0.88570E-07        -0.27920E-09         0.00000E+00
    0.88581E-07        -0.27178E-09         0.00000E+00
    0.88591E-07        -0.26333E-09         0.00000E+00
    0.88601E-07        -0.25384E-09         0.00000E+00
    0.88611E-07        -0.24334E-09         0.00000E+00
    0.88620E-07        -0.23183E-09         0.00000E+00
    0.88629E-07        -0.21934E-09         0.00000E+00
    0.88637E-07        -0.20587E-09         0.00000E+00
    0.88644E-07        -0.19145E-09         0.00000E+00
    0.88651E-07        -0.17610E-09         0.00000E+00
    0.88658E-07        -0.15983E-09         0.00000E+00
    0.88663E-07        -0.14267E-09         0.00000E+00
    0.88668E-07        -0.12465E-09         0.00000E+00
    0.88673E-07        -0.10579E-09         0.00000E+00
    0.88676E-07        -0.86126E-10         0.00000E+00
    0.88679E-07        -0.65677E-10         0.00000E+00
    0.88681E-07        -0.44481E-10         0.00000E+00
    0.88682E-07        -0.22571E-10         0.00000E+00
    0.88683E-07        -0.11442E-10         0.00000E+00
    0.91858E-07        -0.12909E-10         0.00000E+00
    0.91859E-07        -0.25698E-10         0.00000E+00
    0.91861E-07        -0.51060E-10         0.00000E+00
    0.91864E-07        -0.75933E-10         0.00000E+00
    0.91869E-07        -0.10020E-09         0.00000E+00
    0.91875E-07        -0.12377E-09         0.00000E+00
    0.91882E-07        -0.14655E-09         0.00000E+00
    0.91890E-07        -0.16845E-09         0.00000E+00
    0.91899E-07        -0.18940E-09         0.00000E+00
    0.91908E-07        -0.20936E-09         0.00000E+00
    0.91918E-07        -0.22825E-09         0.00000E+00
    0.91929E-07        -0.24603E-09         0.00000E+00
    0.91940E-07        -0.26267E-09         0.00000E+00
    0.91952E-07        -0.27814E-09         0.00000E+00
    0.91964E-07        -0.29240E-09         0.00000E+00
    0.91976E-07        -0.30544E-09         0.00000E+00
    0.91989E-07        -0.31723E-09         0.00000E+00
    0.92002E-07        -0.32777E-09         0.00000E+00
    0.92015E-07        -0.33705E-09         0.00000E+00
    0.92028E-07        -0.34506E-09         0.00000E+00
    0.92041E-07        -0.35180E-09         0.00000E+00
    0.92054E-07        -0.35727E-09         0.00000E+00
    0.92067E-07        -0.36147E-09         0.00000E+00
    0.92080E-07        -0.36440E-09         0.00000E+00
    0.92093E-07        -0.36608E-09         0.00000E+00
    0.92105E-07        -0.36649E-09         0.00000E+00
    0.92118E-07        -0.36565E-09         0.00000E+00
    0.92130E-07        -0.36357E-09         0.00000E+00
    0.92142E-07        -0.36026E-09         0.00000E+00
    0.92154E-07        -0.35571E-09         0.00000E+00
    0.92166E-07        -0.34995E-09         0.00000E+00
    0.92177E-07        -0.34298E-09         0.00000E+00
    0.92188E-07        -0.33482E-09         0.00000E+00
    0.92198E-07        -0.32546E-09         0.00000E+00
    0.92208E-07        -0.31492E-09         0.00000E+00
    0.92218E-07        -0.30322E-09         0.00000E+00
    0.92227E-07        -0.29037E-09         0.00000E+00
    0.92236E-07        -0.27638E-09         0.00000E+00
    0.92244E-07        -0.26126E-09         0.00000E+00
    0.92252E-07        -0.24504E-09         0.00000E+00
    0.92260E-07        -0.22772E-09         0.00000E+00
    0.92266E-07        -0.20934E-09         0.00000E+00
    0.92272E-07        -0.18990E-09         0.00000E+00
    0.92278E-07        -0.16944E-09         0.00000E+00
    0.92283E-07        -0.14798E-09         0.00000E+00
    0.92287E-07        -0.12555E-09         0.00000E+00
    0.92291E-07        -0.10218E-09         0.00000E+00
    0.92293E-07        -0.77894E-10         0.00000E+00
    0.92295E-07        -0.52742E-10         0.00000E+00
    0.92297E-07        -0.26756E-10         0.00000E+00
    0.92297E-07        -0.13560E-10         0.00000E+00
    0.95679E-07        -0.16876E-10         0.00000E+00
    0.95679E-07        -0.33416E-10         0.00000E+00
    0.95682E-07        -0.65986E-10         0.00000E+00
    0.95685E-07        -0.97479E-10         0.00000E+00
    0.95690E-07        -0.12780E-09         0.00000E+00
    0.95696E-07        -0.15685E-09         0.00000E+00
    0.95704E-07        -0.18458E-09         0.00000E+00
    0.95712E-07        -0.21091E-09         0.00000E+00
    0.95720E-07        -0.23579E-09         0.00000E+00
    0.95730E-07        -0.25920E-09         0.00000E+00
    0.95740E-07        -0.28110E-09         0.00000E+00
    0.95750E-07        -0.30147E-09         0.00000E+00
    0.95761E-07        -0.32030E-09         0.00000E+00
    0.95772E-07        -0.33757E-09         0.00000E+00
    0.95784E-07        -0.35330E-09         0.00000E+00
    0.95795E-07        -0.36748E-09         0.00000E+00
    0.95807E-07        -0.38013E-09         0.00000E+00
    0.95819E-07        -0.39125E-09         0.00000E+00
    0.95831E-07        -0.40085E-09         0.00000E+00
    0.95842E-07        -0.40896E-09         0.00000E+00
    0.95854E-07        -0.41559E-09         0.00000E+00
    0.95866E-07        -0.42076E-09         0.00000E+00
    0.95877E-07        -0.42449E-09         0.00000E+00
    0.95889E-07        -0.42678E-09         0.00000E+00
    0.95900E-07        -0.42768E-09         0.00000E+00
    0.95911E-07        -0.42718E-09         0.00000E+00
    0.95922E-07        -0.42530E-09         0.00000E+00
    0.95932E-07        -0.42207E-09         0.00000E+00
    0.95942E-07        -0.41749E-09         0.00000E+00
    0.95952E-07        -0.41157E-09         0.00000E+00
    0.95962E-07        -0.40434E-09         0.00000E+00
    0.95972E-07        -0.39580E-09         0.00000E+00
    0.95981E-07        -0.38596E-09         0.00000E+00
    0.95990E-07        -0.37483E-09         0.00000E+00
    0.95999E-07        -0.36242E-09         0.00000E+00
    0.96007E-07        -0.34873E-09         0.00000E+00
    0.96015E-07        -0.33379E-09         0.00000E+00
    0.96022E-07        -0.31759E-09         0.00000E+00
    0.96030E-07        -0.30015E-09         0.00000E+00
    0.96036E-07        -0.28147E-09         0.00000E+00
    0.96043E-07        -0.26158E-09         0.00000E+00
    0.96049E-07        -0.24048E-09         0.00000E+00
    0.96054E-07        -0.21818E-09         0.00000E+00
    0.96059E-07        -0.19472E-09         0.00000E+00
    0.96063E-07        -0.17011E-09         0.00000E+00
    0.96067E-07        -0.14437E-09         0.00000E+00
    0.96070E-07        -0.11754E-09         0.00000E+00
    0.96073E-07        -0.89647E-10         0.00000E+00
    0.96075E-07        -0.60726E-10         0.00000E+00
    0.96076E-07        -0.30819E-10         0.00000E+00
    0.96076E-07        -0.15625E-10         0.00000E+00
    0.99721E-07        -0.21033E-10         0.00000E+00
    0.99722E-07        -0.41439E-10         0.00000E+00
    0.99724E-07        -0.81353E-10         0.00000E+00
    0.99728E-07        -0.11943E-09         0.00000E+00
    0.99733E-07        -0.15560E-09         0.00000E+00
    0.99739E-07        -0.18981E-09         0.00000E+00
    0.99745E-07        -0.22202E-09         0.00000E+00
    0.99752E-07        -0.25221E-09         0.00000E+00
    0.99760E-07        -0.28036E-09         0.00000E+00
    0.99769E-07        -0.30649E-09         0.00000E+00
    0.99777E-07        -0.33061E-09         0.00000E+00
    0.99786E-07        -0.35274E-09         0.00000E+00
    0.99796E-07        -0.37290E-09         0.00000E+00
    0.99805E-07        -0.39114E-09         0.00000E+00
    0.99814E-07        -0.40749E-09         0.00000E+00
    0.99823E-07        -0.42199E-09         0.00000E+00
    0.99832E-07        -0.43470E-09         0.00000E+00
    0.99841E-07        -0.44566E-09         0.00000E+00
    0.99850E-07        -0.45491E-09         0.00000E+00
    0.99859E-07        -0.46249E-09         0.00000E+00
    0.99867E-07        -0.46846E-09         0.00000E+00
    0.99875E-07        -0.47285E-09         0.00000E+00
    0.99883E-07        -0.47570E-09         0.00000E+00
    0.99891E-07        -0.47704E-09         0.00000E+00
    0.99898E-07        -0.47692E-09         0.00000E+00
    0.99906E-07        -0.47535E-09         0.00000E+00
    0.99913E-07        -0.47236E-09         0.00000E+00
    0.99920E-07        -0.46799E-09         0.00000E+00
    0.99927E-07        -0.46224E-09         0.00000E+00
    0.99933E-07        -0.45513E-09         0.00000E+00
    0.99939E-07        -0.44667E-09         0.00000E+00
    0.99945E-07        -0.43688E-09         0.00000E+00
    0.99951E-07        -0.42576E-09         0.00000E+00
    0.99957E-07        -0.41332E-09         0.00000E+00
    0.99963E-07        -0.39955E-09         0.00000E+00
    0.99968E-07        -0.38446E-09         0.00000E+00
    0.99973E-07        -0.36804E-09         0.00000E+00
    0.99978E-07        -0.35030E-09         0.00000E+00
    0.99983E-07        -0.33122E-09         0.00000E+00
    0.99988E-07        -0.31082E-09         0.00000E+00
    0.99992E-07        -0.28907E-09         0.00000E+00
    0.99996E-07        -0.26600E-09         0.00000E+00
    0.10000E-06        -0.24159E-09         0.00000E+00
    0.10000E-06        -0.21586E-09         0.00000E+00
    0.10001E-06        -0.18880E-09         0.00000E+00
    0.10001E-06        -0.16045E-09         0.00000E+00
    0.10001E-06        -0.13080E-09         0.00000E+00
    0.10001E-06        -0.99900E-10         0.00000E+00
    0.10002E-06        -0.67767E-10         0.00000E+00
    0.10002E-06        -0.34443E-10         0.00000E+00
    0.10002E-06        -0.17489E-10         0.00000E+00
    0.10401E-06        -0.25058E-10         0.00000E+00
    0.10401E-06        -0.49135E-10         0.00000E+00
    0.10401E-06        -0.95886E-10         0.00000E+00
    0.10401E-06        -0.13981E-09         0.00000E+00
    0.10402E-06        -0.18088E-09         0.00000E+00
    0.10402E-06        -0.21912E-09         0.00000E+00
    0.10403E-06        -0.25456E-09         0.00000E+00
    0.10403E-06        -0.28723E-09         0.00000E+00
    0.10404E-06        -0.31720E-09         0.00000E+00
    0.10404E-06        -0.34455E-09         0.00000E+00
    0.10405E-06        -0.36936E-09         0.00000E+00
    0.10405E-06        -0.39172E-09         0.00000E+00
    0.10406E-06        -0.41173E-09         0.00000E+00
    0.10406E-06        -0.42949E-09         0.00000E+00
    0.10407E-06        -0.44510E-09         0.00000E+00
    0.10407E-06        -0.45865E-09         0.00000E+00
    0.10408E-06        -0.47024E-09         0.00000E+00
    0.10408E-06        -0.47997E-09         0.00000E+00
    0.10408E-06        -0.48791E-09         0.00000E+00
    0.10409E-06        -0.49415E-09         0.00000E+00
    0.10409E-06        -0.49875E-09         0.00000E+00
    0.10409E-06        -0.50179E-09         0.00000E+00
    0.10409E-06        -0.50333E-09         0.00000E+00
    0.10409E-06        -0.50341E-09         0.00000E+00
    0.10409E-06        -0.50209E-09         0.00000E+00
    0.10409E-06        -0.49940E-09         0.00000E+00
    0.10410E-06        -0.49539E-09         0.00000E+00
    0.10410E-06        -0.49006E-09         0.00000E+00
    0.10410E-06        -0.48346E-09         0.00000E+00
    0.10410E-06        -0.47559E-09         0.00000E+00
    0.10410E-06        -0.46646E-09         0.00000E+00
    0.10410E-06        -0.45608E-09         0.00000E+00
    0.10410E-06        -0.44444E-09         0.00000E+00
    0.10410E-06        -0.43154E-09         0.00000E+00
    0.10410E-06        -0.41736E-09         0.00000E+00
    0.10410E-06        -0.40190E-09         0.00000E+00
    0.10410E-06        -0.38513E-09         0.00000E+00
    0.10410E-06        -0.36702E-09         0.00000E+00
    0.10410E-06        -0.34756E-09         0.00000E+00
    0.10410E-06        -0.32672E-09         0.00000E+00
    0.10410E-06        -0.30446E-09         0.00000E+00
    0.10410E-06        -0.28076E-09         0.00000E+00
    0.10410E-06        -0.25559E-09         0.00000E+00
    0.10411E-06        -0.22893E-09         0.00000E+00
    0.10411E-06        -0.20077E-09         0.00000E+00
    0.10411E-06        -0.17109E-09         0.00000E+00
    0.10411E-06        -0.13988E-09         0.00000E+00
    0.10411E-06        -0.10714E-09         0.00000E+00
    0.10411E-06        -0.72889E-10         0.00000E+00
    0.10411E-06        -0.37144E-10         0.00000E+00
    0.10411E-06        -0.18902E-10         0.00000E+00
    0.10856E-06        -0.28548E-10         0.00000E+00
    0.10856E-06        -0.55502E-10         0.00000E+00
    0.10856E-06        -0.10732E-09         0.00000E+00
    0.10856E-06        -0.15504E-09         0.00000E+00
    0.10857E-06        -0.19875E-09         0.00000E+00
    0.10857E-06        -0.23858E-09         0.00000E+00
    0.10857E-06        -0.27465E-09         0.00000E+00
    0.10857E-06        -0.30714E-09         0.00000E+00
    0.10857E-06        -0.33623E-09         0.00000E+00
    0.10857E-06        -0.36213E-09         0.00000E+00
    0.10857E-06        -0.38504E-09         0.00000E+00
    0.10857E-06        -0.40517E-09         0.00000E+00
    0.10857E-06        -0.42272E-09         0.00000E+00
    0.10856E-06        -0.43787E-09         0.00000E+00
    0.10856E-06        -0.45081E-09         0.00000E+00
    0.10855E-06        -0.46170E-09         0.00000E+00
    0.10855E-06        -0.47067E-09         0.00000E+00
    0.10854E-06        -0.47787E-09         0.00000E+00
    0.10854E-06        -0.48343E-09         0.00000E+00
    0.10853E-06        -0.48744E-09         0.00000E+00
    0.10852E-06        -0.49000E-09         0.00000E+00
    0.10851E-06        -0.49120E-09         0.00000E+00
    0.10850E-06        -0.49111E-09         0.00000E+00
    0.10850E-06        -0.48979E-09         0.00000E+00
    0.10849E-06        -0.48730E-09         0.00000E+00
    0.10848E-06        -0.48368E-09         0.00000E+00
    0.10847E-06        -0.47897E-09         0.00000E+00
    0.10846E-06        -0.47319E-09         0.00000E+00
    0.10845E-06        -0.46637E-09         0.00000E+00
    0.10844E-06        -0.45851E-09         0.00000E+00
    0.10843E-06        -0.44962E-09         0.00000E+00
    0.10842E-06        -0.43969E-09         0.00000E+00
    0.10842E-06        -0.42871E-09         0.00000E+00
    0.10841E-06        -0.41667E-09         0.00000E+00
    0.10840E-06        -0.40354E-09         0.00000E+00
    0.10839E-06        -0.38927E-09         0.00000E+00
    0.10839E-06        -0.37384E-09         0.00000E+00
    0.10838E-06        -0.35719E-09         0.00000E+00
    0.10837E-06        -0.33927E-09         0.00000E+00
    0.10837E-06        -0.32001E-09         0.00000E+00
    0.10836E-06        -0.29934E-09         0.00000E+00
    0.10836E-06        -0.27719E-09         0.00000E+00
    0.10836E-06        -0.25349E-09         0.00000E+00
    0.10835E-06        -0.22814E-09         0.00000E+00
    0.10835E-06        -0.20109E-09         0.00000E+00
    0.10835E-06        -0.17226E-09         0.00000E+00
    0.10835E-06        -0.14159E-09         0.00000E+00
    0.10835E-06        -0.10906E-09         0.00000E+00
    0.10835E-06        -0.74630E-10         0.00000E+00
    0.10835E-06        -0.38286E-10         0.00000E+00
    0.10835E-06        -0.19630E-10         0.00000E+00
    0.11342E-06        -0.29891E-10         0.00000E+00
    0.11342E-06        -0.57886E-10         0.00000E+00
    0.11342E-06        -0.11099E-09         0.00000E+00
    0.11342E-06        -0.15833E-09         0.00000E+00
    0.11341E-06        -0.20002E-09         0.00000E+00
    0.11341E-06        -0.23647E-09         0.00000E+00
    0.11340E-06        -0.26814E-09         0.00000E+00
    0.11340E-06        -0.29552E-09         0.00000E+00
    0.11339E-06        -0.31908E-09         0.00000E+00
    0.11337E-06        -0.33926E-09         0.00000E+00
    0.11336E-06        -0.35644E-09         0.00000E+00
    0.11335E-06        -0.37096E-09         0.00000E+00
    0.11333E-06        -0.38312E-09         0.00000E+00
    0.11331E-06        -0.39318E-09         0.00000E+00
    0.11330E-06        -0.40137E-09         0.00000E+00
    0.11328E-06        -0.40789E-09         0.00000E+00
    0.11326E-06        -0.41290E-09         0.00000E+00
    0.11324E-06        -0.41656E-09         0.00000E+00
    0.11321E-06        -0.41898E-09         0.00000E+00
    0.11319E-06        -0.42028E-09         0.00000E+00
    0.11317E-06        -0.42055E-09         0.00000E+00
    0.11315E-06        -0.41987E-09         0.00000E+00
    0.11312E-06        -0.41830E-09         0.00000E+00
    0.11310E-06        -0.41591E-09         0.00000E+00
    0.11308E-06        -0.41273E-09         0.00000E+00
    0.11306E-06        -0.40880E-09         0.00000E+00
    0.11303E-06        -0.40416E-09         0.00000E+00
    0.11301E-06        -0.39882E-09         0.00000E+00
    0.11299E-06        -0.39279E-09         0.00000E+00
    0.11296E-06        -0.38608E-09         0.00000E+00
    0.11294E-06        -0.37869E-09         0.00000E+00
    0.11292E-06        -0.37061E-09         0.00000E+00
    0.11290E-06        -0.36182E-09         0.00000E+00
    0.11288E-06        -0.35230E-09         0.00000E+00
    0.11286E-06        -0.34201E-09         0.00000E+00
    0.11284E-06        -0.33091E-09         0.00000E+00
    0.11283E-06        -0.31896E-09         0.00000E+00
    0.11281E-06        -0.30608E-09         0.00000E+00
    0.11279E-06        -0.29220E-09         0.00000E+00
    0.11278E-06        -0.27724E-09         0.00000E+00
    0.11276E-06        -0.26108E-09         0.00000E+00
    0.11275E-06        -0.24361E-09         0.00000E+00
    0.11274E-06        -0.22468E-09         0.00000E+00
    0.11273E-06        -0.20414E-09         0.00000E+00
    0.11272E-06        -0.18179E-09         0.00000E+00
    0.11272E-06        -0.15745E-09         0.00000E+00
    0.11271E-06        -0.13090E-09         0.00000E+00
    0.11271E-06        -0.10195E-09         0.00000E+00
    0.11271E-06        -0.70444E-10         0.00000E+00
    0.11270E-06        -0.36365E-10         0.00000E+00
    0.11270E-06        -0.18689E-10         0.00000E+00
    0.11865E-06        -0.29514E-10         0.00000E+00
    0.11864E-06        -0.54200E-10         0.00000E+00
    0.11863E-06        -0.98371E-10         0.00000E+00
    0.11862E-06        -0.13339E-09         0.00000E+00
    0.11860E-06        -0.16140E-09         0.00000E+00
    0.11858E-06        -0.18397E-09         0.00000E+00
    0.11856E-06        -0.20222E-09         0.00000E+00
    0.11853E-06        -0.21702E-09         0.00000E+00
    0.11850E-06        -0.22901E-09         0.00000E+00
    0.11846E-06        -0.23870E-09         0.00000E+00
    0.11843E-06        -0.24648E-09         0.00000E+00
    0.11839E-06        -0.25265E-09         0.00000E+00
    0.11835E-06        -0.25748E-09         0.00000E+00
    0.11832E-06        -0.26114E-09         0.00000E+00
    0.11828E-06        -0.26382E-09         0.00000E+00
    0.11824E-06        -0.26564E-09         0.00000E+00
    0.11819E-06        -0.26672E-09         0.00000E+00
    0.11815E-06        -0.26714E-09         0.00000E+00
    0.11811E-06        -0.26698E-09         0.00000E+00
    0.11807E-06        -0.26630E-09         0.00000E+00
    0.11803E-06        -0.26515E-09         0.00000E+00
    0.11798E-06        -0.26359E-09         0.00000E+00
    0.11794E-06        -0.26164E-09         0.00000E+00
    0.11790E-06        -0.25933E-09         0.00000E+00
    0.11786E-06        -0.25669E-09         0.00000E+00
    0.11782E-06        -0.25373E-09         0.00000E+00
    0.11778E-06        -0.25047E-09         0.00000E+00
    0.11774E-06        -0.24692E-09         0.00000E+00
    0.11770E-06        -0.24307E-09         0.00000E+00
    0.11766E-06        -0.23894E-09         0.00000E+00
    0.11762E-06        -0.23452E-09         0.00000E+00
    0.11758E-06        -0.22980E-09         0.00000E+00
    0.11755E-06        -0.22478E-09         0.00000E+00
    0.11751E-06        -0.21942E-09         0.00000E+00
    0.11748E-06        -0.21372E-09         0.00000E+00
    0.11744E-06        -0.20765E-09         0.00000E+00
    0.11741E-06        -0.20116E-09         0.00000E+00
    0.11738E-06        -0.19422E-09         0.00000E+00
    0.11735E-06        -0.18678E-09         0.00000E+00
    0.11732E-06        -0.17877E-09         0.00000E+00
    0.11729E-06        -0.17010E-09         0.00000E+00
    0.11727E-06        -0.16069E-09         0.00000E+00
    0.11724E-06        -0.15039E-09         0.00000E+00
    0.11722E-06        -0.13904E-09         0.00000E+00
    0.11720E-06        -0.12644E-09         0.00000E+00
    0.11719E-06        -0.11232E-09         0.00000E+00
    0.11717E-06        -0.96293E-10         0.00000E+00
    0.11716E-06        -0.77875E-10         0.00000E+00
    0.11715E-06        -0.56373E-10         0.00000E+00
    0.11715E-06        -0.30813E-10         0.00000E+00
    0.11714E-06        -0.16875E-10         0.00000E+00
    0.12136E-06         0.00000E+00         0.00000E+00
    0.12136E-06         0.00000E+00         0.00000E+00
    0.12134E-06         0.00000E+00         0.00000E+00
    0.12132E-06         0.00000E+00         0.00000E+00
    0.12129E-06         0.00000E+00         0.00000E+00
    0.12125E-06         0.00000E+00         0.00000E+00
    0.12121E-06         0.00000E+00         0.00000E+00
    0.12117E-06         0.00000E+00         0.00000E+00
    0.12113E-06         0.00000E+00         0.00000E+00
    0.12108E-06        -0.37253E-20         0.00000E+00
    0.12103E-06         0.00000E+00         0.00000E+00
    0.12098E-06         0.37253E-20         0.00000E+00
    0.12093E-06         0.00000E+00         0.00000E+00
    0.12088E-06         0.00000E+00         0.00000E+00
    0.12083E-06         0.00000E+00         0.00000E+00
    0.12077E-06         0.00000E+00         0.00000E+00
    0.12072E-06         0.00000E+00         0.00000E+00
    0.12067E-06         0.37253E-20         0.00000E+00
    0.12061E-06         0.00000E+00         0.00000E+00
    0.12056E-06        -0.37253E-20         0.00000E+00
    0.12051E-06         0.00000E+00         0.00000E+00
    0.12045E-06         0.00000E+00         0.00000E+00
    0.12040E-06         0.00000E+00         0.00000E+00
    0.12035E-06         0.00000E+00         0.00000E+00
    0.12030E-06         0.00000E+00         0.00000E+00
    0.12025E-06         0.00000E+00         0.00000E+00
    0.12020E-06         0.00000E+00         0.00000E+00
    0.12015E-06         0.00000E+00         0.00000E+00
    0.12010E-06         0.00000E+00         0.00000E+00
    0.12005E-06         0.00000E+00         0.00000E+00
    0.12000E-06         0.00000E+00         0.00000E+00
    0.11995E-06         0.00000E+00         0.00000E+00
    0.11991E-06         0.00000E+00         0.00000E+00
    0.11986E-06         0.00000E+00         0.00000E+00
    0.11982E-06         0.00000E+00         0.00000E+00
    0.11978E-06         0.00000E+00         0.00000E+00
    0.11974E-06         0.00000E+00         0.00000E+00
    0.11970E-06         0.00000E+00         0.00000E+00
    0.11966E-06         0.00000E+00         0.00000E+00
    0.11962E-06        -0.46566E-20         0.00000E+00
    0.11959E-06        -0.37253E-20         0.00000E+00
    0.11956E-06         0.37253E-20         0.00000E+00
    0.11952E-06         0.37253E-20         0.00000E+00
    0.11950E-06         0.00000E+00         0.00000E+00
    0.11947E-06         0.00000E+00         0.00000E+00
    0.11944E-06         0.00000E+00         0.00000E+00
    0.11942E-06         0.00000E+00         0.00000E+00
    0.11941E-06         0.37253E-20         0.00000E+00
    0.11939E-06         0.93132E-21         0.00000E+00
    0.11938E-06         0.00000E+00         0.00000E+00
    0.11938E-06         0.74506E-20         0.00000E+00
CELL_DATA       5000
TENSORS stressef double 
    0.13729E+08        -0.99419E+05         0.00000E+00
   -0.99419E+05         0.19597E+08         0.00000E+00
    0.00000E+00         0.00000E+00         0.66652E+07
 
    0.13319E+08        -0.12766E+06         0.00000E+00
   -0.12766E+06         0.19563E+08         0.00000E+00
    0.00000E+00         0.00000E+00         0.65764E+07
 
    0.12968E+08        -0.14089E+06         0.00000E+00
   -0.14089E+06         0.19521E+08         0.00000E+00
    0.00000E+00         0.00000E+00         0.64977E+07
 
    0.12660E+08        -0.14612E+06         0.00000E+00
   -0.14612E+06         0.19473E+08         0.00000E+00
    0.00000E+00         0.00000E+00         0.64266E+07
 
    0.12385E+08        -0.14691E+06         0.00000E+00
   -0.14691E+06         0.19424E+08         0.00000E+00
    0.00000E+00         0.00000E+00         0.63617E+07
 
    0.12137E+08        -0.14514E+06         0.00000E+00
   -0.14514E+06         0.19373E+08         0.00000E+00
    0.00000E+00         0.00000E+00         0.63018E+07
 
    0.11909E+08        -0.14184E+06         0.00000E+00
   -0.14184E+06         0.19321E+08         0.00000E+00
    0.00000E+00         0.00000E+00         0.62461E+07
 
    0.11700E+08        -0.13760E+06         0.00000E+00
   -0.13760E+06         0.19270E+08         0.00000E+00
    0.00000E+00         0.00000E+00         0.61940E+07
 
    0.11505E+08        -0.13275E+06         0.00000E+00
   -0.13275E+06         0.19221E+08         0.00000E+00
    0.00000E+00         0.00000E+00         0.61450E+07
 
    0.11322E+08        -0.12750E+06         0.00000E+00
   -0.12750E+06         0.19172E+08         0.00000E+00
    0.00000E+00         0.00000E+00         0.60988E+07
 
    0.11149E+08        -0.12198E+06         0.00000E+00
   -0.12198E+06         0.19125E+08         0.00000E+00
    0.00000E+00         0.00000E+00         0.60550E+07
 
    0.10986E+08        -0.11628E+06         0.00000E+00
   -0.11628E+06         0.19080E+08         0.00000E+00
    0.00000E+00         0.00000E+00         0.60133E+07
 
    0.10830E+08        -0.11044E+06         0.00000E+00
   -0.11044E+06         0.19037E+08         0.00000E+00
    0.00000E+00         0.00000E+00         0.59736E+07
 
    0.10681E+08        -0.10450E+06         0.00000E+00
   -0.10450E+06         0.18996E+08         0.00000E+00
    0.00000E+00         0.00000E+00         0.59356E+07
 
    0.10538E+08        -0.98492E+05         0.00000E+00
   -0.98492E+05         0.18958E+08         0.00000E+00
    0.00000E+00         0.00000E+00         0.58992E+07
 
    0.10400E+08        -0.92418E+05         0.00000E+00
   -0.92418E+05         0.18921E+08         0.00000E+00
    0.00000E+00         0.00000E+00         0.58642E+07
 
    0.10266E+08        -0.86292E+05         0.00000E+00
   -0.86292E+05         0.18887E+08         0.00000E+00
    0.00000E+00         0.00000E+00         0.58305E+07
 
    0.10135E+08        -0.80119E+05         0.00000E+00
   -0.80119E+05         0.18855E+08         0.00000E+00
    0.00000E+00         0.00000E+00         0.57980E+07
 
    0.10008E+08        -0.73899E+05         0.00000E+00
   -0.73899E+05         0.18825E+08         0.00000E+00
    0.00000E+00         0.00000E+00         0.57666E+07
 
    0.98834E+07        -0.67631E+05         0.00000E+00
   -0.67631E+05         0.18798E+08         0.00000E+00
    0.00000E+00         0.00000E+00         0.57362E+07
 
    0.97608E+07        -0.61313E+05         0.00000E+00
   -0.61313E+05         0.18773E+08         0.00000E+00
    0.00000E+00         0.00000E+00         0.57068E+07
 
    0.96399E+07        -0.54937E+05         0.00000E+00
   -0.54937E+05         0.18751E+08         0.00000E+00
    0.00000E+00         0.00000E+00         0.56781E+07
 
    0.95202E+07        -0.48498E+05         0.00000E+00
   -0.48498E+05         0.18731E+08         0.00000E+00
    0.00000E+00         0.00000E+00         0.56502E+07
 
    0.94015E+07        -0.41985E+05         0.00000E+00
   -0.41985E+05         0.18713E+08         0.00000E+00
    0.00000E+00         0.00000E+00         0.56230E+07
 
    0.92834E+07        -0.35388E+05         0.00000E+00
   -0.35388E+05         0.18699E+08         0.00000E+00
    0.00000E+00         0.00000E+00         0.55964E+07
 
    0.91655E+07        -0.28693E+05         0.00000E+00
   -0.28693E+05         0.18687E+08         0.00000E+00
    0.00000E+00         0.00000E+00         0.55704E+07
 
    0.90475E+07        -0.21886E+05         0.00000E+00
   -0.21886E+05         0.18677E+08         0.00000E+00
    0.00000E+00         0.00000E+00         0.55449E+07
 
    0.89290E+07        -0.14948E+05         0.00000E+00
   -0.14948E+05         0.18670E+08         0.00000E+00
    0.00000E+00         0.00000E+00         0.55199E+07
 
    0.88098E+07        -0.78592E+04         0.00000E+00
   -0.78592E+04         0.18666E+08         0.00000E+00
    0.00000E+00         0.00000E+00         0.54952E+07
 
    0.86895E+07        -0.59608E+03         0.00000E+00
   -0.59608E+03         0.18665E+08         0.00000E+00
    0.00000E+00         0.00000E+00         0.54709E+07
 
    0.85677E+07         0.68692E+04         0.00000E+00
    0.68692E+04         0.18667E+08         0.00000E+00
    0.00000E+00         0.00000E+00         0.54469E+07
 
    0.84441E+07         0.14569E+05         0.00000E+00
    0.14569E+05         0.18672E+08         0.00000E+00
    0.00000E+00         0.00000E+00         0.54231E+07
 
    0.83184E+07         0.22541E+05         0.00000E+00
    0.22541E+05         0.18679E+08         0.00000E+00
    0.00000E+00         0.00000E+00         0.53995E+07
 
    0.81900E+07         0.30830E+05         0.00000E+00
    0.30830E+05         0.18690E+08         0.00000E+00
    0.00000E+00         0.00000E+00         0.53761E+07
 
    0.80587E+07         0.39491E+05         0.00000E+00
    0.39491E+05         0.18705E+08         0.00000E+00
    0.00000E+00         0.00000E+00         0.53527E+07
 
    0.79239E+07         0.48588E+05         0.00000E+00
    0.48588E+05         0.18723E+08         0.00000E+00
    0.00000E+00         0.00000E+00         0.53293E+07
 
    0.77850E+07         0.58200E+05         0.00000E+00
    0.58200E+05         0.18744E+08         0.00000E+00
    0.00000E+00         0.00000E+00         0.53059E+07
 
    0.76416E+07         0.68425E+05         0.00000E+00
    0.68425E+05         0.18770E+08         0.00000E+00
    0.00000E+00         0.00000E+00         0.52823E+07
 
    0.74929E+07         0.79385E+05         0.00000E+00
    0.79385E+05         0.18800E+08         0.00000E+00
    0.00000E+00         0.00000E+00         0.52585E+07
 
    0.73382E+07         0.91234E+05         0.00000E+00
    0.91234E+05         0.18834E+08         0.00000E+00
    0.00000E+00         0.00000E+00         0.52344E+07
 
    0.71765E+07         0.10417E+06         0.00000E+00
    0.10417E+06         0.18873E+08         0.00000E+00
    0.00000E+00         0.00000E+00         0.52099E+07
 
    0.70068E+07         0.11846E+06         0.00000E+00
    0.11846E+06         0.18917E+08         0.00000E+00
    0.00000E+00         0.00000E+00         0.51849E+07
 
    0.68278E+07         0.13445E+06         0.00000E+00
    0.13445E+06         0.18968E+08         0.00000E+00
    0.00000E+00         0.00000E+00         0.51591E+07
 
    0.66379E+07         0.15262E+06         0.00000E+00
    0.15262E+06         0.19025E+08         0.00000E+00
    0.00000E+00         0.00000E+00         0.51325E+07
 
    0.64350E+07         0.17365E+06         0.00000E+00
    0.17365E+06         0.19089E+08         0.00000E+00
    0.00000E+00         0.00000E+00         0.51048E+07
 
    0.62166E+07         0.19853E+06         0.00000E+00
    0.19853E+06         0.19162E+08         0.00000E+00
    0.00000E+00         0.00000E+00         0.50757E+07
 
    0.59791E+07         0.22876E+06         0.00000E+00
    0.22876E+06         0.19245E+08         0.00000E+00
    0.00000E+00         0.00000E+00         0.50448E+07
 
    0.57176E+07         0.26669E+06         0.00000E+00
    0.26669E+06         0.19340E+08         0.00000E+00
    0.00000E+00         0.00000E+00         0.50115E+07
 
    0.54251E+07         0.31625E+06         0.00000E+00
    0.31625E+06         0.19450E+08         0.00000E+00
    0.00000E+00         0.00000E+00         0.49750E+07
 
    0.50909E+07         0.38436E+06         0.00000E+00
    0.38436E+06         0.19578E+08         0.00000E+00
    0.00000E+00         0.00000E+00         0.49337E+07
 
    0.12446E+08        -0.66462E+05         0.00000E+00
   -0.66462E+05         0.18753E+08         0.00000E+00
    0.00000E+00         0.00000E+00         0.62397E+07
 
    0.12207E+08        -0.15726E+06         0.00000E+00
   -0.15726E+06         0.18766E+08         0.00000E+00
    0.00000E+00         0.00000E+00         0.61947E+07
 
    0.11963E+08        -0.22045E+06         0.00000E+00
   -0.22045E+06         0.18771E+08         0.00000E+00
    0.00000E+00         0.00000E+00         0.61469E+07
 
    0.11725E+08        -0.26332E+06         0.00000E+00
   -0.26332E+06         0.18769E+08         0.00000E+00
    0.00000E+00         0.00000E+00         0.60987E+07
 
    0.11497E+08        -0.29131E+06         0.00000E+00
   -0.29131E+06         0.18760E+08         0.00000E+00
    0.00000E+00         0.00000E+00         0.60514E+07
 
    0.11281E+08        -0.30839E+06         0.00000E+00
   -0.30839E+06         0.18746E+08         0.00000E+00
    0.00000E+00         0.00000E+00         0.60054E+07
 
    0.11077E+08        -0.31740E+06         0.00000E+00
   -0.31740E+06         0.18728E+08         0.00000E+00
    0.00000E+00         0.00000E+00         0.59609E+07
 
    0.10884E+08        -0.32038E+06         0.00000E+00
   -0.32038E+06         0.18707E+08         0.00000E+00
    0.00000E+00         0.00000E+00         0.59181E+07
 
    0.10701E+08        -0.31885E+06         0.00000E+00
   -0.31885E+06         0.18683E+08         0.00000E+00
    0.00000E+00         0.00000E+00         0.58768E+07
 
    0.10527E+08        -0.31387E+06         0.00000E+00
   -0.31387E+06         0.18659E+08         0.00000E+00
    0.00000E+00         0.00000E+00         0.58372E+07
 
    0.10362E+08        -0.30626E+06         0.00000E+00
   -0.30626E+06         0.18633E+08         0.00000E+00
    0.00000E+00         0.00000E+00         0.57990E+07
 
    0.10204E+08        -0.29660E+06         0.00000E+00
   -0.29660E+06         0.18607E+08         0.00000E+00
    0.00000E+00         0.00000E+00         0.57622E+07
 
    0.10052E+08        -0.28533E+06         0.00000E+00
   -0.28533E+06         0.18581E+08         0.00000E+00
    0.00000E+00         0.00000E+00         0.57267E+07
 
    0.99070E+07        -0.27280E+06         0.00000E+00
   -0.27280E+06         0.18556E+08         0.00000E+00
    0.00000E+00         0.00000E+00         0.56925E+07
 
    0.97666E+07        -0.25924E+06         0.00000E+00
   -0.25924E+06         0.18531E+08         0.00000E+00
    0.00000E+00         0.00000E+00         0.56595E+07
 
    0.96307E+07        -0.24484E+06         0.00000E+00
   -0.24484E+06         0.18507E+08         0.00000E+00
    0.00000E+00         0.00000E+00         0.56275E+07
 
    0.94987E+07        -0.22975E+06         0.00000E+00
   -0.22975E+06         0.18484E+08         0.00000E+00
    0.00000E+00         0.00000E+00         0.55966E+07
 
    0.93701E+07        -0.21407E+06         0.00000E+00
   -0.21407E+06         0.18463E+08         0.00000E+00
    0.00000E+00         0.00000E+00         0.55666E+07
 
    0.92445E+07        -0.19787E+06         0.00000E+00
   -0.19787E+06         0.18443E+08         0.00000E+00
    0.00000E+00         0.00000E+00         0.55374E+07
 
    0.91212E+07        -0.18123E+06         0.00000E+00
   -0.18123E+06         0.18424E+08         0.00000E+00
    0.00000E+00         0.00000E+00         0.55091E+07
 
    0.90001E+07        -0.16416E+06         0.00000E+00
   -0.16416E+06         0.18408E+08         0.00000E+00
    0.00000E+00         0.00000E+00         0.54815E+07
 
    0.88806E+07        -0.14670E+06         0.00000E+00
   -0.14670E+06         0.18393E+08         0.00000E+00
    0.00000E+00         0.00000E+00         0.54547E+07
 
    0.87624E+07        -0.12885E+06         0.00000E+00
   -0.12885E+06         0.18380E+08         0.00000E+00
    0.00000E+00         0.00000E+00         0.54285E+07
 
    0.86452E+07        -0.11062E+06         0.00000E+00
   -0.11062E+06         0.18369E+08         0.00000E+00
    0.00000E+00         0.00000E+00         0.54028E+07
 
    0.85286E+07        -0.91991E+05         0.00000E+00
   -0.91991E+05         0.18360E+08         0.00000E+00
    0.00000E+00         0.00000E+00         0.53778E+07
 
    0.84123E+07        -0.72944E+05         0.00000E+00
   -0.72944E+05         0.18354E+08         0.00000E+00
    0.00000E+00         0.00000E+00         0.53532E+07
 
    0.82961E+07        -0.53451E+05         0.00000E+00
   -0.53451E+05         0.18349E+08         0.00000E+00
    0.00000E+00         0.00000E+00         0.53291E+07
 
    0.81796E+07        -0.33473E+05         0.00000E+00
   -0.33473E+05         0.18348E+08         0.00000E+00
    0.00000E+00         0.00000E+00         0.53054E+07
 
    0.80625E+07        -0.12961E+05         0.00000E+00
   -0.12961E+05         0.18348E+08         0.00000E+00
    0.00000E+00         0.00000E+00         0.52821E+07
 
    0.79445E+07         0.81458E+04         0.00000E+00
    0.81458E+04         0.18351E+08         0.00000E+00
    0.00000E+00         0.00000E+00         0.52591E+07
 
    0.78253E+07         0.29918E+05         0.00000E+00
    0.29918E+05         0.18357E+08         0.00000E+00
    0.00000E+00         0.00000E+00         0.52364E+07
 
    0.77047E+07         0.52442E+05         0.00000E+00
    0.52442E+05         0.18365E+08         0.00000E+00
    0.00000E+00         0.00000E+00         0.52140E+07
 
    0.75823E+07         0.75821E+05         0.00000E+00
    0.75821E+05         0.18377E+08         0.00000E+00
    0.00000E+00         0.00000E+00         0.51918E+07
 
    0.74577E+07         0.10018E+06         0.00000E+00
    0.10018E+06         0.18391E+08         0.00000E+00
    0.00000E+00         0.00000E+00         0.51698E+07
 
    0.73307E+07         0.12565E+06         0.00000E+00
    0.12565E+06         0.18409E+08         0.00000E+00
    0.00000E+00         0.00000E+00         0.51479E+07
 
    0.72009E+07         0.15242E+06         0.00000E+00
    0.15242E+06         0.18429E+08         0.00000E+00
    0.00000E+00         0.00000E+00         0.51261E+07
 
    0.70679E+07         0.18070E+06         0.00000E+00
    0.18070E+06         0.18454E+08         0.00000E+00
    0.00000E+00         0.00000E+00         0.51043E+07
 
    0.69314E+07         0.21074E+06         0.00000E+00
    0.21074E+06         0.18481E+08         0.00000E+00
    0.00000E+00         0.00000E+00         0.50826E+07
 
    0.67908E+07         0.24285E+06         0.00000E+00
    0.24285E+06         0.18513E+08         0.00000E+00
    0.00000E+00         0.00000E+00         0.50608E+07
 
    0.66458E+07         0.27740E+06         0.00000E+00
    0.27740E+06         0.18549E+08         0.00000E+00
    0.00000E+00         0.00000E+00         0.50390E+07
 
    0.64959E+07         0.31489E+06         0.00000E+00
    0.31489E+06         0.18589E+08         0.00000E+00
    0.00000E+00         0.00000E+00         0.50170E+07
 
    0.63405E+07         0.35589E+06         0.00000E+00
    0.35589E+06         0.18634E+08         0.00000E+00
    0.00000E+00         0.00000E+00         0.49949E+07
 
    0.61793E+07         0.40116E+06         0.00000E+00
    0.40116E+06         0.18684E+08         0.00000E+00
    0.00000E+00         0.00000E+00         0.49726E+07
 
    0.60117E+07         0.45166E+06         0.00000E+00
    0.45166E+06         0.18739E+08         0.00000E+00
    0.00000E+00         0.00000E+00         0.49501E+07
 
    0.58374E+07         0.50864E+06         0.00000E+00
    0.50864E+06         0.18800E+08         0.00000E+00
    0.00000E+00         0.00000E+00         0.49274E+07
 
    0.56565E+07         0.57373E+06         0.00000E+00
    0.57373E+06         0.18867E+08         0.00000E+00
    0.00000E+00         0.00000E+00         0.49046E+07
 
    0.54692E+07         0.64905E+06         0.00000E+00
    0.64905E+06         0.18940E+08         0.00000E+00
    0.00000E+00         0.00000E+00         0.48818E+07
 
    0.52773E+07         0.73744E+06         0.00000E+00
    0.73744E+06         0.19020E+08         0.00000E+00
    0.00000E+00         0.00000E+00         0.48594E+07
 
    0.50847E+07         0.84260E+06         0.00000E+00
    0.84260E+06         0.19106E+08         0.00000E+00
    0.00000E+00         0.00000E+00         0.48382E+07
 
    0.49003E+07         0.96923E+06         0.00000E+00
    0.96923E+06         0.19199E+08         0.00000E+00
    0.00000E+00         0.00000E+00         0.48198E+07
 
    0.11202E+08        -0.53666E+05         0.00000E+00
   -0.53666E+05         0.17965E+08         0.00000E+00
    0.00000E+00         0.00000E+00         0.58333E+07
 
    0.11042E+08        -0.13146E+06         0.00000E+00
   -0.13146E+06         0.17967E+08         0.00000E+00
    0.00000E+00         0.00000E+00         0.58018E+07
 
    0.10880E+08        -0.19882E+06         0.00000E+00
   -0.19882E+06         0.17972E+08         0.00000E+00
    0.00000E+00         0.00000E+00         0.57705E+07
 
    0.10714E+08        -0.25426E+06         0.00000E+00
   -0.25426E+06         0.17979E+08         0.00000E+00
    0.00000E+00         0.00000E+00         0.57387E+07
 
    0.10547E+08        -0.29804E+06         0.00000E+00
   -0.29804E+06         0.17985E+08         0.00000E+00
    0.00000E+00         0.00000E+00         0.57065E+07
 
    0.10381E+08        -0.33122E+06         0.00000E+00
   -0.33122E+06         0.17990E+08         0.00000E+00
    0.00000E+00         0.00000E+00         0.56742E+07
 
    0.10218E+08        -0.35507E+06         0.00000E+00
   -0.35507E+06         0.17993E+08         0.00000E+00
    0.00000E+00         0.00000E+00         0.56421E+07
 
    0.10057E+08        -0.37092E+06         0.00000E+00
   -0.37092E+06         0.17993E+08         0.00000E+00
    0.00000E+00         0.00000E+00         0.56101E+07
 
    0.99012E+07        -0.37995E+06         0.00000E+00
   -0.37995E+06         0.17992E+08         0.00000E+00
    0.00000E+00         0.00000E+00         0.55786E+07
 
    0.97493E+07        -0.38324E+06         0.00000E+00
   -0.38324E+06         0.17989E+08         0.00000E+00
    0.00000E+00         0.00000E+00         0.55476E+07
 
    0.96017E+07        -0.38167E+06         0.00000E+00
   -0.38167E+06         0.17984E+08         0.00000E+00
    0.00000E+00         0.00000E+00         0.55172E+07
 
    0.94583E+07        -0.37603E+06         0.00000E+00
   -0.37603E+06         0.17979E+08         0.00000E+00
    0.00000E+00         0.00000E+00         0.54874E+07
 
    0.93190E+07        -0.36694E+06         0.00000E+00
   -0.36694E+06         0.17972E+08         0.00000E+00
    0.00000E+00         0.00000E+00         0.54582E+07
 
    0.91836E+07        -0.35493E+06         0.00000E+00
   -0.35493E+06         0.17965E+08         0.00000E+00
    0.00000E+00         0.00000E+00         0.54297E+07
 
    0.90516E+07        -0.34043E+06         0.00000E+00
   -0.34043E+06         0.17958E+08         0.00000E+00
    0.00000E+00         0.00000E+00         0.54019E+07
 
    0.89229E+07        -0.32380E+06         0.00000E+00
   -0.32380E+06         0.17950E+08         0.00000E+00
    0.00000E+00         0.00000E+00         0.53746E+07
 
    0.87971E+07        -0.30533E+06         0.00000E+00
   -0.30533E+06         0.17943E+08         0.00000E+00
    0.00000E+00         0.00000E+00         0.53480E+07
 
    0.86740E+07        -0.28526E+06         0.00000E+00
   -0.28526E+06         0.17936E+08         0.00000E+00
    0.00000E+00         0.00000E+00         0.53220E+07
 
    0.85531E+07        -0.26376E+06         0.00000E+00
   -0.26376E+06         0.17930E+08         0.00000E+00
    0.00000E+00         0.00000E+00         0.52965E+07
 
    0.84343E+07        -0.24099E+06         0.00000E+00
   -0.24099E+06         0.17924E+08         0.00000E+00
    0.00000E+00         0.00000E+00         0.52716E+07
 
    0.83171E+07        -0.21706E+06         0.00000E+00
   -0.21706E+06         0.17919E+08         0.00000E+00
    0.00000E+00         0.00000E+00         0.52473E+07
 
    0.82014E+07        -0.19207E+06         0.00000E+00
   -0.19207E+06         0.17916E+08         0.00000E+00
    0.00000E+00         0.00000E+00         0.52234E+07
 
    0.80869E+07        -0.16607E+06         0.00000E+00
   -0.16607E+06         0.17913E+08         0.00000E+00
    0.00000E+00         0.00000E+00         0.52001E+07
 
    0.79732E+07        -0.13909E+06         0.00000E+00
   -0.13909E+06         0.17912E+08         0.00000E+00
    0.00000E+00         0.00000E+00         0.51771E+07
 
    0.78602E+07        -0.11117E+06         0.00000E+00
   -0.11117E+06         0.17913E+08         0.00000E+00
    0.00000E+00         0.00000E+00         0.51546E+07
 
    0.77477E+07        -0.82300E+05         0.00000E+00
   -0.82300E+05         0.17915E+08         0.00000E+00
    0.00000E+00         0.00000E+00         0.51326E+07
 
    0.76352E+07        -0.52464E+05         0.00000E+00
   -0.52464E+05         0.17919E+08         0.00000E+00
    0.00000E+00         0.00000E+00         0.51108E+07
 
    0.75227E+07        -0.21628E+05         0.00000E+00
   -0.21628E+05         0.17925E+08         0.00000E+00
    0.00000E+00         0.00000E+00         0.50895E+07
 
    0.74100E+07         0.10258E+05         0.00000E+00
    0.10258E+05         0.17932E+08         0.00000E+00
    0.00000E+00         0.00000E+00         0.50685E+07
 
    0.72967E+07         0.43265E+05         0.00000E+00
    0.43265E+05         0.17942E+08         0.00000E+00
    0.00000E+00         0.00000E+00         0.50477E+07
 
    0.71827E+07         0.77478E+05         0.00000E+00
    0.77478E+05         0.17954E+08         0.00000E+00
    0.00000E+00         0.00000E+00         0.50273E+07
 
    0.70677E+07         0.11301E+06         0.00000E+00
    0.11301E+06         0.17968E+08         0.00000E+00
    0.00000E+00         0.00000E+00         0.50072E+07
 
    0.69516E+07         0.14998E+06         0.00000E+00
    0.14998E+06         0.17985E+08         0.00000E+00
    0.00000E+00         0.00000E+00         0.49872E+07
 
    0.68342E+07         0.18856E+06         0.00000E+00
    0.18856E+06         0.18004E+08         0.00000E+00
    0.00000E+00         0.00000E+00         0.49676E+07
 
    0.67152E+07         0.22892E+06         0.00000E+00
    0.22892E+06         0.18025E+08         0.00000E+00
    0.00000E+00         0.00000E+00         0.49481E+07
 
    0.65945E+07         0.27129E+06         0.00000E+00
    0.27129E+06         0.18050E+08         0.00000E+00
    0.00000E+00         0.00000E+00         0.49288E+07
 
    0.64720E+07         0.31591E+06         0.00000E+00
    0.31591E+06         0.18077E+08         0.00000E+00
    0.00000E+00         0.00000E+00         0.49097E+07
 
    0.63473E+07         0.36309E+06         0.00000E+00
    0.36309E+06         0.18107E+08         0.00000E+00
    0.00000E+00         0.00000E+00         0.48908E+07
 
    0.62206E+07         0.41316E+06         0.00000E+00
    0.41316E+06         0.18140E+08         0.00000E+00
    0.00000E+00         0.00000E+00         0.48721E+07
 
    0.60916E+07         0.46655E+06         0.00000E+00
    0.46655E+06         0.18176E+08         0.00000E+00
    0.00000E+00         0.00000E+00         0.48535E+07
 
    0.59603E+07         0.52371E+06         0.00000E+00
    0.52371E+06         0.18215E+08         0.00000E+00
    0.00000E+00         0.00000E+00         0.48352E+07
 
    0.58269E+07         0.58519E+06         0.00000E+00
    0.58519E+06         0.18258E+08         0.00000E+00
    0.00000E+00         0.00000E+00         0.48170E+07
 
    0.56914E+07         0.65161E+06         0.00000E+00
    0.65161E+06         0.18304E+08         0.00000E+00
    0.00000E+00         0.00000E+00         0.47991E+07
 
    0.55543E+07         0.72366E+06         0.00000E+00
    0.72366E+06         0.18353E+08         0.00000E+00
    0.00000E+00         0.00000E+00         0.47815E+07
 
    0.54161E+07         0.80211E+06         0.00000E+00
    0.80211E+06         0.18405E+08         0.00000E+00
    0.00000E+00         0.00000E+00         0.47643E+07
 
    0.52775E+07         0.88774E+06         0.00000E+00
    0.88774E+06         0.18460E+08         0.00000E+00
    0.00000E+00         0.00000E+00         0.47476E+07
 
    0.51399E+07         0.98125E+06         0.00000E+00
    0.98125E+06         0.18517E+08         0.00000E+00
    0.00000E+00         0.00000E+00         0.47314E+07
 
    0.50044E+07         0.10831E+07         0.00000E+00
    0.10831E+07         0.18576E+08         0.00000E+00
    0.00000E+00         0.00000E+00         0.47160E+07
 
    0.48723E+07         0.11931E+07         0.00000E+00
    0.11931E+07         0.18634E+08         0.00000E+00
    0.00000E+00         0.00000E+00         0.47012E+07
 
    0.47431E+07         0.13099E+07         0.00000E+00
    0.13099E+07         0.18689E+08         0.00000E+00
    0.00000E+00         0.00000E+00         0.46865E+07
 
    0.10054E+08        -0.43796E+05         0.00000E+00
   -0.43796E+05         0.17207E+08         0.00000E+00
    0.00000E+00         0.00000E+00         0.54522E+07
 
    0.99456E+07        -0.11152E+06         0.00000E+00
   -0.11152E+06         0.17211E+08         0.00000E+00
    0.00000E+00         0.00000E+00         0.54314E+07
 
    0.98322E+07        -0.17039E+06         0.00000E+00
   -0.17039E+06         0.17217E+08         0.00000E+00
    0.00000E+00         0.00000E+00         0.54097E+07
 
    0.97148E+07        -0.22111E+06         0.00000E+00
   -0.22111E+06         0.17224E+08         0.00000E+00
    0.00000E+00         0.00000E+00         0.53877E+07
 
    0.95944E+07        -0.26391E+06         0.00000E+00
   -0.26391E+06         0.17232E+08         0.00000E+00
    0.00000E+00         0.00000E+00         0.53653E+07
 
    0.94717E+07        -0.29903E+06         0.00000E+00
   -0.29903E+06         0.17241E+08         0.00000E+00
    0.00000E+00         0.00000E+00         0.53425E+07
 
    0.93474E+07        -0.32680E+06         0.00000E+00
   -0.32680E+06         0.17250E+08         0.00000E+00
    0.00000E+00         0.00000E+00         0.53196E+07
 
    0.92225E+07        -0.34767E+06         0.00000E+00
   -0.34767E+06         0.17260E+08         0.00000E+00
    0.00000E+00         0.00000E+00         0.52964E+07
 
    0.90975E+07        -0.36216E+06         0.00000E+00
   -0.36216E+06         0.17269E+08         0.00000E+00
    0.00000E+00         0.00000E+00         0.52732E+07
 
    0.89730E+07        -0.37081E+06         0.00000E+00
   -0.37081E+06         0.17277E+08         0.00000E+00
    0.00000E+00         0.00000E+00         0.52500E+07
 
    0.88495E+07        -0.37417E+06         0.00000E+00
   -0.37417E+06         0.17285E+08         0.00000E+00
    0.00000E+00         0.00000E+00         0.52269E+07
 
    0.87272E+07        -0.37277E+06         0.00000E+00
   -0.37277E+06         0.17292E+08         0.00000E+00
    0.00000E+00         0.00000E+00         0.52039E+07
 
    0.86063E+07        -0.36710E+06         0.00000E+00
   -0.36710E+06         0.17299E+08         0.00000E+00
    0.00000E+00         0.00000E+00         0.51811E+07
 
    0.84869E+07        -0.35760E+06         0.00000E+00
   -0.35760E+06         0.17306E+08         0.00000E+00
    0.00000E+00         0.00000E+00         0.51585E+07
 
    0.83692E+07        -0.34467E+06         0.00000E+00
   -0.34467E+06         0.17312E+08         0.00000E+00
    0.00000E+00         0.00000E+00         0.51362E+07
 
    0.82530E+07        -0.32866E+06         0.00000E+00
   -0.32866E+06         0.17318E+08         0.00000E+00
    0.00000E+00         0.00000E+00         0.51141E+07
 
    0.81383E+07        -0.30988E+06         0.00000E+00
   -0.30988E+06         0.17323E+08         0.00000E+00
    0.00000E+00         0.00000E+00         0.50924E+07
 
    0.80251E+07        -0.28860E+06         0.00000E+00
   -0.28860E+06         0.17329E+08         0.00000E+00
    0.00000E+00         0.00000E+00         0.50709E+07
 
    0.79133E+07        -0.26504E+06         0.00000E+00
   -0.26504E+06         0.17335E+08         0.00000E+00
    0.00000E+00         0.00000E+00         0.50497E+07
 
    0.78026E+07        -0.23939E+06         0.00000E+00
   -0.23939E+06         0.17342E+08         0.00000E+00
    0.00000E+00         0.00000E+00         0.50289E+07
 
    0.76931E+07        -0.21181E+06         0.00000E+00
   -0.21181E+06         0.17348E+08         0.00000E+00
    0.00000E+00         0.00000E+00         0.50083E+07
 
    0.75845E+07        -0.18243E+06         0.00000E+00
   -0.18243E+06         0.17356E+08         0.00000E+00
    0.00000E+00         0.00000E+00         0.49881E+07
 
    0.74768E+07        -0.15135E+06         0.00000E+00
   -0.15135E+06         0.17364E+08         0.00000E+00
    0.00000E+00         0.00000E+00         0.49681E+07
 
    0.73697E+07        -0.11863E+06         0.00000E+00
   -0.11863E+06         0.17373E+08         0.00000E+00
    0.00000E+00         0.00000E+00         0.49485E+07
 
    0.72631E+07        -0.84345E+05         0.00000E+00
   -0.84345E+05         0.17383E+08         0.00000E+00
    0.00000E+00         0.00000E+00         0.49292E+07
 
    0.71569E+07        -0.48507E+05         0.00000E+00
   -0.48507E+05         0.17394E+08         0.00000E+00
    0.00000E+00         0.00000E+00         0.49101E+07
 
    0.70509E+07        -0.11128E+05         0.00000E+00
   -0.11128E+05         0.17406E+08         0.00000E+00
    0.00000E+00         0.00000E+00         0.48914E+07
 
    0.69451E+07         0.27803E+05         0.00000E+00
    0.27803E+05         0.17420E+08         0.00000E+00
    0.00000E+00         0.00000E+00         0.48729E+07
 
    0.68392E+07         0.68321E+05         0.00000E+00
    0.68321E+05         0.17434E+08         0.00000E+00
    0.00000E+00         0.00000E+00         0.48547E+07
 
    0.67331E+07         0.11048E+06         0.00000E+00
    0.11048E+06         0.17451E+08         0.00000E+00
    0.00000E+00         0.00000E+00         0.48368E+07
 
    0.66268E+07         0.15434E+06         0.00000E+00
    0.15434E+06         0.17469E+08         0.00000E+00
    0.00000E+00         0.00000E+00         0.48191E+07
 
    0.65201E+07         0.20001E+06         0.00000E+00
    0.20001E+06         0.17488E+08         0.00000E+00
    0.00000E+00         0.00000E+00         0.48017E+07
 
    0.64129E+07         0.24759E+06         0.00000E+00
    0.24759E+06         0.17509E+08         0.00000E+00
    0.00000E+00         0.00000E+00         0.47845E+07
 
    0.63052E+07         0.29722E+06         0.00000E+00
    0.29722E+06         0.17533E+08         0.00000E+00
    0.00000E+00         0.00000E+00         0.47676E+07
 
    0.61969E+07         0.34906E+06         0.00000E+00
    0.34906E+06         0.17558E+08         0.00000E+00
    0.00000E+00         0.00000E+00         0.47509E+07
 
    0.60879E+07         0.40328E+06         0.00000E+00
    0.40328E+06         0.17584E+08         0.00000E+00
    0.00000E+00         0.00000E+00         0.47345E+07
 
    0.59783E+07         0.46010E+06         0.00000E+00
    0.46010E+06         0.17613E+08         0.00000E+00
    0.00000E+00         0.00000E+00         0.47183E+07
 
    0.58681E+07         0.51974E+06         0.00000E+00
    0.51974E+06         0.17644E+08         0.00000E+00
    0.00000E+00         0.00000E+00         0.47024E+07
 
    0.57573E+07         0.58245E+06         0.00000E+00
    0.58245E+06         0.17677E+08         0.00000E+00
    0.00000E+00         0.00000E+00         0.46868E+07
 
    0.56461E+07         0.64851E+06         0.00000E+00
    0.64851E+06         0.17711E+08         0.00000E+00
    0.00000E+00         0.00000E+00         0.46715E+07
 
    0.55346E+07         0.71821E+06         0.00000E+00
    0.71821E+06         0.17748E+08         0.00000E+00
    0.00000E+00         0.00000E+00         0.46565E+07
 
    0.54231E+07         0.79184E+06         0.00000E+00
    0.79184E+06         0.17786E+08         0.00000E+00
    0.00000E+00         0.00000E+00         0.46419E+07
 
    0.53120E+07         0.86972E+06         0.00000E+00
    0.86972E+06         0.17826E+08         0.00000E+00
    0.00000E+00         0.00000E+00         0.46276E+07
 
    0.52015E+07         0.95213E+06         0.00000E+00
    0.95213E+06         0.17867E+08         0.00000E+00
    0.00000E+00         0.00000E+00         0.46138E+07
 
    0.50922E+07         0.10393E+07         0.00000E+00
    0.10393E+07         0.17910E+08         0.00000E+00
    0.00000E+00         0.00000E+00         0.46004E+07
 
    0.49847E+07         0.11315E+07         0.00000E+00
    0.11315E+07         0.17953E+08         0.00000E+00
    0.00000E+00         0.00000E+00         0.45875E+07
 
    0.48794E+07         0.12287E+07         0.00000E+00
    0.12287E+07         0.17996E+08         0.00000E+00
    0.00000E+00         0.00000E+00         0.45752E+07
 
    0.47768E+07         0.13311E+07         0.00000E+00
    0.13311E+07         0.18040E+08         0.00000E+00
    0.00000E+00         0.00000E+00         0.45633E+07
 
    0.46776E+07         0.14387E+07         0.00000E+00
    0.14387E+07         0.18083E+08         0.00000E+00
    0.00000E+00         0.00000E+00         0.45521E+07
 
    0.45828E+07         0.15521E+07         0.00000E+00
    0.15521E+07         0.18125E+08         0.00000E+00
    0.00000E+00         0.00000E+00         0.45416E+07
 
    0.90019E+07        -0.34961E+05         0.00000E+00
   -0.34961E+05         0.16481E+08         0.00000E+00
    0.00000E+00         0.00000E+00         0.50967E+07
 
    0.89306E+07        -0.90195E+05         0.00000E+00
   -0.90195E+05         0.16485E+08         0.00000E+00
    0.00000E+00         0.00000E+00         0.50830E+07
 
    0.88537E+07        -0.13923E+06         0.00000E+00
   -0.13923E+06         0.16490E+08         0.00000E+00
    0.00000E+00         0.00000E+00         0.50688E+07
 
    0.87719E+07        -0.18198E+06         0.00000E+00
   -0.18198E+06         0.16498E+08         0.00000E+00
    0.00000E+00         0.00000E+00         0.50540E+07
 
    0.86859E+07        -0.21859E+06         0.00000E+00
   -0.21859E+06         0.16507E+08         0.00000E+00
    0.00000E+00         0.00000E+00         0.50386E+07
 
    0.85964E+07        -0.24924E+06         0.00000E+00
   -0.24924E+06         0.16518E+08         0.00000E+00
    0.00000E+00         0.00000E+00         0.50229E+07
 
    0.85039E+07        -0.27411E+06         0.00000E+00
   -0.27411E+06         0.16530E+08         0.00000E+00
    0.00000E+00         0.00000E+00         0.50068E+07
 
    0.84090E+07        -0.29342E+06         0.00000E+00
   -0.29342E+06         0.16543E+08         0.00000E+00
    0.00000E+00         0.00000E+00         0.49903E+07
 
    0.83122E+07        -0.30740E+06         0.00000E+00
   -0.30740E+06         0.16556E+08         0.00000E+00
    0.00000E+00         0.00000E+00         0.49736E+07
 
    0.82140E+07        -0.31631E+06         0.00000E+00
   -0.31631E+06         0.16570E+08         0.00000E+00
    0.00000E+00         0.00000E+00         0.49567E+07
 
    0.81146E+07        -0.32043E+06         0.00000E+00
   -0.32043E+06         0.16584E+08         0.00000E+00
    0.00000E+00         0.00000E+00         0.49397E+07
 
    0.80146E+07        -0.32004E+06         0.00000E+00
   -0.32004E+06         0.16598E+08         0.00000E+00
    0.00000E+00         0.00000E+00         0.49225E+07
 
    0.79141E+07        -0.31542E+06         0.00000E+00
   -0.31542E+06         0.16612E+08         0.00000E+00
    0.00000E+00         0.00000E+00         0.49053E+07
 
    0.78134E+07        -0.30687E+06         0.00000E+00
   -0.30687E+06         0.16627E+08         0.00000E+00
    0.00000E+00         0.00000E+00         0.48880E+07
 
    0.77128E+07        -0.29464E+06         0.00000E+00
   -0.29464E+06         0.16641E+08         0.00000E+00
    0.00000E+00         0.00000E+00         0.48708E+07
 
    0.76122E+07        -0.27900E+06         0.00000E+00
   -0.27900E+06         0.16656E+08         0.00000E+00
    0.00000E+00         0.00000E+00         0.48535E+07
 
    0.75120E+07        -0.26017E+06         0.00000E+00
   -0.26017E+06         0.16670E+08         0.00000E+00
    0.00000E+00         0.00000E+00         0.48364E+07
 
    0.74120E+07        -0.23838E+06         0.00000E+00
   -0.23838E+06         0.16685E+08         0.00000E+00
    0.00000E+00         0.00000E+00         0.48193E+07
 
    0.73124E+07        -0.21381E+06         0.00000E+00
   -0.21381E+06         0.16700E+08         0.00000E+00
    0.00000E+00         0.00000E+00         0.48024E+07
 
    0.72132E+07        -0.18663E+06         0.00000E+00
   -0.18663E+06         0.16715E+08         0.00000E+00
    0.00000E+00         0.00000E+00         0.47856E+07
 
    0.71144E+07        -0.15700E+06         0.00000E+00
   -0.15700E+06         0.16730E+08         0.00000E+00
    0.00000E+00         0.00000E+00         0.47689E+07
 
    0.70160E+07        -0.12504E+06         0.00000E+00
   -0.12504E+06         0.16746E+08         0.00000E+00
    0.00000E+00         0.00000E+00         0.47524E+07
 
    0.69180E+07        -0.90861E+05         0.00000E+00
   -0.90861E+05         0.16762E+08         0.00000E+00
    0.00000E+00         0.00000E+00         0.47360E+07
 
    0.68202E+07        -0.54538E+05         0.00000E+00
   -0.54538E+05         0.16779E+08         0.00000E+00
    0.00000E+00         0.00000E+00         0.47198E+07
 
    0.67227E+07        -0.16141E+05         0.00000E+00
   -0.16141E+05         0.16796E+08         0.00000E+00
    0.00000E+00         0.00000E+00         0.47038E+07
 
    0.66255E+07         0.24284E+05         0.00000E+00
    0.24284E+05         0.16814E+08         0.00000E+00
    0.00000E+00         0.00000E+00         0.46880E+07
 
    0.65285E+07         0.66708E+05         0.00000E+00
    0.66708E+05         0.16833E+08         0.00000E+00
    0.00000E+00         0.00000E+00         0.46723E+07
 
    0.64316E+07         0.11112E+06         0.00000E+00
    0.11112E+06         0.16853E+08         0.00000E+00
    0.00000E+00         0.00000E+00         0.46569E+07
 
    0.63348E+07         0.15753E+06         0.00000E+00
    0.15753E+06         0.16873E+08         0.00000E+00
    0.00000E+00         0.00000E+00         0.46416E+07
 
    0.62381E+07         0.20596E+06         0.00000E+00
    0.20596E+06         0.16895E+08         0.00000E+00
    0.00000E+00         0.00000E+00         0.46266E+07
 
    0.61414E+07         0.25645E+06         0.00000E+00
    0.25645E+06         0.16917E+08         0.00000E+00
    0.00000E+00         0.00000E+00         0.46118E+07
 
    0.60448E+07         0.30905E+06         0.00000E+00
    0.30905E+06         0.16941E+08         0.00000E+00
    0.00000E+00         0.00000E+00         0.45972E+07
 
    0.59482E+07         0.36383E+06         0.00000E+00
    0.36383E+06         0.16966E+08         0.00000E+00
    0.00000E+00         0.00000E+00         0.45828E+07
 
    0.58517E+07         0.42088E+06         0.00000E+00
    0.42088E+06         0.16992E+08         0.00000E+00
    0.00000E+00         0.00000E+00         0.45686E+07
 
    0.57552E+07         0.48029E+06         0.00000E+00
    0.48029E+06         0.17018E+08         0.00000E+00
    0.00000E+00         0.00000E+00         0.45547E+07
 
    0.56589E+07         0.54217E+06         0.00000E+00
    0.54217E+06         0.17047E+08         0.00000E+00
    0.00000E+00         0.00000E+00         0.45411E+07
 
    0.55627E+07         0.60665E+06         0.00000E+00
    0.60665E+06         0.17076E+08         0.00000E+00
    0.00000E+00         0.00000E+00         0.45277E+07
 
    0.54669E+07         0.67384E+06         0.00000E+00
    0.67384E+06         0.17106E+08         0.00000E+00
    0.00000E+00         0.00000E+00         0.45146E+07
 
    0.53714E+07         0.74388E+06         0.00000E+00
    0.74388E+06         0.17137E+08         0.00000E+00
    0.00000E+00         0.00000E+00         0.45017E+07
 
    0.52766E+07         0.81690E+06         0.00000E+00
    0.81690E+06         0.17170E+08         0.00000E+00
    0.00000E+00         0.00000E+00         0.44892E+07
 
    0.51825E+07         0.89304E+06         0.00000E+00
    0.89304E+06         0.17203E+08         0.00000E+00
    0.00000E+00         0.00000E+00         0.44770E+07
 
    0.50894E+07         0.97241E+06         0.00000E+00
    0.97241E+06         0.17237E+08         0.00000E+00
    0.00000E+00         0.00000E+00         0.44652E+07
 
    0.49976E+07         0.10551E+07         0.00000E+00
    0.10551E+07         0.17271E+08         0.00000E+00
    0.00000E+00         0.00000E+00         0.44537E+07
 
    0.49074E+07         0.11413E+07         0.00000E+00
    0.11413E+07         0.17306E+08         0.00000E+00
    0.00000E+00         0.00000E+00         0.44427E+07
 
    0.48190E+07         0.12310E+07         0.00000E+00
    0.12310E+07         0.17341E+08         0.00000E+00
    0.00000E+00         0.00000E+00         0.44320E+07
 
    0.47328E+07         0.13242E+07         0.00000E+00
    0.13242E+07         0.17376E+08         0.00000E+00
    0.00000E+00         0.00000E+00         0.44218E+07
 
    0.46491E+07         0.14210E+07         0.00000E+00
    0.14210E+07         0.17411E+08         0.00000E+00
    0.00000E+00         0.00000E+00         0.44120E+07
 
    0.45684E+07         0.15215E+07         0.00000E+00
    0.15215E+07         0.17446E+08         0.00000E+00
    0.00000E+00         0.00000E+00         0.44028E+07
 
    0.44912E+07         0.16255E+07         0.00000E+00
    0.16255E+07         0.17479E+08         0.00000E+00
    0.00000E+00         0.00000E+00         0.43941E+07
 
    0.44177E+07         0.17329E+07         0.00000E+00
    0.17329E+07         0.17512E+08         0.00000E+00
    0.00000E+00         0.00000E+00         0.43859E+07
 
    0.80463E+07        -0.26816E+05         0.00000E+00
   -0.26816E+05         0.15784E+08         0.00000E+00
    0.00000E+00         0.00000E+00         0.47661E+07
 
    0.80023E+07        -0.69435E+05         0.00000E+00
   -0.69435E+05         0.15787E+08         0.00000E+00
    0.00000E+00         0.00000E+00         0.47579E+07
 
    0.79528E+07        -0.10728E+06         0.00000E+00
   -0.10728E+06         0.15793E+08         0.00000E+00
    0.00000E+00         0.00000E+00         0.47491E+07
 
    0.78982E+07        -0.14038E+06         0.00000E+00
   -0.14038E+06         0.15800E+08         0.00000E+00
    0.00000E+00         0.00000E+00         0.47397E+07
 
    0.78389E+07        -0.16874E+06         0.00000E+00
   -0.16874E+06         0.15810E+08         0.00000E+00
    0.00000E+00         0.00000E+00         0.47298E+07
 
    0.77756E+07        -0.19242E+06         0.00000E+00
   -0.19242E+06         0.15821E+08         0.00000E+00
    0.00000E+00         0.00000E+00         0.47193E+07
 
    0.77086E+07        -0.21147E+06         0.00000E+00
   -0.21147E+06         0.15834E+08         0.00000E+00
    0.00000E+00         0.00000E+00         0.47085E+07
 
    0.76383E+07        -0.22600E+06         0.00000E+00
   -0.22600E+06         0.15848E+08         0.00000E+00
    0.00000E+00         0.00000E+00         0.46973E+07
 
    0.75652E+07        -0.23614E+06         0.00000E+00
   -0.23614E+06         0.15863E+08         0.00000E+00
    0.00000E+00         0.00000E+00         0.46857E+07
 
    0.74897E+07        -0.24200E+06         0.00000E+00
   -0.24200E+06         0.15879E+08         0.00000E+00
    0.00000E+00         0.00000E+00         0.46738E+07
 
    0.74121E+07        -0.24372E+06         0.00000E+00
   -0.24372E+06         0.15896E+08         0.00000E+00
    0.00000E+00         0.00000E+00         0.46616E+07
 
    0.73326E+07        -0.24147E+06         0.00000E+00
   -0.24147E+06         0.15913E+08         0.00000E+00
    0.00000E+00         0.00000E+00         0.46492E+07
 
    0.72517E+07        -0.23539E+06         0.00000E+00
   -0.23539E+06         0.15931E+08         0.00000E+00
    0.00000E+00         0.00000E+00         0.46366E+07
 
    0.71695E+07        -0.22565E+06         0.00000E+00
   -0.22565E+06         0.15950E+08         0.00000E+00
    0.00000E+00         0.00000E+00         0.46239E+07
 
    0.70862E+07        -0.21240E+06         0.00000E+00
   -0.21240E+06         0.15969E+08         0.00000E+00
    0.00000E+00         0.00000E+00         0.46110E+07
 
    0.70021E+07        -0.19580E+06         0.00000E+00
   -0.19580E+06         0.15988E+08         0.00000E+00
    0.00000E+00         0.00000E+00         0.45980E+07
 
    0.69173E+07        -0.17601E+06         0.00000E+00
   -0.17601E+06         0.16008E+08         0.00000E+00
    0.00000E+00         0.00000E+00         0.45850E+07
 
    0.68320E+07        -0.15316E+06         0.00000E+00
   -0.15316E+06         0.16027E+08         0.00000E+00
    0.00000E+00         0.00000E+00         0.45719E+07
 
    0.67463E+07        -0.12741E+06         0.00000E+00
   -0.12741E+06         0.16048E+08         0.00000E+00
    0.00000E+00         0.00000E+00         0.45588E+07
 
    0.66603E+07        -0.98856E+05         0.00000E+00
   -0.98856E+05         0.16068E+08         0.00000E+00
    0.00000E+00         0.00000E+00         0.45457E+07
 
    0.65740E+07        -0.67630E+05         0.00000E+00
   -0.67630E+05         0.16089E+08         0.00000E+00
    0.00000E+00         0.00000E+00         0.45326E+07
 
    0.64877E+07        -0.33829E+05         0.00000E+00
   -0.33829E+05         0.16110E+08         0.00000E+00
    0.00000E+00         0.00000E+00         0.45195E+07
 
    0.64012E+07         0.24587E+04         0.00000E+00
    0.24587E+04         0.16131E+08         0.00000E+00
    0.00000E+00         0.00000E+00         0.45065E+07
 
    0.63147E+07         0.41156E+05         0.00000E+00
    0.41156E+05         0.16153E+08         0.00000E+00
    0.00000E+00         0.00000E+00         0.44936E+07
 
    0.62281E+07         0.82200E+05         0.00000E+00
    0.82200E+05         0.16176E+08         0.00000E+00
    0.00000E+00         0.00000E+00         0.44807E+07
 
    0.61416E+07         0.12554E+06         0.00000E+00
    0.12554E+06         0.16198E+08         0.00000E+00
    0.00000E+00         0.00000E+00         0.44680E+07
 
    0.60552E+07         0.17114E+06         0.00000E+00
    0.17114E+06         0.16221E+08         0.00000E+00
    0.00000E+00         0.00000E+00         0.44553E+07
 
    0.59689E+07         0.21897E+06         0.00000E+00
    0.21897E+06         0.16245E+08         0.00000E+00
    0.00000E+00         0.00000E+00         0.44428E+07
 
    0.58827E+07         0.26902E+06         0.00000E+00
    0.26902E+06         0.16269E+08         0.00000E+00
    0.00000E+00         0.00000E+00         0.44304E+07
 
    0.57966E+07         0.32129E+06         0.00000E+00
    0.32129E+06         0.16294E+08         0.00000E+00
    0.00000E+00         0.00000E+00         0.44181E+07
 
    0.57108E+07         0.37578E+06         0.00000E+00
    0.37578E+06         0.16319E+08         0.00000E+00
    0.00000E+00         0.00000E+00         0.44060E+07
 
    0.56251E+07         0.43250E+06         0.00000E+00
    0.43250E+06         0.16345E+08         0.00000E+00
    0.00000E+00         0.00000E+00         0.43941E+07
 
    0.55398E+07         0.49149E+06         0.00000E+00
    0.49149E+06         0.16372E+08         0.00000E+00
    0.00000E+00         0.00000E+00         0.43823E+07
 
    0.54549E+07         0.55278E+06         0.00000E+00
    0.55278E+06         0.16399E+08         0.00000E+00
    0.00000E+00         0.00000E+00         0.43707E+07
 
    0.53703E+07         0.61641E+06         0.00000E+00
    0.61641E+06         0.16426E+08         0.00000E+00
    0.00000E+00         0.00000E+00         0.43594E+07
 
    0.52863E+07         0.68242E+06         0.00000E+00
    0.68242E+06         0.16455E+08         0.00000E+00
    0.00000E+00         0.00000E+00         0.43482E+07
 
    0.52029E+07         0.75085E+06         0.00000E+00
    0.75085E+06         0.16483E+08         0.00000E+00
    0.00000E+00         0.00000E+00         0.43372E+07
 
    0.51202E+07         0.82176E+06         0.00000E+00
    0.82176E+06         0.16512E+08         0.00000E+00
    0.00000E+00         0.00000E+00         0.43265E+07
 
    0.50384E+07         0.89520E+06         0.00000E+00
    0.89520E+06         0.16542E+08         0.00000E+00
    0.00000E+00         0.00000E+00         0.43161E+07
 
    0.49576E+07         0.97120E+06         0.00000E+00
    0.97120E+06         0.16572E+08         0.00000E+00
    0.00000E+00         0.00000E+00         0.43059E+07
 
    0.48780E+07         0.10498E+07         0.00000E+00
    0.10498E+07         0.16602E+08         0.00000E+00
    0.00000E+00         0.00000E+00         0.42960E+07
 
    0.47997E+07         0.11311E+07         0.00000E+00
    0.11311E+07         0.16632E+08         0.00000E+00
    0.00000E+00         0.00000E+00         0.42864E+07
 
    0.47229E+07         0.12150E+07         0.00000E+00
    0.12150E+07         0.16662E+08         0.00000E+00
    0.00000E+00         0.00000E+00         0.42771E+07
 
    0.46479E+07         0.13015E+07         0.00000E+00
    0.13015E+07         0.16693E+08         0.00000E+00
    0.00000E+00         0.00000E+00         0.42681E+07
 
    0.45749E+07         0.13908E+07         0.00000E+00
    0.13908E+07         0.16723E+08         0.00000E+00
    0.00000E+00         0.00000E+00         0.42595E+07
 
    0.45041E+07         0.14827E+07         0.00000E+00
    0.14827E+07         0.16752E+08         0.00000E+00
    0.00000E+00         0.00000E+00         0.42512E+07
 
    0.44357E+07         0.15772E+07         0.00000E+00
    0.15772E+07         0.16781E+08         0.00000E+00
    0.00000E+00         0.00000E+00         0.42434E+07
 
    0.43701E+07         0.16742E+07         0.00000E+00
    0.16742E+07         0.16809E+08         0.00000E+00
    0.00000E+00         0.00000E+00         0.42359E+07
 
    0.43074E+07         0.17737E+07         0.00000E+00
    0.17737E+07         0.16837E+08         0.00000E+00
    0.00000E+00         0.00000E+00         0.42289E+07
 
    0.42479E+07         0.18755E+07         0.00000E+00
    0.18755E+07         0.16863E+08         0.00000E+00
    0.00000E+00         0.00000E+00         0.42222E+07
 
    0.71838E+07        -0.19244E+05         0.00000E+00
   -0.19244E+05         0.15114E+08         0.00000E+00
    0.00000E+00         0.00000E+00         0.44595E+07
 
    0.71605E+07        -0.49448E+05         0.00000E+00
   -0.49448E+05         0.15117E+08         0.00000E+00
    0.00000E+00         0.00000E+00         0.44554E+07
 
    0.71319E+07        -0.76032E+05         0.00000E+00
   -0.76032E+05         0.15122E+08         0.00000E+00
    0.00000E+00         0.00000E+00         0.44507E+07
 
    0.70982E+07        -0.98948E+05         0.00000E+00
   -0.98948E+05         0.15129E+08         0.00000E+00
    0.00000E+00         0.00000E+00         0.44455E+07
 
    0.70598E+07        -0.11818E+06         0.00000E+00
   -0.11818E+06         0.15139E+08         0.00000E+00
    0.00000E+00         0.00000E+00         0.44397E+07
 
    0.70172E+07        -0.13372E+06         0.00000E+00
   -0.13372E+06         0.15150E+08         0.00000E+00
    0.00000E+00         0.00000E+00         0.44334E+07
 
    0.69707E+07        -0.14558E+06         0.00000E+00
   -0.14558E+06         0.15163E+08         0.00000E+00
    0.00000E+00         0.00000E+00         0.44266E+07
 
    0.69205E+07        -0.15380E+06         0.00000E+00
   -0.15380E+06         0.15177E+08         0.00000E+00
    0.00000E+00         0.00000E+00         0.44195E+07
 
    0.68672E+07        -0.15840E+06         0.00000E+00
   -0.15840E+06         0.15192E+08         0.00000E+00
    0.00000E+00         0.00000E+00         0.44119E+07
 
    0.68108E+07        -0.15944E+06         0.00000E+00
   -0.15944E+06         0.15209E+08         0.00000E+00
    0.00000E+00         0.00000E+00         0.44040E+07
 
    0.67519E+07        -0.15699E+06         0.00000E+00
   -0.15699E+06         0.15227E+08         0.00000E+00
    0.00000E+00         0.00000E+00         0.43957E+07
 
    0.66906E+07        -0.15111E+06         0.00000E+00
   -0.15111E+06         0.15245E+08         0.00000E+00
    0.00000E+00         0.00000E+00         0.43872E+07
 
    0.66272E+07        -0.14190E+06         0.00000E+00
   -0.14190E+06         0.15265E+08         0.00000E+00
    0.00000E+00         0.00000E+00         0.43784E+07
 
    0.65619E+07        -0.12942E+06         0.00000E+00
   -0.12942E+06         0.15285E+08         0.00000E+00
    0.00000E+00         0.00000E+00         0.43694E+07
 
    0.64949E+07        -0.11377E+06         0.00000E+00
   -0.11377E+06         0.15306E+08         0.00000E+00
    0.00000E+00         0.00000E+00         0.43601E+07
 
    0.64265E+07        -0.95044E+05         0.00000E+00
   -0.95044E+05         0.15327E+08         0.00000E+00
    0.00000E+00         0.00000E+00         0.43507E+07
 
    0.63569E+07        -0.73319E+05         0.00000E+00
   -0.73319E+05         0.15349E+08         0.00000E+00
    0.00000E+00         0.00000E+00         0.43412E+07
 
    0.62861E+07        -0.48689E+05         0.00000E+00
   -0.48689E+05         0.15371E+08         0.00000E+00
    0.00000E+00         0.00000E+00         0.43315E+07
 
    0.62145E+07        -0.21239E+05         0.00000E+00
   -0.21239E+05         0.15394E+08         0.00000E+00
    0.00000E+00         0.00000E+00         0.43217E+07
 
    0.61420E+07         0.89500E+04         0.00000E+00
    0.89500E+04         0.15417E+08         0.00000E+00
    0.00000E+00         0.00000E+00         0.43118E+07
 
    0.60688E+07         0.41800E+05         0.00000E+00
    0.41800E+05         0.15441E+08         0.00000E+00
    0.00000E+00         0.00000E+00         0.43019E+07
 
    0.59951E+07         0.77238E+05         0.00000E+00
    0.77238E+05         0.15464E+08         0.00000E+00
    0.00000E+00         0.00000E+00         0.42919E+07
 
    0.59210E+07         0.11520E+06         0.00000E+00
    0.11520E+06         0.15489E+08         0.00000E+00
    0.00000E+00         0.00000E+00         0.42819E+07
 
    0.58464E+07         0.15562E+06         0.00000E+00
    0.15562E+06         0.15513E+08         0.00000E+00
    0.00000E+00         0.00000E+00         0.42719E+07
 
    0.57717E+07         0.19846E+06         0.00000E+00
    0.19846E+06         0.15538E+08         0.00000E+00
    0.00000E+00         0.00000E+00         0.42619E+07
 
    0.56967E+07         0.24366E+06         0.00000E+00
    0.24366E+06         0.15563E+08         0.00000E+00
    0.00000E+00         0.00000E+00         0.42519E+07
 
    0.56216E+07         0.29118E+06         0.00000E+00
    0.29118E+06         0.15588E+08         0.00000E+00
    0.00000E+00         0.00000E+00         0.42419E+07
 
    0.55465E+07         0.34100E+06         0.00000E+00
    0.34100E+06         0.15614E+08         0.00000E+00
    0.00000E+00         0.00000E+00         0.42320E+07
 
    0.54714E+07         0.39308E+06         0.00000E+00
    0.39308E+06         0.15640E+08         0.00000E+00
    0.00000E+00         0.00000E+00         0.42222E+07
 
    0.53965E+07         0.44741E+06         0.00000E+00
    0.44741E+06         0.15666E+08         0.00000E+00
    0.00000E+00         0.00000E+00         0.42125E+07
 
    0.53217E+07         0.50397E+06         0.00000E+00
    0.50397E+06         0.15692E+08         0.00000E+00
    0.00000E+00         0.00000E+00         0.42028E+07
 
    0.52473E+07         0.56276E+06         0.00000E+00
    0.56276E+06         0.15719E+08         0.00000E+00
    0.00000E+00         0.00000E+00         0.41932E+07
 
    0.51732E+07         0.62376E+06         0.00000E+00
    0.62376E+06         0.15746E+08         0.00000E+00
    0.00000E+00         0.00000E+00         0.41838E+07
 
    0.50995E+07         0.68697E+06         0.00000E+00
    0.68697E+06         0.15773E+08         0.00000E+00
    0.00000E+00         0.00000E+00         0.41745E+07
 
    0.50263E+07         0.75240E+06         0.00000E+00
    0.75240E+06         0.15800E+08         0.00000E+00
    0.00000E+00         0.00000E+00         0.41653E+07
 
    0.49538E+07         0.82004E+06         0.00000E+00
    0.82004E+06         0.15828E+08         0.00000E+00
    0.00000E+00         0.00000E+00         0.41563E+07
 
    0.48820E+07         0.88991E+06         0.00000E+00
    0.88991E+06         0.15855E+08         0.00000E+00
    0.00000E+00         0.00000E+00         0.41475E+07
 
    0.48111E+07         0.96198E+06         0.00000E+00
    0.96198E+06         0.15883E+08         0.00000E+00
    0.00000E+00         0.00000E+00         0.41388E+07
 
    0.47411E+07         0.10363E+07         0.00000E+00
    0.10363E+07         0.15911E+08         0.00000E+00
    0.00000E+00         0.00000E+00         0.41304E+07
 
    0.46722E+07         0.11128E+07         0.00000E+00
    0.11128E+07         0.15938E+08         0.00000E+00
    0.00000E+00         0.00000E+00         0.41221E+07
 
    0.46045E+07         0.11915E+07         0.00000E+00
    0.11915E+07         0.15966E+08         0.00000E+00
    0.00000E+00         0.00000E+00         0.41141E+07
 
    0.45382E+07         0.12724E+07         0.00000E+00
    0.12724E+07         0.15993E+08         0.00000E+00
    0.00000E+00         0.00000E+00         0.41062E+07
 
    0.44734E+07         0.13554E+07         0.00000E+00
    0.13554E+07         0.16020E+08         0.00000E+00
    0.00000E+00         0.00000E+00         0.40987E+07
 
    0.44102E+07         0.14406E+07         0.00000E+00
    0.14406E+07         0.16047E+08         0.00000E+00
    0.00000E+00         0.00000E+00         0.40914E+07
 
    0.43489E+07         0.15279E+07         0.00000E+00
    0.15279E+07         0.16073E+08         0.00000E+00
    0.00000E+00         0.00000E+00         0.40843E+07
 
    0.42895E+07         0.16172E+07         0.00000E+00
    0.16172E+07         0.16098E+08         0.00000E+00
    0.00000E+00         0.00000E+00         0.40775E+07
 
    0.42323E+07         0.17084E+07         0.00000E+00
    0.17084E+07         0.16123E+08         0.00000E+00
    0.00000E+00         0.00000E+00         0.40711E+07
 
    0.41774E+07         0.18015E+07         0.00000E+00
    0.18015E+07         0.16147E+08         0.00000E+00
    0.00000E+00         0.00000E+00         0.40649E+07
 
    0.41249E+07         0.18964E+07         0.00000E+00
    0.18964E+07         0.16170E+08         0.00000E+00
    0.00000E+00         0.00000E+00         0.40590E+07
 
    0.40751E+07         0.19930E+07         0.00000E+00
    0.19930E+07         0.16192E+08         0.00000E+00
    0.00000E+00         0.00000E+00         0.40535E+07
 
    0.64099E+07        -0.12275E+05         0.00000E+00
   -0.12275E+05         0.14469E+08         0.00000E+00
    0.00000E+00         0.00000E+00         0.41758E+07
 
    0.64023E+07        -0.30667E+05         0.00000E+00
   -0.30667E+05         0.14472E+08         0.00000E+00
    0.00000E+00         0.00000E+00         0.41748E+07
 
    0.63896E+07        -0.46321E+05         0.00000E+00
   -0.46321E+05         0.14476E+08         0.00000E+00
    0.00000E+00         0.00000E+00         0.41732E+07
 
    0.63720E+07        -0.59172E+05         0.00000E+00
   -0.59172E+05         0.14483E+08         0.00000E+00
    0.00000E+00         0.00000E+00         0.41711E+07
 
    0.63500E+07        -0.69169E+05         0.00000E+00
   -0.69169E+05         0.14492E+08         0.00000E+00
    0.00000E+00         0.00000E+00         0.41684E+07
 
    0.63238E+07        -0.76274E+05         0.00000E+00
   -0.76274E+05         0.14503E+08         0.00000E+00
    0.00000E+00         0.00000E+00         0.41653E+07
 
    0.62936E+07        -0.80461E+05         0.00000E+00
   -0.80461E+05         0.14515E+08         0.00000E+00
    0.00000E+00         0.00000E+00         0.41617E+07
 
    0.62598E+07        -0.81716E+05         0.00000E+00
   -0.81716E+05         0.14529E+08         0.00000E+00
    0.00000E+00         0.00000E+00         0.41577E+07
 
    0.62226E+07        -0.80037E+05         0.00000E+00
   -0.80037E+05         0.14544E+08         0.00000E+00
    0.00000E+00         0.00000E+00         0.41533E+07
 
    0.61823E+07        -0.75429E+05         0.00000E+00
   -0.75429E+05         0.14560E+08         0.00000E+00
    0.00000E+00         0.00000E+00         0.41485E+07
 
    0.61391E+07        -0.67910E+05         0.00000E+00
   -0.67910E+05         0.14578E+08         0.00000E+00
    0.00000E+00         0.00000E+00         0.41434E+07
 
    0.60934E+07        -0.57501E+05         0.00000E+00
   -0.57501E+05         0.14596E+08         0.00000E+00
    0.00000E+00         0.00000E+00         0.41379E+07
 
    0.60452E+07        -0.44233E+05         0.00000E+00
   -0.44233E+05         0.14616E+08         0.00000E+00
    0.00000E+00         0.00000E+00         0.41322E+07
 
    0.59949E+07        -0.28142E+05         0.00000E+00
   -0.28142E+05         0.14636E+08         0.00000E+00
    0.00000E+00         0.00000E+00         0.41262E+07
 
    0.59425E+07        -0.92675E+04         0.00000E+00
   -0.92675E+04         0.14657E+08         0.00000E+00
    0.00000E+00         0.00000E+00         0.41199E+07
 
    0.58885E+07         0.12346E+05         0.00000E+00
    0.12346E+05         0.14679E+08         0.00000E+00
    0.00000E+00         0.00000E+00         0.41135E+07
 
    0.58328E+07         0.36653E+05         0.00000E+00
    0.36653E+05         0.14701E+08         0.00000E+00
    0.00000E+00         0.00000E+00         0.41068E+07
 
    0.57757E+07         0.63605E+05         0.00000E+00
    0.63605E+05         0.14724E+08         0.00000E+00
    0.00000E+00         0.00000E+00         0.41000E+07
 
    0.57173E+07         0.93153E+05         0.00000E+00
    0.93153E+05         0.14748E+08         0.00000E+00
    0.00000E+00         0.00000E+00         0.40930E+07
 
    0.56578E+07         0.12525E+06         0.00000E+00
    0.12525E+06         0.14771E+08         0.00000E+00
    0.00000E+00         0.00000E+00         0.40858E+07
 
    0.55973E+07         0.15984E+06         0.00000E+00
    0.15984E+06         0.14795E+08         0.00000E+00
    0.00000E+00         0.00000E+00         0.40786E+07
 
    0.55360E+07         0.19689E+06         0.00000E+00
    0.19689E+06         0.14820E+08         0.00000E+00
    0.00000E+00         0.00000E+00         0.40712E+07
 
    0.54740E+07         0.23635E+06         0.00000E+00
    0.23635E+06         0.14845E+08         0.00000E+00
    0.00000E+00         0.00000E+00         0.40638E+07
 
    0.54113E+07         0.27816E+06         0.00000E+00
    0.27816E+06         0.14870E+08         0.00000E+00
    0.00000E+00         0.00000E+00         0.40563E+07
 
    0.53482E+07         0.32231E+06         0.00000E+00
    0.32231E+06         0.14895E+08         0.00000E+00
    0.00000E+00         0.00000E+00         0.40487E+07
 
    0.52847E+07         0.36873E+06         0.00000E+00
    0.36873E+06         0.14921E+08         0.00000E+00
    0.00000E+00         0.00000E+00         0.40411E+07
 
    0.52209E+07         0.41741E+06         0.00000E+00
    0.41741E+06         0.14947E+08         0.00000E+00
    0.00000E+00         0.00000E+00         0.40335E+07
 
    0.51570E+07         0.46831E+06         0.00000E+00
    0.46831E+06         0.14973E+08         0.00000E+00
    0.00000E+00         0.00000E+00         0.40259E+07
 
    0.50929E+07         0.52139E+06         0.00000E+00
    0.52139E+06         0.14999E+08         0.00000E+00
    0.00000E+00         0.00000E+00         0.40183E+07
 
    0.50289E+07         0.57663E+06         0.00000E+00
    0.57663E+06         0.15025E+08         0.00000E+00
    0.00000E+00         0.00000E+00         0.40107E+07
 
    0.49649E+07         0.63401E+06         0.00000E+00
    0.63401E+06         0.15051E+08         0.00000E+00
    0.00000E+00         0.00000E+00         0.40032E+07
 
    0.49012E+07         0.69350E+06         0.00000E+00
    0.69350E+06         0.15077E+08         0.00000E+00
    0.00000E+00         0.00000E+00         0.39957E+07
 
    0.48377E+07         0.75508E+06         0.00000E+00
    0.75508E+06         0.15104E+08         0.00000E+00
    0.00000E+00         0.00000E+00         0.39883E+07
 
    0.47747E+07         0.81873E+06         0.00000E+00
    0.81873E+06         0.15130E+08         0.00000E+00
    0.00000E+00         0.00000E+00         0.39809E+07
 
    0.47121E+07         0.88442E+06         0.00000E+00
    0.88442E+06         0.15156E+08         0.00000E+00
    0.00000E+00         0.00000E+00         0.39737E+07
 
    0.46501E+07         0.95214E+06         0.00000E+00
    0.95214E+06         0.15183E+08         0.00000E+00
    0.00000E+00         0.00000E+00         0.39665E+07
 
    0.45887E+07         0.10219E+07         0.00000E+00
    0.10219E+07         0.15209E+08         0.00000E+00
    0.00000E+00         0.00000E+00         0.39595E+07
 
    0.45282E+07         0.10935E+07         0.00000E+00
    0.10935E+07         0.15234E+08         0.00000E+00
    0.00000E+00         0.00000E+00         0.39525E+07
 
    0.44685E+07         0.11672E+07         0.00000E+00
    0.11672E+07         0.15260E+08         0.00000E+00
    0.00000E+00         0.00000E+00         0.39457E+07
 
    0.44098E+07         0.12428E+07         0.00000E+00
    0.12428E+07         0.15286E+08         0.00000E+00
    0.00000E+00         0.00000E+00         0.39391E+07
 
    0.43522E+07         0.13202E+07         0.00000E+00
    0.13202E+07         0.15311E+08         0.00000E+00
    0.00000E+00         0.00000E+00         0.39325E+07
 
    0.42958E+07         0.13995E+07         0.00000E+00
    0.13995E+07         0.15335E+08         0.00000E+00
    0.00000E+00         0.00000E+00         0.39262E+07
 
    0.42407E+07         0.14806E+07         0.00000E+00
    0.14806E+07         0.15359E+08         0.00000E+00
    0.00000E+00         0.00000E+00         0.39200E+07
 
    0.41870E+07         0.15634E+07         0.00000E+00
    0.15634E+07         0.15383E+08         0.00000E+00
    0.00000E+00         0.00000E+00         0.39140E+07
 
    0.41348E+07         0.16479E+07         0.00000E+00
    0.16479E+07         0.15406E+08         0.00000E+00
    0.00000E+00         0.00000E+00         0.39082E+07
 
    0.40843E+07         0.17341E+07         0.00000E+00
    0.17341E+07         0.15429E+08         0.00000E+00
    0.00000E+00         0.00000E+00         0.39026E+07
 
    0.40356E+07         0.18217E+07         0.00000E+00
    0.18217E+07         0.15450E+08         0.00000E+00
    0.00000E+00         0.00000E+00         0.38972E+07
 
    0.39887E+07         0.19109E+07         0.00000E+00
    0.19109E+07         0.15471E+08         0.00000E+00
    0.00000E+00         0.00000E+00         0.38920E+07
 
    0.39438E+07         0.20014E+07         0.00000E+00
    0.20014E+07         0.15491E+08         0.00000E+00
    0.00000E+00         0.00000E+00         0.38870E+07
 
    0.39009E+07         0.20932E+07         0.00000E+00
    0.20932E+07         0.15511E+08         0.00000E+00
    0.00000E+00         0.00000E+00         0.38823E+07
 
    0.57189E+07        -0.59553E+04         0.00000E+00
   -0.59553E+04         0.13848E+08         0.00000E+00
    0.00000E+00         0.00000E+00         0.39134E+07
 
    0.57230E+07        -0.13388E+05         0.00000E+00
   -0.13388E+05         0.13850E+08         0.00000E+00
    0.00000E+00         0.00000E+00         0.39147E+07
 
    0.57224E+07        -0.18787E+05         0.00000E+00
   -0.18787E+05         0.13855E+08         0.00000E+00
    0.00000E+00         0.00000E+00         0.39154E+07
 
    0.57172E+07        -0.22069E+05         0.00000E+00
   -0.22069E+05         0.13861E+08         0.00000E+00
    0.00000E+00         0.00000E+00         0.39157E+07
 
    0.57078E+07        -0.23169E+05         0.00000E+00
   -0.23169E+05         0.13869E+08         0.00000E+00
    0.00000E+00         0.00000E+00         0.39154E+07
 
    0.56944E+07        -0.22026E+05         0.00000E+00
   -0.22026E+05         0.13879E+08         0.00000E+00
    0.00000E+00         0.00000E+00         0.39147E+07
 
    0.56772E+07        -0.18592E+05         0.00000E+00
   -0.18592E+05         0.13890E+08         0.00000E+00
    0.00000E+00         0.00000E+00         0.39135E+07
 
    0.56565E+07        -0.12829E+05         0.00000E+00
   -0.12829E+05         0.13903E+08         0.00000E+00
    0.00000E+00         0.00000E+00         0.39120E+07
 
    0.56325E+07        -0.47059E+04         0.00000E+00
   -0.47059E+04         0.13918E+08         0.00000E+00
    0.00000E+00         0.00000E+00         0.39100E+07
 
    0.56054E+07         0.57978E+04         0.00000E+00
    0.57978E+04         0.13933E+08         0.00000E+00
    0.00000E+00         0.00000E+00         0.39077E+07
 
    0.55754E+07         0.18697E+05         0.00000E+00
    0.18697E+05         0.13950E+08         0.00000E+00
    0.00000E+00         0.00000E+00         0.39050E+07
 
    0.55427E+07         0.33998E+05         0.00000E+00
    0.33998E+05         0.13967E+08         0.00000E+00
    0.00000E+00         0.00000E+00         0.39020E+07
 
    0.55075E+07         0.51701E+05         0.00000E+00
    0.51701E+05         0.13986E+08         0.00000E+00
    0.00000E+00         0.00000E+00         0.38987E+07
 
    0.54701E+07         0.71803E+05         0.00000E+00
    0.71803E+05         0.14005E+08         0.00000E+00
    0.00000E+00         0.00000E+00         0.38951E+07
 
    0.54305E+07         0.94294E+05         0.00000E+00
    0.94294E+05         0.14026E+08         0.00000E+00
    0.00000E+00         0.00000E+00         0.38912E+07
 
    0.53891E+07         0.11916E+06         0.00000E+00
    0.11916E+06         0.14047E+08         0.00000E+00
    0.00000E+00         0.00000E+00         0.38871E+07
 
    0.53458E+07         0.14638E+06         0.00000E+00
    0.14638E+06         0.14068E+08         0.00000E+00
    0.00000E+00         0.00000E+00         0.38828E+07
 
    0.53010E+07         0.17594E+06         0.00000E+00
    0.17594E+06         0.14090E+08         0.00000E+00
    0.00000E+00         0.00000E+00         0.38783E+07
 
    0.52547E+07         0.20781E+06         0.00000E+00
    0.20781E+06         0.14113E+08         0.00000E+00
    0.00000E+00         0.00000E+00         0.38736E+07
 
    0.52071E+07         0.24196E+06         0.00000E+00
    0.24196E+06         0.14136E+08         0.00000E+00
    0.00000E+00         0.00000E+00         0.38687E+07
 
    0.51584E+07         0.27838E+06         0.00000E+00
    0.27838E+06         0.14160E+08         0.00000E+00
    0.00000E+00         0.00000E+00         0.38636E+07
 
    0.51086E+07         0.31703E+06         0.00000E+00
    0.31703E+06         0.14184E+08         0.00000E+00
    0.00000E+00         0.00000E+00         0.38585E+07
 
    0.50579E+07         0.35788E+06         0.00000E+00
    0.35788E+06         0.14208E+08         0.00000E+00
    0.00000E+00         0.00000E+00         0.38532E+07
 
    0.50064E+07         0.40091E+06         0.00000E+00
    0.40091E+06         0.14233E+08         0.00000E+00
    0.00000E+00         0.00000E+00         0.38478E+07
 
    0.49543E+07         0.44609E+06         0.00000E+00
    0.44609E+06         0.14257E+08         0.00000E+00
    0.00000E+00         0.00000E+00         0.38423E+07
 
    0.49017E+07         0.49338E+06         0.00000E+00
    0.49338E+06         0.14282E+08         0.00000E+00
    0.00000E+00         0.00000E+00         0.38367E+07
 
    0.48486E+07         0.54277E+06         0.00000E+00
    0.54277E+06         0.14307E+08         0.00000E+00
    0.00000E+00         0.00000E+00         0.38311E+07
 
    0.47952E+07         0.59421E+06         0.00000E+00
    0.59421E+06         0.14332E+08         0.00000E+00
    0.00000E+00         0.00000E+00         0.38255E+07
 
    0.47415E+07         0.64769E+06         0.00000E+00
    0.64769E+06         0.14357E+08         0.00000E+00
    0.00000E+00         0.00000E+00         0.38198E+07
 
    0.46877E+07         0.70317E+06         0.00000E+00
    0.70317E+06         0.14382E+08         0.00000E+00
    0.00000E+00         0.00000E+00         0.38140E+07
 
    0.46339E+07         0.76062E+06         0.00000E+00
    0.76062E+06         0.14408E+08         0.00000E+00
    0.00000E+00         0.00000E+00         0.38083E+07
 
    0.45802E+07         0.82002E+06         0.00000E+00
    0.82002E+06         0.14433E+08         0.00000E+00
    0.00000E+00         0.00000E+00         0.38026E+07
 
    0.45266E+07         0.88134E+06         0.00000E+00
    0.88134E+06         0.14458E+08         0.00000E+00
    0.00000E+00         0.00000E+00         0.37969E+07
 
    0.44733E+07         0.94455E+06         0.00000E+00
    0.94455E+06         0.14483E+08         0.00000E+00
    0.00000E+00         0.00000E+00         0.37912E+07
 
    0.44204E+07         0.10096E+07         0.00000E+00
    0.10096E+07         0.14507E+08         0.00000E+00
    0.00000E+00         0.00000E+00         0.37855E+07
 
    0.43678E+07         0.10765E+07         0.00000E+00
    0.10765E+07         0.14532E+08         0.00000E+00
    0.00000E+00         0.00000E+00         0.37799E+07
 
    0.43158E+07         0.11452E+07         0.00000E+00
    0.11452E+07         0.14556E+08         0.00000E+00
    0.00000E+00         0.00000E+00         0.37743E+07
 
    0.42644E+07         0.12156E+07         0.00000E+00
    0.12156E+07         0.14580E+08         0.00000E+00
    0.00000E+00         0.00000E+00         0.37688E+07
 
    0.42138E+07         0.12878E+07         0.00000E+00
    0.12878E+07         0.14603E+08         0.00000E+00
    0.00000E+00         0.00000E+00         0.37634E+07
 
    0.41639E+07         0.13617E+07         0.00000E+00
    0.13617E+07         0.14627E+08         0.00000E+00
    0.00000E+00         0.00000E+00         0.37581E+07
 
    0.41149E+07         0.14371E+07         0.00000E+00
    0.14371E+07         0.14649E+08         0.00000E+00
    0.00000E+00         0.00000E+00         0.37528E+07
 
    0.40669E+07         0.15142E+07         0.00000E+00
    0.15142E+07         0.14672E+08         0.00000E+00
    0.00000E+00         0.00000E+00         0.37477E+07
 
    0.40199E+07         0.15928E+07         0.00000E+00
    0.15928E+07         0.14693E+08         0.00000E+00
    0.00000E+00         0.00000E+00         0.37427E+07
 
    0.39741E+07         0.16729E+07         0.00000E+00
    0.16729E+07         0.14715E+08         0.00000E+00
    0.00000E+00         0.00000E+00         0.37377E+07
 
    0.39295E+07         0.17544E+07         0.00000E+00
    0.17544E+07         0.14735E+08         0.00000E+00
    0.00000E+00         0.00000E+00         0.37329E+07
 
    0.38861E+07         0.18372E+07         0.00000E+00
    0.18372E+07         0.14755E+08         0.00000E+00
    0.00000E+00         0.00000E+00         0.37282E+07
 
    0.38442E+07         0.19213E+07         0.00000E+00
    0.19213E+07         0.14774E+08         0.00000E+00
    0.00000E+00         0.00000E+00         0.37237E+07
 
    0.38037E+07         0.20066E+07         0.00000E+00
    0.20066E+07         0.14793E+08         0.00000E+00
    0.00000E+00         0.00000E+00         0.37193E+07
 
    0.37647E+07         0.20931E+07         0.00000E+00
    0.20931E+07         0.14810E+08         0.00000E+00
    0.00000E+00         0.00000E+00         0.37150E+07
 
    0.37272E+07         0.21805E+07         0.00000E+00
    0.21805E+07         0.14827E+08         0.00000E+00
    0.00000E+00         0.00000E+00         0.37109E+07
 
    0.51046E+07        -0.31964E+03         0.00000E+00
   -0.31964E+03         0.13250E+08         0.00000E+00
    0.00000E+00         0.00000E+00         0.36709E+07
 
    0.51171E+07         0.21914E+04         0.00000E+00
    0.21914E+04         0.13252E+08         0.00000E+00
    0.00000E+00         0.00000E+00         0.36738E+07
 
    0.51254E+07         0.61771E+04         0.00000E+00
    0.61771E+04         0.13256E+08         0.00000E+00
    0.00000E+00         0.00000E+00         0.36762E+07
 
    0.51296E+07         0.11725E+05         0.00000E+00
    0.11725E+05         0.13261E+08         0.00000E+00
    0.00000E+00         0.00000E+00         0.36782E+07
 
    0.51298E+07         0.18914E+05         0.00000E+00
    0.18914E+05         0.13269E+08         0.00000E+00
    0.00000E+00         0.00000E+00         0.36797E+07
 
    0.51264E+07         0.27814E+05         0.00000E+00
    0.27814E+05         0.13278E+08         0.00000E+00
    0.00000E+00         0.00000E+00         0.36808E+07
 
    0.51194E+07         0.38486E+05         0.00000E+00
    0.38486E+05         0.13288E+08         0.00000E+00
    0.00000E+00         0.00000E+00         0.36815E+07
 
    0.51091E+07         0.50984E+05         0.00000E+00
    0.50984E+05         0.13300E+08         0.00000E+00
    0.00000E+00         0.00000E+00         0.36818E+07
 
    0.50956E+07         0.65353E+05         0.00000E+00
    0.65353E+05         0.13313E+08         0.00000E+00
    0.00000E+00         0.00000E+00         0.36817E+07
 
    0.50792E+07         0.81632E+05         0.00000E+00
    0.81632E+05         0.13327E+08         0.00000E+00
    0.00000E+00         0.00000E+00         0.36812E+07
 
    0.50600E+07         0.99853E+05         0.00000E+00
    0.99853E+05         0.13342E+08         0.00000E+00
    0.00000E+00         0.00000E+00         0.36804E+07
 
    0.50382E+07         0.12004E+06         0.00000E+00
    0.12004E+06         0.13358E+08         0.00000E+00
    0.00000E+00         0.00000E+00         0.36793E+07
 
    0.50139E+07         0.14222E+06         0.00000E+00
    0.14222E+06         0.13376E+08         0.00000E+00
    0.00000E+00         0.00000E+00         0.36779E+07
 
    0.49874E+07         0.16640E+06         0.00000E+00
    0.16640E+06         0.13394E+08         0.00000E+00
    0.00000E+00         0.00000E+00         0.36762E+07
 
    0.49588E+07         0.19259E+06         0.00000E+00
    0.19259E+06         0.13412E+08         0.00000E+00
    0.00000E+00         0.00000E+00         0.36742E+07
 
    0.49281E+07         0.22080E+06         0.00000E+00
    0.22080E+06         0.13432E+08         0.00000E+00
    0.00000E+00         0.00000E+00         0.36720E+07
 
    0.48957E+07         0.25103E+06         0.00000E+00
    0.25103E+06         0.13452E+08         0.00000E+00
    0.00000E+00         0.00000E+00         0.36696E+07
 
    0.48616E+07         0.28327E+06         0.00000E+00
    0.28327E+06         0.13473E+08         0.00000E+00
    0.00000E+00         0.00000E+00         0.36669E+07
 
    0.48260E+07         0.31753E+06         0.00000E+00
    0.31753E+06         0.13494E+08         0.00000E+00
    0.00000E+00         0.00000E+00         0.36640E+07
 
    0.47890E+07         0.35379E+06         0.00000E+00
    0.35379E+06         0.13516E+08         0.00000E+00
    0.00000E+00         0.00000E+00         0.36610E+07
 
    0.47507E+07         0.39203E+06         0.00000E+00
    0.39203E+06         0.13538E+08         0.00000E+00
    0.00000E+00         0.00000E+00         0.36578E+07
 
    0.47114E+07         0.43226E+06         0.00000E+00
    0.43226E+06         0.13561E+08         0.00000E+00
    0.00000E+00         0.00000E+00         0.36544E+07
 
    0.46709E+07         0.47444E+06         0.00000E+00
    0.47444E+06         0.13583E+08         0.00000E+00
    0.00000E+00         0.00000E+00         0.36509E+07
 
    0.46296E+07         0.51857E+06         0.00000E+00
    0.51857E+06         0.13606E+08         0.00000E+00
    0.00000E+00         0.00000E+00         0.36472E+07
 
    0.45876E+07         0.56463E+06         0.00000E+00
    0.56463E+06         0.13630E+08         0.00000E+00
    0.00000E+00         0.00000E+00         0.36434E+07
 
    0.45448E+07         0.61259E+06         0.00000E+00
    0.61259E+06         0.13653E+08         0.00000E+00
    0.00000E+00         0.00000E+00         0.36395E+07
 
    0.45015E+07         0.66243E+06         0.00000E+00
    0.66243E+06         0.13676E+08         0.00000E+00
    0.00000E+00         0.00000E+00         0.36356E+07
 
    0.44577E+07         0.71413E+06         0.00000E+00
    0.71413E+06         0.13700E+08         0.00000E+00
    0.00000E+00         0.00000E+00         0.36315E+07
 
    0.44136E+07         0.76767E+06         0.00000E+00
    0.76767E+06         0.13723E+08         0.00000E+00
    0.00000E+00         0.00000E+00         0.36274E+07
 
    0.43692E+07         0.82303E+06         0.00000E+00
    0.82303E+06         0.13747E+08         0.00000E+00
    0.00000E+00         0.00000E+00         0.36232E+07
 
    0.43247E+07         0.88017E+06         0.00000E+00
    0.88017E+06         0.13770E+08         0.00000E+00
    0.00000E+00         0.00000E+00         0.36190E+07
 
    0.42801E+07         0.93906E+06         0.00000E+00
    0.93906E+06         0.13794E+08         0.00000E+00
    0.00000E+00         0.00000E+00         0.36147E+07
 
    0.42355E+07         0.99969E+06         0.00000E+00
    0.99969E+06         0.13817E+08         0.00000E+00
    0.00000E+00         0.00000E+00         0.36104E+07
 
    0.41910E+07         0.10620E+07         0.00000E+00
    0.10620E+07         0.13840E+08         0.00000E+00
    0.00000E+00         0.00000E+00         0.36061E+07
 
    0.41466E+07         0.11260E+07         0.00000E+00
    0.11260E+07         0.13862E+08         0.00000E+00
    0.00000E+00         0.00000E+00         0.36018E+07
 
    0.41026E+07         0.11916E+07         0.00000E+00
    0.11916E+07         0.13885E+08         0.00000E+00
    0.00000E+00         0.00000E+00         0.35975E+07
 
    0.40589E+07         0.12589E+07         0.00000E+00
    0.12589E+07         0.13907E+08         0.00000E+00
    0.00000E+00         0.00000E+00         0.35932E+07
 
    0.40157E+07         0.13276E+07         0.00000E+00
    0.13276E+07         0.13929E+08         0.00000E+00
    0.00000E+00         0.00000E+00         0.35889E+07
 
    0.39729E+07         0.13980E+07         0.00000E+00
    0.13980E+07         0.13950E+08         0.00000E+00
    0.00000E+00         0.00000E+00         0.35846E+07
 
    0.39308E+07         0.14697E+07         0.00000E+00
    0.14697E+07         0.13971E+08         0.00000E+00
    0.00000E+00         0.00000E+00         0.35804E+07
 
    0.38893E+07         0.15430E+07         0.00000E+00
    0.15430E+07         0.13992E+08         0.00000E+00
    0.00000E+00         0.00000E+00         0.35762E+07
 
    0.38485E+07         0.16176E+07         0.00000E+00
    0.16176E+07         0.14012E+08         0.00000E+00
    0.00000E+00         0.00000E+00         0.35721E+07
 
    0.38085E+07         0.16935E+07         0.00000E+00
    0.16935E+07         0.14031E+08         0.00000E+00
    0.00000E+00         0.00000E+00         0.35680E+07
 
    0.37694E+07         0.17707E+07         0.00000E+00
    0.17707E+07         0.14050E+08         0.00000E+00
    0.00000E+00         0.00000E+00         0.35639E+07
 
    0.37312E+07         0.18492E+07         0.00000E+00
    0.18492E+07         0.14069E+08         0.00000E+00
    0.00000E+00         0.00000E+00         0.35600E+07
 
    0.36939E+07         0.19288E+07         0.00000E+00
    0.19288E+07         0.14086E+08         0.00000E+00
    0.00000E+00         0.00000E+00         0.35560E+07
 
    0.36577E+07         0.20095E+07         0.00000E+00
    0.20095E+07         0.14103E+08         0.00000E+00
    0.00000E+00         0.00000E+00         0.35522E+07
 
    0.36225E+07         0.20913E+07         0.00000E+00
    0.20913E+07         0.14120E+08         0.00000E+00
    0.00000E+00         0.00000E+00         0.35485E+07
 
    0.35885E+07         0.21740E+07         0.00000E+00
    0.21740E+07         0.14135E+08         0.00000E+00
    0.00000E+00         0.00000E+00         0.35448E+07
 
    0.35555E+07         0.22576E+07         0.00000E+00
    0.22576E+07         0.14150E+08         0.00000E+00
    0.00000E+00         0.00000E+00         0.35412E+07
 
    0.45599E+07         0.46233E+04         0.00000E+00
    0.46233E+04         0.12673E+08         0.00000E+00
    0.00000E+00         0.00000E+00         0.34466E+07
 
    0.45784E+07         0.15982E+05         0.00000E+00
    0.15982E+05         0.12675E+08         0.00000E+00
    0.00000E+00         0.00000E+00         0.34506E+07
 
    0.45931E+07         0.28371E+05         0.00000E+00
    0.28371E+05         0.12678E+08         0.00000E+00
    0.00000E+00         0.00000E+00         0.34543E+07
 
    0.46041E+07         0.41881E+05         0.00000E+00
    0.41881E+05         0.12683E+08         0.00000E+00
    0.00000E+00         0.00000E+00         0.34575E+07
 
    0.46116E+07         0.56594E+05         0.00000E+00
    0.56594E+05         0.12690E+08         0.00000E+00
    0.00000E+00         0.00000E+00         0.34603E+07
 
    0.46157E+07         0.72585E+05         0.00000E+00
    0.72585E+05         0.12698E+08         0.00000E+00
    0.00000E+00         0.00000E+00         0.34627E+07
 
    0.46166E+07         0.89921E+05         0.00000E+00
    0.89921E+05         0.12707E+08         0.00000E+00
    0.00000E+00         0.00000E+00         0.34647E+07
 
    0.46145E+07         0.10866E+06         0.00000E+00
    0.10866E+06         0.12717E+08         0.00000E+00
    0.00000E+00         0.00000E+00         0.34663E+07
 
    0.46094E+07         0.12887E+06         0.00000E+00
    0.12887E+06         0.12729E+08         0.00000E+00
    0.00000E+00         0.00000E+00         0.34676E+07
 
    0.46015E+07         0.15058E+06         0.00000E+00
    0.15058E+06         0.12741E+08         0.00000E+00
    0.00000E+00         0.00000E+00         0.34686E+07
 
    0.45911E+07         0.17384E+06         0.00000E+00
    0.17384E+06         0.12755E+08         0.00000E+00
    0.00000E+00         0.00000E+00         0.34692E+07
 
    0.45781E+07         0.19869E+06         0.00000E+00
    0.19869E+06         0.12770E+08         0.00000E+00
    0.00000E+00         0.00000E+00         0.34696E+07
 
    0.45629E+07         0.22516E+06         0.00000E+00
    0.22516E+06         0.12785E+08         0.00000E+00
    0.00000E+00         0.00000E+00         0.34696E+07
 
    0.45454E+07         0.25328E+06         0.00000E+00
    0.25328E+06         0.12801E+08         0.00000E+00
    0.00000E+00         0.00000E+00         0.34694E+07
 
    0.45259E+07         0.28307E+06         0.00000E+00
    0.28307E+06         0.12819E+08         0.00000E+00
    0.00000E+00         0.00000E+00         0.34689E+07
 
    0.45045E+07         0.31453E+06         0.00000E+00
    0.31453E+06         0.12836E+08         0.00000E+00
    0.00000E+00         0.00000E+00         0.34682E+07
 
    0.44813E+07         0.34770E+06         0.00000E+00
    0.34770E+06         0.12855E+08         0.00000E+00
    0.00000E+00         0.00000E+00         0.34672E+07
 
    0.44564E+07         0.38258E+06         0.00000E+00
    0.38258E+06         0.12874E+08         0.00000E+00
    0.00000E+00         0.00000E+00         0.34660E+07
 
    0.44300E+07         0.41917E+06         0.00000E+00
    0.41917E+06         0.12893E+08         0.00000E+00
    0.00000E+00         0.00000E+00         0.34646E+07
 
    0.44022E+07         0.45748E+06         0.00000E+00
    0.45748E+06         0.12913E+08         0.00000E+00
    0.00000E+00         0.00000E+00         0.34630E+07
 
    0.43731E+07         0.49751E+06         0.00000E+00
    0.49751E+06         0.12933E+08         0.00000E+00
    0.00000E+00         0.00000E+00         0.34612E+07
 
    0.43428E+07         0.53924E+06         0.00000E+00
    0.53924E+06         0.12953E+08         0.00000E+00
    0.00000E+00         0.00000E+00         0.34593E+07
 
    0.43115E+07         0.58269E+06         0.00000E+00
    0.58269E+06         0.12974E+08         0.00000E+00
    0.00000E+00         0.00000E+00         0.34572E+07
 
    0.42791E+07         0.62784E+06         0.00000E+00
    0.62784E+06         0.12995E+08         0.00000E+00
    0.00000E+00         0.00000E+00         0.34549E+07
 
    0.42460E+07         0.67468E+06         0.00000E+00
    0.67468E+06         0.13017E+08         0.00000E+00
    0.00000E+00         0.00000E+00         0.34525E+07
 
    0.42121E+07         0.72319E+06         0.00000E+00
    0.72319E+06         0.13038E+08         0.00000E+00
    0.00000E+00         0.00000E+00         0.34500E+07
 
    0.41775E+07         0.77337E+06         0.00000E+00
    0.77337E+06         0.13059E+08         0.00000E+00
    0.00000E+00         0.00000E+00         0.34474E+07
 
    0.41424E+07         0.82520E+06         0.00000E+00
    0.82520E+06         0.13081E+08         0.00000E+00
    0.00000E+00         0.00000E+00         0.34446E+07
 
    0.41068E+07         0.87865E+06         0.00000E+00
    0.87865E+06         0.13102E+08         0.00000E+00
    0.00000E+00         0.00000E+00         0.34418E+07
 
    0.40708E+07         0.93371E+06         0.00000E+00
    0.93371E+06         0.13124E+08         0.00000E+00
    0.00000E+00         0.00000E+00         0.34389E+07
 
    0.40345E+07         0.99036E+06         0.00000E+00
    0.99036E+06         0.13145E+08         0.00000E+00
    0.00000E+00         0.00000E+00         0.34359E+07
 
    0.39981E+07         0.10486E+07         0.00000E+00
    0.10486E+07         0.13166E+08         0.00000E+00
    0.00000E+00         0.00000E+00         0.34328E+07
 
    0.39615E+07         0.11083E+07         0.00000E+00
    0.11083E+07         0.13187E+08         0.00000E+00
    0.00000E+00         0.00000E+00         0.34297E+07
 
    0.39249E+07         0.11696E+07         0.00000E+00
    0.11696E+07         0.13208E+08         0.00000E+00
    0.00000E+00         0.00000E+00         0.34266E+07
 
    0.38883E+07         0.12323E+07         0.00000E+00
    0.12323E+07         0.13229E+08         0.00000E+00
    0.00000E+00         0.00000E+00         0.34234E+07
 
    0.38518E+07         0.12965E+07         0.00000E+00
    0.12965E+07         0.13249E+08         0.00000E+00
    0.00000E+00         0.00000E+00         0.34201E+07
 
    0.38155E+07         0.13621E+07         0.00000E+00
    0.13621E+07         0.13269E+08         0.00000E+00
    0.00000E+00         0.00000E+00         0.34169E+07
 
    0.37794E+07         0.14291E+07         0.00000E+00
    0.14291E+07         0.13288E+08         0.00000E+00
    0.00000E+00         0.00000E+00         0.34136E+07
 
    0.37437E+07         0.14975E+07         0.00000E+00
    0.14975E+07         0.13308E+08         0.00000E+00
    0.00000E+00         0.00000E+00         0.34103E+07
 
    0.37084E+07         0.15671E+07         0.00000E+00
    0.15671E+07         0.13327E+08         0.00000E+00
    0.00000E+00         0.00000E+00         0.34070E+07
 
    0.36735E+07         0.16381E+07         0.00000E+00
    0.16381E+07         0.13345E+08         0.00000E+00
    0.00000E+00         0.00000E+00         0.34037E+07
 
    0.36391E+07         0.17102E+07         0.00000E+00
    0.17102E+07         0.13363E+08         0.00000E+00
    0.00000E+00         0.00000E+00         0.34004E+07
 
    0.36052E+07         0.17835E+07         0.00000E+00
    0.17835E+07         0.13380E+08         0.00000E+00
    0.00000E+00         0.00000E+00         0.33971E+07
 
    0.35719E+07         0.18580E+07         0.00000E+00
    0.18580E+07         0.13397E+08         0.00000E+00
    0.00000E+00         0.00000E+00         0.33938E+07
 
    0.35393E+07         0.19336E+07         0.00000E+00
    0.19336E+07         0.13413E+08         0.00000E+00
    0.00000E+00         0.00000E+00         0.33905E+07
 
    0.35074E+07         0.20102E+07         0.00000E+00
    0.20102E+07         0.13429E+08         0.00000E+00
    0.00000E+00         0.00000E+00         0.33873E+07
 
    0.34762E+07         0.20877E+07         0.00000E+00
    0.20877E+07         0.13444E+08         0.00000E+00
    0.00000E+00         0.00000E+00         0.33841E+07
 
    0.34457E+07         0.21662E+07         0.00000E+00
    0.21662E+07         0.13459E+08         0.00000E+00
    0.00000E+00         0.00000E+00         0.33809E+07
 
    0.34161E+07         0.22456E+07         0.00000E+00
    0.22456E+07         0.13472E+08         0.00000E+00
    0.00000E+00         0.00000E+00         0.33777E+07
 
    0.33872E+07         0.23258E+07         0.00000E+00
    0.23258E+07         0.13486E+08         0.00000E+00
    0.00000E+00         0.00000E+00         0.33745E+07
 
    0.40778E+07         0.88909E+04         0.00000E+00
    0.88909E+04         0.12116E+08         0.00000E+00
    0.00000E+00         0.00000E+00         0.32389E+07
 
    0.41004E+07         0.27984E+05         0.00000E+00
    0.27984E+05         0.12118E+08         0.00000E+00
    0.00000E+00         0.00000E+00         0.32437E+07
 
    0.41196E+07         0.47761E+05         0.00000E+00
    0.47761E+05         0.12121E+08         0.00000E+00
    0.00000E+00         0.00000E+00         0.32481E+07
 
    0.41355E+07         0.68310E+05         0.00000E+00
    0.68310E+05         0.12125E+08         0.00000E+00
    0.00000E+00         0.00000E+00         0.32522E+07
 
    0.41482E+07         0.89712E+05         0.00000E+00
    0.89712E+05         0.12131E+08         0.00000E+00
    0.00000E+00         0.00000E+00         0.32558E+07
 
    0.41580E+07         0.11204E+06         0.00000E+00
    0.11204E+06         0.12138E+08         0.00000E+00
    0.00000E+00         0.00000E+00         0.32591E+07
 
    0.41648E+07         0.13537E+06         0.00000E+00
    0.13537E+06         0.12146E+08         0.00000E+00
    0.00000E+00         0.00000E+00         0.32621E+07
 
    0.41689E+07         0.15976E+06         0.00000E+00
    0.15976E+06         0.12155E+08         0.00000E+00
    0.00000E+00         0.00000E+00         0.32647E+07
 
    0.41704E+07         0.18526E+06         0.00000E+00
    0.18526E+06         0.12165E+08         0.00000E+00
    0.00000E+00         0.00000E+00         0.32671E+07
 
    0.41693E+07         0.21194E+06         0.00000E+00
    0.21194E+06         0.12176E+08         0.00000E+00
    0.00000E+00         0.00000E+00         0.32691E+07
 
    0.41657E+07         0.23984E+06         0.00000E+00
    0.23984E+06         0.12188E+08         0.00000E+00
    0.00000E+00         0.00000E+00         0.32708E+07
 
    0.41599E+07         0.26899E+06         0.00000E+00
    0.26899E+06         0.12201E+08         0.00000E+00
    0.00000E+00         0.00000E+00         0.32722E+07
 
    0.41520E+07         0.29945E+06         0.00000E+00
    0.29945E+06         0.12215E+08         0.00000E+00
    0.00000E+00         0.00000E+00         0.32733E+07
 
    0.41420E+07         0.33123E+06         0.00000E+00
    0.33123E+06         0.12229E+08         0.00000E+00
    0.00000E+00         0.00000E+00         0.32742E+07
 
    0.41300E+07         0.36438E+06         0.00000E+00
    0.36438E+06         0.12244E+08         0.00000E+00
    0.00000E+00         0.00000E+00         0.32749E+07
 
    0.41162E+07         0.39892E+06         0.00000E+00
    0.39892E+06         0.12260E+08         0.00000E+00
    0.00000E+00         0.00000E+00         0.32752E+07
 
    0.41008E+07         0.43486E+06         0.00000E+00
    0.43486E+06         0.12276E+08         0.00000E+00
    0.00000E+00         0.00000E+00         0.32754E+07
 
    0.40837E+07         0.47223E+06         0.00000E+00
    0.47223E+06         0.12293E+08         0.00000E+00
    0.00000E+00         0.00000E+00         0.32754E+07
 
    0.40651E+07         0.51103E+06         0.00000E+00
    0.51103E+06         0.12310E+08         0.00000E+00
    0.00000E+00         0.00000E+00         0.32751E+07
 
    0.40451E+07         0.55129E+06         0.00000E+00
    0.55129E+06         0.12328E+08         0.00000E+00
    0.00000E+00         0.00000E+00         0.32746E+07
 
    0.40239E+07         0.59300E+06         0.00000E+00
    0.59300E+06         0.12346E+08         0.00000E+00
    0.00000E+00         0.00000E+00         0.32740E+07
 
    0.40014E+07         0.63617E+06         0.00000E+00
    0.63617E+06         0.12364E+08         0.00000E+00
    0.00000E+00         0.00000E+00         0.32732E+07
 
    0.39779E+07         0.68080E+06         0.00000E+00
    0.68080E+06         0.12383E+08         0.00000E+00
    0.00000E+00         0.00000E+00         0.32722E+07
 
    0.39534E+07         0.72690E+06         0.00000E+00
    0.72690E+06         0.12402E+08         0.00000E+00
    0.00000E+00         0.00000E+00         0.32711E+07
 
    0.39280E+07         0.77446E+06         0.00000E+00
    0.77446E+06         0.12421E+08         0.00000E+00
    0.00000E+00         0.00000E+00         0.32698E+07
 
    0.39018E+07         0.82346E+06         0.00000E+00
    0.82346E+06         0.12440E+08         0.00000E+00
    0.00000E+00         0.00000E+00         0.32684E+07
 
    0.38749E+07         0.87392E+06         0.00000E+00
    0.87392E+06         0.12459E+08         0.00000E+00
    0.00000E+00         0.00000E+00         0.32668E+07
 
    0.38474E+07         0.92581E+06         0.00000E+00
    0.92581E+06         0.12478E+08         0.00000E+00
    0.00000E+00         0.00000E+00         0.32652E+07
 
    0.38193E+07         0.97912E+06         0.00000E+00
    0.97912E+06         0.12498E+08         0.00000E+00
    0.00000E+00         0.00000E+00         0.32634E+07
 
    0.37907E+07         0.10338E+07         0.00000E+00
    0.10338E+07         0.12517E+08         0.00000E+00
    0.00000E+00         0.00000E+00         0.32615E+07
 
    0.37618E+07         0.10899E+07         0.00000E+00
    0.10899E+07         0.12536E+08         0.00000E+00
    0.00000E+00         0.00000E+00         0.32595E+07
 
    0.37325E+07         0.11474E+07         0.00000E+00
    0.11474E+07         0.12555E+08         0.00000E+00
    0.00000E+00         0.00000E+00         0.32575E+07
 
    0.37031E+07         0.12063E+07         0.00000E+00
    0.12063E+07         0.12574E+08         0.00000E+00
    0.00000E+00         0.00000E+00         0.32553E+07
 
    0.36734E+07         0.12664E+07         0.00000E+00
    0.12664E+07         0.12592E+08         0.00000E+00
    0.00000E+00         0.00000E+00         0.32531E+07
 
    0.36437E+07         0.13279E+07         0.00000E+00
    0.13279E+07         0.12610E+08         0.00000E+00
    0.00000E+00         0.00000E+00         0.32508E+07
 
    0.36139E+07         0.13907E+07         0.00000E+00
    0.13907E+07         0.12629E+08         0.00000E+00
    0.00000E+00         0.00000E+00         0.32485E+07
 
    0.35841E+07         0.14547E+07         0.00000E+00
    0.14547E+07         0.12646E+08         0.00000E+00
    0.00000E+00         0.00000E+00         0.32461E+07
 
    0.35545E+07         0.15199E+07         0.00000E+00
    0.15199E+07         0.12664E+08         0.00000E+00
    0.00000E+00         0.00000E+00         0.32436E+07
 
    0.35250E+07         0.15864E+07         0.00000E+00
    0.15864E+07         0.12681E+08         0.00000E+00
    0.00000E+00         0.00000E+00         0.32412E+07
 
    0.34957E+07         0.16540E+07         0.00000E+00
    0.16540E+07         0.12697E+08         0.00000E+00
    0.00000E+00         0.00000E+00         0.32386E+07
 
    0.34666E+07         0.17227E+07         0.00000E+00
    0.17227E+07         0.12714E+08         0.00000E+00
    0.00000E+00         0.00000E+00         0.32361E+07
 
    0.34379E+07         0.17925E+07         0.00000E+00
    0.17925E+07         0.12730E+08         0.00000E+00
    0.00000E+00         0.00000E+00         0.32335E+07
 
    0.34094E+07         0.18634E+07         0.00000E+00
    0.18634E+07         0.12745E+08         0.00000E+00
    0.00000E+00         0.00000E+00         0.32309E+07
 
    0.33814E+07         0.19353E+07         0.00000E+00
    0.19353E+07         0.12760E+08         0.00000E+00
    0.00000E+00         0.00000E+00         0.32282E+07
 
    0.33538E+07         0.20082E+07         0.00000E+00
    0.20082E+07         0.12774E+08         0.00000E+00
    0.00000E+00         0.00000E+00         0.32256E+07
 
    0.33267E+07         0.20820E+07         0.00000E+00
    0.20820E+07         0.12788E+08         0.00000E+00
    0.00000E+00         0.00000E+00         0.32229E+07
 
    0.33000E+07         0.21567E+07         0.00000E+00
    0.21567E+07         0.12801E+08         0.00000E+00
    0.00000E+00         0.00000E+00         0.32202E+07
 
    0.32739E+07         0.22323E+07         0.00000E+00
    0.22323E+07         0.12814E+08         0.00000E+00
    0.00000E+00         0.00000E+00         0.32175E+07
 
    0.32482E+07         0.23086E+07         0.00000E+00
    0.23086E+07         0.12826E+08         0.00000E+00
    0.00000E+00         0.00000E+00         0.32148E+07
 
    0.32231E+07         0.23857E+07         0.00000E+00
    0.23857E+07         0.12837E+08         0.00000E+00
    0.00000E+00         0.00000E+00         0.32121E+07
 
    0.36517E+07         0.12522E+05         0.00000E+00
    0.12522E+05         0.11579E+08         0.00000E+00
    0.00000E+00         0.00000E+00         0.30461E+07
 
    0.36767E+07         0.38271E+05         0.00000E+00
    0.38271E+05         0.11580E+08         0.00000E+00
    0.00000E+00         0.00000E+00         0.30514E+07
 
    0.36988E+07         0.64438E+05         0.00000E+00
    0.64438E+05         0.11583E+08         0.00000E+00
    0.00000E+00         0.00000E+00         0.30563E+07
 
    0.37181E+07         0.91104E+05         0.00000E+00
    0.91104E+05         0.11587E+08         0.00000E+00
    0.00000E+00         0.00000E+00         0.30609E+07
 
    0.37346E+07         0.11835E+06         0.00000E+00
    0.11835E+06         0.11591E+08         0.00000E+00
    0.00000E+00         0.00000E+00         0.30652E+07
 
    0.37484E+07         0.14624E+06         0.00000E+00
    0.14624E+06         0.11597E+08         0.00000E+00
    0.00000E+00         0.00000E+00         0.30691E+07
 
    0.37597E+07         0.17485E+06         0.00000E+00
    0.17485E+06         0.11604E+08         0.00000E+00
    0.00000E+00         0.00000E+00         0.30727E+07
 
    0.37684E+07         0.20424E+06         0.00000E+00
    0.20424E+06         0.11612E+08         0.00000E+00
    0.00000E+00         0.00000E+00         0.30761E+07
 
    0.37748E+07         0.23446E+06         0.00000E+00
    0.23446E+06         0.11621E+08         0.00000E+00
    0.00000E+00         0.00000E+00         0.30791E+07
 
    0.37789E+07         0.26558E+06         0.00000E+00
    0.26558E+06         0.11630E+08         0.00000E+00
    0.00000E+00         0.00000E+00         0.30818E+07
 
    0.37809E+07         0.29763E+06         0.00000E+00
    0.29763E+06         0.11641E+08         0.00000E+00
    0.00000E+00         0.00000E+00         0.30843E+07
 
    0.37807E+07         0.33067E+06         0.00000E+00
    0.33067E+06         0.11652E+08         0.00000E+00
    0.00000E+00         0.00000E+00         0.30865E+07
 
    0.37786E+07         0.36473E+06         0.00000E+00
    0.36473E+06         0.11664E+08         0.00000E+00
    0.00000E+00         0.00000E+00         0.30885E+07
 
    0.37746E+07         0.39986E+06         0.00000E+00
    0.39986E+06         0.11676E+08         0.00000E+00
    0.00000E+00         0.00000E+00         0.30902E+07
 
    0.37688E+07         0.43607E+06         0.00000E+00
    0.43607E+06         0.11689E+08         0.00000E+00
    0.00000E+00         0.00000E+00         0.30916E+07
 
    0.37613E+07         0.47342E+06         0.00000E+00
    0.47342E+06         0.11703E+08         0.00000E+00
    0.00000E+00         0.00000E+00         0.30929E+07
 
    0.37521E+07         0.51191E+06         0.00000E+00
    0.51191E+06         0.11717E+08         0.00000E+00
    0.00000E+00         0.00000E+00         0.30939E+07
 
    0.37415E+07         0.55157E+06         0.00000E+00
    0.55157E+06         0.11732E+08         0.00000E+00
    0.00000E+00         0.00000E+00         0.30947E+07
 
    0.37295E+07         0.59242E+06         0.00000E+00
    0.59242E+06         0.11747E+08         0.00000E+00
    0.00000E+00         0.00000E+00         0.30953E+07
 
    0.37161E+07         0.63447E+06         0.00000E+00
    0.63447E+06         0.11763E+08         0.00000E+00
    0.00000E+00         0.00000E+00         0.30958E+07
 
    0.37015E+07         0.67775E+06         0.00000E+00
    0.67775E+06         0.11779E+08         0.00000E+00
    0.00000E+00         0.00000E+00         0.30960E+07
 
    0.36857E+07         0.72225E+06         0.00000E+00
    0.72225E+06         0.11795E+08         0.00000E+00
    0.00000E+00         0.00000E+00         0.30961E+07
 
    0.36689E+07         0.76799E+06         0.00000E+00
    0.76799E+06         0.11811E+08         0.00000E+00
    0.00000E+00         0.00000E+00         0.30960E+07
 
    0.36511E+07         0.81496E+06         0.00000E+00
    0.81496E+06         0.11828E+08         0.00000E+00
    0.00000E+00         0.00000E+00         0.30957E+07
 
    0.36324E+07         0.86319E+06         0.00000E+00
    0.86319E+06         0.11844E+08         0.00000E+00
    0.00000E+00         0.00000E+00         0.30953E+07
 
    0.36128E+07         0.91265E+06         0.00000E+00
    0.91265E+06         0.11861E+08         0.00000E+00
    0.00000E+00         0.00000E+00         0.30948E+07
 
    0.35925E+07         0.96335E+06         0.00000E+00
    0.96335E+06         0.11878E+08         0.00000E+00
    0.00000E+00         0.00000E+00         0.30941E+07
 
    0.35716E+07         0.10153E+07         0.00000E+00
    0.10153E+07         0.11895E+08         0.00000E+00
    0.00000E+00         0.00000E+00         0.30933E+07
 
    0.35500E+07         0.10685E+07         0.00000E+00
    0.10685E+07         0.11912E+08         0.00000E+00
    0.00000E+00         0.00000E+00         0.30923E+07
 
    0.35279E+07         0.11228E+07         0.00000E+00
    0.11228E+07         0.11929E+08         0.00000E+00
    0.00000E+00         0.00000E+00         0.30913E+07
 
    0.35054E+07         0.11784E+07         0.00000E+00
    0.11784E+07         0.11945E+08         0.00000E+00
    0.00000E+00         0.00000E+00         0.30901E+07
 
    0.34824E+07         0.12352E+07         0.00000E+00
    0.12352E+07         0.11962E+08         0.00000E+00
    0.00000E+00         0.00000E+00         0.30889E+07
 
    0.34592E+07         0.12932E+07         0.00000E+00
    0.12932E+07         0.11978E+08         0.00000E+00
    0.00000E+00         0.00000E+00         0.30875E+07
 
    0.34357E+07         0.13523E+07         0.00000E+00
    0.13523E+07         0.11995E+08         0.00000E+00
    0.00000E+00         0.00000E+00         0.30861E+07
 
    0.34119E+07         0.14126E+07         0.00000E+00
    0.14126E+07         0.12011E+08         0.00000E+00
    0.00000E+00         0.00000E+00         0.30846E+07
 
    0.33881E+07         0.14740E+07         0.00000E+00
    0.14740E+07         0.12027E+08         0.00000E+00
    0.00000E+00         0.00000E+00         0.30830E+07
 
    0.33641E+07         0.15365E+07         0.00000E+00
    0.15365E+07         0.12042E+08         0.00000E+00
    0.00000E+00         0.00000E+00         0.30813E+07
 
    0.33401E+07         0.16001E+07         0.00000E+00
    0.16001E+07         0.12058E+08         0.00000E+00
    0.00000E+00         0.00000E+00         0.30795E+07
 
    0.33161E+07         0.16648E+07         0.00000E+00
    0.16648E+07         0.12073E+08         0.00000E+00
    0.00000E+00         0.00000E+00         0.30777E+07
 
    0.32922E+07         0.17305E+07         0.00000E+00
    0.17305E+07         0.12087E+08         0.00000E+00
    0.00000E+00         0.00000E+00         0.30759E+07
 
    0.32684E+07         0.17972E+07         0.00000E+00
    0.17972E+07         0.12101E+08         0.00000E+00
    0.00000E+00         0.00000E+00         0.30739E+07
 
    0.32447E+07         0.18649E+07         0.00000E+00
    0.18649E+07         0.12115E+08         0.00000E+00
    0.00000E+00         0.00000E+00         0.30720E+07
 
    0.32212E+07         0.19335E+07         0.00000E+00
    0.19335E+07         0.12129E+08         0.00000E+00
    0.00000E+00         0.00000E+00         0.30699E+07
 
    0.31979E+07         0.20030E+07         0.00000E+00
    0.20030E+07         0.12141E+08         0.00000E+00
    0.00000E+00         0.00000E+00         0.30679E+07
 
    0.31748E+07         0.20735E+07         0.00000E+00
    0.20735E+07         0.12154E+08         0.00000E+00
    0.00000E+00         0.00000E+00         0.30657E+07
 
    0.31520E+07         0.21448E+07         0.00000E+00
    0.21448E+07         0.12166E+08         0.00000E+00
    0.00000E+00         0.00000E+00         0.30636E+07
 
    0.31295E+07         0.22169E+07         0.00000E+00
    0.22169E+07         0.12177E+08         0.00000E+00
    0.00000E+00         0.00000E+00         0.30614E+07
 
    0.31074E+07         0.22898E+07         0.00000E+00
    0.22898E+07         0.12188E+08         0.00000E+00
    0.00000E+00         0.00000E+00         0.30591E+07
 
    0.30855E+07         0.23635E+07         0.00000E+00
    0.23635E+07         0.12199E+08         0.00000E+00
    0.00000E+00         0.00000E+00         0.30569E+07
 
    0.30640E+07         0.24379E+07         0.00000E+00
    0.24379E+07         0.12209E+08         0.00000E+00
    0.00000E+00         0.00000E+00         0.30546E+07
 
    0.32749E+07         0.15569E+05         0.00000E+00
    0.15569E+05         0.11060E+08         0.00000E+00
    0.00000E+00         0.00000E+00         0.28669E+07
 
    0.33013E+07         0.46965E+05         0.00000E+00
    0.46965E+05         0.11061E+08         0.00000E+00
    0.00000E+00         0.00000E+00         0.28724E+07
 
    0.33252E+07         0.78577E+05         0.00000E+00
    0.78577E+05         0.11063E+08         0.00000E+00
    0.00000E+00         0.00000E+00         0.28776E+07
 
    0.33466E+07         0.11048E+06         0.00000E+00
    0.11048E+06         0.11066E+08         0.00000E+00
    0.00000E+00         0.00000E+00         0.28825E+07
 
    0.33656E+07         0.14274E+06         0.00000E+00
    0.14274E+06         0.11070E+08         0.00000E+00
    0.00000E+00         0.00000E+00         0.28871E+07
 
    0.33822E+07         0.17544E+06         0.00000E+00
    0.17544E+06         0.11075E+08         0.00000E+00
    0.00000E+00         0.00000E+00         0.28915E+07
 
    0.33966E+07         0.20863E+06         0.00000E+00
    0.20863E+06         0.11081E+08         0.00000E+00
    0.00000E+00         0.00000E+00         0.28955E+07
 
    0.34088E+07         0.24237E+06         0.00000E+00
    0.24237E+06         0.11087E+08         0.00000E+00
    0.00000E+00         0.00000E+00         0.28993E+07
 
    0.34189E+07         0.27672E+06         0.00000E+00
    0.27672E+06         0.11095E+08         0.00000E+00
    0.00000E+00         0.00000E+00         0.29028E+07
 
    0.34270E+07         0.31173E+06         0.00000E+00
    0.31173E+06         0.11103E+08         0.00000E+00
    0.00000E+00         0.00000E+00         0.29060E+07
 
    0.34331E+07         0.34745E+06         0.00000E+00
    0.34745E+06         0.11112E+08         0.00000E+00
    0.00000E+00         0.00000E+00         0.29090E+07
 
    0.34374E+07         0.38392E+06         0.00000E+00
    0.38392E+06         0.11121E+08         0.00000E+00
    0.00000E+00         0.00000E+00         0.29118E+07
 
    0.34398E+07         0.42118E+06         0.00000E+00
    0.42118E+06         0.11132E+08         0.00000E+00
    0.00000E+00         0.00000E+00         0.29143E+07
 
    0.34406E+07         0.45928E+06         0.00000E+00
    0.45928E+06         0.11142E+08         0.00000E+00
    0.00000E+00         0.00000E+00         0.29166E+07
 
    0.34397E+07         0.49824E+06         0.00000E+00
    0.49824E+06         0.11154E+08         0.00000E+00
    0.00000E+00         0.00000E+00         0.29187E+07
 
    0.34372E+07         0.53810E+06         0.00000E+00
    0.53810E+06         0.11165E+08         0.00000E+00
    0.00000E+00         0.00000E+00         0.29205E+07
 
    0.34333E+07         0.57888E+06         0.00000E+00
    0.57888E+06         0.11178E+08         0.00000E+00
    0.00000E+00         0.00000E+00         0.29222E+07
 
    0.34279E+07         0.62061E+06         0.00000E+00
    0.62061E+06         0.11190E+08         0.00000E+00
    0.00000E+00         0.00000E+00         0.29237E+07
 
    0.34213E+07         0.66331E+06         0.00000E+00
    0.66331E+06         0.11203E+08         0.00000E+00
    0.00000E+00         0.00000E+00         0.29249E+07
 
    0.34134E+07         0.70701E+06         0.00000E+00
    0.70701E+06         0.11217E+08         0.00000E+00
    0.00000E+00         0.00000E+00         0.29260E+07
 
    0.34043E+07         0.75170E+06         0.00000E+00
    0.75170E+06         0.11230E+08         0.00000E+00
    0.00000E+00         0.00000E+00         0.29269E+07
 
    0.33941E+07         0.79742E+06         0.00000E+00
    0.79742E+06         0.11244E+08         0.00000E+00
    0.00000E+00         0.00000E+00         0.29277E+07
 
    0.33829E+07         0.84417E+06         0.00000E+00
    0.84417E+06         0.11258E+08         0.00000E+00
    0.00000E+00         0.00000E+00         0.29283E+07
 
    0.33707E+07         0.89196E+06         0.00000E+00
    0.89196E+06         0.11273E+08         0.00000E+00
    0.00000E+00         0.00000E+00         0.29287E+07
 
    0.33577E+07         0.94079E+06         0.00000E+00
    0.94079E+06         0.11287E+08         0.00000E+00
    0.00000E+00         0.00000E+00         0.29290E+07
 
    0.33438E+07         0.99068E+06         0.00000E+00
    0.99068E+06         0.11302E+08         0.00000E+00
    0.00000E+00         0.00000E+00         0.29291E+07
 
    0.33292E+07         0.10416E+07         0.00000E+00
    0.10416E+07         0.11316E+08         0.00000E+00
    0.00000E+00         0.00000E+00         0.29291E+07
 
    0.33139E+07         0.10936E+07         0.00000E+00
    0.10936E+07         0.11331E+08         0.00000E+00
    0.00000E+00         0.00000E+00         0.29290E+07
 
    0.32979E+07         0.11466E+07         0.00000E+00
    0.11466E+07         0.11346E+08         0.00000E+00
    0.00000E+00         0.00000E+00         0.29287E+07
 
    0.32814E+07         0.12007E+07         0.00000E+00
    0.12007E+07         0.11360E+08         0.00000E+00
    0.00000E+00         0.00000E+00         0.29283E+07
 
    0.32644E+07         0.12559E+07         0.00000E+00
    0.12559E+07         0.11375E+08         0.00000E+00
    0.00000E+00         0.00000E+00         0.29278E+07
 
    0.32470E+07         0.13120E+07         0.00000E+00
    0.13120E+07         0.11389E+08         0.00000E+00
    0.00000E+00         0.00000E+00         0.29272E+07
 
    0.32291E+07         0.13692E+07         0.00000E+00
    0.13692E+07         0.11403E+08         0.00000E+00
    0.00000E+00         0.00000E+00         0.29265E+07
 
    0.32110E+07         0.14274E+07         0.00000E+00
    0.14274E+07         0.11418E+08         0.00000E+00
    0.00000E+00         0.00000E+00         0.29257E+07
 
    0.31925E+07         0.14866E+07         0.00000E+00
    0.14866E+07         0.11432E+08         0.00000E+00
    0.00000E+00         0.00000E+00         0.29248E+07
 
    0.31739E+07         0.15468E+07         0.00000E+00
    0.15468E+07         0.11445E+08         0.00000E+00
    0.00000E+00         0.00000E+00         0.29238E+07
 
    0.31550E+07         0.16079E+07         0.00000E+00
    0.16079E+07         0.11459E+08         0.00000E+00
    0.00000E+00         0.00000E+00         0.29227E+07
 
    0.31360E+07         0.16700E+07         0.00000E+00
    0.16700E+07         0.11472E+08         0.00000E+00
    0.00000E+00         0.00000E+00         0.29216E+07
 
    0.31169E+07         0.17331E+07         0.00000E+00
    0.17331E+07         0.11485E+08         0.00000E+00
    0.00000E+00         0.00000E+00         0.29204E+07
 
    0.30978E+07         0.17970E+07         0.00000E+00
    0.17970E+07         0.11497E+08         0.00000E+00
    0.00000E+00         0.00000E+00         0.29190E+07
 
    0.30786E+07         0.18619E+07         0.00000E+00
    0.18619E+07         0.11510E+08         0.00000E+00
    0.00000E+00         0.00000E+00         0.29177E+07
 
    0.30594E+07         0.19276E+07         0.00000E+00
    0.19276E+07         0.11522E+08         0.00000E+00
    0.00000E+00         0.00000E+00         0.29162E+07
 
    0.30404E+07         0.19942E+07         0.00000E+00
    0.19942E+07         0.11533E+08         0.00000E+00
    0.00000E+00         0.00000E+00         0.29147E+07
 
    0.30213E+07         0.20616E+07         0.00000E+00
    0.20616E+07         0.11544E+08         0.00000E+00
    0.00000E+00         0.00000E+00         0.29131E+07
 
    0.30024E+07         0.21299E+07         0.00000E+00
    0.21299E+07         0.11555E+08         0.00000E+00
    0.00000E+00         0.00000E+00         0.29115E+07
 
    0.29837E+07         0.21989E+07         0.00000E+00
    0.21989E+07         0.11565E+08         0.00000E+00
    0.00000E+00         0.00000E+00         0.29098E+07
 
    0.29651E+07         0.22687E+07         0.00000E+00
    0.22687E+07         0.11575E+08         0.00000E+00
    0.00000E+00         0.00000E+00         0.29080E+07
 
    0.29466E+07         0.23392E+07         0.00000E+00
    0.23392E+07         0.11584E+08         0.00000E+00
    0.00000E+00         0.00000E+00         0.29062E+07
 
    0.29284E+07         0.24105E+07         0.00000E+00
    0.24105E+07         0.11593E+08         0.00000E+00
    0.00000E+00         0.00000E+00         0.29043E+07
 
    0.29104E+07         0.24824E+07         0.00000E+00
    0.24824E+07         0.11602E+08         0.00000E+00
    0.00000E+00         0.00000E+00         0.29024E+07
 
    0.29417E+07         0.18094E+05         0.00000E+00
    0.18094E+05         0.10558E+08         0.00000E+00
    0.00000E+00         0.00000E+00         0.26999E+07
 
    0.29686E+07         0.54217E+05         0.00000E+00
    0.54217E+05         0.10559E+08         0.00000E+00
    0.00000E+00         0.00000E+00         0.27054E+07
 
    0.29933E+07         0.90406E+05         0.00000E+00
    0.90406E+05         0.10560E+08         0.00000E+00
    0.00000E+00         0.00000E+00         0.27107E+07
 
    0.30159E+07         0.12673E+06         0.00000E+00
    0.12673E+06         0.10563E+08         0.00000E+00
    0.00000E+00         0.00000E+00         0.27158E+07
 
    0.30364E+07         0.16325E+06         0.00000E+00
    0.16325E+06         0.10566E+08         0.00000E+00
    0.00000E+00         0.00000E+00         0.27205E+07
 
    0.30549E+07         0.20003E+06         0.00000E+00
    0.20003E+06         0.10570E+08         0.00000E+00
    0.00000E+00         0.00000E+00         0.27250E+07
 
    0.30715E+07         0.23713E+06         0.00000E+00
    0.23713E+06         0.10575E+08         0.00000E+00
    0.00000E+00         0.00000E+00         0.27293E+07
 
    0.30861E+07         0.27461E+06         0.00000E+00
    0.27461E+06         0.10581E+08         0.00000E+00
    0.00000E+00         0.00000E+00         0.27334E+07
 
    0.30989E+07         0.31251E+06         0.00000E+00
    0.31251E+06         0.10587E+08         0.00000E+00
    0.00000E+00         0.00000E+00         0.27372E+07
 
    0.31098E+07         0.35088E+06         0.00000E+00
    0.35088E+06         0.10594E+08         0.00000E+00
    0.00000E+00         0.00000E+00         0.27407E+07
 
    0.31191E+07         0.38978E+06         0.00000E+00
    0.38978E+06         0.10601E+08         0.00000E+00
    0.00000E+00         0.00000E+00         0.27441E+07
 
    0.31267E+07         0.42923E+06         0.00000E+00
    0.42923E+06         0.10609E+08         0.00000E+00
    0.00000E+00         0.00000E+00         0.27472E+07
 
    0.31327E+07         0.46929E+06         0.00000E+00
    0.46929E+06         0.10618E+08         0.00000E+00
    0.00000E+00         0.00000E+00         0.27501E+07
 
    0.31372E+07         0.50999E+06         0.00000E+00
    0.50999E+06         0.10627E+08         0.00000E+00
    0.00000E+00         0.00000E+00         0.27528E+07
 
    0.31401E+07         0.55136E+06         0.00000E+00
    0.55136E+06         0.10636E+08         0.00000E+00
    0.00000E+00         0.00000E+00         0.27553E+07
 
    0.31417E+07         0.59344E+06         0.00000E+00
    0.59344E+06         0.10646E+08         0.00000E+00
    0.00000E+00         0.00000E+00         0.27576E+07
 
    0.31419E+07         0.63625E+06         0.00000E+00
    0.63625E+06         0.10657E+08         0.00000E+00
    0.00000E+00         0.00000E+00         0.27597E+07
 
    0.31409E+07         0.67981E+06         0.00000E+00
    0.67981E+06         0.10667E+08         0.00000E+00
    0.00000E+00         0.00000E+00         0.27617E+07
 
    0.31386E+07         0.72416E+06         0.00000E+00
    0.72416E+06         0.10679E+08         0.00000E+00
    0.00000E+00         0.00000E+00         0.27634E+07
 
    0.31352E+07         0.76931E+06         0.00000E+00
    0.76931E+06         0.10690E+08         0.00000E+00
    0.00000E+00         0.00000E+00         0.27650E+07
 
    0.31307E+07         0.81528E+06         0.00000E+00
    0.81528E+06         0.10701E+08         0.00000E+00
    0.00000E+00         0.00000E+00         0.27664E+07
 
    0.31251E+07         0.86209E+06         0.00000E+00
    0.86209E+06         0.10713E+08         0.00000E+00
    0.00000E+00         0.00000E+00         0.27677E+07
 
    0.31186E+07         0.90975E+06         0.00000E+00
    0.90975E+06         0.10725E+08         0.00000E+00
    0.00000E+00         0.00000E+00         0.27688E+07
 
    0.31111E+07         0.95827E+06         0.00000E+00
    0.95827E+06         0.10738E+08         0.00000E+00
    0.00000E+00         0.00000E+00         0.27697E+07
 
    0.31028E+07         0.10077E+07         0.00000E+00
    0.10077E+07         0.10750E+08         0.00000E+00
    0.00000E+00         0.00000E+00         0.27705E+07
 
    0.30937E+07         0.10579E+07         0.00000E+00
    0.10579E+07         0.10762E+08         0.00000E+00
    0.00000E+00         0.00000E+00         0.27712E+07
 
    0.30839E+07         0.11091E+07         0.00000E+00
    0.11091E+07         0.10775E+08         0.00000E+00
    0.00000E+00         0.00000E+00         0.27717E+07
 
    0.30734E+07         0.11611E+07         0.00000E+00
    0.11611E+07         0.10787E+08         0.00000E+00
    0.00000E+00         0.00000E+00         0.27721E+07
 
    0.30622E+07         0.12141E+07         0.00000E+00
    0.12141E+07         0.10800E+08         0.00000E+00
    0.00000E+00         0.00000E+00         0.27724E+07
 
    0.30505E+07         0.12679E+07         0.00000E+00
    0.12679E+07         0.10812E+08         0.00000E+00
    0.00000E+00         0.00000E+00         0.27726E+07
 
    0.30383E+07         0.13226E+07         0.00000E+00
    0.13226E+07         0.10825E+08         0.00000E+00
    0.00000E+00         0.00000E+00         0.27726E+07
 
    0.30256E+07         0.13782E+07         0.00000E+00
    0.13782E+07         0.10837E+08         0.00000E+00
    0.00000E+00         0.00000E+00         0.27725E+07
 
    0.30124E+07         0.14347E+07         0.00000E+00
    0.14347E+07         0.10849E+08         0.00000E+00
    0.00000E+00         0.00000E+00         0.27723E+07
 
    0.29989E+07         0.14921E+07         0.00000E+00
    0.14921E+07         0.10861E+08         0.00000E+00
    0.00000E+00         0.00000E+00         0.27720E+07
 
    0.29851E+07         0.15503E+07         0.00000E+00
    0.15503E+07         0.10873E+08         0.00000E+00
    0.00000E+00         0.00000E+00         0.27716E+07
 
    0.29709E+07         0.16094E+07         0.00000E+00
    0.16094E+07         0.10885E+08         0.00000E+00
    0.00000E+00         0.00000E+00         0.27711E+07
 
    0.29565E+07         0.16693E+07         0.00000E+00
    0.16693E+07         0.10896E+08         0.00000E+00
    0.00000E+00         0.00000E+00         0.27706E+07
 
    0.29419E+07         0.17301E+07         0.00000E+00
    0.17301E+07         0.10908E+08         0.00000E+00
    0.00000E+00         0.00000E+00         0.27699E+07
 
    0.29272E+07         0.17917E+07         0.00000E+00
    0.17917E+07         0.10919E+08         0.00000E+00
    0.00000E+00         0.00000E+00         0.27691E+07
 
    0.29123E+07         0.18541E+07         0.00000E+00
    0.18541E+07         0.10929E+08         0.00000E+00
    0.00000E+00         0.00000E+00         0.27683E+07
 
    0.28973E+07         0.19173E+07         0.00000E+00
    0.19173E+07         0.10940E+08         0.00000E+00
    0.00000E+00         0.00000E+00         0.27674E+07
 
    0.28822E+07         0.19813E+07         0.00000E+00
    0.19813E+07         0.10950E+08         0.00000E+00
    0.00000E+00         0.00000E+00         0.27664E+07
 
    0.28671E+07         0.20460E+07         0.00000E+00
    0.20460E+07         0.10959E+08         0.00000E+00
    0.00000E+00         0.00000E+00         0.27653E+07
 
    0.28520E+07         0.21116E+07         0.00000E+00
    0.21116E+07         0.10969E+08         0.00000E+00
    0.00000E+00         0.00000E+00         0.27641E+07
 
    0.28369E+07         0.21778E+07         0.00000E+00
    0.21778E+07         0.10978E+08         0.00000E+00
    0.00000E+00         0.00000E+00         0.27629E+07
 
    0.28219E+07         0.22448E+07         0.00000E+00
    0.22448E+07         0.10986E+08         0.00000E+00
    0.00000E+00         0.00000E+00         0.27616E+07
 
    0.28068E+07         0.23125E+07         0.00000E+00
    0.23125E+07         0.10995E+08         0.00000E+00
    0.00000E+00         0.00000E+00         0.27603E+07
 
    0.27919E+07         0.23808E+07         0.00000E+00
    0.23808E+07         0.11002E+08         0.00000E+00
    0.00000E+00         0.00000E+00         0.27588E+07
 
    0.27771E+07         0.24499E+07         0.00000E+00
    0.24499E+07         0.11010E+08         0.00000E+00
    0.00000E+00         0.00000E+00         0.27573E+07
 
    0.27623E+07         0.25196E+07         0.00000E+00
    0.25196E+07         0.11017E+08         0.00000E+00
    0.00000E+00         0.00000E+00         0.27558E+07
 
    0.26465E+07         0.20161E+05         0.00000E+00
    0.20161E+05         0.10072E+08         0.00000E+00
    0.00000E+00         0.00000E+00         0.25437E+07
 
    0.26733E+07         0.60191E+05         0.00000E+00
    0.60191E+05         0.10073E+08         0.00000E+00
    0.00000E+00         0.00000E+00         0.25492E+07
 
    0.26982E+07         0.10018E+06         0.00000E+00
    0.10018E+06         0.10074E+08         0.00000E+00
    0.00000E+00         0.00000E+00         0.25544E+07
 
    0.27213E+07         0.14019E+06         0.00000E+00
    0.14019E+06         0.10076E+08         0.00000E+00
    0.00000E+00         0.00000E+00         0.25595E+07
 
    0.27427E+07         0.18027E+06         0.00000E+00
    0.18027E+06         0.10079E+08         0.00000E+00
    0.00000E+00         0.00000E+00         0.25643E+07
 
    0.27623E+07         0.22048E+06         0.00000E+00
    0.22048E+06         0.10082E+08         0.00000E+00
    0.00000E+00         0.00000E+00         0.25689E+07
 
    0.27802E+07         0.26088E+06         0.00000E+00
    0.26088E+06         0.10086E+08         0.00000E+00
    0.00000E+00         0.00000E+00         0.25733E+07
 
    0.27964E+07         0.30151E+06         0.00000E+00
    0.30151E+06         0.10091E+08         0.00000E+00
    0.00000E+00         0.00000E+00         0.25774E+07
 
    0.28110E+07         0.34242E+06         0.00000E+00
    0.34242E+06         0.10096E+08         0.00000E+00
    0.00000E+00         0.00000E+00         0.25814E+07
 
    0.28241E+07         0.38366E+06         0.00000E+00
    0.38366E+06         0.10101E+08         0.00000E+00
    0.00000E+00         0.00000E+00         0.25851E+07
 
    0.28357E+07         0.42527E+06         0.00000E+00
    0.42527E+06         0.10108E+08         0.00000E+00
    0.00000E+00         0.00000E+00         0.25887E+07
 
    0.28457E+07         0.46728E+06         0.00000E+00
    0.46728E+06         0.10114E+08         0.00000E+00
    0.00000E+00         0.00000E+00         0.25920E+07
 
    0.28544E+07         0.50974E+06         0.00000E+00
    0.50974E+06         0.10121E+08         0.00000E+00
    0.00000E+00         0.00000E+00         0.25952E+07
 
    0.28617E+07         0.55268E+06         0.00000E+00
    0.55268E+06         0.10129E+08         0.00000E+00
    0.00000E+00         0.00000E+00         0.25981E+07
 
    0.28677E+07         0.59613E+06         0.00000E+00
    0.59613E+06         0.10137E+08         0.00000E+00
    0.00000E+00         0.00000E+00         0.26009E+07
 
    0.28724E+07         0.64013E+06         0.00000E+00
    0.64013E+06         0.10145E+08         0.00000E+00
    0.00000E+00         0.00000E+00         0.26035E+07
 
    0.28759E+07         0.68470E+06         0.00000E+00
    0.68470E+06         0.10154E+08         0.00000E+00
    0.00000E+00         0.00000E+00         0.26060E+07
 
    0.28783E+07         0.72987E+06         0.00000E+00
    0.72987E+06         0.10163E+08         0.00000E+00
    0.00000E+00         0.00000E+00         0.26082E+07
 
    0.28795E+07         0.77565E+06         0.00000E+00
    0.77565E+06         0.10172E+08         0.00000E+00
    0.00000E+00         0.00000E+00         0.26103E+07
 
    0.28797E+07         0.82208E+06         0.00000E+00
    0.82208E+06         0.10182E+08         0.00000E+00
    0.00000E+00         0.00000E+00         0.26123E+07
 
    0.28789E+07         0.86917E+06         0.00000E+00
    0.86917E+06         0.10191E+08         0.00000E+00
    0.00000E+00         0.00000E+00         0.26141E+07
 
    0.28771E+07         0.91694E+06         0.00000E+00
    0.91694E+06         0.10201E+08         0.00000E+00
    0.00000E+00         0.00000E+00         0.26157E+07
 
    0.28744E+07         0.96540E+06         0.00000E+00
    0.96540E+06         0.10211E+08         0.00000E+00
    0.00000E+00         0.00000E+00         0.26172E+07
 
    0.28709E+07         0.10146E+07         0.00000E+00
    0.10146E+07         0.10222E+08         0.00000E+00
    0.00000E+00         0.00000E+00         0.26185E+07
 
    0.28666E+07         0.10645E+07         0.00000E+00
    0.10645E+07         0.10232E+08         0.00000E+00
    0.00000E+00         0.00000E+00         0.26197E+07
 
    0.28615E+07         0.11151E+07         0.00000E+00
    0.11151E+07         0.10242E+08         0.00000E+00
    0.00000E+00         0.00000E+00         0.26208E+07
 
    0.28557E+07         0.11664E+07         0.00000E+00
    0.11664E+07         0.10253E+08         0.00000E+00
    0.00000E+00         0.00000E+00         0.26217E+07
 
    0.28492E+07         0.12185E+07         0.00000E+00
    0.12185E+07         0.10263E+08         0.00000E+00
    0.00000E+00         0.00000E+00         0.26225E+07
 
    0.28421E+07         0.12714E+07         0.00000E+00
    0.12714E+07         0.10274E+08         0.00000E+00
    0.00000E+00         0.00000E+00         0.26232E+07
 
    0.28345E+07         0.13250E+07         0.00000E+00
    0.13250E+07         0.10284E+08         0.00000E+00
    0.00000E+00         0.00000E+00         0.26238E+07
 
    0.28263E+07         0.13794E+07         0.00000E+00
    0.13794E+07         0.10295E+08         0.00000E+00
    0.00000E+00         0.00000E+00         0.26242E+07
 
    0.28176E+07         0.14345E+07         0.00000E+00
    0.14345E+07         0.10305E+08         0.00000E+00
    0.00000E+00         0.00000E+00         0.26246E+07
 
    0.28085E+07         0.14903E+07         0.00000E+00
    0.14903E+07         0.10316E+08         0.00000E+00
    0.00000E+00         0.00000E+00         0.26248E+07
 
    0.27990E+07         0.15469E+07         0.00000E+00
    0.15469E+07         0.10326E+08         0.00000E+00
    0.00000E+00         0.00000E+00         0.26249E+07
 
    0.27892E+07         0.16043E+07         0.00000E+00
    0.16043E+07         0.10336E+08         0.00000E+00
    0.00000E+00         0.00000E+00         0.26250E+07
 
    0.27790E+07         0.16624E+07         0.00000E+00
    0.16624E+07         0.10345E+08         0.00000E+00
    0.00000E+00         0.00000E+00         0.26249E+07
 
    0.27685E+07         0.17213E+07         0.00000E+00
    0.17213E+07         0.10355E+08         0.00000E+00
    0.00000E+00         0.00000E+00         0.26247E+07
 
    0.27578E+07         0.17808E+07         0.00000E+00
    0.17808E+07         0.10364E+08         0.00000E+00
    0.00000E+00         0.00000E+00         0.26244E+07
 
    0.27469E+07         0.18412E+07         0.00000E+00
    0.18412E+07         0.10374E+08         0.00000E+00
    0.00000E+00         0.00000E+00         0.26241E+07
 
    0.27357E+07         0.19022E+07         0.00000E+00
    0.19022E+07         0.10383E+08         0.00000E+00
    0.00000E+00         0.00000E+00         0.26237E+07
 
    0.27245E+07         0.19639E+07         0.00000E+00
    0.19639E+07         0.10391E+08         0.00000E+00
    0.00000E+00         0.00000E+00         0.26231E+07
 
    0.27130E+07         0.20263E+07         0.00000E+00
    0.20263E+07         0.10400E+08         0.00000E+00
    0.00000E+00         0.00000E+00         0.26225E+07
 
    0.27015E+07         0.20895E+07         0.00000E+00
    0.20895E+07         0.10408E+08         0.00000E+00
    0.00000E+00         0.00000E+00         0.26218E+07
 
    0.26899E+07         0.21533E+07         0.00000E+00
    0.21533E+07         0.10415E+08         0.00000E+00
    0.00000E+00         0.00000E+00         0.26211E+07
 
    0.26783E+07         0.22177E+07         0.00000E+00
    0.22177E+07         0.10423E+08         0.00000E+00
    0.00000E+00         0.00000E+00         0.26202E+07
 
    0.26666E+07         0.22828E+07         0.00000E+00
    0.22828E+07         0.10430E+08         0.00000E+00
    0.00000E+00         0.00000E+00         0.26193E+07
 
    0.26550E+07         0.23486E+07         0.00000E+00
    0.23486E+07         0.10436E+08         0.00000E+00
    0.00000E+00         0.00000E+00         0.26183E+07
 
    0.26433E+07         0.24150E+07         0.00000E+00
    0.24150E+07         0.10443E+08         0.00000E+00
    0.00000E+00         0.00000E+00         0.26172E+07
 
    0.26316E+07         0.24821E+07         0.00000E+00
    0.24821E+07         0.10449E+08         0.00000E+00
    0.00000E+00         0.00000E+00         0.26161E+07
 
    0.26200E+07         0.25497E+07         0.00000E+00
    0.25497E+07         0.10454E+08         0.00000E+00
    0.00000E+00         0.00000E+00         0.26149E+07
 
    0.23846E+07         0.21831E+05         0.00000E+00
    0.21831E+05         0.96012E+07         0.00000E+00
    0.00000E+00         0.00000E+00         0.23972E+07
 
    0.24108E+07         0.65050E+05         0.00000E+00
    0.65050E+05         0.96018E+07         0.00000E+00
    0.00000E+00         0.00000E+00         0.24025E+07
 
    0.24355E+07         0.10815E+06         0.00000E+00
    0.10815E+06         0.96030E+07         0.00000E+00
    0.00000E+00         0.00000E+00         0.24077E+07
 
    0.24586E+07         0.15119E+06         0.00000E+00
    0.15119E+06         0.96046E+07         0.00000E+00
    0.00000E+00         0.00000E+00         0.24127E+07
 
    0.24802E+07         0.19421E+06         0.00000E+00
    0.19421E+06         0.96069E+07         0.00000E+00
    0.00000E+00         0.00000E+00         0.24174E+07
 
    0.25003E+07         0.23727E+06         0.00000E+00
    0.23727E+06         0.96096E+07         0.00000E+00
    0.00000E+00         0.00000E+00         0.24220E+07
 
    0.25190E+07         0.28041E+06         0.00000E+00
    0.28041E+06         0.96128E+07         0.00000E+00
    0.00000E+00         0.00000E+00         0.24264E+07
 
    0.25362E+07         0.32367E+06         0.00000E+00
    0.32367E+06         0.96165E+07         0.00000E+00
    0.00000E+00         0.00000E+00         0.24306E+07
 
    0.25521E+07         0.36710E+06         0.00000E+00
    0.36710E+06         0.96207E+07         0.00000E+00
    0.00000E+00         0.00000E+00         0.24346E+07
 
    0.25666E+07         0.41075E+06         0.00000E+00
    0.41075E+06         0.96253E+07         0.00000E+00
    0.00000E+00         0.00000E+00         0.24384E+07
 
    0.25797E+07         0.45464E+06         0.00000E+00
    0.45464E+06         0.96304E+07         0.00000E+00
    0.00000E+00         0.00000E+00         0.24420E+07
 
    0.25916E+07         0.49881E+06         0.00000E+00
    0.49881E+06         0.96358E+07         0.00000E+00
    0.00000E+00         0.00000E+00         0.24455E+07
 
    0.26022E+07         0.54330E+06         0.00000E+00
    0.54330E+06         0.96417E+07         0.00000E+00
    0.00000E+00         0.00000E+00         0.24488E+07
 
    0.26117E+07         0.58814E+06         0.00000E+00
    0.58814E+06         0.96479E+07         0.00000E+00
    0.00000E+00         0.00000E+00         0.24519E+07
 
    0.26199E+07         0.63337E+06         0.00000E+00
    0.63337E+06         0.96544E+07         0.00000E+00
    0.00000E+00         0.00000E+00         0.24549E+07
 
    0.26271E+07         0.67901E+06         0.00000E+00
    0.67901E+06         0.96612E+07         0.00000E+00
    0.00000E+00         0.00000E+00         0.24577E+07
 
    0.26332E+07         0.72508E+06         0.00000E+00
    0.72508E+06         0.96684E+07         0.00000E+00
    0.00000E+00         0.00000E+00         0.24603E+07
 
    0.26382E+07         0.77162E+06         0.00000E+00
    0.77162E+06         0.96758E+07         0.00000E+00
    0.00000E+00         0.00000E+00         0.24628E+07
 
    0.26422E+07         0.81864E+06         0.00000E+00
    0.81864E+06         0.96834E+07         0.00000E+00
    0.00000E+00         0.00000E+00         0.24651E+07
 
    0.26453E+07         0.86617E+06         0.00000E+00
    0.86617E+06         0.96913E+07         0.00000E+00
    0.00000E+00         0.00000E+00         0.24673E+07
 
    0.26474E+07         0.91422E+06         0.00000E+00
    0.91422E+06         0.96993E+07         0.00000E+00
    0.00000E+00         0.00000E+00         0.24694E+07
 
    0.26487E+07         0.96282E+06         0.00000E+00
    0.96282E+06         0.97075E+07         0.00000E+00
    0.00000E+00         0.00000E+00         0.24713E+07
 
    0.26492E+07         0.10120E+07         0.00000E+00
    0.10120E+07         0.97159E+07         0.00000E+00
    0.00000E+00         0.00000E+00         0.24730E+07
 
    0.26488E+07         0.10617E+07         0.00000E+00
    0.10617E+07         0.97244E+07         0.00000E+00
    0.00000E+00         0.00000E+00         0.24746E+07
 
    0.26478E+07         0.11120E+07         0.00000E+00
    0.11120E+07         0.97329E+07         0.00000E+00
    0.00000E+00         0.00000E+00         0.24761E+07
 
    0.26460E+07         0.11630E+07         0.00000E+00
    0.11630E+07         0.97416E+07         0.00000E+00
    0.00000E+00         0.00000E+00         0.24775E+07
 
    0.26435E+07         0.12145E+07         0.00000E+00
    0.12145E+07         0.97503E+07         0.00000E+00
    0.00000E+00         0.00000E+00         0.24788E+07
 
    0.26404E+07         0.12666E+07         0.00000E+00
    0.12666E+07         0.97590E+07         0.00000E+00
    0.00000E+00         0.00000E+00         0.24799E+07
 
    0.26368E+07         0.13194E+07         0.00000E+00
    0.13194E+07         0.97677E+07         0.00000E+00
    0.00000E+00         0.00000E+00         0.24809E+07
 
    0.26325E+07         0.13728E+07         0.00000E+00
    0.13728E+07         0.97764E+07         0.00000E+00
    0.00000E+00         0.00000E+00         0.24818E+07
 
    0.26278E+07         0.14268E+07         0.00000E+00
    0.14268E+07         0.97850E+07         0.00000E+00
    0.00000E+00         0.00000E+00         0.24826E+07
 
    0.26226E+07         0.14815E+07         0.00000E+00
    0.14815E+07         0.97936E+07         0.00000E+00
    0.00000E+00         0.00000E+00         0.24832E+07
 
    0.26170E+07         0.15368E+07         0.00000E+00
    0.15368E+07         0.98020E+07         0.00000E+00
    0.00000E+00         0.00000E+00         0.24838E+07
 
    0.26109E+07         0.15928E+07         0.00000E+00
    0.15928E+07         0.98104E+07         0.00000E+00
    0.00000E+00         0.00000E+00         0.24843E+07
 
    0.26045E+07         0.16494E+07         0.00000E+00
    0.16494E+07         0.98186E+07         0.00000E+00
    0.00000E+00         0.00000E+00         0.24846E+07
 
    0.25977E+07         0.17066E+07         0.00000E+00
    0.17066E+07         0.98267E+07         0.00000E+00
    0.00000E+00         0.00000E+00         0.24849E+07
 
    0.25907E+07         0.17645E+07         0.00000E+00
    0.17645E+07         0.98346E+07         0.00000E+00
    0.00000E+00         0.00000E+00         0.24851E+07
 
    0.25833E+07         0.18230E+07         0.00000E+00
    0.18230E+07         0.98423E+07         0.00000E+00
    0.00000E+00         0.00000E+00         0.24851E+07
 
    0.25758E+07         0.18822E+07         0.00000E+00
    0.18822E+07         0.98499E+07         0.00000E+00
    0.00000E+00         0.00000E+00         0.24851E+07
 
    0.25680E+07         0.19420E+07         0.00000E+00
    0.19420E+07         0.98571E+07         0.00000E+00
    0.00000E+00         0.00000E+00         0.24850E+07
 
    0.25600E+07         0.20024E+07         0.00000E+00
    0.20024E+07         0.98642E+07         0.00000E+00
    0.00000E+00         0.00000E+00         0.24848E+07
 
    0.25518E+07         0.20634E+07         0.00000E+00
    0.20634E+07         0.98710E+07         0.00000E+00
    0.00000E+00         0.00000E+00         0.24846E+07
 
    0.25435E+07         0.21250E+07         0.00000E+00
    0.21250E+07         0.98775E+07         0.00000E+00
    0.00000E+00         0.00000E+00         0.24842E+07
 
    0.25351E+07         0.21873E+07         0.00000E+00
    0.21873E+07         0.98837E+07         0.00000E+00
    0.00000E+00         0.00000E+00         0.24838E+07
 
    0.25266E+07         0.22501E+07         0.00000E+00
    0.22501E+07         0.98896E+07         0.00000E+00
    0.00000E+00         0.00000E+00         0.24833E+07
 
    0.25181E+07         0.23136E+07         0.00000E+00
    0.23136E+07         0.98952E+07         0.00000E+00
    0.00000E+00         0.00000E+00         0.24827E+07
 
    0.25094E+07         0.23776E+07         0.00000E+00
    0.23776E+07         0.99005E+07         0.00000E+00
    0.00000E+00         0.00000E+00         0.24820E+07
 
    0.25008E+07         0.24422E+07         0.00000E+00
    0.24422E+07         0.99055E+07         0.00000E+00
    0.00000E+00         0.00000E+00         0.24812E+07
 
    0.24921E+07         0.25074E+07         0.00000E+00
    0.25074E+07         0.99101E+07         0.00000E+00
    0.00000E+00         0.00000E+00         0.24804E+07
 
    0.24834E+07         0.25731E+07         0.00000E+00
    0.25731E+07         0.99143E+07         0.00000E+00
    0.00000E+00         0.00000E+00         0.24795E+07
 
    0.21518E+07         0.23163E+05         0.00000E+00
    0.23163E+05         0.91452E+07         0.00000E+00
    0.00000E+00         0.00000E+00         0.22594E+07
 
    0.21771E+07         0.68952E+05         0.00000E+00
    0.68952E+05         0.91457E+07         0.00000E+00
    0.00000E+00         0.00000E+00         0.22646E+07
 
    0.22012E+07         0.11457E+06         0.00000E+00
    0.11457E+06         0.91466E+07         0.00000E+00
    0.00000E+00         0.00000E+00         0.22696E+07
 
    0.22240E+07         0.16007E+06         0.00000E+00
    0.16007E+06         0.91479E+07         0.00000E+00
    0.00000E+00         0.00000E+00         0.22744E+07
 
    0.22454E+07         0.20549E+06         0.00000E+00
    0.20549E+06         0.91497E+07         0.00000E+00
    0.00000E+00         0.00000E+00         0.22790E+07
 
    0.22656E+07         0.25087E+06         0.00000E+00
    0.25087E+06         0.91519E+07         0.00000E+00
    0.00000E+00         0.00000E+00         0.22835E+07
 
    0.22846E+07         0.29626E+06         0.00000E+00
    0.29626E+06         0.91545E+07         0.00000E+00
    0.00000E+00         0.00000E+00         0.22878E+07
 
    0.23023E+07         0.34169E+06         0.00000E+00
    0.34169E+06         0.91574E+07         0.00000E+00
    0.00000E+00         0.00000E+00         0.22920E+07
 
    0.23189E+07         0.38720E+06         0.00000E+00
    0.38720E+06         0.91608E+07         0.00000E+00
    0.00000E+00         0.00000E+00         0.22959E+07
 
    0.23343E+07         0.43284E+06         0.00000E+00
    0.43284E+06         0.91645E+07         0.00000E+00
    0.00000E+00         0.00000E+00         0.22998E+07
 
    0.23485E+07         0.47862E+06         0.00000E+00
    0.47862E+06         0.91686E+07         0.00000E+00
    0.00000E+00         0.00000E+00         0.23034E+07
 
    0.23616E+07         0.52459E+06         0.00000E+00
    0.52459E+06         0.91730E+07         0.00000E+00
    0.00000E+00         0.00000E+00         0.23069E+07
 
    0.23736E+07         0.57078E+06         0.00000E+00
    0.57078E+06         0.91777E+07         0.00000E+00
    0.00000E+00         0.00000E+00         0.23103E+07
 
    0.23846E+07         0.61721E+06         0.00000E+00
    0.61721E+06         0.91827E+07         0.00000E+00
    0.00000E+00         0.00000E+00         0.23135E+07
 
    0.23946E+07         0.66392E+06         0.00000E+00
    0.66392E+06         0.91880E+07         0.00000E+00
    0.00000E+00         0.00000E+00         0.23165E+07
 
    0.24036E+07         0.71093E+06         0.00000E+00
    0.71093E+06         0.91935E+07         0.00000E+00
    0.00000E+00         0.00000E+00         0.23194E+07
 
    0.24116E+07         0.75827E+06         0.00000E+00
    0.75827E+06         0.91993E+07         0.00000E+00
    0.00000E+00         0.00000E+00         0.23222E+07
 
    0.24187E+07         0.80596E+06         0.00000E+00
    0.80596E+06         0.92053E+07         0.00000E+00
    0.00000E+00         0.00000E+00         0.23248E+07
 
    0.24249E+07         0.85402E+06         0.00000E+00
    0.85402E+06         0.92115E+07         0.00000E+00
    0.00000E+00         0.00000E+00         0.23273E+07
 
    0.24302E+07         0.90248E+06         0.00000E+00
    0.90248E+06         0.92179E+07         0.00000E+00
    0.00000E+00         0.00000E+00         0.23296E+07
 
    0.24347E+07         0.95134E+06         0.00000E+00
    0.95134E+06         0.92244E+07         0.00000E+00
    0.00000E+00         0.00000E+00         0.23318E+07
 
    0.24385E+07         0.10006E+07         0.00000E+00
    0.10006E+07         0.92311E+07         0.00000E+00
    0.00000E+00         0.00000E+00         0.23339E+07
 
    0.24414E+07         0.10504E+07         0.00000E+00
    0.10504E+07         0.92379E+07         0.00000E+00
    0.00000E+00         0.00000E+00         0.23359E+07
 
    0.24437E+07         0.11006E+07         0.00000E+00
    0.11006E+07         0.92448E+07         0.00000E+00
    0.00000E+00         0.00000E+00         0.23377E+07
 
    0.24453E+07         0.11513E+07         0.00000E+00
    0.11513E+07         0.92518E+07         0.00000E+00
    0.00000E+00         0.00000E+00         0.23394E+07
 
    0.24462E+07         0.12024E+07         0.00000E+00
    0.12024E+07         0.92589E+07         0.00000E+00
    0.00000E+00         0.00000E+00         0.23410E+07
 
    0.24465E+07         0.12541E+07         0.00000E+00
    0.12541E+07         0.92659E+07         0.00000E+00
    0.00000E+00         0.00000E+00         0.23425E+07
 
    0.24462E+07         0.13063E+07         0.00000E+00
    0.13063E+07         0.92730E+07         0.00000E+00
    0.00000E+00         0.00000E+00         0.23438E+07
 
    0.24454E+07         0.13590E+07         0.00000E+00
    0.13590E+07         0.92801E+07         0.00000E+00
    0.00000E+00         0.00000E+00         0.23451E+07
 
    0.24441E+07         0.14122E+07         0.00000E+00
    0.14122E+07         0.92872E+07         0.00000E+00
    0.00000E+00         0.00000E+00         0.23462E+07
 
    0.24422E+07         0.14659E+07         0.00000E+00
    0.14659E+07         0.92942E+07         0.00000E+00
    0.00000E+00         0.00000E+00         0.23473E+07
 
    0.24399E+07         0.15202E+07         0.00000E+00
    0.15202E+07         0.93011E+07         0.00000E+00
    0.00000E+00         0.00000E+00         0.23482E+07
 
    0.24372E+07         0.15750E+07         0.00000E+00
    0.15750E+07         0.93080E+07         0.00000E+00
    0.00000E+00         0.00000E+00         0.23490E+07
 
    0.24341E+07         0.16304E+07         0.00000E+00
    0.16304E+07         0.93148E+07         0.00000E+00
    0.00000E+00         0.00000E+00         0.23498E+07
 
    0.24306E+07         0.16863E+07         0.00000E+00
    0.16863E+07         0.93214E+07         0.00000E+00
    0.00000E+00         0.00000E+00         0.23504E+07
 
    0.24268E+07         0.17428E+07         0.00000E+00
    0.17428E+07         0.93279E+07         0.00000E+00
    0.00000E+00         0.00000E+00         0.23510E+07
 
    0.24227E+07         0.17998E+07         0.00000E+00
    0.17998E+07         0.93343E+07         0.00000E+00
    0.00000E+00         0.00000E+00         0.23514E+07
 
    0.24183E+07         0.18573E+07         0.00000E+00
    0.18573E+07         0.93405E+07         0.00000E+00
    0.00000E+00         0.00000E+00         0.23518E+07
 
    0.24137E+07         0.19154E+07         0.00000E+00
    0.19154E+07         0.93465E+07         0.00000E+00
    0.00000E+00         0.00000E+00         0.23520E+07
 
    0.24088E+07         0.19741E+07         0.00000E+00
    0.19741E+07         0.93523E+07         0.00000E+00
    0.00000E+00         0.00000E+00         0.23522E+07
 
    0.24037E+07         0.20333E+07         0.00000E+00
    0.20333E+07         0.93579E+07         0.00000E+00
    0.00000E+00         0.00000E+00         0.23523E+07
 
    0.23984E+07         0.20931E+07         0.00000E+00
    0.20931E+07         0.93632E+07         0.00000E+00
    0.00000E+00         0.00000E+00         0.23523E+07
 
    0.23930E+07         0.21533E+07         0.00000E+00
    0.21533E+07         0.93683E+07         0.00000E+00
    0.00000E+00         0.00000E+00         0.23523E+07
 
    0.23875E+07         0.22142E+07         0.00000E+00
    0.22142E+07         0.93732E+07         0.00000E+00
    0.00000E+00         0.00000E+00         0.23521E+07
 
    0.23818E+07         0.22755E+07         0.00000E+00
    0.22755E+07         0.93777E+07         0.00000E+00
    0.00000E+00         0.00000E+00         0.23519E+07
 
    0.23760E+07         0.23374E+07         0.00000E+00
    0.23374E+07         0.93820E+07         0.00000E+00
    0.00000E+00         0.00000E+00         0.23516E+07
 
    0.23702E+07         0.23999E+07         0.00000E+00
    0.23999E+07         0.93860E+07         0.00000E+00
    0.00000E+00         0.00000E+00         0.23512E+07
 
    0.23643E+07         0.24628E+07         0.00000E+00
    0.24628E+07         0.93896E+07         0.00000E+00
    0.00000E+00         0.00000E+00         0.23508E+07
 
    0.23583E+07         0.25263E+07         0.00000E+00
    0.25263E+07         0.93930E+07         0.00000E+00
    0.00000E+00         0.00000E+00         0.23503E+07
 
    0.23523E+07         0.25903E+07         0.00000E+00
    0.25903E+07         0.93960E+07         0.00000E+00
    0.00000E+00         0.00000E+00         0.23497E+07
 
    0.19442E+07         0.24211E+05         0.00000E+00
    0.24211E+05         0.87029E+07         0.00000E+00
    0.00000E+00         0.00000E+00         0.21294E+07
 
    0.19686E+07         0.72042E+05         0.00000E+00
    0.72042E+05         0.87033E+07         0.00000E+00
    0.00000E+00         0.00000E+00         0.21344E+07
 
    0.19918E+07         0.11967E+06         0.00000E+00
    0.11967E+06         0.87040E+07         0.00000E+00
    0.00000E+00         0.00000E+00         0.21392E+07
 
    0.20140E+07         0.16714E+06         0.00000E+00
    0.16714E+06         0.87050E+07         0.00000E+00
    0.00000E+00         0.00000E+00         0.21438E+07
 
    0.20350E+07         0.21449E+06         0.00000E+00
    0.21449E+06         0.87064E+07         0.00000E+00
    0.00000E+00         0.00000E+00         0.21483E+07
 
    0.20550E+07         0.26174E+06         0.00000E+00
    0.26174E+06         0.87081E+07         0.00000E+00
    0.00000E+00         0.00000E+00         0.21526E+07
 
    0.20739E+07         0.30895E+06         0.00000E+00
    0.30895E+06         0.87102E+07         0.00000E+00
    0.00000E+00         0.00000E+00         0.21568E+07
 
    0.20918E+07         0.35614E+06         0.00000E+00
    0.35614E+06         0.87125E+07         0.00000E+00
    0.00000E+00         0.00000E+00         0.21609E+07
 
    0.21087E+07         0.40335E+06         0.00000E+00
    0.40335E+06         0.87152E+07         0.00000E+00
    0.00000E+00         0.00000E+00         0.21648E+07
 
    0.21245E+07         0.45060E+06         0.00000E+00
    0.45060E+06         0.87181E+07         0.00000E+00
    0.00000E+00         0.00000E+00         0.21685E+07
 
    0.21394E+07         0.49793E+06         0.00000E+00
    0.49793E+06         0.87213E+07         0.00000E+00
    0.00000E+00         0.00000E+00         0.21721E+07
 
    0.21533E+07         0.54537E+06         0.00000E+00
    0.54537E+06         0.87248E+07         0.00000E+00
    0.00000E+00         0.00000E+00         0.21756E+07
 
    0.21663E+07         0.59295E+06         0.00000E+00
    0.59295E+06         0.87286E+07         0.00000E+00
    0.00000E+00         0.00000E+00         0.21790E+07
 
    0.21783E+07         0.64069E+06         0.00000E+00
    0.64069E+06         0.87325E+07         0.00000E+00
    0.00000E+00         0.00000E+00         0.21822E+07
 
    0.21895E+07         0.68862E+06         0.00000E+00
    0.68862E+06         0.87368E+07         0.00000E+00
    0.00000E+00         0.00000E+00         0.21853E+07
 
    0.21998E+07         0.73677E+06         0.00000E+00
    0.73677E+06         0.87412E+07         0.00000E+00
    0.00000E+00         0.00000E+00         0.21882E+07
 
    0.22093E+07         0.78515E+06         0.00000E+00
    0.78515E+06         0.87458E+07         0.00000E+00
    0.00000E+00         0.00000E+00         0.21910E+07
 
    0.22179E+07         0.83379E+06         0.00000E+00
    0.83379E+06         0.87506E+07         0.00000E+00
    0.00000E+00         0.00000E+00         0.21937E+07
 
    0.22258E+07         0.88271E+06         0.00000E+00
    0.88271E+06         0.87555E+07         0.00000E+00
    0.00000E+00         0.00000E+00         0.21963E+07
 
    0.22329E+07         0.93192E+06         0.00000E+00
    0.93192E+06         0.87606E+07         0.00000E+00
    0.00000E+00         0.00000E+00         0.21987E+07
 
    0.22393E+07         0.98146E+06         0.00000E+00
    0.98146E+06         0.87659E+07         0.00000E+00
    0.00000E+00         0.00000E+00         0.22010E+07
 
    0.22449E+07         0.10313E+07         0.00000E+00
    0.10313E+07         0.87712E+07         0.00000E+00
    0.00000E+00         0.00000E+00         0.22032E+07
 
    0.22499E+07         0.10815E+07         0.00000E+00
    0.10815E+07         0.87767E+07         0.00000E+00
    0.00000E+00         0.00000E+00         0.22053E+07
 
    0.22542E+07         0.11321E+07         0.00000E+00
    0.11321E+07         0.87822E+07         0.00000E+00
    0.00000E+00         0.00000E+00         0.22073E+07
 
    0.22580E+07         0.11831E+07         0.00000E+00
    0.11831E+07         0.87877E+07         0.00000E+00
    0.00000E+00         0.00000E+00         0.22091E+07
 
    0.22611E+07         0.12345E+07         0.00000E+00
    0.12345E+07         0.87934E+07         0.00000E+00
    0.00000E+00         0.00000E+00         0.22109E+07
 
    0.22636E+07         0.12862E+07         0.00000E+00
    0.12862E+07         0.87990E+07         0.00000E+00
    0.00000E+00         0.00000E+00         0.22125E+07
 
    0.22657E+07         0.13384E+07         0.00000E+00
    0.13384E+07         0.88047E+07         0.00000E+00
    0.00000E+00         0.00000E+00         0.22141E+07
 
    0.22672E+07         0.13910E+07         0.00000E+00
    0.13910E+07         0.88103E+07         0.00000E+00
    0.00000E+00         0.00000E+00         0.22155E+07
 
    0.22682E+07         0.14440E+07         0.00000E+00
    0.14440E+07         0.88159E+07         0.00000E+00
    0.00000E+00         0.00000E+00         0.22168E+07
 
    0.22688E+07         0.14975E+07         0.00000E+00
    0.14975E+07         0.88215E+07         0.00000E+00
    0.00000E+00         0.00000E+00         0.22181E+07
 
    0.22690E+07         0.15514E+07         0.00000E+00
    0.15514E+07         0.88270E+07         0.00000E+00
    0.00000E+00         0.00000E+00         0.22192E+07
 
    0.22687E+07         0.16057E+07         0.00000E+00
    0.16057E+07         0.88325E+07         0.00000E+00
    0.00000E+00         0.00000E+00         0.22202E+07
 
    0.22681E+07         0.16606E+07         0.00000E+00
    0.16606E+07         0.88378E+07         0.00000E+00
    0.00000E+00         0.00000E+00         0.22212E+07
 
    0.22671E+07         0.17159E+07         0.00000E+00
    0.17159E+07         0.88430E+07         0.00000E+00
    0.00000E+00         0.00000E+00         0.22220E+07
 
    0.22659E+07         0.17716E+07         0.00000E+00
    0.17716E+07         0.88482E+07         0.00000E+00
    0.00000E+00         0.00000E+00         0.22228E+07
 
    0.22643E+07         0.18278E+07         0.00000E+00
    0.18278E+07         0.88531E+07         0.00000E+00
    0.00000E+00         0.00000E+00         0.22235E+07
 
    0.22624E+07         0.18845E+07         0.00000E+00
    0.18845E+07         0.88579E+07         0.00000E+00
    0.00000E+00         0.00000E+00         0.22241E+07
 
    0.22603E+07         0.19417E+07         0.00000E+00
    0.19417E+07         0.88626E+07         0.00000E+00
    0.00000E+00         0.00000E+00         0.22246E+07
 
    0.22580E+07         0.19993E+07         0.00000E+00
    0.19993E+07         0.88670E+07         0.00000E+00
    0.00000E+00         0.00000E+00         0.22250E+07
 
    0.22554E+07         0.20574E+07         0.00000E+00
    0.20574E+07         0.88713E+07         0.00000E+00
    0.00000E+00         0.00000E+00         0.22253E+07
 
    0.22527E+07         0.21160E+07         0.00000E+00
    0.21160E+07         0.88753E+07         0.00000E+00
    0.00000E+00         0.00000E+00         0.22256E+07
 
    0.22498E+07         0.21750E+07         0.00000E+00
    0.21750E+07         0.88792E+07         0.00000E+00
    0.00000E+00         0.00000E+00         0.22258E+07
 
    0.22468E+07         0.22346E+07         0.00000E+00
    0.22346E+07         0.88828E+07         0.00000E+00
    0.00000E+00         0.00000E+00         0.22259E+07
 
    0.22436E+07         0.22946E+07         0.00000E+00
    0.22946E+07         0.88861E+07         0.00000E+00
    0.00000E+00         0.00000E+00         0.22259E+07
 
    0.22403E+07         0.23551E+07         0.00000E+00
    0.23551E+07         0.88891E+07         0.00000E+00
    0.00000E+00         0.00000E+00         0.22259E+07
 
    0.22370E+07         0.24160E+07         0.00000E+00
    0.24160E+07         0.88919E+07         0.00000E+00
    0.00000E+00         0.00000E+00         0.22258E+07
 
    0.22336E+07         0.24775E+07         0.00000E+00
    0.24775E+07         0.88944E+07         0.00000E+00
    0.00000E+00         0.00000E+00         0.22256E+07
 
    0.22301E+07         0.25394E+07         0.00000E+00
    0.25394E+07         0.88966E+07         0.00000E+00
    0.00000E+00         0.00000E+00         0.22254E+07
 
    0.22266E+07         0.26017E+07         0.00000E+00
    0.26017E+07         0.88985E+07         0.00000E+00
    0.00000E+00         0.00000E+00         0.22250E+07
 
    0.17588E+07         0.25023E+05         0.00000E+00
    0.25023E+05         0.82736E+07         0.00000E+00
    0.00000E+00         0.00000E+00         0.20065E+07
 
    0.17820E+07         0.74450E+05         0.00000E+00
    0.74450E+05         0.82739E+07         0.00000E+00
    0.00000E+00         0.00000E+00         0.20112E+07
 
    0.18043E+07         0.12366E+06         0.00000E+00
    0.12366E+06         0.82745E+07         0.00000E+00
    0.00000E+00         0.00000E+00         0.20157E+07
 
    0.18256E+07         0.17268E+06         0.00000E+00
    0.17268E+06         0.82753E+07         0.00000E+00
    0.00000E+00         0.00000E+00         0.20202E+07
 
    0.18461E+07         0.22155E+06         0.00000E+00
    0.22155E+06         0.82763E+07         0.00000E+00
    0.00000E+00         0.00000E+00         0.20245E+07
 
    0.18656E+07         0.27030E+06         0.00000E+00
    0.27030E+06         0.82776E+07         0.00000E+00
    0.00000E+00         0.00000E+00         0.20286E+07
 
    0.18842E+07         0.31895E+06         0.00000E+00
    0.31895E+06         0.82792E+07         0.00000E+00
    0.00000E+00         0.00000E+00         0.20327E+07
 
    0.19020E+07         0.36754E+06         0.00000E+00
    0.36754E+06         0.82810E+07         0.00000E+00
    0.00000E+00         0.00000E+00         0.20366E+07
 
    0.19189E+07         0.41610E+06         0.00000E+00
    0.41610E+06         0.82831E+07         0.00000E+00
    0.00000E+00         0.00000E+00         0.20404E+07
 
    0.19349E+07         0.46466E+06         0.00000E+00
    0.46466E+06         0.82853E+07         0.00000E+00
    0.00000E+00         0.00000E+00         0.20441E+07
 
    0.19501E+07         0.51323E+06         0.00000E+00
    0.51323E+06         0.82878E+07         0.00000E+00
    0.00000E+00         0.00000E+00         0.20476E+07
 
    0.19645E+07         0.56186E+06         0.00000E+00
    0.56186E+06         0.82906E+07         0.00000E+00
    0.00000E+00         0.00000E+00         0.20510E+07
 
    0.19780E+07         0.61056E+06         0.00000E+00
    0.61056E+06         0.82935E+07         0.00000E+00
    0.00000E+00         0.00000E+00         0.20543E+07
 
    0.19908E+07         0.65935E+06         0.00000E+00
    0.65935E+06         0.82966E+07         0.00000E+00
    0.00000E+00         0.00000E+00         0.20575E+07
 
    0.20028E+07         0.70827E+06         0.00000E+00
    0.70827E+06         0.82999E+07         0.00000E+00
    0.00000E+00         0.00000E+00         0.20605E+07
 
    0.20140E+07         0.75732E+06         0.00000E+00
    0.75732E+06         0.83033E+07         0.00000E+00
    0.00000E+00         0.00000E+00         0.20635E+07
 
    0.20245E+07         0.80655E+06         0.00000E+00
    0.80655E+06         0.83069E+07         0.00000E+00
    0.00000E+00         0.00000E+00         0.20663E+07
 
    0.20343E+07         0.85595E+06         0.00000E+00
    0.85595E+06         0.83107E+07         0.00000E+00
    0.00000E+00         0.00000E+00         0.20690E+07
 
    0.20434E+07         0.90556E+06         0.00000E+00
    0.90556E+06         0.83145E+07         0.00000E+00
    0.00000E+00         0.00000E+00         0.20716E+07
 
    0.20518E+07         0.95539E+06         0.00000E+00
    0.95539E+06         0.83185E+07         0.00000E+00
    0.00000E+00         0.00000E+00         0.20741E+07
 
    0.20596E+07         0.10055E+07         0.00000E+00
    0.10055E+07         0.83226E+07         0.00000E+00
    0.00000E+00         0.00000E+00         0.20764E+07
 
    0.20668E+07         0.10558E+07         0.00000E+00
    0.10558E+07         0.83268E+07         0.00000E+00
    0.00000E+00         0.00000E+00         0.20787E+07
 
    0.20733E+07         0.11064E+07         0.00000E+00
    0.11064E+07         0.83311E+07         0.00000E+00
    0.00000E+00         0.00000E+00         0.20809E+07
 
    0.20793E+07         0.11572E+07         0.00000E+00
    0.11572E+07         0.83354E+07         0.00000E+00
    0.00000E+00         0.00000E+00         0.20829E+07
 
    0.20847E+07         0.12084E+07         0.00000E+00
    0.12084E+07         0.83397E+07         0.00000E+00
    0.00000E+00         0.00000E+00         0.20849E+07
 
    0.20896E+07         0.12599E+07         0.00000E+00
    0.12599E+07         0.83441E+07         0.00000E+00
    0.00000E+00         0.00000E+00         0.20867E+07
 
    0.20940E+07         0.13117E+07         0.00000E+00
    0.13117E+07         0.83485E+07         0.00000E+00
    0.00000E+00         0.00000E+00         0.20885E+07
 
    0.20979E+07         0.13638E+07         0.00000E+00
    0.13638E+07         0.83529E+07         0.00000E+00
    0.00000E+00         0.00000E+00         0.20902E+07
 
    0.21013E+07         0.14163E+07         0.00000E+00
    0.14163E+07         0.83573E+07         0.00000E+00
    0.00000E+00         0.00000E+00         0.20917E+07
 
    0.21043E+07         0.14692E+07         0.00000E+00
    0.14692E+07         0.83617E+07         0.00000E+00
    0.00000E+00         0.00000E+00         0.20932E+07
 
    0.21069E+07         0.15223E+07         0.00000E+00
    0.15223E+07         0.83660E+07         0.00000E+00
    0.00000E+00         0.00000E+00         0.20946E+07
 
    0.21091E+07         0.15759E+07         0.00000E+00
    0.15759E+07         0.83702E+07         0.00000E+00
    0.00000E+00         0.00000E+00         0.20959E+07
 
    0.21109E+07         0.16298E+07         0.00000E+00
    0.16298E+07         0.83744E+07         0.00000E+00
    0.00000E+00         0.00000E+00         0.20971E+07
 
    0.21124E+07         0.16841E+07         0.00000E+00
    0.16841E+07         0.83785E+07         0.00000E+00
    0.00000E+00         0.00000E+00         0.20982E+07
 
    0.21135E+07         0.17388E+07         0.00000E+00
    0.17388E+07         0.83825E+07         0.00000E+00
    0.00000E+00         0.00000E+00         0.20992E+07
 
    0.21144E+07         0.17939E+07         0.00000E+00
    0.17939E+07         0.83863E+07         0.00000E+00
    0.00000E+00         0.00000E+00         0.21001E+07
 
    0.21149E+07         0.18494E+07         0.00000E+00
    0.18494E+07         0.83901E+07         0.00000E+00
    0.00000E+00         0.00000E+00         0.21010E+07
 
    0.21152E+07         0.19053E+07         0.00000E+00
    0.19053E+07         0.83937E+07         0.00000E+00
    0.00000E+00         0.00000E+00         0.21018E+07
 
    0.21153E+07         0.19616E+07         0.00000E+00
    0.19616E+07         0.83971E+07         0.00000E+00
    0.00000E+00         0.00000E+00         0.21025E+07
 
    0.21152E+07         0.20183E+07         0.00000E+00
    0.20183E+07         0.84004E+07         0.00000E+00
    0.00000E+00         0.00000E+00         0.21031E+07
 
    0.21148E+07         0.20754E+07         0.00000E+00
    0.20754E+07         0.84034E+07         0.00000E+00
    0.00000E+00         0.00000E+00         0.21037E+07
 
    0.21143E+07         0.21329E+07         0.00000E+00
    0.21329E+07         0.84063E+07         0.00000E+00
    0.00000E+00         0.00000E+00         0.21041E+07
 
    0.21136E+07         0.21908E+07         0.00000E+00
    0.21908E+07         0.84090E+07         0.00000E+00
    0.00000E+00         0.00000E+00         0.21045E+07
 
    0.21128E+07         0.22491E+07         0.00000E+00
    0.22491E+07         0.84115E+07         0.00000E+00
    0.00000E+00         0.00000E+00         0.21049E+07
 
    0.21119E+07         0.23079E+07         0.00000E+00
    0.23079E+07         0.84137E+07         0.00000E+00
    0.00000E+00         0.00000E+00         0.21051E+07
 
    0.21108E+07         0.23670E+07         0.00000E+00
    0.23670E+07         0.84157E+07         0.00000E+00
    0.00000E+00         0.00000E+00         0.21053E+07
 
    0.21097E+07         0.24266E+07         0.00000E+00
    0.24266E+07         0.84174E+07         0.00000E+00
    0.00000E+00         0.00000E+00         0.21054E+07
 
    0.21085E+07         0.24866E+07         0.00000E+00
    0.24866E+07         0.84188E+07         0.00000E+00
    0.00000E+00         0.00000E+00         0.21055E+07
 
    0.21072E+07         0.25470E+07         0.00000E+00
    0.25470E+07         0.84200E+07         0.00000E+00
    0.00000E+00         0.00000E+00         0.21055E+07
 
    0.21060E+07         0.26079E+07         0.00000E+00
    0.26079E+07         0.84209E+07         0.00000E+00
    0.00000E+00         0.00000E+00         0.21054E+07
 
    0.15927E+07         0.25638E+05         0.00000E+00
    0.25638E+05         0.78566E+07         0.00000E+00
    0.00000E+00         0.00000E+00         0.18899E+07
 
    0.16147E+07         0.76292E+05         0.00000E+00
    0.76292E+05         0.78568E+07         0.00000E+00
    0.00000E+00         0.00000E+00         0.18943E+07
 
    0.16359E+07         0.12672E+06         0.00000E+00
    0.12672E+06         0.78572E+07         0.00000E+00
    0.00000E+00         0.00000E+00         0.18986E+07
 
    0.16564E+07         0.17694E+06         0.00000E+00
    0.17694E+06         0.78578E+07         0.00000E+00
    0.00000E+00         0.00000E+00         0.19028E+07
 
    0.16761E+07         0.22699E+06         0.00000E+00
    0.22699E+06         0.78586E+07         0.00000E+00
    0.00000E+00         0.00000E+00         0.19069E+07
 
    0.16950E+07         0.27690E+06         0.00000E+00
    0.27690E+06         0.78596E+07         0.00000E+00
    0.00000E+00         0.00000E+00         0.19109E+07
 
    0.17132E+07         0.32668E+06         0.00000E+00
    0.32668E+06         0.78608E+07         0.00000E+00
    0.00000E+00         0.00000E+00         0.19148E+07
 
    0.17306E+07         0.37637E+06         0.00000E+00
    0.37637E+06         0.78621E+07         0.00000E+00
    0.00000E+00         0.00000E+00         0.19185E+07
 
    0.17473E+07         0.42600E+06         0.00000E+00
    0.42600E+06         0.78637E+07         0.00000E+00
    0.00000E+00         0.00000E+00         0.19222E+07
 
    0.17633E+07         0.47557E+06         0.00000E+00
    0.47557E+06         0.78654E+07         0.00000E+00
    0.00000E+00         0.00000E+00         0.19257E+07
 
    0.17785E+07         0.52513E+06         0.00000E+00
    0.52513E+06         0.78673E+07         0.00000E+00
    0.00000E+00         0.00000E+00         0.19292E+07
 
    0.17930E+07         0.57469E+06         0.00000E+00
    0.57469E+06         0.78694E+07         0.00000E+00
    0.00000E+00         0.00000E+00         0.19325E+07
 
    0.18069E+07         0.62427E+06         0.00000E+00
    0.62427E+06         0.78716E+07         0.00000E+00
    0.00000E+00         0.00000E+00         0.19357E+07
 
    0.18200E+07         0.67390E+06         0.00000E+00
    0.67390E+06         0.78739E+07         0.00000E+00
    0.00000E+00         0.00000E+00         0.19388E+07
 
    0.18325E+07         0.72359E+06         0.00000E+00
    0.72359E+06         0.78764E+07         0.00000E+00
    0.00000E+00         0.00000E+00         0.19418E+07
 
    0.18444E+07         0.77336E+06         0.00000E+00
    0.77336E+06         0.78791E+07         0.00000E+00
    0.00000E+00         0.00000E+00         0.19447E+07
 
    0.18556E+07         0.82325E+06         0.00000E+00
    0.82325E+06         0.78818E+07         0.00000E+00
    0.00000E+00         0.00000E+00         0.19475E+07
 
    0.18662E+07         0.87325E+06         0.00000E+00
    0.87325E+06         0.78847E+07         0.00000E+00
    0.00000E+00         0.00000E+00         0.19502E+07
 
    0.18762E+07         0.92340E+06         0.00000E+00
    0.92340E+06         0.78876E+07         0.00000E+00
    0.00000E+00         0.00000E+00         0.19528E+07
 
    0.18856E+07         0.97370E+06         0.00000E+00
    0.97370E+06         0.78907E+07         0.00000E+00
    0.00000E+00         0.00000E+00         0.19552E+07
 
    0.18944E+07         0.10242E+07         0.00000E+00
    0.10242E+07         0.78938E+07         0.00000E+00
    0.00000E+00         0.00000E+00         0.19576E+07
 
    0.19027E+07         0.10748E+07         0.00000E+00
    0.10748E+07         0.78970E+07         0.00000E+00
    0.00000E+00         0.00000E+00         0.19599E+07
 
    0.19105E+07         0.11257E+07         0.00000E+00
    0.11257E+07         0.79002E+07         0.00000E+00
    0.00000E+00         0.00000E+00         0.19621E+07
 
    0.19177E+07         0.11768E+07         0.00000E+00
    0.11768E+07         0.79035E+07         0.00000E+00
    0.00000E+00         0.00000E+00         0.19642E+07
 
    0.19245E+07         0.12281E+07         0.00000E+00
    0.12281E+07         0.79068E+07         0.00000E+00
    0.00000E+00         0.00000E+00         0.19662E+07
 
    0.19307E+07         0.12796E+07         0.00000E+00
    0.12796E+07         0.79101E+07         0.00000E+00
    0.00000E+00         0.00000E+00         0.19682E+07
 
    0.19366E+07         0.13314E+07         0.00000E+00
    0.13314E+07         0.79134E+07         0.00000E+00
    0.00000E+00         0.00000E+00         0.19700E+07
 
    0.19420E+07         0.13835E+07         0.00000E+00
    0.13835E+07         0.79167E+07         0.00000E+00
    0.00000E+00         0.00000E+00         0.19717E+07
 
    0.19469E+07         0.14358E+07         0.00000E+00
    0.14358E+07         0.79200E+07         0.00000E+00
    0.00000E+00         0.00000E+00         0.19734E+07
 
    0.19515E+07         0.14884E+07         0.00000E+00
    0.14884E+07         0.79233E+07         0.00000E+00
    0.00000E+00         0.00000E+00         0.19750E+07
 
    0.19557E+07         0.15414E+07         0.00000E+00
    0.15414E+07         0.79265E+07         0.00000E+00
    0.00000E+00         0.00000E+00         0.19764E+07
 
    0.19596E+07         0.15946E+07         0.00000E+00
    0.15946E+07         0.79296E+07         0.00000E+00
    0.00000E+00         0.00000E+00         0.19778E+07
 
    0.19631E+07         0.16481E+07         0.00000E+00
    0.16481E+07         0.79327E+07         0.00000E+00
    0.00000E+00         0.00000E+00         0.19792E+07
 
    0.19663E+07         0.17019E+07         0.00000E+00
    0.17019E+07         0.79357E+07         0.00000E+00
    0.00000E+00         0.00000E+00         0.19804E+07
 
    0.19692E+07         0.17560E+07         0.00000E+00
    0.17560E+07         0.79386E+07         0.00000E+00
    0.00000E+00         0.00000E+00         0.19816E+07
 
    0.19719E+07         0.18105E+07         0.00000E+00
    0.18105E+07         0.79413E+07         0.00000E+00
    0.00000E+00         0.00000E+00         0.19826E+07
 
    0.19743E+07         0.18653E+07         0.00000E+00
    0.18653E+07         0.79440E+07         0.00000E+00
    0.00000E+00         0.00000E+00         0.19837E+07
 
    0.19764E+07         0.19204E+07         0.00000E+00
    0.19204E+07         0.79465E+07         0.00000E+00
    0.00000E+00         0.00000E+00         0.19846E+07
 
    0.19783E+07         0.19759E+07         0.00000E+00
    0.19759E+07         0.79489E+07         0.00000E+00
    0.00000E+00         0.00000E+00         0.19854E+07
 
    0.19800E+07         0.20317E+07         0.00000E+00
    0.20317E+07         0.79511E+07         0.00000E+00
    0.00000E+00         0.00000E+00         0.19862E+07
 
    0.19816E+07         0.20879E+07         0.00000E+00
    0.20879E+07         0.79531E+07         0.00000E+00
    0.00000E+00         0.00000E+00         0.19869E+07
 
    0.19830E+07         0.21444E+07         0.00000E+00
    0.21444E+07         0.79550E+07         0.00000E+00
    0.00000E+00         0.00000E+00         0.19876E+07
 
    0.19842E+07         0.22012E+07         0.00000E+00
    0.22012E+07         0.79567E+07         0.00000E+00
    0.00000E+00         0.00000E+00         0.19882E+07
 
    0.19853E+07         0.22585E+07         0.00000E+00
    0.22585E+07         0.79581E+07         0.00000E+00
    0.00000E+00         0.00000E+00         0.19887E+07
 
    0.19863E+07         0.23160E+07         0.00000E+00
    0.23160E+07         0.79594E+07         0.00000E+00
    0.00000E+00         0.00000E+00         0.19891E+07
 
    0.19872E+07         0.23740E+07         0.00000E+00
    0.23740E+07         0.79604E+07         0.00000E+00
    0.00000E+00         0.00000E+00         0.19895E+07
 
    0.19880E+07         0.24323E+07         0.00000E+00
    0.24323E+07         0.79612E+07         0.00000E+00
    0.00000E+00         0.00000E+00         0.19898E+07
 
    0.19887E+07         0.24909E+07         0.00000E+00
    0.24909E+07         0.79617E+07         0.00000E+00
    0.00000E+00         0.00000E+00         0.19901E+07
 
    0.19895E+07         0.25499E+07         0.00000E+00
    0.25499E+07         0.79620E+07         0.00000E+00
    0.00000E+00         0.00000E+00         0.19903E+07
 
    0.19901E+07         0.26093E+07         0.00000E+00
    0.26093E+07         0.79620E+07         0.00000E+00
    0.00000E+00         0.00000E+00         0.19904E+07
 
    0.14435E+07         0.26093E+05         0.00000E+00
    0.26093E+05         0.74511E+07         0.00000E+00
    0.00000E+00         0.00000E+00         0.17789E+07
 
    0.14643E+07         0.77665E+05         0.00000E+00
    0.77665E+05         0.74513E+07         0.00000E+00
    0.00000E+00         0.00000E+00         0.17831E+07
 
    0.14844E+07         0.12901E+06         0.00000E+00
    0.12901E+06         0.74516E+07         0.00000E+00
    0.00000E+00         0.00000E+00         0.17872E+07
 
    0.15039E+07         0.18014E+06         0.00000E+00
    0.18014E+06         0.74520E+07         0.00000E+00
    0.00000E+00         0.00000E+00         0.17912E+07
 
    0.15228E+07         0.23109E+06         0.00000E+00
    0.23109E+06         0.74526E+07         0.00000E+00
    0.00000E+00         0.00000E+00         0.17951E+07
 
    0.15410E+07         0.28188E+06         0.00000E+00
    0.28188E+06         0.74533E+07         0.00000E+00
    0.00000E+00         0.00000E+00         0.17989E+07
 
    0.15586E+07         0.33253E+06         0.00000E+00
    0.33253E+06         0.74541E+07         0.00000E+00
    0.00000E+00         0.00000E+00         0.18025E+07
 
    0.15755E+07         0.38306E+06         0.00000E+00
    0.38306E+06         0.74551E+07         0.00000E+00
    0.00000E+00         0.00000E+00         0.18061E+07
 
    0.15919E+07         0.43349E+06         0.00000E+00
    0.43349E+06         0.74563E+07         0.00000E+00
    0.00000E+00         0.00000E+00         0.18096E+07
 
    0.16076E+07         0.48385E+06         0.00000E+00
    0.48385E+06         0.74575E+07         0.00000E+00
    0.00000E+00         0.00000E+00         0.18130E+07
 
    0.16227E+07         0.53416E+06         0.00000E+00
    0.53416E+06         0.74589E+07         0.00000E+00
    0.00000E+00         0.00000E+00         0.18163E+07
 
    0.16372E+07         0.58444E+06         0.00000E+00
    0.58444E+06         0.74604E+07         0.00000E+00
    0.00000E+00         0.00000E+00         0.18195E+07
 
    0.16511E+07         0.63470E+06         0.00000E+00
    0.63470E+06         0.74621E+07         0.00000E+00
    0.00000E+00         0.00000E+00         0.18226E+07
 
    0.16644E+07         0.68496E+06         0.00000E+00
    0.68496E+06         0.74638E+07         0.00000E+00
    0.00000E+00         0.00000E+00         0.18256E+07
 
    0.16772E+07         0.73524E+06         0.00000E+00
    0.73524E+06         0.74657E+07         0.00000E+00
    0.00000E+00         0.00000E+00         0.18286E+07
 
    0.16894E+07         0.78557E+06         0.00000E+00
    0.78557E+06         0.74676E+07         0.00000E+00
    0.00000E+00         0.00000E+00         0.18314E+07
 
    0.17010E+07         0.83595E+06         0.00000E+00
    0.83595E+06         0.74696E+07         0.00000E+00
    0.00000E+00         0.00000E+00         0.18341E+07
 
    0.17121E+07         0.88640E+06         0.00000E+00
    0.88640E+06         0.74717E+07         0.00000E+00
    0.00000E+00         0.00000E+00         0.18368E+07
 
    0.17227E+07         0.93695E+06         0.00000E+00
    0.93695E+06         0.74739E+07         0.00000E+00
    0.00000E+00         0.00000E+00         0.18393E+07
 
    0.17328E+07         0.98760E+06         0.00000E+00
    0.98760E+06         0.74761E+07         0.00000E+00
    0.00000E+00         0.00000E+00         0.18418E+07
 
    0.17424E+07         0.10384E+07         0.00000E+00
    0.10384E+07         0.74784E+07         0.00000E+00
    0.00000E+00         0.00000E+00         0.18442E+07
 
    0.17515E+07         0.10893E+07         0.00000E+00
    0.10893E+07         0.74807E+07         0.00000E+00
    0.00000E+00         0.00000E+00         0.18465E+07
 
    0.17602E+07         0.11403E+07         0.00000E+00
    0.11403E+07         0.74831E+07         0.00000E+00
    0.00000E+00         0.00000E+00         0.18487E+07
 
    0.17684E+07         0.11915E+07         0.00000E+00
    0.11915E+07         0.74855E+07         0.00000E+00
    0.00000E+00         0.00000E+00         0.18508E+07
 
    0.17762E+07         0.12429E+07         0.00000E+00
    0.12429E+07         0.74879E+07         0.00000E+00
    0.00000E+00         0.00000E+00         0.18528E+07
 
    0.17835E+07         0.12944E+07         0.00000E+00
    0.12944E+07         0.74903E+07         0.00000E+00
    0.00000E+00         0.00000E+00         0.18548E+07
 
    0.17905E+07         0.13462E+07         0.00000E+00
    0.13462E+07         0.74927E+07         0.00000E+00
    0.00000E+00         0.00000E+00         0.18566E+07
 
    0.17970E+07         0.13981E+07         0.00000E+00
    0.13981E+07         0.74951E+07         0.00000E+00
    0.00000E+00         0.00000E+00         0.18584E+07
 
    0.18032E+07         0.14503E+07         0.00000E+00
    0.14503E+07         0.74974E+07         0.00000E+00
    0.00000E+00         0.00000E+00         0.18601E+07
 
    0.18091E+07         0.15027E+07         0.00000E+00
    0.15027E+07         0.74997E+07         0.00000E+00
    0.00000E+00         0.00000E+00         0.18618E+07
 
    0.18146E+07         0.15553E+07         0.00000E+00
    0.15553E+07         0.75020E+07         0.00000E+00
    0.00000E+00         0.00000E+00         0.18633E+07
 
    0.18198E+07         0.16081E+07         0.00000E+00
    0.16081E+07         0.75042E+07         0.00000E+00
    0.00000E+00         0.00000E+00         0.18648E+07
 
    0.18247E+07         0.16612E+07         0.00000E+00
    0.16612E+07         0.75063E+07         0.00000E+00
    0.00000E+00         0.00000E+00         0.18662E+07
 
    0.18294E+07         0.17146E+07         0.00000E+00
    0.17146E+07         0.75083E+07         0.00000E+00
    0.00000E+00         0.00000E+00         0.18675E+07
 
    0.18337E+07         0.17682E+07         0.00000E+00
    0.17682E+07         0.75103E+07         0.00000E+00
    0.00000E+00         0.00000E+00         0.18688E+07
 
    0.18378E+07         0.18221E+07         0.00000E+00
    0.18221E+07         0.75121E+07         0.00000E+00
    0.00000E+00         0.00000E+00         0.18700E+07
 
    0.18417E+07         0.18762E+07         0.00000E+00
    0.18762E+07         0.75138E+07         0.00000E+00
    0.00000E+00         0.00000E+00         0.18711E+07
 
    0.18454E+07         0.19306E+07         0.00000E+00
    0.19306E+07         0.75154E+07         0.00000E+00
    0.00000E+00         0.00000E+00         0.18722E+07
 
    0.18489E+07         0.19853E+07         0.00000E+00
    0.19853E+07         0.75169E+07         0.00000E+00
    0.00000E+00         0.00000E+00         0.18731E+07
 
    0.18522E+07         0.20403E+07         0.00000E+00
    0.20403E+07         0.75182E+07         0.00000E+00
    0.00000E+00         0.00000E+00         0.18741E+07
 
    0.18553E+07         0.20956E+07         0.00000E+00
    0.20956E+07         0.75193E+07         0.00000E+00
    0.00000E+00         0.00000E+00         0.18749E+07
 
    0.18583E+07         0.21511E+07         0.00000E+00
    0.21511E+07         0.75203E+07         0.00000E+00
    0.00000E+00         0.00000E+00         0.18757E+07
 
    0.18611E+07         0.22070E+07         0.00000E+00
    0.22070E+07         0.75210E+07         0.00000E+00
    0.00000E+00         0.00000E+00         0.18764E+07
 
    0.18639E+07         0.22632E+07         0.00000E+00
    0.22632E+07         0.75216E+07         0.00000E+00
    0.00000E+00         0.00000E+00         0.18771E+07
 
    0.18665E+07         0.23196E+07         0.00000E+00
    0.23196E+07         0.75220E+07         0.00000E+00
    0.00000E+00         0.00000E+00         0.18777E+07
 
    0.18691E+07         0.23764E+07         0.00000E+00
    0.23764E+07         0.75222E+07         0.00000E+00
    0.00000E+00         0.00000E+00         0.18783E+07
 
    0.18716E+07         0.24335E+07         0.00000E+00
    0.24335E+07         0.75221E+07         0.00000E+00
    0.00000E+00         0.00000E+00         0.18787E+07
 
    0.18740E+07         0.24909E+07         0.00000E+00
    0.24909E+07         0.75219E+07         0.00000E+00
    0.00000E+00         0.00000E+00         0.18792E+07
 
    0.18764E+07         0.25486E+07         0.00000E+00
    0.25486E+07         0.75213E+07         0.00000E+00
    0.00000E+00         0.00000E+00         0.18796E+07
 
    0.18788E+07         0.26066E+07         0.00000E+00
    0.26066E+07         0.75206E+07         0.00000E+00
    0.00000E+00         0.00000E+00         0.18799E+07
 
    0.13092E+07         0.26418E+05         0.00000E+00
    0.26418E+05         0.70566E+07         0.00000E+00
    0.00000E+00         0.00000E+00         0.16731E+07
 
    0.13287E+07         0.78656E+05         0.00000E+00
    0.78656E+05         0.70567E+07         0.00000E+00
    0.00000E+00         0.00000E+00         0.16771E+07
 
    0.13478E+07         0.13067E+06         0.00000E+00
    0.13067E+06         0.70569E+07         0.00000E+00
    0.00000E+00         0.00000E+00         0.16809E+07
 
    0.13663E+07         0.18246E+06         0.00000E+00
    0.18246E+06         0.70572E+07         0.00000E+00
    0.00000E+00         0.00000E+00         0.16847E+07
 
    0.13843E+07         0.23407E+06         0.00000E+00
    0.23407E+06         0.70576E+07         0.00000E+00
    0.00000E+00         0.00000E+00         0.16884E+07
 
    0.14017E+07         0.28551E+06         0.00000E+00
    0.28551E+06         0.70581E+07         0.00000E+00
    0.00000E+00         0.00000E+00         0.16920E+07
 
    0.14186E+07         0.33680E+06         0.00000E+00
    0.33680E+06         0.70587E+07         0.00000E+00
    0.00000E+00         0.00000E+00         0.16955E+07
 
    0.14350E+07         0.38796E+06         0.00000E+00
    0.38796E+06         0.70593E+07         0.00000E+00
    0.00000E+00         0.00000E+00         0.16989E+07
 
    0.14508E+07         0.43900E+06         0.00000E+00
    0.43900E+06         0.70601E+07         0.00000E+00
    0.00000E+00         0.00000E+00         0.17022E+07
 
    0.14662E+07         0.48994E+06         0.00000E+00
    0.48994E+06         0.70610E+07         0.00000E+00
    0.00000E+00         0.00000E+00         0.17054E+07
 
    0.14810E+07         0.54081E+06         0.00000E+00
    0.54081E+06         0.70620E+07         0.00000E+00
    0.00000E+00         0.00000E+00         0.17086E+07
 
    0.14953E+07         0.59161E+06         0.00000E+00
    0.59161E+06         0.70631E+07         0.00000E+00
    0.00000E+00         0.00000E+00         0.17117E+07
 
    0.15091E+07         0.64237E+06         0.00000E+00
    0.64237E+06         0.70642E+07         0.00000E+00
    0.00000E+00         0.00000E+00         0.17147E+07
 
    0.15224E+07         0.69310E+06         0.00000E+00
    0.69310E+06         0.70654E+07         0.00000E+00
    0.00000E+00         0.00000E+00         0.17176E+07
 
    0.15352E+07         0.74382E+06         0.00000E+00
    0.74382E+06         0.70667E+07         0.00000E+00
    0.00000E+00         0.00000E+00         0.17204E+07
 
    0.15476E+07         0.79454E+06         0.00000E+00
    0.79454E+06         0.70681E+07         0.00000E+00
    0.00000E+00         0.00000E+00         0.17231E+07
 
    0.15594E+07         0.84529E+06         0.00000E+00
    0.84529E+06         0.70695E+07         0.00000E+00
    0.00000E+00         0.00000E+00         0.17258E+07
 
    0.15709E+07         0.89606E+06         0.00000E+00
    0.89606E+06         0.70710E+07         0.00000E+00
    0.00000E+00         0.00000E+00         0.17284E+07
 
    0.15818E+07         0.94688E+06         0.00000E+00
    0.94688E+06         0.70725E+07         0.00000E+00
    0.00000E+00         0.00000E+00         0.17309E+07
 
    0.15923E+07         0.99776E+06         0.00000E+00
    0.99776E+06         0.70740E+07         0.00000E+00
    0.00000E+00         0.00000E+00         0.17333E+07
 
    0.16024E+07         0.10487E+07         0.00000E+00
    0.10487E+07         0.70756E+07         0.00000E+00
    0.00000E+00         0.00000E+00         0.17356E+07
 
    0.16121E+07         0.10998E+07         0.00000E+00
    0.10998E+07         0.70772E+07         0.00000E+00
    0.00000E+00         0.00000E+00         0.17379E+07
 
    0.16214E+07         0.11509E+07         0.00000E+00
    0.11509E+07         0.70789E+07         0.00000E+00
    0.00000E+00         0.00000E+00         0.17401E+07
 
    0.16303E+07         0.12022E+07         0.00000E+00
    0.12022E+07         0.70805E+07         0.00000E+00
    0.00000E+00         0.00000E+00         0.17422E+07
 
    0.16388E+07         0.12535E+07         0.00000E+00
    0.12535E+07         0.70821E+07         0.00000E+00
    0.00000E+00         0.00000E+00         0.17442E+07
 
    0.16470E+07         0.13050E+07         0.00000E+00
    0.13050E+07         0.70838E+07         0.00000E+00
    0.00000E+00         0.00000E+00         0.17462E+07
 
    0.16548E+07         0.13567E+07         0.00000E+00
    0.13567E+07         0.70854E+07         0.00000E+00
    0.00000E+00         0.00000E+00         0.17480E+07
 
    0.16623E+07         0.14085E+07         0.00000E+00
    0.14085E+07         0.70870E+07         0.00000E+00
    0.00000E+00         0.00000E+00         0.17498E+07
 
    0.16694E+07         0.14604E+07         0.00000E+00
    0.14604E+07         0.70885E+07         0.00000E+00
    0.00000E+00         0.00000E+00         0.17516E+07
 
    0.16763E+07         0.15125E+07         0.00000E+00
    0.15125E+07         0.70900E+07         0.00000E+00
    0.00000E+00         0.00000E+00         0.17533E+07
 
    0.16828E+07         0.15648E+07         0.00000E+00
    0.15648E+07         0.70915E+07         0.00000E+00
    0.00000E+00         0.00000E+00         0.17549E+07
 
    0.16891E+07         0.16173E+07         0.00000E+00
    0.16173E+07         0.70928E+07         0.00000E+00
    0.00000E+00         0.00000E+00         0.17564E+07
 
    0.16951E+07         0.16700E+07         0.00000E+00
    0.16700E+07         0.70942E+07         0.00000E+00
    0.00000E+00         0.00000E+00         0.17579E+07
 
    0.17009E+07         0.17229E+07         0.00000E+00
    0.17229E+07         0.70954E+07         0.00000E+00
    0.00000E+00         0.00000E+00         0.17593E+07
 
    0.17064E+07         0.17760E+07         0.00000E+00
    0.17760E+07         0.70965E+07         0.00000E+00
    0.00000E+00         0.00000E+00         0.17606E+07
 
    0.17117E+07         0.18293E+07         0.00000E+00
    0.18293E+07         0.70975E+07         0.00000E+00
    0.00000E+00         0.00000E+00         0.17619E+07
 
    0.17169E+07         0.18828E+07         0.00000E+00
    0.18828E+07         0.70984E+07         0.00000E+00
    0.00000E+00         0.00000E+00         0.17631E+07
 
    0.17218E+07         0.19365E+07         0.00000E+00
    0.19365E+07         0.70992E+07         0.00000E+00
    0.00000E+00         0.00000E+00         0.17642E+07
 
    0.17265E+07         0.19905E+07         0.00000E+00
    0.19905E+07         0.70999E+07         0.00000E+00
    0.00000E+00         0.00000E+00         0.17653E+07
 
    0.17311E+07         0.20447E+07         0.00000E+00
    0.20447E+07         0.71004E+07         0.00000E+00
    0.00000E+00         0.00000E+00         0.17663E+07
 
    0.17356E+07         0.20991E+07         0.00000E+00
    0.20991E+07         0.71008E+07         0.00000E+00
    0.00000E+00         0.00000E+00         0.17673E+07
 
    0.17399E+07         0.21538E+07         0.00000E+00
    0.21538E+07         0.71010E+07         0.00000E+00
    0.00000E+00         0.00000E+00         0.17682E+07
 
    0.17441E+07         0.22087E+07         0.00000E+00
    0.22087E+07         0.71010E+07         0.00000E+00
    0.00000E+00         0.00000E+00         0.17690E+07
 
    0.17482E+07         0.22639E+07         0.00000E+00
    0.22639E+07         0.71008E+07         0.00000E+00
    0.00000E+00         0.00000E+00         0.17698E+07
 
    0.17523E+07         0.23193E+07         0.00000E+00
    0.23193E+07         0.71005E+07         0.00000E+00
    0.00000E+00         0.00000E+00         0.17706E+07
 
    0.17562E+07         0.23750E+07         0.00000E+00
    0.23750E+07         0.70999E+07         0.00000E+00
    0.00000E+00         0.00000E+00         0.17712E+07
 
    0.17602E+07         0.24310E+07         0.00000E+00
    0.24310E+07         0.70992E+07         0.00000E+00
    0.00000E+00         0.00000E+00         0.17719E+07
 
    0.17640E+07         0.24872E+07         0.00000E+00
    0.24872E+07         0.70982E+07         0.00000E+00
    0.00000E+00         0.00000E+00         0.17724E+07
 
    0.17679E+07         0.25436E+07         0.00000E+00
    0.25436E+07         0.70970E+07         0.00000E+00
    0.00000E+00         0.00000E+00         0.17730E+07
 
    0.17718E+07         0.26004E+07         0.00000E+00
    0.26004E+07         0.70955E+07         0.00000E+00
    0.00000E+00         0.00000E+00         0.17735E+07
 
    0.11879E+07         0.26638E+05         0.00000E+00
    0.26638E+05         0.66723E+07         0.00000E+00
    0.00000E+00         0.00000E+00         0.15720E+07
 
    0.12063E+07         0.79337E+05         0.00000E+00
    0.79337E+05         0.66724E+07         0.00000E+00
    0.00000E+00         0.00000E+00         0.15757E+07
 
    0.12242E+07         0.13181E+06         0.00000E+00
    0.13181E+06         0.66725E+07         0.00000E+00
    0.00000E+00         0.00000E+00         0.15793E+07
 
    0.12418E+07         0.18408E+06         0.00000E+00
    0.18408E+06         0.66727E+07         0.00000E+00
    0.00000E+00         0.00000E+00         0.15829E+07
 
    0.12588E+07         0.23615E+06         0.00000E+00
    0.23615E+06         0.66729E+07         0.00000E+00
    0.00000E+00         0.00000E+00         0.15863E+07
 
    0.12754E+07         0.28805E+06         0.00000E+00
    0.28805E+06         0.66732E+07         0.00000E+00
    0.00000E+00         0.00000E+00         0.15897E+07
 
    0.12916E+07         0.33979E+06         0.00000E+00
    0.33979E+06         0.66736E+07         0.00000E+00
    0.00000E+00         0.00000E+00         0.15930E+07
 
    0.13073E+07         0.39139E+06         0.00000E+00
    0.39139E+06         0.66741E+07         0.00000E+00
    0.00000E+00         0.00000E+00         0.15963E+07
 
    0.13226E+07         0.44286E+06         0.00000E+00
    0.44286E+06         0.66746E+07         0.00000E+00
    0.00000E+00         0.00000E+00         0.15994E+07
 
    0.13375E+07         0.49421E+06         0.00000E+00
    0.49421E+06         0.66751E+07         0.00000E+00
    0.00000E+00         0.00000E+00         0.16025E+07
 
    0.13519E+07         0.54547E+06         0.00000E+00
    0.54547E+06         0.66758E+07         0.00000E+00
    0.00000E+00         0.00000E+00         0.16055E+07
 
    0.13659E+07         0.59665E+06         0.00000E+00
    0.59665E+06         0.66765E+07         0.00000E+00
    0.00000E+00         0.00000E+00         0.16085E+07
 
    0.13795E+07         0.64776E+06         0.00000E+00
    0.64776E+06         0.66772E+07         0.00000E+00
    0.00000E+00         0.00000E+00         0.16113E+07
 
    0.13926E+07         0.69882E+06         0.00000E+00
    0.69882E+06         0.66780E+07         0.00000E+00
    0.00000E+00         0.00000E+00         0.16141E+07
 
    0.14053E+07         0.74984E+06         0.00000E+00
    0.74984E+06         0.66788E+07         0.00000E+00
    0.00000E+00         0.00000E+00         0.16168E+07
 
    0.14176E+07         0.80083E+06         0.00000E+00
    0.80083E+06         0.66797E+07         0.00000E+00
    0.00000E+00         0.00000E+00         0.16195E+07
 
    0.14296E+07         0.85181E+06         0.00000E+00
    0.85181E+06         0.66806E+07         0.00000E+00
    0.00000E+00         0.00000E+00         0.16220E+07
 
    0.14411E+07         0.90279E+06         0.00000E+00
    0.90279E+06         0.66816E+07         0.00000E+00
    0.00000E+00         0.00000E+00         0.16245E+07
 
    0.14522E+07         0.95378E+06         0.00000E+00
    0.95378E+06         0.66826E+07         0.00000E+00
    0.00000E+00         0.00000E+00         0.16270E+07
 
    0.14630E+07         0.10048E+07         0.00000E+00
    0.10048E+07         0.66836E+07         0.00000E+00
    0.00000E+00         0.00000E+00         0.16293E+07
 
    0.14734E+07         0.10559E+07         0.00000E+00
    0.10559E+07         0.66846E+07         0.00000E+00
    0.00000E+00         0.00000E+00         0.16316E+07
 
    0.14834E+07         0.11070E+07         0.00000E+00
    0.11070E+07         0.66856E+07         0.00000E+00
    0.00000E+00         0.00000E+00         0.16338E+07
 
    0.14931E+07         0.11581E+07         0.00000E+00
    0.11581E+07         0.66866E+07         0.00000E+00
    0.00000E+00         0.00000E+00         0.16359E+07
 
    0.15025E+07         0.12094E+07         0.00000E+00
    0.12094E+07         0.66876E+07         0.00000E+00
    0.00000E+00         0.00000E+00         0.16380E+07
 
    0.15116E+07         0.12607E+07         0.00000E+00
    0.12607E+07         0.66886E+07         0.00000E+00
    0.00000E+00         0.00000E+00         0.16400E+07
 
    0.15203E+07         0.13121E+07         0.00000E+00
    0.13121E+07         0.66896E+07         0.00000E+00
    0.00000E+00         0.00000E+00         0.16420E+07
 
    0.15287E+07         0.13636E+07         0.00000E+00
    0.13636E+07         0.66906E+07         0.00000E+00
    0.00000E+00         0.00000E+00         0.16439E+07
 
    0.15369E+07         0.14152E+07         0.00000E+00
    0.14152E+07         0.66915E+07         0.00000E+00
    0.00000E+00         0.00000E+00         0.16457E+07
 
    0.15447E+07         0.14669E+07         0.00000E+00
    0.14669E+07         0.66923E+07         0.00000E+00
    0.00000E+00         0.00000E+00         0.16474E+07
 
    0.15523E+07         0.15187E+07         0.00000E+00
    0.15187E+07         0.66932E+07         0.00000E+00
    0.00000E+00         0.00000E+00         0.16491E+07
 
    0.15596E+07         0.15707E+07         0.00000E+00
    0.15707E+07         0.66939E+07         0.00000E+00
    0.00000E+00         0.00000E+00         0.16507E+07
 
    0.15667E+07         0.16228E+07         0.00000E+00
    0.16228E+07         0.66946E+07         0.00000E+00
    0.00000E+00         0.00000E+00         0.16523E+07
 
    0.15736E+07         0.16751E+07         0.00000E+00
    0.16751E+07         0.66952E+07         0.00000E+00
    0.00000E+00         0.00000E+00         0.16538E+07
 
    0.15803E+07         0.17275E+07         0.00000E+00
    0.17275E+07         0.66958E+07         0.00000E+00
    0.00000E+00         0.00000E+00         0.16552E+07
 
    0.15867E+07         0.17801E+07         0.00000E+00
    0.17801E+07         0.66962E+07         0.00000E+00
    0.00000E+00         0.00000E+00         0.16566E+07
 
    0.15930E+07         0.18328E+07         0.00000E+00
    0.18328E+07         0.66966E+07         0.00000E+00
    0.00000E+00         0.00000E+00         0.16579E+07
 
    0.15991E+07         0.18857E+07         0.00000E+00
    0.18857E+07         0.66968E+07         0.00000E+00
    0.00000E+00         0.00000E+00         0.16592E+07
 
    0.16050E+07         0.19388E+07         0.00000E+00
    0.19388E+07         0.66969E+07         0.00000E+00
    0.00000E+00         0.00000E+00         0.16604E+07
 
    0.16108E+07         0.19920E+07         0.00000E+00
    0.19920E+07         0.66969E+07         0.00000E+00
    0.00000E+00         0.00000E+00         0.16615E+07
 
    0.16165E+07         0.20455E+07         0.00000E+00
    0.20455E+07         0.66967E+07         0.00000E+00
    0.00000E+00         0.00000E+00         0.16626E+07
 
    0.16220E+07         0.20991E+07         0.00000E+00
    0.20991E+07         0.66964E+07         0.00000E+00
    0.00000E+00         0.00000E+00         0.16637E+07
 
    0.16274E+07         0.21530E+07         0.00000E+00
    0.21530E+07         0.66960E+07         0.00000E+00
    0.00000E+00         0.00000E+00         0.16647E+07
 
    0.16327E+07         0.22070E+07         0.00000E+00
    0.22070E+07         0.66954E+07         0.00000E+00
    0.00000E+00         0.00000E+00         0.16656E+07
 
    0.16380E+07         0.22612E+07         0.00000E+00
    0.22612E+07         0.66946E+07         0.00000E+00
    0.00000E+00         0.00000E+00         0.16665E+07
 
    0.16432E+07         0.23157E+07         0.00000E+00
    0.23157E+07         0.66936E+07         0.00000E+00
    0.00000E+00         0.00000E+00         0.16674E+07
 
    0.16483E+07         0.23703E+07         0.00000E+00
    0.23703E+07         0.66925E+07         0.00000E+00
    0.00000E+00         0.00000E+00         0.16682E+07
 
    0.16534E+07         0.24252E+07         0.00000E+00
    0.24252E+07         0.66911E+07         0.00000E+00
    0.00000E+00         0.00000E+00         0.16689E+07
 
    0.16585E+07         0.24803E+07         0.00000E+00
    0.24803E+07         0.66895E+07         0.00000E+00
    0.00000E+00         0.00000E+00         0.16696E+07
 
    0.16636E+07         0.25355E+07         0.00000E+00
    0.25355E+07         0.66877E+07         0.00000E+00
    0.00000E+00         0.00000E+00         0.16703E+07
 
    0.16686E+07         0.25911E+07         0.00000E+00
    0.25911E+07         0.66857E+07         0.00000E+00
    0.00000E+00         0.00000E+00         0.16709E+07
 
    0.10781E+07         0.26774E+05         0.00000E+00
    0.26774E+05         0.62977E+07         0.00000E+00
    0.00000E+00         0.00000E+00         0.14752E+07
 
    0.10954E+07         0.79767E+05         0.00000E+00
    0.79767E+05         0.62977E+07         0.00000E+00
    0.00000E+00         0.00000E+00         0.14786E+07
 
    0.11123E+07         0.13254E+06         0.00000E+00
    0.13254E+06         0.62978E+07         0.00000E+00
    0.00000E+00         0.00000E+00         0.14820E+07
 
    0.11288E+07         0.18511E+06         0.00000E+00
    0.18511E+06         0.62979E+07         0.00000E+00
    0.00000E+00         0.00000E+00         0.14853E+07
 
    0.11450E+07         0.23749E+06         0.00000E+00
    0.23749E+06         0.62980E+07         0.00000E+00
    0.00000E+00         0.00000E+00         0.14886E+07
 
    0.11607E+07         0.28969E+06         0.00000E+00
    0.28969E+06         0.62982E+07         0.00000E+00
    0.00000E+00         0.00000E+00         0.14918E+07
 
    0.11761E+07         0.34173E+06         0.00000E+00
    0.34173E+06         0.62984E+07         0.00000E+00
    0.00000E+00         0.00000E+00         0.14949E+07
 
    0.11912E+07         0.39362E+06         0.00000E+00
    0.39362E+06         0.62987E+07         0.00000E+00
    0.00000E+00         0.00000E+00         0.14980E+07
 
    0.12058E+07         0.44537E+06         0.00000E+00
    0.44537E+06         0.62989E+07         0.00000E+00
    0.00000E+00         0.00000E+00         0.15010E+07
 
    0.12201E+07         0.49700E+06         0.00000E+00
    0.49700E+06         0.62993E+07         0.00000E+00
    0.00000E+00         0.00000E+00         0.15039E+07
 
    0.12341E+07         0.54852E+06         0.00000E+00
    0.54852E+06         0.62996E+07         0.00000E+00
    0.00000E+00         0.00000E+00         0.15067E+07
 
    0.12476E+07         0.59994E+06         0.00000E+00
    0.59994E+06         0.63000E+07         0.00000E+00
    0.00000E+00         0.00000E+00         0.15095E+07
 
    0.12609E+07         0.65128E+06         0.00000E+00
    0.65128E+06         0.63004E+07         0.00000E+00
    0.00000E+00         0.00000E+00         0.15123E+07
 
    0.12737E+07         0.70254E+06         0.00000E+00
    0.70254E+06         0.63009E+07         0.00000E+00
    0.00000E+00         0.00000E+00         0.15149E+07
 
    0.12862E+07         0.75374E+06         0.00000E+00
    0.75374E+06         0.63013E+07         0.00000E+00
    0.00000E+00         0.00000E+00         0.15175E+07
 
    0.12984E+07         0.80489E+06         0.00000E+00
    0.80489E+06         0.63018E+07         0.00000E+00
    0.00000E+00         0.00000E+00         0.15200E+07
 
    0.13102E+07         0.85601E+06         0.00000E+00
    0.85601E+06         0.63023E+07         0.00000E+00
    0.00000E+00         0.00000E+00         0.15225E+07
 
    0.13217E+07         0.90710E+06         0.00000E+00
    0.90710E+06         0.63028E+07         0.00000E+00
    0.00000E+00         0.00000E+00         0.15249E+07
 
    0.13329E+07         0.95817E+06         0.00000E+00
    0.95817E+06         0.63034E+07         0.00000E+00
    0.00000E+00         0.00000E+00         0.15272E+07
 
    0.13437E+07         0.10092E+07         0.00000E+00
    0.10092E+07         0.63039E+07         0.00000E+00
    0.00000E+00         0.00000E+00         0.15295E+07
 
    0.13543E+07         0.10603E+07         0.00000E+00
    0.10603E+07         0.63044E+07         0.00000E+00
    0.00000E+00         0.00000E+00         0.15317E+07
 
    0.13645E+07         0.11114E+07         0.00000E+00
    0.11114E+07         0.63050E+07         0.00000E+00
    0.00000E+00         0.00000E+00         0.15339E+07
 
    0.13744E+07         0.11625E+07         0.00000E+00
    0.11625E+07         0.63055E+07         0.00000E+00
    0.00000E+00         0.00000E+00         0.15360E+07
 
    0.13841E+07         0.12137E+07         0.00000E+00
    0.12137E+07         0.63060E+07         0.00000E+00
    0.00000E+00         0.00000E+00         0.15380E+07
 
    0.13934E+07         0.12649E+07         0.00000E+00
    0.12649E+07         0.63064E+07         0.00000E+00
    0.00000E+00         0.00000E+00         0.15400E+07
 
    0.14025E+07         0.13161E+07         0.00000E+00
    0.13161E+07         0.63069E+07         0.00000E+00
    0.00000E+00         0.00000E+00         0.15419E+07
 
    0.14114E+07         0.13674E+07         0.00000E+00
    0.13674E+07         0.63073E+07         0.00000E+00
    0.00000E+00         0.00000E+00         0.15437E+07
 
    0.14200E+07         0.14188E+07         0.00000E+00
    0.14188E+07         0.63077E+07         0.00000E+00
    0.00000E+00         0.00000E+00         0.15455E+07
 
    0.14283E+07         0.14703E+07         0.00000E+00
    0.14703E+07         0.63080E+07         0.00000E+00
    0.00000E+00         0.00000E+00         0.15473E+07
 
    0.14365E+07         0.15218E+07         0.00000E+00
    0.15218E+07         0.63082E+07         0.00000E+00
    0.00000E+00         0.00000E+00         0.15489E+07
 
    0.14444E+07         0.15734E+07         0.00000E+00
    0.15734E+07         0.63084E+07         0.00000E+00
    0.00000E+00         0.00000E+00         0.15506E+07
 
    0.14521E+07         0.16252E+07         0.00000E+00
    0.16252E+07         0.63086E+07         0.00000E+00
    0.00000E+00         0.00000E+00         0.15521E+07
 
    0.14596E+07         0.16770E+07         0.00000E+00
    0.16770E+07         0.63086E+07         0.00000E+00
    0.00000E+00         0.00000E+00         0.15536E+07
 
    0.14669E+07         0.17290E+07         0.00000E+00
    0.17290E+07         0.63086E+07         0.00000E+00
    0.00000E+00         0.00000E+00         0.15551E+07
 
    0.14741E+07         0.17810E+07         0.00000E+00
    0.17810E+07         0.63085E+07         0.00000E+00
    0.00000E+00         0.00000E+00         0.15565E+07
 
    0.14811E+07         0.18332E+07         0.00000E+00
    0.18332E+07         0.63082E+07         0.00000E+00
    0.00000E+00         0.00000E+00         0.15579E+07
 
    0.14880E+07         0.18855E+07         0.00000E+00
    0.18855E+07         0.63079E+07         0.00000E+00
    0.00000E+00         0.00000E+00         0.15592E+07
 
    0.14947E+07         0.19380E+07         0.00000E+00
    0.19380E+07         0.63074E+07         0.00000E+00
    0.00000E+00         0.00000E+00         0.15604E+07
 
    0.15013E+07         0.19906E+07         0.00000E+00
    0.19906E+07         0.63069E+07         0.00000E+00
    0.00000E+00         0.00000E+00         0.15616E+07
 
    0.15077E+07         0.20433E+07         0.00000E+00
    0.20433E+07         0.63062E+07         0.00000E+00
    0.00000E+00         0.00000E+00         0.15628E+07
 
    0.15141E+07         0.20962E+07         0.00000E+00
    0.20962E+07         0.63053E+07         0.00000E+00
    0.00000E+00         0.00000E+00         0.15639E+07
 
    0.15204E+07         0.21492E+07         0.00000E+00
    0.21492E+07         0.63043E+07         0.00000E+00
    0.00000E+00         0.00000E+00         0.15649E+07
 
    0.15266E+07         0.22024E+07         0.00000E+00
    0.22024E+07         0.63032E+07         0.00000E+00
    0.00000E+00         0.00000E+00         0.15660E+07
 
    0.15328E+07         0.22557E+07         0.00000E+00
    0.22557E+07         0.63018E+07         0.00000E+00
    0.00000E+00         0.00000E+00         0.15669E+07
 
    0.15389E+07         0.23092E+07         0.00000E+00
    0.23092E+07         0.63004E+07         0.00000E+00
    0.00000E+00         0.00000E+00         0.15679E+07
 
    0.15450E+07         0.23629E+07         0.00000E+00
    0.23629E+07         0.62987E+07         0.00000E+00
    0.00000E+00         0.00000E+00         0.15687E+07
 
    0.15510E+07         0.24167E+07         0.00000E+00
    0.24167E+07         0.62968E+07         0.00000E+00
    0.00000E+00         0.00000E+00         0.15696E+07
 
    0.15571E+07         0.24707E+07         0.00000E+00
    0.24707E+07         0.62948E+07         0.00000E+00
    0.00000E+00         0.00000E+00         0.15704E+07
 
    0.15631E+07         0.25249E+07         0.00000E+00
    0.25249E+07         0.62925E+07         0.00000E+00
    0.00000E+00         0.00000E+00         0.15711E+07
 
    0.15692E+07         0.25792E+07         0.00000E+00
    0.25792E+07         0.62901E+07         0.00000E+00
    0.00000E+00         0.00000E+00         0.15718E+07
 
    0.97861E+06         0.26843E+05         0.00000E+00
    0.26843E+05         0.59322E+07         0.00000E+00
    0.00000E+00         0.00000E+00         0.13822E+07
 
    0.99476E+06         0.79997E+05         0.00000E+00
    0.79997E+05         0.59322E+07         0.00000E+00
    0.00000E+00         0.00000E+00         0.13854E+07
 
    0.10106E+07         0.13294E+06         0.00000E+00
    0.13294E+06         0.59322E+07         0.00000E+00
    0.00000E+00         0.00000E+00         0.13886E+07
 
    0.10261E+07         0.18568E+06         0.00000E+00
    0.18568E+06         0.59322E+07         0.00000E+00
    0.00000E+00         0.00000E+00         0.13917E+07
 
    0.10414E+07         0.23824E+06         0.00000E+00
    0.23824E+06         0.59323E+07         0.00000E+00
    0.00000E+00         0.00000E+00         0.13947E+07
 
    0.10563E+07         0.29062E+06         0.00000E+00
    0.29062E+06         0.59323E+07         0.00000E+00
    0.00000E+00         0.00000E+00         0.13977E+07
 
    0.10709E+07         0.34283E+06         0.00000E+00
    0.34283E+06         0.59324E+07         0.00000E+00
    0.00000E+00         0.00000E+00         0.14007E+07
 
    0.10852E+07         0.39489E+06         0.00000E+00
    0.39489E+06         0.59325E+07         0.00000E+00
    0.00000E+00         0.00000E+00         0.14035E+07
 
    0.10992E+07         0.44680E+06         0.00000E+00
    0.44680E+06         0.59326E+07         0.00000E+00
    0.00000E+00         0.00000E+00         0.14064E+07
 
    0.11129E+07         0.49859E+06         0.00000E+00
    0.49859E+06         0.59327E+07         0.00000E+00
    0.00000E+00         0.00000E+00         0.14091E+07
 
    0.11263E+07         0.55025E+06         0.00000E+00
    0.55025E+06         0.59328E+07         0.00000E+00
    0.00000E+00         0.00000E+00         0.14118E+07
 
    0.11394E+07         0.60181E+06         0.00000E+00
    0.60181E+06         0.59330E+07         0.00000E+00
    0.00000E+00         0.00000E+00         0.14145E+07
 
    0.11522E+07         0.65326E+06         0.00000E+00
    0.65326E+06         0.59331E+07         0.00000E+00
    0.00000E+00         0.00000E+00         0.14171E+07
 
    0.11647E+07         0.70463E+06         0.00000E+00
    0.70463E+06         0.59333E+07         0.00000E+00
    0.00000E+00         0.00000E+00         0.14196E+07
 
    0.11769E+07         0.75592E+06         0.00000E+00
    0.75592E+06         0.59335E+07         0.00000E+00
    0.00000E+00         0.00000E+00         0.14221E+07
 
    0.11888E+07         0.80715E+06         0.00000E+00
    0.80715E+06         0.59336E+07         0.00000E+00
    0.00000E+00         0.00000E+00         0.14245E+07
 
    0.12004E+07         0.85831E+06         0.00000E+00
    0.85831E+06         0.59338E+07         0.00000E+00
    0.00000E+00         0.00000E+00         0.14268E+07
 
    0.12117E+07         0.90943E+06         0.00000E+00
    0.90943E+06         0.59340E+07         0.00000E+00
    0.00000E+00         0.00000E+00         0.14291E+07
 
    0.12228E+07         0.96051E+06         0.00000E+00
    0.96051E+06         0.59342E+07         0.00000E+00
    0.00000E+00         0.00000E+00         0.14314E+07
 
    0.12335E+07         0.10116E+07         0.00000E+00
    0.10116E+07         0.59343E+07         0.00000E+00
    0.00000E+00         0.00000E+00         0.14336E+07
 
    0.12441E+07         0.10626E+07         0.00000E+00
    0.10626E+07         0.59345E+07         0.00000E+00
    0.00000E+00         0.00000E+00         0.14357E+07
 
    0.12543E+07         0.11136E+07         0.00000E+00
    0.11136E+07         0.59346E+07         0.00000E+00
    0.00000E+00         0.00000E+00         0.14378E+07
 
    0.12644E+07         0.11646E+07         0.00000E+00
    0.11646E+07         0.59347E+07         0.00000E+00
    0.00000E+00         0.00000E+00         0.14398E+07
 
    0.12741E+07         0.12156E+07         0.00000E+00
    0.12156E+07         0.59348E+07         0.00000E+00
    0.00000E+00         0.00000E+00         0.14418E+07
 
    0.12837E+07         0.12667E+07         0.00000E+00
    0.12667E+07         0.59348E+07         0.00000E+00
    0.00000E+00         0.00000E+00         0.14437E+07
 
    0.12930E+07         0.13177E+07         0.00000E+00
    0.13177E+07         0.59348E+07         0.00000E+00
    0.00000E+00         0.00000E+00         0.14456E+07
 
    0.13021E+07         0.13688E+07         0.00000E+00
    0.13688E+07         0.59348E+07         0.00000E+00
    0.00000E+00         0.00000E+00         0.14474E+07
 
    0.13109E+07         0.14200E+07         0.00000E+00
    0.14200E+07         0.59347E+07         0.00000E+00
    0.00000E+00         0.00000E+00         0.14491E+07
 
    0.13196E+07         0.14711E+07         0.00000E+00
    0.14711E+07         0.59346E+07         0.00000E+00
    0.00000E+00         0.00000E+00         0.14508E+07
 
    0.13281E+07         0.15223E+07         0.00000E+00
    0.15223E+07         0.59344E+07         0.00000E+00
    0.00000E+00         0.00000E+00         0.14525E+07
 
    0.13364E+07         0.15736E+07         0.00000E+00
    0.15736E+07         0.59341E+07         0.00000E+00
    0.00000E+00         0.00000E+00         0.14541E+07
 
    0.13445E+07         0.16250E+07         0.00000E+00
    0.16250E+07         0.59338E+07         0.00000E+00
    0.00000E+00         0.00000E+00         0.14557E+07
 
    0.13525E+07         0.16764E+07         0.00000E+00
    0.16764E+07         0.59333E+07         0.00000E+00
    0.00000E+00         0.00000E+00         0.14572E+07
 
    0.13603E+07         0.17278E+07         0.00000E+00
    0.17278E+07         0.59328E+07         0.00000E+00
    0.00000E+00         0.00000E+00         0.14586E+07
 
    0.13680E+07         0.17794E+07         0.00000E+00
    0.17794E+07         0.59322E+07         0.00000E+00
    0.00000E+00         0.00000E+00         0.14600E+07
 
    0.13755E+07         0.18311E+07         0.00000E+00
    0.18311E+07         0.59316E+07         0.00000E+00
    0.00000E+00         0.00000E+00         0.14614E+07
 
    0.13829E+07         0.18828E+07         0.00000E+00
    0.18828E+07         0.59308E+07         0.00000E+00
    0.00000E+00         0.00000E+00         0.14627E+07
 
    0.13902E+07         0.19346E+07         0.00000E+00
    0.19346E+07         0.59298E+07         0.00000E+00
    0.00000E+00         0.00000E+00         0.14640E+07
 
    0.13974E+07         0.19866E+07         0.00000E+00
    0.19866E+07         0.59288E+07         0.00000E+00
    0.00000E+00         0.00000E+00         0.14652E+07
 
    0.14045E+07         0.20386E+07         0.00000E+00
    0.20386E+07         0.59277E+07         0.00000E+00
    0.00000E+00         0.00000E+00         0.14664E+07
 
    0.14115E+07         0.20907E+07         0.00000E+00
    0.20907E+07         0.59264E+07         0.00000E+00
    0.00000E+00         0.00000E+00         0.14676E+07
 
    0.14185E+07         0.21430E+07         0.00000E+00
    0.21430E+07         0.59249E+07         0.00000E+00
    0.00000E+00         0.00000E+00         0.14687E+07
 
    0.14254E+07         0.21954E+07         0.00000E+00
    0.21954E+07         0.59233E+07         0.00000E+00
    0.00000E+00         0.00000E+00         0.14697E+07
 
    0.14322E+07         0.22478E+07         0.00000E+00
    0.22478E+07         0.59216E+07         0.00000E+00
    0.00000E+00         0.00000E+00         0.14708E+07
 
    0.14391E+07         0.23005E+07         0.00000E+00
    0.23005E+07         0.59197E+07         0.00000E+00
    0.00000E+00         0.00000E+00         0.14718E+07
 
    0.14459E+07         0.23532E+07         0.00000E+00
    0.23532E+07         0.59176E+07         0.00000E+00
    0.00000E+00         0.00000E+00         0.14727E+07
 
    0.14527E+07         0.24061E+07         0.00000E+00
    0.24061E+07         0.59154E+07         0.00000E+00
    0.00000E+00         0.00000E+00         0.14736E+07
 
    0.14594E+07         0.24590E+07         0.00000E+00
    0.24590E+07         0.59129E+07         0.00000E+00
    0.00000E+00         0.00000E+00         0.14745E+07
 
    0.14662E+07         0.25122E+07         0.00000E+00
    0.25122E+07         0.59103E+07         0.00000E+00
    0.00000E+00         0.00000E+00         0.14753E+07
 
    0.14731E+07         0.25654E+07         0.00000E+00
    0.25654E+07         0.59075E+07         0.00000E+00
    0.00000E+00         0.00000E+00         0.14761E+07
 
    0.88811E+06         0.26859E+05         0.00000E+00
    0.26859E+05         0.55752E+07         0.00000E+00
    0.00000E+00         0.00000E+00         0.12927E+07
 
    0.90319E+06         0.80071E+05         0.00000E+00
    0.80071E+05         0.55752E+07         0.00000E+00
    0.00000E+00         0.00000E+00         0.12957E+07
 
    0.91803E+06         0.13308E+06         0.00000E+00
    0.13308E+06         0.55752E+07         0.00000E+00
    0.00000E+00         0.00000E+00         0.12986E+07
 
    0.93261E+06         0.18589E+06         0.00000E+00
    0.18589E+06         0.55752E+07         0.00000E+00
    0.00000E+00         0.00000E+00         0.13016E+07
 
    0.94694E+06         0.23852E+06         0.00000E+00
    0.23852E+06         0.55751E+07         0.00000E+00
    0.00000E+00         0.00000E+00         0.13044E+07
 
    0.96101E+06         0.29097E+06         0.00000E+00
    0.29097E+06         0.55751E+07         0.00000E+00
    0.00000E+00         0.00000E+00         0.13072E+07
 
    0.97483E+06         0.34326E+06         0.00000E+00
    0.34326E+06         0.55751E+07         0.00000E+00
    0.00000E+00         0.00000E+00         0.13100E+07
 
    0.98839E+06         0.39539E+06         0.00000E+00
    0.39539E+06         0.55750E+07         0.00000E+00
    0.00000E+00         0.00000E+00         0.13127E+07
 
    0.10017E+07         0.44737E+06         0.00000E+00
    0.44737E+06         0.55750E+07         0.00000E+00
    0.00000E+00         0.00000E+00         0.13153E+07
 
    0.10148E+07         0.49922E+06         0.00000E+00
    0.49922E+06         0.55749E+07         0.00000E+00
    0.00000E+00         0.00000E+00         0.13179E+07
 
    0.10275E+07         0.55094E+06         0.00000E+00
    0.55094E+06         0.55749E+07         0.00000E+00
    0.00000E+00         0.00000E+00         0.13205E+07
 
    0.10401E+07         0.60254E+06         0.00000E+00
    0.60254E+06         0.55748E+07         0.00000E+00
    0.00000E+00         0.00000E+00         0.13230E+07
 
    0.10524E+07         0.65403E+06         0.00000E+00
    0.65403E+06         0.55748E+07         0.00000E+00
    0.00000E+00         0.00000E+00         0.13254E+07
 
    0.10644E+07         0.70542E+06         0.00000E+00
    0.70542E+06         0.55747E+07         0.00000E+00
    0.00000E+00         0.00000E+00         0.13278E+07
 
    0.10762E+07         0.75672E+06         0.00000E+00
    0.75672E+06         0.55747E+07         0.00000E+00
    0.00000E+00         0.00000E+00         0.13302E+07
 
    0.10878E+07         0.80793E+06         0.00000E+00
    0.80793E+06         0.55746E+07         0.00000E+00
    0.00000E+00         0.00000E+00         0.13325E+07
 
    0.10991E+07         0.85908E+06         0.00000E+00
    0.85908E+06         0.55745E+07         0.00000E+00
    0.00000E+00         0.00000E+00         0.13347E+07
 
    0.11101E+07         0.91015E+06         0.00000E+00
    0.91015E+06         0.55744E+07         0.00000E+00
    0.00000E+00         0.00000E+00         0.13369E+07
 
    0.11210E+07         0.96117E+06         0.00000E+00
    0.96117E+06         0.55743E+07         0.00000E+00
    0.00000E+00         0.00000E+00         0.13390E+07
 
    0.11316E+07         0.10121E+07         0.00000E+00
    0.10121E+07         0.55741E+07         0.00000E+00
    0.00000E+00         0.00000E+00         0.13411E+07
 
    0.11420E+07         0.10631E+07         0.00000E+00
    0.10631E+07         0.55740E+07         0.00000E+00
    0.00000E+00         0.00000E+00         0.13432E+07
 
    0.11522E+07         0.11140E+07         0.00000E+00
    0.11140E+07         0.55738E+07         0.00000E+00
    0.00000E+00         0.00000E+00         0.13452E+07
 
    0.11621E+07         0.11648E+07         0.00000E+00
    0.11648E+07         0.55735E+07         0.00000E+00
    0.00000E+00         0.00000E+00         0.13471E+07
 
    0.11719E+07         0.12157E+07         0.00000E+00
    0.12157E+07         0.55733E+07         0.00000E+00
    0.00000E+00         0.00000E+00         0.13490E+07
 
    0.11815E+07         0.12665E+07         0.00000E+00
    0.12665E+07         0.55730E+07         0.00000E+00
    0.00000E+00         0.00000E+00         0.13509E+07
 
    0.11908E+07         0.13174E+07         0.00000E+00
    0.13174E+07         0.55726E+07         0.00000E+00
    0.00000E+00         0.00000E+00         0.13527E+07
 
    0.12000E+07         0.13682E+07         0.00000E+00
    0.13682E+07         0.55722E+07         0.00000E+00
    0.00000E+00         0.00000E+00         0.13545E+07
 
    0.12090E+07         0.14190E+07         0.00000E+00
    0.14190E+07         0.55718E+07         0.00000E+00
    0.00000E+00         0.00000E+00         0.13562E+07
 
    0.12179E+07         0.14699E+07         0.00000E+00
    0.14699E+07         0.55713E+07         0.00000E+00
    0.00000E+00         0.00000E+00         0.13578E+07
 
    0.12266E+07         0.15208E+07         0.00000E+00
    0.15208E+07         0.55707E+07         0.00000E+00
    0.00000E+00         0.00000E+00         0.13595E+07
 
    0.12351E+07         0.15717E+07         0.00000E+00
    0.15717E+07         0.55701E+07         0.00000E+00
    0.00000E+00         0.00000E+00         0.13610E+07
 
    0.12435E+07         0.16226E+07         0.00000E+00
    0.16226E+07         0.55694E+07         0.00000E+00
    0.00000E+00         0.00000E+00         0.13626E+07
 
    0.12517E+07         0.16736E+07         0.00000E+00
    0.16736E+07         0.55686E+07         0.00000E+00
    0.00000E+00         0.00000E+00         0.13641E+07
 
    0.12598E+07         0.17246E+07         0.00000E+00
    0.17246E+07         0.55677E+07         0.00000E+00
    0.00000E+00         0.00000E+00         0.13655E+07
 
    0.12678E+07         0.17757E+07         0.00000E+00
    0.17757E+07         0.55667E+07         0.00000E+00
    0.00000E+00         0.00000E+00         0.13669E+07
 
    0.12757E+07         0.18268E+07         0.00000E+00
    0.18268E+07         0.55657E+07         0.00000E+00
    0.00000E+00         0.00000E+00         0.13683E+07
 
    0.12835E+07         0.18780E+07         0.00000E+00
    0.18780E+07         0.55645E+07         0.00000E+00
    0.00000E+00         0.00000E+00         0.13696E+07
 
    0.12912E+07         0.19292E+07         0.00000E+00
    0.19292E+07         0.55632E+07         0.00000E+00
    0.00000E+00         0.00000E+00         0.13709E+07
 
    0.12988E+07         0.19805E+07         0.00000E+00
    0.19805E+07         0.55618E+07         0.00000E+00
    0.00000E+00         0.00000E+00         0.13721E+07
 
    0.13063E+07         0.20319E+07         0.00000E+00
    0.20319E+07         0.55603E+07         0.00000E+00
    0.00000E+00         0.00000E+00         0.13733E+07
 
    0.13138E+07         0.20833E+07         0.00000E+00
    0.20833E+07         0.55587E+07         0.00000E+00
    0.00000E+00         0.00000E+00         0.13745E+07
 
    0.13213E+07         0.21349E+07         0.00000E+00
    0.21349E+07         0.55569E+07         0.00000E+00
    0.00000E+00         0.00000E+00         0.13756E+07
 
    0.13287E+07         0.21864E+07         0.00000E+00
    0.21864E+07         0.55550E+07         0.00000E+00
    0.00000E+00         0.00000E+00         0.13767E+07
 
    0.13360E+07         0.22381E+07         0.00000E+00
    0.22381E+07         0.55529E+07         0.00000E+00
    0.00000E+00         0.00000E+00         0.13778E+07
 
    0.13433E+07         0.22899E+07         0.00000E+00
    0.22899E+07         0.55507E+07         0.00000E+00
    0.00000E+00         0.00000E+00         0.13788E+07
 
    0.13507E+07         0.23417E+07         0.00000E+00
    0.23417E+07         0.55483E+07         0.00000E+00
    0.00000E+00         0.00000E+00         0.13798E+07
 
    0.13580E+07         0.23937E+07         0.00000E+00
    0.23937E+07         0.55457E+07         0.00000E+00
    0.00000E+00         0.00000E+00         0.13807E+07
 
    0.13654E+07         0.24457E+07         0.00000E+00
    0.24457E+07         0.55430E+07         0.00000E+00
    0.00000E+00         0.00000E+00         0.13817E+07
 
    0.13727E+07         0.24978E+07         0.00000E+00
    0.24978E+07         0.55401E+07         0.00000E+00
    0.00000E+00         0.00000E+00         0.13826E+07
 
    0.13801E+07         0.25500E+07         0.00000E+00
    0.25500E+07         0.55370E+07         0.00000E+00
    0.00000E+00         0.00000E+00         0.13834E+07
 
    0.80565E+06         0.26836E+05         0.00000E+00
    0.26836E+05         0.52262E+07         0.00000E+00
    0.00000E+00         0.00000E+00         0.12064E+07
 
    0.81971E+06         0.80023E+05         0.00000E+00
    0.80023E+05         0.52262E+07         0.00000E+00
    0.00000E+00         0.00000E+00         0.12092E+07
 
    0.83356E+06         0.13301E+06         0.00000E+00
    0.13301E+06         0.52261E+07         0.00000E+00
    0.00000E+00         0.00000E+00         0.12119E+07
 
    0.84720E+06         0.18581E+06         0.00000E+00
    0.18581E+06         0.52261E+07         0.00000E+00
    0.00000E+00         0.00000E+00         0.12147E+07
 
    0.86064E+06         0.23843E+06         0.00000E+00
    0.23843E+06         0.52260E+07         0.00000E+00
    0.00000E+00         0.00000E+00         0.12173E+07
 
    0.87387E+06         0.29088E+06         0.00000E+00
    0.29088E+06         0.52259E+07         0.00000E+00
    0.00000E+00         0.00000E+00         0.12200E+07
 
    0.88688E+06         0.34316E+06         0.00000E+00
    0.34316E+06         0.52258E+07         0.00000E+00
    0.00000E+00         0.00000E+00         0.12225E+07
 
    0.89969E+06         0.39528E+06         0.00000E+00
    0.39528E+06         0.52256E+07         0.00000E+00
    0.00000E+00         0.00000E+00         0.12251E+07
 
    0.91228E+06         0.44725E+06         0.00000E+00
    0.44725E+06         0.52255E+07         0.00000E+00
    0.00000E+00         0.00000E+00         0.12276E+07
 
    0.92466E+06         0.49909E+06         0.00000E+00
    0.49909E+06         0.52253E+07         0.00000E+00
    0.00000E+00         0.00000E+00         0.12300E+07
 
    0.93683E+06         0.55079E+06         0.00000E+00
    0.55079E+06         0.52251E+07         0.00000E+00
    0.00000E+00         0.00000E+00         0.12324E+07
 
    0.94879E+06         0.60236E+06         0.00000E+00
    0.60236E+06         0.52249E+07         0.00000E+00
    0.00000E+00         0.00000E+00         0.12347E+07
 
    0.96053E+06         0.65382E+06         0.00000E+00
    0.65382E+06         0.52247E+07         0.00000E+00
    0.00000E+00         0.00000E+00         0.12370E+07
 
    0.97207E+06         0.70517E+06         0.00000E+00
    0.70517E+06         0.52245E+07         0.00000E+00
    0.00000E+00         0.00000E+00         0.12393E+07
 
    0.98341E+06         0.75641E+06         0.00000E+00
    0.75641E+06         0.52242E+07         0.00000E+00
    0.00000E+00         0.00000E+00         0.12415E+07
 
    0.99454E+06         0.80756E+06         0.00000E+00
    0.80756E+06         0.52240E+07         0.00000E+00
    0.00000E+00         0.00000E+00         0.12437E+07
 
    0.10055E+07         0.85862E+06         0.00000E+00
    0.85862E+06         0.52237E+07         0.00000E+00
    0.00000E+00         0.00000E+00         0.12458E+07
 
    0.10162E+07         0.90961E+06         0.00000E+00
    0.90961E+06         0.52233E+07         0.00000E+00
    0.00000E+00         0.00000E+00         0.12479E+07
 
    0.10267E+07         0.96052E+06         0.00000E+00
    0.96052E+06         0.52230E+07         0.00000E+00
    0.00000E+00         0.00000E+00         0.12499E+07
 
    0.10371E+07         0.10114E+07         0.00000E+00
    0.10114E+07         0.52226E+07         0.00000E+00
    0.00000E+00         0.00000E+00         0.12519E+07
 
    0.10473E+07         0.10621E+07         0.00000E+00
    0.10621E+07         0.52222E+07         0.00000E+00
    0.00000E+00         0.00000E+00         0.12539E+07
 
    0.10572E+07         0.11129E+07         0.00000E+00
    0.11129E+07         0.52218E+07         0.00000E+00
    0.00000E+00         0.00000E+00         0.12558E+07
 
    0.10670E+07         0.11636E+07         0.00000E+00
    0.11636E+07         0.52213E+07         0.00000E+00
    0.00000E+00         0.00000E+00         0.12577E+07
 
    0.10767E+07         0.12142E+07         0.00000E+00
    0.12142E+07         0.52208E+07         0.00000E+00
    0.00000E+00         0.00000E+00         0.12595E+07
 
    0.10861E+07         0.12648E+07         0.00000E+00
    0.12648E+07         0.52202E+07         0.00000E+00
    0.00000E+00         0.00000E+00         0.12613E+07
 
    0.10955E+07         0.13154E+07         0.00000E+00
    0.13154E+07         0.52196E+07         0.00000E+00
    0.00000E+00         0.00000E+00         0.12630E+07
 
    0.11046E+07         0.13660E+07         0.00000E+00
    0.13660E+07         0.52189E+07         0.00000E+00
    0.00000E+00         0.00000E+00         0.12647E+07
 
    0.11136E+07         0.14165E+07         0.00000E+00
    0.14165E+07         0.52182E+07         0.00000E+00
    0.00000E+00         0.00000E+00         0.12664E+07
 
    0.11225E+07         0.14671E+07         0.00000E+00
    0.14671E+07         0.52174E+07         0.00000E+00
    0.00000E+00         0.00000E+00         0.12680E+07
 
    0.11312E+07         0.15176E+07         0.00000E+00
    0.15176E+07         0.52165E+07         0.00000E+00
    0.00000E+00         0.00000E+00         0.12695E+07
 
    0.11398E+07         0.15681E+07         0.00000E+00
    0.15681E+07         0.52156E+07         0.00000E+00
    0.00000E+00         0.00000E+00         0.12711E+07
 
    0.11483E+07         0.16186E+07         0.00000E+00
    0.16186E+07         0.52146E+07         0.00000E+00
    0.00000E+00         0.00000E+00         0.12726E+07
 
    0.11567E+07         0.16692E+07         0.00000E+00
    0.16692E+07         0.52135E+07         0.00000E+00
    0.00000E+00         0.00000E+00         0.12740E+07
 
    0.11650E+07         0.17198E+07         0.00000E+00
    0.17198E+07         0.52123E+07         0.00000E+00
    0.00000E+00         0.00000E+00         0.12755E+07
 
    0.11731E+07         0.17703E+07         0.00000E+00
    0.17703E+07         0.52111E+07         0.00000E+00
    0.00000E+00         0.00000E+00         0.12768E+07
 
    0.11812E+07         0.18209E+07         0.00000E+00
    0.18209E+07         0.52097E+07         0.00000E+00
    0.00000E+00         0.00000E+00         0.12782E+07
 
    0.11892E+07         0.18716E+07         0.00000E+00
    0.18716E+07         0.52083E+07         0.00000E+00
    0.00000E+00         0.00000E+00         0.12795E+07
 
    0.11972E+07         0.19222E+07         0.00000E+00
    0.19222E+07         0.52067E+07         0.00000E+00
    0.00000E+00         0.00000E+00         0.12808E+07
 
    0.12050E+07         0.19729E+07         0.00000E+00
    0.19729E+07         0.52051E+07         0.00000E+00
    0.00000E+00         0.00000E+00         0.12820E+07
 
    0.12128E+07         0.20236E+07         0.00000E+00
    0.20236E+07         0.52033E+07         0.00000E+00
    0.00000E+00         0.00000E+00         0.12832E+07
 
    0.12206E+07         0.20744E+07         0.00000E+00
    0.20744E+07         0.52014E+07         0.00000E+00
    0.00000E+00         0.00000E+00         0.12844E+07
 
    0.12283E+07         0.21252E+07         0.00000E+00
    0.21252E+07         0.51993E+07         0.00000E+00
    0.00000E+00         0.00000E+00         0.12855E+07
 
    0.12361E+07         0.21761E+07         0.00000E+00
    0.21761E+07         0.51971E+07         0.00000E+00
    0.00000E+00         0.00000E+00         0.12866E+07
 
    0.12437E+07         0.22270E+07         0.00000E+00
    0.22270E+07         0.51948E+07         0.00000E+00
    0.00000E+00         0.00000E+00         0.12877E+07
 
    0.12514E+07         0.22779E+07         0.00000E+00
    0.22779E+07         0.51924E+07         0.00000E+00
    0.00000E+00         0.00000E+00         0.12888E+07
 
    0.12591E+07         0.23289E+07         0.00000E+00
    0.23289E+07         0.51898E+07         0.00000E+00
    0.00000E+00         0.00000E+00         0.12898E+07
 
    0.12668E+07         0.23800E+07         0.00000E+00
    0.23800E+07         0.51870E+07         0.00000E+00
    0.00000E+00         0.00000E+00         0.12908E+07
 
    0.12745E+07         0.24311E+07         0.00000E+00
    0.24311E+07         0.51840E+07         0.00000E+00
    0.00000E+00         0.00000E+00         0.12917E+07
 
    0.12823E+07         0.24823E+07         0.00000E+00
    0.24823E+07         0.51809E+07         0.00000E+00
    0.00000E+00         0.00000E+00         0.12926E+07
 
    0.12901E+07         0.25335E+07         0.00000E+00
    0.25335E+07         0.51776E+07         0.00000E+00
    0.00000E+00         0.00000E+00         0.12935E+07
 
    0.73033E+06         0.26783E+05         0.00000E+00
    0.26783E+05         0.48847E+07         0.00000E+00
    0.00000E+00         0.00000E+00         0.11230E+07
 
    0.74340E+06         0.79882E+05         0.00000E+00
    0.79882E+05         0.48846E+07         0.00000E+00
    0.00000E+00         0.00000E+00         0.11256E+07
 
    0.75631E+06         0.13279E+06         0.00000E+00
    0.13279E+06         0.48846E+07         0.00000E+00
    0.00000E+00         0.00000E+00         0.11282E+07
 
    0.76904E+06         0.18552E+06         0.00000E+00
    0.18552E+06         0.48845E+07         0.00000E+00
    0.00000E+00         0.00000E+00         0.11307E+07
 
    0.78160E+06         0.23806E+06         0.00000E+00
    0.23806E+06         0.48843E+07         0.00000E+00
    0.00000E+00         0.00000E+00         0.11332E+07
 
    0.79399E+06         0.29044E+06         0.00000E+00
    0.29044E+06         0.48842E+07         0.00000E+00
    0.00000E+00         0.00000E+00         0.11356E+07
 
    0.80621E+06         0.34265E+06         0.00000E+00
    0.34265E+06         0.48840E+07         0.00000E+00
    0.00000E+00         0.00000E+00         0.11380E+07
 
    0.81825E+06         0.39471E+06         0.00000E+00
    0.39471E+06         0.48838E+07         0.00000E+00
    0.00000E+00         0.00000E+00         0.11404E+07
 
    0.83011E+06         0.44661E+06         0.00000E+00
    0.44661E+06         0.48836E+07         0.00000E+00
    0.00000E+00         0.00000E+00         0.11427E+07
 
    0.84180E+06         0.49838E+06         0.00000E+00
    0.49838E+06         0.48833E+07         0.00000E+00
    0.00000E+00         0.00000E+00         0.11450E+07
 
    0.85331E+06         0.55000E+06         0.00000E+00
    0.55000E+06         0.48830E+07         0.00000E+00
    0.00000E+00         0.00000E+00         0.11473E+07
 
    0.86465E+06         0.60149E+06         0.00000E+00
    0.60149E+06         0.48827E+07         0.00000E+00
    0.00000E+00         0.00000E+00         0.11495E+07
 
    0.87582E+06         0.65286E+06         0.00000E+00
    0.65286E+06         0.48824E+07         0.00000E+00
    0.00000E+00         0.00000E+00         0.11516E+07
 
    0.88681E+06         0.70411E+06         0.00000E+00
    0.70411E+06         0.48820E+07         0.00000E+00
    0.00000E+00         0.00000E+00         0.11538E+07
 
    0.89763E+06         0.75526E+06         0.00000E+00
    0.75526E+06         0.48816E+07         0.00000E+00
    0.00000E+00         0.00000E+00         0.11558E+07
 
    0.90828E+06         0.80629E+06         0.00000E+00
    0.80629E+06         0.48812E+07         0.00000E+00
    0.00000E+00         0.00000E+00         0.11579E+07
 
    0.91877E+06         0.85723E+06         0.00000E+00
    0.85723E+06         0.48807E+07         0.00000E+00
    0.00000E+00         0.00000E+00         0.11599E+07
 
    0.92909E+06         0.90807E+06         0.00000E+00
    0.90807E+06         0.48803E+07         0.00000E+00
    0.00000E+00         0.00000E+00         0.11619E+07
 
    0.93925E+06         0.95883E+06         0.00000E+00
    0.95883E+06         0.48797E+07         0.00000E+00
    0.00000E+00         0.00000E+00         0.11638E+07
 
    0.94926E+06         0.10095E+07         0.00000E+00
    0.10095E+07         0.48792E+07         0.00000E+00
    0.00000E+00         0.00000E+00         0.11657E+07
 
    0.95910E+06         0.10601E+07         0.00000E+00
    0.10601E+07         0.48786E+07         0.00000E+00
    0.00000E+00         0.00000E+00         0.11675E+07
 
    0.96880E+06         0.11107E+07         0.00000E+00
    0.11107E+07         0.48780E+07         0.00000E+00
    0.00000E+00         0.00000E+00         0.11694E+07
 
    0.97836E+06         0.11611E+07         0.00000E+00
    0.11611E+07         0.48773E+07         0.00000E+00
    0.00000E+00         0.00000E+00         0.11711E+07
 
    0.98777E+06         0.12115E+07         0.00000E+00
    0.12115E+07         0.48766E+07         0.00000E+00
    0.00000E+00         0.00000E+00         0.11729E+07
 
    0.99704E+06         0.12619E+07         0.00000E+00
    0.12619E+07         0.48758E+07         0.00000E+00
    0.00000E+00         0.00000E+00         0.11746E+07
 
    0.10062E+07         0.13122E+07         0.00000E+00
    0.13122E+07         0.48750E+07         0.00000E+00
    0.00000E+00         0.00000E+00         0.11762E+07
 
    0.10152E+07         0.13625E+07         0.00000E+00
    0.13625E+07         0.48741E+07         0.00000E+00
    0.00000E+00         0.00000E+00         0.11779E+07
 
    0.10241E+07         0.14127E+07         0.00000E+00
    0.14127E+07         0.48731E+07         0.00000E+00
    0.00000E+00         0.00000E+00         0.11794E+07
 
    0.10329E+07         0.14629E+07         0.00000E+00
    0.14629E+07         0.48721E+07         0.00000E+00
    0.00000E+00         0.00000E+00         0.11810E+07
 
    0.10415E+07         0.15131E+07         0.00000E+00
    0.15131E+07         0.48711E+07         0.00000E+00
    0.00000E+00         0.00000E+00         0.11825E+07
 
    0.10501E+07         0.15633E+07         0.00000E+00
    0.15633E+07         0.48699E+07         0.00000E+00
    0.00000E+00         0.00000E+00         0.11840E+07
 
    0.10586E+07         0.16134E+07         0.00000E+00
    0.16134E+07         0.48687E+07         0.00000E+00
    0.00000E+00         0.00000E+00         0.11855E+07
 
    0.10669E+07         0.16635E+07         0.00000E+00
    0.16635E+07         0.48674E+07         0.00000E+00
    0.00000E+00         0.00000E+00         0.11869E+07
 
    0.10752E+07         0.17136E+07         0.00000E+00
    0.17136E+07         0.48660E+07         0.00000E+00
    0.00000E+00         0.00000E+00         0.11882E+07
 
    0.10834E+07         0.17637E+07         0.00000E+00
    0.17637E+07         0.48646E+07         0.00000E+00
    0.00000E+00         0.00000E+00         0.11896E+07
 
    0.10916E+07         0.18138E+07         0.00000E+00
    0.18138E+07         0.48630E+07         0.00000E+00
    0.00000E+00         0.00000E+00         0.11909E+07
 
    0.10997E+07         0.18639E+07         0.00000E+00
    0.18639E+07         0.48613E+07         0.00000E+00
    0.00000E+00         0.00000E+00         0.11922E+07
 
    0.11077E+07         0.19140E+07         0.00000E+00
    0.19140E+07         0.48596E+07         0.00000E+00
    0.00000E+00         0.00000E+00         0.11934E+07
 
    0.11157E+07         0.19641E+07         0.00000E+00
    0.19641E+07         0.48577E+07         0.00000E+00
    0.00000E+00         0.00000E+00         0.11947E+07
 
    0.11236E+07         0.20142E+07         0.00000E+00
    0.20142E+07         0.48557E+07         0.00000E+00
    0.00000E+00         0.00000E+00         0.11959E+07
 
    0.11315E+07         0.20643E+07         0.00000E+00
    0.20643E+07         0.48536E+07         0.00000E+00
    0.00000E+00         0.00000E+00         0.11970E+07
 
    0.11394E+07         0.21145E+07         0.00000E+00
    0.21145E+07         0.48514E+07         0.00000E+00
    0.00000E+00         0.00000E+00         0.11982E+07
 
    0.11473E+07         0.21646E+07         0.00000E+00
    0.21646E+07         0.48490E+07         0.00000E+00
    0.00000E+00         0.00000E+00         0.11993E+07
 
    0.11551E+07         0.22148E+07         0.00000E+00
    0.22148E+07         0.48466E+07         0.00000E+00
    0.00000E+00         0.00000E+00         0.12003E+07
 
    0.11630E+07         0.22650E+07         0.00000E+00
    0.22650E+07         0.48439E+07         0.00000E+00
    0.00000E+00         0.00000E+00         0.12014E+07
 
    0.11709E+07         0.23152E+07         0.00000E+00
    0.23152E+07         0.48412E+07         0.00000E+00
    0.00000E+00         0.00000E+00         0.12024E+07
 
    0.11788E+07         0.23655E+07         0.00000E+00
    0.23655E+07         0.48382E+07         0.00000E+00
    0.00000E+00         0.00000E+00         0.12034E+07
 
    0.11867E+07         0.24157E+07         0.00000E+00
    0.24157E+07         0.48352E+07         0.00000E+00
    0.00000E+00         0.00000E+00         0.12044E+07
 
    0.11947E+07         0.24660E+07         0.00000E+00
    0.24660E+07         0.48319E+07         0.00000E+00
    0.00000E+00         0.00000E+00         0.12053E+07
 
    0.12027E+07         0.25163E+07         0.00000E+00
    0.25163E+07         0.48285E+07         0.00000E+00
    0.00000E+00         0.00000E+00         0.12062E+07
 
    0.66139E+06         0.26707E+05         0.00000E+00
    0.26707E+05         0.45501E+07         0.00000E+00
    0.00000E+00         0.00000E+00         0.10423E+07
 
    0.67351E+06         0.79674E+05         0.00000E+00
    0.79674E+05         0.45500E+07         0.00000E+00
    0.00000E+00         0.00000E+00         0.10447E+07
 
    0.68549E+06         0.13246E+06         0.00000E+00
    0.13246E+06         0.45499E+07         0.00000E+00
    0.00000E+00         0.00000E+00         0.10471E+07
 
    0.69733E+06         0.18506E+06         0.00000E+00
    0.18506E+06         0.45498E+07         0.00000E+00
    0.00000E+00         0.00000E+00         0.10494E+07
 
    0.70904E+06         0.23749E+06         0.00000E+00
    0.23749E+06         0.45497E+07         0.00000E+00
    0.00000E+00         0.00000E+00         0.10517E+07
 
    0.72060E+06         0.28975E+06         0.00000E+00
    0.28975E+06         0.45495E+07         0.00000E+00
    0.00000E+00         0.00000E+00         0.10540E+07
 
    0.73202E+06         0.34185E+06         0.00000E+00
    0.34185E+06         0.45492E+07         0.00000E+00
    0.00000E+00         0.00000E+00         0.10563E+07
 
    0.74329E+06         0.39379E+06         0.00000E+00
    0.39379E+06         0.45490E+07         0.00000E+00
    0.00000E+00         0.00000E+00         0.10585E+07
 
    0.75442E+06         0.44558E+06         0.00000E+00
    0.44558E+06         0.45487E+07         0.00000E+00
    0.00000E+00         0.00000E+00         0.10606E+07
 
    0.76540E+06         0.49723E+06         0.00000E+00
    0.49723E+06         0.45484E+07         0.00000E+00
    0.00000E+00         0.00000E+00         0.10628E+07
 
    0.77624E+06         0.54873E+06         0.00000E+00
    0.54873E+06         0.45480E+07         0.00000E+00
    0.00000E+00         0.00000E+00         0.10649E+07
 
    0.78694E+06         0.60010E+06         0.00000E+00
    0.60010E+06         0.45476E+07         0.00000E+00
    0.00000E+00         0.00000E+00         0.10669E+07
 
    0.79749E+06         0.65134E+06         0.00000E+00
    0.65134E+06         0.45472E+07         0.00000E+00
    0.00000E+00         0.00000E+00         0.10689E+07
 
    0.80790E+06         0.70246E+06         0.00000E+00
    0.70246E+06         0.45467E+07         0.00000E+00
    0.00000E+00         0.00000E+00         0.10709E+07
 
    0.81816E+06         0.75346E+06         0.00000E+00
    0.75346E+06         0.45463E+07         0.00000E+00
    0.00000E+00         0.00000E+00         0.10729E+07
 
    0.82829E+06         0.80435E+06         0.00000E+00
    0.80435E+06         0.45457E+07         0.00000E+00
    0.00000E+00         0.00000E+00         0.10748E+07
 
    0.83828E+06         0.85513E+06         0.00000E+00
    0.85513E+06         0.45452E+07         0.00000E+00
    0.00000E+00         0.00000E+00         0.10767E+07
 
    0.84813E+06         0.90580E+06         0.00000E+00
    0.90580E+06         0.45446E+07         0.00000E+00
    0.00000E+00         0.00000E+00         0.10785E+07
 
    0.85786E+06         0.95638E+06         0.00000E+00
    0.95638E+06         0.45439E+07         0.00000E+00
    0.00000E+00         0.00000E+00         0.10804E+07
 
    0.86745E+06         0.10069E+07         0.00000E+00
    0.10069E+07         0.45432E+07         0.00000E+00
    0.00000E+00         0.00000E+00         0.10821E+07
 
    0.87691E+06         0.10573E+07         0.00000E+00
    0.10573E+07         0.45425E+07         0.00000E+00
    0.00000E+00         0.00000E+00         0.10839E+07
 
    0.88625E+06         0.11076E+07         0.00000E+00
    0.11076E+07         0.45417E+07         0.00000E+00
    0.00000E+00         0.00000E+00         0.10856E+07
 
    0.89546E+06         0.11578E+07         0.00000E+00
    0.11578E+07         0.45409E+07         0.00000E+00
    0.00000E+00         0.00000E+00         0.10873E+07
 
    0.90456E+06         0.12080E+07         0.00000E+00
    0.12080E+07         0.45401E+07         0.00000E+00
    0.00000E+00         0.00000E+00         0.10889E+07
 
    0.91355E+06         0.12581E+07         0.00000E+00
    0.12581E+07         0.45391E+07         0.00000E+00
    0.00000E+00         0.00000E+00         0.10905E+07
 
    0.92243E+06         0.13081E+07         0.00000E+00
    0.13081E+07         0.45382E+07         0.00000E+00
    0.00000E+00         0.00000E+00         0.10921E+07
 
    0.93120E+06         0.13581E+07         0.00000E+00
    0.13581E+07         0.45371E+07         0.00000E+00
    0.00000E+00         0.00000E+00         0.10937E+07
 
    0.93988E+06         0.14080E+07         0.00000E+00
    0.14080E+07         0.45360E+07         0.00000E+00
    0.00000E+00         0.00000E+00         0.10952E+07
 
    0.94846E+06         0.14579E+07         0.00000E+00
    0.14579E+07         0.45349E+07         0.00000E+00
    0.00000E+00         0.00000E+00         0.10967E+07
 
    0.95695E+06         0.15077E+07         0.00000E+00
    0.15077E+07         0.45337E+07         0.00000E+00
    0.00000E+00         0.00000E+00         0.10981E+07
 
    0.96536E+06         0.15575E+07         0.00000E+00
    0.15575E+07         0.45324E+07         0.00000E+00
    0.00000E+00         0.00000E+00         0.10995E+07
 
    0.97369E+06         0.16072E+07         0.00000E+00
    0.16072E+07         0.45310E+07         0.00000E+00
    0.00000E+00         0.00000E+00         0.11009E+07
 
    0.98195E+06         0.16569E+07         0.00000E+00
    0.16569E+07         0.45295E+07         0.00000E+00
    0.00000E+00         0.00000E+00         0.11023E+07
 
    0.99014E+06         0.17066E+07         0.00000E+00
    0.17066E+07         0.45280E+07         0.00000E+00
    0.00000E+00         0.00000E+00         0.11036E+07
 
    0.99827E+06         0.17562E+07         0.00000E+00
    0.17562E+07         0.45264E+07         0.00000E+00
    0.00000E+00         0.00000E+00         0.11049E+07
 
    0.10063E+07         0.18058E+07         0.00000E+00
    0.18058E+07         0.45247E+07         0.00000E+00
    0.00000E+00         0.00000E+00         0.11062E+07
 
    0.10144E+07         0.18554E+07         0.00000E+00
    0.18554E+07         0.45229E+07         0.00000E+00
    0.00000E+00         0.00000E+00         0.11075E+07
 
    0.10224E+07         0.19049E+07         0.00000E+00
    0.19049E+07         0.45210E+07         0.00000E+00
    0.00000E+00         0.00000E+00         0.11087E+07
 
    0.10303E+07         0.19545E+07         0.00000E+00
    0.19545E+07         0.45190E+07         0.00000E+00
    0.00000E+00         0.00000E+00         0.11099E+07
 
    0.10382E+07         0.20040E+07         0.00000E+00
    0.20040E+07         0.45169E+07         0.00000E+00
    0.00000E+00         0.00000E+00         0.11110E+07
 
    0.10461E+07         0.20535E+07         0.00000E+00
    0.20535E+07         0.45147E+07         0.00000E+00
    0.00000E+00         0.00000E+00         0.11122E+07
 
    0.10540E+07         0.21030E+07         0.00000E+00
    0.21030E+07         0.45123E+07         0.00000E+00
    0.00000E+00         0.00000E+00         0.11133E+07
 
    0.10619E+07         0.21525E+07         0.00000E+00
    0.21525E+07         0.45099E+07         0.00000E+00
    0.00000E+00         0.00000E+00         0.11144E+07
 
    0.10698E+07         0.22020E+07         0.00000E+00
    0.22020E+07         0.45073E+07         0.00000E+00
    0.00000E+00         0.00000E+00         0.11154E+07
 
    0.10777E+07         0.22515E+07         0.00000E+00
    0.22515E+07         0.45046E+07         0.00000E+00
    0.00000E+00         0.00000E+00         0.11165E+07
 
    0.10857E+07         0.23009E+07         0.00000E+00
    0.23009E+07         0.45017E+07         0.00000E+00
    0.00000E+00         0.00000E+00         0.11175E+07
 
    0.10936E+07         0.23504E+07         0.00000E+00
    0.23504E+07         0.44987E+07         0.00000E+00
    0.00000E+00         0.00000E+00         0.11185E+07
 
    0.11016E+07         0.23998E+07         0.00000E+00
    0.23998E+07         0.44956E+07         0.00000E+00
    0.00000E+00         0.00000E+00         0.11194E+07
 
    0.11096E+07         0.24493E+07         0.00000E+00
    0.24493E+07         0.44923E+07         0.00000E+00
    0.00000E+00         0.00000E+00         0.11204E+07
 
    0.11177E+07         0.24988E+07         0.00000E+00
    0.24988E+07         0.44888E+07         0.00000E+00
    0.00000E+00         0.00000E+00         0.11213E+07
 
    0.59814E+06         0.26617E+05         0.00000E+00
    0.26617E+05         0.42219E+07         0.00000E+00
    0.00000E+00         0.00000E+00         0.96401E+06
 
    0.60933E+06         0.79418E+05         0.00000E+00
    0.79418E+05         0.42219E+07         0.00000E+00
    0.00000E+00         0.00000E+00         0.96624E+06
 
    0.62042E+06         0.13204E+06         0.00000E+00
    0.13204E+06         0.42218E+07         0.00000E+00
    0.00000E+00         0.00000E+00         0.96844E+06
 
    0.63140E+06         0.18449E+06         0.00000E+00
    0.18449E+06         0.42216E+07         0.00000E+00
    0.00000E+00         0.00000E+00         0.97061E+06
 
    0.64225E+06         0.23677E+06         0.00000E+00
    0.23677E+06         0.42215E+07         0.00000E+00
    0.00000E+00         0.00000E+00         0.97274E+06
 
    0.65300E+06         0.28888E+06         0.00000E+00
    0.28888E+06         0.42213E+07         0.00000E+00
    0.00000E+00         0.00000E+00         0.97485E+06
 
    0.66362E+06         0.34083E+06         0.00000E+00
    0.34083E+06         0.42210E+07         0.00000E+00
    0.00000E+00         0.00000E+00         0.97692E+06
 
    0.67413E+06         0.39263E+06         0.00000E+00
    0.39263E+06         0.42207E+07         0.00000E+00
    0.00000E+00         0.00000E+00         0.97897E+06
 
    0.68452E+06         0.44427E+06         0.00000E+00
    0.44427E+06         0.42204E+07         0.00000E+00
    0.00000E+00         0.00000E+00         0.98098E+06
 
    0.69479E+06         0.49577E+06         0.00000E+00
    0.49577E+06         0.42200E+07         0.00000E+00
    0.00000E+00         0.00000E+00         0.98296E+06
 
    0.70494E+06         0.54713E+06         0.00000E+00
    0.54713E+06         0.42196E+07         0.00000E+00
    0.00000E+00         0.00000E+00         0.98491E+06
 
    0.71497E+06         0.59834E+06         0.00000E+00
    0.59834E+06         0.42192E+07         0.00000E+00
    0.00000E+00         0.00000E+00         0.98682E+06
 
    0.72488E+06         0.64943E+06         0.00000E+00
    0.64943E+06         0.42187E+07         0.00000E+00
    0.00000E+00         0.00000E+00         0.98871E+06
 
    0.73467E+06         0.70038E+06         0.00000E+00
    0.70038E+06         0.42182E+07         0.00000E+00
    0.00000E+00         0.00000E+00         0.99057E+06
 
    0.74435E+06         0.75121E+06         0.00000E+00
    0.75121E+06         0.42176E+07         0.00000E+00
    0.00000E+00         0.00000E+00         0.99239E+06
 
    0.75391E+06         0.80192E+06         0.00000E+00
    0.80192E+06         0.42170E+07         0.00000E+00
    0.00000E+00         0.00000E+00         0.99418E+06
 
    0.76336E+06         0.85252E+06         0.00000E+00
    0.85252E+06         0.42164E+07         0.00000E+00
    0.00000E+00         0.00000E+00         0.99594E+06
 
    0.77270E+06         0.90300E+06         0.00000E+00
    0.90300E+06         0.42157E+07         0.00000E+00
    0.00000E+00         0.00000E+00         0.99768E+06
 
    0.78193E+06         0.95338E+06         0.00000E+00
    0.95338E+06         0.42150E+07         0.00000E+00
    0.00000E+00         0.00000E+00         0.99938E+06
 
    0.79105E+06         0.10037E+07         0.00000E+00
    0.10037E+07         0.42142E+07         0.00000E+00
    0.00000E+00         0.00000E+00         0.10010E+07
 
    0.80006E+06         0.10538E+07         0.00000E+00
    0.10538E+07         0.42134E+07         0.00000E+00
    0.00000E+00         0.00000E+00         0.10027E+07
 
    0.80897E+06         0.11039E+07         0.00000E+00
    0.11039E+07         0.42125E+07         0.00000E+00
    0.00000E+00         0.00000E+00         0.10043E+07
 
    0.81779E+06         0.11539E+07         0.00000E+00
    0.11539E+07         0.42116E+07         0.00000E+00
    0.00000E+00         0.00000E+00         0.10059E+07
 
    0.82651E+06         0.12038E+07         0.00000E+00
    0.12038E+07         0.42106E+07         0.00000E+00
    0.00000E+00         0.00000E+00         0.10074E+07
 
    0.83513E+06         0.12536E+07         0.00000E+00
    0.12536E+07         0.42096E+07         0.00000E+00
    0.00000E+00         0.00000E+00         0.10090E+07
 
    0.84367E+06         0.13034E+07         0.00000E+00
    0.13034E+07         0.42086E+07         0.00000E+00
    0.00000E+00         0.00000E+00         0.10104E+07
 
    0.85212E+06         0.13530E+07         0.00000E+00
    0.13530E+07         0.42074E+07         0.00000E+00
    0.00000E+00         0.00000E+00         0.10119E+07
 
    0.86049E+06         0.14026E+07         0.00000E+00
    0.14026E+07         0.42062E+07         0.00000E+00
    0.00000E+00         0.00000E+00         0.10133E+07
 
    0.86878E+06         0.14522E+07         0.00000E+00
    0.14522E+07         0.42050E+07         0.00000E+00
    0.00000E+00         0.00000E+00         0.10148E+07
 
    0.87701E+06         0.15016E+07         0.00000E+00
    0.15016E+07         0.42037E+07         0.00000E+00
    0.00000E+00         0.00000E+00         0.10161E+07
 
    0.88516E+06         0.15510E+07         0.00000E+00
    0.15510E+07         0.42023E+07         0.00000E+00
    0.00000E+00         0.00000E+00         0.10175E+07
 
    0.89326E+06         0.16004E+07         0.00000E+00
    0.16004E+07         0.42008E+07         0.00000E+00
    0.00000E+00         0.00000E+00         0.10188E+07
 
    0.90130E+06         0.16497E+07         0.00000E+00
    0.16497E+07         0.41993E+07         0.00000E+00
    0.00000E+00         0.00000E+00         0.10201E+07
 
    0.90928E+06         0.16989E+07         0.00000E+00
    0.16989E+07         0.41976E+07         0.00000E+00
    0.00000E+00         0.00000E+00         0.10214E+07
 
    0.91722E+06         0.17481E+07         0.00000E+00
    0.17481E+07         0.41959E+07         0.00000E+00
    0.00000E+00         0.00000E+00         0.10226E+07
 
    0.92512E+06         0.17972E+07         0.00000E+00
    0.17972E+07         0.41941E+07         0.00000E+00
    0.00000E+00         0.00000E+00         0.10239E+07
 
    0.93298E+06         0.18463E+07         0.00000E+00
    0.18463E+07         0.41923E+07         0.00000E+00
    0.00000E+00         0.00000E+00         0.10250E+07
 
    0.94082E+06         0.18953E+07         0.00000E+00
    0.18953E+07         0.41903E+07         0.00000E+00
    0.00000E+00         0.00000E+00         0.10262E+07
 
    0.94863E+06         0.19443E+07         0.00000E+00
    0.19443E+07         0.41882E+07         0.00000E+00
    0.00000E+00         0.00000E+00         0.10274E+07
 
    0.95643E+06         0.19933E+07         0.00000E+00
    0.19933E+07         0.41860E+07         0.00000E+00
    0.00000E+00         0.00000E+00         0.10285E+07
 
    0.96421E+06         0.20422E+07         0.00000E+00
    0.20422E+07         0.41838E+07         0.00000E+00
    0.00000E+00         0.00000E+00         0.10296E+07
 
    0.97200E+06         0.20911E+07         0.00000E+00
    0.20911E+07         0.41814E+07         0.00000E+00
    0.00000E+00         0.00000E+00         0.10307E+07
 
    0.97978E+06         0.21400E+07         0.00000E+00
    0.21400E+07         0.41789E+07         0.00000E+00
    0.00000E+00         0.00000E+00         0.10317E+07
 
    0.98758E+06         0.21888E+07         0.00000E+00
    0.21888E+07         0.41762E+07         0.00000E+00
    0.00000E+00         0.00000E+00         0.10328E+07
 
    0.99539E+06         0.22376E+07         0.00000E+00
    0.22376E+07         0.41735E+07         0.00000E+00
    0.00000E+00         0.00000E+00         0.10338E+07
 
    0.10032E+07         0.22864E+07         0.00000E+00
    0.22864E+07         0.41706E+07         0.00000E+00
    0.00000E+00         0.00000E+00         0.10348E+07
 
    0.10111E+07         0.23351E+07         0.00000E+00
    0.23351E+07         0.41676E+07         0.00000E+00
    0.00000E+00         0.00000E+00         0.10357E+07
 
    0.10190E+07         0.23838E+07         0.00000E+00
    0.23838E+07         0.41645E+07         0.00000E+00
    0.00000E+00         0.00000E+00         0.10367E+07
 
    0.10270E+07         0.24325E+07         0.00000E+00
    0.24325E+07         0.41612E+07         0.00000E+00
    0.00000E+00         0.00000E+00         0.10376E+07
 
    0.10350E+07         0.24812E+07         0.00000E+00
    0.24812E+07         0.41578E+07         0.00000E+00
    0.00000E+00         0.00000E+00         0.10385E+07
 
    0.53995E+06         0.26517E+05         0.00000E+00
    0.26517E+05         0.38997E+07         0.00000E+00
    0.00000E+00         0.00000E+00         0.88794E+06
 
    0.55026E+06         0.79133E+05         0.00000E+00
    0.79133E+05         0.38997E+07         0.00000E+00
    0.00000E+00         0.00000E+00         0.88999E+06
 
    0.56048E+06         0.13158E+06         0.00000E+00
    0.13158E+06         0.38996E+07         0.00000E+00
    0.00000E+00         0.00000E+00         0.89201E+06
 
    0.57060E+06         0.18385E+06         0.00000E+00
    0.18385E+06         0.38994E+07         0.00000E+00
    0.00000E+00         0.00000E+00         0.89401E+06
 
    0.58063E+06         0.23595E+06         0.00000E+00
    0.23595E+06         0.38993E+07         0.00000E+00
    0.00000E+00         0.00000E+00         0.89598E+06
 
    0.59057E+06         0.28789E+06         0.00000E+00
    0.28789E+06         0.38990E+07         0.00000E+00
    0.00000E+00         0.00000E+00         0.89792E+06
 
    0.60041E+06         0.33968E+06         0.00000E+00
    0.33968E+06         0.38988E+07         0.00000E+00
    0.00000E+00         0.00000E+00         0.89983E+06
 
    0.61015E+06         0.39131E+06         0.00000E+00
    0.39131E+06         0.38985E+07         0.00000E+00
    0.00000E+00         0.00000E+00         0.90172E+06
 
    0.61979E+06         0.44278E+06         0.00000E+00
    0.44278E+06         0.38981E+07         0.00000E+00
    0.00000E+00         0.00000E+00         0.90358E+06
 
    0.62934E+06         0.49411E+06         0.00000E+00
    0.49411E+06         0.38977E+07         0.00000E+00
    0.00000E+00         0.00000E+00         0.90541E+06
 
    0.63879E+06         0.54529E+06         0.00000E+00
    0.54529E+06         0.38973E+07         0.00000E+00
    0.00000E+00         0.00000E+00         0.90721E+06
 
    0.64814E+06         0.59634E+06         0.00000E+00
    0.59634E+06         0.38968E+07         0.00000E+00
    0.00000E+00         0.00000E+00         0.90899E+06
 
    0.65739E+06         0.64724E+06         0.00000E+00
    0.64724E+06         0.38963E+07         0.00000E+00
    0.00000E+00         0.00000E+00         0.91073E+06
 
    0.66655E+06         0.69802E+06         0.00000E+00
    0.69802E+06         0.38957E+07         0.00000E+00
    0.00000E+00         0.00000E+00         0.91245E+06
 
    0.67561E+06         0.74866E+06         0.00000E+00
    0.74866E+06         0.38951E+07         0.00000E+00
    0.00000E+00         0.00000E+00         0.91415E+06
 
    0.68457E+06         0.79918E+06         0.00000E+00
    0.79918E+06         0.38945E+07         0.00000E+00
    0.00000E+00         0.00000E+00         0.91581E+06
 
    0.69344E+06         0.84957E+06         0.00000E+00
    0.84957E+06         0.38938E+07         0.00000E+00
    0.00000E+00         0.00000E+00         0.91745E+06
 
    0.70222E+06         0.89985E+06         0.00000E+00
    0.89985E+06         0.38931E+07         0.00000E+00
    0.00000E+00         0.00000E+00         0.91906E+06
 
    0.71091E+06         0.95002E+06         0.00000E+00
    0.95002E+06         0.38923E+07         0.00000E+00
    0.00000E+00         0.00000E+00         0.92064E+06
 
    0.71951E+06         0.10001E+07         0.00000E+00
    0.10001E+07         0.38915E+07         0.00000E+00
    0.00000E+00         0.00000E+00         0.92220E+06
 
    0.72802E+06         0.10500E+07         0.00000E+00
    0.10500E+07         0.38906E+07         0.00000E+00
    0.00000E+00         0.00000E+00         0.92373E+06
 
    0.73645E+06         0.10998E+07         0.00000E+00
    0.10998E+07         0.38897E+07         0.00000E+00
    0.00000E+00         0.00000E+00         0.92523E+06
 
    0.74480E+06         0.11496E+07         0.00000E+00
    0.11496E+07         0.38888E+07         0.00000E+00
    0.00000E+00         0.00000E+00         0.92671E+06
 
    0.75307E+06         0.11992E+07         0.00000E+00
    0.11992E+07         0.38877E+07         0.00000E+00
    0.00000E+00         0.00000E+00         0.92816E+06
 
    0.76127E+06         0.12488E+07         0.00000E+00
    0.12488E+07         0.38867E+07         0.00000E+00
    0.00000E+00         0.00000E+00         0.92959E+06
 
    0.76939E+06         0.12982E+07         0.00000E+00
    0.12982E+07         0.38855E+07         0.00000E+00
    0.00000E+00         0.00000E+00         0.93099E+06
 
    0.77745E+06         0.13476E+07         0.00000E+00
    0.13476E+07         0.38844E+07         0.00000E+00
    0.00000E+00         0.00000E+00         0.93236E+06
 
    0.78544E+06         0.13969E+07         0.00000E+00
    0.13969E+07         0.38831E+07         0.00000E+00
    0.00000E+00         0.00000E+00         0.93371E+06
 
    0.79337E+06         0.14461E+07         0.00000E+00
    0.14461E+07         0.38818E+07         0.00000E+00
    0.00000E+00         0.00000E+00         0.93504E+06
 
    0.80124E+06         0.14952E+07         0.00000E+00
    0.14952E+07         0.38804E+07         0.00000E+00
    0.00000E+00         0.00000E+00         0.93634E+06
 
    0.80906E+06         0.15442E+07         0.00000E+00
    0.15442E+07         0.38790E+07         0.00000E+00
    0.00000E+00         0.00000E+00         0.93761E+06
 
    0.81683E+06         0.15932E+07         0.00000E+00
    0.15932E+07         0.38775E+07         0.00000E+00
    0.00000E+00         0.00000E+00         0.93887E+06
 
    0.82456E+06         0.16421E+07         0.00000E+00
    0.16421E+07         0.38759E+07         0.00000E+00
    0.00000E+00         0.00000E+00         0.94010E+06
 
    0.83225E+06         0.16909E+07         0.00000E+00
    0.16909E+07         0.38743E+07         0.00000E+00
    0.00000E+00         0.00000E+00         0.94130E+06
 
    0.83990E+06         0.17396E+07         0.00000E+00
    0.17396E+07         0.38725E+07         0.00000E+00
    0.00000E+00         0.00000E+00         0.94248E+06
 
    0.84752E+06         0.17883E+07         0.00000E+00
    0.17883E+07         0.38707E+07         0.00000E+00
    0.00000E+00         0.00000E+00         0.94364E+06
 
    0.85512E+06         0.18369E+07         0.00000E+00
    0.18369E+07         0.38688E+07         0.00000E+00
    0.00000E+00         0.00000E+00         0.94478E+06
 
    0.86270E+06         0.18855E+07         0.00000E+00
    0.18855E+07         0.38668E+07         0.00000E+00
    0.00000E+00         0.00000E+00         0.94590E+06
 
    0.87027E+06         0.19340E+07         0.00000E+00
    0.19340E+07         0.38647E+07         0.00000E+00
    0.00000E+00         0.00000E+00         0.94700E+06
 
    0.87783E+06         0.19824E+07         0.00000E+00
    0.19824E+07         0.38625E+07         0.00000E+00
    0.00000E+00         0.00000E+00         0.94807E+06
 
    0.88538E+06         0.20308E+07         0.00000E+00
    0.20308E+07         0.38602E+07         0.00000E+00
    0.00000E+00         0.00000E+00         0.94913E+06
 
    0.89294E+06         0.20791E+07         0.00000E+00
    0.20791E+07         0.38579E+07         0.00000E+00
    0.00000E+00         0.00000E+00         0.95016E+06
 
    0.90051E+06         0.21274E+07         0.00000E+00
    0.21274E+07         0.38554E+07         0.00000E+00
    0.00000E+00         0.00000E+00         0.95117E+06
 
    0.90810E+06         0.21756E+07         0.00000E+00
    0.21756E+07         0.38528E+07         0.00000E+00
    0.00000E+00         0.00000E+00         0.95217E+06
 
    0.91570E+06         0.22238E+07         0.00000E+00
    0.22238E+07         0.38500E+07         0.00000E+00
    0.00000E+00         0.00000E+00         0.95315E+06
 
    0.92334E+06         0.22719E+07         0.00000E+00
    0.22719E+07         0.38472E+07         0.00000E+00
    0.00000E+00         0.00000E+00         0.95411E+06
 
    0.93101E+06         0.23200E+07         0.00000E+00
    0.23200E+07         0.38442E+07         0.00000E+00
    0.00000E+00         0.00000E+00         0.95505E+06
 
    0.93872E+06         0.23680E+07         0.00000E+00
    0.23680E+07         0.38411E+07         0.00000E+00
    0.00000E+00         0.00000E+00         0.95597E+06
 
    0.94648E+06         0.24159E+07         0.00000E+00
    0.24159E+07         0.38379E+07         0.00000E+00
    0.00000E+00         0.00000E+00         0.95688E+06
 
    0.95429E+06         0.24638E+07         0.00000E+00
    0.24638E+07         0.38346E+07         0.00000E+00
    0.00000E+00         0.00000E+00         0.95777E+06
 
    0.48630E+06         0.26412E+05         0.00000E+00
    0.26412E+05         0.35831E+07         0.00000E+00
    0.00000E+00         0.00000E+00         0.81387E+06
 
    0.49574E+06         0.78832E+05         0.00000E+00
    0.78832E+05         0.35830E+07         0.00000E+00
    0.00000E+00         0.00000E+00         0.81575E+06
 
    0.50511E+06         0.13108E+06         0.00000E+00
    0.13108E+06         0.35829E+07         0.00000E+00
    0.00000E+00         0.00000E+00         0.81760E+06
 
    0.51441E+06         0.18317E+06         0.00000E+00
    0.18317E+06         0.35828E+07         0.00000E+00
    0.00000E+00         0.00000E+00         0.81943E+06
 
    0.52362E+06         0.23509E+06         0.00000E+00
    0.23509E+06         0.35826E+07         0.00000E+00
    0.00000E+00         0.00000E+00         0.82124E+06
 
    0.53276E+06         0.28685E+06         0.00000E+00
    0.28685E+06         0.35823E+07         0.00000E+00
    0.00000E+00         0.00000E+00         0.82302E+06
 
    0.54182E+06         0.33845E+06         0.00000E+00
    0.33845E+06         0.35821E+07         0.00000E+00
    0.00000E+00         0.00000E+00         0.82478E+06
 
    0.55080E+06         0.38989E+06         0.00000E+00
    0.38989E+06         0.35817E+07         0.00000E+00
    0.00000E+00         0.00000E+00         0.82651E+06
 
    0.55970E+06         0.44119E+06         0.00000E+00
    0.44119E+06         0.35814E+07         0.00000E+00
    0.00000E+00         0.00000E+00         0.82822E+06
 
    0.56851E+06         0.49234E+06         0.00000E+00
    0.49234E+06         0.35810E+07         0.00000E+00
    0.00000E+00         0.00000E+00         0.82990E+06
 
    0.57725E+06         0.54334E+06         0.00000E+00
    0.54334E+06         0.35805E+07         0.00000E+00
    0.00000E+00         0.00000E+00         0.83156E+06
 
    0.58591E+06         0.59420E+06         0.00000E+00
    0.59420E+06         0.35801E+07         0.00000E+00
    0.00000E+00         0.00000E+00         0.83319E+06
 
    0.59448E+06         0.64491E+06         0.00000E+00
    0.64491E+06         0.35795E+07         0.00000E+00
    0.00000E+00         0.00000E+00         0.83480E+06
 
    0.60298E+06         0.69550E+06         0.00000E+00
    0.69550E+06         0.35790E+07         0.00000E+00
    0.00000E+00         0.00000E+00         0.83639E+06
 
    0.61139E+06         0.74594E+06         0.00000E+00
    0.74594E+06         0.35783E+07         0.00000E+00
    0.00000E+00         0.00000E+00         0.83795E+06
 
    0.61973E+06         0.79626E+06         0.00000E+00
    0.79626E+06         0.35777E+07         0.00000E+00
    0.00000E+00         0.00000E+00         0.83948E+06
 
    0.62799E+06         0.84645E+06         0.00000E+00
    0.84645E+06         0.35770E+07         0.00000E+00
    0.00000E+00         0.00000E+00         0.84100E+06
 
    0.63618E+06         0.89652E+06         0.00000E+00
    0.89652E+06         0.35763E+07         0.00000E+00
    0.00000E+00         0.00000E+00         0.84249E+06
 
    0.64429E+06         0.94646E+06         0.00000E+00
    0.94646E+06         0.35755E+07         0.00000E+00
    0.00000E+00         0.00000E+00         0.84395E+06
 
    0.65233E+06         0.99629E+06         0.00000E+00
    0.99629E+06         0.35746E+07         0.00000E+00
    0.00000E+00         0.00000E+00         0.84539E+06
 
    0.66030E+06         0.10460E+07         0.00000E+00
    0.10460E+07         0.35738E+07         0.00000E+00
    0.00000E+00         0.00000E+00         0.84681E+06
 
    0.66820E+06         0.10956E+07         0.00000E+00
    0.10956E+07         0.35728E+07         0.00000E+00
    0.00000E+00         0.00000E+00         0.84820E+06
 
    0.67603E+06         0.11451E+07         0.00000E+00
    0.11451E+07         0.35718E+07         0.00000E+00
    0.00000E+00         0.00000E+00         0.84957E+06
 
    0.68380E+06         0.11945E+07         0.00000E+00
    0.11945E+07         0.35708E+07         0.00000E+00
    0.00000E+00         0.00000E+00         0.85092E+06
 
    0.69151E+06         0.12437E+07         0.00000E+00
    0.12437E+07         0.35697E+07         0.00000E+00
    0.00000E+00         0.00000E+00         0.85225E+06
 
    0.69916E+06         0.12929E+07         0.00000E+00
    0.12929E+07         0.35686E+07         0.00000E+00
    0.00000E+00         0.00000E+00         0.85355E+06
 
    0.70675E+06         0.13420E+07         0.00000E+00
    0.13420E+07         0.35674E+07         0.00000E+00
    0.00000E+00         0.00000E+00         0.85483E+06
 
    0.71430E+06         0.13909E+07         0.00000E+00
    0.13909E+07         0.35662E+07         0.00000E+00
    0.00000E+00         0.00000E+00         0.85609E+06
 
    0.72179E+06         0.14398E+07         0.00000E+00
    0.14398E+07         0.35648E+07         0.00000E+00
    0.00000E+00         0.00000E+00         0.85733E+06
 
    0.72924E+06         0.14886E+07         0.00000E+00
    0.14886E+07         0.35635E+07         0.00000E+00
    0.00000E+00         0.00000E+00         0.85854E+06
 
    0.73665E+06         0.15373E+07         0.00000E+00
    0.15373E+07         0.35620E+07         0.00000E+00
    0.00000E+00         0.00000E+00         0.85973E+06
 
    0.74402E+06         0.15859E+07         0.00000E+00
    0.15859E+07         0.35605E+07         0.00000E+00
    0.00000E+00         0.00000E+00         0.86091E+06
 
    0.75135E+06         0.16344E+07         0.00000E+00
    0.16344E+07         0.35589E+07         0.00000E+00
    0.00000E+00         0.00000E+00         0.86206E+06
 
    0.75866E+06         0.16828E+07         0.00000E+00
    0.16828E+07         0.35573E+07         0.00000E+00
    0.00000E+00         0.00000E+00         0.86319E+06
 
    0.76594E+06         0.17311E+07         0.00000E+00
    0.17311E+07         0.35556E+07         0.00000E+00
    0.00000E+00         0.00000E+00         0.86430E+06
 
    0.77320E+06         0.17794E+07         0.00000E+00
    0.17794E+07         0.35538E+07         0.00000E+00
    0.00000E+00         0.00000E+00         0.86539E+06
 
    0.78045E+06         0.18276E+07         0.00000E+00
    0.18276E+07         0.35519E+07         0.00000E+00
    0.00000E+00         0.00000E+00         0.86646E+06
 
    0.78768E+06         0.18757E+07         0.00000E+00
    0.18757E+07         0.35499E+07         0.00000E+00
    0.00000E+00         0.00000E+00         0.86752E+06
 
    0.79491E+06         0.19237E+07         0.00000E+00
    0.19237E+07         0.35478E+07         0.00000E+00
    0.00000E+00         0.00000E+00         0.86855E+06
 
    0.80213E+06         0.19716E+07         0.00000E+00
    0.19716E+07         0.35457E+07         0.00000E+00
    0.00000E+00         0.00000E+00         0.86957E+06
 
    0.80936E+06         0.20195E+07         0.00000E+00
    0.20195E+07         0.35435E+07         0.00000E+00
    0.00000E+00         0.00000E+00         0.87057E+06
 
    0.81660E+06         0.20673E+07         0.00000E+00
    0.20673E+07         0.35411E+07         0.00000E+00
    0.00000E+00         0.00000E+00         0.87155E+06
 
    0.82385E+06         0.21150E+07         0.00000E+00
    0.21150E+07         0.35387E+07         0.00000E+00
    0.00000E+00         0.00000E+00         0.87251E+06
 
    0.83112E+06         0.21627E+07         0.00000E+00
    0.21627E+07         0.35362E+07         0.00000E+00
    0.00000E+00         0.00000E+00         0.87346E+06
 
    0.83841E+06         0.22102E+07         0.00000E+00
    0.22102E+07         0.35335E+07         0.00000E+00
    0.00000E+00         0.00000E+00         0.87439E+06
 
    0.84574E+06         0.22577E+07         0.00000E+00
    0.22577E+07         0.35308E+07         0.00000E+00
    0.00000E+00         0.00000E+00         0.87530E+06
 
    0.85310E+06         0.23052E+07         0.00000E+00
    0.23052E+07         0.35279E+07         0.00000E+00
    0.00000E+00         0.00000E+00         0.87620E+06
 
    0.86051E+06         0.23525E+07         0.00000E+00
    0.23525E+07         0.35249E+07         0.00000E+00
    0.00000E+00         0.00000E+00         0.87708E+06
 
    0.86796E+06         0.23998E+07         0.00000E+00
    0.23998E+07         0.35218E+07         0.00000E+00
    0.00000E+00         0.00000E+00         0.87795E+06
 
    0.87547E+06         0.24470E+07         0.00000E+00
    0.24470E+07         0.35186E+07         0.00000E+00
    0.00000E+00         0.00000E+00         0.87881E+06
 
    0.43669E+06         0.26308E+05         0.00000E+00
    0.26308E+05         0.32714E+07         0.00000E+00
    0.00000E+00         0.00000E+00         0.74162E+06
 
    0.44529E+06         0.78528E+05         0.00000E+00
    0.78528E+05         0.32714E+07         0.00000E+00
    0.00000E+00         0.00000E+00         0.74333E+06
 
    0.45383E+06         0.13058E+06         0.00000E+00
    0.13058E+06         0.32713E+07         0.00000E+00
    0.00000E+00         0.00000E+00         0.74502E+06
 
    0.46231E+06         0.18248E+06         0.00000E+00
    0.18248E+06         0.32711E+07         0.00000E+00
    0.00000E+00         0.00000E+00         0.74669E+06
 
    0.47073E+06         0.23421E+06         0.00000E+00
    0.23421E+06         0.32709E+07         0.00000E+00
    0.00000E+00         0.00000E+00         0.74833E+06
 
    0.47907E+06         0.28578E+06         0.00000E+00
    0.28578E+06         0.32707E+07         0.00000E+00
    0.00000E+00         0.00000E+00         0.74996E+06
 
    0.48736E+06         0.33720E+06         0.00000E+00
    0.33720E+06         0.32704E+07         0.00000E+00
    0.00000E+00         0.00000E+00         0.75156E+06
 
    0.49558E+06         0.38846E+06         0.00000E+00
    0.38846E+06         0.32701E+07         0.00000E+00
    0.00000E+00         0.00000E+00         0.75314E+06
 
    0.50373E+06         0.43957E+06         0.00000E+00
    0.43957E+06         0.32698E+07         0.00000E+00
    0.00000E+00         0.00000E+00         0.75470E+06
 
    0.51181E+06         0.49053E+06         0.00000E+00
    0.49053E+06         0.32694E+07         0.00000E+00
    0.00000E+00         0.00000E+00         0.75624E+06
 
    0.51983E+06         0.54134E+06         0.00000E+00
    0.54134E+06         0.32689E+07         0.00000E+00
    0.00000E+00         0.00000E+00         0.75775E+06
 
    0.52778E+06         0.59201E+06         0.00000E+00
    0.59201E+06         0.32685E+07         0.00000E+00
    0.00000E+00         0.00000E+00         0.75925E+06
 
    0.53566E+06         0.64254E+06         0.00000E+00
    0.64254E+06         0.32679E+07         0.00000E+00
    0.00000E+00         0.00000E+00         0.76072E+06
 
    0.54348E+06         0.69293E+06         0.00000E+00
    0.69293E+06         0.32674E+07         0.00000E+00
    0.00000E+00         0.00000E+00         0.76217E+06
 
    0.55123E+06         0.74318E+06         0.00000E+00
    0.74318E+06         0.32668E+07         0.00000E+00
    0.00000E+00         0.00000E+00         0.76360E+06
 
    0.55892E+06         0.79330E+06         0.00000E+00
    0.79330E+06         0.32661E+07         0.00000E+00
    0.00000E+00         0.00000E+00         0.76501E+06
 
    0.56654E+06         0.84328E+06         0.00000E+00
    0.84328E+06         0.32654E+07         0.00000E+00
    0.00000E+00         0.00000E+00         0.76640E+06
 
    0.57411E+06         0.89314E+06         0.00000E+00
    0.89314E+06         0.32647E+07         0.00000E+00
    0.00000E+00         0.00000E+00         0.76776E+06
 
    0.58161E+06         0.94286E+06         0.00000E+00
    0.94286E+06         0.32639E+07         0.00000E+00
    0.00000E+00         0.00000E+00         0.76911E+06
 
    0.58905E+06         0.99246E+06         0.00000E+00
    0.99246E+06         0.32631E+07         0.00000E+00
    0.00000E+00         0.00000E+00         0.77043E+06
 
    0.59643E+06         0.10419E+07         0.00000E+00
    0.10419E+07         0.32622E+07         0.00000E+00
    0.00000E+00         0.00000E+00         0.77173E+06
 
    0.60375E+06         0.10913E+07         0.00000E+00
    0.10913E+07         0.32613E+07         0.00000E+00
    0.00000E+00         0.00000E+00         0.77301E+06
 
    0.61103E+06         0.11405E+07         0.00000E+00
    0.11405E+07         0.32604E+07         0.00000E+00
    0.00000E+00         0.00000E+00         0.77428E+06
 
    0.61825E+06         0.11897E+07         0.00000E+00
    0.11897E+07         0.32593E+07         0.00000E+00
    0.00000E+00         0.00000E+00         0.77552E+06
 
    0.62542E+06         0.12387E+07         0.00000E+00
    0.12387E+07         0.32583E+07         0.00000E+00
    0.00000E+00         0.00000E+00         0.77674E+06
 
    0.63254E+06         0.12876E+07         0.00000E+00
    0.12876E+07         0.32572E+07         0.00000E+00
    0.00000E+00         0.00000E+00         0.77794E+06
 
    0.63962E+06         0.13363E+07         0.00000E+00
    0.13363E+07         0.32560E+07         0.00000E+00
    0.00000E+00         0.00000E+00         0.77912E+06
 
    0.64666E+06         0.13850E+07         0.00000E+00
    0.13850E+07         0.32548E+07         0.00000E+00
    0.00000E+00         0.00000E+00         0.78029E+06
 
    0.65365E+06         0.14336E+07         0.00000E+00
    0.14336E+07         0.32535E+07         0.00000E+00
    0.00000E+00         0.00000E+00         0.78143E+06
 
    0.66062E+06         0.14820E+07         0.00000E+00
    0.14820E+07         0.32521E+07         0.00000E+00
    0.00000E+00         0.00000E+00         0.78255E+06
 
    0.66755E+06         0.15304E+07         0.00000E+00
    0.15304E+07         0.32507E+07         0.00000E+00
    0.00000E+00         0.00000E+00         0.78366E+06
 
    0.67445E+06         0.15786E+07         0.00000E+00
    0.15786E+07         0.32493E+07         0.00000E+00
    0.00000E+00         0.00000E+00         0.78474E+06
 
    0.68132E+06         0.16268E+07         0.00000E+00
    0.16268E+07         0.32477E+07         0.00000E+00
    0.00000E+00         0.00000E+00         0.78581E+06
 
    0.68818E+06         0.16749E+07         0.00000E+00
    0.16749E+07         0.32461E+07         0.00000E+00
    0.00000E+00         0.00000E+00         0.78686E+06
 
    0.69501E+06         0.17228E+07         0.00000E+00
    0.17228E+07         0.32445E+07         0.00000E+00
    0.00000E+00         0.00000E+00         0.78790E+06
 
    0.70183E+06         0.17707E+07         0.00000E+00
    0.17707E+07         0.32427E+07         0.00000E+00
    0.00000E+00         0.00000E+00         0.78891E+06
 
    0.70864E+06         0.18184E+07         0.00000E+00
    0.18184E+07         0.32409E+07         0.00000E+00
    0.00000E+00         0.00000E+00         0.78991E+06
 
    0.71545E+06         0.18661E+07         0.00000E+00
    0.18661E+07         0.32390E+07         0.00000E+00
    0.00000E+00         0.00000E+00         0.79089E+06
 
    0.72225E+06         0.19137E+07         0.00000E+00
    0.19137E+07         0.32370E+07         0.00000E+00
    0.00000E+00         0.00000E+00         0.79186E+06
 
    0.72906E+06         0.19612E+07         0.00000E+00
    0.19612E+07         0.32350E+07         0.00000E+00
    0.00000E+00         0.00000E+00         0.79280E+06
 
    0.73587E+06         0.20085E+07         0.00000E+00
    0.20085E+07         0.32328E+07         0.00000E+00
    0.00000E+00         0.00000E+00         0.79374E+06
 
    0.74270E+06         0.20558E+07         0.00000E+00
    0.20558E+07         0.32306E+07         0.00000E+00
    0.00000E+00         0.00000E+00         0.79466E+06
 
    0.74954E+06         0.21031E+07         0.00000E+00
    0.21031E+07         0.32283E+07         0.00000E+00
    0.00000E+00         0.00000E+00         0.79556E+06
 
    0.75640E+06         0.21502E+07         0.00000E+00
    0.21502E+07         0.32258E+07         0.00000E+00
    0.00000E+00         0.00000E+00         0.79645E+06
 
    0.76330E+06         0.21972E+07         0.00000E+00
    0.21972E+07         0.32233E+07         0.00000E+00
    0.00000E+00         0.00000E+00         0.79732E+06
 
    0.77022E+06         0.22441E+07         0.00000E+00
    0.22441E+07         0.32207E+07         0.00000E+00
    0.00000E+00         0.00000E+00         0.79818E+06
 
    0.77718E+06         0.22910E+07         0.00000E+00
    0.22910E+07         0.32180E+07         0.00000E+00
    0.00000E+00         0.00000E+00         0.79903E+06
 
    0.78418E+06         0.23377E+07         0.00000E+00
    0.23377E+07         0.32151E+07         0.00000E+00
    0.00000E+00         0.00000E+00         0.79986E+06
 
    0.79123E+06         0.23844E+07         0.00000E+00
    0.23844E+07         0.32122E+07         0.00000E+00
    0.00000E+00         0.00000E+00         0.80068E+06
 
    0.79833E+06         0.24310E+07         0.00000E+00
    0.24310E+07         0.32091E+07         0.00000E+00
    0.00000E+00         0.00000E+00         0.80149E+06
 
    0.39069E+06         0.26206E+05         0.00000E+00
    0.26206E+05         0.29644E+07         0.00000E+00
    0.00000E+00         0.00000E+00         0.67101E+06
 
    0.39846E+06         0.78232E+05         0.00000E+00
    0.78232E+05         0.29643E+07         0.00000E+00
    0.00000E+00         0.00000E+00         0.67256E+06
 
    0.40619E+06         0.13010E+06         0.00000E+00
    0.13010E+06         0.29642E+07         0.00000E+00
    0.00000E+00         0.00000E+00         0.67409E+06
 
    0.41387E+06         0.18180E+06         0.00000E+00
    0.18180E+06         0.29641E+07         0.00000E+00
    0.00000E+00         0.00000E+00         0.67560E+06
 
    0.42149E+06         0.23335E+06         0.00000E+00
    0.23335E+06         0.29639E+07         0.00000E+00
    0.00000E+00         0.00000E+00         0.67708E+06
 
    0.42906E+06         0.28473E+06         0.00000E+00
    0.28473E+06         0.29637E+07         0.00000E+00
    0.00000E+00         0.00000E+00         0.67855E+06
 
    0.43657E+06         0.33597E+06         0.00000E+00
    0.33597E+06         0.29635E+07         0.00000E+00
    0.00000E+00         0.00000E+00         0.68001E+06
 
    0.44403E+06         0.38705E+06         0.00000E+00
    0.38705E+06         0.29632E+07         0.00000E+00
    0.00000E+00         0.00000E+00         0.68144E+06
 
    0.45144E+06         0.43798E+06         0.00000E+00
    0.43798E+06         0.29628E+07         0.00000E+00
    0.00000E+00         0.00000E+00         0.68285E+06
 
    0.45878E+06         0.48875E+06         0.00000E+00
    0.48875E+06         0.29624E+07         0.00000E+00
    0.00000E+00         0.00000E+00         0.68424E+06
 
    0.46607E+06         0.53939E+06         0.00000E+00
    0.53939E+06         0.29620E+07         0.00000E+00
    0.00000E+00         0.00000E+00         0.68562E+06
 
    0.47331E+06         0.58987E+06         0.00000E+00
    0.58987E+06         0.29616E+07         0.00000E+00
    0.00000E+00         0.00000E+00         0.68697E+06
 
    0.48049E+06         0.64021E+06         0.00000E+00
    0.64021E+06         0.29611E+07         0.00000E+00
    0.00000E+00         0.00000E+00         0.68831E+06
 
    0.48761E+06         0.69041E+06         0.00000E+00
    0.69041E+06         0.29605E+07         0.00000E+00
    0.00000E+00         0.00000E+00         0.68963E+06
 
    0.49468E+06         0.74047E+06         0.00000E+00
    0.74047E+06         0.29599E+07         0.00000E+00
    0.00000E+00         0.00000E+00         0.69092E+06
 
    0.50170E+06         0.79039E+06         0.00000E+00
    0.79039E+06         0.29593E+07         0.00000E+00
    0.00000E+00         0.00000E+00         0.69220E+06
 
    0.50866E+06         0.84017E+06         0.00000E+00
    0.84017E+06         0.29587E+07         0.00000E+00
    0.00000E+00         0.00000E+00         0.69346E+06
 
    0.51557E+06         0.88982E+06         0.00000E+00
    0.88982E+06         0.29580E+07         0.00000E+00
    0.00000E+00         0.00000E+00         0.69470E+06
 
    0.52244E+06         0.93934E+06         0.00000E+00
    0.93934E+06         0.29572E+07         0.00000E+00
    0.00000E+00         0.00000E+00         0.69593E+06
 
    0.52925E+06         0.98872E+06         0.00000E+00
    0.98872E+06         0.29564E+07         0.00000E+00
    0.00000E+00         0.00000E+00         0.69713E+06
 
    0.53601E+06         0.10380E+07         0.00000E+00
    0.10380E+07         0.29556E+07         0.00000E+00
    0.00000E+00         0.00000E+00         0.69832E+06
 
    0.54272E+06         0.10871E+07         0.00000E+00
    0.10871E+07         0.29547E+07         0.00000E+00
    0.00000E+00         0.00000E+00         0.69949E+06
 
    0.54940E+06         0.11361E+07         0.00000E+00
    0.11361E+07         0.29538E+07         0.00000E+00
    0.00000E+00         0.00000E+00         0.70064E+06
 
    0.55602E+06         0.11850E+07         0.00000E+00
    0.11850E+07         0.29528E+07         0.00000E+00
    0.00000E+00         0.00000E+00         0.70177E+06
 
    0.56261E+06         0.12337E+07         0.00000E+00
    0.12337E+07         0.29518E+07         0.00000E+00
    0.00000E+00         0.00000E+00         0.70288E+06
 
    0.56916E+06         0.12824E+07         0.00000E+00
    0.12824E+07         0.29507E+07         0.00000E+00
    0.00000E+00         0.00000E+00         0.70398E+06
 
    0.57567E+06         0.13309E+07         0.00000E+00
    0.13309E+07         0.29496E+07         0.00000E+00
    0.00000E+00         0.00000E+00         0.70506E+06
 
    0.58215E+06         0.13793E+07         0.00000E+00
    0.13793E+07         0.29485E+07         0.00000E+00
    0.00000E+00         0.00000E+00         0.70612E+06
 
    0.58860E+06         0.14275E+07         0.00000E+00
    0.14275E+07         0.29472E+07         0.00000E+00
    0.00000E+00         0.00000E+00         0.70717E+06
 
    0.59502E+06         0.14757E+07         0.00000E+00
    0.14757E+07         0.29460E+07         0.00000E+00
    0.00000E+00         0.00000E+00         0.70820E+06
 
    0.60141E+06         0.15238E+07         0.00000E+00
    0.15238E+07         0.29446E+07         0.00000E+00
    0.00000E+00         0.00000E+00         0.70921E+06
 
    0.60779E+06         0.15717E+07         0.00000E+00
    0.15717E+07         0.29432E+07         0.00000E+00
    0.00000E+00         0.00000E+00         0.71021E+06
 
    0.61414E+06         0.16195E+07         0.00000E+00
    0.16195E+07         0.29418E+07         0.00000E+00
    0.00000E+00         0.00000E+00         0.71119E+06
 
    0.62047E+06         0.16672E+07         0.00000E+00
    0.16672E+07         0.29403E+07         0.00000E+00
    0.00000E+00         0.00000E+00         0.71215E+06
 
    0.62680E+06         0.17148E+07         0.00000E+00
    0.17148E+07         0.29387E+07         0.00000E+00
    0.00000E+00         0.00000E+00         0.71310E+06
 
    0.63311E+06         0.17623E+07         0.00000E+00
    0.17623E+07         0.29370E+07         0.00000E+00
    0.00000E+00         0.00000E+00         0.71403E+06
 
    0.63942E+06         0.18097E+07         0.00000E+00
    0.18097E+07         0.29353E+07         0.00000E+00
    0.00000E+00         0.00000E+00         0.71495E+06
 
    0.64572E+06         0.18570E+07         0.00000E+00
    0.18570E+07         0.29335E+07         0.00000E+00
    0.00000E+00         0.00000E+00         0.71585E+06
 
    0.65203E+06         0.19041E+07         0.00000E+00
    0.19041E+07         0.29317E+07         0.00000E+00
    0.00000E+00         0.00000E+00         0.71674E+06
 
    0.65834E+06         0.19512E+07         0.00000E+00
    0.19512E+07         0.29297E+07         0.00000E+00
    0.00000E+00         0.00000E+00         0.71761E+06
 
    0.66467E+06         0.19981E+07         0.00000E+00
    0.19981E+07         0.29277E+07         0.00000E+00
    0.00000E+00         0.00000E+00         0.71848E+06
 
    0.67100E+06         0.20450E+07         0.00000E+00
    0.20450E+07         0.29256E+07         0.00000E+00
    0.00000E+00         0.00000E+00         0.71932E+06
 
    0.67736E+06         0.20917E+07         0.00000E+00
    0.20917E+07         0.29234E+07         0.00000E+00
    0.00000E+00         0.00000E+00         0.72016E+06
 
    0.68373E+06         0.21384E+07         0.00000E+00
    0.21384E+07         0.29212E+07         0.00000E+00
    0.00000E+00         0.00000E+00         0.72098E+06
 
    0.69014E+06         0.21849E+07         0.00000E+00
    0.21849E+07         0.29188E+07         0.00000E+00
    0.00000E+00         0.00000E+00         0.72179E+06
 
    0.69657E+06         0.22313E+07         0.00000E+00
    0.22313E+07         0.29163E+07         0.00000E+00
    0.00000E+00         0.00000E+00         0.72258E+06
 
    0.70304E+06         0.22776E+07         0.00000E+00
    0.22776E+07         0.29138E+07         0.00000E+00
    0.00000E+00         0.00000E+00         0.72337E+06
 
    0.70955E+06         0.23238E+07         0.00000E+00
    0.23238E+07         0.29112E+07         0.00000E+00
    0.00000E+00         0.00000E+00         0.72414E+06
 
    0.71611E+06         0.23699E+07         0.00000E+00
    0.23699E+07         0.29084E+07         0.00000E+00
    0.00000E+00         0.00000E+00         0.72490E+06
 
    0.72271E+06         0.24159E+07         0.00000E+00
    0.24159E+07         0.29056E+07         0.00000E+00
    0.00000E+00         0.00000E+00         0.72565E+06
 
    0.34789E+06         0.26109E+05         0.00000E+00
    0.26109E+05         0.26615E+07         0.00000E+00
    0.00000E+00         0.00000E+00         0.60188E+06
 
    0.35486E+06         0.77952E+05         0.00000E+00
    0.77952E+05         0.26615E+07         0.00000E+00
    0.00000E+00         0.00000E+00         0.60326E+06
 
    0.36179E+06         0.12964E+06         0.00000E+00
    0.12964E+06         0.26614E+07         0.00000E+00
    0.00000E+00         0.00000E+00         0.60463E+06
 
    0.36867E+06         0.18116E+06         0.00000E+00
    0.18116E+06         0.26613E+07         0.00000E+00
    0.00000E+00         0.00000E+00         0.60599E+06
 
    0.37552E+06         0.23253E+06         0.00000E+00
    0.23253E+06         0.26611E+07         0.00000E+00
    0.00000E+00         0.00000E+00         0.60732E+06
 
    0.38231E+06         0.28374E+06         0.00000E+00
    0.28374E+06         0.26609E+07         0.00000E+00
    0.00000E+00         0.00000E+00         0.60864E+06
 
    0.38906E+06         0.33480E+06         0.00000E+00
    0.33480E+06         0.26606E+07         0.00000E+00
    0.00000E+00         0.00000E+00         0.60994E+06
 
    0.39576E+06         0.38571E+06         0.00000E+00
    0.38571E+06         0.26604E+07         0.00000E+00
    0.00000E+00         0.00000E+00         0.61123E+06
 
    0.40242E+06         0.43647E+06         0.00000E+00
    0.43647E+06         0.26601E+07         0.00000E+00
    0.00000E+00         0.00000E+00         0.61249E+06
 
    0.40902E+06         0.48707E+06         0.00000E+00
    0.48707E+06         0.26597E+07         0.00000E+00
    0.00000E+00         0.00000E+00         0.61374E+06
 
    0.41558E+06         0.53753E+06         0.00000E+00
    0.53753E+06         0.26593E+07         0.00000E+00
    0.00000E+00         0.00000E+00         0.61498E+06
 
    0.42210E+06         0.58784E+06         0.00000E+00
    0.58784E+06         0.26589E+07         0.00000E+00
    0.00000E+00         0.00000E+00         0.61620E+06
 
    0.42856E+06         0.63800E+06         0.00000E+00
    0.63800E+06         0.26584E+07         0.00000E+00
    0.00000E+00         0.00000E+00         0.61740E+06
 
    0.43498E+06         0.68802E+06         0.00000E+00
    0.68802E+06         0.26579E+07         0.00000E+00
    0.00000E+00         0.00000E+00         0.61858E+06
 
    0.44135E+06         0.73790E+06         0.00000E+00
    0.73790E+06         0.26574E+07         0.00000E+00
    0.00000E+00         0.00000E+00         0.61975E+06
 
    0.44768E+06         0.78763E+06         0.00000E+00
    0.78763E+06         0.26568E+07         0.00000E+00
    0.00000E+00         0.00000E+00         0.62090E+06
 
    0.45396E+06         0.83723E+06         0.00000E+00
    0.83723E+06         0.26562E+07         0.00000E+00
    0.00000E+00         0.00000E+00         0.62203E+06
 
    0.46020E+06         0.88668E+06         0.00000E+00
    0.88668E+06         0.26555E+07         0.00000E+00
    0.00000E+00         0.00000E+00         0.62315E+06
 
    0.46639E+06         0.93600E+06         0.00000E+00
    0.93600E+06         0.26548E+07         0.00000E+00
    0.00000E+00         0.00000E+00         0.62425E+06
 
    0.47255E+06         0.98518E+06         0.00000E+00
    0.98518E+06         0.26541E+07         0.00000E+00
    0.00000E+00         0.00000E+00         0.62533E+06
 
    0.47866E+06         0.10342E+07         0.00000E+00
    0.10342E+07         0.26533E+07         0.00000E+00
    0.00000E+00         0.00000E+00         0.62640E+06
 
    0.48473E+06         0.10831E+07         0.00000E+00
    0.10831E+07         0.26525E+07         0.00000E+00
    0.00000E+00         0.00000E+00         0.62745E+06
 
    0.49077E+06         0.11319E+07         0.00000E+00
    0.11319E+07         0.26517E+07         0.00000E+00
    0.00000E+00         0.00000E+00         0.62849E+06
 
    0.49677E+06         0.11806E+07         0.00000E+00
    0.11806E+07         0.26508E+07         0.00000E+00
    0.00000E+00         0.00000E+00         0.62951E+06
 
    0.50273E+06         0.12291E+07         0.00000E+00
    0.12291E+07         0.26498E+07         0.00000E+00
    0.00000E+00         0.00000E+00         0.63051E+06
 
    0.50867E+06         0.12775E+07         0.00000E+00
    0.12775E+07         0.26488E+07         0.00000E+00
    0.00000E+00         0.00000E+00         0.63150E+06
 
    0.51457E+06         0.13257E+07         0.00000E+00
    0.13257E+07         0.26478E+07         0.00000E+00
    0.00000E+00         0.00000E+00         0.63248E+06
 
    0.52045E+06         0.13739E+07         0.00000E+00
    0.13739E+07         0.26467E+07         0.00000E+00
    0.00000E+00         0.00000E+00         0.63344E+06
 
    0.52630E+06         0.14219E+07         0.00000E+00
    0.14219E+07         0.26456E+07         0.00000E+00
    0.00000E+00         0.00000E+00         0.63438E+06
 
    0.53212E+06         0.14698E+07         0.00000E+00
    0.14698E+07         0.26444E+07         0.00000E+00
    0.00000E+00         0.00000E+00         0.63531E+06
 
    0.53793E+06         0.15175E+07         0.00000E+00
    0.15175E+07         0.26432E+07         0.00000E+00
    0.00000E+00         0.00000E+00         0.63622E+06
 
    0.54372E+06         0.15652E+07         0.00000E+00
    0.15652E+07         0.26419E+07         0.00000E+00
    0.00000E+00         0.00000E+00         0.63712E+06
 
    0.54949E+06         0.16127E+07         0.00000E+00
    0.16127E+07         0.26406E+07         0.00000E+00
    0.00000E+00         0.00000E+00         0.63801E+06
 
    0.55525E+06         0.16601E+07         0.00000E+00
    0.16601E+07         0.26392E+07         0.00000E+00
    0.00000E+00         0.00000E+00         0.63888E+06
 
    0.56101E+06         0.17073E+07         0.00000E+00
    0.17073E+07         0.26377E+07         0.00000E+00
    0.00000E+00         0.00000E+00         0.63974E+06
 
    0.56675E+06         0.17545E+07         0.00000E+00
    0.17545E+07         0.26362E+07         0.00000E+00
    0.00000E+00         0.00000E+00         0.64059E+06
 
    0.57249E+06         0.18015E+07         0.00000E+00
    0.18015E+07         0.26346E+07         0.00000E+00
    0.00000E+00         0.00000E+00         0.64142E+06
 
    0.57824E+06         0.18484E+07         0.00000E+00
    0.18484E+07         0.26330E+07         0.00000E+00
    0.00000E+00         0.00000E+00         0.64224E+06
 
    0.58398E+06         0.18952E+07         0.00000E+00
    0.18952E+07         0.26312E+07         0.00000E+00
    0.00000E+00         0.00000E+00         0.64304E+06
 
    0.58973E+06         0.19419E+07         0.00000E+00
    0.19419E+07         0.26295E+07         0.00000E+00
    0.00000E+00         0.00000E+00         0.64384E+06
 
    0.59550E+06         0.19885E+07         0.00000E+00
    0.19885E+07         0.26276E+07         0.00000E+00
    0.00000E+00         0.00000E+00         0.64462E+06
 
    0.60127E+06         0.20349E+07         0.00000E+00
    0.20349E+07         0.26257E+07         0.00000E+00
    0.00000E+00         0.00000E+00         0.64539E+06
 
    0.60707E+06         0.20812E+07         0.00000E+00
    0.20812E+07         0.26237E+07         0.00000E+00
    0.00000E+00         0.00000E+00         0.64615E+06
 
    0.61289E+06         0.21274E+07         0.00000E+00
    0.21274E+07         0.26216E+07         0.00000E+00
    0.00000E+00         0.00000E+00         0.64689E+06
 
    0.61873E+06         0.21735E+07         0.00000E+00
    0.21735E+07         0.26194E+07         0.00000E+00
    0.00000E+00         0.00000E+00         0.64763E+06
 
    0.62460E+06         0.22194E+07         0.00000E+00
    0.22194E+07         0.26172E+07         0.00000E+00
    0.00000E+00         0.00000E+00         0.64836E+06
 
    0.63051E+06         0.22653E+07         0.00000E+00
    0.22653E+07         0.26148E+07         0.00000E+00
    0.00000E+00         0.00000E+00         0.64907E+06
 
    0.63645E+06         0.23110E+07         0.00000E+00
    0.23110E+07         0.26124E+07         0.00000E+00
    0.00000E+00         0.00000E+00         0.64978E+06
 
    0.64244E+06         0.23566E+07         0.00000E+00
    0.23566E+07         0.26099E+07         0.00000E+00
    0.00000E+00         0.00000E+00         0.65047E+06
 
    0.64847E+06         0.24020E+07         0.00000E+00
    0.24020E+07         0.26073E+07         0.00000E+00
    0.00000E+00         0.00000E+00         0.65116E+06
 
    0.30793E+06         0.26022E+05         0.00000E+00
    0.26022E+05         0.23624E+07         0.00000E+00
    0.00000E+00         0.00000E+00         0.53406E+06
 
    0.31411E+06         0.77696E+05         0.00000E+00
    0.77696E+05         0.23623E+07         0.00000E+00
    0.00000E+00         0.00000E+00         0.53529E+06
 
    0.32026E+06         0.12921E+06         0.00000E+00
    0.12921E+06         0.23622E+07         0.00000E+00
    0.00000E+00         0.00000E+00         0.53650E+06
 
    0.32636E+06         0.18058E+06         0.00000E+00
    0.18058E+06         0.23621E+07         0.00000E+00
    0.00000E+00         0.00000E+00         0.53770E+06
 
    0.33243E+06         0.23178E+06         0.00000E+00
    0.23178E+06         0.23620E+07         0.00000E+00
    0.00000E+00         0.00000E+00         0.53888E+06
 
    0.33846E+06         0.28284E+06         0.00000E+00
    0.28284E+06         0.23618E+07         0.00000E+00
    0.00000E+00         0.00000E+00         0.54005E+06
 
    0.34445E+06         0.33374E+06         0.00000E+00
    0.33374E+06         0.23616E+07         0.00000E+00
    0.00000E+00         0.00000E+00         0.54121E+06
 
    0.35039E+06         0.38449E+06         0.00000E+00
    0.38449E+06         0.23613E+07         0.00000E+00
    0.00000E+00         0.00000E+00         0.54235E+06
 
    0.35630E+06         0.43508E+06         0.00000E+00
    0.43508E+06         0.23611E+07         0.00000E+00
    0.00000E+00         0.00000E+00         0.54347E+06
 
    0.36216E+06         0.48553E+06         0.00000E+00
    0.48553E+06         0.23607E+07         0.00000E+00
    0.00000E+00         0.00000E+00         0.54458E+06
 
    0.36799E+06         0.53583E+06         0.00000E+00
    0.53583E+06         0.23604E+07         0.00000E+00
    0.00000E+00         0.00000E+00         0.54568E+06
 
    0.37377E+06         0.58598E+06         0.00000E+00
    0.58598E+06         0.23600E+07         0.00000E+00
    0.00000E+00         0.00000E+00         0.54676E+06
 
    0.37951E+06         0.63598E+06         0.00000E+00
    0.63598E+06         0.23596E+07         0.00000E+00
    0.00000E+00         0.00000E+00         0.54782E+06
 
    0.38521E+06         0.68583E+06         0.00000E+00
    0.68583E+06         0.23591E+07         0.00000E+00
    0.00000E+00         0.00000E+00         0.54887E+06
 
    0.39087E+06         0.73554E+06         0.00000E+00
    0.73554E+06         0.23587E+07         0.00000E+00
    0.00000E+00         0.00000E+00         0.54991E+06
 
    0.39649E+06         0.78510E+06         0.00000E+00
    0.78510E+06         0.23581E+07         0.00000E+00
    0.00000E+00         0.00000E+00         0.55093E+06
 
    0.40208E+06         0.83453E+06         0.00000E+00
    0.83453E+06         0.23576E+07         0.00000E+00
    0.00000E+00         0.00000E+00         0.55193E+06
 
    0.40762E+06         0.88380E+06         0.00000E+00
    0.88380E+06         0.23570E+07         0.00000E+00
    0.00000E+00         0.00000E+00         0.55292E+06
 
    0.41313E+06         0.93294E+06         0.00000E+00
    0.93294E+06         0.23564E+07         0.00000E+00
    0.00000E+00         0.00000E+00         0.55390E+06
 
    0.41860E+06         0.98194E+06         0.00000E+00
    0.98194E+06         0.23557E+07         0.00000E+00
    0.00000E+00         0.00000E+00         0.55486E+06
 
    0.42403E+06         0.10308E+07         0.00000E+00
    0.10308E+07         0.23550E+07         0.00000E+00
    0.00000E+00         0.00000E+00         0.55581E+06
 
    0.42944E+06         0.10795E+07         0.00000E+00
    0.10795E+07         0.23543E+07         0.00000E+00
    0.00000E+00         0.00000E+00         0.55675E+06
 
    0.43480E+06         0.11281E+07         0.00000E+00
    0.11281E+07         0.23535E+07         0.00000E+00
    0.00000E+00         0.00000E+00         0.55767E+06
 
    0.44014E+06         0.11765E+07         0.00000E+00
    0.11765E+07         0.23527E+07         0.00000E+00
    0.00000E+00         0.00000E+00         0.55857E+06
 
    0.44545E+06         0.12248E+07         0.00000E+00
    0.12248E+07         0.23519E+07         0.00000E+00
    0.00000E+00         0.00000E+00         0.55947E+06
 
    0.45074E+06         0.12730E+07         0.00000E+00
    0.12730E+07         0.23510E+07         0.00000E+00
    0.00000E+00         0.00000E+00         0.56035E+06
 
    0.45599E+06         0.13210E+07         0.00000E+00
    0.13210E+07         0.23501E+07         0.00000E+00
    0.00000E+00         0.00000E+00         0.56121E+06
 
    0.46122E+06         0.13689E+07         0.00000E+00
    0.13689E+07         0.23491E+07         0.00000E+00
    0.00000E+00         0.00000E+00         0.56206E+06
 
    0.46644E+06         0.14167E+07         0.00000E+00
    0.14167E+07         0.23481E+07         0.00000E+00
    0.00000E+00         0.00000E+00         0.56290E+06
 
    0.47163E+06         0.14643E+07         0.00000E+00
    0.14643E+07         0.23470E+07         0.00000E+00
    0.00000E+00         0.00000E+00         0.56373E+06
 
    0.47680E+06         0.15119E+07         0.00000E+00
    0.15119E+07         0.23459E+07         0.00000E+00
    0.00000E+00         0.00000E+00         0.56454E+06
 
    0.48196E+06         0.15592E+07         0.00000E+00
    0.15592E+07         0.23448E+07         0.00000E+00
    0.00000E+00         0.00000E+00         0.56534E+06
 
    0.48711E+06         0.16065E+07         0.00000E+00
    0.16065E+07         0.23436E+07         0.00000E+00
    0.00000E+00         0.00000E+00         0.56613E+06
 
    0.49224E+06         0.16536E+07         0.00000E+00
    0.16536E+07         0.23423E+07         0.00000E+00
    0.00000E+00         0.00000E+00         0.56691E+06
 
    0.49737E+06         0.17005E+07         0.00000E+00
    0.17005E+07         0.23410E+07         0.00000E+00
    0.00000E+00         0.00000E+00         0.56767E+06
 
    0.50249E+06         0.17474E+07         0.00000E+00
    0.17474E+07         0.23396E+07         0.00000E+00
    0.00000E+00         0.00000E+00         0.56843E+06
 
    0.50762E+06         0.17941E+07         0.00000E+00
    0.17941E+07         0.23382E+07         0.00000E+00
    0.00000E+00         0.00000E+00         0.56917E+06
 
    0.51274E+06         0.18407E+07         0.00000E+00
    0.18407E+07         0.23367E+07         0.00000E+00
    0.00000E+00         0.00000E+00         0.56990E+06
 
    0.51787E+06         0.18871E+07         0.00000E+00
    0.18871E+07         0.23352E+07         0.00000E+00
    0.00000E+00         0.00000E+00         0.57061E+06
 
    0.52300E+06         0.19335E+07         0.00000E+00
    0.19335E+07         0.23336E+07         0.00000E+00
    0.00000E+00         0.00000E+00         0.57132E+06
 
    0.52814E+06         0.19797E+07         0.00000E+00
    0.19797E+07         0.23319E+07         0.00000E+00
    0.00000E+00         0.00000E+00         0.57202E+06
 
    0.53330E+06         0.20257E+07         0.00000E+00
    0.20257E+07         0.23302E+07         0.00000E+00
    0.00000E+00         0.00000E+00         0.57270E+06
 
    0.53847E+06         0.20717E+07         0.00000E+00
    0.20717E+07         0.23284E+07         0.00000E+00
    0.00000E+00         0.00000E+00         0.57338E+06
 
    0.54367E+06         0.21175E+07         0.00000E+00
    0.21175E+07         0.23266E+07         0.00000E+00
    0.00000E+00         0.00000E+00         0.57405E+06
 
    0.54889E+06         0.21631E+07         0.00000E+00
    0.21631E+07         0.23246E+07         0.00000E+00
    0.00000E+00         0.00000E+00         0.57470E+06
 
    0.55413E+06         0.22087E+07         0.00000E+00
    0.22087E+07         0.23226E+07         0.00000E+00
    0.00000E+00         0.00000E+00         0.57535E+06
 
    0.55940E+06         0.22541E+07         0.00000E+00
    0.22541E+07         0.23205E+07         0.00000E+00
    0.00000E+00         0.00000E+00         0.57599E+06
 
    0.56471E+06         0.22993E+07         0.00000E+00
    0.22993E+07         0.23184E+07         0.00000E+00
    0.00000E+00         0.00000E+00         0.57662E+06
 
    0.57006E+06         0.23445E+07         0.00000E+00
    0.23445E+07         0.23161E+07         0.00000E+00
    0.00000E+00         0.00000E+00         0.57724E+06
 
    0.57545E+06         0.23895E+07         0.00000E+00
    0.23895E+07         0.23138E+07         0.00000E+00
    0.00000E+00         0.00000E+00         0.57785E+06
 
    0.27049E+06         0.25945E+05         0.00000E+00
    0.25945E+05         0.20665E+07         0.00000E+00
    0.00000E+00         0.00000E+00         0.46740E+06
 
    0.27589E+06         0.77472E+05         0.00000E+00
    0.77472E+05         0.20665E+07         0.00000E+00
    0.00000E+00         0.00000E+00         0.46848E+06
 
    0.28127E+06         0.12884E+06         0.00000E+00
    0.12884E+06         0.20664E+07         0.00000E+00
    0.00000E+00         0.00000E+00         0.46954E+06
 
    0.28660E+06         0.18006E+06         0.00000E+00
    0.18006E+06         0.20663E+07         0.00000E+00
    0.00000E+00         0.00000E+00         0.47059E+06
 
    0.29190E+06         0.23113E+06         0.00000E+00
    0.23113E+06         0.20662E+07         0.00000E+00
    0.00000E+00         0.00000E+00         0.47162E+06
 
    0.29717E+06         0.28204E+06         0.00000E+00
    0.28204E+06         0.20661E+07         0.00000E+00
    0.00000E+00         0.00000E+00         0.47264E+06
 
    0.30240E+06         0.33280E+06         0.00000E+00
    0.33280E+06         0.20659E+07         0.00000E+00
    0.00000E+00         0.00000E+00         0.47365E+06
 
    0.30759E+06         0.38341E+06         0.00000E+00
    0.38341E+06         0.20657E+07         0.00000E+00
    0.00000E+00         0.00000E+00         0.47465E+06
 
    0.31275E+06         0.43387E+06         0.00000E+00
    0.43387E+06         0.20654E+07         0.00000E+00
    0.00000E+00         0.00000E+00         0.47563E+06
 
    0.31787E+06         0.48417E+06         0.00000E+00
    0.48417E+06         0.20651E+07         0.00000E+00
    0.00000E+00         0.00000E+00         0.47660E+06
 
    0.32295E+06         0.53433E+06         0.00000E+00
    0.53433E+06         0.20648E+07         0.00000E+00
    0.00000E+00         0.00000E+00         0.47756E+06
 
    0.32799E+06         0.58433E+06         0.00000E+00
    0.58433E+06         0.20645E+07         0.00000E+00
    0.00000E+00         0.00000E+00         0.47850E+06
 
    0.33300E+06         0.63419E+06         0.00000E+00
    0.63419E+06         0.20641E+07         0.00000E+00
    0.00000E+00         0.00000E+00         0.47943E+06
 
    0.33798E+06         0.68390E+06         0.00000E+00
    0.68390E+06         0.20638E+07         0.00000E+00
    0.00000E+00         0.00000E+00         0.48035E+06
 
    0.34291E+06         0.73346E+06         0.00000E+00
    0.73346E+06         0.20633E+07         0.00000E+00
    0.00000E+00         0.00000E+00         0.48125E+06
 
    0.34781E+06         0.78288E+06         0.00000E+00
    0.78288E+06         0.20629E+07         0.00000E+00
    0.00000E+00         0.00000E+00         0.48214E+06
 
    0.35268E+06         0.83215E+06         0.00000E+00
    0.83215E+06         0.20624E+07         0.00000E+00
    0.00000E+00         0.00000E+00         0.48302E+06
 
    0.35751E+06         0.88127E+06         0.00000E+00
    0.88127E+06         0.20619E+07         0.00000E+00
    0.00000E+00         0.00000E+00         0.48389E+06
 
    0.36231E+06         0.93025E+06         0.00000E+00
    0.93025E+06         0.20614E+07         0.00000E+00
    0.00000E+00         0.00000E+00         0.48474E+06
 
    0.36708E+06         0.97908E+06         0.00000E+00
    0.97908E+06         0.20608E+07         0.00000E+00
    0.00000E+00         0.00000E+00         0.48558E+06
 
    0.37182E+06         0.10278E+07         0.00000E+00
    0.10278E+07         0.20602E+07         0.00000E+00
    0.00000E+00         0.00000E+00         0.48641E+06
 
    0.37652E+06         0.10763E+07         0.00000E+00
    0.10763E+07         0.20596E+07         0.00000E+00
    0.00000E+00         0.00000E+00         0.48722E+06
 
    0.38120E+06         0.11247E+07         0.00000E+00
    0.11247E+07         0.20589E+07         0.00000E+00
    0.00000E+00         0.00000E+00         0.48802E+06
 
    0.38585E+06         0.11730E+07         0.00000E+00
    0.11730E+07         0.20582E+07         0.00000E+00
    0.00000E+00         0.00000E+00         0.48881E+06
 
    0.39047E+06         0.12211E+07         0.00000E+00
    0.12211E+07         0.20575E+07         0.00000E+00
    0.00000E+00         0.00000E+00         0.48959E+06
 
    0.39507E+06         0.12691E+07         0.00000E+00
    0.12691E+07         0.20567E+07         0.00000E+00
    0.00000E+00         0.00000E+00         0.49036E+06
 
    0.39964E+06         0.13169E+07         0.00000E+00
    0.13169E+07         0.20559E+07         0.00000E+00
    0.00000E+00         0.00000E+00         0.49111E+06
 
    0.40420E+06         0.13646E+07         0.00000E+00
    0.13646E+07         0.20551E+07         0.00000E+00
    0.00000E+00         0.00000E+00         0.49186E+06
 
    0.40873E+06         0.14122E+07         0.00000E+00
    0.14122E+07         0.20542E+07         0.00000E+00
    0.00000E+00         0.00000E+00         0.49259E+06
 
    0.41325E+06         0.14596E+07         0.00000E+00
    0.14596E+07         0.20533E+07         0.00000E+00
    0.00000E+00         0.00000E+00         0.49331E+06
 
    0.41775E+06         0.15068E+07         0.00000E+00
    0.15068E+07         0.20523E+07         0.00000E+00
    0.00000E+00         0.00000E+00         0.49402E+06
 
    0.42224E+06         0.15540E+07         0.00000E+00
    0.15540E+07         0.20513E+07         0.00000E+00
    0.00000E+00         0.00000E+00         0.49472E+06
 
    0.42672E+06         0.16010E+07         0.00000E+00
    0.16010E+07         0.20503E+07         0.00000E+00
    0.00000E+00         0.00000E+00         0.49540E+06
 
    0.43118E+06         0.16478E+07         0.00000E+00
    0.16478E+07         0.20492E+07         0.00000E+00
    0.00000E+00         0.00000E+00         0.49608E+06
 
    0.43564E+06         0.16945E+07         0.00000E+00
    0.16945E+07         0.20481E+07         0.00000E+00
    0.00000E+00         0.00000E+00         0.49675E+06
 
    0.44010E+06         0.17411E+07         0.00000E+00
    0.17411E+07         0.20469E+07         0.00000E+00
    0.00000E+00         0.00000E+00         0.49740E+06
 
    0.44455E+06         0.17876E+07         0.00000E+00
    0.17876E+07         0.20457E+07         0.00000E+00
    0.00000E+00         0.00000E+00         0.49805E+06
 
    0.44900E+06         0.18339E+07         0.00000E+00
    0.18339E+07         0.20444E+07         0.00000E+00
    0.00000E+00         0.00000E+00         0.49868E+06
 
    0.45346E+06         0.18800E+07         0.00000E+00
    0.18800E+07         0.20431E+07         0.00000E+00
    0.00000E+00         0.00000E+00         0.49931E+06
 
    0.45792E+06         0.19260E+07         0.00000E+00
    0.19260E+07         0.20417E+07         0.00000E+00
    0.00000E+00         0.00000E+00         0.49992E+06
 
    0.46240E+06         0.19719E+07         0.00000E+00
    0.19719E+07         0.20402E+07         0.00000E+00
    0.00000E+00         0.00000E+00         0.50053E+06
 
    0.46688E+06         0.20176E+07         0.00000E+00
    0.20176E+07         0.20387E+07         0.00000E+00
    0.00000E+00         0.00000E+00         0.50112E+06
 
    0.47138E+06         0.20632E+07         0.00000E+00
    0.20632E+07         0.20372E+07         0.00000E+00
    0.00000E+00         0.00000E+00         0.50171E+06
 
    0.47589E+06         0.21087E+07         0.00000E+00
    0.21087E+07         0.20356E+07         0.00000E+00
    0.00000E+00         0.00000E+00         0.50229E+06
 
    0.48042E+06         0.21540E+07         0.00000E+00
    0.21540E+07         0.20339E+07         0.00000E+00
    0.00000E+00         0.00000E+00         0.50286E+06
 
    0.48498E+06         0.21992E+07         0.00000E+00
    0.21992E+07         0.20321E+07         0.00000E+00
    0.00000E+00         0.00000E+00         0.50343E+06
 
    0.48957E+06         0.22442E+07         0.00000E+00
    0.22442E+07         0.20303E+07         0.00000E+00
    0.00000E+00         0.00000E+00         0.50398E+06
 
    0.49418E+06         0.22891E+07         0.00000E+00
    0.22891E+07         0.20285E+07         0.00000E+00
    0.00000E+00         0.00000E+00         0.50453E+06
 
    0.49883E+06         0.23338E+07         0.00000E+00
    0.23338E+07         0.20265E+07         0.00000E+00
    0.00000E+00         0.00000E+00         0.50507E+06
 
    0.50351E+06         0.23784E+07         0.00000E+00
    0.23784E+07         0.20245E+07         0.00000E+00
    0.00000E+00         0.00000E+00         0.50560E+06
 
    0.23526E+06         0.25881E+05         0.00000E+00
    0.25881E+05         0.17736E+07         0.00000E+00
    0.00000E+00         0.00000E+00         0.40177E+06
 
    0.23990E+06         0.77284E+05         0.00000E+00
    0.77284E+05         0.17736E+07         0.00000E+00
    0.00000E+00         0.00000E+00         0.40269E+06
 
    0.24451E+06         0.12854E+06         0.00000E+00
    0.12854E+06         0.17735E+07         0.00000E+00
    0.00000E+00         0.00000E+00         0.40361E+06
 
    0.24908E+06         0.17963E+06         0.00000E+00
    0.17963E+06         0.17734E+07         0.00000E+00
    0.00000E+00         0.00000E+00         0.40450E+06
 
    0.25362E+06         0.23058E+06         0.00000E+00
    0.23058E+06         0.17733E+07         0.00000E+00
    0.00000E+00         0.00000E+00         0.40539E+06
 
    0.25813E+06         0.28137E+06         0.00000E+00
    0.28137E+06         0.17732E+07         0.00000E+00
    0.00000E+00         0.00000E+00         0.40627E+06
 
    0.26260E+06         0.33202E+06         0.00000E+00
    0.33202E+06         0.17731E+07         0.00000E+00
    0.00000E+00         0.00000E+00         0.40713E+06
 
    0.26704E+06         0.38251E+06         0.00000E+00
    0.38251E+06         0.17729E+07         0.00000E+00
    0.00000E+00         0.00000E+00         0.40799E+06
 
    0.27145E+06         0.43285E+06         0.00000E+00
    0.43285E+06         0.17727E+07         0.00000E+00
    0.00000E+00         0.00000E+00         0.40883E+06
 
    0.27582E+06         0.48304E+06         0.00000E+00
    0.48304E+06         0.17725E+07         0.00000E+00
    0.00000E+00         0.00000E+00         0.40966E+06
 
    0.28016E+06         0.53307E+06         0.00000E+00
    0.53307E+06         0.17722E+07         0.00000E+00
    0.00000E+00         0.00000E+00         0.41047E+06
 
    0.28446E+06         0.58296E+06         0.00000E+00
    0.58296E+06         0.17719E+07         0.00000E+00
    0.00000E+00         0.00000E+00         0.41128E+06
 
    0.28873E+06         0.63270E+06         0.00000E+00
    0.63270E+06         0.17717E+07         0.00000E+00
    0.00000E+00         0.00000E+00         0.41208E+06
 
    0.29296E+06         0.68229E+06         0.00000E+00
    0.68229E+06         0.17713E+07         0.00000E+00
    0.00000E+00         0.00000E+00         0.41286E+06
 
    0.29717E+06         0.73172E+06         0.00000E+00
    0.73172E+06         0.17710E+07         0.00000E+00
    0.00000E+00         0.00000E+00         0.41363E+06
 
    0.30134E+06         0.78101E+06         0.00000E+00
    0.78101E+06         0.17706E+07         0.00000E+00
    0.00000E+00         0.00000E+00         0.41439E+06
 
    0.30547E+06         0.83015E+06         0.00000E+00
    0.83015E+06         0.17702E+07         0.00000E+00
    0.00000E+00         0.00000E+00         0.41514E+06
 
    0.30958E+06         0.87914E+06         0.00000E+00
    0.87914E+06         0.17698E+07         0.00000E+00
    0.00000E+00         0.00000E+00         0.41588E+06
 
    0.31365E+06         0.92799E+06         0.00000E+00
    0.92799E+06         0.17694E+07         0.00000E+00
    0.00000E+00         0.00000E+00         0.41661E+06
 
    0.31770E+06         0.97668E+06         0.00000E+00
    0.97668E+06         0.17689E+07         0.00000E+00
    0.00000E+00         0.00000E+00         0.41733E+06
 
    0.32171E+06         0.10252E+07         0.00000E+00
    0.10252E+07         0.17684E+07         0.00000E+00
    0.00000E+00         0.00000E+00         0.41803E+06
 
    0.32570E+06         0.10736E+07         0.00000E+00
    0.10736E+07         0.17679E+07         0.00000E+00
    0.00000E+00         0.00000E+00         0.41873E+06
 
    0.32966E+06         0.11219E+07         0.00000E+00
    0.11219E+07         0.17674E+07         0.00000E+00
    0.00000E+00         0.00000E+00         0.41941E+06
 
    0.33359E+06         0.11700E+07         0.00000E+00
    0.11700E+07         0.17668E+07         0.00000E+00
    0.00000E+00         0.00000E+00         0.42008E+06
 
    0.33750E+06         0.12179E+07         0.00000E+00
    0.12179E+07         0.17662E+07         0.00000E+00
    0.00000E+00         0.00000E+00         0.42075E+06
 
    0.34139E+06         0.12658E+07         0.00000E+00
    0.12658E+07         0.17656E+07         0.00000E+00
    0.00000E+00         0.00000E+00         0.42140E+06
 
    0.34526E+06         0.13134E+07         0.00000E+00
    0.13134E+07         0.17649E+07         0.00000E+00
    0.00000E+00         0.00000E+00         0.42204E+06
 
    0.34910E+06         0.13609E+07         0.00000E+00
    0.13609E+07         0.17643E+07         0.00000E+00
    0.00000E+00         0.00000E+00         0.42267E+06
 
    0.35293E+06         0.14083E+07         0.00000E+00
    0.14083E+07         0.17635E+07         0.00000E+00
    0.00000E+00         0.00000E+00         0.42329E+06
 
    0.35674E+06         0.14555E+07         0.00000E+00
    0.14555E+07         0.17628E+07         0.00000E+00
    0.00000E+00         0.00000E+00         0.42390E+06
 
    0.36053E+06         0.15026E+07         0.00000E+00
    0.15026E+07         0.17620E+07         0.00000E+00
    0.00000E+00         0.00000E+00         0.42451E+06
 
    0.36431E+06         0.15495E+07         0.00000E+00
    0.15495E+07         0.17612E+07         0.00000E+00
    0.00000E+00         0.00000E+00         0.42510E+06
 
    0.36808E+06         0.15963E+07         0.00000E+00
    0.15963E+07         0.17603E+07         0.00000E+00
    0.00000E+00         0.00000E+00         0.42568E+06
 
    0.37184E+06         0.16430E+07         0.00000E+00
    0.16430E+07         0.17594E+07         0.00000E+00
    0.00000E+00         0.00000E+00         0.42625E+06
 
    0.37559E+06         0.16895E+07         0.00000E+00
    0.16895E+07         0.17585E+07         0.00000E+00
    0.00000E+00         0.00000E+00         0.42681E+06
 
    0.37933E+06         0.17358E+07         0.00000E+00
    0.17358E+07         0.17575E+07         0.00000E+00
    0.00000E+00         0.00000E+00         0.42737E+06
 
    0.38307E+06         0.17820E+07         0.00000E+00
    0.17820E+07         0.17565E+07         0.00000E+00
    0.00000E+00         0.00000E+00         0.42791E+06
 
    0.38682E+06         0.18281E+07         0.00000E+00
    0.18281E+07         0.17554E+07         0.00000E+00
    0.00000E+00         0.00000E+00         0.42845E+06
 
    0.39056E+06         0.18740E+07         0.00000E+00
    0.18740E+07         0.17543E+07         0.00000E+00
    0.00000E+00         0.00000E+00         0.42898E+06
 
    0.39430E+06         0.19197E+07         0.00000E+00
    0.19197E+07         0.17532E+07         0.00000E+00
    0.00000E+00         0.00000E+00         0.42950E+06
 
    0.39806E+06         0.19653E+07         0.00000E+00
    0.19653E+07         0.17520E+07         0.00000E+00
    0.00000E+00         0.00000E+00         0.43001E+06
 
    0.40182E+06         0.20108E+07         0.00000E+00
    0.20108E+07         0.17507E+07         0.00000E+00
    0.00000E+00         0.00000E+00         0.43051E+06
 
    0.40559E+06         0.20561E+07         0.00000E+00
    0.20561E+07         0.17495E+07         0.00000E+00
    0.00000E+00         0.00000E+00         0.43101E+06
 
    0.40937E+06         0.21012E+07         0.00000E+00
    0.21012E+07         0.17481E+07         0.00000E+00
    0.00000E+00         0.00000E+00         0.43150E+06
 
    0.41317E+06         0.21462E+07         0.00000E+00
    0.21462E+07         0.17467E+07         0.00000E+00
    0.00000E+00         0.00000E+00         0.43198E+06
 
    0.41700E+06         0.21911E+07         0.00000E+00
    0.21911E+07         0.17453E+07         0.00000E+00
    0.00000E+00         0.00000E+00         0.43245E+06
 
    0.42084E+06         0.22358E+07         0.00000E+00
    0.22358E+07         0.17437E+07         0.00000E+00
    0.00000E+00         0.00000E+00         0.43292E+06
 
    0.42471E+06         0.22803E+07         0.00000E+00
    0.22803E+07         0.17422E+07         0.00000E+00
    0.00000E+00         0.00000E+00         0.43338E+06
 
    0.42860E+06         0.23247E+07         0.00000E+00
    0.23247E+07         0.17405E+07         0.00000E+00
    0.00000E+00         0.00000E+00         0.43383E+06
 
    0.43253E+06         0.23690E+07         0.00000E+00
    0.23690E+07         0.17388E+07         0.00000E+00
    0.00000E+00         0.00000E+00         0.43428E+06
 
    0.20197E+06         0.25831E+05         0.00000E+00
    0.25831E+05         0.14832E+07         0.00000E+00
    0.00000E+00         0.00000E+00         0.33703E+06
 
    0.20586E+06         0.77138E+05         0.00000E+00
    0.77138E+05         0.14831E+07         0.00000E+00
    0.00000E+00         0.00000E+00         0.33780E+06
 
    0.20970E+06         0.12829E+06         0.00000E+00
    0.12829E+06         0.14831E+07         0.00000E+00
    0.00000E+00         0.00000E+00         0.33856E+06
 
    0.21352E+06         0.17930E+06         0.00000E+00
    0.17930E+06         0.14830E+07         0.00000E+00
    0.00000E+00         0.00000E+00         0.33931E+06
 
    0.21731E+06         0.23015E+06         0.00000E+00
    0.23015E+06         0.14830E+07         0.00000E+00
    0.00000E+00         0.00000E+00         0.34005E+06
 
    0.22106E+06         0.28086E+06         0.00000E+00
    0.28086E+06         0.14829E+07         0.00000E+00
    0.00000E+00         0.00000E+00         0.34079E+06
 
    0.22478E+06         0.33141E+06         0.00000E+00
    0.33141E+06         0.14828E+07         0.00000E+00
    0.00000E+00         0.00000E+00         0.34151E+06
 
    0.22847E+06         0.38181E+06         0.00000E+00
    0.38181E+06         0.14826E+07         0.00000E+00
    0.00000E+00         0.00000E+00         0.34222E+06
 
    0.23212E+06         0.43206E+06         0.00000E+00
    0.43206E+06         0.14825E+07         0.00000E+00
    0.00000E+00         0.00000E+00         0.34292E+06
 
    0.23574E+06         0.48216E+06         0.00000E+00
    0.48216E+06         0.14823E+07         0.00000E+00
    0.00000E+00         0.00000E+00         0.34361E+06
 
    0.23933E+06         0.53210E+06         0.00000E+00
    0.53210E+06         0.14821E+07         0.00000E+00
    0.00000E+00         0.00000E+00         0.34429E+06
 
    0.24288E+06         0.58190E+06         0.00000E+00
    0.58190E+06         0.14819E+07         0.00000E+00
    0.00000E+00         0.00000E+00         0.34496E+06
 
    0.24641E+06         0.63154E+06         0.00000E+00
    0.63154E+06         0.14817E+07         0.00000E+00
    0.00000E+00         0.00000E+00         0.34562E+06
 
    0.24990E+06         0.68103E+06         0.00000E+00
    0.68103E+06         0.14815E+07         0.00000E+00
    0.00000E+00         0.00000E+00         0.34627E+06
 
    0.25335E+06         0.73037E+06         0.00000E+00
    0.73037E+06         0.14812E+07         0.00000E+00
    0.00000E+00         0.00000E+00         0.34691E+06
 
    0.25678E+06         0.77956E+06         0.00000E+00
    0.77956E+06         0.14809E+07         0.00000E+00
    0.00000E+00         0.00000E+00         0.34755E+06
 
    0.26017E+06         0.82860E+06         0.00000E+00
    0.82860E+06         0.14807E+07         0.00000E+00
    0.00000E+00         0.00000E+00         0.34817E+06
 
    0.26354E+06         0.87749E+06         0.00000E+00
    0.87749E+06         0.14804E+07         0.00000E+00
    0.00000E+00         0.00000E+00         0.34878E+06
 
    0.26687E+06         0.92622E+06         0.00000E+00
    0.92622E+06         0.14800E+07         0.00000E+00
    0.00000E+00         0.00000E+00         0.34938E+06
 
    0.27018E+06         0.97481E+06         0.00000E+00
    0.97481E+06         0.14797E+07         0.00000E+00
    0.00000E+00         0.00000E+00         0.34997E+06
 
    0.27345E+06         0.10232E+07         0.00000E+00
    0.10232E+07         0.14793E+07         0.00000E+00
    0.00000E+00         0.00000E+00         0.35055E+06
 
    0.27670E+06         0.10715E+07         0.00000E+00
    0.10715E+07         0.14789E+07         0.00000E+00
    0.00000E+00         0.00000E+00         0.35113E+06
 
    0.27993E+06         0.11197E+07         0.00000E+00
    0.11197E+07         0.14785E+07         0.00000E+00
    0.00000E+00         0.00000E+00         0.35169E+06
 
    0.28312E+06         0.11676E+07         0.00000E+00
    0.11676E+07         0.14781E+07         0.00000E+00
    0.00000E+00         0.00000E+00         0.35224E+06
 
    0.28630E+06         0.12155E+07         0.00000E+00
    0.12155E+07         0.14776E+07         0.00000E+00
    0.00000E+00         0.00000E+00         0.35279E+06
 
    0.28945E+06         0.12631E+07         0.00000E+00
    0.12631E+07         0.14772E+07         0.00000E+00
    0.00000E+00         0.00000E+00         0.35332E+06
 
    0.29258E+06         0.13107E+07         0.00000E+00
    0.13107E+07         0.14767E+07         0.00000E+00
    0.00000E+00         0.00000E+00         0.35385E+06
 
    0.29568E+06         0.13580E+07         0.00000E+00
    0.13580E+07         0.14762E+07         0.00000E+00
    0.00000E+00         0.00000E+00         0.35437E+06
 
    0.29877E+06         0.14053E+07         0.00000E+00
    0.14053E+07         0.14756E+07         0.00000E+00
    0.00000E+00         0.00000E+00         0.35488E+06
 
    0.30184E+06         0.14523E+07         0.00000E+00
    0.14523E+07         0.14750E+07         0.00000E+00
    0.00000E+00         0.00000E+00         0.35538E+06
 
    0.30490E+06         0.14993E+07         0.00000E+00
    0.14993E+07         0.14744E+07         0.00000E+00
    0.00000E+00         0.00000E+00         0.35587E+06
 
    0.30794E+06         0.15460E+07         0.00000E+00
    0.15460E+07         0.14738E+07         0.00000E+00
    0.00000E+00         0.00000E+00         0.35635E+06
 
    0.31096E+06         0.15926E+07         0.00000E+00
    0.15926E+07         0.14732E+07         0.00000E+00
    0.00000E+00         0.00000E+00         0.35682E+06
 
    0.31398E+06         0.16391E+07         0.00000E+00
    0.16391E+07         0.14725E+07         0.00000E+00
    0.00000E+00         0.00000E+00         0.35729E+06
 
    0.31699E+06         0.16854E+07         0.00000E+00
    0.16854E+07         0.14717E+07         0.00000E+00
    0.00000E+00         0.00000E+00         0.35775E+06
 
    0.31999E+06         0.17316E+07         0.00000E+00
    0.17316E+07         0.14710E+07         0.00000E+00
    0.00000E+00         0.00000E+00         0.35820E+06
 
    0.32298E+06         0.17776E+07         0.00000E+00
    0.17776E+07         0.14702E+07         0.00000E+00
    0.00000E+00         0.00000E+00         0.35864E+06
 
    0.32597E+06         0.18234E+07         0.00000E+00
    0.18234E+07         0.14694E+07         0.00000E+00
    0.00000E+00         0.00000E+00         0.35907E+06
 
    0.32896E+06         0.18691E+07         0.00000E+00
    0.18691E+07         0.14685E+07         0.00000E+00
    0.00000E+00         0.00000E+00         0.35950E+06
 
    0.33195E+06         0.19146E+07         0.00000E+00
    0.19146E+07         0.14676E+07         0.00000E+00
    0.00000E+00         0.00000E+00         0.35992E+06
 
    0.33494E+06         0.19600E+07         0.00000E+00
    0.19600E+07         0.14667E+07         0.00000E+00
    0.00000E+00         0.00000E+00         0.36033E+06
 
    0.33793E+06         0.20052E+07         0.00000E+00
    0.20052E+07         0.14657E+07         0.00000E+00
    0.00000E+00         0.00000E+00         0.36074E+06
 
    0.34094E+06         0.20503E+07         0.00000E+00
    0.20503E+07         0.14647E+07         0.00000E+00
    0.00000E+00         0.00000E+00         0.36114E+06
 
    0.34395E+06         0.20952E+07         0.00000E+00
    0.20952E+07         0.14637E+07         0.00000E+00
    0.00000E+00         0.00000E+00         0.36153E+06
 
    0.34698E+06         0.21399E+07         0.00000E+00
    0.21399E+07         0.14626E+07         0.00000E+00
    0.00000E+00         0.00000E+00         0.36191E+06
 
    0.35001E+06         0.21845E+07         0.00000E+00
    0.21845E+07         0.14614E+07         0.00000E+00
    0.00000E+00         0.00000E+00         0.36229E+06
 
    0.35307E+06         0.22289E+07         0.00000E+00
    0.22289E+07         0.14602E+07         0.00000E+00
    0.00000E+00         0.00000E+00         0.36266E+06
 
    0.35614E+06         0.22732E+07         0.00000E+00
    0.22732E+07         0.14590E+07         0.00000E+00
    0.00000E+00         0.00000E+00         0.36303E+06
 
    0.35924E+06         0.23173E+07         0.00000E+00
    0.23173E+07         0.14577E+07         0.00000E+00
    0.00000E+00         0.00000E+00         0.36339E+06
 
    0.36236E+06         0.23612E+07         0.00000E+00
    0.23612E+07         0.14564E+07         0.00000E+00
    0.00000E+00         0.00000E+00         0.36375E+06
 
    0.17037E+06         0.25796E+05         0.00000E+00
    0.25796E+05         0.11948E+07         0.00000E+00
    0.00000E+00         0.00000E+00         0.27304E+06
 
    0.17350E+06         0.77038E+05         0.00000E+00
    0.77038E+05         0.11948E+07         0.00000E+00
    0.00000E+00         0.00000E+00         0.27366E+06
 
    0.17659E+06         0.12813E+06         0.00000E+00
    0.12813E+06         0.11948E+07         0.00000E+00
    0.00000E+00         0.00000E+00         0.27427E+06
 
    0.17966E+06         0.17907E+06         0.00000E+00
    0.17907E+06         0.11947E+07         0.00000E+00
    0.00000E+00         0.00000E+00         0.27488E+06
 
    0.18269E+06         0.22987E+06         0.00000E+00
    0.22987E+06         0.11947E+07         0.00000E+00
    0.00000E+00         0.00000E+00         0.27548E+06
 
    0.18569E+06         0.28051E+06         0.00000E+00
    0.28051E+06         0.11946E+07         0.00000E+00
    0.00000E+00         0.00000E+00         0.27606E+06
 
    0.18866E+06         0.33100E+06         0.00000E+00
    0.33100E+06         0.11946E+07         0.00000E+00
    0.00000E+00         0.00000E+00         0.27664E+06
 
    0.19160E+06         0.38134E+06         0.00000E+00
    0.38134E+06         0.11945E+07         0.00000E+00
    0.00000E+00         0.00000E+00         0.27721E+06
 
    0.19450E+06         0.43152E+06         0.00000E+00
    0.43152E+06         0.11944E+07         0.00000E+00
    0.00000E+00         0.00000E+00         0.27777E+06
 
    0.19737E+06         0.48156E+06         0.00000E+00
    0.48156E+06         0.11943E+07         0.00000E+00
    0.00000E+00         0.00000E+00         0.27833E+06
 
    0.20020E+06         0.53144E+06         0.00000E+00
    0.53144E+06         0.11942E+07         0.00000E+00
    0.00000E+00         0.00000E+00         0.27887E+06
 
    0.20300E+06         0.58117E+06         0.00000E+00
    0.58117E+06         0.11940E+07         0.00000E+00
    0.00000E+00         0.00000E+00         0.27941E+06
 
    0.20577E+06         0.63075E+06         0.00000E+00
    0.63075E+06         0.11939E+07         0.00000E+00
    0.00000E+00         0.00000E+00         0.27993E+06
 
    0.20851E+06         0.68018E+06         0.00000E+00
    0.68018E+06         0.11937E+07         0.00000E+00
    0.00000E+00         0.00000E+00         0.28045E+06
 
    0.21121E+06         0.72945E+06         0.00000E+00
    0.72945E+06         0.11936E+07         0.00000E+00
    0.00000E+00         0.00000E+00         0.28096E+06
 
    0.21388E+06         0.77857E+06         0.00000E+00
    0.77857E+06         0.11934E+07         0.00000E+00
    0.00000E+00         0.00000E+00         0.28146E+06
 
    0.21653E+06         0.82754E+06         0.00000E+00
    0.82754E+06         0.11932E+07         0.00000E+00
    0.00000E+00         0.00000E+00         0.28195E+06
 
    0.21914E+06         0.87635E+06         0.00000E+00
    0.87635E+06         0.11930E+07         0.00000E+00
    0.00000E+00         0.00000E+00         0.28243E+06
 
    0.22172E+06         0.92501E+06         0.00000E+00
    0.92501E+06         0.11928E+07         0.00000E+00
    0.00000E+00         0.00000E+00         0.28291E+06
 
    0.22427E+06         0.97352E+06         0.00000E+00
    0.97352E+06         0.11926E+07         0.00000E+00
    0.00000E+00         0.00000E+00         0.28338E+06
 
    0.22679E+06         0.10219E+07         0.00000E+00
    0.10219E+07         0.11924E+07         0.00000E+00
    0.00000E+00         0.00000E+00         0.28383E+06
 
    0.22928E+06         0.10701E+07         0.00000E+00
    0.10701E+07         0.11921E+07         0.00000E+00
    0.00000E+00         0.00000E+00         0.28428E+06
 
    0.23175E+06         0.11181E+07         0.00000E+00
    0.11181E+07         0.11919E+07         0.00000E+00
    0.00000E+00         0.00000E+00         0.28472E+06
 
    0.23419E+06         0.11660E+07         0.00000E+00
    0.11660E+07         0.11916E+07         0.00000E+00
    0.00000E+00         0.00000E+00         0.28516E+06
 
    0.23661E+06         0.12137E+07         0.00000E+00
    0.12137E+07         0.11913E+07         0.00000E+00
    0.00000E+00         0.00000E+00         0.28558E+06
 
    0.23900E+06         0.12613E+07         0.00000E+00
    0.12613E+07         0.11910E+07         0.00000E+00
    0.00000E+00         0.00000E+00         0.28600E+06
 
    0.24137E+06         0.13087E+07         0.00000E+00
    0.13087E+07         0.11907E+07         0.00000E+00
    0.00000E+00         0.00000E+00         0.28641E+06
 
    0.24371E+06         0.13560E+07         0.00000E+00
    0.13560E+07         0.11903E+07         0.00000E+00
    0.00000E+00         0.00000E+00         0.28681E+06
 
    0.24604E+06         0.14031E+07         0.00000E+00
    0.14031E+07         0.11900E+07         0.00000E+00
    0.00000E+00         0.00000E+00         0.28720E+06
 
    0.24835E+06         0.14501E+07         0.00000E+00
    0.14501E+07         0.11896E+07         0.00000E+00
    0.00000E+00         0.00000E+00         0.28759E+06
 
    0.25063E+06         0.14969E+07         0.00000E+00
    0.14969E+07         0.11892E+07         0.00000E+00
    0.00000E+00         0.00000E+00         0.28797E+06
 
    0.25291E+06         0.15435E+07         0.00000E+00
    0.15435E+07         0.11888E+07         0.00000E+00
    0.00000E+00         0.00000E+00         0.28834E+06
 
    0.25516E+06         0.15900E+07         0.00000E+00
    0.15900E+07         0.11884E+07         0.00000E+00
    0.00000E+00         0.00000E+00         0.28870E+06
 
    0.25741E+06         0.16363E+07         0.00000E+00
    0.16363E+07         0.11879E+07         0.00000E+00
    0.00000E+00         0.00000E+00         0.28906E+06
 
    0.25964E+06         0.16825E+07         0.00000E+00
    0.16825E+07         0.11874E+07         0.00000E+00
    0.00000E+00         0.00000E+00         0.28941E+06
 
    0.26186E+06         0.17285E+07         0.00000E+00
    0.17285E+07         0.11869E+07         0.00000E+00
    0.00000E+00         0.00000E+00         0.28975E+06
 
    0.26407E+06         0.17743E+07         0.00000E+00
    0.17743E+07         0.11864E+07         0.00000E+00
    0.00000E+00         0.00000E+00         0.29009E+06
 
    0.26628E+06         0.18200E+07         0.00000E+00
    0.18200E+07         0.11858E+07         0.00000E+00
    0.00000E+00         0.00000E+00         0.29042E+06
 
    0.26848E+06         0.18655E+07         0.00000E+00
    0.18655E+07         0.11852E+07         0.00000E+00
    0.00000E+00         0.00000E+00         0.29074E+06
 
    0.27067E+06         0.19109E+07         0.00000E+00
    0.19109E+07         0.11846E+07         0.00000E+00
    0.00000E+00         0.00000E+00         0.29106E+06
 
    0.27287E+06         0.19561E+07         0.00000E+00
    0.19561E+07         0.11840E+07         0.00000E+00
    0.00000E+00         0.00000E+00         0.29137E+06
 
    0.27506E+06         0.20011E+07         0.00000E+00
    0.20011E+07         0.11833E+07         0.00000E+00
    0.00000E+00         0.00000E+00         0.29167E+06
 
    0.27726E+06         0.20460E+07         0.00000E+00
    0.20460E+07         0.11826E+07         0.00000E+00
    0.00000E+00         0.00000E+00         0.29197E+06
 
    0.27946E+06         0.20907E+07         0.00000E+00
    0.20907E+07         0.11818E+07         0.00000E+00
    0.00000E+00         0.00000E+00         0.29226E+06
 
    0.28167E+06         0.21352E+07         0.00000E+00
    0.21352E+07         0.11810E+07         0.00000E+00
    0.00000E+00         0.00000E+00         0.29254E+06
 
    0.28389E+06         0.21796E+07         0.00000E+00
    0.21796E+07         0.11802E+07         0.00000E+00
    0.00000E+00         0.00000E+00         0.29282E+06
 
    0.28611E+06         0.22237E+07         0.00000E+00
    0.22237E+07         0.11794E+07         0.00000E+00
    0.00000E+00         0.00000E+00         0.29310E+06
 
    0.28835E+06         0.22678E+07         0.00000E+00
    0.22678E+07         0.11785E+07         0.00000E+00
    0.00000E+00         0.00000E+00         0.29337E+06
 
    0.29061E+06         0.23116E+07         0.00000E+00
    0.23116E+07         0.11776E+07         0.00000E+00
    0.00000E+00         0.00000E+00         0.29363E+06
 
    0.29288E+06         0.23553E+07         0.00000E+00
    0.23553E+07         0.11766E+07         0.00000E+00
    0.00000E+00         0.00000E+00         0.29389E+06
 
    0.14020E+06         0.25779E+05         0.00000E+00
    0.25779E+05         0.90815E+06         0.00000E+00
    0.00000E+00         0.00000E+00         0.20967E+06
 
    0.14259E+06         0.76989E+05         0.00000E+00
    0.76989E+05         0.90814E+06         0.00000E+00
    0.00000E+00         0.00000E+00         0.21015E+06
 
    0.14494E+06         0.12805E+06         0.00000E+00
    0.12805E+06         0.90813E+06         0.00000E+00
    0.00000E+00         0.00000E+00         0.21061E+06
 
    0.14726E+06         0.17896E+06         0.00000E+00
    0.17896E+06         0.90812E+06         0.00000E+00
    0.00000E+00         0.00000E+00         0.21107E+06
 
    0.14954E+06         0.22972E+06         0.00000E+00
    0.22972E+06         0.90810E+06         0.00000E+00
    0.00000E+00         0.00000E+00         0.21153E+06
 
    0.15179E+06         0.28034E+06         0.00000E+00
    0.28034E+06         0.90807E+06         0.00000E+00
    0.00000E+00         0.00000E+00         0.21197E+06
 
    0.15401E+06         0.33080E+06         0.00000E+00
    0.33080E+06         0.90805E+06         0.00000E+00
    0.00000E+00         0.00000E+00         0.21241E+06
 
    0.15619E+06         0.38111E+06         0.00000E+00
    0.38111E+06         0.90802E+06         0.00000E+00
    0.00000E+00         0.00000E+00         0.21284E+06
 
    0.15833E+06         0.43126E+06         0.00000E+00
    0.43126E+06         0.90798E+06         0.00000E+00
    0.00000E+00         0.00000E+00         0.21326E+06
 
    0.16045E+06         0.48127E+06         0.00000E+00
    0.48127E+06         0.90794E+06         0.00000E+00
    0.00000E+00         0.00000E+00         0.21368E+06
 
    0.16253E+06         0.53112E+06         0.00000E+00
    0.53112E+06         0.90790E+06         0.00000E+00
    0.00000E+00         0.00000E+00         0.21409E+06
 
    0.16457E+06         0.58082E+06         0.00000E+00
    0.58082E+06         0.90785E+06         0.00000E+00
    0.00000E+00         0.00000E+00         0.21448E+06
 
    0.16658E+06         0.63037E+06         0.00000E+00
    0.63037E+06         0.90780E+06         0.00000E+00
    0.00000E+00         0.00000E+00         0.21488E+06
 
    0.16856E+06         0.67976E+06         0.00000E+00
    0.67976E+06         0.90775E+06         0.00000E+00
    0.00000E+00         0.00000E+00         0.21526E+06
 
    0.17050E+06         0.72900E+06         0.00000E+00
    0.72900E+06         0.90769E+06         0.00000E+00
    0.00000E+00         0.00000E+00         0.21564E+06
 
    0.17241E+06         0.77808E+06         0.00000E+00
    0.77808E+06         0.90763E+06         0.00000E+00
    0.00000E+00         0.00000E+00         0.21601E+06
 
    0.17429E+06         0.82701E+06         0.00000E+00
    0.82701E+06         0.90756E+06         0.00000E+00
    0.00000E+00         0.00000E+00         0.21637E+06
 
    0.17613E+06         0.87578E+06         0.00000E+00
    0.87578E+06         0.90749E+06         0.00000E+00
    0.00000E+00         0.00000E+00         0.21672E+06
 
    0.17795E+06         0.92440E+06         0.00000E+00
    0.92440E+06         0.90741E+06         0.00000E+00
    0.00000E+00         0.00000E+00         0.21707E+06
 
    0.17973E+06         0.97286E+06         0.00000E+00
    0.97286E+06         0.90733E+06         0.00000E+00
    0.00000E+00         0.00000E+00         0.21741E+06
 
    0.18148E+06         0.10212E+07         0.00000E+00
    0.10212E+07         0.90724E+06         0.00000E+00
    0.00000E+00         0.00000E+00         0.21774E+06
 
    0.18321E+06         0.10693E+07         0.00000E+00
    0.10693E+07         0.90714E+06         0.00000E+00
    0.00000E+00         0.00000E+00         0.21807E+06
 
    0.18490E+06         0.11173E+07         0.00000E+00
    0.11173E+07         0.90704E+06         0.00000E+00
    0.00000E+00         0.00000E+00         0.21839E+06
 
    0.18657E+06         0.11651E+07         0.00000E+00
    0.11651E+07         0.90693E+06         0.00000E+00
    0.00000E+00         0.00000E+00         0.21870E+06
 
    0.18821E+06         0.12128E+07         0.00000E+00
    0.12128E+07         0.90681E+06         0.00000E+00
    0.00000E+00         0.00000E+00         0.21900E+06
 
    0.18982E+06         0.12603E+07         0.00000E+00
    0.12603E+07         0.90668E+06         0.00000E+00
    0.00000E+00         0.00000E+00         0.21930E+06
 
    0.19141E+06         0.13077E+07         0.00000E+00
    0.13077E+07         0.90655E+06         0.00000E+00
    0.00000E+00         0.00000E+00         0.21959E+06
 
    0.19297E+06         0.13549E+07         0.00000E+00
    0.13549E+07         0.90640E+06         0.00000E+00
    0.00000E+00         0.00000E+00         0.21988E+06
 
    0.19452E+06         0.14019E+07         0.00000E+00
    0.14019E+07         0.90625E+06         0.00000E+00
    0.00000E+00         0.00000E+00         0.22015E+06
 
    0.19604E+06         0.14488E+07         0.00000E+00
    0.14488E+07         0.90608E+06         0.00000E+00
    0.00000E+00         0.00000E+00         0.22042E+06
 
    0.19753E+06         0.14955E+07         0.00000E+00
    0.14955E+07         0.90590E+06         0.00000E+00
    0.00000E+00         0.00000E+00         0.22069E+06
 
    0.19901E+06         0.15420E+07         0.00000E+00
    0.15420E+07         0.90571E+06         0.00000E+00
    0.00000E+00         0.00000E+00         0.22094E+06
 
    0.20047E+06         0.15884E+07         0.00000E+00
    0.15884E+07         0.90550E+06         0.00000E+00
    0.00000E+00         0.00000E+00         0.22119E+06
 
    0.20192E+06         0.16346E+07         0.00000E+00
    0.16346E+07         0.90528E+06         0.00000E+00
    0.00000E+00         0.00000E+00         0.22144E+06
 
    0.20335E+06         0.16807E+07         0.00000E+00
    0.16807E+07         0.90504E+06         0.00000E+00
    0.00000E+00         0.00000E+00         0.22168E+06
 
    0.20476E+06         0.17266E+07         0.00000E+00
    0.17266E+07         0.90479E+06         0.00000E+00
    0.00000E+00         0.00000E+00         0.22191E+06
 
    0.20616E+06         0.17723E+07         0.00000E+00
    0.17723E+07         0.90452E+06         0.00000E+00
    0.00000E+00         0.00000E+00         0.22214E+06
 
    0.20755E+06         0.18179E+07         0.00000E+00
    0.18179E+07         0.90423E+06         0.00000E+00
    0.00000E+00         0.00000E+00         0.22236E+06
 
    0.20894E+06         0.18633E+07         0.00000E+00
    0.18633E+07         0.90393E+06         0.00000E+00
    0.00000E+00         0.00000E+00         0.22257E+06
 
    0.21031E+06         0.19085E+07         0.00000E+00
    0.19085E+07         0.90360E+06         0.00000E+00
    0.00000E+00         0.00000E+00         0.22278E+06
 
    0.21168E+06         0.19536E+07         0.00000E+00
    0.19536E+07         0.90325E+06         0.00000E+00
    0.00000E+00         0.00000E+00         0.22299E+06
 
    0.21304E+06         0.19985E+07         0.00000E+00
    0.19985E+07         0.90288E+06         0.00000E+00
    0.00000E+00         0.00000E+00         0.22318E+06
 
    0.21440E+06         0.20432E+07         0.00000E+00
    0.20432E+07         0.90249E+06         0.00000E+00
    0.00000E+00         0.00000E+00         0.22338E+06
 
    0.21575E+06         0.20877E+07         0.00000E+00
    0.20877E+07         0.90207E+06         0.00000E+00
    0.00000E+00         0.00000E+00         0.22357E+06
 
    0.21711E+06         0.21321E+07         0.00000E+00
    0.21321E+07         0.90163E+06         0.00000E+00
    0.00000E+00         0.00000E+00         0.22375E+06
 
    0.21847E+06         0.21763E+07         0.00000E+00
    0.21763E+07         0.90116E+06         0.00000E+00
    0.00000E+00         0.00000E+00         0.22393E+06
 
    0.21984E+06         0.22203E+07         0.00000E+00
    0.22203E+07         0.90066E+06         0.00000E+00
    0.00000E+00         0.00000E+00         0.22410E+06
 
    0.22121E+06         0.22642E+07         0.00000E+00
    0.22642E+07         0.90014E+06         0.00000E+00
    0.00000E+00         0.00000E+00         0.22427E+06
 
    0.22259E+06         0.23078E+07         0.00000E+00
    0.23078E+07         0.89958E+06         0.00000E+00
    0.00000E+00         0.00000E+00         0.22443E+06
 
    0.22398E+06         0.23513E+07         0.00000E+00
    0.23513E+07         0.89899E+06         0.00000E+00
    0.00000E+00         0.00000E+00         0.22459E+06
 
    0.11126E+06         0.25779E+05         0.00000E+00
    0.25779E+05         0.62278E+06         0.00000E+00
    0.00000E+00         0.00000E+00         0.14681E+06
 
    0.11290E+06         0.76992E+05         0.00000E+00
    0.76992E+05         0.62278E+06         0.00000E+00
    0.00000E+00         0.00000E+00         0.14714E+06
 
    0.11451E+06         0.12806E+06         0.00000E+00
    0.12806E+06         0.62279E+06         0.00000E+00
    0.00000E+00         0.00000E+00         0.14746E+06
 
    0.11608E+06         0.17897E+06         0.00000E+00
    0.17897E+06         0.62280E+06         0.00000E+00
    0.00000E+00         0.00000E+00         0.14778E+06
 
    0.11762E+06         0.22974E+06         0.00000E+00
    0.22974E+06         0.62281E+06         0.00000E+00
    0.00000E+00         0.00000E+00         0.14809E+06
 
    0.11912E+06         0.28036E+06         0.00000E+00
    0.28036E+06         0.62283E+06         0.00000E+00
    0.00000E+00         0.00000E+00         0.14839E+06
 
    0.12058E+06         0.33082E+06         0.00000E+00
    0.33082E+06         0.62285E+06         0.00000E+00
    0.00000E+00         0.00000E+00         0.14869E+06
 
    0.12201E+06         0.38114E+06         0.00000E+00
    0.38114E+06         0.62287E+06         0.00000E+00
    0.00000E+00         0.00000E+00         0.14898E+06
 
    0.12340E+06         0.43130E+06         0.00000E+00
    0.43130E+06         0.62290E+06         0.00000E+00
    0.00000E+00         0.00000E+00         0.14926E+06
 
    0.12476E+06         0.48131E+06         0.00000E+00
    0.48131E+06         0.62293E+06         0.00000E+00
    0.00000E+00         0.00000E+00         0.14954E+06
 
    0.12608E+06         0.53116E+06         0.00000E+00
    0.53116E+06         0.62296E+06         0.00000E+00
    0.00000E+00         0.00000E+00         0.14981E+06
 
    0.12736E+06         0.58087E+06         0.00000E+00
    0.58087E+06         0.62300E+06         0.00000E+00
    0.00000E+00         0.00000E+00         0.15007E+06
 
    0.12860E+06         0.63041E+06         0.00000E+00
    0.63041E+06         0.62304E+06         0.00000E+00
    0.00000E+00         0.00000E+00         0.15033E+06
 
    0.12981E+06         0.67981E+06         0.00000E+00
    0.67981E+06         0.62309E+06         0.00000E+00
    0.00000E+00         0.00000E+00         0.15058E+06
 
    0.13099E+06         0.72904E+06         0.00000E+00
    0.72904E+06         0.62314E+06         0.00000E+00
    0.00000E+00         0.00000E+00         0.15083E+06
 
    0.13213E+06         0.77812E+06         0.00000E+00
    0.77812E+06         0.62319E+06         0.00000E+00
    0.00000E+00         0.00000E+00         0.15106E+06
 
    0.13323E+06         0.82705E+06         0.00000E+00
    0.82705E+06         0.62324E+06         0.00000E+00
    0.00000E+00         0.00000E+00         0.15130E+06
 
    0.13430E+06         0.87581E+06         0.00000E+00
    0.87581E+06         0.62330E+06         0.00000E+00
    0.00000E+00         0.00000E+00         0.15152E+06
 
    0.13534E+06         0.92442E+06         0.00000E+00
    0.92442E+06         0.62336E+06         0.00000E+00
    0.00000E+00         0.00000E+00         0.15174E+06
 
    0.13634E+06         0.97287E+06         0.00000E+00
    0.97287E+06         0.62342E+06         0.00000E+00
    0.00000E+00         0.00000E+00         0.15195E+06
 
    0.13731E+06         0.10212E+07         0.00000E+00
    0.10212E+07         0.62348E+06         0.00000E+00
    0.00000E+00         0.00000E+00         0.15216E+06
 
    0.13825E+06         0.10693E+07         0.00000E+00
    0.10693E+07         0.62354E+06         0.00000E+00
    0.00000E+00         0.00000E+00         0.15236E+06
 
    0.13916E+06         0.11173E+07         0.00000E+00
    0.11173E+07         0.62361E+06         0.00000E+00
    0.00000E+00         0.00000E+00         0.15255E+06
 
    0.14004E+06         0.11651E+07         0.00000E+00
    0.11651E+07         0.62367E+06         0.00000E+00
    0.00000E+00         0.00000E+00         0.15274E+06
 
    0.14089E+06         0.12127E+07         0.00000E+00
    0.12127E+07         0.62373E+06         0.00000E+00
    0.00000E+00         0.00000E+00         0.15292E+06
 
    0.14171E+06         0.12602E+07         0.00000E+00
    0.12602E+07         0.62379E+06         0.00000E+00
    0.00000E+00         0.00000E+00         0.15310E+06
 
    0.14250E+06         0.13075E+07         0.00000E+00
    0.13075E+07         0.62385E+06         0.00000E+00
    0.00000E+00         0.00000E+00         0.15327E+06
 
    0.14326E+06         0.13547E+07         0.00000E+00
    0.13547E+07         0.62391E+06         0.00000E+00
    0.00000E+00         0.00000E+00         0.15343E+06
 
    0.14400E+06         0.14017E+07         0.00000E+00
    0.14017E+07         0.62397E+06         0.00000E+00
    0.00000E+00         0.00000E+00         0.15359E+06
 
    0.14471E+06         0.14485E+07         0.00000E+00
    0.14485E+07         0.62402E+06         0.00000E+00
    0.00000E+00         0.00000E+00         0.15375E+06
 
    0.14540E+06         0.14952E+07         0.00000E+00
    0.14952E+07         0.62407E+06         0.00000E+00
    0.00000E+00         0.00000E+00         0.15389E+06
 
    0.14606E+06         0.15417E+07         0.00000E+00
    0.15417E+07         0.62411E+06         0.00000E+00
    0.00000E+00         0.00000E+00         0.15403E+06
 
    0.14671E+06         0.15880E+07         0.00000E+00
    0.15880E+07         0.62415E+06         0.00000E+00
    0.00000E+00         0.00000E+00         0.15417E+06
 
    0.14733E+06         0.16342E+07         0.00000E+00
    0.16342E+07         0.62418E+06         0.00000E+00
    0.00000E+00         0.00000E+00         0.15430E+06
 
    0.14793E+06         0.16802E+07         0.00000E+00
    0.16802E+07         0.62420E+06         0.00000E+00
    0.00000E+00         0.00000E+00         0.15443E+06
 
    0.14852E+06         0.17260E+07         0.00000E+00
    0.17260E+07         0.62422E+06         0.00000E+00
    0.00000E+00         0.00000E+00         0.15455E+06
 
    0.14908E+06         0.17717E+07         0.00000E+00
    0.17717E+07         0.62423E+06         0.00000E+00
    0.00000E+00         0.00000E+00         0.15466E+06
 
    0.14963E+06         0.18172E+07         0.00000E+00
    0.18172E+07         0.62423E+06         0.00000E+00
    0.00000E+00         0.00000E+00         0.15477E+06
 
    0.15017E+06         0.18625E+07         0.00000E+00
    0.18625E+07         0.62421E+06         0.00000E+00
    0.00000E+00         0.00000E+00         0.15488E+06
 
    0.15069E+06         0.19076E+07         0.00000E+00
    0.19076E+07         0.62419E+06         0.00000E+00
    0.00000E+00         0.00000E+00         0.15498E+06
 
    0.15120E+06         0.19526E+07         0.00000E+00
    0.19526E+07         0.62416E+06         0.00000E+00
    0.00000E+00         0.00000E+00         0.15507E+06
 
    0.15170E+06         0.19974E+07         0.00000E+00
    0.19974E+07         0.62411E+06         0.00000E+00
    0.00000E+00         0.00000E+00         0.15516E+06
 
    0.15220E+06         0.20420E+07         0.00000E+00
    0.20420E+07         0.62405E+06         0.00000E+00
    0.00000E+00         0.00000E+00         0.15525E+06
 
    0.15268E+06         0.20865E+07         0.00000E+00
    0.20865E+07         0.62397E+06         0.00000E+00
    0.00000E+00         0.00000E+00         0.15533E+06
 
    0.15316E+06         0.21307E+07         0.00000E+00
    0.21307E+07         0.62388E+06         0.00000E+00
    0.00000E+00         0.00000E+00         0.15541E+06
 
    0.15363E+06         0.21748E+07         0.00000E+00
    0.21748E+07         0.62377E+06         0.00000E+00
    0.00000E+00         0.00000E+00         0.15548E+06
 
    0.15411E+06         0.22187E+07         0.00000E+00
    0.22187E+07         0.62364E+06         0.00000E+00
    0.00000E+00         0.00000E+00         0.15555E+06
 
    0.15458E+06         0.22624E+07         0.00000E+00
    0.22624E+07         0.62349E+06         0.00000E+00
    0.00000E+00         0.00000E+00         0.15561E+06
 
    0.15505E+06         0.23059E+07         0.00000E+00
    0.23059E+07         0.62332E+06         0.00000E+00
    0.00000E+00         0.00000E+00         0.15567E+06
 
    0.15552E+06         0.23493E+07         0.00000E+00
    0.23493E+07         0.62314E+06         0.00000E+00
    0.00000E+00         0.00000E+00         0.15573E+06
 
    0.83318E+05         0.25798E+05         0.00000E+00
    0.25798E+05         0.33832E+06         0.00000E+00
    0.00000E+00         0.00000E+00         0.84327E+05
 
    0.84227E+05         0.77052E+05         0.00000E+00
    0.77052E+05         0.33833E+06         0.00000E+00
    0.00000E+00         0.00000E+00         0.84511E+05
 
    0.85097E+05         0.12816E+06         0.00000E+00
    0.12816E+06         0.33835E+06         0.00000E+00
    0.00000E+00         0.00000E+00         0.84689E+05
 
    0.85927E+05         0.17911E+06         0.00000E+00
    0.17911E+06         0.33838E+06         0.00000E+00
    0.00000E+00         0.00000E+00         0.84862E+05
 
    0.86718E+05         0.22992E+06         0.00000E+00
    0.22992E+06         0.33843E+06         0.00000E+00
    0.00000E+00         0.00000E+00         0.85030E+05
 
    0.87469E+05         0.28058E+06         0.00000E+00
    0.28058E+06         0.33849E+06         0.00000E+00
    0.00000E+00         0.00000E+00         0.85191E+05
 
    0.88181E+05         0.33109E+06         0.00000E+00
    0.33109E+06         0.33856E+06         0.00000E+00
    0.00000E+00         0.00000E+00         0.85348E+05
 
    0.88853E+05         0.38144E+06         0.00000E+00
    0.38144E+06         0.33864E+06         0.00000E+00
    0.00000E+00         0.00000E+00         0.85498E+05
 
    0.89485E+05         0.43164E+06         0.00000E+00
    0.43164E+06         0.33873E+06         0.00000E+00
    0.00000E+00         0.00000E+00         0.85643E+05
 
    0.90079E+05         0.48169E+06         0.00000E+00
    0.48169E+06         0.33883E+06         0.00000E+00
    0.00000E+00         0.00000E+00         0.85783E+05
 
    0.90633E+05         0.53159E+06         0.00000E+00
    0.53159E+06         0.33895E+06         0.00000E+00
    0.00000E+00         0.00000E+00         0.85917E+05
 
    0.91148E+05         0.58133E+06         0.00000E+00
    0.58133E+06         0.33908E+06         0.00000E+00
    0.00000E+00         0.00000E+00         0.86045E+05
 
    0.91624E+05         0.63091E+06         0.00000E+00
    0.63091E+06         0.33922E+06         0.00000E+00
    0.00000E+00         0.00000E+00         0.86168E+05
 
    0.92061E+05         0.68034E+06         0.00000E+00
    0.68034E+06         0.33937E+06         0.00000E+00
    0.00000E+00         0.00000E+00         0.86285E+05
 
    0.92461E+05         0.72962E+06         0.00000E+00
    0.72962E+06         0.33953E+06         0.00000E+00
    0.00000E+00         0.00000E+00         0.86397E+05
 
    0.92822E+05         0.77873E+06         0.00000E+00
    0.77873E+06         0.33970E+06         0.00000E+00
    0.00000E+00         0.00000E+00         0.86504E+05
 
    0.93146E+05         0.82769E+06         0.00000E+00
    0.82769E+06         0.33988E+06         0.00000E+00
    0.00000E+00         0.00000E+00         0.86605E+05
 
    0.93433E+05         0.87648E+06         0.00000E+00
    0.87648E+06         0.34007E+06         0.00000E+00
    0.00000E+00         0.00000E+00         0.86700E+05
 
    0.93683E+05         0.92512E+06         0.00000E+00
    0.92512E+06         0.34027E+06         0.00000E+00
    0.00000E+00         0.00000E+00         0.86790E+05
 
    0.93897E+05         0.97360E+06         0.00000E+00
    0.97360E+06         0.34048E+06         0.00000E+00
    0.00000E+00         0.00000E+00         0.86875E+05
 
    0.94075E+05         0.10219E+07         0.00000E+00
    0.10219E+07         0.34070E+06         0.00000E+00
    0.00000E+00         0.00000E+00         0.86955E+05
 
    0.94218E+05         0.10701E+07         0.00000E+00
    0.10701E+07         0.34093E+06         0.00000E+00
    0.00000E+00         0.00000E+00         0.87029E+05
 
    0.94327E+05         0.11181E+07         0.00000E+00
    0.11181E+07         0.34116E+06         0.00000E+00
    0.00000E+00         0.00000E+00         0.87098E+05
 
    0.94402E+05         0.11659E+07         0.00000E+00
    0.11659E+07         0.34141E+06         0.00000E+00
    0.00000E+00         0.00000E+00         0.87162E+05
 
    0.94444E+05         0.12136E+07         0.00000E+00
    0.12136E+07         0.34166E+06         0.00000E+00
    0.00000E+00         0.00000E+00         0.87221E+05
 
    0.94453E+05         0.12611E+07         0.00000E+00
    0.12611E+07         0.34192E+06         0.00000E+00
    0.00000E+00         0.00000E+00         0.87275E+05
 
    0.94431E+05         0.13084E+07         0.00000E+00
    0.13084E+07         0.34219E+06         0.00000E+00
    0.00000E+00         0.00000E+00         0.87323E+05
 
    0.94378E+05         0.13556E+07         0.00000E+00
    0.13556E+07         0.34246E+06         0.00000E+00
    0.00000E+00         0.00000E+00         0.87367E+05
 
    0.94295E+05         0.14026E+07         0.00000E+00
    0.14026E+07         0.34273E+06         0.00000E+00
    0.00000E+00         0.00000E+00         0.87406E+05
 
    0.94182E+05         0.14494E+07         0.00000E+00
    0.14494E+07         0.34301E+06         0.00000E+00
    0.00000E+00         0.00000E+00         0.87439E+05
 
    0.94042E+05         0.14961E+07         0.00000E+00
    0.14961E+07         0.34330E+06         0.00000E+00
    0.00000E+00         0.00000E+00         0.87468E+05
 
    0.93873E+05         0.15426E+07         0.00000E+00
    0.15426E+07         0.34359E+06         0.00000E+00
    0.00000E+00         0.00000E+00         0.87492E+05
 
    0.93679E+05         0.15889E+07         0.00000E+00
    0.15889E+07         0.34388E+06         0.00000E+00
    0.00000E+00         0.00000E+00         0.87512E+05
 
    0.93459E+05         0.16350E+07         0.00000E+00
    0.16350E+07         0.34417E+06         0.00000E+00
    0.00000E+00         0.00000E+00         0.87527E+05
 
    0.93215E+05         0.16810E+07         0.00000E+00
    0.16810E+07         0.34447E+06         0.00000E+00
    0.00000E+00         0.00000E+00         0.87537E+05
 
    0.92947E+05         0.17268E+07         0.00000E+00
    0.17268E+07         0.34477E+06         0.00000E+00
    0.00000E+00         0.00000E+00         0.87543E+05
 
    0.92657E+05         0.17725E+07         0.00000E+00
    0.17725E+07         0.34506E+06         0.00000E+00
    0.00000E+00         0.00000E+00         0.87544E+05
 
    0.92346E+05         0.18179E+07         0.00000E+00
    0.18179E+07         0.34536E+06         0.00000E+00
    0.00000E+00         0.00000E+00         0.87541E+05
 
    0.92015E+05         0.18632E+07         0.00000E+00
    0.18632E+07         0.34565E+06         0.00000E+00
    0.00000E+00         0.00000E+00         0.87534E+05
 
    0.91665E+05         0.19083E+07         0.00000E+00
    0.19083E+07         0.34595E+06         0.00000E+00
    0.00000E+00         0.00000E+00         0.87522E+05
 
    0.91297E+05         0.19532E+07         0.00000E+00
    0.19532E+07         0.34623E+06         0.00000E+00
    0.00000E+00         0.00000E+00         0.87506E+05
 
    0.90913E+05         0.19980E+07         0.00000E+00
    0.19980E+07         0.34652E+06         0.00000E+00
    0.00000E+00         0.00000E+00         0.87487E+05
 
    0.90514E+05         0.20425E+07         0.00000E+00
    0.20425E+07         0.34680E+06         0.00000E+00
    0.00000E+00         0.00000E+00         0.87463E+05
 
    0.90101E+05         0.20869E+07         0.00000E+00
    0.20869E+07         0.34708E+06         0.00000E+00
    0.00000E+00         0.00000E+00         0.87435E+05
 
    0.89675E+05         0.21311E+07         0.00000E+00
    0.21311E+07         0.34734E+06         0.00000E+00
    0.00000E+00         0.00000E+00         0.87404E+05
 
    0.89238E+05         0.21751E+07         0.00000E+00
    0.21751E+07         0.34761E+06         0.00000E+00
    0.00000E+00         0.00000E+00         0.87369E+05
 
    0.88791E+05         0.22190E+07         0.00000E+00
    0.22190E+07         0.34786E+06         0.00000E+00
    0.00000E+00         0.00000E+00         0.87330E+05
 
    0.88335E+05         0.22626E+07         0.00000E+00
    0.22626E+07         0.34810E+06         0.00000E+00
    0.00000E+00         0.00000E+00         0.87288E+05
 
    0.87872E+05         0.23061E+07         0.00000E+00
    0.23061E+07         0.34834E+06         0.00000E+00
    0.00000E+00         0.00000E+00         0.87242E+05
 
    0.87403E+05         0.23493E+07         0.00000E+00
    0.23493E+07         0.34856E+06         0.00000E+00
    0.00000E+00         0.00000E+00         0.87193E+05
 
    0.56191E+05         0.25837E+05         0.00000E+00
    0.25837E+05         0.54367E+05         0.00000E+00
    0.00000E+00         0.00000E+00         0.22112E+05
 
    0.56366E+05         0.77170E+05         0.00000E+00
    0.77170E+05         0.54387E+05         0.00000E+00
    0.00000E+00         0.00000E+00         0.22151E+05
 
    0.56497E+05         0.12835E+06         0.00000E+00
    0.12835E+06         0.54427E+05         0.00000E+00
    0.00000E+00         0.00000E+00         0.22185E+05
 
    0.56585E+05         0.17939E+06         0.00000E+00
    0.17939E+06         0.54487E+05         0.00000E+00
    0.00000E+00         0.00000E+00         0.22214E+05
 
    0.56630E+05         0.23028E+06         0.00000E+00
    0.23028E+06         0.54567E+05         0.00000E+00
    0.00000E+00         0.00000E+00         0.22239E+05
 
    0.56631E+05         0.28102E+06         0.00000E+00
    0.28102E+06         0.54667E+05         0.00000E+00
    0.00000E+00         0.00000E+00         0.22260E+05
 
    0.56590E+05         0.33160E+06         0.00000E+00
    0.33160E+06         0.54787E+05         0.00000E+00
    0.00000E+00         0.00000E+00         0.22275E+05
 
    0.56505E+05         0.38204E+06         0.00000E+00
    0.38204E+06         0.54928E+05         0.00000E+00
    0.00000E+00         0.00000E+00         0.22286E+05
 
    0.56377E+05         0.43232E+06         0.00000E+00
    0.43232E+06         0.55088E+05         0.00000E+00
    0.00000E+00         0.00000E+00         0.22293E+05
 
    0.56206E+05         0.48244E+06         0.00000E+00
    0.48244E+06         0.55267E+05         0.00000E+00
    0.00000E+00         0.00000E+00         0.22295E+05
 
    0.55992E+05         0.53242E+06         0.00000E+00
    0.53242E+06         0.55467E+05         0.00000E+00
    0.00000E+00         0.00000E+00         0.22292E+05
 
    0.55736E+05         0.58223E+06         0.00000E+00
    0.58223E+06         0.55685E+05         0.00000E+00
    0.00000E+00         0.00000E+00         0.22284E+05
 
    0.55438E+05         0.63189E+06         0.00000E+00
    0.63189E+06         0.55924E+05         0.00000E+00
    0.00000E+00         0.00000E+00         0.22272E+05
 
    0.55098E+05         0.68140E+06         0.00000E+00
    0.68140E+06         0.56181E+05         0.00000E+00
    0.00000E+00         0.00000E+00         0.22256E+05
 
    0.54715E+05         0.73074E+06         0.00000E+00
    0.73074E+06         0.56457E+05         0.00000E+00
    0.00000E+00         0.00000E+00         0.22234E+05
 
    0.54292E+05         0.77993E+06         0.00000E+00
    0.77993E+06         0.56752E+05         0.00000E+00
    0.00000E+00         0.00000E+00         0.22209E+05
 
    0.53827E+05         0.82895E+06         0.00000E+00
    0.82895E+06         0.57065E+05         0.00000E+00
    0.00000E+00         0.00000E+00         0.22178E+05
 
    0.53322E+05         0.87782E+06         0.00000E+00
    0.87782E+06         0.57396E+05         0.00000E+00
    0.00000E+00         0.00000E+00         0.22144E+05
 
    0.52777E+05         0.92653E+06         0.00000E+00
    0.92653E+06         0.57745E+05         0.00000E+00
    0.00000E+00         0.00000E+00         0.22104E+05
 
    0.52191E+05         0.97507E+06         0.00000E+00
    0.97507E+06         0.58111E+05         0.00000E+00
    0.00000E+00         0.00000E+00         0.22061E+05
 
    0.51567E+05         0.10234E+07         0.00000E+00
    0.10234E+07         0.58495E+05         0.00000E+00
    0.00000E+00         0.00000E+00         0.22012E+05
 
    0.50903E+05         0.10717E+07         0.00000E+00
    0.10717E+07         0.58895E+05         0.00000E+00
    0.00000E+00         0.00000E+00         0.21960E+05
 
    0.50202E+05         0.11197E+07         0.00000E+00
    0.11197E+07         0.59312E+05         0.00000E+00
    0.00000E+00         0.00000E+00         0.21903E+05
 
    0.49462E+05         0.11676E+07         0.00000E+00
    0.11676E+07         0.59744E+05         0.00000E+00
    0.00000E+00         0.00000E+00         0.21841E+05
 
    0.48686E+05         0.12153E+07         0.00000E+00
    0.12153E+07         0.60193E+05         0.00000E+00
    0.00000E+00         0.00000E+00         0.21776E+05
 
    0.47873E+05         0.12629E+07         0.00000E+00
    0.12629E+07         0.60656E+05         0.00000E+00
    0.00000E+00         0.00000E+00         0.21706E+05
 
    0.47024E+05         0.13103E+07         0.00000E+00
    0.13103E+07         0.61134E+05         0.00000E+00
    0.00000E+00         0.00000E+00         0.21631E+05
 
    0.46140E+05         0.13575E+07         0.00000E+00
    0.13575E+07         0.61626E+05         0.00000E+00
    0.00000E+00         0.00000E+00         0.21553E+05
 
    0.45221E+05         0.14045E+07         0.00000E+00
    0.14045E+07         0.62131E+05         0.00000E+00
    0.00000E+00         0.00000E+00         0.21471E+05
 
    0.44269E+05         0.14514E+07         0.00000E+00
    0.14514E+07         0.62650E+05         0.00000E+00
    0.00000E+00         0.00000E+00         0.21384E+05
 
    0.43284E+05         0.14981E+07         0.00000E+00
    0.14981E+07         0.63181E+05         0.00000E+00
    0.00000E+00         0.00000E+00         0.21293E+05
 
    0.42267E+05         0.15446E+07         0.00000E+00
    0.15446E+07         0.63724E+05         0.00000E+00
    0.00000E+00         0.00000E+00         0.21198E+05
 
    0.41218E+05         0.15910E+07         0.00000E+00
    0.15910E+07         0.64279E+05         0.00000E+00
    0.00000E+00         0.00000E+00         0.21099E+05
 
    0.40139E+05         0.16372E+07         0.00000E+00
    0.16372E+07         0.64845E+05         0.00000E+00
    0.00000E+00         0.00000E+00         0.20997E+05
 
    0.39031E+05         0.16832E+07         0.00000E+00
    0.16832E+07         0.65420E+05         0.00000E+00
    0.00000E+00         0.00000E+00         0.20890E+05
 
    0.37893E+05         0.17290E+07         0.00000E+00
    0.17290E+07         0.66005E+05         0.00000E+00
    0.00000E+00         0.00000E+00         0.20780E+05
 
    0.36728E+05         0.17747E+07         0.00000E+00
    0.17747E+07         0.66600E+05         0.00000E+00
    0.00000E+00         0.00000E+00         0.20666E+05
 
    0.35536E+05         0.18202E+07         0.00000E+00
    0.18202E+07         0.67202E+05         0.00000E+00
    0.00000E+00         0.00000E+00         0.20548E+05
 
    0.34318E+05         0.18655E+07         0.00000E+00
    0.18655E+07         0.67812E+05         0.00000E+00
    0.00000E+00         0.00000E+00         0.20426E+05
 
    0.33075E+05         0.19106E+07         0.00000E+00
    0.19106E+07         0.68429E+05         0.00000E+00
    0.00000E+00         0.00000E+00         0.20301E+05
 
    0.31808E+05         0.19555E+07         0.00000E+00
    0.19555E+07         0.69052E+05         0.00000E+00
    0.00000E+00         0.00000E+00         0.20172E+05
 
    0.30518E+05         0.20002E+07         0.00000E+00
    0.20002E+07         0.69681E+05         0.00000E+00
    0.00000E+00         0.00000E+00         0.20040E+05
 
    0.29207E+05         0.20448E+07         0.00000E+00
    0.20448E+07         0.70315E+05         0.00000E+00
    0.00000E+00         0.00000E+00         0.19904E+05
 
    0.27874E+05         0.20892E+07         0.00000E+00
    0.20892E+07         0.70952E+05         0.00000E+00
    0.00000E+00         0.00000E+00         0.19765E+05
 
    0.26522E+05         0.21334E+07         0.00000E+00
    0.21334E+07         0.71593E+05         0.00000E+00
    0.00000E+00         0.00000E+00         0.19623E+05
 
    0.25152E+05         0.21774E+07         0.00000E+00
    0.21774E+07         0.72236E+05         0.00000E+00
    0.00000E+00         0.00000E+00         0.19478E+05
 
    0.23763E+05         0.22212E+07         0.00000E+00
    0.22212E+07         0.72881E+05         0.00000E+00
    0.00000E+00         0.00000E+00         0.19329E+05
 
    0.22359E+05         0.22648E+07         0.00000E+00
    0.22648E+07         0.73527E+05         0.00000E+00
    0.00000E+00         0.00000E+00         0.19177E+05
 
    0.20939E+05         0.23083E+07         0.00000E+00
    0.23083E+07         0.74174E+05         0.00000E+00
    0.00000E+00         0.00000E+00         0.19023E+05
 
    0.19506E+05         0.23515E+07         0.00000E+00
    0.23515E+07         0.74819E+05         0.00000E+00
    0.00000E+00         0.00000E+00         0.18865E+05
 
    0.29684E+05         0.25897E+05         0.00000E+00
    0.25897E+05        -0.22946E+06         0.00000E+00
    0.00000E+00         0.00000E+00        -0.39955E+05
 
    0.29125E+05         0.77348E+05         0.00000E+00
    0.77348E+05        -0.22943E+06         0.00000E+00
    0.00000E+00         0.00000E+00        -0.40061E+05
 
    0.28518E+05         0.12865E+06         0.00000E+00
    0.12865E+06        -0.22937E+06         0.00000E+00
    0.00000E+00         0.00000E+00        -0.40171E+05
 
    0.27864E+05         0.17981E+06         0.00000E+00
    0.17981E+06        -0.22928E+06         0.00000E+00
    0.00000E+00         0.00000E+00        -0.40284E+05
 
    0.27162E+05         0.23081E+06         0.00000E+00
    0.23081E+06        -0.22917E+06         0.00000E+00
    0.00000E+00         0.00000E+00        -0.40401E+05
 
    0.26412E+05         0.28167E+06         0.00000E+00
    0.28167E+06        -0.22902E+06         0.00000E+00
    0.00000E+00         0.00000E+00        -0.40522E+05
 
    0.25616E+05         0.33237E+06         0.00000E+00
    0.33237E+06        -0.22885E+06         0.00000E+00
    0.00000E+00         0.00000E+00        -0.40647E+05
 
    0.24772E+05         0.38293E+06         0.00000E+00
    0.38293E+06        -0.22865E+06         0.00000E+00
    0.00000E+00         0.00000E+00        -0.40776E+05
 
    0.23880E+05         0.43332E+06         0.00000E+00
    0.43332E+06        -0.22842E+06         0.00000E+00
    0.00000E+00         0.00000E+00        -0.40908E+05
 
    0.22942E+05         0.48357E+06         0.00000E+00
    0.48357E+06        -0.22816E+06         0.00000E+00
    0.00000E+00         0.00000E+00        -0.41044E+05
 
    0.21958E+05         0.53366E+06         0.00000E+00
    0.53366E+06        -0.22788E+06         0.00000E+00
    0.00000E+00         0.00000E+00        -0.41184E+05
 
    0.20926E+05         0.58359E+06         0.00000E+00
    0.58359E+06        -0.22757E+06         0.00000E+00
    0.00000E+00         0.00000E+00        -0.41328E+05
 
    0.19849E+05         0.63336E+06         0.00000E+00
    0.63336E+06        -0.22722E+06         0.00000E+00
    0.00000E+00         0.00000E+00        -0.41475E+05
 
    0.18725E+05         0.68298E+06         0.00000E+00
    0.68298E+06        -0.22686E+06         0.00000E+00
    0.00000E+00         0.00000E+00        -0.41626E+05
 
    0.17556E+05         0.73244E+06         0.00000E+00
    0.73244E+06        -0.22646E+06         0.00000E+00
    0.00000E+00         0.00000E+00        -0.41781E+05
 
    0.16341E+05         0.78173E+06         0.00000E+00
    0.78173E+06        -0.22604E+06         0.00000E+00
    0.00000E+00         0.00000E+00        -0.41939E+05
 
    0.15081E+05         0.83087E+06         0.00000E+00
    0.83087E+06        -0.22559E+06         0.00000E+00
    0.00000E+00         0.00000E+00        -0.42102E+05
 
    0.13777E+05         0.87984E+06         0.00000E+00
    0.87984E+06        -0.22511E+06         0.00000E+00
    0.00000E+00         0.00000E+00        -0.42267E+05
 
    0.12428E+05         0.92866E+06         0.00000E+00
    0.92866E+06        -0.22461E+06         0.00000E+00
    0.00000E+00         0.00000E+00        -0.42437E+05
 
    0.11035E+05         0.97731E+06         0.00000E+00
    0.97731E+06        -0.22409E+06         0.00000E+00
    0.00000E+00         0.00000E+00        -0.42610E+05
 
    0.95988E+04         0.10258E+07         0.00000E+00
    0.10258E+07        -0.22353E+06         0.00000E+00
    0.00000E+00         0.00000E+00        -0.42787E+05
 
    0.81194E+04         0.10741E+07         0.00000E+00
    0.10741E+07        -0.22296E+06         0.00000E+00
    0.00000E+00         0.00000E+00        -0.42967E+05
 
    0.65976E+04         0.11223E+07         0.00000E+00
    0.11223E+07        -0.22235E+06         0.00000E+00
    0.00000E+00         0.00000E+00        -0.43151E+05
 
    0.50336E+04         0.11702E+07         0.00000E+00
    0.11702E+07        -0.22173E+06         0.00000E+00
    0.00000E+00         0.00000E+00        -0.43339E+05
 
    0.34281E+04         0.12181E+07         0.00000E+00
    0.12181E+07        -0.22108E+06         0.00000E+00
    0.00000E+00         0.00000E+00        -0.43530E+05
 
    0.17816E+04         0.12657E+07         0.00000E+00
    0.12657E+07        -0.22040E+06         0.00000E+00
    0.00000E+00         0.00000E+00        -0.43725E+05
 
    0.94570E+02         0.13132E+07         0.00000E+00
    0.13132E+07        -0.21971E+06         0.00000E+00
    0.00000E+00         0.00000E+00        -0.43923E+05
 
   -0.16323E+04         0.13605E+07         0.00000E+00
    0.13605E+07        -0.21899E+06         0.00000E+00
    0.00000E+00         0.00000E+00        -0.44124E+05
 
   -0.33984E+04         0.14076E+07         0.00000E+00
    0.14076E+07        -0.21825E+06         0.00000E+00
    0.00000E+00         0.00000E+00        -0.44329E+05
 
   -0.52032E+04         0.14546E+07         0.00000E+00
    0.14546E+07        -0.21748E+06         0.00000E+00
    0.00000E+00         0.00000E+00        -0.44538E+05
 
   -0.70460E+04         0.15014E+07         0.00000E+00
    0.15014E+07        -0.21670E+06         0.00000E+00
    0.00000E+00         0.00000E+00        -0.44749E+05
 
   -0.89261E+04         0.15480E+07         0.00000E+00
    0.15480E+07        -0.21590E+06         0.00000E+00
    0.00000E+00         0.00000E+00        -0.44965E+05
 
   -0.10843E+05         0.15944E+07         0.00000E+00
    0.15944E+07        -0.21507E+06         0.00000E+00
    0.00000E+00         0.00000E+00        -0.45183E+05
 
   -0.12796E+05         0.16407E+07         0.00000E+00
    0.16407E+07        -0.21423E+06         0.00000E+00
    0.00000E+00         0.00000E+00        -0.45405E+05
 
   -0.14783E+05         0.16868E+07         0.00000E+00
    0.16868E+07        -0.21336E+06         0.00000E+00
    0.00000E+00         0.00000E+00        -0.45630E+05
 
   -0.16806E+05         0.17327E+07         0.00000E+00
    0.17327E+07        -0.21248E+06         0.00000E+00
    0.00000E+00         0.00000E+00        -0.45858E+05
 
   -0.18862E+05         0.17784E+07         0.00000E+00
    0.17784E+07        -0.21158E+06         0.00000E+00
    0.00000E+00         0.00000E+00        -0.46089E+05
 
   -0.20951E+05         0.18239E+07         0.00000E+00
    0.18239E+07        -0.21067E+06         0.00000E+00
    0.00000E+00         0.00000E+00        -0.46323E+05
 
   -0.23072E+05         0.18693E+07         0.00000E+00
    0.18693E+07        -0.20973E+06         0.00000E+00
    0.00000E+00         0.00000E+00        -0.46561E+05
 
   -0.25225E+05         0.19145E+07         0.00000E+00
    0.19145E+07        -0.20878E+06         0.00000E+00
    0.00000E+00         0.00000E+00        -0.46801E+05
 
   -0.27408E+05         0.19595E+07         0.00000E+00
    0.19595E+07        -0.20782E+06         0.00000E+00
    0.00000E+00         0.00000E+00        -0.47045E+05
 
   -0.29621E+05         0.20043E+07         0.00000E+00
    0.20043E+07        -0.20684E+06         0.00000E+00
    0.00000E+00         0.00000E+00        -0.47291E+05
 
   -0.31862E+05         0.20489E+07         0.00000E+00
    0.20489E+07        -0.20584E+06         0.00000E+00
    0.00000E+00         0.00000E+00        -0.47541E+05
 
   -0.34132E+05         0.20933E+07         0.00000E+00
    0.20933E+07        -0.20483E+06         0.00000E+00
    0.00000E+00         0.00000E+00        -0.47793E+05
 
   -0.36428E+05         0.21375E+07         0.00000E+00
    0.21375E+07        -0.20381E+06         0.00000E+00
    0.00000E+00         0.00000E+00        -0.48048E+05
 
   -0.38751E+05         0.21816E+07         0.00000E+00
    0.21816E+07        -0.20278E+06         0.00000E+00
    0.00000E+00         0.00000E+00        -0.48306E+05
 
   -0.41098E+05         0.22254E+07         0.00000E+00
    0.22254E+07        -0.20173E+06         0.00000E+00
    0.00000E+00         0.00000E+00        -0.48566E+05
 
   -0.43471E+05         0.22691E+07         0.00000E+00
    0.22691E+07        -0.20068E+06         0.00000E+00
    0.00000E+00         0.00000E+00        -0.48829E+05
 
   -0.45866E+05         0.23125E+07         0.00000E+00
    0.23125E+07        -0.19961E+06         0.00000E+00
    0.00000E+00         0.00000E+00        -0.49095E+05
 
   -0.48284E+05         0.23558E+07         0.00000E+00
    0.23558E+07        -0.19853E+06         0.00000E+00
    0.00000E+00         0.00000E+00        -0.49363E+05
 
    0.36122E+04         0.25977E+05         0.00000E+00
    0.25977E+05        -0.51354E+06         0.00000E+00
    0.00000E+00         0.00000E+00        -0.10199E+06
 
    0.23193E+04         0.77589E+05         0.00000E+00
    0.77589E+05        -0.51351E+06         0.00000E+00
    0.00000E+00         0.00000E+00        -0.10224E+06
 
    0.97390E+03         0.12905E+06         0.00000E+00
    0.12905E+06        -0.51343E+06         0.00000E+00
    0.00000E+00         0.00000E+00        -0.10249E+06
 
   -0.42385E+03         0.18037E+06         0.00000E+00
    0.18037E+06        -0.51332E+06         0.00000E+00
    0.00000E+00         0.00000E+00        -0.10275E+06
 
   -0.18738E+04         0.23153E+06         0.00000E+00
    0.23153E+06        -0.51316E+06         0.00000E+00
    0.00000E+00         0.00000E+00        -0.10301E+06
 
   -0.33759E+04         0.28255E+06         0.00000E+00
    0.28255E+06        -0.51298E+06         0.00000E+00
    0.00000E+00         0.00000E+00        -0.10327E+06
 
   -0.49299E+04         0.33341E+06         0.00000E+00
    0.33341E+06        -0.51275E+06         0.00000E+00
    0.00000E+00         0.00000E+00        -0.10354E+06
 
   -0.65357E+04         0.38412E+06         0.00000E+00
    0.38412E+06        -0.51249E+06         0.00000E+00
    0.00000E+00         0.00000E+00        -0.10380E+06
 
   -0.81930E+04         0.43468E+06         0.00000E+00
    0.43468E+06        -0.51219E+06         0.00000E+00
    0.00000E+00         0.00000E+00        -0.10408E+06
 
   -0.99017E+04         0.48508E+06         0.00000E+00
    0.48508E+06        -0.51185E+06         0.00000E+00
    0.00000E+00         0.00000E+00        -0.10435E+06
 
   -0.11662E+05         0.53532E+06         0.00000E+00
    0.53532E+06        -0.51147E+06         0.00000E+00
    0.00000E+00         0.00000E+00        -0.10463E+06
 
   -0.13472E+05         0.58541E+06         0.00000E+00
    0.58541E+06        -0.51106E+06         0.00000E+00
    0.00000E+00         0.00000E+00        -0.10491E+06
 
   -0.15334E+05         0.63534E+06         0.00000E+00
    0.63534E+06        -0.51062E+06         0.00000E+00
    0.00000E+00         0.00000E+00        -0.10519E+06
 
   -0.17246E+05         0.68511E+06         0.00000E+00
    0.68511E+06        -0.51014E+06         0.00000E+00
    0.00000E+00         0.00000E+00        -0.10548E+06
 
   -0.19207E+05         0.73472E+06         0.00000E+00
    0.73472E+06        -0.50962E+06         0.00000E+00
    0.00000E+00         0.00000E+00        -0.10577E+06
 
   -0.21219E+05         0.78417E+06         0.00000E+00
    0.78417E+06        -0.50907E+06         0.00000E+00
    0.00000E+00         0.00000E+00        -0.10606E+06
 
   -0.23280E+05         0.83345E+06         0.00000E+00
    0.83345E+06        -0.50848E+06         0.00000E+00
    0.00000E+00         0.00000E+00        -0.10635E+06
 
   -0.25391E+05         0.88258E+06         0.00000E+00
    0.88258E+06        -0.50786E+06         0.00000E+00
    0.00000E+00         0.00000E+00        -0.10665E+06
 
   -0.27550E+05         0.93154E+06         0.00000E+00
    0.93154E+06        -0.50720E+06         0.00000E+00
    0.00000E+00         0.00000E+00        -0.10695E+06
 
   -0.29757E+05         0.98033E+06         0.00000E+00
    0.98033E+06        -0.50651E+06         0.00000E+00
    0.00000E+00         0.00000E+00        -0.10725E+06
 
   -0.32013E+05         0.10290E+07         0.00000E+00
    0.10290E+07        -0.50578E+06         0.00000E+00
    0.00000E+00         0.00000E+00        -0.10756E+06
 
   -0.34316E+05         0.10774E+07         0.00000E+00
    0.10774E+07        -0.50502E+06         0.00000E+00
    0.00000E+00         0.00000E+00        -0.10787E+06
 
   -0.36667E+05         0.11257E+07         0.00000E+00
    0.11257E+07        -0.50423E+06         0.00000E+00
    0.00000E+00         0.00000E+00        -0.10818E+06
 
   -0.39064E+05         0.11738E+07         0.00000E+00
    0.11738E+07        -0.50341E+06         0.00000E+00
    0.00000E+00         0.00000E+00        -0.10849E+06
 
   -0.41507E+05         0.12218E+07         0.00000E+00
    0.12218E+07        -0.50255E+06         0.00000E+00
    0.00000E+00         0.00000E+00        -0.10881E+06
 
   -0.43997E+05         0.12696E+07         0.00000E+00
    0.12696E+07        -0.50166E+06         0.00000E+00
    0.00000E+00         0.00000E+00        -0.10913E+06
 
   -0.46532E+05         0.13172E+07         0.00000E+00
    0.13172E+07        -0.50074E+06         0.00000E+00
    0.00000E+00         0.00000E+00        -0.10946E+06
 
   -0.49112E+05         0.13646E+07         0.00000E+00
    0.13646E+07        -0.49979E+06         0.00000E+00
    0.00000E+00         0.00000E+00        -0.10978E+06
 
   -0.51736E+05         0.14119E+07         0.00000E+00
    0.14119E+07        -0.49881E+06         0.00000E+00
    0.00000E+00         0.00000E+00        -0.11011E+06
 
   -0.54404E+05         0.14590E+07         0.00000E+00
    0.14590E+07        -0.49780E+06         0.00000E+00
    0.00000E+00         0.00000E+00        -0.11044E+06
 
   -0.57116E+05         0.15059E+07         0.00000E+00
    0.15059E+07        -0.49676E+06         0.00000E+00
    0.00000E+00         0.00000E+00        -0.11077E+06
 
   -0.59870E+05         0.15526E+07         0.00000E+00
    0.15526E+07        -0.49569E+06         0.00000E+00
    0.00000E+00         0.00000E+00        -0.11111E+06
 
   -0.62667E+05         0.15992E+07         0.00000E+00
    0.15992E+07        -0.49458E+06         0.00000E+00
    0.00000E+00         0.00000E+00        -0.11145E+06
 
   -0.65505E+05         0.16456E+07         0.00000E+00
    0.16456E+07        -0.49346E+06         0.00000E+00
    0.00000E+00         0.00000E+00        -0.11179E+06
 
   -0.68385E+05         0.16918E+07         0.00000E+00
    0.16918E+07        -0.49230E+06         0.00000E+00
    0.00000E+00         0.00000E+00        -0.11214E+06
 
   -0.71305E+05         0.17378E+07         0.00000E+00
    0.17378E+07        -0.49111E+06         0.00000E+00
    0.00000E+00         0.00000E+00        -0.11248E+06
 
   -0.74265E+05         0.17836E+07         0.00000E+00
    0.17836E+07        -0.48990E+06         0.00000E+00
    0.00000E+00         0.00000E+00        -0.11283E+06
 
   -0.77264E+05         0.18293E+07         0.00000E+00
    0.18293E+07        -0.48867E+06         0.00000E+00
    0.00000E+00         0.00000E+00        -0.11319E+06
 
   -0.80302E+05         0.18748E+07         0.00000E+00
    0.18748E+07        -0.48740E+06         0.00000E+00
    0.00000E+00         0.00000E+00        -0.11354E+06
 
   -0.83378E+05         0.19200E+07         0.00000E+00
    0.19200E+07        -0.48611E+06         0.00000E+00
    0.00000E+00         0.00000E+00        -0.11390E+06
 
   -0.86491E+05         0.19651E+07         0.00000E+00
    0.19651E+07        -0.48480E+06         0.00000E+00
    0.00000E+00         0.00000E+00        -0.11426E+06
 
   -0.89641E+05         0.20100E+07         0.00000E+00
    0.20100E+07        -0.48346E+06         0.00000E+00
    0.00000E+00         0.00000E+00        -0.11462E+06
 
   -0.92827E+05         0.20548E+07         0.00000E+00
    0.20548E+07        -0.48210E+06         0.00000E+00
    0.00000E+00         0.00000E+00        -0.11498E+06
 
   -0.96048E+05         0.20993E+07         0.00000E+00
    0.20993E+07        -0.48071E+06         0.00000E+00
    0.00000E+00         0.00000E+00        -0.11535E+06
 
   -0.99304E+05         0.21436E+07         0.00000E+00
    0.21436E+07        -0.47930E+06         0.00000E+00
    0.00000E+00         0.00000E+00        -0.11572E+06
 
   -0.10259E+06         0.21877E+07         0.00000E+00
    0.21877E+07        -0.47787E+06         0.00000E+00
    0.00000E+00         0.00000E+00        -0.11609E+06
 
   -0.10592E+06         0.22317E+07         0.00000E+00
    0.22317E+07        -0.47642E+06         0.00000E+00
    0.00000E+00         0.00000E+00        -0.11647E+06
 
   -0.10927E+06         0.22754E+07         0.00000E+00
    0.22754E+07        -0.47494E+06         0.00000E+00
    0.00000E+00         0.00000E+00        -0.11684E+06
 
   -0.11266E+06         0.23190E+07         0.00000E+00
    0.23190E+07        -0.47345E+06         0.00000E+00
    0.00000E+00         0.00000E+00        -0.11722E+06
 
   -0.11608E+06         0.23623E+07         0.00000E+00
    0.23623E+07        -0.47194E+06         0.00000E+00
    0.00000E+00         0.00000E+00        -0.11760E+06
 
   -0.22202E+05         0.26079E+05         0.00000E+00
    0.26079E+05        -0.79828E+06         0.00000E+00
    0.00000E+00         0.00000E+00        -0.16410E+06
 
   -0.24230E+05         0.77893E+05         0.00000E+00
    0.77893E+05        -0.79823E+06         0.00000E+00
    0.00000E+00         0.00000E+00        -0.16449E+06
 
   -0.26316E+05         0.12956E+06         0.00000E+00
    0.12956E+06        -0.79814E+06         0.00000E+00
    0.00000E+00         0.00000E+00        -0.16489E+06
 
   -0.28459E+05         0.18108E+06         0.00000E+00
    0.18108E+06        -0.79800E+06         0.00000E+00
    0.00000E+00         0.00000E+00        -0.16529E+06
 
   -0.30660E+05         0.23244E+06         0.00000E+00
    0.23244E+06        -0.79781E+06         0.00000E+00
    0.00000E+00         0.00000E+00        -0.16569E+06
 
   -0.32917E+05         0.28366E+06         0.00000E+00
    0.28366E+06        -0.79757E+06         0.00000E+00
    0.00000E+00         0.00000E+00        -0.16610E+06
 
   -0.35231E+05         0.33472E+06         0.00000E+00
    0.33472E+06        -0.79729E+06         0.00000E+00
    0.00000E+00         0.00000E+00        -0.16650E+06
 
   -0.37601E+05         0.38563E+06         0.00000E+00
    0.38563E+06        -0.79697E+06         0.00000E+00
    0.00000E+00         0.00000E+00        -0.16691E+06
 
   -0.40028E+05         0.43638E+06         0.00000E+00
    0.43638E+06        -0.79659E+06         0.00000E+00
    0.00000E+00         0.00000E+00        -0.16732E+06
 
   -0.42511E+05         0.48698E+06         0.00000E+00
    0.48698E+06        -0.79618E+06         0.00000E+00
    0.00000E+00         0.00000E+00        -0.16774E+06
 
   -0.45050E+05         0.53742E+06         0.00000E+00
    0.53742E+06        -0.79571E+06         0.00000E+00
    0.00000E+00         0.00000E+00        -0.16815E+06
 
   -0.47644E+05         0.58770E+06         0.00000E+00
    0.58770E+06        -0.79520E+06         0.00000E+00
    0.00000E+00         0.00000E+00        -0.16857E+06
 
   -0.50294E+05         0.63783E+06         0.00000E+00
    0.63783E+06        -0.79465E+06         0.00000E+00
    0.00000E+00         0.00000E+00        -0.16899E+06
 
   -0.52999E+05         0.68779E+06         0.00000E+00
    0.68779E+06        -0.79405E+06         0.00000E+00
    0.00000E+00         0.00000E+00        -0.16941E+06
 
   -0.55758E+05         0.73760E+06         0.00000E+00
    0.73760E+06        -0.79341E+06         0.00000E+00
    0.00000E+00         0.00000E+00        -0.16983E+06
 
   -0.58572E+05         0.78724E+06         0.00000E+00
    0.78724E+06        -0.79273E+06         0.00000E+00
    0.00000E+00         0.00000E+00        -0.17026E+06
 
   -0.61440E+05         0.83672E+06         0.00000E+00
    0.83672E+06        -0.79200E+06         0.00000E+00
    0.00000E+00         0.00000E+00        -0.17069E+06
 
   -0.64362E+05         0.88603E+06         0.00000E+00
    0.88603E+06        -0.79122E+06         0.00000E+00
    0.00000E+00         0.00000E+00        -0.17112E+06
 
   -0.67338E+05         0.93518E+06         0.00000E+00
    0.93518E+06        -0.79041E+06         0.00000E+00
    0.00000E+00         0.00000E+00        -0.17155E+06
 
   -0.70366E+05         0.98416E+06         0.00000E+00
    0.98416E+06        -0.78955E+06         0.00000E+00
    0.00000E+00         0.00000E+00        -0.17198E+06
 
   -0.73448E+05         0.10330E+07         0.00000E+00
    0.10330E+07        -0.78865E+06         0.00000E+00
    0.00000E+00         0.00000E+00        -0.17242E+06
 
   -0.76582E+05         0.10816E+07         0.00000E+00
    0.10816E+07        -0.78771E+06         0.00000E+00
    0.00000E+00         0.00000E+00        -0.17286E+06
 
   -0.79768E+05         0.11301E+07         0.00000E+00
    0.11301E+07        -0.78672E+06         0.00000E+00
    0.00000E+00         0.00000E+00        -0.17330E+06
 
   -0.83006E+05         0.11784E+07         0.00000E+00
    0.11784E+07        -0.78570E+06         0.00000E+00
    0.00000E+00         0.00000E+00        -0.17374E+06
 
   -0.86295E+05         0.12265E+07         0.00000E+00
    0.12265E+07        -0.78463E+06         0.00000E+00
    0.00000E+00         0.00000E+00        -0.17419E+06
 
   -0.89636E+05         0.12745E+07         0.00000E+00
    0.12745E+07        -0.78352E+06         0.00000E+00
    0.00000E+00         0.00000E+00        -0.17463E+06
 
   -0.93027E+05         0.13223E+07         0.00000E+00
    0.13223E+07        -0.78238E+06         0.00000E+00
    0.00000E+00         0.00000E+00        -0.17508E+06
 
   -0.96468E+05         0.13699E+07         0.00000E+00
    0.13699E+07        -0.78119E+06         0.00000E+00
    0.00000E+00         0.00000E+00        -0.17553E+06
 
   -0.99959E+05         0.14174E+07         0.00000E+00
    0.14174E+07        -0.77996E+06         0.00000E+00
    0.00000E+00         0.00000E+00        -0.17598E+06
 
   -0.10350E+06         0.14646E+07         0.00000E+00
    0.14646E+07        -0.77870E+06         0.00000E+00
    0.00000E+00         0.00000E+00        -0.17644E+06
 
   -0.10709E+06         0.15117E+07         0.00000E+00
    0.15117E+07        -0.77739E+06         0.00000E+00
    0.00000E+00         0.00000E+00        -0.17690E+06
 
   -0.11073E+06         0.15586E+07         0.00000E+00
    0.15586E+07        -0.77605E+06         0.00000E+00
    0.00000E+00         0.00000E+00        -0.17736E+06
 
   -0.11441E+06         0.16054E+07         0.00000E+00
    0.16054E+07        -0.77467E+06         0.00000E+00
    0.00000E+00         0.00000E+00        -0.17782E+06
 
   -0.11815E+06         0.16519E+07         0.00000E+00
    0.16519E+07        -0.77325E+06         0.00000E+00
    0.00000E+00         0.00000E+00        -0.17828E+06
 
   -0.12193E+06         0.16983E+07         0.00000E+00
    0.16983E+07        -0.77180E+06         0.00000E+00
    0.00000E+00         0.00000E+00        -0.17875E+06
 
   -0.12576E+06         0.17445E+07         0.00000E+00
    0.17445E+07        -0.77031E+06         0.00000E+00
    0.00000E+00         0.00000E+00        -0.17921E+06
 
   -0.12963E+06         0.17905E+07         0.00000E+00
    0.17905E+07        -0.76878E+06         0.00000E+00
    0.00000E+00         0.00000E+00        -0.17968E+06
 
   -0.13355E+06         0.18363E+07         0.00000E+00
    0.18363E+07        -0.76721E+06         0.00000E+00
    0.00000E+00         0.00000E+00        -0.18015E+06
 
   -0.13752E+06         0.18819E+07         0.00000E+00
    0.18819E+07        -0.76561E+06         0.00000E+00
    0.00000E+00         0.00000E+00        -0.18063E+06
 
   -0.14153E+06         0.19273E+07         0.00000E+00
    0.19273E+07        -0.76398E+06         0.00000E+00
    0.00000E+00         0.00000E+00        -0.18110E+06
 
   -0.14558E+06         0.19726E+07         0.00000E+00
    0.19726E+07        -0.76231E+06         0.00000E+00
    0.00000E+00         0.00000E+00        -0.18158E+06
 
   -0.14968E+06         0.20176E+07         0.00000E+00
    0.20176E+07        -0.76061E+06         0.00000E+00
    0.00000E+00         0.00000E+00        -0.18206E+06
 
   -0.15382E+06         0.20625E+07         0.00000E+00
    0.20625E+07        -0.75887E+06         0.00000E+00
    0.00000E+00         0.00000E+00        -0.18254E+06
 
   -0.15801E+06         0.21072E+07         0.00000E+00
    0.21072E+07        -0.75710E+06         0.00000E+00
    0.00000E+00         0.00000E+00        -0.18302E+06
 
   -0.16223E+06         0.21516E+07         0.00000E+00
    0.21516E+07        -0.75530E+06         0.00000E+00
    0.00000E+00         0.00000E+00        -0.18351E+06
 
   -0.16650E+06         0.21959E+07         0.00000E+00
    0.21959E+07        -0.75347E+06         0.00000E+00
    0.00000E+00         0.00000E+00        -0.18399E+06
 
   -0.17081E+06         0.22400E+07         0.00000E+00
    0.22400E+07        -0.75160E+06         0.00000E+00
    0.00000E+00         0.00000E+00        -0.18448E+06
 
   -0.17516E+06         0.22839E+07         0.00000E+00
    0.22839E+07        -0.74971E+06         0.00000E+00
    0.00000E+00         0.00000E+00        -0.18497E+06
 
   -0.17955E+06         0.23276E+07         0.00000E+00
    0.23276E+07        -0.74778E+06         0.00000E+00
    0.00000E+00         0.00000E+00        -0.18547E+06
 
   -0.18398E+06         0.23710E+07         0.00000E+00
    0.23710E+07        -0.74582E+06         0.00000E+00
    0.00000E+00         0.00000E+00        -0.18596E+06
 
   -0.47935E+05         0.26202E+05         0.00000E+00
    0.26202E+05        -0.10841E+07         0.00000E+00
    0.00000E+00         0.00000E+00        -0.22640E+06
 
   -0.50701E+05         0.78261E+05         0.00000E+00
    0.78261E+05        -0.10840E+07         0.00000E+00
    0.00000E+00         0.00000E+00        -0.22694E+06
 
   -0.53530E+05         0.13017E+06         0.00000E+00
    0.13017E+06        -0.10839E+07         0.00000E+00
    0.00000E+00         0.00000E+00        -0.22748E+06
 
   -0.56421E+05         0.18193E+06         0.00000E+00
    0.18193E+06        -0.10837E+07         0.00000E+00
    0.00000E+00         0.00000E+00        -0.22803E+06
 
   -0.59375E+05         0.23354E+06         0.00000E+00
    0.23354E+06        -0.10835E+07         0.00000E+00
    0.00000E+00         0.00000E+00        -0.22857E+06
 
   -0.62390E+05         0.28500E+06         0.00000E+00
    0.28500E+06        -0.10832E+07         0.00000E+00
    0.00000E+00         0.00000E+00        -0.22912E+06
 
   -0.65468E+05         0.33630E+06         0.00000E+00
    0.33630E+06        -0.10829E+07         0.00000E+00
    0.00000E+00         0.00000E+00        -0.22967E+06
 
   -0.68607E+05         0.38745E+06         0.00000E+00
    0.38745E+06        -0.10825E+07         0.00000E+00
    0.00000E+00         0.00000E+00        -0.23022E+06
 
   -0.71807E+05         0.43845E+06         0.00000E+00
    0.43845E+06        -0.10820E+07         0.00000E+00
    0.00000E+00         0.00000E+00        -0.23077E+06
 
   -0.75068E+05         0.48928E+06         0.00000E+00
    0.48928E+06        -0.10815E+07         0.00000E+00
    0.00000E+00         0.00000E+00        -0.23132E+06
 
   -0.78390E+05         0.53996E+06         0.00000E+00
    0.53996E+06        -0.10810E+07         0.00000E+00
    0.00000E+00         0.00000E+00        -0.23187E+06
 
   -0.81772E+05         0.59048E+06         0.00000E+00
    0.59048E+06        -0.10804E+07         0.00000E+00
    0.00000E+00         0.00000E+00        -0.23243E+06
 
   -0.85214E+05         0.64084E+06         0.00000E+00
    0.64084E+06        -0.10797E+07         0.00000E+00
    0.00000E+00         0.00000E+00        -0.23299E+06
 
   -0.88716E+05         0.69104E+06         0.00000E+00
    0.69104E+06        -0.10790E+07         0.00000E+00
    0.00000E+00         0.00000E+00        -0.23354E+06
 
   -0.92278E+05         0.74108E+06         0.00000E+00
    0.74108E+06        -0.10782E+07         0.00000E+00
    0.00000E+00         0.00000E+00        -0.23410E+06
 
   -0.95899E+05         0.79096E+06         0.00000E+00
    0.79096E+06        -0.10774E+07         0.00000E+00
    0.00000E+00         0.00000E+00        -0.23466E+06
 
   -0.99579E+05         0.84067E+06         0.00000E+00
    0.84067E+06        -0.10765E+07         0.00000E+00
    0.00000E+00         0.00000E+00        -0.23522E+06
 
   -0.10332E+06         0.89022E+06         0.00000E+00
    0.89022E+06        -0.10756E+07         0.00000E+00
    0.00000E+00         0.00000E+00        -0.23579E+06
 
   -0.10711E+06         0.93960E+06         0.00000E+00
    0.93960E+06        -0.10746E+07         0.00000E+00
    0.00000E+00         0.00000E+00        -0.23635E+06
 
   -0.11097E+06         0.98881E+06         0.00000E+00
    0.98881E+06        -0.10736E+07         0.00000E+00
    0.00000E+00         0.00000E+00        -0.23692E+06
 
   -0.11488E+06         0.10379E+07         0.00000E+00
    0.10379E+07        -0.10725E+07         0.00000E+00
    0.00000E+00         0.00000E+00        -0.23748E+06
 
   -0.11885E+06         0.10867E+07         0.00000E+00
    0.10867E+07        -0.10714E+07         0.00000E+00
    0.00000E+00         0.00000E+00        -0.23805E+06
 
   -0.12288E+06         0.11354E+07         0.00000E+00
    0.11354E+07        -0.10702E+07         0.00000E+00
    0.00000E+00         0.00000E+00        -0.23862E+06
 
   -0.12697E+06         0.11840E+07         0.00000E+00
    0.11840E+07        -0.10690E+07         0.00000E+00
    0.00000E+00         0.00000E+00        -0.23919E+06
 
   -0.13111E+06         0.12323E+07         0.00000E+00
    0.12323E+07        -0.10677E+07         0.00000E+00
    0.00000E+00         0.00000E+00        -0.23977E+06
 
   -0.13531E+06         0.12805E+07         0.00000E+00
    0.12805E+07        -0.10664E+07         0.00000E+00
    0.00000E+00         0.00000E+00        -0.24034E+06
 
   -0.13956E+06         0.13285E+07         0.00000E+00
    0.13285E+07        -0.10650E+07         0.00000E+00
    0.00000E+00         0.00000E+00        -0.24091E+06
 
   -0.14387E+06         0.13764E+07         0.00000E+00
    0.13764E+07        -0.10636E+07         0.00000E+00
    0.00000E+00         0.00000E+00        -0.24149E+06
 
   -0.14823E+06         0.14240E+07         0.00000E+00
    0.14240E+07        -0.10621E+07         0.00000E+00
    0.00000E+00         0.00000E+00        -0.24207E+06
 
   -0.15265E+06         0.14715E+07         0.00000E+00
    0.14715E+07        -0.10606E+07         0.00000E+00
    0.00000E+00         0.00000E+00        -0.24265E+06
 
   -0.15713E+06         0.15188E+07         0.00000E+00
    0.15188E+07        -0.10590E+07         0.00000E+00
    0.00000E+00         0.00000E+00        -0.24323E+06
 
   -0.16166E+06         0.15660E+07         0.00000E+00
    0.15660E+07        -0.10574E+07         0.00000E+00
    0.00000E+00         0.00000E+00        -0.24381E+06
 
   -0.16624E+06         0.16129E+07         0.00000E+00
    0.16129E+07        -0.10557E+07         0.00000E+00
    0.00000E+00         0.00000E+00        -0.24440E+06
 
   -0.17088E+06         0.16597E+07         0.00000E+00
    0.16597E+07        -0.10540E+07         0.00000E+00
    0.00000E+00         0.00000E+00        -0.24498E+06
 
   -0.17557E+06         0.17062E+07         0.00000E+00
    0.17062E+07        -0.10523E+07         0.00000E+00
    0.00000E+00         0.00000E+00        -0.24557E+06
 
   -0.18031E+06         0.17526E+07         0.00000E+00
    0.17526E+07        -0.10505E+07         0.00000E+00
    0.00000E+00         0.00000E+00        -0.24616E+06
 
   -0.18511E+06         0.17988E+07         0.00000E+00
    0.17988E+07        -0.10486E+07         0.00000E+00
    0.00000E+00         0.00000E+00        -0.24675E+06
 
   -0.18996E+06         0.18449E+07         0.00000E+00
    0.18449E+07        -0.10467E+07         0.00000E+00
    0.00000E+00         0.00000E+00        -0.24734E+06
 
   -0.19486E+06         0.18907E+07         0.00000E+00
    0.18907E+07        -0.10448E+07         0.00000E+00
    0.00000E+00         0.00000E+00        -0.24793E+06
 
   -0.19981E+06         0.19363E+07         0.00000E+00
    0.19363E+07        -0.10428E+07         0.00000E+00
    0.00000E+00         0.00000E+00        -0.24852E+06
 
   -0.20482E+06         0.19818E+07         0.00000E+00
    0.19818E+07        -0.10408E+07         0.00000E+00
    0.00000E+00         0.00000E+00        -0.24912E+06
 
   -0.20987E+06         0.20270E+07         0.00000E+00
    0.20270E+07        -0.10387E+07         0.00000E+00
    0.00000E+00         0.00000E+00        -0.24972E+06
 
   -0.21498E+06         0.20721E+07         0.00000E+00
    0.20721E+07        -0.10366E+07         0.00000E+00
    0.00000E+00         0.00000E+00        -0.25032E+06
 
   -0.22013E+06         0.21170E+07         0.00000E+00
    0.21170E+07        -0.10344E+07         0.00000E+00
    0.00000E+00         0.00000E+00        -0.25092E+06
 
   -0.22534E+06         0.21616E+07         0.00000E+00
    0.21616E+07        -0.10322E+07         0.00000E+00
    0.00000E+00         0.00000E+00        -0.25152E+06
 
   -0.23060E+06         0.22061E+07         0.00000E+00
    0.22061E+07        -0.10300E+07         0.00000E+00
    0.00000E+00         0.00000E+00        -0.25212E+06
 
   -0.23590E+06         0.22504E+07         0.00000E+00
    0.22504E+07        -0.10277E+07         0.00000E+00
    0.00000E+00         0.00000E+00        -0.25273E+06
 
   -0.24126E+06         0.22945E+07         0.00000E+00
    0.22945E+07        -0.10254E+07         0.00000E+00
    0.00000E+00         0.00000E+00        -0.25333E+06
 
   -0.24666E+06         0.23383E+07         0.00000E+00
    0.23383E+07        -0.10230E+07         0.00000E+00
    0.00000E+00         0.00000E+00        -0.25394E+06
 
   -0.25212E+06         0.23820E+07         0.00000E+00
    0.23820E+07        -0.10206E+07         0.00000E+00
    0.00000E+00         0.00000E+00        -0.25455E+06
 
   -0.73761E+05         0.26347E+05         0.00000E+00
    0.26347E+05        -0.13713E+07         0.00000E+00
    0.00000E+00         0.00000E+00        -0.28900E+06
 
   -0.77268E+05         0.78694E+05         0.00000E+00
    0.78694E+05        -0.13712E+07         0.00000E+00
    0.00000E+00         0.00000E+00        -0.28969E+06
 
   -0.80844E+05         0.13089E+06         0.00000E+00
    0.13089E+06        -0.13711E+07         0.00000E+00
    0.00000E+00         0.00000E+00        -0.29038E+06
 
   -0.84487E+05         0.18294E+06         0.00000E+00
    0.18294E+06        -0.13709E+07         0.00000E+00
    0.00000E+00         0.00000E+00        -0.29107E+06
 
   -0.88198E+05         0.23483E+06         0.00000E+00
    0.23483E+06        -0.13706E+07         0.00000E+00
    0.00000E+00         0.00000E+00        -0.29176E+06
 
   -0.91976E+05         0.28657E+06         0.00000E+00
    0.28657E+06        -0.13703E+07         0.00000E+00
    0.00000E+00         0.00000E+00        -0.29245E+06
 
   -0.95821E+05         0.33816E+06         0.00000E+00
    0.33816E+06        -0.13699E+07         0.00000E+00
    0.00000E+00         0.00000E+00        -0.29314E+06
 
   -0.99732E+05         0.38959E+06         0.00000E+00
    0.38959E+06        -0.13694E+07         0.00000E+00
    0.00000E+00         0.00000E+00        -0.29383E+06
 
   -0.10371E+06         0.44087E+06         0.00000E+00
    0.44087E+06        -0.13689E+07         0.00000E+00
    0.00000E+00         0.00000E+00        -0.29452E+06
 
   -0.10775E+06         0.49199E+06         0.00000E+00
    0.49199E+06        -0.13683E+07         0.00000E+00
    0.00000E+00         0.00000E+00        -0.29521E+06
 
   -0.11186E+06         0.54295E+06         0.00000E+00
    0.54295E+06        -0.13677E+07         0.00000E+00
    0.00000E+00         0.00000E+00        -0.29591E+06
 
   -0.11604E+06         0.59375E+06         0.00000E+00
    0.59375E+06        -0.13670E+07         0.00000E+00
    0.00000E+00         0.00000E+00        -0.29660E+06
 
   -0.12027E+06         0.64439E+06         0.00000E+00
    0.64439E+06        -0.13662E+07         0.00000E+00
    0.00000E+00         0.00000E+00        -0.29729E+06
 
   -0.12458E+06         0.69487E+06         0.00000E+00
    0.69487E+06        -0.13654E+07         0.00000E+00
    0.00000E+00         0.00000E+00        -0.29799E+06
 
   -0.12895E+06         0.74518E+06         0.00000E+00
    0.74518E+06        -0.13645E+07         0.00000E+00
    0.00000E+00         0.00000E+00        -0.29868E+06
 
   -0.13338E+06         0.79533E+06         0.00000E+00
    0.79533E+06        -0.13635E+07         0.00000E+00
    0.00000E+00         0.00000E+00        -0.29938E+06
 
   -0.13788E+06         0.84532E+06         0.00000E+00
    0.84532E+06        -0.13625E+07         0.00000E+00
    0.00000E+00         0.00000E+00        -0.30008E+06
 
   -0.14244E+06         0.89514E+06         0.00000E+00
    0.89514E+06        -0.13614E+07         0.00000E+00
    0.00000E+00         0.00000E+00        -0.30077E+06
 
   -0.14706E+06         0.94479E+06         0.00000E+00
    0.94479E+06        -0.13603E+07         0.00000E+00
    0.00000E+00         0.00000E+00        -0.30147E+06
 
   -0.15174E+06         0.99428E+06         0.00000E+00
    0.99428E+06        -0.13591E+07         0.00000E+00
    0.00000E+00         0.00000E+00        -0.30217E+06
 
   -0.15649E+06         0.10436E+07         0.00000E+00
    0.10436E+07        -0.13578E+07         0.00000E+00
    0.00000E+00         0.00000E+00        -0.30287E+06
 
   -0.16131E+06         0.10927E+07         0.00000E+00
    0.10927E+07        -0.13565E+07         0.00000E+00
    0.00000E+00         0.00000E+00        -0.30356E+06
 
   -0.16618E+06         0.11417E+07         0.00000E+00
    0.11417E+07        -0.13551E+07         0.00000E+00
    0.00000E+00         0.00000E+00        -0.30426E+06
 
   -0.17112E+06         0.11905E+07         0.00000E+00
    0.11905E+07        -0.13537E+07         0.00000E+00
    0.00000E+00         0.00000E+00        -0.30496E+06
 
   -0.17611E+06         0.12392E+07         0.00000E+00
    0.12392E+07        -0.13522E+07         0.00000E+00
    0.00000E+00         0.00000E+00        -0.30567E+06
 
   -0.18117E+06         0.12876E+07         0.00000E+00
    0.12876E+07        -0.13507E+07         0.00000E+00
    0.00000E+00         0.00000E+00        -0.30637E+06
 
   -0.18630E+06         0.13359E+07         0.00000E+00
    0.13359E+07        -0.13491E+07         0.00000E+00
    0.00000E+00         0.00000E+00        -0.30707E+06
 
   -0.19148E+06         0.13840E+07         0.00000E+00
    0.13840E+07        -0.13474E+07         0.00000E+00
    0.00000E+00         0.00000E+00        -0.30777E+06
 
   -0.19672E+06         0.14319E+07         0.00000E+00
    0.14319E+07        -0.13457E+07         0.00000E+00
    0.00000E+00         0.00000E+00        -0.30848E+06
 
   -0.20203E+06         0.14797E+07         0.00000E+00
    0.14797E+07        -0.13439E+07         0.00000E+00
    0.00000E+00         0.00000E+00        -0.30918E+06
 
   -0.20739E+06         0.15272E+07         0.00000E+00
    0.15272E+07        -0.13420E+07         0.00000E+00
    0.00000E+00         0.00000E+00        -0.30989E+06
 
   -0.21282E+06         0.15746E+07         0.00000E+00
    0.15746E+07        -0.13402E+07         0.00000E+00
    0.00000E+00         0.00000E+00        -0.31059E+06
 
   -0.21830E+06         0.16218E+07         0.00000E+00
    0.16218E+07        -0.13382E+07         0.00000E+00
    0.00000E+00         0.00000E+00        -0.31130E+06
 
   -0.22385E+06         0.16689E+07         0.00000E+00
    0.16689E+07        -0.13362E+07         0.00000E+00
    0.00000E+00         0.00000E+00        -0.31201E+06
 
   -0.22945E+06         0.17157E+07         0.00000E+00
    0.17157E+07        -0.13341E+07         0.00000E+00
    0.00000E+00         0.00000E+00        -0.31272E+06
 
   -0.23512E+06         0.17623E+07         0.00000E+00
    0.17623E+07        -0.13320E+07         0.00000E+00
    0.00000E+00         0.00000E+00        -0.31343E+06
 
   -0.24084E+06         0.18088E+07         0.00000E+00
    0.18088E+07        -0.13299E+07         0.00000E+00
    0.00000E+00         0.00000E+00        -0.31414E+06
 
   -0.24663E+06         0.18551E+07         0.00000E+00
    0.18551E+07        -0.13276E+07         0.00000E+00
    0.00000E+00         0.00000E+00        -0.31485E+06
 
   -0.25247E+06         0.19012E+07         0.00000E+00
    0.19012E+07        -0.13254E+07         0.00000E+00
    0.00000E+00         0.00000E+00        -0.31556E+06
 
   -0.25837E+06         0.19471E+07         0.00000E+00
    0.19471E+07        -0.13230E+07         0.00000E+00
    0.00000E+00         0.00000E+00        -0.31628E+06
 
   -0.26433E+06         0.19928E+07         0.00000E+00
    0.19928E+07        -0.13206E+07         0.00000E+00
    0.00000E+00         0.00000E+00        -0.31699E+06
 
   -0.27035E+06         0.20383E+07         0.00000E+00
    0.20383E+07        -0.13182E+07         0.00000E+00
    0.00000E+00         0.00000E+00        -0.31771E+06
 
   -0.27643E+06         0.20836E+07         0.00000E+00
    0.20836E+07        -0.13157E+07         0.00000E+00
    0.00000E+00         0.00000E+00        -0.31843E+06
 
   -0.28256E+06         0.21287E+07         0.00000E+00
    0.21287E+07        -0.13132E+07         0.00000E+00
    0.00000E+00         0.00000E+00        -0.31914E+06
 
   -0.28875E+06         0.21737E+07         0.00000E+00
    0.21737E+07        -0.13106E+07         0.00000E+00
    0.00000E+00         0.00000E+00        -0.31986E+06
 
   -0.29501E+06         0.22184E+07         0.00000E+00
    0.22184E+07        -0.13079E+07         0.00000E+00
    0.00000E+00         0.00000E+00        -0.32058E+06
 
   -0.30131E+06         0.22629E+07         0.00000E+00
    0.22629E+07        -0.13052E+07         0.00000E+00
    0.00000E+00         0.00000E+00        -0.32130E+06
 
   -0.30768E+06         0.23072E+07         0.00000E+00
    0.23072E+07        -0.13025E+07         0.00000E+00
    0.00000E+00         0.00000E+00        -0.32203E+06
 
   -0.31410E+06         0.23513E+07         0.00000E+00
    0.23513E+07        -0.12997E+07         0.00000E+00
    0.00000E+00         0.00000E+00        -0.32275E+06
 
   -0.32058E+06         0.23953E+07         0.00000E+00
    0.23953E+07        -0.12968E+07         0.00000E+00
    0.00000E+00         0.00000E+00        -0.32348E+06
 
   -0.99855E+05         0.26514E+05         0.00000E+00
    0.26514E+05        -0.16603E+07         0.00000E+00
    0.00000E+00         0.00000E+00        -0.35203E+06
 
   -0.10411E+06         0.79192E+05         0.00000E+00
    0.79192E+05        -0.16602E+07         0.00000E+00
    0.00000E+00         0.00000E+00        -0.35286E+06
 
   -0.10844E+06         0.13172E+06         0.00000E+00
    0.13172E+06        -0.16600E+07         0.00000E+00
    0.00000E+00         0.00000E+00        -0.35370E+06
 
   -0.11284E+06         0.18409E+06         0.00000E+00
    0.18409E+06        -0.16598E+07         0.00000E+00
    0.00000E+00         0.00000E+00        -0.35453E+06
 
   -0.11731E+06         0.23632E+06         0.00000E+00
    0.23632E+06        -0.16595E+07         0.00000E+00
    0.00000E+00         0.00000E+00        -0.35537E+06
 
   -0.12185E+06         0.28839E+06         0.00000E+00
    0.28839E+06        -0.16591E+07         0.00000E+00
    0.00000E+00         0.00000E+00        -0.35620E+06
 
   -0.12647E+06         0.34030E+06         0.00000E+00
    0.34030E+06        -0.16587E+07         0.00000E+00
    0.00000E+00         0.00000E+00        -0.35703E+06
 
   -0.13116E+06         0.39206E+06         0.00000E+00
    0.39206E+06        -0.16582E+07         0.00000E+00
    0.00000E+00         0.00000E+00        -0.35787E+06
 
   -0.13592E+06         0.44366E+06         0.00000E+00
    0.44366E+06        -0.16576E+07         0.00000E+00
    0.00000E+00         0.00000E+00        -0.35870E+06
 
   -0.14075E+06         0.49510E+06         0.00000E+00
    0.49510E+06        -0.16569E+07         0.00000E+00
    0.00000E+00         0.00000E+00        -0.35953E+06
 
   -0.14565E+06         0.54638E+06         0.00000E+00
    0.54638E+06        -0.16562E+07         0.00000E+00
    0.00000E+00         0.00000E+00        -0.36037E+06
 
   -0.15062E+06         0.59750E+06         0.00000E+00
    0.59750E+06        -0.16554E+07         0.00000E+00
    0.00000E+00         0.00000E+00        -0.36120E+06
 
   -0.15566E+06         0.64846E+06         0.00000E+00
    0.64846E+06        -0.16545E+07         0.00000E+00
    0.00000E+00         0.00000E+00        -0.36203E+06
 
   -0.16077E+06         0.69926E+06         0.00000E+00
    0.69926E+06        -0.16535E+07         0.00000E+00
    0.00000E+00         0.00000E+00        -0.36286E+06
 
   -0.16594E+06         0.74990E+06         0.00000E+00
    0.74990E+06        -0.16525E+07         0.00000E+00
    0.00000E+00         0.00000E+00        -0.36369E+06
 
   -0.17119E+06         0.80037E+06         0.00000E+00
    0.80037E+06        -0.16514E+07         0.00000E+00
    0.00000E+00         0.00000E+00        -0.36453E+06
 
   -0.17651E+06         0.85067E+06         0.00000E+00
    0.85067E+06        -0.16503E+07         0.00000E+00
    0.00000E+00         0.00000E+00        -0.36536E+06
 
   -0.18189E+06         0.90081E+06         0.00000E+00
    0.90081E+06        -0.16490E+07         0.00000E+00
    0.00000E+00         0.00000E+00        -0.36619E+06
 
   -0.18735E+06         0.95078E+06         0.00000E+00
    0.95078E+06        -0.16477E+07         0.00000E+00
    0.00000E+00         0.00000E+00        -0.36702E+06
 
   -0.19287E+06         0.10006E+07         0.00000E+00
    0.10006E+07        -0.16464E+07         0.00000E+00
    0.00000E+00         0.00000E+00        -0.36785E+06
 
   -0.19846E+06         0.10502E+07         0.00000E+00
    0.10502E+07        -0.16449E+07         0.00000E+00
    0.00000E+00         0.00000E+00        -0.36868E+06
 
   -0.20411E+06         0.10997E+07         0.00000E+00
    0.10997E+07        -0.16434E+07         0.00000E+00
    0.00000E+00         0.00000E+00        -0.36951E+06
 
   -0.20984E+06         0.11490E+07         0.00000E+00
    0.11490E+07        -0.16419E+07         0.00000E+00
    0.00000E+00         0.00000E+00        -0.37034E+06
 
   -0.21563E+06         0.11981E+07         0.00000E+00
    0.11981E+07        -0.16402E+07         0.00000E+00
    0.00000E+00         0.00000E+00        -0.37117E+06
 
   -0.22149E+06         0.12470E+07         0.00000E+00
    0.12470E+07        -0.16385E+07         0.00000E+00
    0.00000E+00         0.00000E+00        -0.37200E+06
 
   -0.22741E+06         0.12958E+07         0.00000E+00
    0.12958E+07        -0.16367E+07         0.00000E+00
    0.00000E+00         0.00000E+00        -0.37283E+06
 
   -0.23341E+06         0.13444E+07         0.00000E+00
    0.13444E+07        -0.16349E+07         0.00000E+00
    0.00000E+00         0.00000E+00        -0.37366E+06
 
   -0.23947E+06         0.13928E+07         0.00000E+00
    0.13928E+07        -0.16330E+07         0.00000E+00
    0.00000E+00         0.00000E+00        -0.37449E+06
 
   -0.24559E+06         0.14410E+07         0.00000E+00
    0.14410E+07        -0.16310E+07         0.00000E+00
    0.00000E+00         0.00000E+00        -0.37532E+06
 
   -0.25178E+06         0.14891E+07         0.00000E+00
    0.14891E+07        -0.16290E+07         0.00000E+00
    0.00000E+00         0.00000E+00        -0.37615E+06
 
   -0.25804E+06         0.15370E+07         0.00000E+00
    0.15370E+07        -0.16269E+07         0.00000E+00
    0.00000E+00         0.00000E+00        -0.37699E+06
 
   -0.26437E+06         0.15847E+07         0.00000E+00
    0.15847E+07        -0.16247E+07         0.00000E+00
    0.00000E+00         0.00000E+00        -0.37782E+06
 
   -0.27076E+06         0.16322E+07         0.00000E+00
    0.16322E+07        -0.16225E+07         0.00000E+00
    0.00000E+00         0.00000E+00        -0.37865E+06
 
   -0.27722E+06         0.16795E+07         0.00000E+00
    0.16795E+07        -0.16202E+07         0.00000E+00
    0.00000E+00         0.00000E+00        -0.37948E+06
 
   -0.28374E+06         0.17267E+07         0.00000E+00
    0.17267E+07        -0.16178E+07         0.00000E+00
    0.00000E+00         0.00000E+00        -0.38031E+06
 
   -0.29033E+06         0.17736E+07         0.00000E+00
    0.17736E+07        -0.16154E+07         0.00000E+00
    0.00000E+00         0.00000E+00        -0.38114E+06
 
   -0.29698E+06         0.18204E+07         0.00000E+00
    0.18204E+07        -0.16129E+07         0.00000E+00
    0.00000E+00         0.00000E+00        -0.38198E+06
 
   -0.30370E+06         0.18670E+07         0.00000E+00
    0.18670E+07        -0.16103E+07         0.00000E+00
    0.00000E+00         0.00000E+00        -0.38281E+06
 
   -0.31049E+06         0.19134E+07         0.00000E+00
    0.19134E+07        -0.16077E+07         0.00000E+00
    0.00000E+00         0.00000E+00        -0.38364E+06
 
   -0.31734E+06         0.19596E+07         0.00000E+00
    0.19596E+07        -0.16050E+07         0.00000E+00
    0.00000E+00         0.00000E+00        -0.38448E+06
 
   -0.32426E+06         0.20056E+07         0.00000E+00
    0.20056E+07        -0.16023E+07         0.00000E+00
    0.00000E+00         0.00000E+00        -0.38531E+06
 
   -0.33125E+06         0.20514E+07         0.00000E+00
    0.20514E+07        -0.15995E+07         0.00000E+00
    0.00000E+00         0.00000E+00        -0.38615E+06
 
   -0.33830E+06         0.20970E+07         0.00000E+00
    0.20970E+07        -0.15966E+07         0.00000E+00
    0.00000E+00         0.00000E+00        -0.38698E+06
 
   -0.34542E+06         0.21425E+07         0.00000E+00
    0.21425E+07        -0.15937E+07         0.00000E+00
    0.00000E+00         0.00000E+00        -0.38782E+06
 
   -0.35260E+06         0.21877E+07         0.00000E+00
    0.21877E+07        -0.15907E+07         0.00000E+00
    0.00000E+00         0.00000E+00        -0.38865E+06
 
   -0.35985E+06         0.22327E+07         0.00000E+00
    0.22327E+07        -0.15876E+07         0.00000E+00
    0.00000E+00         0.00000E+00        -0.38949E+06
 
   -0.36716E+06         0.22775E+07         0.00000E+00
    0.22775E+07        -0.15845E+07         0.00000E+00
    0.00000E+00         0.00000E+00        -0.39033E+06
 
   -0.37454E+06         0.23222E+07         0.00000E+00
    0.23222E+07        -0.15813E+07         0.00000E+00
    0.00000E+00         0.00000E+00        -0.39117E+06
 
   -0.38199E+06         0.23666E+07         0.00000E+00
    0.23666E+07        -0.15781E+07         0.00000E+00
    0.00000E+00         0.00000E+00        -0.39201E+06
 
   -0.38950E+06         0.24108E+07         0.00000E+00
    0.24108E+07        -0.15748E+07         0.00000E+00
    0.00000E+00         0.00000E+00        -0.39285E+06
 
   -0.12639E+06         0.26702E+05         0.00000E+00
    0.26702E+05        -0.19515E+07         0.00000E+00
    0.00000E+00         0.00000E+00        -0.41558E+06
 
   -0.13140E+06         0.79755E+05         0.00000E+00
    0.79755E+05        -0.19514E+07         0.00000E+00
    0.00000E+00         0.00000E+00        -0.41656E+06
 
   -0.13648E+06         0.13265E+06         0.00000E+00
    0.13265E+06        -0.19512E+07         0.00000E+00
    0.00000E+00         0.00000E+00        -0.41755E+06
 
   -0.14165E+06         0.18540E+06         0.00000E+00
    0.18540E+06        -0.19510E+07         0.00000E+00
    0.00000E+00         0.00000E+00        -0.41853E+06
 
   -0.14689E+06         0.23800E+06         0.00000E+00
    0.23800E+06        -0.19507E+07         0.00000E+00
    0.00000E+00         0.00000E+00        -0.41951E+06
 
   -0.15220E+06         0.29043E+06         0.00000E+00
    0.29043E+06        -0.19502E+07         0.00000E+00
    0.00000E+00         0.00000E+00        -0.42049E+06
 
   -0.15759E+06         0.34272E+06         0.00000E+00
    0.34272E+06        -0.19497E+07         0.00000E+00
    0.00000E+00         0.00000E+00        -0.42147E+06
 
   -0.16306E+06         0.39484E+06         0.00000E+00
    0.39484E+06        -0.19492E+07         0.00000E+00
    0.00000E+00         0.00000E+00        -0.42244E+06
 
   -0.16861E+06         0.44681E+06         0.00000E+00
    0.44681E+06        -0.19485E+07         0.00000E+00
    0.00000E+00         0.00000E+00        -0.42342E+06
 
   -0.17423E+06         0.49862E+06         0.00000E+00
    0.49862E+06        -0.19477E+07         0.00000E+00
    0.00000E+00         0.00000E+00        -0.42439E+06
 
   -0.17993E+06         0.55026E+06         0.00000E+00
    0.55026E+06        -0.19469E+07         0.00000E+00
    0.00000E+00         0.00000E+00        -0.42537E+06
 
   -0.18570E+06         0.60175E+06         0.00000E+00
    0.60175E+06        -0.19460E+07         0.00000E+00
    0.00000E+00         0.00000E+00        -0.42634E+06
 
   -0.19154E+06         0.65307E+06         0.00000E+00
    0.65307E+06        -0.19450E+07         0.00000E+00
    0.00000E+00         0.00000E+00        -0.42731E+06
 
   -0.19746E+06         0.70423E+06         0.00000E+00
    0.70423E+06        -0.19439E+07         0.00000E+00
    0.00000E+00         0.00000E+00        -0.42828E+06
 
   -0.20345E+06         0.75523E+06         0.00000E+00
    0.75523E+06        -0.19428E+07         0.00000E+00
    0.00000E+00         0.00000E+00        -0.42925E+06
 
   -0.20952E+06         0.80606E+06         0.00000E+00
    0.80606E+06        -0.19416E+07         0.00000E+00
    0.00000E+00         0.00000E+00        -0.43022E+06
 
   -0.21566E+06         0.85672E+06         0.00000E+00
    0.85672E+06        -0.19403E+07         0.00000E+00
    0.00000E+00         0.00000E+00        -0.43119E+06
 
   -0.22187E+06         0.90722E+06         0.00000E+00
    0.90722E+06        -0.19389E+07         0.00000E+00
    0.00000E+00         0.00000E+00        -0.43215E+06
 
   -0.22816E+06         0.95755E+06         0.00000E+00
    0.95755E+06        -0.19374E+07         0.00000E+00
    0.00000E+00         0.00000E+00        -0.43312E+06
 
   -0.23452E+06         0.10077E+07         0.00000E+00
    0.10077E+07        -0.19359E+07         0.00000E+00
    0.00000E+00         0.00000E+00        -0.43408E+06
 
   -0.24095E+06         0.10577E+07         0.00000E+00
    0.10577E+07        -0.19343E+07         0.00000E+00
    0.00000E+00         0.00000E+00        -0.43505E+06
 
   -0.24746E+06         0.11075E+07         0.00000E+00
    0.11075E+07        -0.19326E+07         0.00000E+00
    0.00000E+00         0.00000E+00        -0.43601E+06
 
   -0.25403E+06         0.11572E+07         0.00000E+00
    0.11572E+07        -0.19308E+07         0.00000E+00
    0.00000E+00         0.00000E+00        -0.43697E+06
 
   -0.26068E+06         0.12066E+07         0.00000E+00
    0.12066E+07        -0.19290E+07         0.00000E+00
    0.00000E+00         0.00000E+00        -0.43793E+06
 
   -0.26740E+06         0.12559E+07         0.00000E+00
    0.12559E+07        -0.19271E+07         0.00000E+00
    0.00000E+00         0.00000E+00        -0.43889E+06
 
   -0.27420E+06         0.13051E+07         0.00000E+00
    0.13051E+07        -0.19251E+07         0.00000E+00
    0.00000E+00         0.00000E+00        -0.43985E+06
 
   -0.28106E+06         0.13540E+07         0.00000E+00
    0.13540E+07        -0.19230E+07         0.00000E+00
    0.00000E+00         0.00000E+00        -0.44081E+06
 
   -0.28800E+06         0.14028E+07         0.00000E+00
    0.14028E+07        -0.19208E+07         0.00000E+00
    0.00000E+00         0.00000E+00        -0.44177E+06
 
   -0.29501E+06         0.14514E+07         0.00000E+00
    0.14514E+07        -0.19186E+07         0.00000E+00
    0.00000E+00         0.00000E+00        -0.44273E+06
 
   -0.30209E+06         0.14998E+07         0.00000E+00
    0.14998E+07        -0.19163E+07         0.00000E+00
    0.00000E+00         0.00000E+00        -0.44368E+06
 
   -0.30924E+06         0.15480E+07         0.00000E+00
    0.15480E+07        -0.19139E+07         0.00000E+00
    0.00000E+00         0.00000E+00        -0.44464E+06
 
   -0.31647E+06         0.15961E+07         0.00000E+00
    0.15961E+07        -0.19115E+07         0.00000E+00
    0.00000E+00         0.00000E+00        -0.44559E+06
 
   -0.32377E+06         0.16439E+07         0.00000E+00
    0.16439E+07        -0.19090E+07         0.00000E+00
    0.00000E+00         0.00000E+00        -0.44655E+06
 
   -0.33114E+06         0.16916E+07         0.00000E+00
    0.16916E+07        -0.19064E+07         0.00000E+00
    0.00000E+00         0.00000E+00        -0.44751E+06
 
   -0.33858E+06         0.17391E+07         0.00000E+00
    0.17391E+07        -0.19037E+07         0.00000E+00
    0.00000E+00         0.00000E+00        -0.44846E+06
 
   -0.34609E+06         0.17864E+07         0.00000E+00
    0.17864E+07        -0.19010E+07         0.00000E+00
    0.00000E+00         0.00000E+00        -0.44941E+06
 
   -0.35368E+06         0.18336E+07         0.00000E+00
    0.18336E+07        -0.18982E+07         0.00000E+00
    0.00000E+00         0.00000E+00        -0.45037E+06
 
   -0.36134E+06         0.18805E+07         0.00000E+00
    0.18805E+07        -0.18953E+07         0.00000E+00
    0.00000E+00         0.00000E+00        -0.45132E+06
 
   -0.36907E+06         0.19273E+07         0.00000E+00
    0.19273E+07        -0.18923E+07         0.00000E+00
    0.00000E+00         0.00000E+00        -0.45228E+06
 
   -0.37688E+06         0.19738E+07         0.00000E+00
    0.19738E+07        -0.18893E+07         0.00000E+00
    0.00000E+00         0.00000E+00        -0.45323E+06
 
   -0.38475E+06         0.20202E+07         0.00000E+00
    0.20202E+07        -0.18862E+07         0.00000E+00
    0.00000E+00         0.00000E+00        -0.45419E+06
 
   -0.39270E+06         0.20664E+07         0.00000E+00
    0.20664E+07        -0.18830E+07         0.00000E+00
    0.00000E+00         0.00000E+00        -0.45514E+06
 
   -0.40073E+06         0.21123E+07         0.00000E+00
    0.21123E+07        -0.18797E+07         0.00000E+00
    0.00000E+00         0.00000E+00        -0.45609E+06
 
   -0.40883E+06         0.21581E+07         0.00000E+00
    0.21581E+07        -0.18764E+07         0.00000E+00
    0.00000E+00         0.00000E+00        -0.45705E+06
 
   -0.41700E+06         0.22037E+07         0.00000E+00
    0.22037E+07        -0.18730E+07         0.00000E+00
    0.00000E+00         0.00000E+00        -0.45800E+06
 
   -0.42524E+06         0.22491E+07         0.00000E+00
    0.22491E+07        -0.18695E+07         0.00000E+00
    0.00000E+00         0.00000E+00        -0.45896E+06
 
   -0.43356E+06         0.22943E+07         0.00000E+00
    0.22943E+07        -0.18660E+07         0.00000E+00
    0.00000E+00         0.00000E+00        -0.45991E+06
 
   -0.44196E+06         0.23393E+07         0.00000E+00
    0.23393E+07        -0.18624E+07         0.00000E+00
    0.00000E+00         0.00000E+00        -0.46087E+06
 
   -0.45043E+06         0.23840E+07         0.00000E+00
    0.23840E+07        -0.18587E+07         0.00000E+00
    0.00000E+00         0.00000E+00        -0.46183E+06
 
   -0.45897E+06         0.24286E+07         0.00000E+00
    0.24286E+07        -0.18549E+07         0.00000E+00
    0.00000E+00         0.00000E+00        -0.46278E+06
 
   -0.15356E+06         0.26913E+05         0.00000E+00
    0.26913E+05        -0.22453E+07         0.00000E+00
    0.00000E+00         0.00000E+00        -0.47978E+06
 
   -0.15932E+06         0.80382E+05         0.00000E+00
    0.80382E+05        -0.22452E+07         0.00000E+00
    0.00000E+00         0.00000E+00        -0.48091E+06
 
   -0.16517E+06         0.13370E+06         0.00000E+00
    0.13370E+06        -0.22451E+07         0.00000E+00
    0.00000E+00         0.00000E+00        -0.48205E+06
 
   -0.17110E+06         0.18686E+06         0.00000E+00
    0.18686E+06        -0.22448E+07         0.00000E+00
    0.00000E+00         0.00000E+00        -0.48318E+06
 
   -0.17712E+06         0.23987E+06         0.00000E+00
    0.23987E+06        -0.22444E+07         0.00000E+00
    0.00000E+00         0.00000E+00        -0.48430E+06
 
   -0.18321E+06         0.29272E+06         0.00000E+00
    0.29272E+06        -0.22439E+07         0.00000E+00
    0.00000E+00         0.00000E+00        -0.48543E+06
 
   -0.18939E+06         0.34541E+06         0.00000E+00
    0.34541E+06        -0.22434E+07         0.00000E+00
    0.00000E+00         0.00000E+00        -0.48655E+06
 
   -0.19564E+06         0.39794E+06         0.00000E+00
    0.39794E+06        -0.22427E+07         0.00000E+00
    0.00000E+00         0.00000E+00        -0.48767E+06
 
   -0.20198E+06         0.45032E+06         0.00000E+00
    0.45032E+06        -0.22420E+07         0.00000E+00
    0.00000E+00         0.00000E+00        -0.48879E+06
 
   -0.20839E+06         0.50253E+06         0.00000E+00
    0.50253E+06        -0.22412E+07         0.00000E+00
    0.00000E+00         0.00000E+00        -0.48991E+06
 
   -0.21489E+06         0.55458E+06         0.00000E+00
    0.55458E+06        -0.22402E+07         0.00000E+00
    0.00000E+00         0.00000E+00        -0.49103E+06
 
   -0.22147E+06         0.60648E+06         0.00000E+00
    0.60648E+06        -0.22392E+07         0.00000E+00
    0.00000E+00         0.00000E+00        -0.49214E+06
 
   -0.22812E+06         0.65820E+06         0.00000E+00
    0.65820E+06        -0.22381E+07         0.00000E+00
    0.00000E+00         0.00000E+00        -0.49325E+06
 
   -0.23485E+06         0.70977E+06         0.00000E+00
    0.70977E+06        -0.22370E+07         0.00000E+00
    0.00000E+00         0.00000E+00        -0.49436E+06
 
   -0.24166E+06         0.76117E+06         0.00000E+00
    0.76117E+06        -0.22357E+07         0.00000E+00
    0.00000E+00         0.00000E+00        -0.49547E+06
 
   -0.24855E+06         0.81240E+06         0.00000E+00
    0.81240E+06        -0.22343E+07         0.00000E+00
    0.00000E+00         0.00000E+00        -0.49658E+06
 
   -0.25552E+06         0.86347E+06         0.00000E+00
    0.86347E+06        -0.22329E+07         0.00000E+00
    0.00000E+00         0.00000E+00        -0.49768E+06
 
   -0.26256E+06         0.91436E+06         0.00000E+00
    0.91436E+06        -0.22313E+07         0.00000E+00
    0.00000E+00         0.00000E+00        -0.49878E+06
 
   -0.26968E+06         0.96509E+06         0.00000E+00
    0.96509E+06        -0.22297E+07         0.00000E+00
    0.00000E+00         0.00000E+00        -0.49988E+06
 
   -0.27688E+06         0.10157E+07         0.00000E+00
    0.10157E+07        -0.22280E+07         0.00000E+00
    0.00000E+00         0.00000E+00        -0.50098E+06
 
   -0.28416E+06         0.10660E+07         0.00000E+00
    0.10660E+07        -0.22262E+07         0.00000E+00
    0.00000E+00         0.00000E+00        -0.50208E+06
 
   -0.29151E+06         0.11163E+07         0.00000E+00
    0.11163E+07        -0.22244E+07         0.00000E+00
    0.00000E+00         0.00000E+00        -0.50317E+06
 
   -0.29894E+06         0.11663E+07         0.00000E+00
    0.11663E+07        -0.22224E+07         0.00000E+00
    0.00000E+00         0.00000E+00        -0.50427E+06
 
   -0.30645E+06         0.12162E+07         0.00000E+00
    0.12162E+07        -0.22203E+07         0.00000E+00
    0.00000E+00         0.00000E+00        -0.50536E+06
 
   -0.31403E+06         0.12659E+07         0.00000E+00
    0.12659E+07        -0.22182E+07         0.00000E+00
    0.00000E+00         0.00000E+00        -0.50645E+06
 
   -0.32169E+06         0.13154E+07         0.00000E+00
    0.13154E+07        -0.22160E+07         0.00000E+00
    0.00000E+00         0.00000E+00        -0.50754E+06
 
   -0.32943E+06         0.13648E+07         0.00000E+00
    0.13648E+07        -0.22137E+07         0.00000E+00
    0.00000E+00         0.00000E+00        -0.50863E+06
 
   -0.33725E+06         0.14139E+07         0.00000E+00
    0.14139E+07        -0.22113E+07         0.00000E+00
    0.00000E+00         0.00000E+00        -0.50971E+06
 
   -0.34514E+06         0.14629E+07         0.00000E+00
    0.14629E+07        -0.22088E+07         0.00000E+00
    0.00000E+00         0.00000E+00        -0.51080E+06
 
   -0.35311E+06         0.15117E+07         0.00000E+00
    0.15117E+07        -0.22063E+07         0.00000E+00
    0.00000E+00         0.00000E+00        -0.51188E+06
 
   -0.36116E+06         0.15604E+07         0.00000E+00
    0.15604E+07        -0.22037E+07         0.00000E+00
    0.00000E+00         0.00000E+00        -0.51296E+06
 
   -0.36928E+06         0.16088E+07         0.00000E+00
    0.16088E+07        -0.22009E+07         0.00000E+00
    0.00000E+00         0.00000E+00        -0.51404E+06
 
   -0.37749E+06         0.16571E+07         0.00000E+00
    0.16571E+07        -0.21981E+07         0.00000E+00
    0.00000E+00         0.00000E+00        -0.51512E+06
 
   -0.38577E+06         0.17052E+07         0.00000E+00
    0.17052E+07        -0.21952E+07         0.00000E+00
    0.00000E+00         0.00000E+00        -0.51620E+06
 
   -0.39413E+06         0.17531E+07         0.00000E+00
    0.17531E+07        -0.21923E+07         0.00000E+00
    0.00000E+00         0.00000E+00        -0.51728E+06
 
   -0.40257E+06         0.18008E+07         0.00000E+00
    0.18008E+07        -0.21892E+07         0.00000E+00
    0.00000E+00         0.00000E+00        -0.51836E+06
 
   -0.41108E+06         0.18483E+07         0.00000E+00
    0.18483E+07        -0.21861E+07         0.00000E+00
    0.00000E+00         0.00000E+00        -0.51944E+06
 
   -0.41968E+06         0.18957E+07         0.00000E+00
    0.18957E+07        -0.21829E+07         0.00000E+00
    0.00000E+00         0.00000E+00        -0.52051E+06
 
   -0.42835E+06         0.19428E+07         0.00000E+00
    0.19428E+07        -0.21796E+07         0.00000E+00
    0.00000E+00         0.00000E+00        -0.52159E+06
 
   -0.43711E+06         0.19898E+07         0.00000E+00
    0.19898E+07        -0.21762E+07         0.00000E+00
    0.00000E+00         0.00000E+00        -0.52266E+06
 
   -0.44594E+06         0.20366E+07         0.00000E+00
    0.20366E+07        -0.21727E+07         0.00000E+00
    0.00000E+00         0.00000E+00        -0.52373E+06
 
   -0.45486E+06         0.20832E+07         0.00000E+00
    0.20832E+07        -0.21692E+07         0.00000E+00
    0.00000E+00         0.00000E+00        -0.52481E+06
 
   -0.46385E+06         0.21296E+07         0.00000E+00
    0.21296E+07        -0.21655E+07         0.00000E+00
    0.00000E+00         0.00000E+00        -0.52588E+06
 
   -0.47293E+06         0.21757E+07         0.00000E+00
    0.21757E+07        -0.21618E+07         0.00000E+00
    0.00000E+00         0.00000E+00        -0.52695E+06
 
   -0.48209E+06         0.22217E+07         0.00000E+00
    0.22217E+07        -0.21580E+07         0.00000E+00
    0.00000E+00         0.00000E+00        -0.52803E+06
 
   -0.49133E+06         0.22675E+07         0.00000E+00
    0.22675E+07        -0.21542E+07         0.00000E+00
    0.00000E+00         0.00000E+00        -0.52910E+06
 
   -0.50065E+06         0.23131E+07         0.00000E+00
    0.23131E+07        -0.21502E+07         0.00000E+00
    0.00000E+00         0.00000E+00        -0.53017E+06
 
   -0.51006E+06         0.23585E+07         0.00000E+00
    0.23585E+07        -0.21462E+07         0.00000E+00
    0.00000E+00         0.00000E+00        -0.53124E+06
 
   -0.51954E+06         0.24037E+07         0.00000E+00
    0.24037E+07        -0.21420E+07         0.00000E+00
    0.00000E+00         0.00000E+00        -0.53231E+06
 
   -0.52912E+06         0.24487E+07         0.00000E+00
    0.24487E+07        -0.21378E+07         0.00000E+00
    0.00000E+00         0.00000E+00        -0.53339E+06
 
   -0.18154E+06         0.27145E+05         0.00000E+00
    0.27145E+05        -0.25422E+07         0.00000E+00
    0.00000E+00         0.00000E+00        -0.54475E+06
 
   -0.18807E+06         0.81073E+05         0.00000E+00
    0.81073E+05        -0.25421E+07         0.00000E+00
    0.00000E+00         0.00000E+00        -0.54603E+06
 
   -0.19469E+06         0.13485E+06         0.00000E+00
    0.13485E+06        -0.25419E+07         0.00000E+00
    0.00000E+00         0.00000E+00        -0.54731E+06
 
   -0.20140E+06         0.18846E+06         0.00000E+00
    0.18846E+06        -0.25416E+07         0.00000E+00
    0.00000E+00         0.00000E+00        -0.54859E+06
 
   -0.20819E+06         0.24193E+06         0.00000E+00
    0.24193E+06        -0.25412E+07         0.00000E+00
    0.00000E+00         0.00000E+00        -0.54987E+06
 
   -0.21507E+06         0.29523E+06         0.00000E+00
    0.29523E+06        -0.25407E+07         0.00000E+00
    0.00000E+00         0.00000E+00        -0.55114E+06
 
   -0.22203E+06         0.34837E+06         0.00000E+00
    0.34837E+06        -0.25400E+07         0.00000E+00
    0.00000E+00         0.00000E+00        -0.55241E+06
 
   -0.22908E+06         0.40136E+06         0.00000E+00
    0.40136E+06        -0.25393E+07         0.00000E+00
    0.00000E+00         0.00000E+00        -0.55368E+06
 
   -0.23621E+06         0.45418E+06         0.00000E+00
    0.45418E+06        -0.25385E+07         0.00000E+00
    0.00000E+00         0.00000E+00        -0.55495E+06
 
   -0.24343E+06         0.50684E+06         0.00000E+00
    0.50684E+06        -0.25376E+07         0.00000E+00
    0.00000E+00         0.00000E+00        -0.55621E+06
 
   -0.25073E+06         0.55934E+06         0.00000E+00
    0.55934E+06        -0.25366E+07         0.00000E+00
    0.00000E+00         0.00000E+00        -0.55747E+06
 
   -0.25812E+06         0.61168E+06         0.00000E+00
    0.61168E+06        -0.25355E+07         0.00000E+00
    0.00000E+00         0.00000E+00        -0.55872E+06
 
   -0.26558E+06         0.66386E+06         0.00000E+00
    0.66386E+06        -0.25343E+07         0.00000E+00
    0.00000E+00         0.00000E+00        -0.55998E+06
 
   -0.27313E+06         0.71586E+06         0.00000E+00
    0.71586E+06        -0.25330E+07         0.00000E+00
    0.00000E+00         0.00000E+00        -0.56123E+06
 
   -0.28076E+06         0.76771E+06         0.00000E+00
    0.76771E+06        -0.25316E+07         0.00000E+00
    0.00000E+00         0.00000E+00        -0.56247E+06
 
   -0.28847E+06         0.81939E+06         0.00000E+00
    0.81939E+06        -0.25301E+07         0.00000E+00
    0.00000E+00         0.00000E+00        -0.56372E+06
 
   -0.29627E+06         0.87089E+06         0.00000E+00
    0.87089E+06        -0.25285E+07         0.00000E+00
    0.00000E+00         0.00000E+00        -0.56496E+06
 
   -0.30415E+06         0.92224E+06         0.00000E+00
    0.92224E+06        -0.25268E+07         0.00000E+00
    0.00000E+00         0.00000E+00        -0.56620E+06
 
   -0.31210E+06         0.97341E+06         0.00000E+00
    0.97341E+06        -0.25251E+07         0.00000E+00
    0.00000E+00         0.00000E+00        -0.56743E+06
 
   -0.32014E+06         0.10244E+07         0.00000E+00
    0.10244E+07        -0.25232E+07         0.00000E+00
    0.00000E+00         0.00000E+00        -0.56867E+06
 
   -0.32826E+06         0.10752E+07         0.00000E+00
    0.10752E+07        -0.25212E+07         0.00000E+00
    0.00000E+00         0.00000E+00        -0.56990E+06
 
   -0.33647E+06         0.11259E+07         0.00000E+00
    0.11259E+07        -0.25192E+07         0.00000E+00
    0.00000E+00         0.00000E+00        -0.57113E+06
 
   -0.34475E+06         0.11764E+07         0.00000E+00
    0.11764E+07        -0.25170E+07         0.00000E+00
    0.00000E+00         0.00000E+00        -0.57235E+06
 
   -0.35312E+06         0.12267E+07         0.00000E+00
    0.12267E+07        -0.25148E+07         0.00000E+00
    0.00000E+00         0.00000E+00        -0.57358E+06
 
   -0.36156E+06         0.12769E+07         0.00000E+00
    0.12769E+07        -0.25124E+07         0.00000E+00
    0.00000E+00         0.00000E+00        -0.57480E+06
 
   -0.37009E+06         0.13268E+07         0.00000E+00
    0.13268E+07        -0.25100E+07         0.00000E+00
    0.00000E+00         0.00000E+00        -0.57602E+06
 
   -0.37870E+06         0.13766E+07         0.00000E+00
    0.13766E+07        -0.25075E+07         0.00000E+00
    0.00000E+00         0.00000E+00        -0.57723E+06
 
   -0.38739E+06         0.14262E+07         0.00000E+00
    0.14262E+07        -0.25048E+07         0.00000E+00
    0.00000E+00         0.00000E+00        -0.57845E+06
 
   -0.39617E+06         0.14757E+07         0.00000E+00
    0.14757E+07        -0.25021E+07         0.00000E+00
    0.00000E+00         0.00000E+00        -0.57966E+06
 
   -0.40502E+06         0.15249E+07         0.00000E+00
    0.15249E+07        -0.24993E+07         0.00000E+00
    0.00000E+00         0.00000E+00        -0.58087E+06
 
   -0.41396E+06         0.15740E+07         0.00000E+00
    0.15740E+07        -0.24964E+07         0.00000E+00
    0.00000E+00         0.00000E+00        -0.58208E+06
 
   -0.42298E+06         0.16229E+07         0.00000E+00
    0.16229E+07        -0.24934E+07         0.00000E+00
    0.00000E+00         0.00000E+00        -0.58328E+06
 
   -0.43209E+06         0.16716E+07         0.00000E+00
    0.16716E+07        -0.24904E+07         0.00000E+00
    0.00000E+00         0.00000E+00        -0.58449E+06
 
   -0.44128E+06         0.17202E+07         0.00000E+00
    0.17202E+07        -0.24872E+07         0.00000E+00
    0.00000E+00         0.00000E+00        -0.58569E+06
 
   -0.45055E+06         0.17685E+07         0.00000E+00
    0.17685E+07        -0.24839E+07         0.00000E+00
    0.00000E+00         0.00000E+00        -0.58689E+06
 
   -0.45991E+06         0.18167E+07         0.00000E+00
    0.18167E+07        -0.24806E+07         0.00000E+00
    0.00000E+00         0.00000E+00        -0.58809E+06
 
   -0.46935E+06         0.18647E+07         0.00000E+00
    0.18647E+07        -0.24771E+07         0.00000E+00
    0.00000E+00         0.00000E+00        -0.58929E+06
 
   -0.47888E+06         0.19125E+07         0.00000E+00
    0.19125E+07        -0.24736E+07         0.00000E+00
    0.00000E+00         0.00000E+00        -0.59049E+06
 
   -0.48849E+06         0.19601E+07         0.00000E+00
    0.19601E+07        -0.24699E+07         0.00000E+00
    0.00000E+00         0.00000E+00        -0.59168E+06
 
   -0.49819E+06         0.20075E+07         0.00000E+00
    0.20075E+07        -0.24662E+07         0.00000E+00
    0.00000E+00         0.00000E+00        -0.59288E+06
 
   -0.50797E+06         0.20548E+07         0.00000E+00
    0.20548E+07        -0.24624E+07         0.00000E+00
    0.00000E+00         0.00000E+00        -0.59407E+06
 
   -0.51785E+06         0.21018E+07         0.00000E+00
    0.21018E+07        -0.24585E+07         0.00000E+00
    0.00000E+00         0.00000E+00        -0.59526E+06
 
   -0.52781E+06         0.21486E+07         0.00000E+00
    0.21486E+07        -0.24545E+07         0.00000E+00
    0.00000E+00         0.00000E+00        -0.59645E+06
 
   -0.53786E+06         0.21953E+07         0.00000E+00
    0.21953E+07        -0.24504E+07         0.00000E+00
    0.00000E+00         0.00000E+00        -0.59764E+06
 
   -0.54800E+06         0.22418E+07         0.00000E+00
    0.22418E+07        -0.24462E+07         0.00000E+00
    0.00000E+00         0.00000E+00        -0.59883E+06
 
   -0.55823E+06         0.22880E+07         0.00000E+00
    0.22880E+07        -0.24419E+07         0.00000E+00
    0.00000E+00         0.00000E+00        -0.60002E+06
 
   -0.56854E+06         0.23341E+07         0.00000E+00
    0.23341E+07        -0.24375E+07         0.00000E+00
    0.00000E+00         0.00000E+00        -0.60121E+06
 
   -0.57895E+06         0.23800E+07         0.00000E+00
    0.23800E+07        -0.24330E+07         0.00000E+00
    0.00000E+00         0.00000E+00        -0.60240E+06
 
   -0.58946E+06         0.24256E+07         0.00000E+00
    0.24256E+07        -0.24285E+07         0.00000E+00
    0.00000E+00         0.00000E+00        -0.60359E+06
 
   -0.60005E+06         0.24711E+07         0.00000E+00
    0.24711E+07        -0.24238E+07         0.00000E+00
    0.00000E+00         0.00000E+00        -0.60478E+06
 
   -0.21053E+06         0.27397E+05         0.00000E+00
    0.27397E+05        -0.28425E+07         0.00000E+00
    0.00000E+00         0.00000E+00        -0.61060E+06
 
   -0.21784E+06         0.81827E+05         0.00000E+00
    0.81827E+05        -0.28423E+07         0.00000E+00
    0.00000E+00         0.00000E+00        -0.61204E+06
 
   -0.22524E+06         0.13610E+06         0.00000E+00
    0.13610E+06        -0.28421E+07         0.00000E+00
    0.00000E+00         0.00000E+00        -0.61347E+06
 
   -0.23273E+06         0.19021E+06         0.00000E+00
    0.19021E+06        -0.28418E+07         0.00000E+00
    0.00000E+00         0.00000E+00        -0.61490E+06
 
   -0.24031E+06         0.24417E+06         0.00000E+00
    0.24417E+06        -0.28413E+07         0.00000E+00
    0.00000E+00         0.00000E+00        -0.61633E+06
 
   -0.24798E+06         0.29797E+06         0.00000E+00
    0.29797E+06        -0.28408E+07         0.00000E+00
    0.00000E+00         0.00000E+00        -0.61775E+06
 
   -0.25574E+06         0.35160E+06         0.00000E+00
    0.35160E+06        -0.28401E+07         0.00000E+00
    0.00000E+00         0.00000E+00        -0.61917E+06
 
   -0.26358E+06         0.40508E+06         0.00000E+00
    0.40508E+06        -0.28393E+07         0.00000E+00
    0.00000E+00         0.00000E+00        -0.62059E+06
 
   -0.27152E+06         0.45839E+06         0.00000E+00
    0.45839E+06        -0.28385E+07         0.00000E+00
    0.00000E+00         0.00000E+00        -0.62200E+06
 
   -0.27954E+06         0.51155E+06         0.00000E+00
    0.51155E+06        -0.28375E+07         0.00000E+00
    0.00000E+00         0.00000E+00        -0.62340E+06
 
   -0.28765E+06         0.56453E+06         0.00000E+00
    0.56453E+06        -0.28364E+07         0.00000E+00
    0.00000E+00         0.00000E+00        -0.62481E+06
 
   -0.29585E+06         0.61736E+06         0.00000E+00
    0.61736E+06        -0.28352E+07         0.00000E+00
    0.00000E+00         0.00000E+00        -0.62621E+06
 
   -0.30413E+06         0.67002E+06         0.00000E+00
    0.67002E+06        -0.28339E+07         0.00000E+00
    0.00000E+00         0.00000E+00        -0.62760E+06
 
   -0.31250E+06         0.72251E+06         0.00000E+00
    0.72251E+06        -0.28325E+07         0.00000E+00
    0.00000E+00         0.00000E+00        -0.62899E+06
 
   -0.32095E+06         0.77484E+06         0.00000E+00
    0.77484E+06        -0.28309E+07         0.00000E+00
    0.00000E+00         0.00000E+00        -0.63038E+06
 
   -0.32949E+06         0.82700E+06         0.00000E+00
    0.82700E+06        -0.28293E+07         0.00000E+00
    0.00000E+00         0.00000E+00        -0.63176E+06
 
   -0.33812E+06         0.87900E+06         0.00000E+00
    0.87900E+06        -0.28276E+07         0.00000E+00
    0.00000E+00         0.00000E+00        -0.63314E+06
 
   -0.34683E+06         0.93082E+06         0.00000E+00
    0.93082E+06        -0.28258E+07         0.00000E+00
    0.00000E+00         0.00000E+00        -0.63452E+06
 
   -0.35562E+06         0.98248E+06         0.00000E+00
    0.98248E+06        -0.28238E+07         0.00000E+00
    0.00000E+00         0.00000E+00        -0.63589E+06
 
   -0.36450E+06         0.10340E+07         0.00000E+00
    0.10340E+07        -0.28218E+07         0.00000E+00
    0.00000E+00         0.00000E+00        -0.63726E+06
 
   -0.37347E+06         0.10853E+07         0.00000E+00
    0.10853E+07        -0.28197E+07         0.00000E+00
    0.00000E+00         0.00000E+00        -0.63863E+06
 
   -0.38252E+06         0.11364E+07         0.00000E+00
    0.11364E+07        -0.28174E+07         0.00000E+00
    0.00000E+00         0.00000E+00        -0.63999E+06
 
   -0.39165E+06         0.11874E+07         0.00000E+00
    0.11874E+07        -0.28151E+07         0.00000E+00
    0.00000E+00         0.00000E+00        -0.64135E+06
 
   -0.40087E+06         0.12382E+07         0.00000E+00
    0.12382E+07        -0.28126E+07         0.00000E+00
    0.00000E+00         0.00000E+00        -0.64270E+06
 
   -0.41018E+06         0.12888E+07         0.00000E+00
    0.12888E+07        -0.28101E+07         0.00000E+00
    0.00000E+00         0.00000E+00        -0.64406E+06
 
   -0.41957E+06         0.13393E+07         0.00000E+00
    0.13393E+07        -0.28075E+07         0.00000E+00
    0.00000E+00         0.00000E+00        -0.64541E+06
 
   -0.42905E+06         0.13896E+07         0.00000E+00
    0.13896E+07        -0.28047E+07         0.00000E+00
    0.00000E+00         0.00000E+00        -0.64675E+06
 
   -0.43861E+06         0.14397E+07         0.00000E+00
    0.14397E+07        -0.28019E+07         0.00000E+00
    0.00000E+00         0.00000E+00        -0.64809E+06
 
   -0.44826E+06         0.14896E+07         0.00000E+00
    0.14896E+07        -0.27989E+07         0.00000E+00
    0.00000E+00         0.00000E+00        -0.64943E+06
 
   -0.45800E+06         0.15394E+07         0.00000E+00
    0.15394E+07        -0.27959E+07         0.00000E+00
    0.00000E+00         0.00000E+00        -0.65077E+06
 
   -0.46783E+06         0.15889E+07         0.00000E+00
    0.15889E+07        -0.27927E+07         0.00000E+00
    0.00000E+00         0.00000E+00        -0.65211E+06
 
   -0.47774E+06         0.16383E+07         0.00000E+00
    0.16383E+07        -0.27894E+07         0.00000E+00
    0.00000E+00         0.00000E+00        -0.65344E+06
 
   -0.48774E+06         0.16876E+07         0.00000E+00
    0.16876E+07        -0.27861E+07         0.00000E+00
    0.00000E+00         0.00000E+00        -0.65477E+06
 
   -0.49783E+06         0.17366E+07         0.00000E+00
    0.17366E+07        -0.27826E+07         0.00000E+00
    0.00000E+00         0.00000E+00        -0.65609E+06
 
   -0.50801E+06         0.17854E+07         0.00000E+00
    0.17854E+07        -0.27791E+07         0.00000E+00
    0.00000E+00         0.00000E+00        -0.65742E+06
 
   -0.51828E+06         0.18341E+07         0.00000E+00
    0.18341E+07        -0.27754E+07         0.00000E+00
    0.00000E+00         0.00000E+00        -0.65874E+06
 
   -0.52864E+06         0.18826E+07         0.00000E+00
    0.18826E+07        -0.27716E+07         0.00000E+00
    0.00000E+00         0.00000E+00        -0.66006E+06
 
   -0.53909E+06         0.19309E+07         0.00000E+00
    0.19309E+07        -0.27678E+07         0.00000E+00
    0.00000E+00         0.00000E+00        -0.66137E+06
 
   -0.54963E+06         0.19790E+07         0.00000E+00
    0.19790E+07        -0.27638E+07         0.00000E+00
    0.00000E+00         0.00000E+00        -0.66269E+06
 
   -0.56027E+06         0.20269E+07         0.00000E+00
    0.20269E+07        -0.27598E+07         0.00000E+00
    0.00000E+00         0.00000E+00        -0.66400E+06
 
   -0.57100E+06         0.20747E+07         0.00000E+00
    0.20747E+07        -0.27556E+07         0.00000E+00
    0.00000E+00         0.00000E+00        -0.66532E+06
 
   -0.58182E+06         0.21222E+07         0.00000E+00
    0.21222E+07        -0.27513E+07         0.00000E+00
    0.00000E+00         0.00000E+00        -0.66663E+06
 
   -0.59274E+06         0.21696E+07         0.00000E+00
    0.21696E+07        -0.27469E+07         0.00000E+00
    0.00000E+00         0.00000E+00        -0.66793E+06
 
   -0.60375E+06         0.22168E+07         0.00000E+00
    0.22168E+07        -0.27425E+07         0.00000E+00
    0.00000E+00         0.00000E+00        -0.66924E+06
 
   -0.61486E+06         0.22638E+07         0.00000E+00
    0.22638E+07        -0.27379E+07         0.00000E+00
    0.00000E+00         0.00000E+00        -0.67055E+06
 
   -0.62607E+06         0.23105E+07         0.00000E+00
    0.23105E+07        -0.27332E+07         0.00000E+00
    0.00000E+00         0.00000E+00        -0.67185E+06
 
   -0.63737E+06         0.23571E+07         0.00000E+00
    0.23571E+07        -0.27284E+07         0.00000E+00
    0.00000E+00         0.00000E+00        -0.67316E+06
 
   -0.64878E+06         0.24035E+07         0.00000E+00
    0.24035E+07        -0.27235E+07         0.00000E+00
    0.00000E+00         0.00000E+00        -0.67446E+06
 
   -0.66028E+06         0.24497E+07         0.00000E+00
    0.24497E+07        -0.27185E+07         0.00000E+00
    0.00000E+00         0.00000E+00        -0.67576E+06
 
   -0.67188E+06         0.24957E+07         0.00000E+00
    0.24957E+07        -0.27134E+07         0.00000E+00
    0.00000E+00         0.00000E+00        -0.67706E+06
 
   -0.24073E+06         0.27671E+05         0.00000E+00
    0.27671E+05        -0.31465E+07         0.00000E+00
    0.00000E+00         0.00000E+00        -0.67745E+06
 
   -0.24882E+06         0.82642E+05         0.00000E+00
    0.82642E+05        -0.31464E+07         0.00000E+00
    0.00000E+00         0.00000E+00        -0.67905E+06
 
   -0.25702E+06         0.13745E+06         0.00000E+00
    0.13745E+06        -0.31462E+07         0.00000E+00
    0.00000E+00         0.00000E+00        -0.68064E+06
 
   -0.26530E+06         0.19211E+06         0.00000E+00
    0.19211E+06        -0.31458E+07         0.00000E+00
    0.00000E+00         0.00000E+00        -0.68222E+06
 
   -0.27368E+06         0.24660E+06         0.00000E+00
    0.24660E+06        -0.31453E+07         0.00000E+00
    0.00000E+00         0.00000E+00        -0.68380E+06
 
   -0.28215E+06         0.30093E+06         0.00000E+00
    0.30093E+06        -0.31447E+07         0.00000E+00
    0.00000E+00         0.00000E+00        -0.68538E+06
 
   -0.29071E+06         0.35510E+06         0.00000E+00
    0.35510E+06        -0.31440E+07         0.00000E+00
    0.00000E+00         0.00000E+00        -0.68695E+06
 
   -0.29936E+06         0.40910E+06         0.00000E+00
    0.40910E+06        -0.31432E+07         0.00000E+00
    0.00000E+00         0.00000E+00        -0.68851E+06
 
   -0.30811E+06         0.46295E+06         0.00000E+00
    0.46295E+06        -0.31422E+07         0.00000E+00
    0.00000E+00         0.00000E+00        -0.69007E+06
 
   -0.31694E+06         0.51663E+06         0.00000E+00
    0.51663E+06        -0.31412E+07         0.00000E+00
    0.00000E+00         0.00000E+00        -0.69162E+06
 
   -0.32586E+06         0.57014E+06         0.00000E+00
    0.57014E+06        -0.31400E+07         0.00000E+00
    0.00000E+00         0.00000E+00        -0.69317E+06
 
   -0.33487E+06         0.62349E+06         0.00000E+00
    0.62349E+06        -0.31387E+07         0.00000E+00
    0.00000E+00         0.00000E+00        -0.69472E+06
 
   -0.34398E+06         0.67668E+06         0.00000E+00
    0.67668E+06        -0.31373E+07         0.00000E+00
    0.00000E+00         0.00000E+00        -0.69625E+06
 
   -0.35317E+06         0.72970E+06         0.00000E+00
    0.72970E+06        -0.31358E+07         0.00000E+00
    0.00000E+00         0.00000E+00        -0.69779E+06
 
   -0.36245E+06         0.78255E+06         0.00000E+00
    0.78255E+06        -0.31341E+07         0.00000E+00
    0.00000E+00         0.00000E+00        -0.69932E+06
 
   -0.37181E+06         0.83524E+06         0.00000E+00
    0.83524E+06        -0.31324E+07         0.00000E+00
    0.00000E+00         0.00000E+00        -0.70084E+06
 
   -0.38127E+06         0.88776E+06         0.00000E+00
    0.88776E+06        -0.31305E+07         0.00000E+00
    0.00000E+00         0.00000E+00        -0.70236E+06
 
   -0.39081E+06         0.94011E+06         0.00000E+00
    0.94011E+06        -0.31286E+07         0.00000E+00
    0.00000E+00         0.00000E+00        -0.70388E+06
 
   -0.40044E+06         0.99229E+06         0.00000E+00
    0.99229E+06        -0.31265E+07         0.00000E+00
    0.00000E+00         0.00000E+00        -0.70539E+06
 
   -0.41016E+06         0.10443E+07         0.00000E+00
    0.10443E+07        -0.31243E+07         0.00000E+00
    0.00000E+00         0.00000E+00        -0.70689E+06
 
   -0.41997E+06         0.10961E+07         0.00000E+00
    0.10961E+07        -0.31220E+07         0.00000E+00
    0.00000E+00         0.00000E+00        -0.70839E+06
 
   -0.42986E+06         0.11478E+07         0.00000E+00
    0.11478E+07        -0.31196E+07         0.00000E+00
    0.00000E+00         0.00000E+00        -0.70989E+06
 
   -0.43985E+06         0.11993E+07         0.00000E+00
    0.11993E+07        -0.31171E+07         0.00000E+00
    0.00000E+00         0.00000E+00        -0.71138E+06
 
   -0.44992E+06         0.12506E+07         0.00000E+00
    0.12506E+07        -0.31144E+07         0.00000E+00
    0.00000E+00         0.00000E+00        -0.71287E+06
 
   -0.46008E+06         0.13018E+07         0.00000E+00
    0.13018E+07        -0.31117E+07         0.00000E+00
    0.00000E+00         0.00000E+00        -0.71435E+06
 
   -0.47033E+06         0.13528E+07         0.00000E+00
    0.13528E+07        -0.31088E+07         0.00000E+00
    0.00000E+00         0.00000E+00        -0.71583E+06
 
   -0.48067E+06         0.14036E+07         0.00000E+00
    0.14036E+07        -0.31059E+07         0.00000E+00
    0.00000E+00         0.00000E+00        -0.71731E+06
 
   -0.49110E+06         0.14542E+07         0.00000E+00
    0.14542E+07        -0.31028E+07         0.00000E+00
    0.00000E+00         0.00000E+00        -0.71878E+06
 
   -0.50162E+06         0.15047E+07         0.00000E+00
    0.15047E+07        -0.30996E+07         0.00000E+00
    0.00000E+00         0.00000E+00        -0.72024E+06
 
   -0.51224E+06         0.15550E+07         0.00000E+00
    0.15550E+07        -0.30963E+07         0.00000E+00
    0.00000E+00         0.00000E+00        -0.72171E+06
 
   -0.52294E+06         0.16051E+07         0.00000E+00
    0.16051E+07        -0.30929E+07         0.00000E+00
    0.00000E+00         0.00000E+00        -0.72317E+06
 
   -0.53374E+06         0.16550E+07         0.00000E+00
    0.16550E+07        -0.30894E+07         0.00000E+00
    0.00000E+00         0.00000E+00        -0.72462E+06
 
   -0.54462E+06         0.17048E+07         0.00000E+00
    0.17048E+07        -0.30858E+07         0.00000E+00
    0.00000E+00         0.00000E+00        -0.72608E+06
 
   -0.55561E+06         0.17544E+07         0.00000E+00
    0.17544E+07        -0.30820E+07         0.00000E+00
    0.00000E+00         0.00000E+00        -0.72753E+06
 
   -0.56668E+06         0.18038E+07         0.00000E+00
    0.18038E+07        -0.30782E+07         0.00000E+00
    0.00000E+00         0.00000E+00        -0.72897E+06
 
   -0.57785E+06         0.18530E+07         0.00000E+00
    0.18530E+07        -0.30742E+07         0.00000E+00
    0.00000E+00         0.00000E+00        -0.73042E+06
 
   -0.58912E+06         0.19020E+07         0.00000E+00
    0.19020E+07        -0.30702E+07         0.00000E+00
    0.00000E+00         0.00000E+00        -0.73186E+06
 
   -0.60048E+06         0.19509E+07         0.00000E+00
    0.19509E+07        -0.30660E+07         0.00000E+00
    0.00000E+00         0.00000E+00        -0.73329E+06
 
   -0.61195E+06         0.19996E+07         0.00000E+00
    0.19996E+07        -0.30617E+07         0.00000E+00
    0.00000E+00         0.00000E+00        -0.73473E+06
 
   -0.62351E+06         0.20480E+07         0.00000E+00
    0.20480E+07        -0.30573E+07         0.00000E+00
    0.00000E+00         0.00000E+00        -0.73616E+06
 
   -0.63516E+06         0.20963E+07         0.00000E+00
    0.20963E+07        -0.30528E+07         0.00000E+00
    0.00000E+00         0.00000E+00        -0.73759E+06
 
   -0.64692E+06         0.21445E+07         0.00000E+00
    0.21445E+07        -0.30482E+07         0.00000E+00
    0.00000E+00         0.00000E+00        -0.73902E+06
 
   -0.65879E+06         0.21924E+07         0.00000E+00
    0.21924E+07        -0.30434E+07         0.00000E+00
    0.00000E+00         0.00000E+00        -0.74044E+06
 
   -0.67075E+06         0.22401E+07         0.00000E+00
    0.22401E+07        -0.30386E+07         0.00000E+00
    0.00000E+00         0.00000E+00        -0.74186E+06
 
   -0.68282E+06         0.22877E+07         0.00000E+00
    0.22877E+07        -0.30336E+07         0.00000E+00
    0.00000E+00         0.00000E+00        -0.74329E+06
 
   -0.69499E+06         0.23350E+07         0.00000E+00
    0.23350E+07        -0.30285E+07         0.00000E+00
    0.00000E+00         0.00000E+00        -0.74470E+06
 
   -0.70727E+06         0.23822E+07         0.00000E+00
    0.23822E+07        -0.30233E+07         0.00000E+00
    0.00000E+00         0.00000E+00        -0.74612E+06
 
   -0.71965E+06         0.24292E+07         0.00000E+00
    0.24292E+07        -0.30180E+07         0.00000E+00
    0.00000E+00         0.00000E+00        -0.74754E+06
 
   -0.73214E+06         0.24760E+07         0.00000E+00
    0.24760E+07        -0.30126E+07         0.00000E+00
    0.00000E+00         0.00000E+00        -0.74895E+06
 
   -0.74474E+06         0.25225E+07         0.00000E+00
    0.25225E+07        -0.30071E+07         0.00000E+00
    0.00000E+00         0.00000E+00        -0.75037E+06
 
   -0.27236E+06         0.27964E+05         0.00000E+00
    0.27964E+05        -0.34549E+07         0.00000E+00
    0.00000E+00         0.00000E+00        -0.74545E+06
 
   -0.28126E+06         0.83516E+05         0.00000E+00
    0.83516E+05        -0.34547E+07         0.00000E+00
    0.00000E+00         0.00000E+00        -0.74720E+06
 
   -0.29025E+06         0.13891E+06         0.00000E+00
    0.13891E+06        -0.34545E+07         0.00000E+00
    0.00000E+00         0.00000E+00        -0.74895E+06
 
   -0.29934E+06         0.19413E+06         0.00000E+00
    0.19413E+06        -0.34541E+07         0.00000E+00
    0.00000E+00         0.00000E+00        -0.75069E+06
 
   -0.30852E+06         0.24920E+06         0.00000E+00
    0.24920E+06        -0.34536E+07         0.00000E+00
    0.00000E+00         0.00000E+00        -0.75242E+06
 
   -0.31780E+06         0.30410E+06         0.00000E+00
    0.30410E+06        -0.34529E+07         0.00000E+00
    0.00000E+00         0.00000E+00        -0.75415E+06
 
   -0.32717E+06         0.35884E+06         0.00000E+00
    0.35884E+06        -0.34522E+07         0.00000E+00
    0.00000E+00         0.00000E+00        -0.75587E+06
 
   -0.33664E+06         0.41342E+06         0.00000E+00
    0.41342E+06        -0.34513E+07         0.00000E+00
    0.00000E+00         0.00000E+00        -0.75758E+06
 
   -0.34619E+06         0.46783E+06         0.00000E+00
    0.46783E+06        -0.34503E+07         0.00000E+00
    0.00000E+00         0.00000E+00        -0.75929E+06
 
   -0.35584E+06         0.52207E+06         0.00000E+00
    0.52207E+06        -0.34491E+07         0.00000E+00
    0.00000E+00         0.00000E+00        -0.76100E+06
 
   -0.36559E+06         0.57615E+06         0.00000E+00
    0.57615E+06        -0.34479E+07         0.00000E+00
    0.00000E+00         0.00000E+00        -0.76269E+06
 
   -0.37542E+06         0.63007E+06         0.00000E+00
    0.63007E+06        -0.34465E+07         0.00000E+00
    0.00000E+00         0.00000E+00        -0.76438E+06
 
   -0.38534E+06         0.68382E+06         0.00000E+00
    0.68382E+06        -0.34450E+07         0.00000E+00
    0.00000E+00         0.00000E+00        -0.76607E+06
 
   -0.39536E+06         0.73740E+06         0.00000E+00
    0.73740E+06        -0.34434E+07         0.00000E+00
    0.00000E+00         0.00000E+00        -0.76774E+06
 
   -0.40546E+06         0.79082E+06         0.00000E+00
    0.79082E+06        -0.34416E+07         0.00000E+00
    0.00000E+00         0.00000E+00        -0.76941E+06
 
   -0.41566E+06         0.84407E+06         0.00000E+00
    0.84407E+06        -0.34397E+07         0.00000E+00
    0.00000E+00         0.00000E+00        -0.77108E+06
 
   -0.42594E+06         0.89715E+06         0.00000E+00
    0.89715E+06        -0.34378E+07         0.00000E+00
    0.00000E+00         0.00000E+00        -0.77274E+06
 
   -0.43632E+06         0.95006E+06         0.00000E+00
    0.95006E+06        -0.34357E+07         0.00000E+00
    0.00000E+00         0.00000E+00        -0.77439E+06
 
   -0.44678E+06         0.10028E+07         0.00000E+00
    0.10028E+07        -0.34334E+07         0.00000E+00
    0.00000E+00         0.00000E+00        -0.77604E+06
 
   -0.45734E+06         0.10554E+07         0.00000E+00
    0.10554E+07        -0.34311E+07         0.00000E+00
    0.00000E+00         0.00000E+00        -0.77768E+06
 
   -0.46798E+06         0.11078E+07         0.00000E+00
    0.11078E+07        -0.34286E+07         0.00000E+00
    0.00000E+00         0.00000E+00        -0.77932E+06
 
   -0.47872E+06         0.11600E+07         0.00000E+00
    0.11600E+07        -0.34260E+07         0.00000E+00
    0.00000E+00         0.00000E+00        -0.78095E+06
 
   -0.48955E+06         0.12121E+07         0.00000E+00
    0.12121E+07        -0.34233E+07         0.00000E+00
    0.00000E+00         0.00000E+00        -0.78258E+06
 
   -0.50047E+06         0.12640E+07         0.00000E+00
    0.12640E+07        -0.34205E+07         0.00000E+00
    0.00000E+00         0.00000E+00        -0.78420E+06
 
   -0.51148E+06         0.13157E+07         0.00000E+00
    0.13157E+07        -0.34176E+07         0.00000E+00
    0.00000E+00         0.00000E+00        -0.78581E+06
 
   -0.52258E+06         0.13673E+07         0.00000E+00
    0.13673E+07        -0.34145E+07         0.00000E+00
    0.00000E+00         0.00000E+00        -0.78742E+06
 
   -0.53378E+06         0.14187E+07         0.00000E+00
    0.14187E+07        -0.34114E+07         0.00000E+00
    0.00000E+00         0.00000E+00        -0.78903E+06
 
   -0.54506E+06         0.14699E+07         0.00000E+00
    0.14699E+07        -0.34081E+07         0.00000E+00
    0.00000E+00         0.00000E+00        -0.79063E+06
 
   -0.55645E+06         0.15209E+07         0.00000E+00
    0.15209E+07        -0.34047E+07         0.00000E+00
    0.00000E+00         0.00000E+00        -0.79222E+06
 
   -0.56792E+06         0.15718E+07         0.00000E+00
    0.15718E+07        -0.34011E+07         0.00000E+00
    0.00000E+00         0.00000E+00        -0.79381E+06
 
   -0.57949E+06         0.16225E+07         0.00000E+00
    0.16225E+07        -0.33975E+07         0.00000E+00
    0.00000E+00         0.00000E+00        -0.79539E+06
 
   -0.59116E+06         0.16730E+07         0.00000E+00
    0.16730E+07        -0.33937E+07         0.00000E+00
    0.00000E+00         0.00000E+00        -0.79698E+06
 
   -0.60293E+06         0.17233E+07         0.00000E+00
    0.17233E+07        -0.33898E+07         0.00000E+00
    0.00000E+00         0.00000E+00        -0.79855E+06
 
   -0.61479E+06         0.17735E+07         0.00000E+00
    0.17735E+07        -0.33858E+07         0.00000E+00
    0.00000E+00         0.00000E+00        -0.80012E+06
 
   -0.62675E+06         0.18235E+07         0.00000E+00
    0.18235E+07        -0.33817E+07         0.00000E+00
    0.00000E+00         0.00000E+00        -0.80169E+06
 
   -0.63881E+06         0.18733E+07         0.00000E+00
    0.18733E+07        -0.33775E+07         0.00000E+00
    0.00000E+00         0.00000E+00        -0.80325E+06
 
   -0.65097E+06         0.19229E+07         0.00000E+00
    0.19229E+07        -0.33731E+07         0.00000E+00
    0.00000E+00         0.00000E+00        -0.80481E+06
 
   -0.66323E+06         0.19724E+07         0.00000E+00
    0.19724E+07        -0.33686E+07         0.00000E+00
    0.00000E+00         0.00000E+00        -0.80637E+06
 
   -0.67559E+06         0.20217E+07         0.00000E+00
    0.20217E+07        -0.33640E+07         0.00000E+00
    0.00000E+00         0.00000E+00        -0.80792E+06
 
   -0.68806E+06         0.20708E+07         0.00000E+00
    0.20708E+07        -0.33593E+07         0.00000E+00
    0.00000E+00         0.00000E+00        -0.80947E+06
 
   -0.70064E+06         0.21197E+07         0.00000E+00
    0.21197E+07        -0.33544E+07         0.00000E+00
    0.00000E+00         0.00000E+00        -0.81102E+06
 
   -0.71332E+06         0.21684E+07         0.00000E+00
    0.21684E+07        -0.33495E+07         0.00000E+00
    0.00000E+00         0.00000E+00        -0.81256E+06
 
   -0.72611E+06         0.22170E+07         0.00000E+00
    0.22170E+07        -0.33444E+07         0.00000E+00
    0.00000E+00         0.00000E+00        -0.81410E+06
 
   -0.73900E+06         0.22653E+07         0.00000E+00
    0.22653E+07        -0.33392E+07         0.00000E+00
    0.00000E+00         0.00000E+00        -0.81564E+06
 
   -0.75201E+06         0.23135E+07         0.00000E+00
    0.23135E+07        -0.33338E+07         0.00000E+00
    0.00000E+00         0.00000E+00        -0.81717E+06
 
   -0.76513E+06         0.23615E+07         0.00000E+00
    0.23615E+07        -0.33284E+07         0.00000E+00
    0.00000E+00         0.00000E+00        -0.81870E+06
 
   -0.77836E+06         0.24093E+07         0.00000E+00
    0.24093E+07        -0.33228E+07         0.00000E+00
    0.00000E+00         0.00000E+00        -0.82023E+06
 
   -0.79171E+06         0.24569E+07         0.00000E+00
    0.24569E+07        -0.33171E+07         0.00000E+00
    0.00000E+00         0.00000E+00        -0.82176E+06
 
   -0.80517E+06         0.25043E+07         0.00000E+00
    0.25043E+07        -0.33113E+07         0.00000E+00
    0.00000E+00         0.00000E+00        -0.82328E+06
 
   -0.81875E+06         0.25516E+07         0.00000E+00
    0.25516E+07        -0.33053E+07         0.00000E+00
    0.00000E+00         0.00000E+00        -0.82481E+06
 
   -0.30566E+06         0.28277E+05         0.00000E+00
    0.28277E+05        -0.37679E+07         0.00000E+00
    0.00000E+00         0.00000E+00        -0.81471E+06
 
   -0.31537E+06         0.84447E+05         0.00000E+00
    0.84447E+05        -0.37677E+07         0.00000E+00
    0.00000E+00         0.00000E+00        -0.81662E+06
 
   -0.32517E+06         0.14045E+06         0.00000E+00
    0.14045E+06        -0.37675E+07         0.00000E+00
    0.00000E+00         0.00000E+00        -0.81853E+06
 
   -0.33507E+06         0.19629E+06         0.00000E+00
    0.19629E+06        -0.37670E+07         0.00000E+00
    0.00000E+00         0.00000E+00        -0.82042E+06
 
   -0.34507E+06         0.25197E+06         0.00000E+00
    0.25197E+06        -0.37665E+07         0.00000E+00
    0.00000E+00         0.00000E+00        -0.82232E+06
 
   -0.35517E+06         0.30748E+06         0.00000E+00
    0.30748E+06        -0.37658E+07         0.00000E+00
    0.00000E+00         0.00000E+00        -0.82420E+06
 
   -0.36536E+06         0.36283E+06         0.00000E+00
    0.36283E+06        -0.37650E+07         0.00000E+00
    0.00000E+00         0.00000E+00        -0.82607E+06
 
   -0.37565E+06         0.41801E+06         0.00000E+00
    0.41801E+06        -0.37641E+07         0.00000E+00
    0.00000E+00         0.00000E+00        -0.82794E+06
 
   -0.38602E+06         0.47302E+06         0.00000E+00
    0.47302E+06        -0.37630E+07         0.00000E+00
    0.00000E+00         0.00000E+00        -0.82980E+06
 
   -0.39650E+06         0.52787E+06         0.00000E+00
    0.52787E+06        -0.37618E+07         0.00000E+00
    0.00000E+00         0.00000E+00        -0.83165E+06
 
   -0.40706E+06         0.58255E+06         0.00000E+00
    0.58255E+06        -0.37604E+07         0.00000E+00
    0.00000E+00         0.00000E+00        -0.83350E+06
 
   -0.41772E+06         0.63707E+06         0.00000E+00
    0.63707E+06        -0.37590E+07         0.00000E+00
    0.00000E+00         0.00000E+00        -0.83534E+06
 
   -0.42847E+06         0.69142E+06         0.00000E+00
    0.69142E+06        -0.37574E+07         0.00000E+00
    0.00000E+00         0.00000E+00        -0.83717E+06
 
   -0.43931E+06         0.74560E+06         0.00000E+00
    0.74560E+06        -0.37556E+07         0.00000E+00
    0.00000E+00         0.00000E+00        -0.83899E+06
 
   -0.45024E+06         0.79962E+06         0.00000E+00
    0.79962E+06        -0.37538E+07         0.00000E+00
    0.00000E+00         0.00000E+00        -0.84081E+06
 
   -0.46126E+06         0.85346E+06         0.00000E+00
    0.85346E+06        -0.37518E+07         0.00000E+00
    0.00000E+00         0.00000E+00        -0.84261E+06
 
   -0.47237E+06         0.90715E+06         0.00000E+00
    0.90715E+06        -0.37497E+07         0.00000E+00
    0.00000E+00         0.00000E+00        -0.84441E+06
 
   -0.48358E+06         0.96066E+06         0.00000E+00
    0.96066E+06        -0.37475E+07         0.00000E+00
    0.00000E+00         0.00000E+00        -0.84621E+06
 
   -0.49488E+06         0.10140E+07         0.00000E+00
    0.10140E+07        -0.37451E+07         0.00000E+00
    0.00000E+00         0.00000E+00        -0.84799E+06
 
   -0.50626E+06         0.10672E+07         0.00000E+00
    0.10672E+07        -0.37426E+07         0.00000E+00
    0.00000E+00         0.00000E+00        -0.84977E+06
 
   -0.51774E+06         0.11202E+07         0.00000E+00
    0.11202E+07        -0.37400E+07         0.00000E+00
    0.00000E+00         0.00000E+00        -0.85155E+06
 
   -0.52932E+06         0.11730E+07         0.00000E+00
    0.11730E+07        -0.37372E+07         0.00000E+00
    0.00000E+00         0.00000E+00        -0.85331E+06
 
   -0.54098E+06         0.12257E+07         0.00000E+00
    0.12257E+07        -0.37344E+07         0.00000E+00
    0.00000E+00         0.00000E+00        -0.85507E+06
 
   -0.55274E+06         0.12782E+07         0.00000E+00
    0.12782E+07        -0.37314E+07         0.00000E+00
    0.00000E+00         0.00000E+00        -0.85682E+06
 
   -0.56459E+06         0.13306E+07         0.00000E+00
    0.13306E+07        -0.37283E+07         0.00000E+00
    0.00000E+00         0.00000E+00        -0.85857E+06
 
   -0.57653E+06         0.13827E+07         0.00000E+00
    0.13827E+07        -0.37250E+07         0.00000E+00
    0.00000E+00         0.00000E+00        -0.86031E+06
 
   -0.58857E+06         0.14347E+07         0.00000E+00
    0.14347E+07        -0.37216E+07         0.00000E+00
    0.00000E+00         0.00000E+00        -0.86204E+06
 
   -0.60071E+06         0.14866E+07         0.00000E+00
    0.14866E+07        -0.37181E+07         0.00000E+00
    0.00000E+00         0.00000E+00        -0.86377E+06
 
   -0.61294E+06         0.15382E+07         0.00000E+00
    0.15382E+07        -0.37145E+07         0.00000E+00
    0.00000E+00         0.00000E+00        -0.86549E+06
 
   -0.62527E+06         0.15897E+07         0.00000E+00
    0.15897E+07        -0.37108E+07         0.00000E+00
    0.00000E+00         0.00000E+00        -0.86721E+06
 
   -0.63769E+06         0.16410E+07         0.00000E+00
    0.16410E+07        -0.37069E+07         0.00000E+00
    0.00000E+00         0.00000E+00        -0.86892E+06
 
   -0.65022E+06         0.16922E+07         0.00000E+00
    0.16922E+07        -0.37029E+07         0.00000E+00
    0.00000E+00         0.00000E+00        -0.87062E+06
 
   -0.66284E+06         0.17431E+07         0.00000E+00
    0.17431E+07        -0.36987E+07         0.00000E+00
    0.00000E+00         0.00000E+00        -0.87232E+06
 
   -0.67557E+06         0.17939E+07         0.00000E+00
    0.17939E+07        -0.36945E+07         0.00000E+00
    0.00000E+00         0.00000E+00        -0.87401E+06
 
   -0.68840E+06         0.18446E+07         0.00000E+00
    0.18446E+07        -0.36901E+07         0.00000E+00
    0.00000E+00         0.00000E+00        -0.87570E+06
 
   -0.70133E+06         0.18950E+07         0.00000E+00
    0.18950E+07        -0.36856E+07         0.00000E+00
    0.00000E+00         0.00000E+00        -0.87738E+06
 
   -0.71436E+06         0.19453E+07         0.00000E+00
    0.19453E+07        -0.36809E+07         0.00000E+00
    0.00000E+00         0.00000E+00        -0.87906E+06
 
   -0.72751E+06         0.19954E+07         0.00000E+00
    0.19954E+07        -0.36762E+07         0.00000E+00
    0.00000E+00         0.00000E+00        -0.88073E+06
 
   -0.74075E+06         0.20453E+07         0.00000E+00
    0.20453E+07        -0.36713E+07         0.00000E+00
    0.00000E+00         0.00000E+00        -0.88240E+06
 
   -0.75411E+06         0.20951E+07         0.00000E+00
    0.20951E+07        -0.36662E+07         0.00000E+00
    0.00000E+00         0.00000E+00        -0.88407E+06
 
   -0.76758E+06         0.21447E+07         0.00000E+00
    0.21447E+07        -0.36610E+07         0.00000E+00
    0.00000E+00         0.00000E+00        -0.88573E+06
 
   -0.78116E+06         0.21941E+07         0.00000E+00
    0.21941E+07        -0.36558E+07         0.00000E+00
    0.00000E+00         0.00000E+00        -0.88738E+06
 
   -0.79486E+06         0.22433E+07         0.00000E+00
    0.22433E+07        -0.36503E+07         0.00000E+00
    0.00000E+00         0.00000E+00        -0.88903E+06
 
   -0.80867E+06         0.22923E+07         0.00000E+00
    0.22923E+07        -0.36448E+07         0.00000E+00
    0.00000E+00         0.00000E+00        -0.89068E+06
 
   -0.82259E+06         0.23412E+07         0.00000E+00
    0.23412E+07        -0.36391E+07         0.00000E+00
    0.00000E+00         0.00000E+00        -0.89233E+06
 
   -0.83663E+06         0.23899E+07         0.00000E+00
    0.23899E+07        -0.36332E+07         0.00000E+00
    0.00000E+00         0.00000E+00        -0.89397E+06
 
   -0.85080E+06         0.24384E+07         0.00000E+00
    0.24384E+07        -0.36273E+07         0.00000E+00
    0.00000E+00         0.00000E+00        -0.89561E+06
 
   -0.86508E+06         0.24867E+07         0.00000E+00
    0.24867E+07        -0.36212E+07         0.00000E+00
    0.00000E+00         0.00000E+00        -0.89725E+06
 
   -0.87949E+06         0.25348E+07         0.00000E+00
    0.25348E+07        -0.36149E+07         0.00000E+00
    0.00000E+00         0.00000E+00        -0.89888E+06
 
   -0.89403E+06         0.25827E+07         0.00000E+00
    0.25827E+07        -0.36085E+07         0.00000E+00
    0.00000E+00         0.00000E+00        -0.90051E+06
 
   -0.34087E+06         0.28607E+05         0.00000E+00
    0.28607E+05        -0.40860E+07         0.00000E+00
    0.00000E+00         0.00000E+00        -0.88537E+06
 
   -0.35140E+06         0.85431E+05         0.00000E+00
    0.85431E+05        -0.40858E+07         0.00000E+00
    0.00000E+00         0.00000E+00        -0.88745E+06
 
   -0.36203E+06         0.14209E+06         0.00000E+00
    0.14209E+06        -0.40855E+07         0.00000E+00
    0.00000E+00         0.00000E+00        -0.88951E+06
 
   -0.37276E+06         0.19858E+06         0.00000E+00
    0.19858E+06        -0.40851E+07         0.00000E+00
    0.00000E+00         0.00000E+00        -0.89157E+06
 
   -0.38359E+06         0.25490E+06         0.00000E+00
    0.25490E+06        -0.40845E+07         0.00000E+00
    0.00000E+00         0.00000E+00        -0.89362E+06
 
   -0.39451E+06         0.31105E+06         0.00000E+00
    0.31105E+06        -0.40838E+07         0.00000E+00
    0.00000E+00         0.00000E+00        -0.89566E+06
 
   -0.40553E+06         0.36704E+06         0.00000E+00
    0.36704E+06        -0.40829E+07         0.00000E+00
    0.00000E+00         0.00000E+00        -0.89770E+06
 
   -0.41665E+06         0.42286E+06         0.00000E+00
    0.42286E+06        -0.40819E+07         0.00000E+00
    0.00000E+00         0.00000E+00        -0.89972E+06
 
   -0.42785E+06         0.47851E+06         0.00000E+00
    0.47851E+06        -0.40808E+07         0.00000E+00
    0.00000E+00         0.00000E+00        -0.90173E+06
 
   -0.43915E+06         0.53400E+06         0.00000E+00
    0.53400E+06        -0.40795E+07         0.00000E+00
    0.00000E+00         0.00000E+00        -0.90374E+06
 
   -0.45054E+06         0.58931E+06         0.00000E+00
    0.58931E+06        -0.40781E+07         0.00000E+00
    0.00000E+00         0.00000E+00        -0.90573E+06
 
   -0.46203E+06         0.64447E+06         0.00000E+00
    0.64447E+06        -0.40766E+07         0.00000E+00
    0.00000E+00         0.00000E+00        -0.90772E+06
 
   -0.47360E+06         0.69945E+06         0.00000E+00
    0.69945E+06        -0.40749E+07         0.00000E+00
    0.00000E+00         0.00000E+00        -0.90970E+06
 
   -0.48527E+06         0.75427E+06         0.00000E+00
    0.75427E+06        -0.40731E+07         0.00000E+00
    0.00000E+00         0.00000E+00        -0.91167E+06
 
   -0.49703E+06         0.80892E+06         0.00000E+00
    0.80892E+06        -0.40711E+07         0.00000E+00
    0.00000E+00         0.00000E+00        -0.91363E+06
 
   -0.50887E+06         0.86340E+06         0.00000E+00
    0.86340E+06        -0.40690E+07         0.00000E+00
    0.00000E+00         0.00000E+00        -0.91558E+06
 
   -0.52081E+06         0.91772E+06         0.00000E+00
    0.91772E+06        -0.40668E+07         0.00000E+00
    0.00000E+00         0.00000E+00        -0.91752E+06
 
   -0.53285E+06         0.97187E+06         0.00000E+00
    0.97187E+06        -0.40644E+07         0.00000E+00
    0.00000E+00         0.00000E+00        -0.91946E+06
 
   -0.54497E+06         0.10259E+07         0.00000E+00
    0.10259E+07        -0.40619E+07         0.00000E+00
    0.00000E+00         0.00000E+00        -0.92138E+06
 
   -0.55718E+06         0.10797E+07         0.00000E+00
    0.10797E+07        -0.40593E+07         0.00000E+00
    0.00000E+00         0.00000E+00        -0.92330E+06
 
   -0.56949E+06         0.11333E+07         0.00000E+00
    0.11333E+07        -0.40565E+07         0.00000E+00
    0.00000E+00         0.00000E+00        -0.92521E+06
 
   -0.58189E+06         0.11868E+07         0.00000E+00
    0.11868E+07        -0.40537E+07         0.00000E+00
    0.00000E+00         0.00000E+00        -0.92711E+06
 
   -0.59438E+06         0.12401E+07         0.00000E+00
    0.12401E+07        -0.40506E+07         0.00000E+00
    0.00000E+00         0.00000E+00        -0.92900E+06
 
   -0.60697E+06         0.12933E+07         0.00000E+00
    0.12933E+07        -0.40475E+07         0.00000E+00
    0.00000E+00         0.00000E+00        -0.93089E+06
 
   -0.61965E+06         0.13463E+07         0.00000E+00
    0.13463E+07        -0.40442E+07         0.00000E+00
    0.00000E+00         0.00000E+00        -0.93276E+06
 
   -0.63242E+06         0.13991E+07         0.00000E+00
    0.13991E+07        -0.40407E+07         0.00000E+00
    0.00000E+00         0.00000E+00        -0.93463E+06
 
   -0.64529E+06         0.14517E+07         0.00000E+00
    0.14517E+07        -0.40372E+07         0.00000E+00
    0.00000E+00         0.00000E+00        -0.93649E+06
 
   -0.65826E+06         0.15042E+07         0.00000E+00
    0.15042E+07        -0.40335E+07         0.00000E+00
    0.00000E+00         0.00000E+00        -0.93835E+06
 
   -0.67133E+06         0.15565E+07         0.00000E+00
    0.15565E+07        -0.40297E+07         0.00000E+00
    0.00000E+00         0.00000E+00        -0.94020E+06
 
   -0.68449E+06         0.16087E+07         0.00000E+00
    0.16087E+07        -0.40257E+07         0.00000E+00
    0.00000E+00         0.00000E+00        -0.94204E+06
 
   -0.69775E+06         0.16607E+07         0.00000E+00
    0.16607E+07        -0.40216E+07         0.00000E+00
    0.00000E+00         0.00000E+00        -0.94387E+06
 
   -0.71112E+06         0.17125E+07         0.00000E+00
    0.17125E+07        -0.40174E+07         0.00000E+00
    0.00000E+00         0.00000E+00        -0.94570E+06
 
   -0.72458E+06         0.17641E+07         0.00000E+00
    0.17641E+07        -0.40130E+07         0.00000E+00
    0.00000E+00         0.00000E+00        -0.94751E+06
 
   -0.73815E+06         0.18156E+07         0.00000E+00
    0.18156E+07        -0.40085E+07         0.00000E+00
    0.00000E+00         0.00000E+00        -0.94933E+06
 
   -0.75183E+06         0.18669E+07         0.00000E+00
    0.18669E+07        -0.40038E+07         0.00000E+00
    0.00000E+00         0.00000E+00        -0.95113E+06
 
   -0.76561E+06         0.19181E+07         0.00000E+00
    0.19181E+07        -0.39991E+07         0.00000E+00
    0.00000E+00         0.00000E+00        -0.95293E+06
 
   -0.77950E+06         0.19690E+07         0.00000E+00
    0.19690E+07        -0.39941E+07         0.00000E+00
    0.00000E+00         0.00000E+00        -0.95473E+06
 
   -0.79350E+06         0.20198E+07         0.00000E+00
    0.20198E+07        -0.39891E+07         0.00000E+00
    0.00000E+00         0.00000E+00        -0.95652E+06
 
   -0.80761E+06         0.20705E+07         0.00000E+00
    0.20705E+07        -0.39839E+07         0.00000E+00
    0.00000E+00         0.00000E+00        -0.95830E+06
 
   -0.82184E+06         0.21209E+07         0.00000E+00
    0.21209E+07        -0.39786E+07         0.00000E+00
    0.00000E+00         0.00000E+00        -0.96008E+06
 
   -0.83617E+06         0.21712E+07         0.00000E+00
    0.21712E+07        -0.39731E+07         0.00000E+00
    0.00000E+00         0.00000E+00        -0.96185E+06
 
   -0.85063E+06         0.22213E+07         0.00000E+00
    0.22213E+07        -0.39675E+07         0.00000E+00
    0.00000E+00         0.00000E+00        -0.96362E+06
 
   -0.86520E+06         0.22713E+07         0.00000E+00
    0.22713E+07        -0.39617E+07         0.00000E+00
    0.00000E+00         0.00000E+00        -0.96538E+06
 
   -0.87990E+06         0.23211E+07         0.00000E+00
    0.23211E+07        -0.39558E+07         0.00000E+00
    0.00000E+00         0.00000E+00        -0.96714E+06
 
   -0.89472E+06         0.23706E+07         0.00000E+00
    0.23706E+07        -0.39498E+07         0.00000E+00
    0.00000E+00         0.00000E+00        -0.96889E+06
 
   -0.90966E+06         0.24201E+07         0.00000E+00
    0.24201E+07        -0.39436E+07         0.00000E+00
    0.00000E+00         0.00000E+00        -0.97064E+06
 
   -0.92473E+06         0.24693E+07         0.00000E+00
    0.24693E+07        -0.39372E+07         0.00000E+00
    0.00000E+00         0.00000E+00        -0.97239E+06
 
   -0.93992E+06         0.25184E+07         0.00000E+00
    0.25184E+07        -0.39307E+07         0.00000E+00
    0.00000E+00         0.00000E+00        -0.97413E+06
 
   -0.95525E+06         0.25672E+07         0.00000E+00
    0.25672E+07        -0.39241E+07         0.00000E+00
    0.00000E+00         0.00000E+00        -0.97587E+06
 
   -0.97071E+06         0.26159E+07         0.00000E+00
    0.26159E+07        -0.39173E+07         0.00000E+00
    0.00000E+00         0.00000E+00        -0.97761E+06
 
   -0.37825E+06         0.28955E+05         0.00000E+00
    0.28955E+05        -0.44096E+07         0.00000E+00
    0.00000E+00         0.00000E+00        -0.95757E+06
 
   -0.38963E+06         0.86465E+05         0.00000E+00
    0.86465E+05        -0.44095E+07         0.00000E+00
    0.00000E+00         0.00000E+00        -0.95982E+06
 
   -0.40110E+06         0.14380E+06         0.00000E+00
    0.14380E+06        -0.44091E+07         0.00000E+00
    0.00000E+00         0.00000E+00        -0.96205E+06
 
   -0.41267E+06         0.20097E+06         0.00000E+00
    0.20097E+06        -0.44087E+07         0.00000E+00
    0.00000E+00         0.00000E+00        -0.96427E+06
 
   -0.42434E+06         0.25797E+06         0.00000E+00
    0.25797E+06        -0.44081E+07         0.00000E+00
    0.00000E+00         0.00000E+00        -0.96649E+06
 
   -0.43610E+06         0.31480E+06         0.00000E+00
    0.31480E+06        -0.44073E+07         0.00000E+00
    0.00000E+00         0.00000E+00        -0.96869E+06
 
   -0.44796E+06         0.37146E+06         0.00000E+00
    0.37146E+06        -0.44064E+07         0.00000E+00
    0.00000E+00         0.00000E+00        -0.97088E+06
 
   -0.45991E+06         0.42796E+06         0.00000E+00
    0.42796E+06        -0.44054E+07         0.00000E+00
    0.00000E+00         0.00000E+00        -0.97306E+06
 
   -0.47195E+06         0.48428E+06         0.00000E+00
    0.48428E+06        -0.44042E+07         0.00000E+00
    0.00000E+00         0.00000E+00        -0.97523E+06
 
   -0.48408E+06         0.54043E+06         0.00000E+00
    0.54043E+06        -0.44029E+07         0.00000E+00
    0.00000E+00         0.00000E+00        -0.97739E+06
 
   -0.49630E+06         0.59642E+06         0.00000E+00
    0.59642E+06        -0.44014E+07         0.00000E+00
    0.00000E+00         0.00000E+00        -0.97954E+06
 
   -0.50862E+06         0.65224E+06         0.00000E+00
    0.65224E+06        -0.43997E+07         0.00000E+00
    0.00000E+00         0.00000E+00        -0.98167E+06
 
   -0.52102E+06         0.70789E+06         0.00000E+00
    0.70789E+06        -0.43980E+07         0.00000E+00
    0.00000E+00         0.00000E+00        -0.98380E+06
 
   -0.53351E+06         0.76337E+06         0.00000E+00
    0.76337E+06        -0.43961E+07         0.00000E+00
    0.00000E+00         0.00000E+00        -0.98592E+06
 
   -0.54610E+06         0.81869E+06         0.00000E+00
    0.81869E+06        -0.43940E+07         0.00000E+00
    0.00000E+00         0.00000E+00        -0.98802E+06
 
   -0.55877E+06         0.87384E+06         0.00000E+00
    0.87384E+06        -0.43918E+07         0.00000E+00
    0.00000E+00         0.00000E+00        -0.99012E+06
 
   -0.57153E+06         0.92882E+06         0.00000E+00
    0.92882E+06        -0.43895E+07         0.00000E+00
    0.00000E+00         0.00000E+00        -0.99221E+06
 
   -0.58439E+06         0.98364E+06         0.00000E+00
    0.98364E+06        -0.43870E+07         0.00000E+00
    0.00000E+00         0.00000E+00        -0.99428E+06
 
   -0.59733E+06         0.10383E+07         0.00000E+00
    0.10383E+07        -0.43844E+07         0.00000E+00
    0.00000E+00         0.00000E+00        -0.99635E+06
 
   -0.61036E+06         0.10928E+07         0.00000E+00
    0.10928E+07        -0.43817E+07         0.00000E+00
    0.00000E+00         0.00000E+00        -0.99840E+06
 
   -0.62349E+06         0.11471E+07         0.00000E+00
    0.11471E+07        -0.43788E+07         0.00000E+00
    0.00000E+00         0.00000E+00        -0.10004E+07
 
   -0.63670E+06         0.12013E+07         0.00000E+00
    0.12013E+07        -0.43757E+07         0.00000E+00
    0.00000E+00         0.00000E+00        -0.10025E+07
 
   -0.65001E+06         0.12553E+07         0.00000E+00
    0.12553E+07        -0.43725E+07         0.00000E+00
    0.00000E+00         0.00000E+00        -0.10045E+07
 
   -0.66341E+06         0.13091E+07         0.00000E+00
    0.13091E+07        -0.43692E+07         0.00000E+00
    0.00000E+00         0.00000E+00        -0.10065E+07
 
   -0.67691E+06         0.13628E+07         0.00000E+00
    0.13628E+07        -0.43658E+07         0.00000E+00
    0.00000E+00         0.00000E+00        -0.10085E+07
 
   -0.69050E+06         0.14163E+07         0.00000E+00
    0.14163E+07        -0.43622E+07         0.00000E+00
    0.00000E+00         0.00000E+00        -0.10105E+07
 
   -0.70418E+06         0.14696E+07         0.00000E+00
    0.14696E+07        -0.43584E+07         0.00000E+00
    0.00000E+00         0.00000E+00        -0.10125E+07
 
   -0.71797E+06         0.15228E+07         0.00000E+00
    0.15228E+07        -0.43546E+07         0.00000E+00
    0.00000E+00         0.00000E+00        -0.10145E+07
 
   -0.73185E+06         0.15758E+07         0.00000E+00
    0.15758E+07        -0.43505E+07         0.00000E+00
    0.00000E+00         0.00000E+00        -0.10165E+07
 
   -0.74583E+06         0.16287E+07         0.00000E+00
    0.16287E+07        -0.43464E+07         0.00000E+00
    0.00000E+00         0.00000E+00        -0.10184E+07
 
   -0.75991E+06         0.16814E+07         0.00000E+00
    0.16814E+07        -0.43421E+07         0.00000E+00
    0.00000E+00         0.00000E+00        -0.10204E+07
 
   -0.77409E+06         0.17339E+07         0.00000E+00
    0.17339E+07        -0.43376E+07         0.00000E+00
    0.00000E+00         0.00000E+00        -0.10223E+07
 
   -0.78837E+06         0.17863E+07         0.00000E+00
    0.17863E+07        -0.43330E+07         0.00000E+00
    0.00000E+00         0.00000E+00        -0.10243E+07
 
   -0.80277E+06         0.18385E+07         0.00000E+00
    0.18385E+07        -0.43283E+07         0.00000E+00
    0.00000E+00         0.00000E+00        -0.10262E+07
 
   -0.81726E+06         0.18905E+07         0.00000E+00
    0.18905E+07        -0.43234E+07         0.00000E+00
    0.00000E+00         0.00000E+00        -0.10281E+07
 
   -0.83187E+06         0.19424E+07         0.00000E+00
    0.19424E+07        -0.43184E+07         0.00000E+00
    0.00000E+00         0.00000E+00        -0.10301E+07
 
   -0.84659E+06         0.19941E+07         0.00000E+00
    0.19941E+07        -0.43132E+07         0.00000E+00
    0.00000E+00         0.00000E+00        -0.10320E+07
 
   -0.86142E+06         0.20456E+07         0.00000E+00
    0.20456E+07        -0.43079E+07         0.00000E+00
    0.00000E+00         0.00000E+00        -0.10339E+07
 
   -0.87636E+06         0.20970E+07         0.00000E+00
    0.20970E+07        -0.43024E+07         0.00000E+00
    0.00000E+00         0.00000E+00        -0.10358E+07
 
   -0.89142E+06         0.21482E+07         0.00000E+00
    0.21482E+07        -0.42968E+07         0.00000E+00
    0.00000E+00         0.00000E+00        -0.10376E+07
 
   -0.90660E+06         0.21993E+07         0.00000E+00
    0.21993E+07        -0.42910E+07         0.00000E+00
    0.00000E+00         0.00000E+00        -0.10395E+07
 
   -0.92190E+06         0.22502E+07         0.00000E+00
    0.22502E+07        -0.42851E+07         0.00000E+00
    0.00000E+00         0.00000E+00        -0.10414E+07
 
   -0.93732E+06         0.23009E+07         0.00000E+00
    0.23009E+07        -0.42790E+07         0.00000E+00
    0.00000E+00         0.00000E+00        -0.10433E+07
 
   -0.95287E+06         0.23514E+07         0.00000E+00
    0.23514E+07        -0.42728E+07         0.00000E+00
    0.00000E+00         0.00000E+00        -0.10451E+07
 
   -0.96855E+06         0.24018E+07         0.00000E+00
    0.24018E+07        -0.42664E+07         0.00000E+00
    0.00000E+00         0.00000E+00        -0.10470E+07
 
   -0.98435E+06         0.24520E+07         0.00000E+00
    0.24520E+07        -0.42599E+07         0.00000E+00
    0.00000E+00         0.00000E+00        -0.10489E+07
 
   -0.10003E+07         0.25021E+07         0.00000E+00
    0.25021E+07        -0.42532E+07         0.00000E+00
    0.00000E+00         0.00000E+00        -0.10507E+07
 
   -0.10164E+07         0.25520E+07         0.00000E+00
    0.25520E+07        -0.42464E+07         0.00000E+00
    0.00000E+00         0.00000E+00        -0.10525E+07
 
   -0.10326E+07         0.26017E+07         0.00000E+00
    0.26017E+07        -0.42394E+07         0.00000E+00
    0.00000E+00         0.00000E+00        -0.10544E+07
 
   -0.10489E+07         0.26512E+07         0.00000E+00
    0.26512E+07        -0.42322E+07         0.00000E+00
    0.00000E+00         0.00000E+00        -0.10562E+07
 
   -0.41810E+06         0.29318E+05         0.00000E+00
    0.29318E+05        -0.47392E+07         0.00000E+00
    0.00000E+00         0.00000E+00        -0.10315E+07
 
   -0.43034E+06         0.87546E+05         0.00000E+00
    0.87546E+05        -0.47391E+07         0.00000E+00
    0.00000E+00         0.00000E+00        -0.10339E+07
 
   -0.44267E+06         0.14560E+06         0.00000E+00
    0.14560E+06        -0.47387E+07         0.00000E+00
    0.00000E+00         0.00000E+00        -0.10363E+07
 
   -0.45510E+06         0.20348E+06         0.00000E+00
    0.20348E+06        -0.47383E+07         0.00000E+00
    0.00000E+00         0.00000E+00        -0.10387E+07
 
   -0.46762E+06         0.26119E+06         0.00000E+00
    0.26119E+06        -0.47376E+07         0.00000E+00
    0.00000E+00         0.00000E+00        -0.10411E+07
 
   -0.48023E+06         0.31872E+06         0.00000E+00
    0.31872E+06        -0.47369E+07         0.00000E+00
    0.00000E+00         0.00000E+00        -0.10434E+07
 
   -0.49294E+06         0.37608E+06         0.00000E+00
    0.37608E+06        -0.47359E+07         0.00000E+00
    0.00000E+00         0.00000E+00        -0.10458E+07
 
   -0.50573E+06         0.43327E+06         0.00000E+00
    0.43327E+06        -0.47348E+07         0.00000E+00
    0.00000E+00         0.00000E+00        -0.10481E+07
 
   -0.51861E+06         0.49030E+06         0.00000E+00
    0.49030E+06        -0.47336E+07         0.00000E+00
    0.00000E+00         0.00000E+00        -0.10504E+07
 
   -0.53158E+06         0.54715E+06         0.00000E+00
    0.54715E+06        -0.47322E+07         0.00000E+00
    0.00000E+00         0.00000E+00        -0.10528E+07
 
   -0.54464E+06         0.60383E+06         0.00000E+00
    0.60383E+06        -0.47306E+07         0.00000E+00
    0.00000E+00         0.00000E+00        -0.10551E+07
 
   -0.55779E+06         0.66034E+06         0.00000E+00
    0.66034E+06        -0.47290E+07         0.00000E+00
    0.00000E+00         0.00000E+00        -0.10573E+07
 
   -0.57102E+06         0.71669E+06         0.00000E+00
    0.71669E+06        -0.47271E+07         0.00000E+00
    0.00000E+00         0.00000E+00        -0.10596E+07
 
   -0.58434E+06         0.77287E+06         0.00000E+00
    0.77287E+06        -0.47251E+07         0.00000E+00
    0.00000E+00         0.00000E+00        -0.10619E+07
 
   -0.59774E+06         0.82888E+06         0.00000E+00
    0.82888E+06        -0.47230E+07         0.00000E+00
    0.00000E+00         0.00000E+00        -0.10641E+07
 
   -0.61124E+06         0.88473E+06         0.00000E+00
    0.88473E+06        -0.47207E+07         0.00000E+00
    0.00000E+00         0.00000E+00        -0.10664E+07
 
   -0.62482E+06         0.94041E+06         0.00000E+00
    0.94041E+06        -0.47183E+07         0.00000E+00
    0.00000E+00         0.00000E+00        -0.10686E+07
 
   -0.63848E+06         0.99593E+06         0.00000E+00
    0.99593E+06        -0.47157E+07         0.00000E+00
    0.00000E+00         0.00000E+00        -0.10708E+07
 
   -0.65224E+06         0.10513E+07         0.00000E+00
    0.10513E+07        -0.47130E+07         0.00000E+00
    0.00000E+00         0.00000E+00        -0.10730E+07
 
   -0.66608E+06         0.11065E+07         0.00000E+00
    0.11065E+07        -0.47101E+07         0.00000E+00
    0.00000E+00         0.00000E+00        -0.10752E+07
 
   -0.68001E+06         0.11615E+07         0.00000E+00
    0.11615E+07        -0.47071E+07         0.00000E+00
    0.00000E+00         0.00000E+00        -0.10774E+07
 
   -0.69403E+06         0.12164E+07         0.00000E+00
    0.12164E+07        -0.47039E+07         0.00000E+00
    0.00000E+00         0.00000E+00        -0.10796E+07
 
   -0.70814E+06         0.12711E+07         0.00000E+00
    0.12711E+07        -0.47006E+07         0.00000E+00
    0.00000E+00         0.00000E+00        -0.10817E+07
 
   -0.72235E+06         0.13256E+07         0.00000E+00
    0.13256E+07        -0.46971E+07         0.00000E+00
    0.00000E+00         0.00000E+00        -0.10839E+07
 
   -0.73664E+06         0.13800E+07         0.00000E+00
    0.13800E+07        -0.46935E+07         0.00000E+00
    0.00000E+00         0.00000E+00        -0.10860E+07
 
   -0.75103E+06         0.14343E+07         0.00000E+00
    0.14343E+07        -0.46898E+07         0.00000E+00
    0.00000E+00         0.00000E+00        -0.10882E+07
 
   -0.76551E+06         0.14883E+07         0.00000E+00
    0.14883E+07        -0.46859E+07         0.00000E+00
    0.00000E+00         0.00000E+00        -0.10903E+07
 
   -0.78008E+06         0.15422E+07         0.00000E+00
    0.15422E+07        -0.46818E+07         0.00000E+00
    0.00000E+00         0.00000E+00        -0.10924E+07
 
   -0.79476E+06         0.15960E+07         0.00000E+00
    0.15960E+07        -0.46776E+07         0.00000E+00
    0.00000E+00         0.00000E+00        -0.10945E+07
 
   -0.80953E+06         0.16496E+07         0.00000E+00
    0.16496E+07        -0.46733E+07         0.00000E+00
    0.00000E+00         0.00000E+00        -0.10966E+07
 
   -0.82440E+06         0.17030E+07         0.00000E+00
    0.17030E+07        -0.46688E+07         0.00000E+00
    0.00000E+00         0.00000E+00        -0.10986E+07
 
   -0.83937E+06         0.17563E+07         0.00000E+00
    0.17563E+07        -0.46642E+07         0.00000E+00
    0.00000E+00         0.00000E+00        -0.11007E+07
 
   -0.85445E+06         0.18094E+07         0.00000E+00
    0.18094E+07        -0.46594E+07         0.00000E+00
    0.00000E+00         0.00000E+00        -0.11028E+07
 
   -0.86964E+06         0.18624E+07         0.00000E+00
    0.18624E+07        -0.46544E+07         0.00000E+00
    0.00000E+00         0.00000E+00        -0.11048E+07
 
   -0.88493E+06         0.19152E+07         0.00000E+00
    0.19152E+07        -0.46493E+07         0.00000E+00
    0.00000E+00         0.00000E+00        -0.11068E+07
 
   -0.90033E+06         0.19678E+07         0.00000E+00
    0.19678E+07        -0.46441E+07         0.00000E+00
    0.00000E+00         0.00000E+00        -0.11089E+07
 
   -0.91584E+06         0.20203E+07         0.00000E+00
    0.20203E+07        -0.46386E+07         0.00000E+00
    0.00000E+00         0.00000E+00        -0.11109E+07
 
   -0.93147E+06         0.20727E+07         0.00000E+00
    0.20727E+07        -0.46331E+07         0.00000E+00
    0.00000E+00         0.00000E+00        -0.11129E+07
 
   -0.94721E+06         0.21249E+07         0.00000E+00
    0.21249E+07        -0.46274E+07         0.00000E+00
    0.00000E+00         0.00000E+00        -0.11149E+07
 
   -0.96307E+06         0.21769E+07         0.00000E+00
    0.21769E+07        -0.46215E+07         0.00000E+00
    0.00000E+00         0.00000E+00        -0.11169E+07
 
   -0.97906E+06         0.22288E+07         0.00000E+00
    0.22288E+07        -0.46154E+07         0.00000E+00
    0.00000E+00         0.00000E+00        -0.11189E+07
 
   -0.99517E+06         0.22805E+07         0.00000E+00
    0.22805E+07        -0.46092E+07         0.00000E+00
    0.00000E+00         0.00000E+00        -0.11209E+07
 
   -0.10114E+07         0.23320E+07         0.00000E+00
    0.23320E+07        -0.46029E+07         0.00000E+00
    0.00000E+00         0.00000E+00        -0.11229E+07
 
   -0.10278E+07         0.23834E+07         0.00000E+00
    0.23834E+07        -0.45963E+07         0.00000E+00
    0.00000E+00         0.00000E+00        -0.11248E+07
 
   -0.10443E+07         0.24346E+07         0.00000E+00
    0.24346E+07        -0.45896E+07         0.00000E+00
    0.00000E+00         0.00000E+00        -0.11268E+07
 
   -0.10609E+07         0.24857E+07         0.00000E+00
    0.24857E+07        -0.45828E+07         0.00000E+00
    0.00000E+00         0.00000E+00        -0.11287E+07
 
   -0.10777E+07         0.25366E+07         0.00000E+00
    0.25366E+07        -0.45758E+07         0.00000E+00
    0.00000E+00         0.00000E+00        -0.11307E+07
 
   -0.10946E+07         0.25873E+07         0.00000E+00
    0.25873E+07        -0.45686E+07         0.00000E+00
    0.00000E+00         0.00000E+00        -0.11326E+07
 
   -0.11116E+07         0.26379E+07         0.00000E+00
    0.26379E+07        -0.45612E+07         0.00000E+00
    0.00000E+00         0.00000E+00        -0.11346E+07
 
   -0.11288E+07         0.26883E+07         0.00000E+00
    0.26883E+07        -0.45537E+07         0.00000E+00
    0.00000E+00         0.00000E+00        -0.11365E+07
 
   -0.46074E+06         0.29696E+05         0.00000E+00
    0.29696E+05        -0.50753E+07         0.00000E+00
    0.00000E+00         0.00000E+00        -0.11072E+07
 
   -0.47385E+06         0.88667E+05         0.00000E+00
    0.88667E+05        -0.50751E+07         0.00000E+00
    0.00000E+00         0.00000E+00        -0.11098E+07
 
   -0.48706E+06         0.14746E+06         0.00000E+00
    0.14746E+06        -0.50748E+07         0.00000E+00
    0.00000E+00         0.00000E+00        -0.11124E+07
 
   -0.50036E+06         0.20608E+06         0.00000E+00
    0.20608E+06        -0.50743E+07         0.00000E+00
    0.00000E+00         0.00000E+00        -0.11149E+07
 
   -0.51375E+06         0.26452E+06         0.00000E+00
    0.26452E+06        -0.50737E+07         0.00000E+00
    0.00000E+00         0.00000E+00        -0.11175E+07
 
   -0.52723E+06         0.32278E+06         0.00000E+00
    0.32278E+06        -0.50728E+07         0.00000E+00
    0.00000E+00         0.00000E+00        -0.11200E+07
 
   -0.54079E+06         0.38087E+06         0.00000E+00
    0.38087E+06        -0.50719E+07         0.00000E+00
    0.00000E+00         0.00000E+00        -0.11225E+07
 
   -0.55443E+06         0.43879E+06         0.00000E+00
    0.43879E+06        -0.50707E+07         0.00000E+00
    0.00000E+00         0.00000E+00        -0.11250E+07
 
   -0.56817E+06         0.49654E+06         0.00000E+00
    0.49654E+06        -0.50694E+07         0.00000E+00
    0.00000E+00         0.00000E+00        -0.11275E+07
 
   -0.58198E+06         0.55411E+06         0.00000E+00
    0.55411E+06        -0.50680E+07         0.00000E+00
    0.00000E+00         0.00000E+00        -0.11300E+07
 
   -0.59588E+06         0.61152E+06         0.00000E+00
    0.61152E+06        -0.50664E+07         0.00000E+00
    0.00000E+00         0.00000E+00        -0.11325E+07
 
   -0.60986E+06         0.66875E+06         0.00000E+00
    0.66875E+06        -0.50647E+07         0.00000E+00
    0.00000E+00         0.00000E+00        -0.11349E+07
 
   -0.62392E+06         0.72582E+06         0.00000E+00
    0.72582E+06        -0.50627E+07         0.00000E+00
    0.00000E+00         0.00000E+00        -0.11373E+07
 
   -0.63806E+06         0.78272E+06         0.00000E+00
    0.78272E+06        -0.50607E+07         0.00000E+00
    0.00000E+00         0.00000E+00        -0.11397E+07
 
   -0.65229E+06         0.83946E+06         0.00000E+00
    0.83946E+06        -0.50585E+07         0.00000E+00
    0.00000E+00         0.00000E+00        -0.11422E+07
 
   -0.66659E+06         0.89603E+06         0.00000E+00
    0.89603E+06        -0.50561E+07         0.00000E+00
    0.00000E+00         0.00000E+00        -0.11445E+07
 
   -0.68098E+06         0.95244E+06         0.00000E+00
    0.95244E+06        -0.50536E+07         0.00000E+00
    0.00000E+00         0.00000E+00        -0.11469E+07
 
   -0.69546E+06         0.10087E+07         0.00000E+00
    0.10087E+07        -0.50509E+07         0.00000E+00
    0.00000E+00         0.00000E+00        -0.11493E+07
 
   -0.71001E+06         0.10648E+07         0.00000E+00
    0.10648E+07        -0.50481E+07         0.00000E+00
    0.00000E+00         0.00000E+00        -0.11516E+07
 
   -0.72465E+06         0.11207E+07         0.00000E+00
    0.11207E+07        -0.50451E+07         0.00000E+00
    0.00000E+00         0.00000E+00        -0.11540E+07
 
   -0.73938E+06         0.11765E+07         0.00000E+00
    0.11765E+07        -0.50420E+07         0.00000E+00
    0.00000E+00         0.00000E+00        -0.11563E+07
 
   -0.75419E+06         0.12321E+07         0.00000E+00
    0.12321E+07        -0.50387E+07         0.00000E+00
    0.00000E+00         0.00000E+00        -0.11586E+07
 
   -0.76908E+06         0.12875E+07         0.00000E+00
    0.12875E+07        -0.50353E+07         0.00000E+00
    0.00000E+00         0.00000E+00        -0.11609E+07
 
   -0.78406E+06         0.13428E+07         0.00000E+00
    0.13428E+07        -0.50317E+07         0.00000E+00
    0.00000E+00         0.00000E+00        -0.11632E+07
 
   -0.79913E+06         0.13979E+07         0.00000E+00
    0.13979E+07        -0.50280E+07         0.00000E+00
    0.00000E+00         0.00000E+00        -0.11654E+07
 
   -0.81430E+06         0.14529E+07         0.00000E+00
    0.14529E+07        -0.50241E+07         0.00000E+00
    0.00000E+00         0.00000E+00        -0.11677E+07
 
   -0.82955E+06         0.15078E+07         0.00000E+00
    0.15078E+07        -0.50200E+07         0.00000E+00
    0.00000E+00         0.00000E+00        -0.11699E+07
 
   -0.84489E+06         0.15624E+07         0.00000E+00
    0.15624E+07        -0.50158E+07         0.00000E+00
    0.00000E+00         0.00000E+00        -0.11721E+07
 
   -0.86033E+06         0.16170E+07         0.00000E+00
    0.16170E+07        -0.50115E+07         0.00000E+00
    0.00000E+00         0.00000E+00        -0.11744E+07
 
   -0.87587E+06         0.16713E+07         0.00000E+00
    0.16713E+07        -0.50070E+07         0.00000E+00
    0.00000E+00         0.00000E+00        -0.11766E+07
 
   -0.89150E+06         0.17256E+07         0.00000E+00
    0.17256E+07        -0.50023E+07         0.00000E+00
    0.00000E+00         0.00000E+00        -0.11788E+07
 
   -0.90724E+06         0.17796E+07         0.00000E+00
    0.17796E+07        -0.49975E+07         0.00000E+00
    0.00000E+00         0.00000E+00        -0.11809E+07
 
   -0.92307E+06         0.18335E+07         0.00000E+00
    0.18335E+07        -0.49925E+07         0.00000E+00
    0.00000E+00         0.00000E+00        -0.11831E+07
 
   -0.93902E+06         0.18873E+07         0.00000E+00
    0.18873E+07        -0.49874E+07         0.00000E+00
    0.00000E+00         0.00000E+00        -0.11853E+07
 
   -0.95507E+06         0.19409E+07         0.00000E+00
    0.19409E+07        -0.49821E+07         0.00000E+00
    0.00000E+00         0.00000E+00        -0.11874E+07
 
   -0.97122E+06         0.19944E+07         0.00000E+00
    0.19944E+07        -0.49766E+07         0.00000E+00
    0.00000E+00         0.00000E+00        -0.11896E+07
 
   -0.98750E+06         0.20477E+07         0.00000E+00
    0.20477E+07        -0.49710E+07         0.00000E+00
    0.00000E+00         0.00000E+00        -0.11917E+07
 
   -0.10039E+07         0.21009E+07         0.00000E+00
    0.21009E+07        -0.49652E+07         0.00000E+00
    0.00000E+00         0.00000E+00        -0.11938E+07
 
   -0.10204E+07         0.21539E+07         0.00000E+00
    0.21539E+07        -0.49592E+07         0.00000E+00
    0.00000E+00         0.00000E+00        -0.11959E+07
 
   -0.10370E+07         0.22068E+07         0.00000E+00
    0.22068E+07        -0.49531E+07         0.00000E+00
    0.00000E+00         0.00000E+00        -0.11980E+07
 
   -0.10538E+07         0.22595E+07         0.00000E+00
    0.22595E+07        -0.49468E+07         0.00000E+00
    0.00000E+00         0.00000E+00        -0.12001E+07
 
   -0.10706E+07         0.23121E+07         0.00000E+00
    0.23121E+07        -0.49404E+07         0.00000E+00
    0.00000E+00         0.00000E+00        -0.12022E+07
 
   -0.10876E+07         0.23645E+07         0.00000E+00
    0.23645E+07        -0.49337E+07         0.00000E+00
    0.00000E+00         0.00000E+00        -0.12043E+07
 
   -0.11048E+07         0.24168E+07         0.00000E+00
    0.24168E+07        -0.49269E+07         0.00000E+00
    0.00000E+00         0.00000E+00        -0.12063E+07
 
   -0.11220E+07         0.24689E+07         0.00000E+00
    0.24689E+07        -0.49199E+07         0.00000E+00
    0.00000E+00         0.00000E+00        -0.12084E+07
 
   -0.11394E+07         0.25209E+07         0.00000E+00
    0.25209E+07        -0.49128E+07         0.00000E+00
    0.00000E+00         0.00000E+00        -0.12104E+07
 
   -0.11570E+07         0.25728E+07         0.00000E+00
    0.25728E+07        -0.49054E+07         0.00000E+00
    0.00000E+00         0.00000E+00        -0.12125E+07
 
   -0.11747E+07         0.26244E+07         0.00000E+00
    0.26244E+07        -0.48979E+07         0.00000E+00
    0.00000E+00         0.00000E+00        -0.12145E+07
 
   -0.11925E+07         0.26759E+07         0.00000E+00
    0.26759E+07        -0.48902E+07         0.00000E+00
    0.00000E+00         0.00000E+00        -0.12166E+07
 
   -0.12105E+07         0.27273E+07         0.00000E+00
    0.27273E+07        -0.48823E+07         0.00000E+00
    0.00000E+00         0.00000E+00        -0.12186E+07
 
   -0.50649E+06         0.30085E+05         0.00000E+00
    0.30085E+05        -0.54183E+07         0.00000E+00
    0.00000E+00         0.00000E+00        -0.11850E+07
 
   -0.52051E+06         0.89824E+05         0.00000E+00
    0.89824E+05        -0.54181E+07         0.00000E+00
    0.00000E+00         0.00000E+00        -0.11877E+07
 
   -0.53462E+06         0.14938E+06         0.00000E+00
    0.14938E+06        -0.54178E+07         0.00000E+00
    0.00000E+00         0.00000E+00        -0.11905E+07
 
   -0.54881E+06         0.20876E+06         0.00000E+00
    0.20876E+06        -0.54173E+07         0.00000E+00
    0.00000E+00         0.00000E+00        -0.11932E+07
 
   -0.56308E+06         0.26795E+06         0.00000E+00
    0.26795E+06        -0.54166E+07         0.00000E+00
    0.00000E+00         0.00000E+00        -0.11959E+07
 
   -0.57743E+06         0.32697E+06         0.00000E+00
    0.32697E+06        -0.54157E+07         0.00000E+00
    0.00000E+00         0.00000E+00        -0.11986E+07
 
   -0.59186E+06         0.38581E+06         0.00000E+00
    0.38581E+06        -0.54147E+07         0.00000E+00
    0.00000E+00         0.00000E+00        -0.12013E+07
 
   -0.60637E+06         0.44448E+06         0.00000E+00
    0.44448E+06        -0.54136E+07         0.00000E+00
    0.00000E+00         0.00000E+00        -0.12040E+07
 
   -0.62096E+06         0.50297E+06         0.00000E+00
    0.50297E+06        -0.54123E+07         0.00000E+00
    0.00000E+00         0.00000E+00        -0.12066E+07
 
   -0.63562E+06         0.56129E+06         0.00000E+00
    0.56129E+06        -0.54108E+07         0.00000E+00
    0.00000E+00         0.00000E+00        -0.12093E+07
 
   -0.65036E+06         0.61944E+06         0.00000E+00
    0.61944E+06        -0.54091E+07         0.00000E+00
    0.00000E+00         0.00000E+00        -0.12119E+07
 
   -0.66518E+06         0.67742E+06         0.00000E+00
    0.67742E+06        -0.54073E+07         0.00000E+00
    0.00000E+00         0.00000E+00        -0.12145E+07
 
   -0.68007E+06         0.73523E+06         0.00000E+00
    0.73523E+06        -0.54054E+07         0.00000E+00
    0.00000E+00         0.00000E+00        -0.12171E+07
 
   -0.69503E+06         0.79288E+06         0.00000E+00
    0.79288E+06        -0.54032E+07         0.00000E+00
    0.00000E+00         0.00000E+00        -0.12197E+07
 
   -0.71007E+06         0.85036E+06         0.00000E+00
    0.85036E+06        -0.54010E+07         0.00000E+00
    0.00000E+00         0.00000E+00        -0.12222E+07
 
   -0.72519E+06         0.90768E+06         0.00000E+00
    0.90768E+06        -0.53985E+07         0.00000E+00
    0.00000E+00         0.00000E+00        -0.12247E+07
 
   -0.74038E+06         0.96483E+06         0.00000E+00
    0.96483E+06        -0.53959E+07         0.00000E+00
    0.00000E+00         0.00000E+00        -0.12273E+07
 
   -0.75564E+06         0.10218E+07         0.00000E+00
    0.10218E+07        -0.53932E+07         0.00000E+00
    0.00000E+00         0.00000E+00        -0.12298E+07
 
   -0.77099E+06         0.10787E+07         0.00000E+00
    0.10787E+07        -0.53903E+07         0.00000E+00
    0.00000E+00         0.00000E+00        -0.12323E+07
 
   -0.78641E+06         0.11354E+07         0.00000E+00
    0.11354E+07        -0.53872E+07         0.00000E+00
    0.00000E+00         0.00000E+00        -0.12347E+07
 
   -0.80191E+06         0.11919E+07         0.00000E+00
    0.11919E+07        -0.53840E+07         0.00000E+00
    0.00000E+00         0.00000E+00        -0.12372E+07
 
   -0.81749E+06         0.12482E+07         0.00000E+00
    0.12482E+07        -0.53806E+07         0.00000E+00
    0.00000E+00         0.00000E+00        -0.12396E+07
 
   -0.83315E+06         0.13045E+07         0.00000E+00
    0.13045E+07        -0.53771E+07         0.00000E+00
    0.00000E+00         0.00000E+00        -0.12420E+07
 
   -0.84889E+06         0.13605E+07         0.00000E+00
    0.13605E+07        -0.53734E+07         0.00000E+00
    0.00000E+00         0.00000E+00        -0.12445E+07
 
   -0.86471E+06         0.14164E+07         0.00000E+00
    0.14164E+07        -0.53696E+07         0.00000E+00
    0.00000E+00         0.00000E+00        -0.12469E+07
 
   -0.88062E+06         0.14722E+07         0.00000E+00
    0.14722E+07        -0.53656E+07         0.00000E+00
    0.00000E+00         0.00000E+00        -0.12492E+07
 
   -0.89662E+06         0.15278E+07         0.00000E+00
    0.15278E+07        -0.53614E+07         0.00000E+00
    0.00000E+00         0.00000E+00        -0.12516E+07
 
   -0.91270E+06         0.15833E+07         0.00000E+00
    0.15833E+07        -0.53571E+07         0.00000E+00
    0.00000E+00         0.00000E+00        -0.12540E+07
 
   -0.92887E+06         0.16386E+07         0.00000E+00
    0.16386E+07        -0.53526E+07         0.00000E+00
    0.00000E+00         0.00000E+00        -0.12563E+07
 
   -0.94514E+06         0.16938E+07         0.00000E+00
    0.16938E+07        -0.53479E+07         0.00000E+00
    0.00000E+00         0.00000E+00        -0.12586E+07
 
   -0.96150E+06         0.17489E+07         0.00000E+00
    0.17489E+07        -0.53431E+07         0.00000E+00
    0.00000E+00         0.00000E+00        -0.12609E+07
 
   -0.97796E+06         0.18038E+07         0.00000E+00
    0.18038E+07        -0.53381E+07         0.00000E+00
    0.00000E+00         0.00000E+00        -0.12632E+07
 
   -0.99452E+06         0.18585E+07         0.00000E+00
    0.18585E+07        -0.53330E+07         0.00000E+00
    0.00000E+00         0.00000E+00        -0.12655E+07
 
   -0.10112E+07         0.19131E+07         0.00000E+00
    0.19131E+07        -0.53277E+07         0.00000E+00
    0.00000E+00         0.00000E+00        -0.12678E+07
 
   -0.10279E+07         0.19676E+07         0.00000E+00
    0.19676E+07        -0.53222E+07         0.00000E+00
    0.00000E+00         0.00000E+00        -0.12700E+07
 
   -0.10448E+07         0.20219E+07         0.00000E+00
    0.20219E+07        -0.53166E+07         0.00000E+00
    0.00000E+00         0.00000E+00        -0.12723E+07
 
   -0.10618E+07         0.20761E+07         0.00000E+00
    0.20761E+07        -0.53108E+07         0.00000E+00
    0.00000E+00         0.00000E+00        -0.12745E+07
 
   -0.10789E+07         0.21302E+07         0.00000E+00
    0.21302E+07        -0.53048E+07         0.00000E+00
    0.00000E+00         0.00000E+00        -0.12767E+07
 
   -0.10961E+07         0.21841E+07         0.00000E+00
    0.21841E+07        -0.52986E+07         0.00000E+00
    0.00000E+00         0.00000E+00        -0.12789E+07
 
   -0.11135E+07         0.22379E+07         0.00000E+00
    0.22379E+07        -0.52923E+07         0.00000E+00
    0.00000E+00         0.00000E+00        -0.12811E+07
 
   -0.11309E+07         0.22915E+07         0.00000E+00
    0.22915E+07        -0.52857E+07         0.00000E+00
    0.00000E+00         0.00000E+00        -0.12833E+07
 
   -0.11485E+07         0.23450E+07         0.00000E+00
    0.23450E+07        -0.52790E+07         0.00000E+00
    0.00000E+00         0.00000E+00        -0.12855E+07
 
   -0.11662E+07         0.23984E+07         0.00000E+00
    0.23984E+07        -0.52722E+07         0.00000E+00
    0.00000E+00         0.00000E+00        -0.12877E+07
 
   -0.11841E+07         0.24516E+07         0.00000E+00
    0.24516E+07        -0.52651E+07         0.00000E+00
    0.00000E+00         0.00000E+00        -0.12898E+07
 
   -0.12021E+07         0.25047E+07         0.00000E+00
    0.25047E+07        -0.52579E+07         0.00000E+00
    0.00000E+00         0.00000E+00        -0.12920E+07
 
   -0.12202E+07         0.25576E+07         0.00000E+00
    0.25576E+07        -0.52504E+07         0.00000E+00
    0.00000E+00         0.00000E+00        -0.12941E+07
 
   -0.12385E+07         0.26104E+07         0.00000E+00
    0.26104E+07        -0.52428E+07         0.00000E+00
    0.00000E+00         0.00000E+00        -0.12963E+07
 
   -0.12569E+07         0.26631E+07         0.00000E+00
    0.26631E+07        -0.52350E+07         0.00000E+00
    0.00000E+00         0.00000E+00        -0.12984E+07
 
   -0.12755E+07         0.27156E+07         0.00000E+00
    0.27156E+07        -0.52270E+07         0.00000E+00
    0.00000E+00         0.00000E+00        -0.13005E+07
 
   -0.12942E+07         0.27680E+07         0.00000E+00
    0.27680E+07        -0.52188E+07         0.00000E+00
    0.00000E+00         0.00000E+00        -0.13026E+07
 
   -0.55575E+06         0.30485E+05         0.00000E+00
    0.30485E+05        -0.57687E+07         0.00000E+00
    0.00000E+00         0.00000E+00        -0.12649E+07
 
   -0.57070E+06         0.91010E+05         0.00000E+00
    0.91010E+05        -0.57685E+07         0.00000E+00
    0.00000E+00         0.00000E+00        -0.12678E+07
 
   -0.58572E+06         0.15135E+06         0.00000E+00
    0.15135E+06        -0.57681E+07         0.00000E+00
    0.00000E+00         0.00000E+00        -0.12708E+07
 
   -0.60082E+06         0.21150E+06         0.00000E+00
    0.21150E+06        -0.57676E+07         0.00000E+00
    0.00000E+00         0.00000E+00        -0.12737E+07
 
   -0.61599E+06         0.27147E+06         0.00000E+00
    0.27147E+06        -0.57669E+07         0.00000E+00
    0.00000E+00         0.00000E+00        -0.12766E+07
 
   -0.63123E+06         0.33126E+06         0.00000E+00
    0.33126E+06        -0.57661E+07         0.00000E+00
    0.00000E+00         0.00000E+00        -0.12795E+07
 
   -0.64655E+06         0.39087E+06         0.00000E+00
    0.39087E+06        -0.57650E+07         0.00000E+00
    0.00000E+00         0.00000E+00        -0.12823E+07
 
   -0.66193E+06         0.45030E+06         0.00000E+00
    0.45030E+06        -0.57639E+07         0.00000E+00
    0.00000E+00         0.00000E+00        -0.12852E+07
 
   -0.67738E+06         0.50955E+06         0.00000E+00
    0.50955E+06        -0.57625E+07         0.00000E+00
    0.00000E+00         0.00000E+00        -0.12880E+07
 
   -0.69290E+06         0.56864E+06         0.00000E+00
    0.56864E+06        -0.57610E+07         0.00000E+00
    0.00000E+00         0.00000E+00        -0.12908E+07
 
   -0.70848E+06         0.62755E+06         0.00000E+00
    0.62755E+06        -0.57593E+07         0.00000E+00
    0.00000E+00         0.00000E+00        -0.12936E+07
 
   -0.72413E+06         0.68629E+06         0.00000E+00
    0.68629E+06        -0.57575E+07         0.00000E+00
    0.00000E+00         0.00000E+00        -0.12963E+07
 
   -0.73985E+06         0.74486E+06         0.00000E+00
    0.74486E+06        -0.57554E+07         0.00000E+00
    0.00000E+00         0.00000E+00        -0.12991E+07
 
   -0.75563E+06         0.80327E+06         0.00000E+00
    0.80327E+06        -0.57533E+07         0.00000E+00
    0.00000E+00         0.00000E+00        -0.13018E+07
 
   -0.77148E+06         0.86152E+06         0.00000E+00
    0.86152E+06        -0.57510E+07         0.00000E+00
    0.00000E+00         0.00000E+00        -0.13045E+07
 
   -0.78739E+06         0.91960E+06         0.00000E+00
    0.91960E+06        -0.57485E+07         0.00000E+00
    0.00000E+00         0.00000E+00        -0.13072E+07
 
   -0.80337E+06         0.97752E+06         0.00000E+00
    0.97752E+06        -0.57458E+07         0.00000E+00
    0.00000E+00         0.00000E+00        -0.13098E+07
 
   -0.81942E+06         0.10353E+07         0.00000E+00
    0.10353E+07        -0.57430E+07         0.00000E+00
    0.00000E+00         0.00000E+00        -0.13125E+07
 
   -0.83553E+06         0.10929E+07         0.00000E+00
    0.10929E+07        -0.57400E+07         0.00000E+00
    0.00000E+00         0.00000E+00        -0.13151E+07
 
   -0.85172E+06         0.11504E+07         0.00000E+00
    0.11504E+07        -0.57369E+07         0.00000E+00
    0.00000E+00         0.00000E+00        -0.13177E+07
 
   -0.86797E+06         0.12077E+07         0.00000E+00
    0.12077E+07        -0.57336E+07         0.00000E+00
    0.00000E+00         0.00000E+00        -0.13203E+07
 
   -0.88430E+06         0.12648E+07         0.00000E+00
    0.12648E+07        -0.57302E+07         0.00000E+00
    0.00000E+00         0.00000E+00        -0.13229E+07
 
   -0.90070E+06         0.13218E+07         0.00000E+00
    0.13218E+07        -0.57266E+07         0.00000E+00
    0.00000E+00         0.00000E+00        -0.13255E+07
 
   -0.91717E+06         0.13787E+07         0.00000E+00
    0.13787E+07        -0.57228E+07         0.00000E+00
    0.00000E+00         0.00000E+00        -0.13280E+07
 
   -0.93372E+06         0.14354E+07         0.00000E+00
    0.14354E+07        -0.57188E+07         0.00000E+00
    0.00000E+00         0.00000E+00        -0.13305E+07
 
   -0.95034E+06         0.14920E+07         0.00000E+00
    0.14920E+07        -0.57147E+07         0.00000E+00
    0.00000E+00         0.00000E+00        -0.13330E+07
 
   -0.96705E+06         0.15484E+07         0.00000E+00
    0.15484E+07        -0.57105E+07         0.00000E+00
    0.00000E+00         0.00000E+00        -0.13355E+07
 
   -0.98383E+06         0.16047E+07         0.00000E+00
    0.16047E+07        -0.57061E+07         0.00000E+00
    0.00000E+00         0.00000E+00        -0.13380E+07
 
   -0.10007E+07         0.16609E+07         0.00000E+00
    0.16609E+07        -0.57015E+07         0.00000E+00
    0.00000E+00         0.00000E+00        -0.13404E+07
 
   -0.10177E+07         0.17169E+07         0.00000E+00
    0.17169E+07        -0.56967E+07         0.00000E+00
    0.00000E+00         0.00000E+00        -0.13429E+07
 
   -0.10347E+07         0.17728E+07         0.00000E+00
    0.17728E+07        -0.56918E+07         0.00000E+00
    0.00000E+00         0.00000E+00        -0.13453E+07
 
   -0.10519E+07         0.18286E+07         0.00000E+00
    0.18286E+07        -0.56867E+07         0.00000E+00
    0.00000E+00         0.00000E+00        -0.13477E+07
 
   -0.10691E+07         0.18842E+07         0.00000E+00
    0.18842E+07        -0.56814E+07         0.00000E+00
    0.00000E+00         0.00000E+00        -0.13501E+07
 
   -0.10864E+07         0.19397E+07         0.00000E+00
    0.19397E+07        -0.56759E+07         0.00000E+00
    0.00000E+00         0.00000E+00        -0.13525E+07
 
   -0.11039E+07         0.19950E+07         0.00000E+00
    0.19950E+07        -0.56703E+07         0.00000E+00
    0.00000E+00         0.00000E+00        -0.13548E+07
 
   -0.11214E+07         0.20503E+07         0.00000E+00
    0.20503E+07        -0.56645E+07         0.00000E+00
    0.00000E+00         0.00000E+00        -0.13572E+07
 
   -0.11390E+07         0.21054E+07         0.00000E+00
    0.21054E+07        -0.56585E+07         0.00000E+00
    0.00000E+00         0.00000E+00        -0.13595E+07
 
   -0.11568E+07         0.21603E+07         0.00000E+00
    0.21603E+07        -0.56524E+07         0.00000E+00
    0.00000E+00         0.00000E+00        -0.13618E+07
 
   -0.11747E+07         0.22152E+07         0.00000E+00
    0.22152E+07        -0.56460E+07         0.00000E+00
    0.00000E+00         0.00000E+00        -0.13641E+07
 
   -0.11927E+07         0.22699E+07         0.00000E+00
    0.22699E+07        -0.56395E+07         0.00000E+00
    0.00000E+00         0.00000E+00        -0.13664E+07
 
   -0.12108E+07         0.23245E+07         0.00000E+00
    0.23245E+07        -0.56328E+07         0.00000E+00
    0.00000E+00         0.00000E+00        -0.13687E+07
 
   -0.12290E+07         0.23790E+07         0.00000E+00
    0.23790E+07        -0.56259E+07         0.00000E+00
    0.00000E+00         0.00000E+00        -0.13710E+07
 
   -0.12474E+07         0.24333E+07         0.00000E+00
    0.24333E+07        -0.56188E+07         0.00000E+00
    0.00000E+00         0.00000E+00        -0.13732E+07
 
   -0.12659E+07         0.24875E+07         0.00000E+00
    0.24875E+07        -0.56115E+07         0.00000E+00
    0.00000E+00         0.00000E+00        -0.13755E+07
 
   -0.12846E+07         0.25416E+07         0.00000E+00
    0.25416E+07        -0.56040E+07         0.00000E+00
    0.00000E+00         0.00000E+00        -0.13777E+07
 
   -0.13034E+07         0.25956E+07         0.00000E+00
    0.25956E+07        -0.55964E+07         0.00000E+00
    0.00000E+00         0.00000E+00        -0.13799E+07
 
   -0.13223E+07         0.26494E+07         0.00000E+00
    0.26494E+07        -0.55885E+07         0.00000E+00
    0.00000E+00         0.00000E+00        -0.13822E+07
 
   -0.13414E+07         0.27032E+07         0.00000E+00
    0.27032E+07        -0.55804E+07         0.00000E+00
    0.00000E+00         0.00000E+00        -0.13844E+07
 
   -0.13607E+07         0.27567E+07         0.00000E+00
    0.27567E+07        -0.55721E+07         0.00000E+00
    0.00000E+00         0.00000E+00        -0.13866E+07
 
   -0.13801E+07         0.28102E+07         0.00000E+00
    0.28102E+07        -0.55636E+07         0.00000E+00
    0.00000E+00         0.00000E+00        -0.13887E+07
 
   -0.60892E+06         0.30892E+05         0.00000E+00
    0.30892E+05        -0.61269E+07         0.00000E+00
    0.00000E+00         0.00000E+00        -0.13472E+07
 
   -0.62482E+06         0.92217E+05         0.00000E+00
    0.92217E+05        -0.61268E+07         0.00000E+00
    0.00000E+00         0.00000E+00        -0.13503E+07
 
   -0.64079E+06         0.15335E+06         0.00000E+00
    0.15335E+06        -0.61264E+07         0.00000E+00
    0.00000E+00         0.00000E+00        -0.13534E+07
 
   -0.65682E+06         0.21429E+06         0.00000E+00
    0.21429E+06        -0.61259E+07         0.00000E+00
    0.00000E+00         0.00000E+00        -0.13565E+07
 
   -0.67291E+06         0.27505E+06         0.00000E+00
    0.27505E+06        -0.61252E+07         0.00000E+00
    0.00000E+00         0.00000E+00        -0.13596E+07
 
   -0.68905E+06         0.33562E+06         0.00000E+00
    0.33562E+06        -0.61243E+07         0.00000E+00
    0.00000E+00         0.00000E+00        -0.13627E+07
 
   -0.70526E+06         0.39601E+06         0.00000E+00
    0.39601E+06        -0.61233E+07         0.00000E+00
    0.00000E+00         0.00000E+00        -0.13657E+07
 
   -0.72153E+06         0.45621E+06         0.00000E+00
    0.45621E+06        -0.61221E+07         0.00000E+00
    0.00000E+00         0.00000E+00        -0.13687E+07
 
   -0.73785E+06         0.51625E+06         0.00000E+00
    0.51625E+06        -0.61207E+07         0.00000E+00
    0.00000E+00         0.00000E+00        -0.13717E+07
 
   -0.75422E+06         0.57610E+06         0.00000E+00
    0.57610E+06        -0.61191E+07         0.00000E+00
    0.00000E+00         0.00000E+00        -0.13747E+07
 
   -0.77065E+06         0.63579E+06         0.00000E+00
    0.63579E+06        -0.61174E+07         0.00000E+00
    0.00000E+00         0.00000E+00        -0.13776E+07
 
   -0.78714E+06         0.69530E+06         0.00000E+00
    0.69530E+06        -0.61156E+07         0.00000E+00
    0.00000E+00         0.00000E+00        -0.13805E+07
 
   -0.80368E+06         0.75465E+06         0.00000E+00
    0.75465E+06        -0.61135E+07         0.00000E+00
    0.00000E+00         0.00000E+00        -0.13834E+07
 
   -0.82027E+06         0.81383E+06         0.00000E+00
    0.81383E+06        -0.61113E+07         0.00000E+00
    0.00000E+00         0.00000E+00        -0.13863E+07
 
   -0.83692E+06         0.87285E+06         0.00000E+00
    0.87285E+06        -0.61090E+07         0.00000E+00
    0.00000E+00         0.00000E+00        -0.13892E+07
 
   -0.85362E+06         0.93172E+06         0.00000E+00
    0.93172E+06        -0.61064E+07         0.00000E+00
    0.00000E+00         0.00000E+00        -0.13920E+07
 
   -0.87037E+06         0.99042E+06         0.00000E+00
    0.99042E+06        -0.61037E+07         0.00000E+00
    0.00000E+00         0.00000E+00        -0.13948E+07
 
   -0.88718E+06         0.10490E+07         0.00000E+00
    0.10490E+07        -0.61009E+07         0.00000E+00
    0.00000E+00         0.00000E+00        -0.13976E+07
 
   -0.90405E+06         0.11074E+07         0.00000E+00
    0.11074E+07        -0.60979E+07         0.00000E+00
    0.00000E+00         0.00000E+00        -0.14004E+07
 
   -0.92098E+06         0.11656E+07         0.00000E+00
    0.11656E+07        -0.60947E+07         0.00000E+00
    0.00000E+00         0.00000E+00        -0.14031E+07
 
   -0.93796E+06         0.12237E+07         0.00000E+00
    0.12237E+07        -0.60914E+07         0.00000E+00
    0.00000E+00         0.00000E+00        -0.14059E+07
 
   -0.95501E+06         0.12817E+07         0.00000E+00
    0.12817E+07        -0.60879E+07         0.00000E+00
    0.00000E+00         0.00000E+00        -0.14086E+07
 
   -0.97211E+06         0.13395E+07         0.00000E+00
    0.13395E+07        -0.60842E+07         0.00000E+00
    0.00000E+00         0.00000E+00        -0.14113E+07
 
   -0.98929E+06         0.13972E+07         0.00000E+00
    0.13972E+07        -0.60804E+07         0.00000E+00
    0.00000E+00         0.00000E+00        -0.14139E+07
 
   -0.10065E+07         0.14548E+07         0.00000E+00
    0.14548E+07        -0.60764E+07         0.00000E+00
    0.00000E+00         0.00000E+00        -0.14166E+07
 
   -0.10238E+07         0.15122E+07         0.00000E+00
    0.15122E+07        -0.60722E+07         0.00000E+00
    0.00000E+00         0.00000E+00        -0.14192E+07
 
   -0.10412E+07         0.15694E+07         0.00000E+00
    0.15694E+07        -0.60679E+07         0.00000E+00
    0.00000E+00         0.00000E+00        -0.14218E+07
 
   -0.10587E+07         0.16266E+07         0.00000E+00
    0.16266E+07        -0.60633E+07         0.00000E+00
    0.00000E+00         0.00000E+00        -0.14244E+07
 
   -0.10762E+07         0.16836E+07         0.00000E+00
    0.16836E+07        -0.60587E+07         0.00000E+00
    0.00000E+00         0.00000E+00        -0.14270E+07
 
   -0.10938E+07         0.17405E+07         0.00000E+00
    0.17405E+07        -0.60538E+07         0.00000E+00
    0.00000E+00         0.00000E+00        -0.14295E+07
 
   -0.11115E+07         0.17973E+07         0.00000E+00
    0.17973E+07        -0.60488E+07         0.00000E+00
    0.00000E+00         0.00000E+00        -0.14321E+07
 
   -0.11292E+07         0.18539E+07         0.00000E+00
    0.18539E+07        -0.60436E+07         0.00000E+00
    0.00000E+00         0.00000E+00        -0.14346E+07
 
   -0.11471E+07         0.19104E+07         0.00000E+00
    0.19104E+07        -0.60382E+07         0.00000E+00
    0.00000E+00         0.00000E+00        -0.14371E+07
 
   -0.11650E+07         0.19668E+07         0.00000E+00
    0.19668E+07        -0.60327E+07         0.00000E+00
    0.00000E+00         0.00000E+00        -0.14395E+07
 
   -0.11831E+07         0.20231E+07         0.00000E+00
    0.20231E+07        -0.60269E+07         0.00000E+00
    0.00000E+00         0.00000E+00        -0.14420E+07
 
   -0.12012E+07         0.20793E+07         0.00000E+00
    0.20793E+07        -0.60210E+07         0.00000E+00
    0.00000E+00         0.00000E+00        -0.14444E+07
 
   -0.12195E+07         0.21353E+07         0.00000E+00
    0.21353E+07        -0.60149E+07         0.00000E+00
    0.00000E+00         0.00000E+00        -0.14469E+07
 
   -0.12378E+07         0.21913E+07         0.00000E+00
    0.21913E+07        -0.60086E+07         0.00000E+00
    0.00000E+00         0.00000E+00        -0.14493E+07
 
   -0.12563E+07         0.22471E+07         0.00000E+00
    0.22471E+07        -0.60021E+07         0.00000E+00
    0.00000E+00         0.00000E+00        -0.14517E+07
 
   -0.12749E+07         0.23028E+07         0.00000E+00
    0.23028E+07        -0.59954E+07         0.00000E+00
    0.00000E+00         0.00000E+00        -0.14541E+07
 
   -0.12936E+07         0.23584E+07         0.00000E+00
    0.23584E+07        -0.59886E+07         0.00000E+00
    0.00000E+00         0.00000E+00        -0.14564E+07
 
   -0.13124E+07         0.24139E+07         0.00000E+00
    0.24139E+07        -0.59815E+07         0.00000E+00
    0.00000E+00         0.00000E+00        -0.14588E+07
 
   -0.13314E+07         0.24693E+07         0.00000E+00
    0.24693E+07        -0.59742E+07         0.00000E+00
    0.00000E+00         0.00000E+00        -0.14611E+07
 
   -0.13505E+07         0.25245E+07         0.00000E+00
    0.25245E+07        -0.59668E+07         0.00000E+00
    0.00000E+00         0.00000E+00        -0.14635E+07
 
   -0.13697E+07         0.25797E+07         0.00000E+00
    0.25797E+07        -0.59591E+07         0.00000E+00
    0.00000E+00         0.00000E+00        -0.14658E+07
 
   -0.13891E+07         0.26347E+07         0.00000E+00
    0.26347E+07        -0.59512E+07         0.00000E+00
    0.00000E+00         0.00000E+00        -0.14681E+07
 
   -0.14087E+07         0.26897E+07         0.00000E+00
    0.26897E+07        -0.59431E+07         0.00000E+00
    0.00000E+00         0.00000E+00        -0.14704E+07
 
   -0.14284E+07         0.27445E+07         0.00000E+00
    0.27445E+07        -0.59348E+07         0.00000E+00
    0.00000E+00         0.00000E+00        -0.14726E+07
 
   -0.14482E+07         0.27992E+07         0.00000E+00
    0.27992E+07        -0.59263E+07         0.00000E+00
    0.00000E+00         0.00000E+00        -0.14749E+07
 
   -0.14682E+07         0.28538E+07         0.00000E+00
    0.28538E+07        -0.59175E+07         0.00000E+00
    0.00000E+00         0.00000E+00        -0.14771E+07
 
   -0.66646E+06         0.31303E+05         0.00000E+00
    0.31303E+05        -0.64936E+07         0.00000E+00
    0.00000E+00         0.00000E+00        -0.14320E+07
 
   -0.68334E+06         0.93436E+05         0.00000E+00
    0.93436E+05        -0.64934E+07         0.00000E+00
    0.00000E+00         0.00000E+00        -0.14354E+07
 
   -0.70027E+06         0.15537E+06         0.00000E+00
    0.15537E+06        -0.64931E+07         0.00000E+00
    0.00000E+00         0.00000E+00        -0.14387E+07
 
   -0.71726E+06         0.21711E+06         0.00000E+00
    0.21711E+06        -0.64925E+07         0.00000E+00
    0.00000E+00         0.00000E+00        -0.14420E+07
 
   -0.73428E+06         0.27866E+06         0.00000E+00
    0.27866E+06        -0.64918E+07         0.00000E+00
    0.00000E+00         0.00000E+00        -0.14452E+07
 
   -0.75136E+06         0.34002E+06         0.00000E+00
    0.34002E+06        -0.64910E+07         0.00000E+00
    0.00000E+00         0.00000E+00        -0.14485E+07
 
   -0.76847E+06         0.40119E+06         0.00000E+00
    0.40119E+06        -0.64899E+07         0.00000E+00
    0.00000E+00         0.00000E+00        -0.14517E+07
 
   -0.78563E+06         0.46218E+06         0.00000E+00
    0.46218E+06        -0.64887E+07         0.00000E+00
    0.00000E+00         0.00000E+00        -0.14549E+07
 
   -0.80283E+06         0.52299E+06         0.00000E+00
    0.52299E+06        -0.64873E+07         0.00000E+00
    0.00000E+00         0.00000E+00        -0.14580E+07
 
   -0.82007E+06         0.58363E+06         0.00000E+00
    0.58363E+06        -0.64857E+07         0.00000E+00
    0.00000E+00         0.00000E+00        -0.14612E+07
 
   -0.83735E+06         0.64409E+06         0.00000E+00
    0.64409E+06        -0.64840E+07         0.00000E+00
    0.00000E+00         0.00000E+00        -0.14643E+07
 
   -0.85466E+06         0.70439E+06         0.00000E+00
    0.70439E+06        -0.64821E+07         0.00000E+00
    0.00000E+00         0.00000E+00        -0.14674E+07
 
   -0.87202E+06         0.76451E+06         0.00000E+00
    0.76451E+06        -0.64801E+07         0.00000E+00
    0.00000E+00         0.00000E+00        -0.14704E+07
 
   -0.88942E+06         0.82448E+06         0.00000E+00
    0.82448E+06        -0.64779E+07         0.00000E+00
    0.00000E+00         0.00000E+00        -0.14735E+07
 
   -0.90685E+06         0.88429E+06         0.00000E+00
    0.88429E+06        -0.64755E+07         0.00000E+00
    0.00000E+00         0.00000E+00        -0.14765E+07
 
   -0.92432E+06         0.94394E+06         0.00000E+00
    0.94394E+06        -0.64730E+07         0.00000E+00
    0.00000E+00         0.00000E+00        -0.14795E+07
 
   -0.94184E+06         0.10034E+07         0.00000E+00
    0.10034E+07        -0.64703E+07         0.00000E+00
    0.00000E+00         0.00000E+00        -0.14824E+07
 
   -0.95939E+06         0.10628E+07         0.00000E+00
    0.10628E+07        -0.64674E+07         0.00000E+00
    0.00000E+00         0.00000E+00        -0.14854E+07
 
   -0.97699E+06         0.11220E+07         0.00000E+00
    0.11220E+07        -0.64643E+07         0.00000E+00
    0.00000E+00         0.00000E+00        -0.14883E+07
 
   -0.99463E+06         0.11810E+07         0.00000E+00
    0.11810E+07        -0.64611E+07         0.00000E+00
    0.00000E+00         0.00000E+00        -0.14912E+07
 
   -0.10123E+07         0.12400E+07         0.00000E+00
    0.12400E+07        -0.64578E+07         0.00000E+00
    0.00000E+00         0.00000E+00        -0.14940E+07
 
   -0.10300E+07         0.12987E+07         0.00000E+00
    0.12987E+07        -0.64543E+07         0.00000E+00
    0.00000E+00         0.00000E+00        -0.14969E+07
 
   -0.10478E+07         0.13574E+07         0.00000E+00
    0.13574E+07        -0.64506E+07         0.00000E+00
    0.00000E+00         0.00000E+00        -0.14997E+07
 
   -0.10657E+07         0.14159E+07         0.00000E+00
    0.14159E+07        -0.64467E+07         0.00000E+00
    0.00000E+00         0.00000E+00        -0.15025E+07
 
   -0.10835E+07         0.14743E+07         0.00000E+00
    0.14743E+07        -0.64427E+07         0.00000E+00
    0.00000E+00         0.00000E+00        -0.15052E+07
 
   -0.11015E+07         0.15326E+07         0.00000E+00
    0.15326E+07        -0.64385E+07         0.00000E+00
    0.00000E+00         0.00000E+00        -0.15080E+07
 
   -0.11195E+07         0.15907E+07         0.00000E+00
    0.15907E+07        -0.64341E+07         0.00000E+00
    0.00000E+00         0.00000E+00        -0.15107E+07
 
   -0.11376E+07         0.16487E+07         0.00000E+00
    0.16487E+07        -0.64295E+07         0.00000E+00
    0.00000E+00         0.00000E+00        -0.15134E+07
 
   -0.11557E+07         0.17066E+07         0.00000E+00
    0.17066E+07        -0.64248E+07         0.00000E+00
    0.00000E+00         0.00000E+00        -0.15161E+07
 
   -0.11739E+07         0.17644E+07         0.00000E+00
    0.17644E+07        -0.64199E+07         0.00000E+00
    0.00000E+00         0.00000E+00        -0.15188E+07
 
   -0.11921E+07         0.18221E+07         0.00000E+00
    0.18221E+07        -0.64148E+07         0.00000E+00
    0.00000E+00         0.00000E+00        -0.15214E+07
 
   -0.12105E+07         0.18796E+07         0.00000E+00
    0.18796E+07        -0.64096E+07         0.00000E+00
    0.00000E+00         0.00000E+00        -0.15240E+07
 
   -0.12289E+07         0.19371E+07         0.00000E+00
    0.19371E+07        -0.64041E+07         0.00000E+00
    0.00000E+00         0.00000E+00        -0.15266E+07
 
   -0.12474E+07         0.19944E+07         0.00000E+00
    0.19944E+07        -0.63985E+07         0.00000E+00
    0.00000E+00         0.00000E+00        -0.15292E+07
 
   -0.12660E+07         0.20517E+07         0.00000E+00
    0.20517E+07        -0.63927E+07         0.00000E+00
    0.00000E+00         0.00000E+00        -0.15317E+07
 
   -0.12847E+07         0.21088E+07         0.00000E+00
    0.21088E+07        -0.63867E+07         0.00000E+00
    0.00000E+00         0.00000E+00        -0.15343E+07
 
   -0.13035E+07         0.21658E+07         0.00000E+00
    0.21658E+07        -0.63805E+07         0.00000E+00
    0.00000E+00         0.00000E+00        -0.15368E+07
 
   -0.13224E+07         0.22228E+07         0.00000E+00
    0.22228E+07        -0.63741E+07         0.00000E+00
    0.00000E+00         0.00000E+00        -0.15393E+07
 
   -0.13414E+07         0.22796E+07         0.00000E+00
    0.22796E+07        -0.63675E+07         0.00000E+00
    0.00000E+00         0.00000E+00        -0.15418E+07
 
   -0.13605E+07         0.23364E+07         0.00000E+00
    0.23364E+07        -0.63607E+07         0.00000E+00
    0.00000E+00         0.00000E+00        -0.15442E+07
 
   -0.13797E+07         0.23930E+07         0.00000E+00
    0.23930E+07        -0.63537E+07         0.00000E+00
    0.00000E+00         0.00000E+00        -0.15467E+07
 
   -0.13990E+07         0.24496E+07         0.00000E+00
    0.24496E+07        -0.63465E+07         0.00000E+00
    0.00000E+00         0.00000E+00        -0.15491E+07
 
   -0.14185E+07         0.25060E+07         0.00000E+00
    0.25060E+07        -0.63391E+07         0.00000E+00
    0.00000E+00         0.00000E+00        -0.15515E+07
 
   -0.14381E+07         0.25624E+07         0.00000E+00
    0.25624E+07        -0.63315E+07         0.00000E+00
    0.00000E+00         0.00000E+00        -0.15539E+07
 
   -0.14578E+07         0.26187E+07         0.00000E+00
    0.26187E+07        -0.63237E+07         0.00000E+00
    0.00000E+00         0.00000E+00        -0.15563E+07
 
   -0.14777E+07         0.26748E+07         0.00000E+00
    0.26748E+07        -0.63156E+07         0.00000E+00
    0.00000E+00         0.00000E+00        -0.15587E+07
 
   -0.14978E+07         0.27309E+07         0.00000E+00
    0.27309E+07        -0.63073E+07         0.00000E+00
    0.00000E+00         0.00000E+00        -0.15610E+07
 
   -0.15180E+07         0.27869E+07         0.00000E+00
    0.27869E+07        -0.62988E+07         0.00000E+00
    0.00000E+00         0.00000E+00        -0.15634E+07
 
   -0.15383E+07         0.28428E+07         0.00000E+00
    0.28428E+07        -0.62901E+07         0.00000E+00
    0.00000E+00         0.00000E+00        -0.15657E+07
 
   -0.15588E+07         0.28986E+07         0.00000E+00
    0.28986E+07        -0.62812E+07         0.00000E+00
    0.00000E+00         0.00000E+00        -0.15680E+07
 
   -0.72887E+06         0.31716E+05         0.00000E+00
    0.31716E+05        -0.68692E+07         0.00000E+00
    0.00000E+00         0.00000E+00        -0.15196E+07
 
   -0.74676E+06         0.94656E+05         0.00000E+00
    0.94656E+05        -0.68690E+07         0.00000E+00
    0.00000E+00         0.00000E+00        -0.15232E+07
 
   -0.76469E+06         0.15739E+06         0.00000E+00
    0.15739E+06        -0.68687E+07         0.00000E+00
    0.00000E+00         0.00000E+00        -0.15267E+07
 
   -0.78265E+06         0.21993E+06         0.00000E+00
    0.21993E+06        -0.68681E+07         0.00000E+00
    0.00000E+00         0.00000E+00        -0.15302E+07
 
   -0.80064E+06         0.28227E+06         0.00000E+00
    0.28227E+06        -0.68674E+07         0.00000E+00
    0.00000E+00         0.00000E+00        -0.15336E+07
 
   -0.81865E+06         0.34441E+06         0.00000E+00
    0.34441E+06        -0.68666E+07         0.00000E+00
    0.00000E+00         0.00000E+00        -0.15370E+07
 
   -0.83669E+06         0.40637E+06         0.00000E+00
    0.40637E+06        -0.68655E+07         0.00000E+00
    0.00000E+00         0.00000E+00        -0.15404E+07
 
   -0.85475E+06         0.46814E+06         0.00000E+00
    0.46814E+06        -0.68643E+07         0.00000E+00
    0.00000E+00         0.00000E+00        -0.15438E+07
 
   -0.87284E+06         0.52973E+06         0.00000E+00
    0.52973E+06        -0.68629E+07         0.00000E+00
    0.00000E+00         0.00000E+00        -0.15471E+07
 
   -0.89094E+06         0.59115E+06         0.00000E+00
    0.59115E+06        -0.68614E+07         0.00000E+00
    0.00000E+00         0.00000E+00        -0.15505E+07
 
   -0.90907E+06         0.65239E+06         0.00000E+00
    0.65239E+06        -0.68596E+07         0.00000E+00
    0.00000E+00         0.00000E+00        -0.15537E+07
 
   -0.92722E+06         0.71346E+06         0.00000E+00
    0.71346E+06        -0.68578E+07         0.00000E+00
    0.00000E+00         0.00000E+00        -0.15570E+07
 
   -0.94538E+06         0.77437E+06         0.00000E+00
    0.77437E+06        -0.68557E+07         0.00000E+00
    0.00000E+00         0.00000E+00        -0.15602E+07
 
   -0.96357E+06         0.83512E+06         0.00000E+00
    0.83512E+06        -0.68535E+07         0.00000E+00
    0.00000E+00         0.00000E+00        -0.15634E+07
 
   -0.98178E+06         0.89571E+06         0.00000E+00
    0.89571E+06        -0.68511E+07         0.00000E+00
    0.00000E+00         0.00000E+00        -0.15666E+07
 
   -0.10000E+07         0.95615E+06         0.00000E+00
    0.95615E+06        -0.68486E+07         0.00000E+00
    0.00000E+00         0.00000E+00        -0.15697E+07
 
   -0.10183E+07         0.10164E+07         0.00000E+00
    0.10164E+07        -0.68459E+07         0.00000E+00
    0.00000E+00         0.00000E+00        -0.15728E+07
 
   -0.10365E+07         0.10766E+07         0.00000E+00
    0.10766E+07        -0.68430E+07         0.00000E+00
    0.00000E+00         0.00000E+00        -0.15759E+07
 
   -0.10548E+07         0.11366E+07         0.00000E+00
    0.11366E+07        -0.68400E+07         0.00000E+00
    0.00000E+00         0.00000E+00        -0.15790E+07
 
   -0.10731E+07         0.11965E+07         0.00000E+00
    0.11965E+07        -0.68368E+07         0.00000E+00
    0.00000E+00         0.00000E+00        -0.15820E+07
 
   -0.10915E+07         0.12562E+07         0.00000E+00
    0.12562E+07        -0.68335E+07         0.00000E+00
    0.00000E+00         0.00000E+00        -0.15850E+07
 
   -0.11099E+07         0.13158E+07         0.00000E+00
    0.13158E+07        -0.68299E+07         0.00000E+00
    0.00000E+00         0.00000E+00        -0.15880E+07
 
   -0.11283E+07         0.13753E+07         0.00000E+00
    0.13753E+07        -0.68262E+07         0.00000E+00
    0.00000E+00         0.00000E+00        -0.15909E+07
 
   -0.11467E+07         0.14346E+07         0.00000E+00
    0.14346E+07        -0.68224E+07         0.00000E+00
    0.00000E+00         0.00000E+00        -0.15938E+07
 
   -0.11652E+07         0.14939E+07         0.00000E+00
    0.14939E+07        -0.68183E+07         0.00000E+00
    0.00000E+00         0.00000E+00        -0.15967E+07
 
   -0.11838E+07         0.15530E+07         0.00000E+00
    0.15530E+07        -0.68141E+07         0.00000E+00
    0.00000E+00         0.00000E+00        -0.15996E+07
 
   -0.12023E+07         0.16120E+07         0.00000E+00
    0.16120E+07        -0.68098E+07         0.00000E+00
    0.00000E+00         0.00000E+00        -0.16024E+07
 
   -0.12210E+07         0.16709E+07         0.00000E+00
    0.16709E+07        -0.68052E+07         0.00000E+00
    0.00000E+00         0.00000E+00        -0.16052E+07
 
   -0.12396E+07         0.17297E+07         0.00000E+00
    0.17297E+07        -0.68005E+07         0.00000E+00
    0.00000E+00         0.00000E+00        -0.16080E+07
 
   -0.12584E+07         0.17884E+07         0.00000E+00
    0.17884E+07        -0.67955E+07         0.00000E+00
    0.00000E+00         0.00000E+00        -0.16108E+07
 
   -0.12771E+07         0.18470E+07         0.00000E+00
    0.18470E+07        -0.67905E+07         0.00000E+00
    0.00000E+00         0.00000E+00        -0.16135E+07
 
   -0.12960E+07         0.19055E+07         0.00000E+00
    0.19055E+07        -0.67852E+07         0.00000E+00
    0.00000E+00         0.00000E+00        -0.16162E+07
 
   -0.13149E+07         0.19639E+07         0.00000E+00
    0.19639E+07        -0.67797E+07         0.00000E+00
    0.00000E+00         0.00000E+00        -0.16189E+07
 
   -0.13339E+07         0.20223E+07         0.00000E+00
    0.20223E+07        -0.67741E+07         0.00000E+00
    0.00000E+00         0.00000E+00        -0.16216E+07
 
   -0.13530E+07         0.20805E+07         0.00000E+00
    0.20805E+07        -0.67682E+07         0.00000E+00
    0.00000E+00         0.00000E+00        -0.16242E+07
 
   -0.13721E+07         0.21386E+07         0.00000E+00
    0.21386E+07        -0.67622E+07         0.00000E+00
    0.00000E+00         0.00000E+00        -0.16269E+07
 
   -0.13913E+07         0.21967E+07         0.00000E+00
    0.21967E+07        -0.67559E+07         0.00000E+00
    0.00000E+00         0.00000E+00        -0.16295E+07
 
   -0.14107E+07         0.22547E+07         0.00000E+00
    0.22547E+07        -0.67495E+07         0.00000E+00
    0.00000E+00         0.00000E+00        -0.16320E+07
 
   -0.14301E+07         0.23126E+07         0.00000E+00
    0.23126E+07        -0.67428E+07         0.00000E+00
    0.00000E+00         0.00000E+00        -0.16346E+07
 
   -0.14496E+07         0.23704E+07         0.00000E+00
    0.23704E+07        -0.67360E+07         0.00000E+00
    0.00000E+00         0.00000E+00        -0.16371E+07
 
   -0.14693E+07         0.24281E+07         0.00000E+00
    0.24281E+07        -0.67289E+07         0.00000E+00
    0.00000E+00         0.00000E+00        -0.16396E+07
 
   -0.14891E+07         0.24858E+07         0.00000E+00
    0.24858E+07        -0.67216E+07         0.00000E+00
    0.00000E+00         0.00000E+00        -0.16421E+07
 
   -0.15089E+07         0.25434E+07         0.00000E+00
    0.25434E+07        -0.67141E+07         0.00000E+00
    0.00000E+00         0.00000E+00        -0.16446E+07
 
   -0.15290E+07         0.26009E+07         0.00000E+00
    0.26009E+07        -0.67064E+07         0.00000E+00
    0.00000E+00         0.00000E+00        -0.16471E+07
 
   -0.15491E+07         0.26583E+07         0.00000E+00
    0.26583E+07        -0.66985E+07         0.00000E+00
    0.00000E+00         0.00000E+00        -0.16495E+07
 
   -0.15694E+07         0.27157E+07         0.00000E+00
    0.27157E+07        -0.66903E+07         0.00000E+00
    0.00000E+00         0.00000E+00        -0.16519E+07
 
   -0.15898E+07         0.27730E+07         0.00000E+00
    0.27730E+07        -0.66819E+07         0.00000E+00
    0.00000E+00         0.00000E+00        -0.16543E+07
 
   -0.16104E+07         0.28302E+07         0.00000E+00
    0.28302E+07        -0.66733E+07         0.00000E+00
    0.00000E+00         0.00000E+00        -0.16567E+07
 
   -0.16312E+07         0.28874E+07         0.00000E+00
    0.28874E+07        -0.66644E+07         0.00000E+00
    0.00000E+00         0.00000E+00        -0.16591E+07
 
   -0.16521E+07         0.29445E+07         0.00000E+00
    0.29445E+07        -0.66552E+07         0.00000E+00
    0.00000E+00         0.00000E+00        -0.16615E+07
 
   -0.79670E+06         0.32126E+05         0.00000E+00
    0.32126E+05        -0.72543E+07         0.00000E+00
    0.00000E+00         0.00000E+00        -0.16102E+07
 
   -0.81564E+06         0.95867E+05         0.00000E+00
    0.95867E+05        -0.72541E+07         0.00000E+00
    0.00000E+00         0.00000E+00        -0.16140E+07
 
   -0.83460E+06         0.15940E+06         0.00000E+00
    0.15940E+06        -0.72538E+07         0.00000E+00
    0.00000E+00         0.00000E+00        -0.16177E+07
 
   -0.85356E+06         0.22272E+06         0.00000E+00
    0.22272E+06        -0.72532E+07         0.00000E+00
    0.00000E+00         0.00000E+00        -0.16214E+07
 
   -0.87254E+06         0.28584E+06         0.00000E+00
    0.28584E+06        -0.72525E+07         0.00000E+00
    0.00000E+00         0.00000E+00        -0.16250E+07
 
   -0.89151E+06         0.34876E+06         0.00000E+00
    0.34876E+06        -0.72517E+07         0.00000E+00
    0.00000E+00         0.00000E+00        -0.16286E+07
 
   -0.91049E+06         0.41149E+06         0.00000E+00
    0.41149E+06        -0.72506E+07         0.00000E+00
    0.00000E+00         0.00000E+00        -0.16322E+07
 
   -0.92946E+06         0.47404E+06         0.00000E+00
    0.47404E+06        -0.72494E+07         0.00000E+00
    0.00000E+00         0.00000E+00        -0.16358E+07
 
   -0.94844E+06         0.53640E+06         0.00000E+00
    0.53640E+06        -0.72480E+07         0.00000E+00
    0.00000E+00         0.00000E+00        -0.16393E+07
 
   -0.96742E+06         0.59858E+06         0.00000E+00
    0.59858E+06        -0.72465E+07         0.00000E+00
    0.00000E+00         0.00000E+00        -0.16428E+07
 
   -0.98639E+06         0.66059E+06         0.00000E+00
    0.66059E+06        -0.72448E+07         0.00000E+00
    0.00000E+00         0.00000E+00        -0.16462E+07
 
   -0.10054E+07         0.72243E+06         0.00000E+00
    0.72243E+06        -0.72430E+07         0.00000E+00
    0.00000E+00         0.00000E+00        -0.16497E+07
 
   -0.10243E+07         0.78411E+06         0.00000E+00
    0.78411E+06        -0.72409E+07         0.00000E+00
    0.00000E+00         0.00000E+00        -0.16531E+07
 
   -0.10433E+07         0.84564E+06         0.00000E+00
    0.84564E+06        -0.72388E+07         0.00000E+00
    0.00000E+00         0.00000E+00        -0.16564E+07
 
   -0.10623E+07         0.90701E+06         0.00000E+00
    0.90701E+06        -0.72364E+07         0.00000E+00
    0.00000E+00         0.00000E+00        -0.16597E+07
 
   -0.10812E+07         0.96823E+06         0.00000E+00
    0.96823E+06        -0.72339E+07         0.00000E+00
    0.00000E+00         0.00000E+00        -0.16630E+07
 
   -0.11002E+07         0.10293E+07         0.00000E+00
    0.10293E+07        -0.72313E+07         0.00000E+00
    0.00000E+00         0.00000E+00        -0.16663E+07
 
   -0.11191E+07         0.10902E+07         0.00000E+00
    0.10902E+07        -0.72284E+07         0.00000E+00
    0.00000E+00         0.00000E+00        -0.16695E+07
 
   -0.11381E+07         0.11511E+07         0.00000E+00
    0.11511E+07        -0.72254E+07         0.00000E+00
    0.00000E+00         0.00000E+00        -0.16727E+07
 
   -0.11571E+07         0.12117E+07         0.00000E+00
    0.12117E+07        -0.72223E+07         0.00000E+00
    0.00000E+00         0.00000E+00        -0.16759E+07
 
   -0.11760E+07         0.12723E+07         0.00000E+00
    0.12723E+07        -0.72190E+07         0.00000E+00
    0.00000E+00         0.00000E+00        -0.16790E+07
 
   -0.11950E+07         0.13327E+07         0.00000E+00
    0.13327E+07        -0.72155E+07         0.00000E+00
    0.00000E+00         0.00000E+00        -0.16821E+07
 
   -0.12140E+07         0.13930E+07         0.00000E+00
    0.13930E+07        -0.72118E+07         0.00000E+00
    0.00000E+00         0.00000E+00        -0.16852E+07
 
   -0.12331E+07         0.14532E+07         0.00000E+00
    0.14532E+07        -0.72080E+07         0.00000E+00
    0.00000E+00         0.00000E+00        -0.16882E+07
 
   -0.12521E+07         0.15133E+07         0.00000E+00
    0.15133E+07        -0.72040E+07         0.00000E+00
    0.00000E+00         0.00000E+00        -0.16912E+07
 
   -0.12711E+07         0.15733E+07         0.00000E+00
    0.15733E+07        -0.71998E+07         0.00000E+00
    0.00000E+00         0.00000E+00        -0.16942E+07
 
   -0.12902E+07         0.16332E+07         0.00000E+00
    0.16332E+07        -0.71955E+07         0.00000E+00
    0.00000E+00         0.00000E+00        -0.16971E+07
 
   -0.13093E+07         0.16930E+07         0.00000E+00
    0.16930E+07        -0.71910E+07         0.00000E+00
    0.00000E+00         0.00000E+00        -0.17001E+07
 
   -0.13285E+07         0.17528E+07         0.00000E+00
    0.17528E+07        -0.71863E+07         0.00000E+00
    0.00000E+00         0.00000E+00        -0.17030E+07
 
   -0.13477E+07         0.18124E+07         0.00000E+00
    0.18124E+07        -0.71814E+07         0.00000E+00
    0.00000E+00         0.00000E+00        -0.17058E+07
 
   -0.13669E+07         0.18719E+07         0.00000E+00
    0.18719E+07        -0.71763E+07         0.00000E+00
    0.00000E+00         0.00000E+00        -0.17086E+07
 
   -0.13862E+07         0.19314E+07         0.00000E+00
    0.19314E+07        -0.71711E+07         0.00000E+00
    0.00000E+00         0.00000E+00        -0.17115E+07
 
   -0.14055E+07         0.19908E+07         0.00000E+00
    0.19908E+07        -0.71656E+07         0.00000E+00
    0.00000E+00         0.00000E+00        -0.17142E+07
 
   -0.14249E+07         0.20501E+07         0.00000E+00
    0.20501E+07        -0.71600E+07         0.00000E+00
    0.00000E+00         0.00000E+00        -0.17170E+07
 
   -0.14443E+07         0.21093E+07         0.00000E+00
    0.21093E+07        -0.71542E+07         0.00000E+00
    0.00000E+00         0.00000E+00        -0.17197E+07
 
   -0.14639E+07         0.21685E+07         0.00000E+00
    0.21685E+07        -0.71481E+07         0.00000E+00
    0.00000E+00         0.00000E+00        -0.17224E+07
 
   -0.14835E+07         0.22276E+07         0.00000E+00
    0.22276E+07        -0.71419E+07         0.00000E+00
    0.00000E+00         0.00000E+00        -0.17251E+07
 
   -0.15032E+07         0.22866E+07         0.00000E+00
    0.22866E+07        -0.71355E+07         0.00000E+00
    0.00000E+00         0.00000E+00        -0.17277E+07
 
   -0.15229E+07         0.23456E+07         0.00000E+00
    0.23456E+07        -0.71288E+07         0.00000E+00
    0.00000E+00         0.00000E+00        -0.17303E+07
 
   -0.15428E+07         0.24046E+07         0.00000E+00
    0.24046E+07        -0.71219E+07         0.00000E+00
    0.00000E+00         0.00000E+00        -0.17329E+07
 
   -0.15628E+07         0.24634E+07         0.00000E+00
    0.24634E+07        -0.71149E+07         0.00000E+00
    0.00000E+00         0.00000E+00        -0.17355E+07
 
   -0.15828E+07         0.25223E+07         0.00000E+00
    0.25223E+07        -0.71075E+07         0.00000E+00
    0.00000E+00         0.00000E+00        -0.17381E+07
 
   -0.16030E+07         0.25810E+07         0.00000E+00
    0.25810E+07        -0.71000E+07         0.00000E+00
    0.00000E+00         0.00000E+00        -0.17406E+07
 
   -0.16234E+07         0.26397E+07         0.00000E+00
    0.26397E+07        -0.70922E+07         0.00000E+00
    0.00000E+00         0.00000E+00        -0.17431E+07
 
   -0.16438E+07         0.26984E+07         0.00000E+00
    0.26984E+07        -0.70842E+07         0.00000E+00
    0.00000E+00         0.00000E+00        -0.17456E+07
 
   -0.16644E+07         0.27570E+07         0.00000E+00
    0.27570E+07        -0.70760E+07         0.00000E+00
    0.00000E+00         0.00000E+00        -0.17481E+07
 
   -0.16851E+07         0.28156E+07         0.00000E+00
    0.28156E+07        -0.70675E+07         0.00000E+00
    0.00000E+00         0.00000E+00        -0.17505E+07
 
   -0.17060E+07         0.28741E+07         0.00000E+00
    0.28741E+07        -0.70588E+07         0.00000E+00
    0.00000E+00         0.00000E+00        -0.17530E+07
 
   -0.17271E+07         0.29326E+07         0.00000E+00
    0.29326E+07        -0.70498E+07         0.00000E+00
    0.00000E+00         0.00000E+00        -0.17554E+07
 
   -0.17483E+07         0.29910E+07         0.00000E+00
    0.29910E+07        -0.70406E+07         0.00000E+00
    0.00000E+00         0.00000E+00        -0.17578E+07
 
   -0.87057E+06         0.32528E+05         0.00000E+00
    0.32528E+05        -0.76494E+07         0.00000E+00
    0.00000E+00         0.00000E+00        -0.17040E+07
 
   -0.89061E+06         0.97052E+05         0.00000E+00
    0.97052E+05        -0.76492E+07         0.00000E+00
    0.00000E+00         0.00000E+00        -0.17080E+07
 
   -0.91063E+06         0.16136E+06         0.00000E+00
    0.16136E+06        -0.76489E+07         0.00000E+00
    0.00000E+00         0.00000E+00        -0.17119E+07
 
   -0.93063E+06         0.22545E+06         0.00000E+00
    0.22545E+06        -0.76483E+07         0.00000E+00
    0.00000E+00         0.00000E+00        -0.17158E+07
 
   -0.95061E+06         0.28933E+06         0.00000E+00
    0.28933E+06        -0.76477E+07         0.00000E+00
    0.00000E+00         0.00000E+00        -0.17197E+07
 
   -0.97056E+06         0.35301E+06         0.00000E+00
    0.35301E+06        -0.76468E+07         0.00000E+00
    0.00000E+00         0.00000E+00        -0.17235E+07
 
   -0.99049E+06         0.41650E+06         0.00000E+00
    0.41650E+06        -0.76458E+07         0.00000E+00
    0.00000E+00         0.00000E+00        -0.17273E+07
 
   -0.10104E+07         0.47979E+06         0.00000E+00
    0.47979E+06        -0.76446E+07         0.00000E+00
    0.00000E+00         0.00000E+00        -0.17310E+07
 
   -0.10303E+07         0.54290E+06         0.00000E+00
    0.54290E+06        -0.76433E+07         0.00000E+00
    0.00000E+00         0.00000E+00        -0.17347E+07
 
   -0.10501E+07         0.60583E+06         0.00000E+00
    0.60583E+06        -0.76418E+07         0.00000E+00
    0.00000E+00         0.00000E+00        -0.17384E+07
 
   -0.10699E+07         0.66860E+06         0.00000E+00
    0.66860E+06        -0.76401E+07         0.00000E+00
    0.00000E+00         0.00000E+00        -0.17420E+07
 
   -0.10897E+07         0.73119E+06         0.00000E+00
    0.73119E+06        -0.76383E+07         0.00000E+00
    0.00000E+00         0.00000E+00        -0.17456E+07
 
   -0.11095E+07         0.79362E+06         0.00000E+00
    0.79362E+06        -0.76364E+07         0.00000E+00
    0.00000E+00         0.00000E+00        -0.17492E+07
 
   -0.11292E+07         0.85590E+06         0.00000E+00
    0.85590E+06        -0.76342E+07         0.00000E+00
    0.00000E+00         0.00000E+00        -0.17527E+07
 
   -0.11489E+07         0.91804E+06         0.00000E+00
    0.91804E+06        -0.76320E+07         0.00000E+00
    0.00000E+00         0.00000E+00        -0.17562E+07
 
   -0.11686E+07         0.98002E+06         0.00000E+00
    0.98002E+06        -0.76295E+07         0.00000E+00
    0.00000E+00         0.00000E+00        -0.17596E+07
 
   -0.11882E+07         0.10419E+07         0.00000E+00
    0.10419E+07        -0.76269E+07         0.00000E+00
    0.00000E+00         0.00000E+00        -0.17630E+07
 
   -0.12078E+07         0.11036E+07         0.00000E+00
    0.11036E+07        -0.76242E+07         0.00000E+00
    0.00000E+00         0.00000E+00        -0.17664E+07
 
   -0.12274E+07         0.11652E+07         0.00000E+00
    0.11652E+07        -0.76212E+07         0.00000E+00
    0.00000E+00         0.00000E+00        -0.17697E+07
 
   -0.12470E+07         0.12267E+07         0.00000E+00
    0.12267E+07        -0.76182E+07         0.00000E+00
    0.00000E+00         0.00000E+00        -0.17730E+07
 
   -0.12665E+07         0.12880E+07         0.00000E+00
    0.12880E+07        -0.76149E+07         0.00000E+00
    0.00000E+00         0.00000E+00        -0.17763E+07
 
   -0.12861E+07         0.13493E+07         0.00000E+00
    0.13493E+07        -0.76115E+07         0.00000E+00
    0.00000E+00         0.00000E+00        -0.17795E+07
 
   -0.13056E+07         0.14104E+07         0.00000E+00
    0.14104E+07        -0.76080E+07         0.00000E+00
    0.00000E+00         0.00000E+00        -0.17827E+07
 
   -0.13251E+07         0.14715E+07         0.00000E+00
    0.14715E+07        -0.76042E+07         0.00000E+00
    0.00000E+00         0.00000E+00        -0.17859E+07
 
   -0.13446E+07         0.15324E+07         0.00000E+00
    0.15324E+07        -0.76003E+07         0.00000E+00
    0.00000E+00         0.00000E+00        -0.17890E+07
 
   -0.13641E+07         0.15933E+07         0.00000E+00
    0.15933E+07        -0.75962E+07         0.00000E+00
    0.00000E+00         0.00000E+00        -0.17921E+07
 
   -0.13837E+07         0.16541E+07         0.00000E+00
    0.16541E+07        -0.75920E+07         0.00000E+00
    0.00000E+00         0.00000E+00        -0.17951E+07
 
   -0.14032E+07         0.17148E+07         0.00000E+00
    0.17148E+07        -0.75875E+07         0.00000E+00
    0.00000E+00         0.00000E+00        -0.17981E+07
 
   -0.14227E+07         0.17754E+07         0.00000E+00
    0.17754E+07        -0.75829E+07         0.00000E+00
    0.00000E+00         0.00000E+00        -0.18011E+07
 
   -0.14423E+07         0.18360E+07         0.00000E+00
    0.18360E+07        -0.75781E+07         0.00000E+00
    0.00000E+00         0.00000E+00        -0.18041E+07
 
   -0.14619E+07         0.18965E+07         0.00000E+00
    0.18965E+07        -0.75732E+07         0.00000E+00
    0.00000E+00         0.00000E+00        -0.18070E+07
 
   -0.14815E+07         0.19569E+07         0.00000E+00
    0.19569E+07        -0.75680E+07         0.00000E+00
    0.00000E+00         0.00000E+00        -0.18099E+07
 
   -0.15011E+07         0.20173E+07         0.00000E+00
    0.20173E+07        -0.75626E+07         0.00000E+00
    0.00000E+00         0.00000E+00        -0.18128E+07
 
   -0.15208E+07         0.20776E+07         0.00000E+00
    0.20776E+07        -0.75571E+07         0.00000E+00
    0.00000E+00         0.00000E+00        -0.18156E+07
 
   -0.15406E+07         0.21379E+07         0.00000E+00
    0.21379E+07        -0.75513E+07         0.00000E+00
    0.00000E+00         0.00000E+00        -0.18184E+07
 
   -0.15604E+07         0.21982E+07         0.00000E+00
    0.21982E+07        -0.75453E+07         0.00000E+00
    0.00000E+00         0.00000E+00        -0.18211E+07
 
   -0.15802E+07         0.22583E+07         0.00000E+00
    0.22583E+07        -0.75392E+07         0.00000E+00
    0.00000E+00         0.00000E+00        -0.18239E+07
 
   -0.16002E+07         0.23185E+07         0.00000E+00
    0.23185E+07        -0.75328E+07         0.00000E+00
    0.00000E+00         0.00000E+00        -0.18266E+07
 
   -0.16202E+07         0.23786E+07         0.00000E+00
    0.23786E+07        -0.75262E+07         0.00000E+00
    0.00000E+00         0.00000E+00        -0.18293E+07
 
   -0.16403E+07         0.24387E+07         0.00000E+00
    0.24387E+07        -0.75194E+07         0.00000E+00
    0.00000E+00         0.00000E+00        -0.18319E+07
 
   -0.16604E+07         0.24987E+07         0.00000E+00
    0.24987E+07        -0.75123E+07         0.00000E+00
    0.00000E+00         0.00000E+00        -0.18346E+07
 
   -0.16807E+07         0.25587E+07         0.00000E+00
    0.25587E+07        -0.75050E+07         0.00000E+00
    0.00000E+00         0.00000E+00        -0.18372E+07
 
   -0.17011E+07         0.26187E+07         0.00000E+00
    0.26187E+07        -0.74975E+07         0.00000E+00
    0.00000E+00         0.00000E+00        -0.18397E+07
 
   -0.17216E+07         0.26787E+07         0.00000E+00
    0.26787E+07        -0.74898E+07         0.00000E+00
    0.00000E+00         0.00000E+00        -0.18423E+07
 
   -0.17422E+07         0.27386E+07         0.00000E+00
    0.27386E+07        -0.74818E+07         0.00000E+00
    0.00000E+00         0.00000E+00        -0.18448E+07
 
   -0.17630E+07         0.27986E+07         0.00000E+00
    0.27986E+07        -0.74735E+07         0.00000E+00
    0.00000E+00         0.00000E+00        -0.18473E+07
 
   -0.17839E+07         0.28585E+07         0.00000E+00
    0.28585E+07        -0.74650E+07         0.00000E+00
    0.00000E+00         0.00000E+00        -0.18498E+07
 
   -0.18050E+07         0.29183E+07         0.00000E+00
    0.29183E+07        -0.74563E+07         0.00000E+00
    0.00000E+00         0.00000E+00        -0.18522E+07
 
   -0.18262E+07         0.29782E+07         0.00000E+00
    0.29782E+07        -0.74472E+07         0.00000E+00
    0.00000E+00         0.00000E+00        -0.18547E+07
 
   -0.18476E+07         0.30380E+07         0.00000E+00
    0.30380E+07        -0.74379E+07         0.00000E+00
    0.00000E+00         0.00000E+00        -0.18571E+07
 
   -0.95118E+06         0.32917E+05         0.00000E+00
    0.32917E+05        -0.80551E+07         0.00000E+00
    0.00000E+00         0.00000E+00        -0.18013E+07
 
   -0.97235E+06         0.98195E+05         0.00000E+00
    0.98195E+05        -0.80549E+07         0.00000E+00
    0.00000E+00         0.00000E+00        -0.18055E+07
 
   -0.99347E+06         0.16324E+06         0.00000E+00
    0.16324E+06        -0.80546E+07         0.00000E+00
    0.00000E+00         0.00000E+00        -0.18096E+07
 
   -0.10145E+07         0.22807E+06         0.00000E+00
    0.22807E+06        -0.80541E+07         0.00000E+00
    0.00000E+00         0.00000E+00        -0.18137E+07
 
   -0.10356E+07         0.29269E+06         0.00000E+00
    0.29269E+06        -0.80534E+07         0.00000E+00
    0.00000E+00         0.00000E+00        -0.18178E+07
 
   -0.10565E+07         0.35710E+06         0.00000E+00
    0.35710E+06        -0.80526E+07         0.00000E+00
    0.00000E+00         0.00000E+00        -0.18218E+07
 
   -0.10774E+07         0.42131E+06         0.00000E+00
    0.42131E+06        -0.80516E+07         0.00000E+00
    0.00000E+00         0.00000E+00        -0.18258E+07
 
   -0.10982E+07         0.48532E+06         0.00000E+00
    0.48532E+06        -0.80505E+07         0.00000E+00
    0.00000E+00         0.00000E+00        -0.18298E+07
 
   -0.11190E+07         0.54915E+06         0.00000E+00
    0.54915E+06        -0.80492E+07         0.00000E+00
    0.00000E+00         0.00000E+00        -0.18337E+07
 
   -0.11397E+07         0.61280E+06         0.00000E+00
    0.61280E+06        -0.80478E+07         0.00000E+00
    0.00000E+00         0.00000E+00        -0.18375E+07
 
   -0.11604E+07         0.67628E+06         0.00000E+00
    0.67628E+06        -0.80462E+07         0.00000E+00
    0.00000E+00         0.00000E+00        -0.18413E+07
 
   -0.11810E+07         0.73960E+06         0.00000E+00
    0.73960E+06        -0.80445E+07         0.00000E+00
    0.00000E+00         0.00000E+00        -0.18451E+07
 
   -0.12015E+07         0.80276E+06         0.00000E+00
    0.80276E+06        -0.80426E+07         0.00000E+00
    0.00000E+00         0.00000E+00        -0.18488E+07
 
   -0.12220E+07         0.86577E+06         0.00000E+00
    0.86577E+06        -0.80405E+07         0.00000E+00
    0.00000E+00         0.00000E+00        -0.18525E+07
 
   -0.12424E+07         0.92864E+06         0.00000E+00
    0.92864E+06        -0.80384E+07         0.00000E+00
    0.00000E+00         0.00000E+00        -0.18561E+07
 
   -0.12627E+07         0.99137E+06         0.00000E+00
    0.99137E+06        -0.80360E+07         0.00000E+00
    0.00000E+00         0.00000E+00        -0.18597E+07
 
   -0.12830E+07         0.10540E+07         0.00000E+00
    0.10540E+07        -0.80335E+07         0.00000E+00
    0.00000E+00         0.00000E+00        -0.18633E+07
 
   -0.13032E+07         0.11165E+07         0.00000E+00
    0.11165E+07        -0.80309E+07         0.00000E+00
    0.00000E+00         0.00000E+00        -0.18668E+07
 
   -0.13234E+07         0.11788E+07         0.00000E+00
    0.11788E+07        -0.80281E+07         0.00000E+00
    0.00000E+00         0.00000E+00        -0.18703E+07
 
   -0.13435E+07         0.12411E+07         0.00000E+00
    0.12411E+07        -0.80251E+07         0.00000E+00
    0.00000E+00         0.00000E+00        -0.18737E+07
 
   -0.13636E+07         0.13032E+07         0.00000E+00
    0.13032E+07        -0.80220E+07         0.00000E+00
    0.00000E+00         0.00000E+00        -0.18771E+07
 
   -0.13836E+07         0.13653E+07         0.00000E+00
    0.13653E+07        -0.80187E+07         0.00000E+00
    0.00000E+00         0.00000E+00        -0.18805E+07
 
   -0.14036E+07         0.14273E+07         0.00000E+00
    0.14273E+07        -0.80153E+07         0.00000E+00
    0.00000E+00         0.00000E+00        -0.18838E+07
 
   -0.14236E+07         0.14891E+07         0.00000E+00
    0.14891E+07        -0.80117E+07         0.00000E+00
    0.00000E+00         0.00000E+00        -0.18870E+07
 
   -0.14435E+07         0.15510E+07         0.00000E+00
    0.15510E+07        -0.80079E+07         0.00000E+00
    0.00000E+00         0.00000E+00        -0.18903E+07
 
   -0.14634E+07         0.16127E+07         0.00000E+00
    0.16127E+07        -0.80040E+07         0.00000E+00
    0.00000E+00         0.00000E+00        -0.18935E+07
 
   -0.14832E+07         0.16744E+07         0.00000E+00
    0.16744E+07        -0.79999E+07         0.00000E+00
    0.00000E+00         0.00000E+00        -0.18966E+07
 
   -0.15031E+07         0.17360E+07         0.00000E+00
    0.17360E+07        -0.79956E+07         0.00000E+00
    0.00000E+00         0.00000E+00        -0.18997E+07
 
   -0.15230E+07         0.17975E+07         0.00000E+00
    0.17975E+07        -0.79911E+07         0.00000E+00
    0.00000E+00         0.00000E+00        -0.19028E+07
 
   -0.15428E+07         0.18590E+07         0.00000E+00
    0.18590E+07        -0.79865E+07         0.00000E+00
    0.00000E+00         0.00000E+00        -0.19059E+07
 
   -0.15626E+07         0.19205E+07         0.00000E+00
    0.19205E+07        -0.79816E+07         0.00000E+00
    0.00000E+00         0.00000E+00        -0.19089E+07
 
   -0.15825E+07         0.19819E+07         0.00000E+00
    0.19819E+07        -0.79766E+07         0.00000E+00
    0.00000E+00         0.00000E+00        -0.19118E+07
 
   -0.16024E+07         0.20433E+07         0.00000E+00
    0.20433E+07        -0.79714E+07         0.00000E+00
    0.00000E+00         0.00000E+00        -0.19147E+07
 
   -0.16222E+07         0.21047E+07         0.00000E+00
    0.21047E+07        -0.79660E+07         0.00000E+00
    0.00000E+00         0.00000E+00        -0.19176E+07
 
   -0.16422E+07         0.21660E+07         0.00000E+00
    0.21660E+07        -0.79603E+07         0.00000E+00
    0.00000E+00         0.00000E+00        -0.19205E+07
 
   -0.16621E+07         0.22273E+07         0.00000E+00
    0.22273E+07        -0.79545E+07         0.00000E+00
    0.00000E+00         0.00000E+00        -0.19233E+07
 
   -0.16821E+07         0.22886E+07         0.00000E+00
    0.22886E+07        -0.79485E+07         0.00000E+00
    0.00000E+00         0.00000E+00        -0.19261E+07
 
   -0.17022E+07         0.23499E+07         0.00000E+00
    0.23499E+07        -0.79422E+07         0.00000E+00
    0.00000E+00         0.00000E+00        -0.19289E+07
 
   -0.17223E+07         0.24111E+07         0.00000E+00
    0.24111E+07        -0.79357E+07         0.00000E+00
    0.00000E+00         0.00000E+00        -0.19316E+07
 
   -0.17425E+07         0.24724E+07         0.00000E+00
    0.24724E+07        -0.79290E+07         0.00000E+00
    0.00000E+00         0.00000E+00        -0.19343E+07
 
   -0.17627E+07         0.25337E+07         0.00000E+00
    0.25337E+07        -0.79221E+07         0.00000E+00
    0.00000E+00         0.00000E+00        -0.19370E+07
 
   -0.17831E+07         0.25949E+07         0.00000E+00
    0.25949E+07        -0.79149E+07         0.00000E+00
    0.00000E+00         0.00000E+00        -0.19396E+07
 
   -0.18035E+07         0.26562E+07         0.00000E+00
    0.26562E+07        -0.79075E+07         0.00000E+00
    0.00000E+00         0.00000E+00        -0.19422E+07
 
   -0.18241E+07         0.27174E+07         0.00000E+00
    0.27174E+07        -0.78998E+07         0.00000E+00
    0.00000E+00         0.00000E+00        -0.19448E+07
 
   -0.18447E+07         0.27787E+07         0.00000E+00
    0.27787E+07        -0.78919E+07         0.00000E+00
    0.00000E+00         0.00000E+00        -0.19473E+07
 
   -0.18655E+07         0.28400E+07         0.00000E+00
    0.28400E+07        -0.78837E+07         0.00000E+00
    0.00000E+00         0.00000E+00        -0.19498E+07
 
   -0.18864E+07         0.29013E+07         0.00000E+00
    0.29013E+07        -0.78752E+07         0.00000E+00
    0.00000E+00         0.00000E+00        -0.19523E+07
 
   -0.19075E+07         0.29626E+07         0.00000E+00
    0.29626E+07        -0.78665E+07         0.00000E+00
    0.00000E+00         0.00000E+00        -0.19548E+07
 
   -0.19287E+07         0.30239E+07         0.00000E+00
    0.30239E+07        -0.78575E+07         0.00000E+00
    0.00000E+00         0.00000E+00        -0.19572E+07
 
   -0.19501E+07         0.30852E+07         0.00000E+00
    0.30852E+07        -0.78482E+07         0.00000E+00
    0.00000E+00         0.00000E+00        -0.19597E+07
 
   -0.10393E+07         0.33286E+05         0.00000E+00
    0.33286E+05        -0.84720E+07         0.00000E+00
    0.00000E+00         0.00000E+00        -0.19023E+07
 
   -0.10616E+07         0.99275E+05         0.00000E+00
    0.99275E+05        -0.84718E+07         0.00000E+00
    0.00000E+00         0.00000E+00        -0.19067E+07
 
   -0.10839E+07         0.16503E+06         0.00000E+00
    0.16503E+06        -0.84715E+07         0.00000E+00
    0.00000E+00         0.00000E+00        -0.19111E+07
 
   -0.11061E+07         0.23055E+06         0.00000E+00
    0.23055E+06        -0.84710E+07         0.00000E+00
    0.00000E+00         0.00000E+00        -0.19154E+07
 
   -0.11282E+07         0.29585E+06         0.00000E+00
    0.29585E+06        -0.84704E+07         0.00000E+00
    0.00000E+00         0.00000E+00        -0.19197E+07
 
   -0.11501E+07         0.36094E+06         0.00000E+00
    0.36094E+06        -0.84696E+07         0.00000E+00
    0.00000E+00         0.00000E+00        -0.19240E+07
 
   -0.11720E+07         0.42583E+06         0.00000E+00
    0.42583E+06        -0.84687E+07         0.00000E+00
    0.00000E+00         0.00000E+00        -0.19281E+07
 
   -0.11938E+07         0.49052E+06         0.00000E+00
    0.49052E+06        -0.84677E+07         0.00000E+00
    0.00000E+00         0.00000E+00        -0.19323E+07
 
   -0.12155E+07         0.55503E+06         0.00000E+00
    0.55503E+06        -0.84665E+07         0.00000E+00
    0.00000E+00         0.00000E+00        -0.19364E+07
 
   -0.12371E+07         0.61936E+06         0.00000E+00
    0.61936E+06        -0.84651E+07         0.00000E+00
    0.00000E+00         0.00000E+00        -0.19404E+07
 
   -0.12585E+07         0.68352E+06         0.00000E+00
    0.68352E+06        -0.84636E+07         0.00000E+00
    0.00000E+00         0.00000E+00        -0.19444E+07
 
   -0.12799E+07         0.74751E+06         0.00000E+00
    0.74751E+06        -0.84620E+07         0.00000E+00
    0.00000E+00         0.00000E+00        -0.19484E+07
 
   -0.13012E+07         0.81136E+06         0.00000E+00
    0.81136E+06        -0.84602E+07         0.00000E+00
    0.00000E+00         0.00000E+00        -0.19523E+07
 
   -0.13224E+07         0.87506E+06         0.00000E+00
    0.87506E+06        -0.84583E+07         0.00000E+00
    0.00000E+00         0.00000E+00        -0.19561E+07
 
   -0.13434E+07         0.93863E+06         0.00000E+00
    0.93863E+06        -0.84563E+07         0.00000E+00
    0.00000E+00         0.00000E+00        -0.19599E+07
 
   -0.13644E+07         0.10021E+07         0.00000E+00
    0.10021E+07        -0.84541E+07         0.00000E+00
    0.00000E+00         0.00000E+00        -0.19637E+07
 
   -0.13853E+07         0.10654E+07         0.00000E+00
    0.10654E+07        -0.84517E+07         0.00000E+00
    0.00000E+00         0.00000E+00        -0.19674E+07
 
   -0.14061E+07         0.11286E+07         0.00000E+00
    0.11286E+07        -0.84492E+07         0.00000E+00
    0.00000E+00         0.00000E+00        -0.19711E+07
 
   -0.14268E+07         0.11917E+07         0.00000E+00
    0.11917E+07        -0.84466E+07         0.00000E+00
    0.00000E+00         0.00000E+00        -0.19747E+07
 
   -0.14474E+07         0.12547E+07         0.00000E+00
    0.12547E+07        -0.84438E+07         0.00000E+00
    0.00000E+00         0.00000E+00        -0.19782E+07
 
   -0.14679E+07         0.13176E+07         0.00000E+00
    0.13176E+07        -0.84409E+07         0.00000E+00
    0.00000E+00         0.00000E+00        -0.19818E+07
 
   -0.14884E+07         0.13805E+07         0.00000E+00
    0.13805E+07        -0.84378E+07         0.00000E+00
    0.00000E+00         0.00000E+00        -0.19852E+07
 
   -0.15087E+07         0.14432E+07         0.00000E+00
    0.14432E+07        -0.84345E+07         0.00000E+00
    0.00000E+00         0.00000E+00        -0.19887E+07
 
   -0.15290E+07         0.15059E+07         0.00000E+00
    0.15059E+07        -0.84311E+07         0.00000E+00
    0.00000E+00         0.00000E+00        -0.19920E+07
 
   -0.15493E+07         0.15686E+07         0.00000E+00
    0.15686E+07        -0.84276E+07         0.00000E+00
    0.00000E+00         0.00000E+00        -0.19954E+07
 
   -0.15695E+07         0.16312E+07         0.00000E+00
    0.16312E+07        -0.84238E+07         0.00000E+00
    0.00000E+00         0.00000E+00        -0.19987E+07
 
   -0.15896E+07         0.16937E+07         0.00000E+00
    0.16937E+07        -0.84199E+07         0.00000E+00
    0.00000E+00         0.00000E+00        -0.20019E+07
 
   -0.16097E+07         0.17562E+07         0.00000E+00
    0.17562E+07        -0.84158E+07         0.00000E+00
    0.00000E+00         0.00000E+00        -0.20051E+07
 
   -0.16297E+07         0.18187E+07         0.00000E+00
    0.18187E+07        -0.84116E+07         0.00000E+00
    0.00000E+00         0.00000E+00        -0.20083E+07
 
   -0.16497E+07         0.18811E+07         0.00000E+00
    0.18811E+07        -0.84071E+07         0.00000E+00
    0.00000E+00         0.00000E+00        -0.20114E+07
 
   -0.16697E+07         0.19436E+07         0.00000E+00
    0.19436E+07        -0.84025E+07         0.00000E+00
    0.00000E+00         0.00000E+00        -0.20144E+07
 
   -0.16897E+07         0.20060E+07         0.00000E+00
    0.20060E+07        -0.83977E+07         0.00000E+00
    0.00000E+00         0.00000E+00        -0.20175E+07
 
   -0.17096E+07         0.20684E+07         0.00000E+00
    0.20684E+07        -0.83927E+07         0.00000E+00
    0.00000E+00         0.00000E+00        -0.20205E+07
 
   -0.17296E+07         0.21308E+07         0.00000E+00
    0.21308E+07        -0.83875E+07         0.00000E+00
    0.00000E+00         0.00000E+00        -0.20234E+07
 
   -0.17496E+07         0.21932E+07         0.00000E+00
    0.21932E+07        -0.83821E+07         0.00000E+00
    0.00000E+00         0.00000E+00        -0.20263E+07
 
   -0.17695E+07         0.22556E+07         0.00000E+00
    0.22556E+07        -0.83764E+07         0.00000E+00
    0.00000E+00         0.00000E+00        -0.20292E+07
 
   -0.17895E+07         0.23180E+07         0.00000E+00
    0.23180E+07        -0.83706E+07         0.00000E+00
    0.00000E+00         0.00000E+00        -0.20320E+07
 
   -0.18096E+07         0.23805E+07         0.00000E+00
    0.23805E+07        -0.83645E+07         0.00000E+00
    0.00000E+00         0.00000E+00        -0.20348E+07
 
   -0.18297E+07         0.24429E+07         0.00000E+00
    0.24429E+07        -0.83583E+07         0.00000E+00
    0.00000E+00         0.00000E+00        -0.20376E+07
 
   -0.18498E+07         0.25054E+07         0.00000E+00
    0.25054E+07        -0.83517E+07         0.00000E+00
    0.00000E+00         0.00000E+00        -0.20403E+07
 
   -0.18700E+07         0.25679E+07         0.00000E+00
    0.25679E+07        -0.83450E+07         0.00000E+00
    0.00000E+00         0.00000E+00        -0.20430E+07
 
   -0.18903E+07         0.26304E+07         0.00000E+00
    0.26304E+07        -0.83380E+07         0.00000E+00
    0.00000E+00         0.00000E+00        -0.20456E+07
 
   -0.19106E+07         0.26930E+07         0.00000E+00
    0.26930E+07        -0.83307E+07         0.00000E+00
    0.00000E+00         0.00000E+00        -0.20483E+07
 
   -0.19310E+07         0.27556E+07         0.00000E+00
    0.27556E+07        -0.83232E+07         0.00000E+00
    0.00000E+00         0.00000E+00        -0.20508E+07
 
   -0.19516E+07         0.28183E+07         0.00000E+00
    0.28183E+07        -0.83154E+07         0.00000E+00
    0.00000E+00         0.00000E+00        -0.20534E+07
 
   -0.19723E+07         0.28809E+07         0.00000E+00
    0.28809E+07        -0.83074E+07         0.00000E+00
    0.00000E+00         0.00000E+00        -0.20559E+07
 
   -0.19930E+07         0.29437E+07         0.00000E+00
    0.29437E+07        -0.82990E+07         0.00000E+00
    0.00000E+00         0.00000E+00        -0.20584E+07
 
   -0.20140E+07         0.30064E+07         0.00000E+00
    0.30064E+07        -0.82904E+07         0.00000E+00
    0.00000E+00         0.00000E+00        -0.20609E+07
 
   -0.20350E+07         0.30693E+07         0.00000E+00
    0.30693E+07        -0.82815E+07         0.00000E+00
    0.00000E+00         0.00000E+00        -0.20633E+07
 
   -0.20563E+07         0.31321E+07         0.00000E+00
    0.31321E+07        -0.82723E+07         0.00000E+00
    0.00000E+00         0.00000E+00        -0.20657E+07
 
   -0.11358E+07         0.33626E+05         0.00000E+00
    0.33626E+05        -0.89007E+07         0.00000E+00
    0.00000E+00         0.00000E+00        -0.20073E+07
 
   -0.11594E+07         0.10027E+06         0.00000E+00
    0.10027E+06        -0.89005E+07         0.00000E+00
    0.00000E+00         0.00000E+00        -0.20120E+07
 
   -0.11828E+07         0.16666E+06         0.00000E+00
    0.16666E+06        -0.89003E+07         0.00000E+00
    0.00000E+00         0.00000E+00        -0.20166E+07
 
   -0.12061E+07         0.23282E+06         0.00000E+00
    0.23282E+06        -0.88998E+07         0.00000E+00
    0.00000E+00         0.00000E+00        -0.20212E+07
 
   -0.12293E+07         0.29875E+06         0.00000E+00
    0.29875E+06        -0.88993E+07         0.00000E+00
    0.00000E+00         0.00000E+00        -0.20257E+07
 
   -0.12523E+07         0.36447E+06         0.00000E+00
    0.36447E+06        -0.88986E+07         0.00000E+00
    0.00000E+00         0.00000E+00        -0.20302E+07
 
   -0.12752E+07         0.42997E+06         0.00000E+00
    0.42997E+06        -0.88977E+07         0.00000E+00
    0.00000E+00         0.00000E+00        -0.20346E+07
 
   -0.12979E+07         0.49528E+06         0.00000E+00
    0.49528E+06        -0.88967E+07         0.00000E+00
    0.00000E+00         0.00000E+00        -0.20389E+07
 
   -0.13205E+07         0.56040E+06         0.00000E+00
    0.56040E+06        -0.88956E+07         0.00000E+00
    0.00000E+00         0.00000E+00        -0.20432E+07
 
   -0.13430E+07         0.62535E+06         0.00000E+00
    0.62535E+06        -0.88944E+07         0.00000E+00
    0.00000E+00         0.00000E+00        -0.20475E+07
 
   -0.13653E+07         0.69013E+06         0.00000E+00
    0.69013E+06        -0.88931E+07         0.00000E+00
    0.00000E+00         0.00000E+00        -0.20517E+07
 
   -0.13874E+07         0.75475E+06         0.00000E+00
    0.75475E+06        -0.88916E+07         0.00000E+00
    0.00000E+00         0.00000E+00        -0.20558E+07
 
   -0.14094E+07         0.81923E+06         0.00000E+00
    0.81923E+06        -0.88900E+07         0.00000E+00
    0.00000E+00         0.00000E+00        -0.20599E+07
 
   -0.14312E+07         0.88357E+06         0.00000E+00
    0.88357E+06        -0.88882E+07         0.00000E+00
    0.00000E+00         0.00000E+00        -0.20639E+07
 
   -0.14529E+07         0.94778E+06         0.00000E+00
    0.94778E+06        -0.88863E+07         0.00000E+00
    0.00000E+00         0.00000E+00        -0.20679E+07
 
   -0.14745E+07         0.10119E+07         0.00000E+00
    0.10119E+07        -0.88843E+07         0.00000E+00
    0.00000E+00         0.00000E+00        -0.20718E+07
 
   -0.14959E+07         0.10759E+07         0.00000E+00
    0.10759E+07        -0.88822E+07         0.00000E+00
    0.00000E+00         0.00000E+00        -0.20756E+07
 
   -0.15172E+07         0.11398E+07         0.00000E+00
    0.11398E+07        -0.88799E+07         0.00000E+00
    0.00000E+00         0.00000E+00        -0.20794E+07
 
   -0.15383E+07         0.12036E+07         0.00000E+00
    0.12036E+07        -0.88775E+07         0.00000E+00
    0.00000E+00         0.00000E+00        -0.20832E+07
 
   -0.15594E+07         0.12673E+07         0.00000E+00
    0.12673E+07        -0.88749E+07         0.00000E+00
    0.00000E+00         0.00000E+00        -0.20869E+07
 
   -0.15803E+07         0.13309E+07         0.00000E+00
    0.13309E+07        -0.88722E+07         0.00000E+00
    0.00000E+00         0.00000E+00        -0.20905E+07
 
   -0.16010E+07         0.13945E+07         0.00000E+00
    0.13945E+07        -0.88694E+07         0.00000E+00
    0.00000E+00         0.00000E+00        -0.20941E+07
 
   -0.16217E+07         0.14581E+07         0.00000E+00
    0.14581E+07        -0.88664E+07         0.00000E+00
    0.00000E+00         0.00000E+00        -0.20976E+07
 
   -0.16423E+07         0.15216E+07         0.00000E+00
    0.15216E+07        -0.88633E+07         0.00000E+00
    0.00000E+00         0.00000E+00        -0.21011E+07
 
   -0.16627E+07         0.15850E+07         0.00000E+00
    0.15850E+07        -0.88600E+07         0.00000E+00
    0.00000E+00         0.00000E+00        -0.21045E+07
 
   -0.16831E+07         0.16484E+07         0.00000E+00
    0.16484E+07        -0.88565E+07         0.00000E+00
    0.00000E+00         0.00000E+00        -0.21079E+07
 
   -0.17034E+07         0.17118E+07         0.00000E+00
    0.17118E+07        -0.88529E+07         0.00000E+00
    0.00000E+00         0.00000E+00        -0.21112E+07
 
   -0.17236E+07         0.17752E+07         0.00000E+00
    0.17752E+07        -0.88491E+07         0.00000E+00
    0.00000E+00         0.00000E+00        -0.21145E+07
 
   -0.17437E+07         0.18386E+07         0.00000E+00
    0.18386E+07        -0.88451E+07         0.00000E+00
    0.00000E+00         0.00000E+00        -0.21178E+07
 
   -0.17637E+07         0.19020E+07         0.00000E+00
    0.19020E+07        -0.88410E+07         0.00000E+00
    0.00000E+00         0.00000E+00        -0.21209E+07
 
   -0.17837E+07         0.19654E+07         0.00000E+00
    0.19654E+07        -0.88366E+07         0.00000E+00
    0.00000E+00         0.00000E+00        -0.21241E+07
 
   -0.18037E+07         0.20288E+07         0.00000E+00
    0.20288E+07        -0.88321E+07         0.00000E+00
    0.00000E+00         0.00000E+00        -0.21272E+07
 
   -0.18236E+07         0.20922E+07         0.00000E+00
    0.20922E+07        -0.88274E+07         0.00000E+00
    0.00000E+00         0.00000E+00        -0.21302E+07
 
   -0.18435E+07         0.21557E+07         0.00000E+00
    0.21557E+07        -0.88225E+07         0.00000E+00
    0.00000E+00         0.00000E+00        -0.21332E+07
 
   -0.18634E+07         0.22191E+07         0.00000E+00
    0.22191E+07        -0.88174E+07         0.00000E+00
    0.00000E+00         0.00000E+00        -0.21361E+07
 
   -0.18832E+07         0.22827E+07         0.00000E+00
    0.22827E+07        -0.88120E+07         0.00000E+00
    0.00000E+00         0.00000E+00        -0.21390E+07
 
   -0.19031E+07         0.23462E+07         0.00000E+00
    0.23462E+07        -0.88065E+07         0.00000E+00
    0.00000E+00         0.00000E+00        -0.21419E+07
 
   -0.19229E+07         0.24098E+07         0.00000E+00
    0.24098E+07        -0.88007E+07         0.00000E+00
    0.00000E+00         0.00000E+00        -0.21447E+07
 
   -0.19428E+07         0.24735E+07         0.00000E+00
    0.24735E+07        -0.87947E+07         0.00000E+00
    0.00000E+00         0.00000E+00        -0.21475E+07
 
   -0.19627E+07         0.25372E+07         0.00000E+00
    0.25372E+07        -0.87884E+07         0.00000E+00
    0.00000E+00         0.00000E+00        -0.21502E+07
 
   -0.19827E+07         0.26010E+07         0.00000E+00
    0.26010E+07        -0.87819E+07         0.00000E+00
    0.00000E+00         0.00000E+00        -0.21529E+07
 
   -0.20027E+07         0.26649E+07         0.00000E+00
    0.26649E+07        -0.87752E+07         0.00000E+00
    0.00000E+00         0.00000E+00        -0.21556E+07
 
   -0.20228E+07         0.27288E+07         0.00000E+00
    0.27288E+07        -0.87682E+07         0.00000E+00
    0.00000E+00         0.00000E+00        -0.21582E+07
 
   -0.20429E+07         0.27928E+07         0.00000E+00
    0.27928E+07        -0.87609E+07         0.00000E+00
    0.00000E+00         0.00000E+00        -0.21608E+07
 
   -0.20632E+07         0.28569E+07         0.00000E+00
    0.28569E+07        -0.87534E+07         0.00000E+00
    0.00000E+00         0.00000E+00        -0.21633E+07
 
   -0.20835E+07         0.29210E+07         0.00000E+00
    0.29210E+07        -0.87456E+07         0.00000E+00
    0.00000E+00         0.00000E+00        -0.21658E+07
 
   -0.21040E+07         0.29853E+07         0.00000E+00
    0.29853E+07        -0.87374E+07         0.00000E+00
    0.00000E+00         0.00000E+00        -0.21683E+07
 
   -0.21246E+07         0.30496E+07         0.00000E+00
    0.30496E+07        -0.87290E+07         0.00000E+00
    0.00000E+00         0.00000E+00        -0.21707E+07
 
   -0.21453E+07         0.31140E+07         0.00000E+00
    0.31140E+07        -0.87203E+07         0.00000E+00
    0.00000E+00         0.00000E+00        -0.21731E+07
 
   -0.21662E+07         0.31785E+07         0.00000E+00
    0.31785E+07        -0.87113E+07         0.00000E+00
    0.00000E+00         0.00000E+00        -0.21755E+07
 
   -0.12416E+07         0.33930E+05         0.00000E+00
    0.33930E+05        -0.93419E+07         0.00000E+00
    0.00000E+00         0.00000E+00        -0.21167E+07
 
   -0.12665E+07         0.10115E+06         0.00000E+00
    0.10115E+06        -0.93417E+07         0.00000E+00
    0.00000E+00         0.00000E+00        -0.21216E+07
 
   -0.12912E+07         0.16811E+06         0.00000E+00
    0.16811E+06        -0.93415E+07         0.00000E+00
    0.00000E+00         0.00000E+00        -0.21265E+07
 
   -0.13157E+07         0.23482E+06         0.00000E+00
    0.23482E+06        -0.93411E+07         0.00000E+00
    0.00000E+00         0.00000E+00        -0.21314E+07
 
   -0.13400E+07         0.30130E+06         0.00000E+00
    0.30130E+06        -0.93406E+07         0.00000E+00
    0.00000E+00         0.00000E+00        -0.21361E+07
 
   -0.13641E+07         0.36756E+06         0.00000E+00
    0.36756E+06        -0.93400E+07         0.00000E+00
    0.00000E+00         0.00000E+00        -0.21408E+07
 
   -0.13880E+07         0.43360E+06         0.00000E+00
    0.43360E+06        -0.93392E+07         0.00000E+00
    0.00000E+00         0.00000E+00        -0.21454E+07
 
   -0.14116E+07         0.49945E+06         0.00000E+00
    0.49945E+06        -0.93384E+07         0.00000E+00
    0.00000E+00         0.00000E+00        -0.21500E+07
 
   -0.14351E+07         0.56511E+06         0.00000E+00
    0.56511E+06        -0.93374E+07         0.00000E+00
    0.00000E+00         0.00000E+00        -0.21545E+07
 
   -0.14584E+07         0.63060E+06         0.00000E+00
    0.63060E+06        -0.93364E+07         0.00000E+00
    0.00000E+00         0.00000E+00        -0.21590E+07
 
   -0.14815E+07         0.69593E+06         0.00000E+00
    0.69593E+06        -0.93352E+07         0.00000E+00
    0.00000E+00         0.00000E+00        -0.21633E+07
 
   -0.15044E+07         0.76111E+06         0.00000E+00
    0.76111E+06        -0.93339E+07         0.00000E+00
    0.00000E+00         0.00000E+00        -0.21677E+07
 
   -0.15270E+07         0.82614E+06         0.00000E+00
    0.82614E+06        -0.93325E+07         0.00000E+00
    0.00000E+00         0.00000E+00        -0.21719E+07
 
   -0.15495E+07         0.89106E+06         0.00000E+00
    0.89106E+06        -0.93309E+07         0.00000E+00
    0.00000E+00         0.00000E+00        -0.21761E+07
 
   -0.15718E+07         0.95585E+06         0.00000E+00
    0.95585E+06        -0.93293E+07         0.00000E+00
    0.00000E+00         0.00000E+00        -0.21802E+07
 
   -0.15939E+07         0.10205E+07         0.00000E+00
    0.10205E+07        -0.93275E+07         0.00000E+00
    0.00000E+00         0.00000E+00        -0.21843E+07
 
   -0.16158E+07         0.10851E+07         0.00000E+00
    0.10851E+07        -0.93257E+07         0.00000E+00
    0.00000E+00         0.00000E+00        -0.21883E+07
 
   -0.16375E+07         0.11497E+07         0.00000E+00
    0.11497E+07        -0.93237E+07         0.00000E+00
    0.00000E+00         0.00000E+00        -0.21922E+07
 
   -0.16590E+07         0.12141E+07         0.00000E+00
    0.12141E+07        -0.93215E+07         0.00000E+00
    0.00000E+00         0.00000E+00        -0.21961E+07
 
   -0.16803E+07         0.12785E+07         0.00000E+00
    0.12785E+07        -0.93193E+07         0.00000E+00
    0.00000E+00         0.00000E+00        -0.21999E+07
 
   -0.17015E+07         0.13428E+07         0.00000E+00
    0.13428E+07        -0.93169E+07         0.00000E+00
    0.00000E+00         0.00000E+00        -0.22037E+07
 
   -0.17225E+07         0.14071E+07         0.00000E+00
    0.14071E+07        -0.93144E+07         0.00000E+00
    0.00000E+00         0.00000E+00        -0.22074E+07
 
   -0.17434E+07         0.14714E+07         0.00000E+00
    0.14714E+07        -0.93117E+07         0.00000E+00
    0.00000E+00         0.00000E+00        -0.22110E+07
 
   -0.17641E+07         0.15356E+07         0.00000E+00
    0.15356E+07        -0.93089E+07         0.00000E+00
    0.00000E+00         0.00000E+00        -0.22146E+07
 
   -0.17846E+07         0.15998E+07         0.00000E+00
    0.15998E+07        -0.93060E+07         0.00000E+00
    0.00000E+00         0.00000E+00        -0.22181E+07
 
   -0.18050E+07         0.16641E+07         0.00000E+00
    0.16641E+07        -0.93029E+07         0.00000E+00
    0.00000E+00         0.00000E+00        -0.22216E+07
 
   -0.18253E+07         0.17283E+07         0.00000E+00
    0.17283E+07        -0.92996E+07         0.00000E+00
    0.00000E+00         0.00000E+00        -0.22250E+07
 
   -0.18455E+07         0.17926E+07         0.00000E+00
    0.17926E+07        -0.92962E+07         0.00000E+00
    0.00000E+00         0.00000E+00        -0.22283E+07
 
   -0.18655E+07         0.18568E+07         0.00000E+00
    0.18568E+07        -0.92926E+07         0.00000E+00
    0.00000E+00         0.00000E+00        -0.22316E+07
 
   -0.18855E+07         0.19211E+07         0.00000E+00
    0.19211E+07        -0.92888E+07         0.00000E+00
    0.00000E+00         0.00000E+00        -0.22349E+07
 
   -0.19054E+07         0.19855E+07         0.00000E+00
    0.19855E+07        -0.92849E+07         0.00000E+00
    0.00000E+00         0.00000E+00        -0.22380E+07
 
   -0.19252E+07         0.20499E+07         0.00000E+00
    0.20499E+07        -0.92807E+07         0.00000E+00
    0.00000E+00         0.00000E+00        -0.22412E+07
 
   -0.19449E+07         0.21143E+07         0.00000E+00
    0.21143E+07        -0.92764E+07         0.00000E+00
    0.00000E+00         0.00000E+00        -0.22442E+07
 
   -0.19645E+07         0.21788E+07         0.00000E+00
    0.21788E+07        -0.92719E+07         0.00000E+00
    0.00000E+00         0.00000E+00        -0.22473E+07
 
   -0.19841E+07         0.22434E+07         0.00000E+00
    0.22434E+07        -0.92671E+07         0.00000E+00
    0.00000E+00         0.00000E+00        -0.22502E+07
 
   -0.20037E+07         0.23080E+07         0.00000E+00
    0.23080E+07        -0.92622E+07         0.00000E+00
    0.00000E+00         0.00000E+00        -0.22532E+07
 
   -0.20232E+07         0.23728E+07         0.00000E+00
    0.23728E+07        -0.92570E+07         0.00000E+00
    0.00000E+00         0.00000E+00        -0.22560E+07
 
   -0.20427E+07         0.24376E+07         0.00000E+00
    0.24376E+07        -0.92516E+07         0.00000E+00
    0.00000E+00         0.00000E+00        -0.22589E+07
 
   -0.20622E+07         0.25025E+07         0.00000E+00
    0.25025E+07        -0.92460E+07         0.00000E+00
    0.00000E+00         0.00000E+00        -0.22616E+07
 
   -0.20817E+07         0.25675E+07         0.00000E+00
    0.25675E+07        -0.92401E+07         0.00000E+00
    0.00000E+00         0.00000E+00        -0.22644E+07
 
   -0.21013E+07         0.26326E+07         0.00000E+00
    0.26326E+07        -0.92339E+07         0.00000E+00
    0.00000E+00         0.00000E+00        -0.22670E+07
 
   -0.21209E+07         0.26978E+07         0.00000E+00
    0.26978E+07        -0.92276E+07         0.00000E+00
    0.00000E+00         0.00000E+00        -0.22697E+07
 
   -0.21405E+07         0.27631E+07         0.00000E+00
    0.27631E+07        -0.92209E+07         0.00000E+00
    0.00000E+00         0.00000E+00        -0.22723E+07
 
   -0.21602E+07         0.28285E+07         0.00000E+00
    0.28285E+07        -0.92140E+07         0.00000E+00
    0.00000E+00         0.00000E+00        -0.22748E+07
 
   -0.21799E+07         0.28941E+07         0.00000E+00
    0.28941E+07        -0.92068E+07         0.00000E+00
    0.00000E+00         0.00000E+00        -0.22773E+07
 
   -0.21997E+07         0.29598E+07         0.00000E+00
    0.29598E+07        -0.91993E+07         0.00000E+00
    0.00000E+00         0.00000E+00        -0.22798E+07
 
   -0.22197E+07         0.30256E+07         0.00000E+00
    0.30256E+07        -0.91915E+07         0.00000E+00
    0.00000E+00         0.00000E+00        -0.22822E+07
 
   -0.22397E+07         0.30915E+07         0.00000E+00
    0.30915E+07        -0.91833E+07         0.00000E+00
    0.00000E+00         0.00000E+00        -0.22846E+07
 
   -0.22599E+07         0.31576E+07         0.00000E+00
    0.31576E+07        -0.91749E+07         0.00000E+00
    0.00000E+00         0.00000E+00        -0.22870E+07
 
   -0.22802E+07         0.32237E+07         0.00000E+00
    0.32237E+07        -0.91662E+07         0.00000E+00
    0.00000E+00         0.00000E+00        -0.22893E+07
 
   -0.13579E+07         0.34184E+05         0.00000E+00
    0.34184E+05        -0.97962E+07         0.00000E+00
    0.00000E+00         0.00000E+00        -0.22308E+07
 
   -0.13841E+07         0.10188E+06         0.00000E+00
    0.10188E+06        -0.97961E+07         0.00000E+00
    0.00000E+00         0.00000E+00        -0.22360E+07
 
   -0.14101E+07         0.16930E+06         0.00000E+00
    0.16930E+06        -0.97958E+07         0.00000E+00
    0.00000E+00         0.00000E+00        -0.22412E+07
 
   -0.14358E+07         0.23647E+06         0.00000E+00
    0.23647E+06        -0.97955E+07         0.00000E+00
    0.00000E+00         0.00000E+00        -0.22463E+07
 
   -0.14613E+07         0.30339E+06         0.00000E+00
    0.30339E+06        -0.97951E+07         0.00000E+00
    0.00000E+00         0.00000E+00        -0.22513E+07
 
   -0.14865E+07         0.37009E+06         0.00000E+00
    0.37009E+06        -0.97946E+07         0.00000E+00
    0.00000E+00         0.00000E+00        -0.22562E+07
 
   -0.15114E+07         0.43658E+06         0.00000E+00
    0.43658E+06        -0.97940E+07         0.00000E+00
    0.00000E+00         0.00000E+00        -0.22611E+07
 
   -0.15360E+07         0.50287E+06         0.00000E+00
    0.50287E+06        -0.97933E+07         0.00000E+00
    0.00000E+00         0.00000E+00        -0.22659E+07
 
   -0.15604E+07         0.56897E+06         0.00000E+00
    0.56897E+06        -0.97925E+07         0.00000E+00
    0.00000E+00         0.00000E+00        -0.22706E+07
 
   -0.15845E+07         0.63491E+06         0.00000E+00
    0.63491E+06        -0.97917E+07         0.00000E+00
    0.00000E+00         0.00000E+00        -0.22752E+07
 
   -0.16083E+07         0.70069E+06         0.00000E+00
    0.70069E+06        -0.97907E+07         0.00000E+00
    0.00000E+00         0.00000E+00        -0.22798E+07
 
   -0.16319E+07         0.76633E+06         0.00000E+00
    0.76633E+06        -0.97896E+07         0.00000E+00
    0.00000E+00         0.00000E+00        -0.22843E+07
 
   -0.16552E+07         0.83184E+06         0.00000E+00
    0.83184E+06        -0.97885E+07         0.00000E+00
    0.00000E+00         0.00000E+00        -0.22887E+07
 
   -0.16783E+07         0.89723E+06         0.00000E+00
    0.89723E+06        -0.97872E+07         0.00000E+00
    0.00000E+00         0.00000E+00        -0.22931E+07
 
   -0.17010E+07         0.96253E+06         0.00000E+00
    0.96253E+06        -0.97859E+07         0.00000E+00
    0.00000E+00         0.00000E+00        -0.22974E+07
 
   -0.17236E+07         0.10277E+07         0.00000E+00
    0.10277E+07        -0.97845E+07         0.00000E+00
    0.00000E+00         0.00000E+00        -0.23016E+07
 
   -0.17458E+07         0.10929E+07         0.00000E+00
    0.10929E+07        -0.97829E+07         0.00000E+00
    0.00000E+00         0.00000E+00        -0.23057E+07
 
   -0.17679E+07         0.11579E+07         0.00000E+00
    0.11579E+07        -0.97813E+07         0.00000E+00
    0.00000E+00         0.00000E+00        -0.23098E+07
 
   -0.17897E+07         0.12230E+07         0.00000E+00
    0.12230E+07        -0.97795E+07         0.00000E+00
    0.00000E+00         0.00000E+00        -0.23138E+07
 
   -0.18112E+07         0.12879E+07         0.00000E+00
    0.12879E+07        -0.97776E+07         0.00000E+00
    0.00000E+00         0.00000E+00        -0.23178E+07
 
   -0.18326E+07         0.13529E+07         0.00000E+00
    0.13529E+07        -0.97756E+07         0.00000E+00
    0.00000E+00         0.00000E+00        -0.23216E+07
 
   -0.18537E+07         0.14178E+07         0.00000E+00
    0.14178E+07        -0.97735E+07         0.00000E+00
    0.00000E+00         0.00000E+00        -0.23254E+07
 
   -0.18746E+07         0.14828E+07         0.00000E+00
    0.14828E+07        -0.97713E+07         0.00000E+00
    0.00000E+00         0.00000E+00        -0.23292E+07
 
   -0.18953E+07         0.15477E+07         0.00000E+00
    0.15477E+07        -0.97689E+07         0.00000E+00
    0.00000E+00         0.00000E+00        -0.23328E+07
 
   -0.19158E+07         0.16127E+07         0.00000E+00
    0.16127E+07        -0.97664E+07         0.00000E+00
    0.00000E+00         0.00000E+00        -0.23364E+07
 
   -0.19361E+07         0.16777E+07         0.00000E+00
    0.16777E+07        -0.97637E+07         0.00000E+00
    0.00000E+00         0.00000E+00        -0.23400E+07
 
   -0.19563E+07         0.17427E+07         0.00000E+00
    0.17427E+07        -0.97609E+07         0.00000E+00
    0.00000E+00         0.00000E+00        -0.23434E+07
 
   -0.19763E+07         0.18078E+07         0.00000E+00
    0.18078E+07        -0.97580E+07         0.00000E+00
    0.00000E+00         0.00000E+00        -0.23468E+07
 
   -0.19961E+07         0.18729E+07         0.00000E+00
    0.18729E+07        -0.97549E+07         0.00000E+00
    0.00000E+00         0.00000E+00        -0.23502E+07
 
   -0.20158E+07         0.19381E+07         0.00000E+00
    0.19381E+07        -0.97516E+07         0.00000E+00
    0.00000E+00         0.00000E+00        -0.23535E+07
 
   -0.20353E+07         0.20034E+07         0.00000E+00
    0.20034E+07        -0.97481E+07         0.00000E+00
    0.00000E+00         0.00000E+00        -0.23567E+07
 
   -0.20548E+07         0.20688E+07         0.00000E+00
    0.20688E+07        -0.97445E+07         0.00000E+00
    0.00000E+00         0.00000E+00        -0.23598E+07
 
   -0.20741E+07         0.21342E+07         0.00000E+00
    0.21342E+07        -0.97406E+07         0.00000E+00
    0.00000E+00         0.00000E+00        -0.23629E+07
 
   -0.20933E+07         0.21998E+07         0.00000E+00
    0.21998E+07        -0.97366E+07         0.00000E+00
    0.00000E+00         0.00000E+00        -0.23660E+07
 
   -0.21125E+07         0.22654E+07         0.00000E+00
    0.22654E+07        -0.97323E+07         0.00000E+00
    0.00000E+00         0.00000E+00        -0.23690E+07
 
   -0.21315E+07         0.23312E+07         0.00000E+00
    0.23312E+07        -0.97279E+07         0.00000E+00
    0.00000E+00         0.00000E+00        -0.23719E+07
 
   -0.21506E+07         0.23971E+07         0.00000E+00
    0.23971E+07        -0.97232E+07         0.00000E+00
    0.00000E+00         0.00000E+00        -0.23747E+07
 
   -0.21695E+07         0.24632E+07         0.00000E+00
    0.24632E+07        -0.97183E+07         0.00000E+00
    0.00000E+00         0.00000E+00        -0.23776E+07
 
   -0.21885E+07         0.25293E+07         0.00000E+00
    0.25293E+07        -0.97131E+07         0.00000E+00
    0.00000E+00         0.00000E+00        -0.23803E+07
 
   -0.22074E+07         0.25956E+07         0.00000E+00
    0.25956E+07        -0.97077E+07         0.00000E+00
    0.00000E+00         0.00000E+00        -0.23830E+07
 
   -0.22263E+07         0.26621E+07         0.00000E+00
    0.26621E+07        -0.97020E+07         0.00000E+00
    0.00000E+00         0.00000E+00        -0.23857E+07
 
   -0.22452E+07         0.27287E+07         0.00000E+00
    0.27287E+07        -0.96961E+07         0.00000E+00
    0.00000E+00         0.00000E+00        -0.23883E+07
 
   -0.22641E+07         0.27954E+07         0.00000E+00
    0.27954E+07        -0.96899E+07         0.00000E+00
    0.00000E+00         0.00000E+00        -0.23908E+07
 
   -0.22831E+07         0.28623E+07         0.00000E+00
    0.28623E+07        -0.96834E+07         0.00000E+00
    0.00000E+00         0.00000E+00        -0.23933E+07
 
   -0.23022E+07         0.29294E+07         0.00000E+00
    0.29294E+07        -0.96767E+07         0.00000E+00
    0.00000E+00         0.00000E+00        -0.23958E+07
 
   -0.23213E+07         0.29967E+07         0.00000E+00
    0.29967E+07        -0.96696E+07         0.00000E+00
    0.00000E+00         0.00000E+00        -0.23982E+07
 
   -0.23404E+07         0.30641E+07         0.00000E+00
    0.30641E+07        -0.96622E+07         0.00000E+00
    0.00000E+00         0.00000E+00        -0.24005E+07
 
   -0.23597E+07         0.31317E+07         0.00000E+00
    0.31317E+07        -0.96545E+07         0.00000E+00
    0.00000E+00         0.00000E+00        -0.24028E+07
 
   -0.23791E+07         0.31995E+07         0.00000E+00
    0.31995E+07        -0.96464E+07         0.00000E+00
    0.00000E+00         0.00000E+00        -0.24051E+07
 
   -0.23987E+07         0.32674E+07         0.00000E+00
    0.32674E+07        -0.96381E+07         0.00000E+00
    0.00000E+00         0.00000E+00        -0.24073E+07
 
   -0.14859E+07         0.34375E+05         0.00000E+00
    0.34375E+05        -0.10264E+08         0.00000E+00
    0.00000E+00         0.00000E+00        -0.23500E+07
 
   -0.15136E+07         0.10241E+06         0.00000E+00
    0.10241E+06        -0.10264E+08         0.00000E+00
    0.00000E+00         0.00000E+00        -0.23556E+07
 
   -0.15409E+07         0.17017E+06         0.00000E+00
    0.17017E+06        -0.10264E+08         0.00000E+00
    0.00000E+00         0.00000E+00        -0.23610E+07
 
   -0.15679E+07         0.23766E+06         0.00000E+00
    0.23766E+06        -0.10264E+08         0.00000E+00
    0.00000E+00         0.00000E+00        -0.23663E+07
 
   -0.15945E+07         0.30491E+06         0.00000E+00
    0.30491E+06        -0.10264E+08         0.00000E+00
    0.00000E+00         0.00000E+00        -0.23716E+07
 
   -0.16208E+07         0.37192E+06         0.00000E+00
    0.37192E+06        -0.10263E+08         0.00000E+00
    0.00000E+00         0.00000E+00        -0.23768E+07
 
   -0.16467E+07         0.43872E+06         0.00000E+00
    0.43872E+06        -0.10263E+08         0.00000E+00
    0.00000E+00         0.00000E+00        -0.23819E+07
 
   -0.16723E+07         0.50533E+06         0.00000E+00
    0.50533E+06        -0.10262E+08         0.00000E+00
    0.00000E+00         0.00000E+00        -0.23869E+07
 
   -0.16975E+07         0.57176E+06         0.00000E+00
    0.57176E+06        -0.10262E+08         0.00000E+00
    0.00000E+00         0.00000E+00        -0.23918E+07
 
   -0.17224E+07         0.63802E+06         0.00000E+00
    0.63802E+06        -0.10261E+08         0.00000E+00
    0.00000E+00         0.00000E+00        -0.23967E+07
 
   -0.17470E+07         0.70414E+06         0.00000E+00
    0.70414E+06        -0.10260E+08         0.00000E+00
    0.00000E+00         0.00000E+00        -0.24015E+07
 
   -0.17712E+07         0.77013E+06         0.00000E+00
    0.77013E+06        -0.10260E+08         0.00000E+00
    0.00000E+00         0.00000E+00        -0.24062E+07
 
   -0.17951E+07         0.83600E+06         0.00000E+00
    0.83600E+06        -0.10259E+08         0.00000E+00
    0.00000E+00         0.00000E+00        -0.24108E+07
 
   -0.18186E+07         0.90178E+06         0.00000E+00
    0.90178E+06        -0.10258E+08         0.00000E+00
    0.00000E+00         0.00000E+00        -0.24153E+07
 
   -0.18418E+07         0.96747E+06         0.00000E+00
    0.96747E+06        -0.10257E+08         0.00000E+00
    0.00000E+00         0.00000E+00        -0.24197E+07
 
   -0.18647E+07         0.10331E+07         0.00000E+00
    0.10331E+07        -0.10256E+08         0.00000E+00
    0.00000E+00         0.00000E+00        -0.24241E+07
 
   -0.18873E+07         0.10987E+07         0.00000E+00
    0.10987E+07        -0.10255E+08         0.00000E+00
    0.00000E+00         0.00000E+00        -0.24284E+07
 
   -0.19095E+07         0.11642E+07         0.00000E+00
    0.11642E+07        -0.10254E+08         0.00000E+00
    0.00000E+00         0.00000E+00        -0.24326E+07
 
   -0.19315E+07         0.12297E+07         0.00000E+00
    0.12297E+07        -0.10252E+08         0.00000E+00
    0.00000E+00         0.00000E+00        -0.24367E+07
 
   -0.19531E+07         0.12952E+07         0.00000E+00
    0.12952E+07        -0.10251E+08         0.00000E+00
    0.00000E+00         0.00000E+00        -0.24408E+07
 
   -0.19745E+07         0.13607E+07         0.00000E+00
    0.13607E+07        -0.10249E+08         0.00000E+00
    0.00000E+00         0.00000E+00        -0.24448E+07
 
   -0.19955E+07         0.14262E+07         0.00000E+00
    0.14262E+07        -0.10248E+08         0.00000E+00
    0.00000E+00         0.00000E+00        -0.24486E+07
 
   -0.20164E+07         0.14918E+07         0.00000E+00
    0.14918E+07        -0.10246E+08         0.00000E+00
    0.00000E+00         0.00000E+00        -0.24525E+07
 
   -0.20369E+07         0.15574E+07         0.00000E+00
    0.15574E+07        -0.10244E+08         0.00000E+00
    0.00000E+00         0.00000E+00        -0.24562E+07
 
   -0.20572E+07         0.16230E+07         0.00000E+00
    0.16230E+07        -0.10242E+08         0.00000E+00
    0.00000E+00         0.00000E+00        -0.24599E+07
 
   -0.20773E+07         0.16887E+07         0.00000E+00
    0.16887E+07        -0.10240E+08         0.00000E+00
    0.00000E+00         0.00000E+00        -0.24635E+07
 
   -0.20971E+07         0.17545E+07         0.00000E+00
    0.17545E+07        -0.10238E+08         0.00000E+00
    0.00000E+00         0.00000E+00        -0.24670E+07
 
   -0.21167E+07         0.18204E+07         0.00000E+00
    0.18204E+07        -0.10235E+08         0.00000E+00
    0.00000E+00         0.00000E+00        -0.24704E+07
 
   -0.21361E+07         0.18863E+07         0.00000E+00
    0.18863E+07        -0.10233E+08         0.00000E+00
    0.00000E+00         0.00000E+00        -0.24738E+07
 
   -0.21554E+07         0.19524E+07         0.00000E+00
    0.19524E+07        -0.10230E+08         0.00000E+00
    0.00000E+00         0.00000E+00        -0.24771E+07
 
   -0.21744E+07         0.20186E+07         0.00000E+00
    0.20186E+07        -0.10227E+08         0.00000E+00
    0.00000E+00         0.00000E+00        -0.24804E+07
 
   -0.21933E+07         0.20849E+07         0.00000E+00
    0.20849E+07        -0.10224E+08         0.00000E+00
    0.00000E+00         0.00000E+00        -0.24835E+07
 
   -0.22120E+07         0.21514E+07         0.00000E+00
    0.21514E+07        -0.10221E+08         0.00000E+00
    0.00000E+00         0.00000E+00        -0.24866E+07
 
   -0.22306E+07         0.22180E+07         0.00000E+00
    0.22180E+07        -0.10218E+08         0.00000E+00
    0.00000E+00         0.00000E+00        -0.24897E+07
 
   -0.22491E+07         0.22848E+07         0.00000E+00
    0.22848E+07        -0.10214E+08         0.00000E+00
    0.00000E+00         0.00000E+00        -0.24926E+07
 
   -0.22675E+07         0.23517E+07         0.00000E+00
    0.23517E+07        -0.10210E+08         0.00000E+00
    0.00000E+00         0.00000E+00        -0.24955E+07
 
   -0.22857E+07         0.24188E+07         0.00000E+00
    0.24188E+07        -0.10206E+08         0.00000E+00
    0.00000E+00         0.00000E+00        -0.24984E+07
 
   -0.23039E+07         0.24860E+07         0.00000E+00
    0.24860E+07        -0.10202E+08         0.00000E+00
    0.00000E+00         0.00000E+00        -0.25011E+07
 
   -0.23221E+07         0.25535E+07         0.00000E+00
    0.25535E+07        -0.10197E+08         0.00000E+00
    0.00000E+00         0.00000E+00        -0.25039E+07
 
   -0.23401E+07         0.26211E+07         0.00000E+00
    0.26211E+07        -0.10192E+08         0.00000E+00
    0.00000E+00         0.00000E+00        -0.25065E+07
 
   -0.23582E+07         0.26889E+07         0.00000E+00
    0.26889E+07        -0.10187E+08         0.00000E+00
    0.00000E+00         0.00000E+00        -0.25091E+07
 
   -0.23762E+07         0.27570E+07         0.00000E+00
    0.27570E+07        -0.10182E+08         0.00000E+00
    0.00000E+00         0.00000E+00        -0.25116E+07
 
   -0.23942E+07         0.28252E+07         0.00000E+00
    0.28252E+07        -0.10176E+08         0.00000E+00
    0.00000E+00         0.00000E+00        -0.25141E+07
 
   -0.24123E+07         0.28937E+07         0.00000E+00
    0.28937E+07        -0.10170E+08         0.00000E+00
    0.00000E+00         0.00000E+00        -0.25165E+07
 
   -0.24304E+07         0.29623E+07         0.00000E+00
    0.29623E+07        -0.10164E+08         0.00000E+00
    0.00000E+00         0.00000E+00        -0.25189E+07
 
   -0.24485E+07         0.30312E+07         0.00000E+00
    0.30312E+07        -0.10158E+08         0.00000E+00
    0.00000E+00         0.00000E+00        -0.25212E+07
 
   -0.24667E+07         0.31003E+07         0.00000E+00
    0.31003E+07        -0.10151E+08         0.00000E+00
    0.00000E+00         0.00000E+00        -0.25235E+07
 
   -0.24849E+07         0.31697E+07         0.00000E+00
    0.31697E+07        -0.10144E+08         0.00000E+00
    0.00000E+00         0.00000E+00        -0.25257E+07
 
   -0.25033E+07         0.32392E+07         0.00000E+00
    0.32392E+07        -0.10136E+08         0.00000E+00
    0.00000E+00         0.00000E+00        -0.25279E+07
 
   -0.25218E+07         0.33090E+07         0.00000E+00
    0.33090E+07        -0.10128E+08         0.00000E+00
    0.00000E+00         0.00000E+00        -0.25300E+07
 
   -0.16271E+07         0.34485E+05         0.00000E+00
    0.34485E+05        -0.10747E+08         0.00000E+00
    0.00000E+00         0.00000E+00        -0.24748E+07
 
   -0.16563E+07         0.10271E+06         0.00000E+00
    0.10271E+06        -0.10747E+08         0.00000E+00
    0.00000E+00         0.00000E+00        -0.24806E+07
 
   -0.16850E+07         0.17064E+06         0.00000E+00
    0.17064E+06        -0.10747E+08         0.00000E+00
    0.00000E+00         0.00000E+00        -0.24864E+07
 
   -0.17132E+07         0.23829E+06         0.00000E+00
    0.23829E+06        -0.10747E+08         0.00000E+00
    0.00000E+00         0.00000E+00        -0.24920E+07
 
   -0.17411E+07         0.30570E+06         0.00000E+00
    0.30570E+06        -0.10747E+08         0.00000E+00
    0.00000E+00         0.00000E+00        -0.24975E+07
 
   -0.17684E+07         0.37287E+06         0.00000E+00
    0.37287E+06        -0.10746E+08         0.00000E+00
    0.00000E+00         0.00000E+00        -0.25030E+07
 
   -0.17954E+07         0.43984E+06         0.00000E+00
    0.43984E+06        -0.10746E+08         0.00000E+00
    0.00000E+00         0.00000E+00        -0.25083E+07
 
   -0.18219E+07         0.50661E+06         0.00000E+00
    0.50661E+06        -0.10746E+08         0.00000E+00
    0.00000E+00         0.00000E+00        -0.25136E+07
 
   -0.18480E+07         0.57321E+06         0.00000E+00
    0.57321E+06        -0.10746E+08         0.00000E+00
    0.00000E+00         0.00000E+00        -0.25187E+07
 
   -0.18736E+07         0.63965E+06         0.00000E+00
    0.63965E+06        -0.10745E+08         0.00000E+00
    0.00000E+00         0.00000E+00        -0.25238E+07
 
   -0.18988E+07         0.70597E+06         0.00000E+00
    0.70597E+06        -0.10745E+08         0.00000E+00
    0.00000E+00         0.00000E+00        -0.25288E+07
 
   -0.19236E+07         0.77217E+06         0.00000E+00
    0.77217E+06        -0.10745E+08         0.00000E+00
    0.00000E+00         0.00000E+00        -0.25336E+07
 
   -0.19480E+07         0.83827E+06         0.00000E+00
    0.83827E+06        -0.10744E+08         0.00000E+00
    0.00000E+00         0.00000E+00        -0.25384E+07
 
   -0.19719E+07         0.90430E+06         0.00000E+00
    0.90430E+06        -0.10744E+08         0.00000E+00
    0.00000E+00         0.00000E+00        -0.25431E+07
 
   -0.19954E+07         0.97026E+06         0.00000E+00
    0.97026E+06        -0.10743E+08         0.00000E+00
    0.00000E+00         0.00000E+00        -0.25477E+07
 
   -0.20185E+07         0.10362E+07         0.00000E+00
    0.10362E+07        -0.10743E+08         0.00000E+00
    0.00000E+00         0.00000E+00        -0.25522E+07
 
   -0.20412E+07         0.11021E+07         0.00000E+00
    0.11021E+07        -0.10742E+08         0.00000E+00
    0.00000E+00         0.00000E+00        -0.25566E+07
 
   -0.20636E+07         0.11680E+07         0.00000E+00
    0.11680E+07        -0.10741E+08         0.00000E+00
    0.00000E+00         0.00000E+00        -0.25610E+07
 
   -0.20855E+07         0.12339E+07         0.00000E+00
    0.12339E+07        -0.10741E+08         0.00000E+00
    0.00000E+00         0.00000E+00        -0.25652E+07
 
   -0.21071E+07         0.12998E+07         0.00000E+00
    0.12998E+07        -0.10740E+08         0.00000E+00
    0.00000E+00         0.00000E+00        -0.25694E+07
 
   -0.21283E+07         0.13658E+07         0.00000E+00
    0.13658E+07        -0.10739E+08         0.00000E+00
    0.00000E+00         0.00000E+00        -0.25734E+07
 
   -0.21492E+07         0.14318E+07         0.00000E+00
    0.14318E+07        -0.10738E+08         0.00000E+00
    0.00000E+00         0.00000E+00        -0.25774E+07
 
   -0.21697E+07         0.14978E+07         0.00000E+00
    0.14978E+07        -0.10737E+08         0.00000E+00
    0.00000E+00         0.00000E+00        -0.25813E+07
 
   -0.21899E+07         0.15640E+07         0.00000E+00
    0.15640E+07        -0.10736E+08         0.00000E+00
    0.00000E+00         0.00000E+00        -0.25851E+07
 
   -0.22098E+07         0.16303E+07         0.00000E+00
    0.16303E+07        -0.10734E+08         0.00000E+00
    0.00000E+00         0.00000E+00        -0.25888E+07
 
   -0.22294E+07         0.16966E+07         0.00000E+00
    0.16966E+07        -0.10733E+08         0.00000E+00
    0.00000E+00         0.00000E+00        -0.25925E+07
 
   -0.22488E+07         0.17631E+07         0.00000E+00
    0.17631E+07        -0.10731E+08         0.00000E+00
    0.00000E+00         0.00000E+00        -0.25960E+07
 
   -0.22678E+07         0.18297E+07         0.00000E+00
    0.18297E+07        -0.10730E+08         0.00000E+00
    0.00000E+00         0.00000E+00        -0.25995E+07
 
   -0.22866E+07         0.18965E+07         0.00000E+00
    0.18965E+07        -0.10728E+08         0.00000E+00
    0.00000E+00         0.00000E+00        -0.26029E+07
 
   -0.23051E+07         0.19634E+07         0.00000E+00
    0.19634E+07        -0.10726E+08         0.00000E+00
    0.00000E+00         0.00000E+00        -0.26062E+07
 
   -0.23235E+07         0.20305E+07         0.00000E+00
    0.20305E+07        -0.10724E+08         0.00000E+00
    0.00000E+00         0.00000E+00        -0.26094E+07
 
   -0.23416E+07         0.20978E+07         0.00000E+00
    0.20978E+07        -0.10721E+08         0.00000E+00
    0.00000E+00         0.00000E+00        -0.26126E+07
 
   -0.23595E+07         0.21652E+07         0.00000E+00
    0.21652E+07        -0.10719E+08         0.00000E+00
    0.00000E+00         0.00000E+00        -0.26157E+07
 
   -0.23772E+07         0.22329E+07         0.00000E+00
    0.22329E+07        -0.10716E+08         0.00000E+00
    0.00000E+00         0.00000E+00        -0.26187E+07
 
   -0.23948E+07         0.23007E+07         0.00000E+00
    0.23007E+07        -0.10713E+08         0.00000E+00
    0.00000E+00         0.00000E+00        -0.26216E+07
 
   -0.24122E+07         0.23688E+07         0.00000E+00
    0.23688E+07        -0.10710E+08         0.00000E+00
    0.00000E+00         0.00000E+00        -0.26245E+07
 
   -0.24294E+07         0.24371E+07         0.00000E+00
    0.24371E+07        -0.10707E+08         0.00000E+00
    0.00000E+00         0.00000E+00        -0.26273E+07
 
   -0.24466E+07         0.25056E+07         0.00000E+00
    0.25056E+07        -0.10703E+08         0.00000E+00
    0.00000E+00         0.00000E+00        -0.26300E+07
 
   -0.24637E+07         0.25743E+07         0.00000E+00
    0.25743E+07        -0.10699E+08         0.00000E+00
    0.00000E+00         0.00000E+00        -0.26326E+07
 
   -0.24807E+07         0.26433E+07         0.00000E+00
    0.26433E+07        -0.10695E+08         0.00000E+00
    0.00000E+00         0.00000E+00        -0.26352E+07
 
   -0.24976E+07         0.27126E+07         0.00000E+00
    0.27126E+07        -0.10691E+08         0.00000E+00
    0.00000E+00         0.00000E+00        -0.26377E+07
 
   -0.25145E+07         0.27821E+07         0.00000E+00
    0.27821E+07        -0.10686E+08         0.00000E+00
    0.00000E+00         0.00000E+00        -0.26402E+07
 
   -0.25313E+07         0.28518E+07         0.00000E+00
    0.28518E+07        -0.10681E+08         0.00000E+00
    0.00000E+00         0.00000E+00        -0.26426E+07
 
   -0.25481E+07         0.29219E+07         0.00000E+00
    0.29219E+07        -0.10676E+08         0.00000E+00
    0.00000E+00         0.00000E+00        -0.26449E+07
 
   -0.25650E+07         0.29922E+07         0.00000E+00
    0.29922E+07        -0.10671E+08         0.00000E+00
    0.00000E+00         0.00000E+00        -0.26471E+07
 
   -0.25819E+07         0.30627E+07         0.00000E+00
    0.30627E+07        -0.10665E+08         0.00000E+00
    0.00000E+00         0.00000E+00        -0.26493E+07
 
   -0.25988E+07         0.31336E+07         0.00000E+00
    0.31336E+07        -0.10659E+08         0.00000E+00
    0.00000E+00         0.00000E+00        -0.26515E+07
 
   -0.26157E+07         0.32047E+07         0.00000E+00
    0.32047E+07        -0.10652E+08         0.00000E+00
    0.00000E+00         0.00000E+00        -0.26536E+07
 
   -0.26328E+07         0.32762E+07         0.00000E+00
    0.32762E+07        -0.10645E+08         0.00000E+00
    0.00000E+00         0.00000E+00        -0.26556E+07
 
   -0.26499E+07         0.33479E+07         0.00000E+00
    0.33479E+07        -0.10638E+08         0.00000E+00
    0.00000E+00         0.00000E+00        -0.26576E+07
 
   -0.17832E+07         0.34494E+05         0.00000E+00
    0.34494E+05        -0.11245E+08         0.00000E+00
    0.00000E+00         0.00000E+00        -0.26056E+07
 
   -0.18139E+07         0.10270E+06         0.00000E+00
    0.10270E+06        -0.11245E+08         0.00000E+00
    0.00000E+00         0.00000E+00        -0.26118E+07
 
   -0.18440E+07         0.17060E+06         0.00000E+00
    0.17060E+06        -0.11245E+08         0.00000E+00
    0.00000E+00         0.00000E+00        -0.26178E+07
 
   -0.18736E+07         0.23822E+06         0.00000E+00
    0.23822E+06        -0.11245E+08         0.00000E+00
    0.00000E+00         0.00000E+00        -0.26237E+07
 
   -0.19026E+07         0.30559E+06         0.00000E+00
    0.30559E+06        -0.11245E+08         0.00000E+00
    0.00000E+00         0.00000E+00        -0.26295E+07
 
   -0.19311E+07         0.37273E+06         0.00000E+00
    0.37273E+06        -0.11245E+08         0.00000E+00
    0.00000E+00         0.00000E+00        -0.26352E+07
 
   -0.19590E+07         0.43967E+06         0.00000E+00
    0.43967E+06        -0.11245E+08         0.00000E+00
    0.00000E+00         0.00000E+00        -0.26408E+07
 
   -0.19864E+07         0.50642E+06         0.00000E+00
    0.50642E+06        -0.11245E+08         0.00000E+00
    0.00000E+00         0.00000E+00        -0.26463E+07
 
   -0.20133E+07         0.57301E+06         0.00000E+00
    0.57301E+06        -0.11245E+08         0.00000E+00
    0.00000E+00         0.00000E+00        -0.26517E+07
 
   -0.20396E+07         0.63946E+06         0.00000E+00
    0.63946E+06        -0.11245E+08         0.00000E+00
    0.00000E+00         0.00000E+00        -0.26570E+07
 
   -0.20654E+07         0.70580E+06         0.00000E+00
    0.70580E+06        -0.11245E+08         0.00000E+00
    0.00000E+00         0.00000E+00        -0.26621E+07
 
   -0.20906E+07         0.77204E+06         0.00000E+00
    0.77204E+06        -0.11245E+08         0.00000E+00
    0.00000E+00         0.00000E+00        -0.26672E+07
 
   -0.21153E+07         0.83821E+06         0.00000E+00
    0.83821E+06        -0.11245E+08         0.00000E+00
    0.00000E+00         0.00000E+00        -0.26721E+07
 
   -0.21395E+07         0.90434E+06         0.00000E+00
    0.90434E+06        -0.11245E+08         0.00000E+00
    0.00000E+00         0.00000E+00        -0.26770E+07
 
   -0.21632E+07         0.97043E+06         0.00000E+00
    0.97043E+06        -0.11246E+08         0.00000E+00
    0.00000E+00         0.00000E+00        -0.26818E+07
 
   -0.21864E+07         0.10365E+07         0.00000E+00
    0.10365E+07        -0.11246E+08         0.00000E+00
    0.00000E+00         0.00000E+00        -0.26864E+07
 
   -0.22092E+07         0.11026E+07         0.00000E+00
    0.11026E+07        -0.11246E+08         0.00000E+00
    0.00000E+00         0.00000E+00        -0.26909E+07
 
   -0.22314E+07         0.11687E+07         0.00000E+00
    0.11687E+07        -0.11246E+08         0.00000E+00
    0.00000E+00         0.00000E+00        -0.26954E+07
 
   -0.22532E+07         0.12349E+07         0.00000E+00
    0.12349E+07        -0.11245E+08         0.00000E+00
    0.00000E+00         0.00000E+00        -0.26997E+07
 
   -0.22745E+07         0.13011E+07         0.00000E+00
    0.13011E+07        -0.11245E+08         0.00000E+00
    0.00000E+00         0.00000E+00        -0.27040E+07
 
   -0.22954E+07         0.13674E+07         0.00000E+00
    0.13674E+07        -0.11245E+08         0.00000E+00
    0.00000E+00         0.00000E+00        -0.27081E+07
 
   -0.23158E+07         0.14338E+07         0.00000E+00
    0.14338E+07        -0.11245E+08         0.00000E+00
    0.00000E+00         0.00000E+00        -0.27122E+07
 
   -0.23359E+07         0.15004E+07         0.00000E+00
    0.15004E+07        -0.11245E+08         0.00000E+00
    0.00000E+00         0.00000E+00        -0.27161E+07
 
   -0.23555E+07         0.15670E+07         0.00000E+00
    0.15670E+07        -0.11244E+08         0.00000E+00
    0.00000E+00         0.00000E+00        -0.27200E+07
 
   -0.23748E+07         0.16338E+07         0.00000E+00
    0.16338E+07        -0.11244E+08         0.00000E+00
    0.00000E+00         0.00000E+00        -0.27237E+07
 
   -0.23937E+07         0.17008E+07         0.00000E+00
    0.17008E+07        -0.11243E+08         0.00000E+00
    0.00000E+00         0.00000E+00        -0.27274E+07
 
   -0.24123E+07         0.17679E+07         0.00000E+00
    0.17679E+07        -0.11242E+08         0.00000E+00
    0.00000E+00         0.00000E+00        -0.27309E+07
 
   -0.24305E+07         0.18352E+07         0.00000E+00
    0.18352E+07        -0.11242E+08         0.00000E+00
    0.00000E+00         0.00000E+00        -0.27344E+07
 
   -0.24484E+07         0.19027E+07         0.00000E+00
    0.19027E+07        -0.11241E+08         0.00000E+00
    0.00000E+00         0.00000E+00        -0.27378E+07
 
   -0.24660E+07         0.19705E+07         0.00000E+00
    0.19705E+07        -0.11240E+08         0.00000E+00
    0.00000E+00         0.00000E+00        -0.27411E+07
 
   -0.24833E+07         0.20384E+07         0.00000E+00
    0.20384E+07        -0.11238E+08         0.00000E+00
    0.00000E+00         0.00000E+00        -0.27443E+07
 
   -0.25004E+07         0.21066E+07         0.00000E+00
    0.21066E+07        -0.11237E+08         0.00000E+00
    0.00000E+00         0.00000E+00        -0.27474E+07
 
   -0.25172E+07         0.21750E+07         0.00000E+00
    0.21750E+07        -0.11235E+08         0.00000E+00
    0.00000E+00         0.00000E+00        -0.27505E+07
 
   -0.25338E+07         0.22437E+07         0.00000E+00
    0.22437E+07        -0.11233E+08         0.00000E+00
    0.00000E+00         0.00000E+00        -0.27534E+07
 
   -0.25501E+07         0.23126E+07         0.00000E+00
    0.23126E+07        -0.11231E+08         0.00000E+00
    0.00000E+00         0.00000E+00        -0.27563E+07
 
   -0.25663E+07         0.23818E+07         0.00000E+00
    0.23818E+07        -0.11229E+08         0.00000E+00
    0.00000E+00         0.00000E+00        -0.27591E+07
 
   -0.25823E+07         0.24513E+07         0.00000E+00
    0.24513E+07        -0.11227E+08         0.00000E+00
    0.00000E+00         0.00000E+00        -0.27618E+07
 
   -0.25982E+07         0.25211E+07         0.00000E+00
    0.25211E+07        -0.11224E+08         0.00000E+00
    0.00000E+00         0.00000E+00        -0.27645E+07
 
   -0.26139E+07         0.25912E+07         0.00000E+00
    0.25912E+07        -0.11221E+08         0.00000E+00
    0.00000E+00         0.00000E+00        -0.27670E+07
 
   -0.26295E+07         0.26616E+07         0.00000E+00
    0.26616E+07        -0.11218E+08         0.00000E+00
    0.00000E+00         0.00000E+00        -0.27695E+07
 
   -0.26450E+07         0.27323E+07         0.00000E+00
    0.27323E+07        -0.11214E+08         0.00000E+00
    0.00000E+00         0.00000E+00        -0.27719E+07
 
   -0.26605E+07         0.28033E+07         0.00000E+00
    0.28033E+07        -0.11211E+08         0.00000E+00
    0.00000E+00         0.00000E+00        -0.27742E+07
 
   -0.26758E+07         0.28746E+07         0.00000E+00
    0.28746E+07        -0.11207E+08         0.00000E+00
    0.00000E+00         0.00000E+00        -0.27765E+07
 
   -0.26912E+07         0.29463E+07         0.00000E+00
    0.29463E+07        -0.11202E+08         0.00000E+00
    0.00000E+00         0.00000E+00        -0.27787E+07
 
   -0.27065E+07         0.30183E+07         0.00000E+00
    0.30183E+07        -0.11197E+08         0.00000E+00
    0.00000E+00         0.00000E+00        -0.27808E+07
 
   -0.27218E+07         0.30906E+07         0.00000E+00
    0.30906E+07        -0.11192E+08         0.00000E+00
    0.00000E+00         0.00000E+00        -0.27828E+07
 
   -0.27372E+07         0.31633E+07         0.00000E+00
    0.31633E+07        -0.11187E+08         0.00000E+00
    0.00000E+00         0.00000E+00        -0.27848E+07
 
   -0.27526E+07         0.32363E+07         0.00000E+00
    0.32363E+07        -0.11181E+08         0.00000E+00
    0.00000E+00         0.00000E+00        -0.27868E+07
 
   -0.27680E+07         0.33097E+07         0.00000E+00
    0.33097E+07        -0.11175E+08         0.00000E+00
    0.00000E+00         0.00000E+00        -0.27886E+07
 
   -0.27835E+07         0.33834E+07         0.00000E+00
    0.33834E+07        -0.11169E+08         0.00000E+00
    0.00000E+00         0.00000E+00        -0.27904E+07
 
   -0.19560E+07         0.34378E+05         0.00000E+00
    0.34378E+05        -0.11759E+08         0.00000E+00
    0.00000E+00         0.00000E+00        -0.27430E+07
 
   -0.19882E+07         0.10232E+06         0.00000E+00
    0.10232E+06        -0.11759E+08         0.00000E+00
    0.00000E+00         0.00000E+00        -0.27495E+07
 
   -0.20198E+07         0.16994E+06         0.00000E+00
    0.16994E+06        -0.11759E+08         0.00000E+00
    0.00000E+00         0.00000E+00        -0.27558E+07
 
   -0.20508E+07         0.23729E+06         0.00000E+00
    0.23729E+06        -0.11759E+08         0.00000E+00
    0.00000E+00         0.00000E+00        -0.27620E+07
 
   -0.20810E+07         0.30438E+06         0.00000E+00
    0.30438E+06        -0.11760E+08         0.00000E+00
    0.00000E+00         0.00000E+00        -0.27681E+07
 
   -0.21105E+07         0.37125E+06         0.00000E+00
    0.37125E+06        -0.11760E+08         0.00000E+00
    0.00000E+00         0.00000E+00        -0.27741E+07
 
   -0.21394E+07         0.43793E+06         0.00000E+00
    0.43793E+06        -0.11760E+08         0.00000E+00
    0.00000E+00         0.00000E+00        -0.27799E+07
 
   -0.21676E+07         0.50443E+06         0.00000E+00
    0.50443E+06        -0.11761E+08         0.00000E+00
    0.00000E+00         0.00000E+00        -0.27857E+07
 
   -0.21952E+07         0.57079E+06         0.00000E+00
    0.57079E+06        -0.11761E+08         0.00000E+00
    0.00000E+00         0.00000E+00        -0.27913E+07
 
   -0.22221E+07         0.63704E+06         0.00000E+00
    0.63704E+06        -0.11762E+08         0.00000E+00
    0.00000E+00         0.00000E+00        -0.27967E+07
 
   -0.22483E+07         0.70319E+06         0.00000E+00
    0.70319E+06        -0.11762E+08         0.00000E+00
    0.00000E+00         0.00000E+00        -0.28021E+07
 
   -0.22739E+07         0.76928E+06         0.00000E+00
    0.76928E+06        -0.11763E+08         0.00000E+00
    0.00000E+00         0.00000E+00        -0.28074E+07
 
   -0.22988E+07         0.83534E+06         0.00000E+00
    0.83534E+06        -0.11764E+08         0.00000E+00
    0.00000E+00         0.00000E+00        -0.28125E+07
 
   -0.23232E+07         0.90137E+06         0.00000E+00
    0.90137E+06        -0.11764E+08         0.00000E+00
    0.00000E+00         0.00000E+00        -0.28175E+07
 
   -0.23469E+07         0.96741E+06         0.00000E+00
    0.96741E+06        -0.11765E+08         0.00000E+00
    0.00000E+00         0.00000E+00        -0.28224E+07
 
   -0.23700E+07         0.10335E+07         0.00000E+00
    0.10335E+07        -0.11766E+08         0.00000E+00
    0.00000E+00         0.00000E+00        -0.28271E+07
 
   -0.23925E+07         0.10996E+07         0.00000E+00
    0.10996E+07        -0.11766E+08         0.00000E+00
    0.00000E+00         0.00000E+00        -0.28318E+07
 
   -0.24144E+07         0.11658E+07         0.00000E+00
    0.11658E+07        -0.11767E+08         0.00000E+00
    0.00000E+00         0.00000E+00        -0.28363E+07
 
   -0.24358E+07         0.12321E+07         0.00000E+00
    0.12321E+07        -0.11768E+08         0.00000E+00
    0.00000E+00         0.00000E+00        -0.28408E+07
 
   -0.24566E+07         0.12985E+07         0.00000E+00
    0.12985E+07        -0.11769E+08         0.00000E+00
    0.00000E+00         0.00000E+00        -0.28451E+07
 
   -0.24770E+07         0.13651E+07         0.00000E+00
    0.13651E+07        -0.11769E+08         0.00000E+00
    0.00000E+00         0.00000E+00        -0.28493E+07
 
   -0.24968E+07         0.14318E+07         0.00000E+00
    0.14318E+07        -0.11770E+08         0.00000E+00
    0.00000E+00         0.00000E+00        -0.28534E+07
 
   -0.25161E+07         0.14986E+07         0.00000E+00
    0.14986E+07        -0.11771E+08         0.00000E+00
    0.00000E+00         0.00000E+00        -0.28574E+07
 
   -0.25349E+07         0.15657E+07         0.00000E+00
    0.15657E+07        -0.11771E+08         0.00000E+00
    0.00000E+00         0.00000E+00        -0.28612E+07
 
   -0.25533E+07         0.16329E+07         0.00000E+00
    0.16329E+07        -0.11772E+08         0.00000E+00
    0.00000E+00         0.00000E+00        -0.28650E+07
 
   -0.25712E+07         0.17004E+07         0.00000E+00
    0.17004E+07        -0.11772E+08         0.00000E+00
    0.00000E+00         0.00000E+00        -0.28687E+07
 
   -0.25887E+07         0.17681E+07         0.00000E+00
    0.17681E+07        -0.11772E+08         0.00000E+00
    0.00000E+00         0.00000E+00        -0.28722E+07
 
   -0.26058E+07         0.18361E+07         0.00000E+00
    0.18361E+07        -0.11773E+08         0.00000E+00
    0.00000E+00         0.00000E+00        -0.28757E+07
 
   -0.26225E+07         0.19043E+07         0.00000E+00
    0.19043E+07        -0.11773E+08         0.00000E+00
    0.00000E+00         0.00000E+00        -0.28790E+07
 
   -0.26389E+07         0.19728E+07         0.00000E+00
    0.19728E+07        -0.11773E+08         0.00000E+00
    0.00000E+00         0.00000E+00        -0.28823E+07
 
   -0.26549E+07         0.20415E+07         0.00000E+00
    0.20415E+07        -0.11772E+08         0.00000E+00
    0.00000E+00         0.00000E+00        -0.28855E+07
 
   -0.26706E+07         0.21106E+07         0.00000E+00
    0.21106E+07        -0.11772E+08         0.00000E+00
    0.00000E+00         0.00000E+00        -0.28885E+07
 
   -0.26861E+07         0.21800E+07         0.00000E+00
    0.21800E+07        -0.11771E+08         0.00000E+00
    0.00000E+00         0.00000E+00        -0.28915E+07
 
   -0.27012E+07         0.22497E+07         0.00000E+00
    0.22497E+07        -0.11771E+08         0.00000E+00
    0.00000E+00         0.00000E+00        -0.28944E+07
 
   -0.27161E+07         0.23197E+07         0.00000E+00
    0.23197E+07        -0.11770E+08         0.00000E+00
    0.00000E+00         0.00000E+00        -0.28971E+07
 
   -0.27307E+07         0.23901E+07         0.00000E+00
    0.23901E+07        -0.11768E+08         0.00000E+00
    0.00000E+00         0.00000E+00        -0.28998E+07
 
   -0.27451E+07         0.24608E+07         0.00000E+00
    0.24608E+07        -0.11767E+08         0.00000E+00
    0.00000E+00         0.00000E+00        -0.29024E+07
 
   -0.27594E+07         0.25319E+07         0.00000E+00
    0.25319E+07        -0.11765E+08         0.00000E+00
    0.00000E+00         0.00000E+00        -0.29050E+07
 
   -0.27734E+07         0.26033E+07         0.00000E+00
    0.26033E+07        -0.11764E+08         0.00000E+00
    0.00000E+00         0.00000E+00        -0.29074E+07
 
   -0.27873E+07         0.26751E+07         0.00000E+00
    0.26751E+07        -0.11761E+08         0.00000E+00
    0.00000E+00         0.00000E+00        -0.29097E+07
 
   -0.28011E+07         0.27473E+07         0.00000E+00
    0.27473E+07        -0.11759E+08         0.00000E+00
    0.00000E+00         0.00000E+00        -0.29120E+07
 
   -0.28148E+07         0.28199E+07         0.00000E+00
    0.28199E+07        -0.11756E+08         0.00000E+00
    0.00000E+00         0.00000E+00        -0.29142E+07
 
   -0.28284E+07         0.28929E+07         0.00000E+00
    0.28929E+07        -0.11753E+08         0.00000E+00
    0.00000E+00         0.00000E+00        -0.29163E+07
 
   -0.28419E+07         0.29662E+07         0.00000E+00
    0.29662E+07        -0.11750E+08         0.00000E+00
    0.00000E+00         0.00000E+00        -0.29183E+07
 
   -0.28554E+07         0.30400E+07         0.00000E+00
    0.30400E+07        -0.11746E+08         0.00000E+00
    0.00000E+00         0.00000E+00        -0.29203E+07
 
   -0.28689E+07         0.31141E+07         0.00000E+00
    0.31141E+07        -0.11742E+08         0.00000E+00
    0.00000E+00         0.00000E+00        -0.29221E+07
 
   -0.28823E+07         0.31887E+07         0.00000E+00
    0.31887E+07        -0.11737E+08         0.00000E+00
    0.00000E+00         0.00000E+00        -0.29239E+07
 
   -0.28958E+07         0.32637E+07         0.00000E+00
    0.32637E+07        -0.11733E+08         0.00000E+00
    0.00000E+00         0.00000E+00        -0.29257E+07
 
   -0.29093E+07         0.33391E+07         0.00000E+00
    0.33391E+07        -0.11727E+08         0.00000E+00
    0.00000E+00         0.00000E+00        -0.29273E+07
 
   -0.29229E+07         0.34149E+07         0.00000E+00
    0.34149E+07        -0.11722E+08         0.00000E+00
    0.00000E+00         0.00000E+00        -0.29289E+07
 
   -0.21477E+07         0.34105E+05         0.00000E+00
    0.34105E+05        -0.12290E+08         0.00000E+00
    0.00000E+00         0.00000E+00        -0.28875E+07
 
   -0.21816E+07         0.10147E+06         0.00000E+00
    0.10147E+06        -0.12290E+08         0.00000E+00
    0.00000E+00         0.00000E+00        -0.28943E+07
 
   -0.22147E+07         0.16852E+06         0.00000E+00
    0.16852E+06        -0.12290E+08         0.00000E+00
    0.00000E+00         0.00000E+00        -0.29010E+07
 
   -0.22469E+07         0.23530E+06         0.00000E+00
    0.23530E+06        -0.12291E+08         0.00000E+00
    0.00000E+00         0.00000E+00        -0.29075E+07
 
   -0.22784E+07         0.30182E+06         0.00000E+00
    0.30182E+06        -0.12291E+08         0.00000E+00
    0.00000E+00         0.00000E+00        -0.29139E+07
 
   -0.23089E+07         0.36814E+06         0.00000E+00
    0.36814E+06        -0.12292E+08         0.00000E+00
    0.00000E+00         0.00000E+00        -0.29201E+07
 
   -0.23387E+07         0.43427E+06         0.00000E+00
    0.43427E+06        -0.12293E+08         0.00000E+00
    0.00000E+00         0.00000E+00        -0.29263E+07
 
   -0.23676E+07         0.50026E+06         0.00000E+00
    0.50026E+06        -0.12293E+08         0.00000E+00
    0.00000E+00         0.00000E+00        -0.29322E+07
 
   -0.23957E+07         0.56613E+06         0.00000E+00
    0.56613E+06        -0.12294E+08         0.00000E+00
    0.00000E+00         0.00000E+00        -0.29380E+07
 
   -0.24231E+07         0.63192E+06         0.00000E+00
    0.63192E+06        -0.12296E+08         0.00000E+00
    0.00000E+00         0.00000E+00        -0.29437E+07
 
   -0.24496E+07         0.69765E+06         0.00000E+00
    0.69765E+06        -0.12297E+08         0.00000E+00
    0.00000E+00         0.00000E+00        -0.29493E+07
 
   -0.24753E+07         0.76335E+06         0.00000E+00
    0.76335E+06        -0.12298E+08         0.00000E+00
    0.00000E+00         0.00000E+00        -0.29547E+07
 
   -0.25003E+07         0.82906E+06         0.00000E+00
    0.82906E+06        -0.12299E+08         0.00000E+00
    0.00000E+00         0.00000E+00        -0.29600E+07
 
   -0.25246E+07         0.89479E+06         0.00000E+00
    0.89479E+06        -0.12301E+08         0.00000E+00
    0.00000E+00         0.00000E+00        -0.29651E+07
 
   -0.25481E+07         0.96058E+06         0.00000E+00
    0.96058E+06        -0.12302E+08         0.00000E+00
    0.00000E+00         0.00000E+00        -0.29701E+07
 
   -0.25708E+07         0.10265E+07         0.00000E+00
    0.10265E+07        -0.12304E+08         0.00000E+00
    0.00000E+00         0.00000E+00        -0.29750E+07
 
   -0.25929E+07         0.10924E+07         0.00000E+00
    0.10924E+07        -0.12306E+08         0.00000E+00
    0.00000E+00         0.00000E+00        -0.29797E+07
 
   -0.26143E+07         0.11585E+07         0.00000E+00
    0.11585E+07        -0.12307E+08         0.00000E+00
    0.00000E+00         0.00000E+00        -0.29843E+07
 
   -0.26350E+07         0.12248E+07         0.00000E+00
    0.12248E+07        -0.12309E+08         0.00000E+00
    0.00000E+00         0.00000E+00        -0.29888E+07
 
   -0.26551E+07         0.12912E+07         0.00000E+00
    0.12912E+07        -0.12311E+08         0.00000E+00
    0.00000E+00         0.00000E+00        -0.29932E+07
 
   -0.26745E+07         0.13579E+07         0.00000E+00
    0.13579E+07        -0.12313E+08         0.00000E+00
    0.00000E+00         0.00000E+00        -0.29974E+07
 
   -0.26934E+07         0.14247E+07         0.00000E+00
    0.14247E+07        -0.12314E+08         0.00000E+00
    0.00000E+00         0.00000E+00        -0.30015E+07
 
   -0.27116E+07         0.14918E+07         0.00000E+00
    0.14918E+07        -0.12316E+08         0.00000E+00
    0.00000E+00         0.00000E+00        -0.30055E+07
 
   -0.27293E+07         0.15591E+07         0.00000E+00
    0.15591E+07        -0.12318E+08         0.00000E+00
    0.00000E+00         0.00000E+00        -0.30094E+07
 
   -0.27464E+07         0.16268E+07         0.00000E+00
    0.16268E+07        -0.12319E+08         0.00000E+00
    0.00000E+00         0.00000E+00        -0.30132E+07
 
   -0.27631E+07         0.16947E+07         0.00000E+00
    0.16947E+07        -0.12321E+08         0.00000E+00
    0.00000E+00         0.00000E+00        -0.30168E+07
 
   -0.27792E+07         0.17629E+07         0.00000E+00
    0.17629E+07        -0.12322E+08         0.00000E+00
    0.00000E+00         0.00000E+00        -0.30203E+07
 
   -0.27949E+07         0.18314E+07         0.00000E+00
    0.18314E+07        -0.12324E+08         0.00000E+00
    0.00000E+00         0.00000E+00        -0.30237E+07
 
   -0.28101E+07         0.19003E+07         0.00000E+00
    0.19003E+07        -0.12325E+08         0.00000E+00
    0.00000E+00         0.00000E+00        -0.30270E+07
 
   -0.28249E+07         0.19695E+07         0.00000E+00
    0.19695E+07        -0.12326E+08         0.00000E+00
    0.00000E+00         0.00000E+00        -0.30302E+07
 
   -0.28393E+07         0.20391E+07         0.00000E+00
    0.20391E+07        -0.12327E+08         0.00000E+00
    0.00000E+00         0.00000E+00        -0.30333E+07
 
   -0.28533E+07         0.21090E+07         0.00000E+00
    0.21090E+07        -0.12328E+08         0.00000E+00
    0.00000E+00         0.00000E+00        -0.30363E+07
 
   -0.28670E+07         0.21793E+07         0.00000E+00
    0.21793E+07        -0.12329E+08         0.00000E+00
    0.00000E+00         0.00000E+00        -0.30391E+07
 
   -0.28803E+07         0.22501E+07         0.00000E+00
    0.22501E+07        -0.12329E+08         0.00000E+00
    0.00000E+00         0.00000E+00        -0.30419E+07
 
   -0.28933E+07         0.23212E+07         0.00000E+00
    0.23212E+07        -0.12329E+08         0.00000E+00
    0.00000E+00         0.00000E+00        -0.30445E+07
 
   -0.29061E+07         0.23927E+07         0.00000E+00
    0.23927E+07        -0.12329E+08         0.00000E+00
    0.00000E+00         0.00000E+00        -0.30471E+07
 
   -0.29186E+07         0.24647E+07         0.00000E+00
    0.24647E+07        -0.12329E+08         0.00000E+00
    0.00000E+00         0.00000E+00        -0.30496E+07
 
   -0.29308E+07         0.25371E+07         0.00000E+00
    0.25371E+07        -0.12329E+08         0.00000E+00
    0.00000E+00         0.00000E+00        -0.30519E+07
 
   -0.29429E+07         0.26099E+07         0.00000E+00
    0.26099E+07        -0.12328E+08         0.00000E+00
    0.00000E+00         0.00000E+00        -0.30542E+07
 
   -0.29548E+07         0.26832E+07         0.00000E+00
    0.26832E+07        -0.12327E+08         0.00000E+00
    0.00000E+00         0.00000E+00        -0.30564E+07
 
   -0.29665E+07         0.27569E+07         0.00000E+00
    0.27569E+07        -0.12326E+08         0.00000E+00
    0.00000E+00         0.00000E+00        -0.30585E+07
 
   -0.29780E+07         0.28311E+07         0.00000E+00
    0.28311E+07        -0.12324E+08         0.00000E+00
    0.00000E+00         0.00000E+00        -0.30605E+07
 
   -0.29895E+07         0.29057E+07         0.00000E+00
    0.29057E+07        -0.12322E+08         0.00000E+00
    0.00000E+00         0.00000E+00        -0.30624E+07
 
   -0.30009E+07         0.29809E+07         0.00000E+00
    0.29809E+07        -0.12320E+08         0.00000E+00
    0.00000E+00         0.00000E+00        -0.30642E+07
 
   -0.30122E+07         0.30564E+07         0.00000E+00
    0.30564E+07        -0.12317E+08         0.00000E+00
    0.00000E+00         0.00000E+00        -0.30659E+07
 
   -0.30234E+07         0.31325E+07         0.00000E+00
    0.31325E+07        -0.12315E+08         0.00000E+00
    0.00000E+00         0.00000E+00        -0.30676E+07
 
   -0.30346E+07         0.32090E+07         0.00000E+00
    0.32090E+07        -0.12311E+08         0.00000E+00
    0.00000E+00         0.00000E+00        -0.30692E+07
 
   -0.30459E+07         0.32860E+07         0.00000E+00
    0.32860E+07        -0.12307E+08         0.00000E+00
    0.00000E+00         0.00000E+00        -0.30707E+07
 
   -0.30571E+07         0.33636E+07         0.00000E+00
    0.33636E+07        -0.12303E+08         0.00000E+00
    0.00000E+00         0.00000E+00        -0.30721E+07
 
   -0.30684E+07         0.34416E+07         0.00000E+00
    0.34416E+07        -0.12299E+08         0.00000E+00
    0.00000E+00         0.00000E+00        -0.30734E+07
 
   -0.23610E+07         0.33640E+05         0.00000E+00
    0.33640E+05        -0.12839E+08         0.00000E+00
    0.00000E+00         0.00000E+00        -0.30399E+07
 
   -0.23966E+07         0.10006E+06         0.00000E+00
    0.10006E+06        -0.12839E+08         0.00000E+00
    0.00000E+00         0.00000E+00        -0.30471E+07
 
   -0.24311E+07         0.16617E+06         0.00000E+00
    0.16617E+06        -0.12839E+08         0.00000E+00
    0.00000E+00         0.00000E+00        -0.30541E+07
 
   -0.24646E+07         0.23201E+06         0.00000E+00
    0.23201E+06        -0.12840E+08         0.00000E+00
    0.00000E+00         0.00000E+00        -0.30609E+07
 
   -0.24971E+07         0.29762E+06         0.00000E+00
    0.29762E+06        -0.12841E+08         0.00000E+00
    0.00000E+00         0.00000E+00        -0.30676E+07
 
   -0.25287E+07         0.36304E+06         0.00000E+00
    0.36304E+06        -0.12842E+08         0.00000E+00
    0.00000E+00         0.00000E+00        -0.30741E+07
 
   -0.25592E+07         0.42831E+06         0.00000E+00
    0.42831E+06        -0.12843E+08         0.00000E+00
    0.00000E+00         0.00000E+00        -0.30804E+07
 
   -0.25887E+07         0.49346E+06         0.00000E+00
    0.49346E+06        -0.12844E+08         0.00000E+00
    0.00000E+00         0.00000E+00        -0.30866E+07
 
   -0.26172E+07         0.55853E+06         0.00000E+00
    0.55853E+06        -0.12846E+08         0.00000E+00
    0.00000E+00         0.00000E+00        -0.30926E+07
 
   -0.26448E+07         0.62355E+06         0.00000E+00
    0.62355E+06        -0.12848E+08         0.00000E+00
    0.00000E+00         0.00000E+00        -0.30985E+07
 
   -0.26714E+07         0.68857E+06         0.00000E+00
    0.68857E+06        -0.12850E+08         0.00000E+00
    0.00000E+00         0.00000E+00        -0.31042E+07
 
   -0.26971E+07         0.75361E+06         0.00000E+00
    0.75361E+06        -0.12852E+08         0.00000E+00
    0.00000E+00         0.00000E+00        -0.31098E+07
 
   -0.27219E+07         0.81870E+06         0.00000E+00
    0.81870E+06        -0.12854E+08         0.00000E+00
    0.00000E+00         0.00000E+00        -0.31152E+07
 
   -0.27457E+07         0.88389E+06         0.00000E+00
    0.88389E+06        -0.12857E+08         0.00000E+00
    0.00000E+00         0.00000E+00        -0.31205E+07
 
   -0.27687E+07         0.94919E+06         0.00000E+00
    0.94919E+06        -0.12859E+08         0.00000E+00
    0.00000E+00         0.00000E+00        -0.31256E+07
 
   -0.27909E+07         0.10146E+07         0.00000E+00
    0.10146E+07        -0.12862E+08         0.00000E+00
    0.00000E+00         0.00000E+00        -0.31305E+07
 
   -0.28122E+07         0.10803E+07         0.00000E+00
    0.10803E+07        -0.12864E+08         0.00000E+00
    0.00000E+00         0.00000E+00        -0.31353E+07
 
   -0.28327E+07         0.11461E+07         0.00000E+00
    0.11461E+07        -0.12867E+08         0.00000E+00
    0.00000E+00         0.00000E+00        -0.31400E+07
 
   -0.28524E+07         0.12121E+07         0.00000E+00
    0.12121E+07        -0.12870E+08         0.00000E+00
    0.00000E+00         0.00000E+00        -0.31445E+07
 
   -0.28714E+07         0.12784E+07         0.00000E+00
    0.12784E+07        -0.12873E+08         0.00000E+00
    0.00000E+00         0.00000E+00        -0.31489E+07
 
   -0.28896E+07         0.13450E+07         0.00000E+00
    0.13450E+07        -0.12876E+08         0.00000E+00
    0.00000E+00         0.00000E+00        -0.31531E+07
 
   -0.29072E+07         0.14118E+07         0.00000E+00
    0.14118E+07        -0.12879E+08         0.00000E+00
    0.00000E+00         0.00000E+00        -0.31572E+07
 
   -0.29240E+07         0.14790E+07         0.00000E+00
    0.14790E+07        -0.12882E+08         0.00000E+00
    0.00000E+00         0.00000E+00        -0.31612E+07
 
   -0.29402E+07         0.15465E+07         0.00000E+00
    0.15465E+07        -0.12885E+08         0.00000E+00
    0.00000E+00         0.00000E+00        -0.31650E+07
 
   -0.29557E+07         0.16144E+07         0.00000E+00
    0.16144E+07        -0.12888E+08         0.00000E+00
    0.00000E+00         0.00000E+00        -0.31687E+07
 
   -0.29707E+07         0.16827E+07         0.00000E+00
    0.16827E+07        -0.12891E+08         0.00000E+00
    0.00000E+00         0.00000E+00        -0.31723E+07
 
   -0.29851E+07         0.17513E+07         0.00000E+00
    0.17513E+07        -0.12894E+08         0.00000E+00
    0.00000E+00         0.00000E+00        -0.31758E+07
 
   -0.29989E+07         0.18203E+07         0.00000E+00
    0.18203E+07        -0.12896E+08         0.00000E+00
    0.00000E+00         0.00000E+00        -0.31791E+07
 
   -0.30122E+07         0.18898E+07         0.00000E+00
    0.18898E+07        -0.12899E+08         0.00000E+00
    0.00000E+00         0.00000E+00        -0.31823E+07
 
   -0.30250E+07         0.19597E+07         0.00000E+00
    0.19597E+07        -0.12902E+08         0.00000E+00
    0.00000E+00         0.00000E+00        -0.31853E+07
 
   -0.30374E+07         0.20300E+07         0.00000E+00
    0.20300E+07        -0.12904E+08         0.00000E+00
    0.00000E+00         0.00000E+00        -0.31883E+07
 
   -0.30493E+07         0.21008E+07         0.00000E+00
    0.21008E+07        -0.12906E+08         0.00000E+00
    0.00000E+00         0.00000E+00        -0.31911E+07
 
   -0.30608E+07         0.21721E+07         0.00000E+00
    0.21721E+07        -0.12908E+08         0.00000E+00
    0.00000E+00         0.00000E+00        -0.31938E+07
 
   -0.30720E+07         0.22438E+07         0.00000E+00
    0.22438E+07        -0.12910E+08         0.00000E+00
    0.00000E+00         0.00000E+00        -0.31965E+07
 
   -0.30828E+07         0.23161E+07         0.00000E+00
    0.23161E+07        -0.12912E+08         0.00000E+00
    0.00000E+00         0.00000E+00        -0.31990E+07
 
   -0.30932E+07         0.23888E+07         0.00000E+00
    0.23888E+07        -0.12913E+08         0.00000E+00
    0.00000E+00         0.00000E+00        -0.32013E+07
 
   -0.31034E+07         0.24621E+07         0.00000E+00
    0.24621E+07        -0.12915E+08         0.00000E+00
    0.00000E+00         0.00000E+00        -0.32036E+07
 
   -0.31133E+07         0.25358E+07         0.00000E+00
    0.25358E+07        -0.12916E+08         0.00000E+00
    0.00000E+00         0.00000E+00        -0.32058E+07
 
   -0.31230E+07         0.26101E+07         0.00000E+00
    0.26101E+07        -0.12916E+08         0.00000E+00
    0.00000E+00         0.00000E+00        -0.32079E+07
 
   -0.31324E+07         0.26849E+07         0.00000E+00
    0.26849E+07        -0.12917E+08         0.00000E+00
    0.00000E+00         0.00000E+00        -0.32098E+07
 
   -0.31417E+07         0.27602E+07         0.00000E+00
    0.27602E+07        -0.12917E+08         0.00000E+00
    0.00000E+00         0.00000E+00        -0.32117E+07
 
   -0.31508E+07         0.28360E+07         0.00000E+00
    0.28360E+07        -0.12917E+08         0.00000E+00
    0.00000E+00         0.00000E+00        -0.32135E+07
 
   -0.31597E+07         0.29124E+07         0.00000E+00
    0.29124E+07        -0.12916E+08         0.00000E+00
    0.00000E+00         0.00000E+00        -0.32151E+07
 
   -0.31685E+07         0.29894E+07         0.00000E+00
    0.29894E+07        -0.12915E+08         0.00000E+00
    0.00000E+00         0.00000E+00        -0.32167E+07
 
   -0.31773E+07         0.30669E+07         0.00000E+00
    0.30669E+07        -0.12914E+08         0.00000E+00
    0.00000E+00         0.00000E+00        -0.32182E+07
 
   -0.31860E+07         0.31449E+07         0.00000E+00
    0.31449E+07        -0.12912E+08         0.00000E+00
    0.00000E+00         0.00000E+00        -0.32196E+07
 
   -0.31946E+07         0.32235E+07         0.00000E+00
    0.32235E+07        -0.12910E+08         0.00000E+00
    0.00000E+00         0.00000E+00        -0.32209E+07
 
   -0.32032E+07         0.33027E+07         0.00000E+00
    0.33027E+07        -0.12908E+08         0.00000E+00
    0.00000E+00         0.00000E+00        -0.32221E+07
 
   -0.32119E+07         0.33824E+07         0.00000E+00
    0.33824E+07        -0.12905E+08         0.00000E+00
    0.00000E+00         0.00000E+00        -0.32233E+07
 
   -0.32205E+07         0.34627E+07         0.00000E+00
    0.34627E+07        -0.12901E+08         0.00000E+00
    0.00000E+00         0.00000E+00        -0.32243E+07
 
   -0.25987E+07         0.32939E+05         0.00000E+00
    0.32939E+05        -0.13406E+08         0.00000E+00
    0.00000E+00         0.00000E+00        -0.32010E+07
 
   -0.26360E+07         0.97967E+05         0.00000E+00
    0.97967E+05        -0.13406E+08         0.00000E+00
    0.00000E+00         0.00000E+00        -0.32085E+07
 
   -0.26719E+07         0.16270E+06         0.00000E+00
    0.16270E+06        -0.13407E+08         0.00000E+00
    0.00000E+00         0.00000E+00        -0.32158E+07
 
   -0.27067E+07         0.22717E+06         0.00000E+00
    0.22717E+06        -0.13408E+08         0.00000E+00
    0.00000E+00         0.00000E+00        -0.32229E+07
 
   -0.27402E+07         0.29145E+06         0.00000E+00
    0.29145E+06        -0.13409E+08         0.00000E+00
    0.00000E+00         0.00000E+00        -0.32299E+07
 
   -0.27724E+07         0.35556E+06         0.00000E+00
    0.35556E+06        -0.13411E+08         0.00000E+00
    0.00000E+00         0.00000E+00        -0.32366E+07
 
   -0.28035E+07         0.41956E+06         0.00000E+00
    0.41956E+06        -0.13412E+08         0.00000E+00
    0.00000E+00         0.00000E+00        -0.32432E+07
 
   -0.28334E+07         0.48349E+06         0.00000E+00
    0.48349E+06        -0.13415E+08         0.00000E+00
    0.00000E+00         0.00000E+00        -0.32496E+07
 
   -0.28621E+07         0.54740E+06         0.00000E+00
    0.54740E+06        -0.13417E+08         0.00000E+00
    0.00000E+00         0.00000E+00        -0.32558E+07
 
   -0.28897E+07         0.61131E+06         0.00000E+00
    0.61131E+06        -0.13419E+08         0.00000E+00
    0.00000E+00         0.00000E+00        -0.32618E+07
 
   -0.29161E+07         0.67528E+06         0.00000E+00
    0.67528E+06        -0.13422E+08         0.00000E+00
    0.00000E+00         0.00000E+00        -0.32677E+07
 
   -0.29415E+07         0.73933E+06         0.00000E+00
    0.73933E+06        -0.13425E+08         0.00000E+00
    0.00000E+00         0.00000E+00        -0.32734E+07
 
   -0.29657E+07         0.80351E+06         0.00000E+00
    0.80351E+06        -0.13429E+08         0.00000E+00
    0.00000E+00         0.00000E+00        -0.32789E+07
 
   -0.29889E+07         0.86786E+06         0.00000E+00
    0.86786E+06        -0.13432E+08         0.00000E+00
    0.00000E+00         0.00000E+00        -0.32842E+07
 
   -0.30111E+07         0.93239E+06         0.00000E+00
    0.93239E+06        -0.13436E+08         0.00000E+00
    0.00000E+00         0.00000E+00        -0.32894E+07
 
   -0.30322E+07         0.99716E+06         0.00000E+00
    0.99716E+06        -0.13440E+08         0.00000E+00
    0.00000E+00         0.00000E+00        -0.32944E+07
 
   -0.30524E+07         0.10622E+07         0.00000E+00
    0.10622E+07        -0.13444E+08         0.00000E+00
    0.00000E+00         0.00000E+00        -0.32992E+07
 
   -0.30717E+07         0.11275E+07         0.00000E+00
    0.11275E+07        -0.13448E+08         0.00000E+00
    0.00000E+00         0.00000E+00        -0.33039E+07
 
   -0.30900E+07         0.11931E+07         0.00000E+00
    0.11931E+07        -0.13452E+08         0.00000E+00
    0.00000E+00         0.00000E+00        -0.33084E+07
 
   -0.31074E+07         0.12591E+07         0.00000E+00
    0.12591E+07        -0.13456E+08         0.00000E+00
    0.00000E+00         0.00000E+00        -0.33128E+07
 
   -0.31240E+07         0.13254E+07         0.00000E+00
    0.13254E+07        -0.13461E+08         0.00000E+00
    0.00000E+00         0.00000E+00        -0.33170E+07
 
   -0.31398E+07         0.13921E+07         0.00000E+00
    0.13921E+07        -0.13465E+08         0.00000E+00
    0.00000E+00         0.00000E+00        -0.33210E+07
 
   -0.31548E+07         0.14593E+07         0.00000E+00
    0.14593E+07        -0.13470E+08         0.00000E+00
    0.00000E+00         0.00000E+00        -0.33249E+07
 
   -0.31690E+07         0.15268E+07         0.00000E+00
    0.15268E+07        -0.13474E+08         0.00000E+00
    0.00000E+00         0.00000E+00        -0.33287E+07
 
   -0.31825E+07         0.15949E+07         0.00000E+00
    0.15949E+07        -0.13479E+08         0.00000E+00
    0.00000E+00         0.00000E+00        -0.33323E+07
 
   -0.31953E+07         0.16634E+07         0.00000E+00
    0.16634E+07        -0.13483E+08         0.00000E+00
    0.00000E+00         0.00000E+00        -0.33357E+07
 
   -0.32075E+07         0.17323E+07         0.00000E+00
    0.17323E+07        -0.13488E+08         0.00000E+00
    0.00000E+00         0.00000E+00        -0.33390E+07
 
   -0.32190E+07         0.18018E+07         0.00000E+00
    0.18018E+07        -0.13492E+08         0.00000E+00
    0.00000E+00         0.00000E+00        -0.33422E+07
 
   -0.32300E+07         0.18718E+07         0.00000E+00
    0.18718E+07        -0.13496E+08         0.00000E+00
    0.00000E+00         0.00000E+00        -0.33453E+07
 
   -0.32404E+07         0.19424E+07         0.00000E+00
    0.19424E+07        -0.13501E+08         0.00000E+00
    0.00000E+00         0.00000E+00        -0.33482E+07
 
   -0.32503E+07         0.20134E+07         0.00000E+00
    0.20134E+07        -0.13505E+08         0.00000E+00
    0.00000E+00         0.00000E+00        -0.33510E+07
 
   -0.32596E+07         0.20851E+07         0.00000E+00
    0.20851E+07        -0.13508E+08         0.00000E+00
    0.00000E+00         0.00000E+00        -0.33536E+07
 
   -0.32686E+07         0.21573E+07         0.00000E+00
    0.21573E+07        -0.13512E+08         0.00000E+00
    0.00000E+00         0.00000E+00        -0.33562E+07
 
   -0.32771E+07         0.22301E+07         0.00000E+00
    0.22301E+07        -0.13516E+08         0.00000E+00
    0.00000E+00         0.00000E+00        -0.33586E+07
 
   -0.32852E+07         0.23034E+07         0.00000E+00
    0.23034E+07        -0.13519E+08         0.00000E+00
    0.00000E+00         0.00000E+00        -0.33608E+07
 
   -0.32929E+07         0.23774E+07         0.00000E+00
    0.23774E+07        -0.13522E+08         0.00000E+00
    0.00000E+00         0.00000E+00        -0.33630E+07
 
   -0.33003E+07         0.24519E+07         0.00000E+00
    0.24519E+07        -0.13525E+08         0.00000E+00
    0.00000E+00         0.00000E+00        -0.33651E+07
 
   -0.33074E+07         0.25271E+07         0.00000E+00
    0.25271E+07        -0.13528E+08         0.00000E+00
    0.00000E+00         0.00000E+00        -0.33670E+07
 
   -0.33143E+07         0.26029E+07         0.00000E+00
    0.26029E+07        -0.13530E+08         0.00000E+00
    0.00000E+00         0.00000E+00        -0.33688E+07
 
   -0.33209E+07         0.26792E+07         0.00000E+00
    0.26792E+07        -0.13532E+08         0.00000E+00
    0.00000E+00         0.00000E+00        -0.33705E+07
 
   -0.33273E+07         0.27562E+07         0.00000E+00
    0.27562E+07        -0.13533E+08         0.00000E+00
    0.00000E+00         0.00000E+00        -0.33721E+07
 
   -0.33335E+07         0.28339E+07         0.00000E+00
    0.28339E+07        -0.13535E+08         0.00000E+00
    0.00000E+00         0.00000E+00        -0.33736E+07
 
   -0.33395E+07         0.29121E+07         0.00000E+00
    0.29121E+07        -0.13536E+08         0.00000E+00
    0.00000E+00         0.00000E+00        -0.33750E+07
 
   -0.33454E+07         0.29910E+07         0.00000E+00
    0.29910E+07        -0.13536E+08         0.00000E+00
    0.00000E+00         0.00000E+00        -0.33763E+07
 
   -0.33512E+07         0.30705E+07         0.00000E+00
    0.30705E+07        -0.13536E+08         0.00000E+00
    0.00000E+00         0.00000E+00        -0.33775E+07
 
   -0.33570E+07         0.31506E+07         0.00000E+00
    0.31506E+07        -0.13536E+08         0.00000E+00
    0.00000E+00         0.00000E+00        -0.33786E+07
 
   -0.33627E+07         0.32314E+07         0.00000E+00
    0.32314E+07        -0.13536E+08         0.00000E+00
    0.00000E+00         0.00000E+00        -0.33796E+07
 
   -0.33683E+07         0.33127E+07         0.00000E+00
    0.33127E+07        -0.13534E+08         0.00000E+00
    0.00000E+00         0.00000E+00        -0.33806E+07
 
   -0.33739E+07         0.33948E+07         0.00000E+00
    0.33948E+07        -0.13533E+08         0.00000E+00
    0.00000E+00         0.00000E+00        -0.33814E+07
 
   -0.33796E+07         0.34774E+07         0.00000E+00
    0.34774E+07        -0.13531E+08         0.00000E+00
    0.00000E+00         0.00000E+00        -0.33821E+07
 
   -0.28645E+07         0.31953E+05         0.00000E+00
    0.31953E+05        -0.13993E+08         0.00000E+00
    0.00000E+00         0.00000E+00        -0.33715E+07
 
   -0.29033E+07         0.95043E+05         0.00000E+00
    0.95043E+05        -0.13994E+08         0.00000E+00
    0.00000E+00         0.00000E+00        -0.33794E+07
 
   -0.29405E+07         0.15786E+06         0.00000E+00
    0.15786E+06        -0.13994E+08         0.00000E+00
    0.00000E+00         0.00000E+00        -0.33870E+07
 
   -0.29763E+07         0.22046E+06         0.00000E+00
    0.22046E+06        -0.13996E+08         0.00000E+00
    0.00000E+00         0.00000E+00        -0.33944E+07
 
   -0.30106E+07         0.28290E+06         0.00000E+00
    0.28290E+06        -0.13997E+08         0.00000E+00
    0.00000E+00         0.00000E+00        -0.34016E+07
 
   -0.30435E+07         0.34523E+06         0.00000E+00
    0.34523E+06        -0.13999E+08         0.00000E+00
    0.00000E+00         0.00000E+00        -0.34086E+07
 
   -0.30748E+07         0.40750E+06         0.00000E+00
    0.40750E+06        -0.14002E+08         0.00000E+00
    0.00000E+00         0.00000E+00        -0.34153E+07
 
   -0.31048E+07         0.46977E+06         0.00000E+00
    0.46977E+06        -0.14005E+08         0.00000E+00
    0.00000E+00         0.00000E+00        -0.34219E+07
 
   -0.31334E+07         0.53207E+06         0.00000E+00
    0.53207E+06        -0.14008E+08         0.00000E+00
    0.00000E+00         0.00000E+00        -0.34283E+07
 
   -0.31607E+07         0.59447E+06         0.00000E+00
    0.59447E+06        -0.14012E+08         0.00000E+00
    0.00000E+00         0.00000E+00        -0.34344E+07
 
   -0.31865E+07         0.65700E+06         0.00000E+00
    0.65700E+06        -0.14015E+08         0.00000E+00
    0.00000E+00         0.00000E+00        -0.34404E+07
 
   -0.32111E+07         0.71970E+06         0.00000E+00
    0.71970E+06        -0.14020E+08         0.00000E+00
    0.00000E+00         0.00000E+00        -0.34462E+07
 
   -0.32345E+07         0.78262E+06         0.00000E+00
    0.78262E+06        -0.14024E+08         0.00000E+00
    0.00000E+00         0.00000E+00        -0.34517E+07
 
   -0.32565E+07         0.84579E+06         0.00000E+00
    0.84579E+06        -0.14029E+08         0.00000E+00
    0.00000E+00         0.00000E+00        -0.34571E+07
 
   -0.32774E+07         0.90926E+06         0.00000E+00
    0.90926E+06        -0.14034E+08         0.00000E+00
    0.00000E+00         0.00000E+00        -0.34623E+07
 
   -0.32971E+07         0.97305E+06         0.00000E+00
    0.97305E+06        -0.14039E+08         0.00000E+00
    0.00000E+00         0.00000E+00        -0.34673E+07
 
   -0.33157E+07         0.10372E+07         0.00000E+00
    0.10372E+07        -0.14045E+08         0.00000E+00
    0.00000E+00         0.00000E+00        -0.34721E+07
 
   -0.33332E+07         0.11018E+07         0.00000E+00
    0.11018E+07        -0.14050E+08         0.00000E+00
    0.00000E+00         0.00000E+00        -0.34767E+07
 
   -0.33496E+07         0.11667E+07         0.00000E+00
    0.11667E+07        -0.14056E+08         0.00000E+00
    0.00000E+00         0.00000E+00        -0.34812E+07
 
   -0.33650E+07         0.12322E+07         0.00000E+00
    0.12322E+07        -0.14062E+08         0.00000E+00
    0.00000E+00         0.00000E+00        -0.34854E+07
 
   -0.33795E+07         0.12981E+07         0.00000E+00
    0.12981E+07        -0.14068E+08         0.00000E+00
    0.00000E+00         0.00000E+00        -0.34895E+07
 
   -0.33930E+07         0.13645E+07         0.00000E+00
    0.13645E+07        -0.14074E+08         0.00000E+00
    0.00000E+00         0.00000E+00        -0.34935E+07
 
   -0.34056E+07         0.14314E+07         0.00000E+00
    0.14314E+07        -0.14081E+08         0.00000E+00
    0.00000E+00         0.00000E+00        -0.34972E+07
 
   -0.34173E+07         0.14989E+07         0.00000E+00
    0.14989E+07        -0.14087E+08         0.00000E+00
    0.00000E+00         0.00000E+00        -0.35008E+07
 
   -0.34283E+07         0.15670E+07         0.00000E+00
    0.15670E+07        -0.14093E+08         0.00000E+00
    0.00000E+00         0.00000E+00        -0.35043E+07
 
   -0.34384E+07         0.16356E+07         0.00000E+00
    0.16356E+07        -0.14100E+08         0.00000E+00
    0.00000E+00         0.00000E+00        -0.35076E+07
 
   -0.34478E+07         0.17049E+07         0.00000E+00
    0.17049E+07        -0.14106E+08         0.00000E+00
    0.00000E+00         0.00000E+00        -0.35107E+07
 
   -0.34566E+07         0.17747E+07         0.00000E+00
    0.17747E+07        -0.14112E+08         0.00000E+00
    0.00000E+00         0.00000E+00        -0.35137E+07
 
   -0.34646E+07         0.18452E+07         0.00000E+00
    0.18452E+07        -0.14118E+08         0.00000E+00
    0.00000E+00         0.00000E+00        -0.35166E+07
 
   -0.34721E+07         0.19164E+07         0.00000E+00
    0.19164E+07        -0.14124E+08         0.00000E+00
    0.00000E+00         0.00000E+00        -0.35193E+07
 
   -0.34789E+07         0.19882E+07         0.00000E+00
    0.19882E+07        -0.14130E+08         0.00000E+00
    0.00000E+00         0.00000E+00        -0.35218E+07
 
   -0.34853E+07         0.20607E+07         0.00000E+00
    0.20607E+07        -0.14136E+08         0.00000E+00
    0.00000E+00         0.00000E+00        -0.35242E+07
 
   -0.34911E+07         0.21338E+07         0.00000E+00
    0.21338E+07        -0.14141E+08         0.00000E+00
    0.00000E+00         0.00000E+00        -0.35265E+07
 
   -0.34964E+07         0.22077E+07         0.00000E+00
    0.22077E+07        -0.14147E+08         0.00000E+00
    0.00000E+00         0.00000E+00        -0.35287E+07
 
   -0.35014E+07         0.22822E+07         0.00000E+00
    0.22822E+07        -0.14152E+08         0.00000E+00
    0.00000E+00         0.00000E+00        -0.35307E+07
 
   -0.35059E+07         0.23574E+07         0.00000E+00
    0.23574E+07        -0.14157E+08         0.00000E+00
    0.00000E+00         0.00000E+00        -0.35326E+07
 
   -0.35101E+07         0.24333E+07         0.00000E+00
    0.24333E+07        -0.14162E+08         0.00000E+00
    0.00000E+00         0.00000E+00        -0.35343E+07
 
   -0.35139E+07         0.25100E+07         0.00000E+00
    0.25100E+07        -0.14166E+08         0.00000E+00
    0.00000E+00         0.00000E+00        -0.35360E+07
 
   -0.35175E+07         0.25873E+07         0.00000E+00
    0.25873E+07        -0.14170E+08         0.00000E+00
    0.00000E+00         0.00000E+00        -0.35375E+07
 
   -0.35208E+07         0.26654E+07         0.00000E+00
    0.26654E+07        -0.14174E+08         0.00000E+00
    0.00000E+00         0.00000E+00        -0.35389E+07
 
   -0.35239E+07         0.27441E+07         0.00000E+00
    0.27441E+07        -0.14177E+08         0.00000E+00
    0.00000E+00         0.00000E+00        -0.35402E+07
 
   -0.35267E+07         0.28236E+07         0.00000E+00
    0.28236E+07        -0.14180E+08         0.00000E+00
    0.00000E+00         0.00000E+00        -0.35414E+07
 
   -0.35295E+07         0.29038E+07         0.00000E+00
    0.29038E+07        -0.14183E+08         0.00000E+00
    0.00000E+00         0.00000E+00        -0.35425E+07
 
   -0.35320E+07         0.29847E+07         0.00000E+00
    0.29847E+07        -0.14185E+08         0.00000E+00
    0.00000E+00         0.00000E+00        -0.35435E+07
 
   -0.35345E+07         0.30663E+07         0.00000E+00
    0.30663E+07        -0.14187E+08         0.00000E+00
    0.00000E+00         0.00000E+00        -0.35443E+07
 
   -0.35369E+07         0.31487E+07         0.00000E+00
    0.31487E+07        -0.14188E+08         0.00000E+00
    0.00000E+00         0.00000E+00        -0.35451E+07
 
   -0.35392E+07         0.32317E+07         0.00000E+00
    0.32317E+07        -0.14189E+08         0.00000E+00
    0.00000E+00         0.00000E+00        -0.35457E+07
 
   -0.35415E+07         0.33154E+07         0.00000E+00
    0.33154E+07        -0.14190E+08         0.00000E+00
    0.00000E+00         0.00000E+00        -0.35463E+07
 
   -0.35438E+07         0.33999E+07         0.00000E+00
    0.33999E+07        -0.14190E+08         0.00000E+00
    0.00000E+00         0.00000E+00        -0.35467E+07
 
   -0.35461E+07         0.34851E+07         0.00000E+00
    0.34851E+07        -0.14189E+08         0.00000E+00
    0.00000E+00         0.00000E+00        -0.35471E+07
 
   -0.31621E+07         0.30622E+05         0.00000E+00
    0.30622E+05        -0.14601E+08         0.00000E+00
    0.00000E+00         0.00000E+00        -0.35526E+07
 
   -0.32023E+07         0.91125E+05         0.00000E+00
    0.91125E+05        -0.14601E+08         0.00000E+00
    0.00000E+00         0.00000E+00        -0.35607E+07
 
   -0.32407E+07         0.15140E+06         0.00000E+00
    0.15140E+06        -0.14602E+08         0.00000E+00
    0.00000E+00         0.00000E+00        -0.35686E+07
 
   -0.32773E+07         0.21151E+06         0.00000E+00
    0.21151E+06        -0.14604E+08         0.00000E+00
    0.00000E+00         0.00000E+00        -0.35763E+07
 
   -0.33121E+07         0.27153E+06         0.00000E+00
    0.27153E+06        -0.14606E+08         0.00000E+00
    0.00000E+00         0.00000E+00        -0.35837E+07
 
   -0.33452E+07         0.33151E+06         0.00000E+00
    0.33151E+06        -0.14609E+08         0.00000E+00
    0.00000E+00         0.00000E+00        -0.35909E+07
 
   -0.33766E+07         0.39151E+06         0.00000E+00
    0.39151E+06        -0.14612E+08         0.00000E+00
    0.00000E+00         0.00000E+00        -0.35978E+07
 
   -0.34063E+07         0.45160E+06         0.00000E+00
    0.45160E+06        -0.14616E+08         0.00000E+00
    0.00000E+00         0.00000E+00        -0.36045E+07
 
   -0.34343E+07         0.51181E+06         0.00000E+00
    0.51181E+06        -0.14620E+08         0.00000E+00
    0.00000E+00         0.00000E+00        -0.36110E+07
 
   -0.34608E+07         0.57222E+06         0.00000E+00
    0.57222E+06        -0.14625E+08         0.00000E+00
    0.00000E+00         0.00000E+00        -0.36172E+07
 
   -0.34856E+07         0.63286E+06         0.00000E+00
    0.63286E+06        -0.14630E+08         0.00000E+00
    0.00000E+00         0.00000E+00        -0.36232E+07
 
   -0.35090E+07         0.69379E+06         0.00000E+00
    0.69379E+06        -0.14636E+08         0.00000E+00
    0.00000E+00         0.00000E+00        -0.36290E+07
 
   -0.35309E+07         0.75505E+06         0.00000E+00
    0.75505E+06        -0.14642E+08         0.00000E+00
    0.00000E+00         0.00000E+00        -0.36345E+07
 
   -0.35513E+07         0.81668E+06         0.00000E+00
    0.81668E+06        -0.14648E+08         0.00000E+00
    0.00000E+00         0.00000E+00        -0.36399E+07
 
   -0.35703E+07         0.87873E+06         0.00000E+00
    0.87873E+06        -0.14655E+08         0.00000E+00
    0.00000E+00         0.00000E+00        -0.36450E+07
 
   -0.35880E+07         0.94124E+06         0.00000E+00
    0.94124E+06        -0.14661E+08         0.00000E+00
    0.00000E+00         0.00000E+00        -0.36499E+07
 
   -0.36044E+07         0.10042E+07         0.00000E+00
    0.10042E+07        -0.14669E+08         0.00000E+00
    0.00000E+00         0.00000E+00        -0.36546E+07
 
   -0.36196E+07         0.10678E+07         0.00000E+00
    0.10678E+07        -0.14676E+08         0.00000E+00
    0.00000E+00         0.00000E+00        -0.36591E+07
 
   -0.36335E+07         0.11318E+07         0.00000E+00
    0.11318E+07        -0.14684E+08         0.00000E+00
    0.00000E+00         0.00000E+00        -0.36635E+07
 
   -0.36463E+07         0.11965E+07         0.00000E+00
    0.11965E+07        -0.14692E+08         0.00000E+00
    0.00000E+00         0.00000E+00        -0.36676E+07
 
   -0.36580E+07         0.12618E+07         0.00000E+00
    0.12618E+07        -0.14700E+08         0.00000E+00
    0.00000E+00         0.00000E+00        -0.36715E+07
 
   -0.36686E+07         0.13277E+07         0.00000E+00
    0.13277E+07        -0.14708E+08         0.00000E+00
    0.00000E+00         0.00000E+00        -0.36753E+07
 
   -0.36782E+07         0.13943E+07         0.00000E+00
    0.13943E+07        -0.14716E+08         0.00000E+00
    0.00000E+00         0.00000E+00        -0.36788E+07
 
   -0.36868E+07         0.14615E+07         0.00000E+00
    0.14615E+07        -0.14724E+08         0.00000E+00
    0.00000E+00         0.00000E+00        -0.36822E+07
 
   -0.36945E+07         0.15295E+07         0.00000E+00
    0.15295E+07        -0.14733E+08         0.00000E+00
    0.00000E+00         0.00000E+00        -0.36854E+07
 
   -0.37014E+07         0.15982E+07         0.00000E+00
    0.15982E+07        -0.14741E+08         0.00000E+00
    0.00000E+00         0.00000E+00        -0.36885E+07
 
   -0.37075E+07         0.16677E+07         0.00000E+00
    0.16677E+07        -0.14749E+08         0.00000E+00
    0.00000E+00         0.00000E+00        -0.36914E+07
 
   -0.37127E+07         0.17379E+07         0.00000E+00
    0.17379E+07        -0.14758E+08         0.00000E+00
    0.00000E+00         0.00000E+00        -0.36941E+07
 
   -0.37173E+07         0.18088E+07         0.00000E+00
    0.18088E+07        -0.14766E+08         0.00000E+00
    0.00000E+00         0.00000E+00        -0.36967E+07
 
   -0.37212E+07         0.18806E+07         0.00000E+00
    0.18806E+07        -0.14774E+08         0.00000E+00
    0.00000E+00         0.00000E+00        -0.36991E+07
 
   -0.37245E+07         0.19531E+07         0.00000E+00
    0.19531E+07        -0.14782E+08         0.00000E+00
    0.00000E+00         0.00000E+00        -0.37013E+07
 
   -0.37271E+07         0.20264E+07         0.00000E+00
    0.20264E+07        -0.14790E+08         0.00000E+00
    0.00000E+00         0.00000E+00        -0.37034E+07
 
   -0.37293E+07         0.21006E+07         0.00000E+00
    0.21006E+07        -0.14798E+08         0.00000E+00
    0.00000E+00         0.00000E+00        -0.37054E+07
 
   -0.37309E+07         0.21755E+07         0.00000E+00
    0.21755E+07        -0.14805E+08         0.00000E+00
    0.00000E+00         0.00000E+00        -0.37072E+07
 
   -0.37321E+07         0.22512E+07         0.00000E+00
    0.22512E+07        -0.14813E+08         0.00000E+00
    0.00000E+00         0.00000E+00        -0.37089E+07
 
   -0.37329E+07         0.23278E+07         0.00000E+00
    0.23278E+07        -0.14820E+08         0.00000E+00
    0.00000E+00         0.00000E+00        -0.37105E+07
 
   -0.37333E+07         0.24052E+07         0.00000E+00
    0.24052E+07        -0.14826E+08         0.00000E+00
    0.00000E+00         0.00000E+00        -0.37119E+07
 
   -0.37333E+07         0.24834E+07         0.00000E+00
    0.24834E+07        -0.14833E+08         0.00000E+00
    0.00000E+00         0.00000E+00        -0.37132E+07
 
   -0.37331E+07         0.25624E+07         0.00000E+00
    0.25624E+07        -0.14839E+08         0.00000E+00
    0.00000E+00         0.00000E+00        -0.37144E+07
 
   -0.37326E+07         0.26422E+07         0.00000E+00
    0.26422E+07        -0.14845E+08         0.00000E+00
    0.00000E+00         0.00000E+00        -0.37154E+07
 
   -0.37319E+07         0.27229E+07         0.00000E+00
    0.27229E+07        -0.14850E+08         0.00000E+00
    0.00000E+00         0.00000E+00        -0.37164E+07
 
   -0.37310E+07         0.28043E+07         0.00000E+00
    0.28043E+07        -0.14855E+08         0.00000E+00
    0.00000E+00         0.00000E+00        -0.37172E+07
 
   -0.37299E+07         0.28866E+07         0.00000E+00
    0.28866E+07        -0.14859E+08         0.00000E+00
    0.00000E+00         0.00000E+00        -0.37179E+07
 
   -0.37287E+07         0.29697E+07         0.00000E+00
    0.29697E+07        -0.14864E+08         0.00000E+00
    0.00000E+00         0.00000E+00        -0.37185E+07
 
   -0.37274E+07         0.30536E+07         0.00000E+00
    0.30536E+07        -0.14867E+08         0.00000E+00
    0.00000E+00         0.00000E+00        -0.37189E+07
 
   -0.37261E+07         0.31382E+07         0.00000E+00
    0.31382E+07        -0.14870E+08         0.00000E+00
    0.00000E+00         0.00000E+00        -0.37193E+07
 
   -0.37246E+07         0.32237E+07         0.00000E+00
    0.32237E+07        -0.14873E+08         0.00000E+00
    0.00000E+00         0.00000E+00        -0.37196E+07
 
   -0.37232E+07         0.33100E+07         0.00000E+00
    0.33100E+07        -0.14875E+08         0.00000E+00
    0.00000E+00         0.00000E+00        -0.37197E+07
 
   -0.37218E+07         0.33970E+07         0.00000E+00
    0.33970E+07        -0.14877E+08         0.00000E+00
    0.00000E+00         0.00000E+00        -0.37198E+07
 
   -0.37204E+07         0.34848E+07         0.00000E+00
    0.34848E+07        -0.14878E+08         0.00000E+00
    0.00000E+00         0.00000E+00        -0.37197E+07
 
   -0.34964E+07         0.28877E+05         0.00000E+00
    0.28877E+05        -0.15230E+08         0.00000E+00
    0.00000E+00         0.00000E+00        -0.37453E+07
 
   -0.35378E+07         0.86026E+05         0.00000E+00
    0.86026E+05        -0.15231E+08         0.00000E+00
    0.00000E+00         0.00000E+00        -0.37537E+07
 
   -0.35770E+07         0.14302E+06         0.00000E+00
    0.14302E+06        -0.15232E+08         0.00000E+00
    0.00000E+00         0.00000E+00        -0.37618E+07
 
   -0.36140E+07         0.19994E+06         0.00000E+00
    0.19994E+06        -0.15234E+08         0.00000E+00
    0.00000E+00         0.00000E+00        -0.37697E+07
 
   -0.36489E+07         0.25684E+06         0.00000E+00
    0.25684E+06        -0.15237E+08         0.00000E+00
    0.00000E+00         0.00000E+00        -0.37773E+07
 
   -0.36818E+07         0.31382E+06         0.00000E+00
    0.31382E+06        -0.15241E+08         0.00000E+00
    0.00000E+00         0.00000E+00        -0.37845E+07
 
   -0.37126E+07         0.37092E+06         0.00000E+00
    0.37092E+06        -0.15245E+08         0.00000E+00
    0.00000E+00         0.00000E+00        -0.37916E+07
 
   -0.37415E+07         0.42823E+06         0.00000E+00
    0.42823E+06        -0.15250E+08         0.00000E+00
    0.00000E+00         0.00000E+00        -0.37983E+07
 
   -0.37685E+07         0.48579E+06         0.00000E+00
    0.48579E+06        -0.15255E+08         0.00000E+00
    0.00000E+00         0.00000E+00        -0.38048E+07
 
   -0.37935E+07         0.54367E+06         0.00000E+00
    0.54367E+06        -0.15261E+08         0.00000E+00
    0.00000E+00         0.00000E+00        -0.38110E+07
 
   -0.38168E+07         0.60192E+06         0.00000E+00
    0.60192E+06        -0.15268E+08         0.00000E+00
    0.00000E+00         0.00000E+00        -0.38170E+07
 
   -0.38383E+07         0.66060E+06         0.00000E+00
    0.66060E+06        -0.15275E+08         0.00000E+00
    0.00000E+00         0.00000E+00        -0.38227E+07
 
   -0.38580E+07         0.71975E+06         0.00000E+00
    0.71975E+06        -0.15283E+08         0.00000E+00
    0.00000E+00         0.00000E+00        -0.38281E+07
 
   -0.38762E+07         0.77943E+06         0.00000E+00
    0.77943E+06        -0.15291E+08         0.00000E+00
    0.00000E+00         0.00000E+00        -0.38334E+07
 
   -0.38927E+07         0.83968E+06         0.00000E+00
    0.83968E+06        -0.15299E+08         0.00000E+00
    0.00000E+00         0.00000E+00        -0.38383E+07
 
   -0.39076E+07         0.90054E+06         0.00000E+00
    0.90054E+06        -0.15308E+08         0.00000E+00
    0.00000E+00         0.00000E+00        -0.38431E+07
 
   -0.39211E+07         0.96204E+06         0.00000E+00
    0.96204E+06        -0.15317E+08         0.00000E+00
    0.00000E+00         0.00000E+00        -0.38476E+07
 
   -0.39332E+07         0.10242E+07         0.00000E+00
    0.10242E+07        -0.15326E+08         0.00000E+00
    0.00000E+00         0.00000E+00        -0.38519E+07
 
   -0.39439E+07         0.10871E+07         0.00000E+00
    0.10871E+07        -0.15336E+08         0.00000E+00
    0.00000E+00         0.00000E+00        -0.38560E+07
 
   -0.39533E+07         0.11508E+07         0.00000E+00
    0.11508E+07        -0.15346E+08         0.00000E+00
    0.00000E+00         0.00000E+00        -0.38599E+07
 
   -0.39615E+07         0.12152E+07         0.00000E+00
    0.12152E+07        -0.15356E+08         0.00000E+00
    0.00000E+00         0.00000E+00        -0.38636E+07
 
   -0.39685E+07         0.12805E+07         0.00000E+00
    0.12805E+07        -0.15367E+08         0.00000E+00
    0.00000E+00         0.00000E+00        -0.38670E+07
 
   -0.39743E+07         0.13465E+07         0.00000E+00
    0.13465E+07        -0.15377E+08         0.00000E+00
    0.00000E+00         0.00000E+00        -0.38703E+07
 
   -0.39791E+07         0.14135E+07         0.00000E+00
    0.14135E+07        -0.15388E+08         0.00000E+00
    0.00000E+00         0.00000E+00        -0.38734E+07
 
   -0.39829E+07         0.14812E+07         0.00000E+00
    0.14812E+07        -0.15399E+08         0.00000E+00
    0.00000E+00         0.00000E+00        -0.38763E+07
 
   -0.39858E+07         0.15499E+07         0.00000E+00
    0.15499E+07        -0.15409E+08         0.00000E+00
    0.00000E+00         0.00000E+00        -0.38790E+07
 
   -0.39877E+07         0.16195E+07         0.00000E+00
    0.16195E+07        -0.15420E+08         0.00000E+00
    0.00000E+00         0.00000E+00        -0.38816E+07
 
   -0.39889E+07         0.16899E+07         0.00000E+00
    0.16899E+07        -0.15431E+08         0.00000E+00
    0.00000E+00         0.00000E+00        -0.38839E+07
 
   -0.39892E+07         0.17613E+07         0.00000E+00
    0.17613E+07        -0.15441E+08         0.00000E+00
    0.00000E+00         0.00000E+00        -0.38861E+07
 
   -0.39889E+07         0.18337E+07         0.00000E+00
    0.18337E+07        -0.15452E+08         0.00000E+00
    0.00000E+00         0.00000E+00        -0.38882E+07
 
   -0.39878E+07         0.19069E+07         0.00000E+00
    0.19069E+07        -0.15462E+08         0.00000E+00
    0.00000E+00         0.00000E+00        -0.38900E+07
 
   -0.39862E+07         0.19812E+07         0.00000E+00
    0.19812E+07        -0.15473E+08         0.00000E+00
    0.00000E+00         0.00000E+00        -0.38918E+07
 
   -0.39840E+07         0.20563E+07         0.00000E+00
    0.20563E+07        -0.15483E+08         0.00000E+00
    0.00000E+00         0.00000E+00        -0.38933E+07
 
   -0.39813E+07         0.21324E+07         0.00000E+00
    0.21324E+07        -0.15492E+08         0.00000E+00
    0.00000E+00         0.00000E+00        -0.38947E+07
 
   -0.39781E+07         0.22095E+07         0.00000E+00
    0.22095E+07        -0.15502E+08         0.00000E+00
    0.00000E+00         0.00000E+00        -0.38960E+07
 
   -0.39745E+07         0.22875E+07         0.00000E+00
    0.22875E+07        -0.15511E+08         0.00000E+00
    0.00000E+00         0.00000E+00        -0.38972E+07
 
   -0.39705E+07         0.23664E+07         0.00000E+00
    0.23664E+07        -0.15520E+08         0.00000E+00
    0.00000E+00         0.00000E+00        -0.38982E+07
 
   -0.39662E+07         0.24463E+07         0.00000E+00
    0.24463E+07        -0.15529E+08         0.00000E+00
    0.00000E+00         0.00000E+00        -0.38991E+07
 
   -0.39617E+07         0.25271E+07         0.00000E+00
    0.25271E+07        -0.15537E+08         0.00000E+00
    0.00000E+00         0.00000E+00        -0.38998E+07
 
   -0.39568E+07         0.26089E+07         0.00000E+00
    0.26089E+07        -0.15545E+08         0.00000E+00
    0.00000E+00         0.00000E+00        -0.39004E+07
 
   -0.39518E+07         0.26915E+07         0.00000E+00
    0.26915E+07        -0.15553E+08         0.00000E+00
    0.00000E+00         0.00000E+00        -0.39009E+07
 
   -0.39466E+07         0.27751E+07         0.00000E+00
    0.27751E+07        -0.15560E+08         0.00000E+00
    0.00000E+00         0.00000E+00        -0.39013E+07
 
   -0.39413E+07         0.28596E+07         0.00000E+00
    0.28596E+07        -0.15567E+08         0.00000E+00
    0.00000E+00         0.00000E+00        -0.39016E+07
 
   -0.39358E+07         0.29450E+07         0.00000E+00
    0.29450E+07        -0.15573E+08         0.00000E+00
    0.00000E+00         0.00000E+00        -0.39017E+07
 
   -0.39303E+07         0.30313E+07         0.00000E+00
    0.30313E+07        -0.15578E+08         0.00000E+00
    0.00000E+00         0.00000E+00        -0.39017E+07
 
   -0.39248E+07         0.31185E+07         0.00000E+00
    0.31185E+07        -0.15584E+08         0.00000E+00
    0.00000E+00         0.00000E+00        -0.39017E+07
 
   -0.39193E+07         0.32066E+07         0.00000E+00
    0.32066E+07        -0.15588E+08         0.00000E+00
    0.00000E+00         0.00000E+00        -0.39015E+07
 
   -0.39137E+07         0.32955E+07         0.00000E+00
    0.32955E+07        -0.15592E+08         0.00000E+00
    0.00000E+00         0.00000E+00        -0.39012E+07
 
   -0.39082E+07         0.33853E+07         0.00000E+00
    0.33853E+07        -0.15596E+08         0.00000E+00
    0.00000E+00         0.00000E+00        -0.39008E+07
 
   -0.39028E+07         0.34759E+07         0.00000E+00
    0.34759E+07        -0.15599E+08         0.00000E+00
    0.00000E+00         0.00000E+00        -0.39003E+07
 
   -0.38726E+07         0.26643E+05         0.00000E+00
    0.26643E+05        -0.15882E+08         0.00000E+00
    0.00000E+00         0.00000E+00        -0.39509E+07
 
   -0.39147E+07         0.79539E+05         0.00000E+00
    0.79539E+05        -0.15883E+08         0.00000E+00
    0.00000E+00         0.00000E+00        -0.39596E+07
 
   -0.39542E+07         0.13239E+06         0.00000E+00
    0.13239E+06        -0.15885E+08         0.00000E+00
    0.00000E+00         0.00000E+00        -0.39678E+07
 
   -0.39912E+07         0.18528E+06         0.00000E+00
    0.18528E+06        -0.15888E+08         0.00000E+00
    0.00000E+00         0.00000E+00        -0.39758E+07
 
   -0.40257E+07         0.23829E+06         0.00000E+00
    0.23829E+06        -0.15891E+08         0.00000E+00
    0.00000E+00         0.00000E+00        -0.39834E+07
 
   -0.40577E+07         0.29150E+06         0.00000E+00
    0.29150E+06        -0.15896E+08         0.00000E+00
    0.00000E+00         0.00000E+00        -0.39907E+07
 
   -0.40874E+07         0.34500E+06         0.00000E+00
    0.34500E+06        -0.15901E+08         0.00000E+00
    0.00000E+00         0.00000E+00        -0.39977E+07
 
   -0.41147E+07         0.39884E+06         0.00000E+00
    0.39884E+06        -0.15907E+08         0.00000E+00
    0.00000E+00         0.00000E+00        -0.40044E+07
 
   -0.41399E+07         0.45311E+06         0.00000E+00
    0.45311E+06        -0.15914E+08         0.00000E+00
    0.00000E+00         0.00000E+00        -0.40108E+07
 
   -0.41628E+07         0.50785E+06         0.00000E+00
    0.50785E+06        -0.15922E+08         0.00000E+00
    0.00000E+00         0.00000E+00        -0.40169E+07
 
   -0.41837E+07         0.56315E+06         0.00000E+00
    0.56315E+06        -0.15930E+08         0.00000E+00
    0.00000E+00         0.00000E+00        -0.40227E+07
 
   -0.42025E+07         0.61905E+06         0.00000E+00
    0.61905E+06        -0.15939E+08         0.00000E+00
    0.00000E+00         0.00000E+00        -0.40282E+07
 
   -0.42194E+07         0.67561E+06         0.00000E+00
    0.67561E+06        -0.15948E+08         0.00000E+00
    0.00000E+00         0.00000E+00        -0.40335E+07
 
   -0.42343E+07         0.73287E+06         0.00000E+00
    0.73287E+06        -0.15958E+08         0.00000E+00
    0.00000E+00         0.00000E+00        -0.40385E+07
 
   -0.42475E+07         0.79090E+06         0.00000E+00
    0.79090E+06        -0.15968E+08         0.00000E+00
    0.00000E+00         0.00000E+00        -0.40432E+07
 
   -0.42589E+07         0.84972E+06         0.00000E+00
    0.84972E+06        -0.15979E+08         0.00000E+00
    0.00000E+00         0.00000E+00        -0.40477E+07
 
   -0.42686E+07         0.90938E+06         0.00000E+00
    0.90938E+06        -0.15991E+08         0.00000E+00
    0.00000E+00         0.00000E+00        -0.40519E+07
 
   -0.42767E+07         0.96992E+06         0.00000E+00
    0.96992E+06        -0.16003E+08         0.00000E+00
    0.00000E+00         0.00000E+00        -0.40559E+07
 
   -0.42833E+07         0.10314E+07         0.00000E+00
    0.10314E+07        -0.16015E+08         0.00000E+00
    0.00000E+00         0.00000E+00        -0.40596E+07
 
   -0.42885E+07         0.10938E+07         0.00000E+00
    0.10938E+07        -0.16027E+08         0.00000E+00
    0.00000E+00         0.00000E+00        -0.40631E+07
 
   -0.42922E+07         0.11571E+07         0.00000E+00
    0.11571E+07        -0.16040E+08         0.00000E+00
    0.00000E+00         0.00000E+00        -0.40664E+07
 
   -0.42947E+07         0.12215E+07         0.00000E+00
    0.12215E+07        -0.16053E+08         0.00000E+00
    0.00000E+00         0.00000E+00        -0.40695E+07
 
   -0.42960E+07         0.12869E+07         0.00000E+00
    0.12869E+07        -0.16066E+08         0.00000E+00
    0.00000E+00         0.00000E+00        -0.40723E+07
 
   -0.42960E+07         0.13533E+07         0.00000E+00
    0.13533E+07        -0.16079E+08         0.00000E+00
    0.00000E+00         0.00000E+00        -0.40750E+07
 
   -0.42950E+07         0.14208E+07         0.00000E+00
    0.14208E+07        -0.16092E+08         0.00000E+00
    0.00000E+00         0.00000E+00        -0.40774E+07
 
   -0.42930E+07         0.14893E+07         0.00000E+00
    0.14893E+07        -0.16105E+08         0.00000E+00
    0.00000E+00         0.00000E+00        -0.40797E+07
 
   -0.42901E+07         0.15590E+07         0.00000E+00
    0.15590E+07        -0.16119E+08         0.00000E+00
    0.00000E+00         0.00000E+00        -0.40818E+07
 
   -0.42862E+07         0.16297E+07         0.00000E+00
    0.16297E+07        -0.16132E+08         0.00000E+00
    0.00000E+00         0.00000E+00        -0.40837E+07
 
   -0.42815E+07         0.17015E+07         0.00000E+00
    0.17015E+07        -0.16145E+08         0.00000E+00
    0.00000E+00         0.00000E+00        -0.40854E+07
 
   -0.42761E+07         0.17745E+07         0.00000E+00
    0.17745E+07        -0.16159E+08         0.00000E+00
    0.00000E+00         0.00000E+00        -0.40870E+07
 
   -0.42700E+07         0.18485E+07         0.00000E+00
    0.18485E+07        -0.16172E+08         0.00000E+00
    0.00000E+00         0.00000E+00        -0.40883E+07
 
   -0.42633E+07         0.19236E+07         0.00000E+00
    0.19236E+07        -0.16185E+08         0.00000E+00
    0.00000E+00         0.00000E+00        -0.40896E+07
 
   -0.42560E+07         0.19999E+07         0.00000E+00
    0.19999E+07        -0.16197E+08         0.00000E+00
    0.00000E+00         0.00000E+00        -0.40906E+07
 
   -0.42482E+07         0.20772E+07         0.00000E+00
    0.20772E+07        -0.16210E+08         0.00000E+00
    0.00000E+00         0.00000E+00        -0.40916E+07
 
   -0.42400E+07         0.21557E+07         0.00000E+00
    0.21557E+07        -0.16222E+08         0.00000E+00
    0.00000E+00         0.00000E+00        -0.40924E+07
 
   -0.42313E+07         0.22352E+07         0.00000E+00
    0.22352E+07        -0.16234E+08         0.00000E+00
    0.00000E+00         0.00000E+00        -0.40930E+07
 
   -0.42223E+07         0.23159E+07         0.00000E+00
    0.23159E+07        -0.16245E+08         0.00000E+00
    0.00000E+00         0.00000E+00        -0.40935E+07
 
   -0.42131E+07         0.23976E+07         0.00000E+00
    0.23976E+07        -0.16256E+08         0.00000E+00
    0.00000E+00         0.00000E+00        -0.40939E+07
 
   -0.42035E+07         0.24804E+07         0.00000E+00
    0.24804E+07        -0.16267E+08         0.00000E+00
    0.00000E+00         0.00000E+00        -0.40941E+07
 
   -0.41938E+07         0.25642E+07         0.00000E+00
    0.25642E+07        -0.16277E+08         0.00000E+00
    0.00000E+00         0.00000E+00        -0.40942E+07
 
   -0.41839E+07         0.26491E+07         0.00000E+00
    0.26491E+07        -0.16287E+08         0.00000E+00
    0.00000E+00         0.00000E+00        -0.40942E+07
 
   -0.41739E+07         0.27350E+07         0.00000E+00
    0.27350E+07        -0.16297E+08         0.00000E+00
    0.00000E+00         0.00000E+00        -0.40941E+07
 
   -0.41638E+07         0.28219E+07         0.00000E+00
    0.28219E+07        -0.16306E+08         0.00000E+00
    0.00000E+00         0.00000E+00        -0.40939E+07
 
   -0.41537E+07         0.29099E+07         0.00000E+00
    0.29099E+07        -0.16314E+08         0.00000E+00
    0.00000E+00         0.00000E+00        -0.40935E+07
 
   -0.41435E+07         0.29988E+07         0.00000E+00
    0.29988E+07        -0.16322E+08         0.00000E+00
    0.00000E+00         0.00000E+00        -0.40931E+07
 
   -0.41334E+07         0.30887E+07         0.00000E+00
    0.30887E+07        -0.16329E+08         0.00000E+00
    0.00000E+00         0.00000E+00        -0.40925E+07
 
   -0.41233E+07         0.31795E+07         0.00000E+00
    0.31795E+07        -0.16336E+08         0.00000E+00
    0.00000E+00         0.00000E+00        -0.40918E+07
 
   -0.41133E+07         0.32713E+07         0.00000E+00
    0.32713E+07        -0.16342E+08         0.00000E+00
    0.00000E+00         0.00000E+00        -0.40911E+07
 
   -0.41034E+07         0.33640E+07         0.00000E+00
    0.33640E+07        -0.16348E+08         0.00000E+00
    0.00000E+00         0.00000E+00        -0.40902E+07
 
   -0.40936E+07         0.34576E+07         0.00000E+00
    0.34576E+07        -0.16353E+08         0.00000E+00
    0.00000E+00         0.00000E+00        -0.40892E+07
 
   -0.42969E+07         0.23834E+05         0.00000E+00
    0.23834E+05        -0.16558E+08         0.00000E+00
    0.00000E+00         0.00000E+00        -0.41710E+07
 
   -0.43391E+07         0.71436E+05         0.00000E+00
    0.71436E+05        -0.16559E+08         0.00000E+00
    0.00000E+00         0.00000E+00        -0.41797E+07
 
   -0.43783E+07         0.11915E+06         0.00000E+00
    0.11915E+06        -0.16562E+08         0.00000E+00
    0.00000E+00         0.00000E+00        -0.41880E+07
 
   -0.44144E+07         0.16706E+06         0.00000E+00
    0.16706E+06        -0.16565E+08         0.00000E+00
    0.00000E+00         0.00000E+00        -0.41959E+07
 
   -0.44476E+07         0.21527E+06         0.00000E+00
    0.21527E+06        -0.16570E+08         0.00000E+00
    0.00000E+00         0.00000E+00        -0.42035E+07
 
   -0.44780E+07         0.26388E+06         0.00000E+00
    0.26388E+06        -0.16575E+08         0.00000E+00
    0.00000E+00         0.00000E+00        -0.42106E+07
 
   -0.45057E+07         0.31295E+06         0.00000E+00
    0.31295E+06        -0.16582E+08         0.00000E+00
    0.00000E+00         0.00000E+00        -0.42175E+07
 
   -0.45307E+07         0.36258E+06         0.00000E+00
    0.36258E+06        -0.16589E+08         0.00000E+00
    0.00000E+00         0.00000E+00        -0.42240E+07
 
   -0.45530E+07         0.41283E+06         0.00000E+00
    0.41283E+06        -0.16598E+08         0.00000E+00
    0.00000E+00         0.00000E+00        -0.42301E+07
 
   -0.45729E+07         0.46378E+06         0.00000E+00
    0.46378E+06        -0.16607E+08         0.00000E+00
    0.00000E+00         0.00000E+00        -0.42360E+07
 
   -0.45904E+07         0.51550E+06         0.00000E+00
    0.51550E+06        -0.16617E+08         0.00000E+00
    0.00000E+00         0.00000E+00        -0.42415E+07
 
   -0.46055E+07         0.56804E+06         0.00000E+00
    0.56804E+06        -0.16628E+08         0.00000E+00
    0.00000E+00         0.00000E+00        -0.42467E+07
 
   -0.46185E+07         0.62146E+06         0.00000E+00
    0.62146E+06        -0.16639E+08         0.00000E+00
    0.00000E+00         0.00000E+00        -0.42515E+07
 
   -0.46292E+07         0.67582E+06         0.00000E+00
    0.67582E+06        -0.16651E+08         0.00000E+00
    0.00000E+00         0.00000E+00        -0.42561E+07
 
   -0.46380E+07         0.73116E+06         0.00000E+00
    0.73116E+06        -0.16664E+08         0.00000E+00
    0.00000E+00         0.00000E+00        -0.42604E+07
 
   -0.46448E+07         0.78754E+06         0.00000E+00
    0.78754E+06        -0.16678E+08         0.00000E+00
    0.00000E+00         0.00000E+00        -0.42645E+07
 
   -0.46497E+07         0.84499E+06         0.00000E+00
    0.84499E+06        -0.16691E+08         0.00000E+00
    0.00000E+00         0.00000E+00        -0.42682E+07
 
   -0.46528E+07         0.90354E+06         0.00000E+00
    0.90354E+06        -0.16706E+08         0.00000E+00
    0.00000E+00         0.00000E+00        -0.42717E+07
 
   -0.46542E+07         0.96324E+06         0.00000E+00
    0.96324E+06        -0.16720E+08         0.00000E+00
    0.00000E+00         0.00000E+00        -0.42749E+07
 
   -0.46541E+07         0.10241E+07         0.00000E+00
    0.10241E+07        -0.16735E+08         0.00000E+00
    0.00000E+00         0.00000E+00        -0.42779E+07
 
   -0.46524E+07         0.10862E+07         0.00000E+00
    0.10862E+07        -0.16751E+08         0.00000E+00
    0.00000E+00         0.00000E+00        -0.42807E+07
 
   -0.46494E+07         0.11495E+07         0.00000E+00
    0.11495E+07        -0.16767E+08         0.00000E+00
    0.00000E+00         0.00000E+00        -0.42832E+07
 
   -0.46450E+07         0.12140E+07         0.00000E+00
    0.12140E+07        -0.16782E+08         0.00000E+00
    0.00000E+00         0.00000E+00        -0.42855E+07
 
   -0.46393E+07         0.12798E+07         0.00000E+00
    0.12798E+07        -0.16798E+08         0.00000E+00
    0.00000E+00         0.00000E+00        -0.42876E+07
 
   -0.46326E+07         0.13469E+07         0.00000E+00
    0.13469E+07        -0.16815E+08         0.00000E+00
    0.00000E+00         0.00000E+00        -0.42894E+07
 
   -0.46247E+07         0.14153E+07         0.00000E+00
    0.14153E+07        -0.16831E+08         0.00000E+00
    0.00000E+00         0.00000E+00        -0.42911E+07
 
   -0.46158E+07         0.14849E+07         0.00000E+00
    0.14849E+07        -0.16847E+08         0.00000E+00
    0.00000E+00         0.00000E+00        -0.42926E+07
 
   -0.46060E+07         0.15559E+07         0.00000E+00
    0.15559E+07        -0.16863E+08         0.00000E+00
    0.00000E+00         0.00000E+00        -0.42939E+07
 
   -0.45954E+07         0.16281E+07         0.00000E+00
    0.16281E+07        -0.16879E+08         0.00000E+00
    0.00000E+00         0.00000E+00        -0.42950E+07
 
   -0.45841E+07         0.17017E+07         0.00000E+00
    0.17017E+07        -0.16896E+08         0.00000E+00
    0.00000E+00         0.00000E+00        -0.42959E+07
 
   -0.45720E+07         0.17765E+07         0.00000E+00
    0.17765E+07        -0.16911E+08         0.00000E+00
    0.00000E+00         0.00000E+00        -0.42967E+07
 
   -0.45593E+07         0.18527E+07         0.00000E+00
    0.18527E+07        -0.16927E+08         0.00000E+00
    0.00000E+00         0.00000E+00        -0.42973E+07
 
   -0.45461E+07         0.19301E+07         0.00000E+00
    0.19301E+07        -0.16943E+08         0.00000E+00
    0.00000E+00         0.00000E+00        -0.42978E+07
 
   -0.45324E+07         0.20088E+07         0.00000E+00
    0.20088E+07        -0.16958E+08         0.00000E+00
    0.00000E+00         0.00000E+00        -0.42981E+07
 
   -0.45183E+07         0.20888E+07         0.00000E+00
    0.20888E+07        -0.16973E+08         0.00000E+00
    0.00000E+00         0.00000E+00        -0.42982E+07
 
   -0.45039E+07         0.21701E+07         0.00000E+00
    0.21701E+07        -0.16987E+08         0.00000E+00
    0.00000E+00         0.00000E+00        -0.42983E+07
 
   -0.44891E+07         0.22526E+07         0.00000E+00
    0.22526E+07        -0.17002E+08         0.00000E+00
    0.00000E+00         0.00000E+00        -0.42982E+07
 
   -0.44742E+07         0.23363E+07         0.00000E+00
    0.23363E+07        -0.17016E+08         0.00000E+00
    0.00000E+00         0.00000E+00        -0.42979E+07
 
   -0.44590E+07         0.24212E+07         0.00000E+00
    0.24212E+07        -0.17029E+08         0.00000E+00
    0.00000E+00         0.00000E+00        -0.42976E+07
 
   -0.44437E+07         0.25074E+07         0.00000E+00
    0.25074E+07        -0.17042E+08         0.00000E+00
    0.00000E+00         0.00000E+00        -0.42971E+07
 
   -0.44284E+07         0.25947E+07         0.00000E+00
    0.25947E+07        -0.17054E+08         0.00000E+00
    0.00000E+00         0.00000E+00        -0.42965E+07
 
   -0.44130E+07         0.26831E+07         0.00000E+00
    0.26831E+07        -0.17066E+08         0.00000E+00
    0.00000E+00         0.00000E+00        -0.42958E+07
 
   -0.43976E+07         0.27727E+07         0.00000E+00
    0.27727E+07        -0.17078E+08         0.00000E+00
    0.00000E+00         0.00000E+00        -0.42950E+07
 
   -0.43823E+07         0.28634E+07         0.00000E+00
    0.28634E+07        -0.17088E+08         0.00000E+00
    0.00000E+00         0.00000E+00        -0.42941E+07
 
   -0.43670E+07         0.29552E+07         0.00000E+00
    0.29552E+07        -0.17099E+08         0.00000E+00
    0.00000E+00         0.00000E+00        -0.42931E+07
 
   -0.43519E+07         0.30480E+07         0.00000E+00
    0.30480E+07        -0.17108E+08         0.00000E+00
    0.00000E+00         0.00000E+00        -0.42920E+07
 
   -0.43369E+07         0.31419E+07         0.00000E+00
    0.31419E+07        -0.17117E+08         0.00000E+00
    0.00000E+00         0.00000E+00        -0.42908E+07
 
   -0.43221E+07         0.32368E+07         0.00000E+00
    0.32368E+07        -0.17125E+08         0.00000E+00
    0.00000E+00         0.00000E+00        -0.42895E+07
 
   -0.43074E+07         0.33327E+07         0.00000E+00
    0.33327E+07        -0.17133E+08         0.00000E+00
    0.00000E+00         0.00000E+00        -0.42881E+07
 
   -0.42930E+07         0.34295E+07         0.00000E+00
    0.34295E+07        -0.17140E+08         0.00000E+00
    0.00000E+00         0.00000E+00        -0.42866E+07
 
   -0.47762E+07         0.20362E+05         0.00000E+00
    0.20362E+05        -0.17259E+08         0.00000E+00
    0.00000E+00         0.00000E+00        -0.44071E+07
 
   -0.48176E+07         0.61482E+05         0.00000E+00
    0.61482E+05        -0.17261E+08         0.00000E+00
    0.00000E+00         0.00000E+00        -0.44157E+07
 
   -0.48554E+07         0.10292E+06         0.00000E+00
    0.10292E+06        -0.17264E+08         0.00000E+00
    0.00000E+00         0.00000E+00        -0.44238E+07
 
   -0.48898E+07         0.14480E+06         0.00000E+00
    0.14480E+06        -0.17268E+08         0.00000E+00
    0.00000E+00         0.00000E+00        -0.44315E+07
 
   -0.49207E+07         0.18720E+06         0.00000E+00
    0.18720E+06        -0.17273E+08         0.00000E+00
    0.00000E+00         0.00000E+00        -0.44388E+07
 
   -0.49484E+07         0.23024E+06         0.00000E+00
    0.23024E+06        -0.17280E+08         0.00000E+00
    0.00000E+00         0.00000E+00        -0.44457E+07
 
   -0.49729E+07         0.27400E+06         0.00000E+00
    0.27400E+06        -0.17288E+08         0.00000E+00
    0.00000E+00         0.00000E+00        -0.44522E+07
 
   -0.49943E+07         0.31858E+06         0.00000E+00
    0.31858E+06        -0.17297E+08         0.00000E+00
    0.00000E+00         0.00000E+00        -0.44583E+07
 
   -0.50128E+07         0.36404E+06         0.00000E+00
    0.36404E+06        -0.17307E+08         0.00000E+00
    0.00000E+00         0.00000E+00        -0.44640E+07
 
   -0.50284E+07         0.41046E+06         0.00000E+00
    0.41046E+06        -0.17318E+08         0.00000E+00
    0.00000E+00         0.00000E+00        -0.44694E+07
 
   -0.50413E+07         0.45792E+06         0.00000E+00
    0.45792E+06        -0.17330E+08         0.00000E+00
    0.00000E+00         0.00000E+00        -0.44744E+07
 
   -0.50515E+07         0.50648E+06         0.00000E+00
    0.50648E+06        -0.17343E+08         0.00000E+00
    0.00000E+00         0.00000E+00        -0.44790E+07
 
   -0.50593E+07         0.55620E+06         0.00000E+00
    0.55620E+06        -0.17357E+08         0.00000E+00
    0.00000E+00         0.00000E+00        -0.44833E+07
 
   -0.50646E+07         0.60713E+06         0.00000E+00
    0.60713E+06        -0.17372E+08         0.00000E+00
    0.00000E+00         0.00000E+00        -0.44873E+07
 
   -0.50677E+07         0.65932E+06         0.00000E+00
    0.65932E+06        -0.17387E+08         0.00000E+00
    0.00000E+00         0.00000E+00        -0.44910E+07
 
   -0.50686E+07         0.71282E+06         0.00000E+00
    0.71282E+06        -0.17403E+08         0.00000E+00
    0.00000E+00         0.00000E+00        -0.44944E+07
 
   -0.50674E+07         0.76766E+06         0.00000E+00
    0.76766E+06        -0.17420E+08         0.00000E+00
    0.00000E+00         0.00000E+00        -0.44974E+07
 
   -0.50643E+07         0.82389E+06         0.00000E+00
    0.82389E+06        -0.17437E+08         0.00000E+00
    0.00000E+00         0.00000E+00        -0.45002E+07
 
   -0.50594E+07         0.88153E+06         0.00000E+00
    0.88153E+06        -0.17454E+08         0.00000E+00
    0.00000E+00         0.00000E+00        -0.45028E+07
 
   -0.50527E+07         0.94061E+06         0.00000E+00
    0.94061E+06        -0.17472E+08         0.00000E+00
    0.00000E+00         0.00000E+00        -0.45050E+07
 
   -0.50444E+07         0.10012E+07         0.00000E+00
    0.10012E+07        -0.17491E+08         0.00000E+00
    0.00000E+00         0.00000E+00        -0.45070E+07
 
   -0.50346E+07         0.10632E+07         0.00000E+00
    0.10632E+07        -0.17509E+08         0.00000E+00
    0.00000E+00         0.00000E+00        -0.45088E+07
 
   -0.50234E+07         0.11267E+07         0.00000E+00
    0.11267E+07        -0.17528E+08         0.00000E+00
    0.00000E+00         0.00000E+00        -0.45104E+07
 
   -0.50108E+07         0.11918E+07         0.00000E+00
    0.11918E+07        -0.17548E+08         0.00000E+00
    0.00000E+00         0.00000E+00        -0.45117E+07
 
   -0.49971E+07         0.12584E+07         0.00000E+00
    0.12584E+07        -0.17567E+08         0.00000E+00
    0.00000E+00         0.00000E+00        -0.45128E+07
 
   -0.49823E+07         0.13265E+07         0.00000E+00
    0.13265E+07        -0.17586E+08         0.00000E+00
    0.00000E+00         0.00000E+00        -0.45137E+07
 
   -0.49664E+07         0.13961E+07         0.00000E+00
    0.13961E+07        -0.17605E+08         0.00000E+00
    0.00000E+00         0.00000E+00        -0.45144E+07
 
   -0.49496E+07         0.14673E+07         0.00000E+00
    0.14673E+07        -0.17625E+08         0.00000E+00
    0.00000E+00         0.00000E+00        -0.45149E+07
 
   -0.49320E+07         0.15400E+07         0.00000E+00
    0.15400E+07        -0.17644E+08         0.00000E+00
    0.00000E+00         0.00000E+00        -0.45152E+07
 
   -0.49136E+07         0.16142E+07         0.00000E+00
    0.16142E+07        -0.17663E+08         0.00000E+00
    0.00000E+00         0.00000E+00        -0.45154E+07
 
   -0.48946E+07         0.16899E+07         0.00000E+00
    0.16899E+07        -0.17682E+08         0.00000E+00
    0.00000E+00         0.00000E+00        -0.45154E+07
 
   -0.48751E+07         0.17672E+07         0.00000E+00
    0.17672E+07        -0.17701E+08         0.00000E+00
    0.00000E+00         0.00000E+00        -0.45152E+07
 
   -0.48550E+07         0.18459E+07         0.00000E+00
    0.18459E+07        -0.17720E+08         0.00000E+00
    0.00000E+00         0.00000E+00        -0.45149E+07
 
   -0.48345E+07         0.19262E+07         0.00000E+00
    0.19262E+07        -0.17738E+08         0.00000E+00
    0.00000E+00         0.00000E+00        -0.45145E+07
 
   -0.48137E+07         0.20078E+07         0.00000E+00
    0.20078E+07        -0.17756E+08         0.00000E+00
    0.00000E+00         0.00000E+00        -0.45139E+07
 
   -0.47926E+07         0.20910E+07         0.00000E+00
    0.20910E+07        -0.17773E+08         0.00000E+00
    0.00000E+00         0.00000E+00        -0.45132E+07
 
   -0.47713E+07         0.21755E+07         0.00000E+00
    0.21755E+07        -0.17791E+08         0.00000E+00
    0.00000E+00         0.00000E+00        -0.45124E+07
 
   -0.47499E+07         0.22614E+07         0.00000E+00
    0.22614E+07        -0.17807E+08         0.00000E+00
    0.00000E+00         0.00000E+00        -0.45114E+07
 
   -0.47284E+07         0.23488E+07         0.00000E+00
    0.23488E+07        -0.17823E+08         0.00000E+00
    0.00000E+00         0.00000E+00        -0.45104E+07
 
   -0.47069E+07         0.24374E+07         0.00000E+00
    0.24374E+07        -0.17839E+08         0.00000E+00
    0.00000E+00         0.00000E+00        -0.45092E+07
 
   -0.46854E+07         0.25274E+07         0.00000E+00
    0.25274E+07        -0.17854E+08         0.00000E+00
    0.00000E+00         0.00000E+00        -0.45079E+07
 
   -0.46640E+07         0.26186E+07         0.00000E+00
    0.26186E+07        -0.17869E+08         0.00000E+00
    0.00000E+00         0.00000E+00        -0.45066E+07
 
   -0.46428E+07         0.27111E+07         0.00000E+00
    0.27111E+07        -0.17883E+08         0.00000E+00
    0.00000E+00         0.00000E+00        -0.45051E+07
 
   -0.46217E+07         0.28048E+07         0.00000E+00
    0.28048E+07        -0.17896E+08         0.00000E+00
    0.00000E+00         0.00000E+00        -0.45036E+07
 
   -0.46009E+07         0.28998E+07         0.00000E+00
    0.28998E+07        -0.17909E+08         0.00000E+00
    0.00000E+00         0.00000E+00        -0.45019E+07
 
   -0.45803E+07         0.29958E+07         0.00000E+00
    0.29958E+07        -0.17921E+08         0.00000E+00
    0.00000E+00         0.00000E+00        -0.45002E+07
 
   -0.45600E+07         0.30930E+07         0.00000E+00
    0.30930E+07        -0.17932E+08         0.00000E+00
    0.00000E+00         0.00000E+00        -0.44984E+07
 
   -0.45400E+07         0.31913E+07         0.00000E+00
    0.31913E+07        -0.17943E+08         0.00000E+00
    0.00000E+00         0.00000E+00        -0.44966E+07
 
   -0.45204E+07         0.32906E+07         0.00000E+00
    0.32906E+07        -0.17953E+08         0.00000E+00
    0.00000E+00         0.00000E+00        -0.44946E+07
 
   -0.45011E+07         0.33909E+07         0.00000E+00
    0.33909E+07        -0.17962E+08         0.00000E+00
    0.00000E+00         0.00000E+00        -0.44926E+07
 
   -0.53182E+07         0.16134E+05         0.00000E+00
    0.16134E+05        -0.17987E+08         0.00000E+00
    0.00000E+00         0.00000E+00        -0.46610E+07
 
   -0.53576E+07         0.49441E+05         0.00000E+00
    0.49441E+05        -0.17989E+08         0.00000E+00
    0.00000E+00         0.00000E+00        -0.46692E+07
 
   -0.53929E+07         0.83361E+05         0.00000E+00
    0.83361E+05        -0.17992E+08         0.00000E+00
    0.00000E+00         0.00000E+00        -0.46770E+07
 
   -0.54241E+07         0.11801E+06         0.00000E+00
    0.11801E+06        -0.17997E+08         0.00000E+00
    0.00000E+00         0.00000E+00        -0.46842E+07
 
   -0.54514E+07         0.15350E+06         0.00000E+00
    0.15350E+06        -0.18004E+08         0.00000E+00
    0.00000E+00         0.00000E+00        -0.46910E+07
 
   -0.54749E+07         0.18994E+06         0.00000E+00
    0.18994E+06        -0.18012E+08         0.00000E+00
    0.00000E+00         0.00000E+00        -0.46974E+07
 
   -0.54948E+07         0.22743E+06         0.00000E+00
    0.22743E+06        -0.18021E+08         0.00000E+00
    0.00000E+00         0.00000E+00        -0.47032E+07
 
   -0.55112E+07         0.26604E+06         0.00000E+00
    0.26604E+06        -0.18032E+08         0.00000E+00
    0.00000E+00         0.00000E+00        -0.47087E+07
 
   -0.55243E+07         0.30588E+06         0.00000E+00
    0.30588E+06        -0.18044E+08         0.00000E+00
    0.00000E+00         0.00000E+00        -0.47137E+07
 
   -0.55342E+07         0.34701E+06         0.00000E+00
    0.34701E+06        -0.18057E+08         0.00000E+00
    0.00000E+00         0.00000E+00        -0.47183E+07
 
   -0.55409E+07         0.38951E+06         0.00000E+00
    0.38951E+06        -0.18072E+08         0.00000E+00
    0.00000E+00         0.00000E+00        -0.47225E+07
 
   -0.55448E+07         0.43344E+06         0.00000E+00
    0.43344E+06        -0.18087E+08         0.00000E+00
    0.00000E+00         0.00000E+00        -0.47264E+07
 
   -0.55459E+07         0.47885E+06         0.00000E+00
    0.47885E+06        -0.18103E+08         0.00000E+00
    0.00000E+00         0.00000E+00        -0.47299E+07
 
   -0.55443E+07         0.52581E+06         0.00000E+00
    0.52581E+06        -0.18121E+08         0.00000E+00
    0.00000E+00         0.00000E+00        -0.47330E+07
 
   -0.55402E+07         0.57436E+06         0.00000E+00
    0.57436E+06        -0.18139E+08         0.00000E+00
    0.00000E+00         0.00000E+00        -0.47358E+07
 
   -0.55337E+07         0.62454E+06         0.00000E+00
    0.62454E+06        -0.18157E+08         0.00000E+00
    0.00000E+00         0.00000E+00        -0.47382E+07
 
   -0.55250E+07         0.67640E+06         0.00000E+00
    0.67640E+06        -0.18177E+08         0.00000E+00
    0.00000E+00         0.00000E+00        -0.47404E+07
 
   -0.55142E+07         0.72995E+06         0.00000E+00
    0.72995E+06        -0.18197E+08         0.00000E+00
    0.00000E+00         0.00000E+00        -0.47423E+07
 
   -0.55015E+07         0.78523E+06         0.00000E+00
    0.78523E+06        -0.18218E+08         0.00000E+00
    0.00000E+00         0.00000E+00        -0.47438E+07
 
   -0.54868E+07         0.84226E+06         0.00000E+00
    0.84226E+06        -0.18239E+08         0.00000E+00
    0.00000E+00         0.00000E+00        -0.47451E+07
 
   -0.54705E+07         0.90106E+06         0.00000E+00
    0.90106E+06        -0.18260E+08         0.00000E+00
    0.00000E+00         0.00000E+00        -0.47461E+07
 
   -0.54526E+07         0.96165E+06         0.00000E+00
    0.96165E+06        -0.18282E+08         0.00000E+00
    0.00000E+00         0.00000E+00        -0.47469E+07
 
   -0.54332E+07         0.10240E+07         0.00000E+00
    0.10240E+07        -0.18304E+08         0.00000E+00
    0.00000E+00         0.00000E+00        -0.47475E+07
 
   -0.54124E+07         0.10882E+07         0.00000E+00
    0.10882E+07        -0.18327E+08         0.00000E+00
    0.00000E+00         0.00000E+00        -0.47478E+07
 
   -0.53904E+07         0.11542E+07         0.00000E+00
    0.11542E+07        -0.18349E+08         0.00000E+00
    0.00000E+00         0.00000E+00        -0.47479E+07
 
   -0.53673E+07         0.12220E+07         0.00000E+00
    0.12220E+07        -0.18372E+08         0.00000E+00
    0.00000E+00         0.00000E+00        -0.47478E+07
 
   -0.53432E+07         0.12916E+07         0.00000E+00
    0.12916E+07        -0.18394E+08         0.00000E+00
    0.00000E+00         0.00000E+00        -0.47475E+07
 
   -0.53182E+07         0.13630E+07         0.00000E+00
    0.13630E+07        -0.18417E+08         0.00000E+00
    0.00000E+00         0.00000E+00        -0.47470E+07
 
   -0.52924E+07         0.14362E+07         0.00000E+00
    0.14362E+07        -0.18440E+08         0.00000E+00
    0.00000E+00         0.00000E+00        -0.47464E+07
 
   -0.52659E+07         0.15111E+07         0.00000E+00
    0.15111E+07        -0.18462E+08         0.00000E+00
    0.00000E+00         0.00000E+00        -0.47456E+07
 
   -0.52388E+07         0.15878E+07         0.00000E+00
    0.15878E+07        -0.18484E+08         0.00000E+00
    0.00000E+00         0.00000E+00        -0.47446E+07
 
   -0.52113E+07         0.16663E+07         0.00000E+00
    0.16663E+07        -0.18506E+08         0.00000E+00
    0.00000E+00         0.00000E+00        -0.47435E+07
 
   -0.51833E+07         0.17465E+07         0.00000E+00
    0.17465E+07        -0.18528E+08         0.00000E+00
    0.00000E+00         0.00000E+00        -0.47423E+07
 
   -0.51550E+07         0.18283E+07         0.00000E+00
    0.18283E+07        -0.18550E+08         0.00000E+00
    0.00000E+00         0.00000E+00        -0.47409E+07
 
   -0.51265E+07         0.19119E+07         0.00000E+00
    0.19119E+07        -0.18571E+08         0.00000E+00
    0.00000E+00         0.00000E+00        -0.47394E+07
 
   -0.50978E+07         0.19971E+07         0.00000E+00
    0.19971E+07        -0.18591E+08         0.00000E+00
    0.00000E+00         0.00000E+00        -0.47378E+07
 
   -0.50691E+07         0.20838E+07         0.00000E+00
    0.20838E+07        -0.18611E+08         0.00000E+00
    0.00000E+00         0.00000E+00        -0.47361E+07
 
   -0.50404E+07         0.21722E+07         0.00000E+00
    0.21722E+07        -0.18631E+08         0.00000E+00
    0.00000E+00         0.00000E+00        -0.47343E+07
 
   -0.50117E+07         0.22621E+07         0.00000E+00
    0.22621E+07        -0.18650E+08         0.00000E+00
    0.00000E+00         0.00000E+00        -0.47324E+07
 
   -0.49832E+07         0.23536E+07         0.00000E+00
    0.23536E+07        -0.18669E+08         0.00000E+00
    0.00000E+00         0.00000E+00        -0.47304E+07
 
   -0.49549E+07         0.24465E+07         0.00000E+00
    0.24465E+07        -0.18687E+08         0.00000E+00
    0.00000E+00         0.00000E+00        -0.47284E+07
 
   -0.49269E+07         0.25408E+07         0.00000E+00
    0.25408E+07        -0.18704E+08         0.00000E+00
    0.00000E+00         0.00000E+00        -0.47263E+07
 
   -0.48992E+07         0.26365E+07         0.00000E+00
    0.26365E+07        -0.18721E+08         0.00000E+00
    0.00000E+00         0.00000E+00        -0.47241E+07
 
   -0.48719E+07         0.27335E+07         0.00000E+00
    0.27335E+07        -0.18737E+08         0.00000E+00
    0.00000E+00         0.00000E+00        -0.47218E+07
 
   -0.48450E+07         0.28319E+07         0.00000E+00
    0.28319E+07        -0.18752E+08         0.00000E+00
    0.00000E+00         0.00000E+00        -0.47195E+07
 
   -0.48185E+07         0.29315E+07         0.00000E+00
    0.29315E+07        -0.18767E+08         0.00000E+00
    0.00000E+00         0.00000E+00        -0.47171E+07
 
   -0.47925E+07         0.30323E+07         0.00000E+00
    0.30323E+07        -0.18781E+08         0.00000E+00
    0.00000E+00         0.00000E+00        -0.47147E+07
 
   -0.47670E+07         0.31343E+07         0.00000E+00
    0.31343E+07        -0.18794E+08         0.00000E+00
    0.00000E+00         0.00000E+00        -0.47122E+07
 
   -0.47421E+07         0.32374E+07         0.00000E+00
    0.32374E+07        -0.18806E+08         0.00000E+00
    0.00000E+00         0.00000E+00        -0.47096E+07
 
   -0.47178E+07         0.33415E+07         0.00000E+00
    0.33415E+07        -0.18817E+08         0.00000E+00
    0.00000E+00         0.00000E+00        -0.47070E+07
 
   -0.59315E+07         0.11062E+05         0.00000E+00
    0.11062E+05        -0.18742E+08         0.00000E+00
    0.00000E+00         0.00000E+00        -0.49347E+07
 
   -0.59673E+07         0.35097E+05         0.00000E+00
    0.35097E+05        -0.18744E+08         0.00000E+00
    0.00000E+00         0.00000E+00        -0.49423E+07
 
   -0.59983E+07         0.60128E+05         0.00000E+00
    0.60128E+05        -0.18748E+08         0.00000E+00
    0.00000E+00         0.00000E+00        -0.49493E+07
 
   -0.60246E+07         0.86281E+05         0.00000E+00
    0.86281E+05        -0.18754E+08         0.00000E+00
    0.00000E+00         0.00000E+00        -0.49558E+07
 
   -0.60465E+07         0.11367E+06         0.00000E+00
    0.11367E+06        -0.18762E+08         0.00000E+00
    0.00000E+00         0.00000E+00        -0.49618E+07
 
   -0.60641E+07         0.14241E+06         0.00000E+00
    0.14241E+06        -0.18772E+08         0.00000E+00
    0.00000E+00         0.00000E+00        -0.49672E+07
 
   -0.60776E+07         0.17260E+06         0.00000E+00
    0.17260E+06        -0.18783E+08         0.00000E+00
    0.00000E+00         0.00000E+00        -0.49721E+07
 
   -0.60872E+07         0.20433E+06         0.00000E+00
    0.20433E+06        -0.18796E+08         0.00000E+00
    0.00000E+00         0.00000E+00        -0.49765E+07
 
   -0.60931E+07         0.23768E+06         0.00000E+00
    0.23768E+06        -0.18810E+08         0.00000E+00
    0.00000E+00         0.00000E+00        -0.49805E+07
 
   -0.60953E+07         0.27273E+06         0.00000E+00
    0.27273E+06        -0.18825E+08         0.00000E+00
    0.00000E+00         0.00000E+00        -0.49841E+07
 
   -0.60942E+07         0.30954E+06         0.00000E+00
    0.30954E+06        -0.18842E+08         0.00000E+00
    0.00000E+00         0.00000E+00        -0.49872E+07
 
   -0.60899E+07         0.34819E+06         0.00000E+00
    0.34819E+06        -0.18860E+08         0.00000E+00
    0.00000E+00         0.00000E+00        -0.49899E+07
 
   -0.60825E+07         0.38872E+06         0.00000E+00
    0.38872E+06        -0.18879E+08         0.00000E+00
    0.00000E+00         0.00000E+00        -0.49922E+07
 
   -0.60722E+07         0.43118E+06         0.00000E+00
    0.43118E+06        -0.18898E+08         0.00000E+00
    0.00000E+00         0.00000E+00        -0.49941E+07
 
   -0.60592E+07         0.47561E+06         0.00000E+00
    0.47561E+06        -0.18919E+08         0.00000E+00
    0.00000E+00         0.00000E+00        -0.49957E+07
 
   -0.60436E+07         0.52205E+06         0.00000E+00
    0.52205E+06        -0.18941E+08         0.00000E+00
    0.00000E+00         0.00000E+00        -0.49969E+07
 
   -0.60257E+07         0.57054E+06         0.00000E+00
    0.57054E+06        -0.18964E+08         0.00000E+00
    0.00000E+00         0.00000E+00        -0.49978E+07
 
   -0.60055E+07         0.62109E+06         0.00000E+00
    0.62109E+06        -0.18987E+08         0.00000E+00
    0.00000E+00         0.00000E+00        -0.49984E+07
 
   -0.59832E+07         0.67373E+06         0.00000E+00
    0.67373E+06        -0.19010E+08         0.00000E+00
    0.00000E+00         0.00000E+00        -0.49987E+07
 
   -0.59590E+07         0.72847E+06         0.00000E+00
    0.72847E+06        -0.19035E+08         0.00000E+00
    0.00000E+00         0.00000E+00        -0.49987E+07
 
   -0.59331E+07         0.78532E+06         0.00000E+00
    0.78532E+06        -0.19059E+08         0.00000E+00
    0.00000E+00         0.00000E+00        -0.49985E+07
 
   -0.59055E+07         0.84429E+06         0.00000E+00
    0.84429E+06        -0.19085E+08         0.00000E+00
    0.00000E+00         0.00000E+00        -0.49980E+07
 
   -0.58764E+07         0.90538E+06         0.00000E+00
    0.90538E+06        -0.19110E+08         0.00000E+00
    0.00000E+00         0.00000E+00        -0.49973E+07
 
   -0.58459E+07         0.96859E+06         0.00000E+00
    0.96859E+06        -0.19136E+08         0.00000E+00
    0.00000E+00         0.00000E+00        -0.49963E+07
 
   -0.58142E+07         0.10339E+07         0.00000E+00
    0.10339E+07        -0.19161E+08         0.00000E+00
    0.00000E+00         0.00000E+00        -0.49951E+07
 
   -0.57815E+07         0.11014E+07         0.00000E+00
    0.11014E+07        -0.19187E+08         0.00000E+00
    0.00000E+00         0.00000E+00        -0.49938E+07
 
   -0.57477E+07         0.11709E+07         0.00000E+00
    0.11709E+07        -0.19213E+08         0.00000E+00
    0.00000E+00         0.00000E+00        -0.49922E+07
 
   -0.57132E+07         0.12425E+07         0.00000E+00
    0.12425E+07        -0.19239E+08         0.00000E+00
    0.00000E+00         0.00000E+00        -0.49905E+07
 
   -0.56779E+07         0.13162E+07         0.00000E+00
    0.13162E+07        -0.19265E+08         0.00000E+00
    0.00000E+00         0.00000E+00        -0.49886E+07
 
   -0.56420E+07         0.13919E+07         0.00000E+00
    0.13919E+07        -0.19291E+08         0.00000E+00
    0.00000E+00         0.00000E+00        -0.49866E+07
 
   -0.56056E+07         0.14697E+07         0.00000E+00
    0.14697E+07        -0.19317E+08         0.00000E+00
    0.00000E+00         0.00000E+00        -0.49845E+07
 
   -0.55689E+07         0.15494E+07         0.00000E+00
    0.15494E+07        -0.19342E+08         0.00000E+00
    0.00000E+00         0.00000E+00        -0.49822E+07
 
   -0.55318E+07         0.16311E+07         0.00000E+00
    0.16311E+07        -0.19367E+08         0.00000E+00
    0.00000E+00         0.00000E+00        -0.49798E+07
 
   -0.54946E+07         0.17148E+07         0.00000E+00
    0.17148E+07        -0.19392E+08         0.00000E+00
    0.00000E+00         0.00000E+00        -0.49773E+07
 
   -0.54573E+07         0.18003E+07         0.00000E+00
    0.18003E+07        -0.19416E+08         0.00000E+00
    0.00000E+00         0.00000E+00        -0.49747E+07
 
   -0.54201E+07         0.18877E+07         0.00000E+00
    0.18877E+07        -0.19440E+08         0.00000E+00
    0.00000E+00         0.00000E+00        -0.49720E+07
 
   -0.53829E+07         0.19769E+07         0.00000E+00
    0.19769E+07        -0.19463E+08         0.00000E+00
    0.00000E+00         0.00000E+00        -0.49693E+07
 
   -0.53460E+07         0.20680E+07         0.00000E+00
    0.20680E+07        -0.19486E+08         0.00000E+00
    0.00000E+00         0.00000E+00        -0.49664E+07
 
   -0.53093E+07         0.21607E+07         0.00000E+00
    0.21607E+07        -0.19509E+08         0.00000E+00
    0.00000E+00         0.00000E+00        -0.49636E+07
 
   -0.52730E+07         0.22552E+07         0.00000E+00
    0.22552E+07        -0.19530E+08         0.00000E+00
    0.00000E+00         0.00000E+00        -0.49606E+07
 
   -0.52371E+07         0.23513E+07         0.00000E+00
    0.23513E+07        -0.19551E+08         0.00000E+00
    0.00000E+00         0.00000E+00        -0.49577E+07
 
   -0.52016E+07         0.24489E+07         0.00000E+00
    0.24489E+07        -0.19572E+08         0.00000E+00
    0.00000E+00         0.00000E+00        -0.49546E+07
 
   -0.51668E+07         0.25482E+07         0.00000E+00
    0.25482E+07        -0.19591E+08         0.00000E+00
    0.00000E+00         0.00000E+00        -0.49516E+07
 
   -0.51326E+07         0.26489E+07         0.00000E+00
    0.26489E+07        -0.19610E+08         0.00000E+00
    0.00000E+00         0.00000E+00        -0.49485E+07
 
   -0.50990E+07         0.27510E+07         0.00000E+00
    0.27510E+07        -0.19628E+08         0.00000E+00
    0.00000E+00         0.00000E+00        -0.49454E+07
 
   -0.50661E+07         0.28545E+07         0.00000E+00
    0.28545E+07        -0.19645E+08         0.00000E+00
    0.00000E+00         0.00000E+00        -0.49423E+07
 
   -0.50340E+07         0.29594E+07         0.00000E+00
    0.29594E+07        -0.19662E+08         0.00000E+00
    0.00000E+00         0.00000E+00        -0.49391E+07
 
   -0.50027E+07         0.30654E+07         0.00000E+00
    0.30654E+07        -0.19677E+08         0.00000E+00
    0.00000E+00         0.00000E+00        -0.49360E+07
 
   -0.49722E+07         0.31727E+07         0.00000E+00
    0.31727E+07        -0.19692E+08         0.00000E+00
    0.00000E+00         0.00000E+00        -0.49328E+07
 
   -0.49426E+07         0.32810E+07         0.00000E+00
    0.32810E+07        -0.19705E+08         0.00000E+00
    0.00000E+00         0.00000E+00        -0.49296E+07
 
   -0.66254E+07         0.50703E+04         0.00000E+00
    0.50703E+04        -0.19527E+08         0.00000E+00
    0.00000E+00         0.00000E+00        -0.52305E+07
 
   -0.66554E+07         0.18274E+05         0.00000E+00
    0.18274E+05        -0.19529E+08         0.00000E+00
    0.00000E+00         0.00000E+00        -0.52370E+07
 
   -0.66799E+07         0.32973E+05         0.00000E+00
    0.32973E+05        -0.19534E+08         0.00000E+00
    0.00000E+00         0.00000E+00        -0.52428E+07
 
   -0.66991E+07         0.49297E+05         0.00000E+00
    0.49297E+05        -0.19541E+08         0.00000E+00
    0.00000E+00         0.00000E+00        -0.52481E+07
 
   -0.67134E+07         0.67363E+05         0.00000E+00
    0.67363E+05        -0.19550E+08         0.00000E+00
    0.00000E+00         0.00000E+00        -0.52527E+07
 
   -0.67228E+07         0.87280E+05         0.00000E+00
    0.87280E+05        -0.19561E+08         0.00000E+00
    0.00000E+00         0.00000E+00        -0.52568E+07
 
   -0.67277E+07         0.10915E+06         0.00000E+00
    0.10915E+06        -0.19574E+08         0.00000E+00
    0.00000E+00         0.00000E+00        -0.52603E+07
 
   -0.67282E+07         0.13305E+06         0.00000E+00
    0.13305E+06        -0.19589E+08         0.00000E+00
    0.00000E+00         0.00000E+00        -0.52634E+07
 
   -0.67246E+07         0.15906E+06         0.00000E+00
    0.15906E+06        -0.19605E+08         0.00000E+00
    0.00000E+00         0.00000E+00        -0.52659E+07
 
   -0.67171E+07         0.18727E+06         0.00000E+00
    0.18727E+06        -0.19622E+08         0.00000E+00
    0.00000E+00         0.00000E+00        -0.52679E+07
 
   -0.67059E+07         0.21771E+06         0.00000E+00
    0.21771E+06        -0.19641E+08         0.00000E+00
    0.00000E+00         0.00000E+00        -0.52695E+07
 
   -0.66912E+07         0.25046E+06         0.00000E+00
    0.25046E+06        -0.19662E+08         0.00000E+00
    0.00000E+00         0.00000E+00        -0.52706E+07
 
   -0.66732E+07         0.28555E+06         0.00000E+00
    0.28555E+06        -0.19683E+08         0.00000E+00
    0.00000E+00         0.00000E+00        -0.52713E+07
 
   -0.66522E+07         0.32303E+06         0.00000E+00
    0.32303E+06        -0.19706E+08         0.00000E+00
    0.00000E+00         0.00000E+00        -0.52717E+07
 
   -0.66282E+07         0.36292E+06         0.00000E+00
    0.36292E+06        -0.19730E+08         0.00000E+00
    0.00000E+00         0.00000E+00        -0.52716E+07
 
   -0.66016E+07         0.40525E+06         0.00000E+00
    0.40525E+06        -0.19754E+08         0.00000E+00
    0.00000E+00         0.00000E+00        -0.52712E+07
 
   -0.65725E+07         0.45004E+06         0.00000E+00
    0.45004E+06        -0.19780E+08         0.00000E+00
    0.00000E+00         0.00000E+00        -0.52704E+07
 
   -0.65410E+07         0.49730E+06         0.00000E+00
    0.49730E+06        -0.19806E+08         0.00000E+00
    0.00000E+00         0.00000E+00        -0.52694E+07
 
   -0.65074E+07         0.54705E+06         0.00000E+00
    0.54705E+06        -0.19833E+08         0.00000E+00
    0.00000E+00         0.00000E+00        -0.52680E+07
 
   -0.64719E+07         0.59928E+06         0.00000E+00
    0.59928E+06        -0.19860E+08         0.00000E+00
    0.00000E+00         0.00000E+00        -0.52664E+07
 
   -0.64345E+07         0.65400E+06         0.00000E+00
    0.65400E+06        -0.19888E+08         0.00000E+00
    0.00000E+00         0.00000E+00        -0.52645E+07
 
   -0.63955E+07         0.71120E+06         0.00000E+00
    0.71120E+06        -0.19916E+08         0.00000E+00
    0.00000E+00         0.00000E+00        -0.52623E+07
 
   -0.63551E+07         0.77088E+06         0.00000E+00
    0.77088E+06        -0.19945E+08         0.00000E+00
    0.00000E+00         0.00000E+00        -0.52600E+07
 
   -0.63133E+07         0.83302E+06         0.00000E+00
    0.83302E+06        -0.19974E+08         0.00000E+00
    0.00000E+00         0.00000E+00        -0.52574E+07
 
   -0.62703E+07         0.89761E+06         0.00000E+00
    0.89761E+06        -0.20003E+08         0.00000E+00
    0.00000E+00         0.00000E+00        -0.52546E+07
 
   -0.62264E+07         0.96463E+06         0.00000E+00
    0.96463E+06        -0.20032E+08         0.00000E+00
    0.00000E+00         0.00000E+00        -0.52517E+07
 
   -0.61815E+07         0.10341E+07         0.00000E+00
    0.10341E+07        -0.20061E+08         0.00000E+00
    0.00000E+00         0.00000E+00        -0.52485E+07
 
   -0.61360E+07         0.11059E+07         0.00000E+00
    0.11059E+07        -0.20090E+08         0.00000E+00
    0.00000E+00         0.00000E+00        -0.52453E+07
 
   -0.60898E+07         0.11800E+07         0.00000E+00
    0.11800E+07        -0.20120E+08         0.00000E+00
    0.00000E+00         0.00000E+00        -0.52419E+07
 
   -0.60431E+07         0.12566E+07         0.00000E+00
    0.12566E+07        -0.20149E+08         0.00000E+00
    0.00000E+00         0.00000E+00        -0.52384E+07
 
   -0.59961E+07         0.13354E+07         0.00000E+00
    0.13354E+07        -0.20178E+08         0.00000E+00
    0.00000E+00         0.00000E+00        -0.52347E+07
 
   -0.59489E+07         0.14164E+07         0.00000E+00
    0.14164E+07        -0.20206E+08         0.00000E+00
    0.00000E+00         0.00000E+00        -0.52310E+07
 
   -0.59016E+07         0.14997E+07         0.00000E+00
    0.14997E+07        -0.20235E+08         0.00000E+00
    0.00000E+00         0.00000E+00        -0.52272E+07
 
   -0.58542E+07         0.15852E+07         0.00000E+00
    0.15852E+07        -0.20262E+08         0.00000E+00
    0.00000E+00         0.00000E+00        -0.52233E+07
 
   -0.58070E+07         0.16729E+07         0.00000E+00
    0.16729E+07        -0.20290E+08         0.00000E+00
    0.00000E+00         0.00000E+00        -0.52194E+07
 
   -0.57600E+07         0.17626E+07         0.00000E+00
    0.17626E+07        -0.20317E+08         0.00000E+00
    0.00000E+00         0.00000E+00        -0.52154E+07
 
   -0.57134E+07         0.18544E+07         0.00000E+00
    0.18544E+07        -0.20344E+08         0.00000E+00
    0.00000E+00         0.00000E+00        -0.52114E+07
 
   -0.56671E+07         0.19483E+07         0.00000E+00
    0.19483E+07        -0.20370E+08         0.00000E+00
    0.00000E+00         0.00000E+00        -0.52074E+07
 
   -0.56214E+07         0.20441E+07         0.00000E+00
    0.20441E+07        -0.20395E+08         0.00000E+00
    0.00000E+00         0.00000E+00        -0.52033E+07
 
   -0.55763E+07         0.21417E+07         0.00000E+00
    0.21417E+07        -0.20420E+08         0.00000E+00
    0.00000E+00         0.00000E+00        -0.51993E+07
 
   -0.55319E+07         0.22413E+07         0.00000E+00
    0.22413E+07        -0.20444E+08         0.00000E+00
    0.00000E+00         0.00000E+00        -0.51952E+07
 
   -0.54882E+07         0.23426E+07         0.00000E+00
    0.23426E+07        -0.20468E+08         0.00000E+00
    0.00000E+00         0.00000E+00        -0.51912E+07
 
   -0.54454E+07         0.24456E+07         0.00000E+00
    0.24456E+07        -0.20490E+08         0.00000E+00
    0.00000E+00         0.00000E+00        -0.51871E+07
 
   -0.54036E+07         0.25503E+07         0.00000E+00
    0.25503E+07        -0.20512E+08         0.00000E+00
    0.00000E+00         0.00000E+00        -0.51831E+07
 
   -0.53627E+07         0.26566E+07         0.00000E+00
    0.26566E+07        -0.20533E+08         0.00000E+00
    0.00000E+00         0.00000E+00        -0.51791E+07
 
   -0.53229E+07         0.27644E+07         0.00000E+00
    0.27644E+07        -0.20553E+08         0.00000E+00
    0.00000E+00         0.00000E+00        -0.51751E+07
 
   -0.52841E+07         0.28736E+07         0.00000E+00
    0.28736E+07        -0.20572E+08         0.00000E+00
    0.00000E+00         0.00000E+00        -0.51712E+07
 
   -0.52466E+07         0.29841E+07         0.00000E+00
    0.29841E+07        -0.20590E+08         0.00000E+00
    0.00000E+00         0.00000E+00        -0.51673E+07
 
   -0.52102E+07         0.30960E+07         0.00000E+00
    0.30960E+07        -0.20607E+08         0.00000E+00
    0.00000E+00         0.00000E+00        -0.51634E+07
 
   -0.51750E+07         0.32090E+07         0.00000E+00
    0.32090E+07        -0.20623E+08         0.00000E+00
    0.00000E+00         0.00000E+00        -0.51596E+07
 
   -0.74098E+07        -0.18966E+04         0.00000E+00
   -0.18966E+04        -0.20342E+08         0.00000E+00
    0.00000E+00         0.00000E+00        -0.55504E+07
 
   -0.74311E+07        -0.11314E+04         0.00000E+00
   -0.11314E+04        -0.20345E+08         0.00000E+00
    0.00000E+00         0.00000E+00        -0.55553E+07
 
   -0.74462E+07         0.17674E+04         0.00000E+00
    0.17674E+04        -0.20351E+08         0.00000E+00
    0.00000E+00         0.00000E+00        -0.55594E+07
 
   -0.74556E+07         0.69259E+04         0.00000E+00
    0.69259E+04        -0.20359E+08         0.00000E+00
    0.00000E+00         0.00000E+00        -0.55629E+07
 
   -0.74593E+07         0.14458E+05         0.00000E+00
    0.14458E+05        -0.20369E+08         0.00000E+00
    0.00000E+00         0.00000E+00        -0.55657E+07
 
   -0.74578E+07         0.24464E+05         0.00000E+00
    0.24464E+05        -0.20382E+08         0.00000E+00
    0.00000E+00         0.00000E+00        -0.55679E+07
 
   -0.74513E+07         0.37033E+05         0.00000E+00
    0.37033E+05        -0.20396E+08         0.00000E+00
    0.00000E+00         0.00000E+00        -0.55695E+07
 
   -0.74401E+07         0.52242E+05         0.00000E+00
    0.52242E+05        -0.20412E+08         0.00000E+00
    0.00000E+00         0.00000E+00        -0.55705E+07
 
   -0.74244E+07         0.70157E+05         0.00000E+00
    0.70157E+05        -0.20431E+08         0.00000E+00
    0.00000E+00         0.00000E+00        -0.55710E+07
 
   -0.74045E+07         0.90834E+05         0.00000E+00
    0.90834E+05        -0.20450E+08         0.00000E+00
    0.00000E+00         0.00000E+00        -0.55710E+07
 
   -0.73806E+07         0.11432E+06         0.00000E+00
    0.11432E+06        -0.20472E+08         0.00000E+00
    0.00000E+00         0.00000E+00        -0.55705E+07
 
   -0.73531E+07         0.14065E+06         0.00000E+00
    0.14065E+06        -0.20494E+08         0.00000E+00
    0.00000E+00         0.00000E+00        -0.55695E+07
 
   -0.73221E+07         0.16986E+06         0.00000E+00
    0.16986E+06        -0.20519E+08         0.00000E+00
    0.00000E+00         0.00000E+00        -0.55681E+07
 
   -0.72879E+07         0.20196E+06         0.00000E+00
    0.20196E+06        -0.20544E+08         0.00000E+00
    0.00000E+00         0.00000E+00        -0.55663E+07
 
   -0.72507E+07         0.23697E+06         0.00000E+00
    0.23697E+06        -0.20570E+08         0.00000E+00
    0.00000E+00         0.00000E+00        -0.55641E+07
 
   -0.72108E+07         0.27491E+06         0.00000E+00
    0.27491E+06        -0.20597E+08         0.00000E+00
    0.00000E+00         0.00000E+00        -0.55616E+07
 
   -0.71683E+07         0.31576E+06         0.00000E+00
    0.31576E+06        -0.20625E+08         0.00000E+00
    0.00000E+00         0.00000E+00        -0.55587E+07
 
   -0.71235E+07         0.35952E+06         0.00000E+00
    0.35952E+06        -0.20654E+08         0.00000E+00
    0.00000E+00         0.00000E+00        -0.55555E+07
 
   -0.70766E+07         0.40620E+06         0.00000E+00
    0.40620E+06        -0.20684E+08         0.00000E+00
    0.00000E+00         0.00000E+00        -0.55521E+07
 
   -0.70277E+07         0.45577E+06         0.00000E+00
    0.45577E+06        -0.20714E+08         0.00000E+00
    0.00000E+00         0.00000E+00        -0.55483E+07
 
   -0.69771E+07         0.50822E+06         0.00000E+00
    0.50822E+06        -0.20744E+08         0.00000E+00
    0.00000E+00         0.00000E+00        -0.55443E+07
 
   -0.69249E+07         0.56353E+06         0.00000E+00
    0.56353E+06        -0.20776E+08         0.00000E+00
    0.00000E+00         0.00000E+00        -0.55401E+07
 
   -0.68713E+07         0.62168E+06         0.00000E+00
    0.62168E+06        -0.20807E+08         0.00000E+00
    0.00000E+00         0.00000E+00        -0.55357E+07
 
   -0.68166E+07         0.68264E+06         0.00000E+00
    0.68264E+06        -0.20839E+08         0.00000E+00
    0.00000E+00         0.00000E+00        -0.55311E+07
 
   -0.67607E+07         0.74639E+06         0.00000E+00
    0.74639E+06        -0.20871E+08         0.00000E+00
    0.00000E+00         0.00000E+00        -0.55263E+07
 
   -0.67040E+07         0.81290E+06         0.00000E+00
    0.81290E+06        -0.20903E+08         0.00000E+00
    0.00000E+00         0.00000E+00        -0.55213E+07
 
   -0.66465E+07         0.88213E+06         0.00000E+00
    0.88213E+06        -0.20935E+08         0.00000E+00
    0.00000E+00         0.00000E+00        -0.55163E+07
 
   -0.65884E+07         0.95405E+06         0.00000E+00
    0.95405E+06        -0.20967E+08         0.00000E+00
    0.00000E+00         0.00000E+00        -0.55111E+07
 
   -0.65299E+07         0.10286E+07         0.00000E+00
    0.10286E+07        -0.20999E+08         0.00000E+00
    0.00000E+00         0.00000E+00        -0.55058E+07
 
   -0.64710E+07         0.11059E+07         0.00000E+00
    0.11059E+07        -0.21031E+08         0.00000E+00
    0.00000E+00         0.00000E+00        -0.55005E+07
 
   -0.64120E+07         0.11856E+07         0.00000E+00
    0.11856E+07        -0.21063E+08         0.00000E+00
    0.00000E+00         0.00000E+00        -0.54951E+07
 
   -0.63530E+07         0.12680E+07         0.00000E+00
    0.12680E+07        -0.21095E+08         0.00000E+00
    0.00000E+00         0.00000E+00        -0.54896E+07
 
   -0.62940E+07         0.13528E+07         0.00000E+00
    0.13528E+07        -0.21126E+08         0.00000E+00
    0.00000E+00         0.00000E+00        -0.54841E+07
 
   -0.62353E+07         0.14401E+07         0.00000E+00
    0.14401E+07        -0.21157E+08         0.00000E+00
    0.00000E+00         0.00000E+00        -0.54785E+07
 
   -0.61768E+07         0.15299E+07         0.00000E+00
    0.15299E+07        -0.21188E+08         0.00000E+00
    0.00000E+00         0.00000E+00        -0.54730E+07
 
   -0.61189E+07         0.16220E+07         0.00000E+00
    0.16220E+07        -0.21218E+08         0.00000E+00
    0.00000E+00         0.00000E+00        -0.54675E+07
 
   -0.60615E+07         0.17164E+07         0.00000E+00
    0.17164E+07        -0.21248E+08         0.00000E+00
    0.00000E+00         0.00000E+00        -0.54620E+07
 
   -0.60048E+07         0.18131E+07         0.00000E+00
    0.18131E+07        -0.21277E+08         0.00000E+00
    0.00000E+00         0.00000E+00        -0.54565E+07
 
   -0.59489E+07         0.19119E+07         0.00000E+00
    0.19119E+07        -0.21306E+08         0.00000E+00
    0.00000E+00         0.00000E+00        -0.54510E+07
 
   -0.58939E+07         0.20130E+07         0.00000E+00
    0.20130E+07        -0.21334E+08         0.00000E+00
    0.00000E+00         0.00000E+00        -0.54456E+07
 
   -0.58399E+07         0.21161E+07         0.00000E+00
    0.21161E+07        -0.21361E+08         0.00000E+00
    0.00000E+00         0.00000E+00        -0.54402E+07
 
   -0.57870E+07         0.22212E+07         0.00000E+00
    0.22212E+07        -0.21388E+08         0.00000E+00
    0.00000E+00         0.00000E+00        -0.54350E+07
 
   -0.57353E+07         0.23283E+07         0.00000E+00
    0.23283E+07        -0.21413E+08         0.00000E+00
    0.00000E+00         0.00000E+00        -0.54298E+07
 
   -0.56849E+07         0.24372E+07         0.00000E+00
    0.24372E+07        -0.21438E+08         0.00000E+00
    0.00000E+00         0.00000E+00        -0.54246E+07
 
   -0.56359E+07         0.25479E+07         0.00000E+00
    0.25479E+07        -0.21462E+08         0.00000E+00
    0.00000E+00         0.00000E+00        -0.54196E+07
 
   -0.55883E+07         0.26603E+07         0.00000E+00
    0.26603E+07        -0.21485E+08         0.00000E+00
    0.00000E+00         0.00000E+00        -0.54147E+07
 
   -0.55423E+07         0.27743E+07         0.00000E+00
    0.27743E+07        -0.21507E+08         0.00000E+00
    0.00000E+00         0.00000E+00        -0.54099E+07
 
   -0.54979E+07         0.28898E+07         0.00000E+00
    0.28898E+07        -0.21528E+08         0.00000E+00
    0.00000E+00         0.00000E+00        -0.54051E+07
 
   -0.54551E+07         0.30067E+07         0.00000E+00
    0.30067E+07        -0.21548E+08         0.00000E+00
    0.00000E+00         0.00000E+00        -0.54005E+07
 
   -0.54140E+07         0.31249E+07         0.00000E+00
    0.31249E+07        -0.21566E+08         0.00000E+00
    0.00000E+00         0.00000E+00        -0.53961E+07
 
   -0.82946E+07        -0.98639E+04         0.00000E+00
   -0.98639E+04        -0.21190E+08         0.00000E+00
    0.00000E+00         0.00000E+00        -0.58970E+07
 
   -0.83036E+07        -0.23122E+05         0.00000E+00
   -0.23122E+05        -0.21194E+08         0.00000E+00
    0.00000E+00         0.00000E+00        -0.58995E+07
 
   -0.83059E+07        -0.33440E+05         0.00000E+00
   -0.33440E+05        -0.21200E+08         0.00000E+00
    0.00000E+00         0.00000E+00        -0.59012E+07
 
   -0.83018E+07        -0.40702E+05         0.00000E+00
   -0.40702E+05        -0.21209E+08         0.00000E+00
    0.00000E+00         0.00000E+00        -0.59021E+07
 
   -0.82916E+07        -0.44809E+05         0.00000E+00
   -0.44809E+05        -0.21220E+08         0.00000E+00
    0.00000E+00         0.00000E+00        -0.59024E+07
 
   -0.82757E+07        -0.45677E+05         0.00000E+00
   -0.45677E+05        -0.21234E+08         0.00000E+00
    0.00000E+00         0.00000E+00        -0.59020E+07
 
   -0.82544E+07        -0.43235E+05         0.00000E+00
   -0.43235E+05        -0.21250E+08         0.00000E+00
    0.00000E+00         0.00000E+00        -0.59009E+07
 
   -0.82282E+07        -0.37429E+05         0.00000E+00
   -0.37429E+05        -0.21268E+08         0.00000E+00
    0.00000E+00         0.00000E+00        -0.58993E+07
 
   -0.81972E+07        -0.28213E+05         0.00000E+00
   -0.28213E+05        -0.21288E+08         0.00000E+00
    0.00000E+00         0.00000E+00        -0.58971E+07
 
   -0.81618E+07        -0.15558E+05         0.00000E+00
   -0.15558E+05        -0.21310E+08         0.00000E+00
    0.00000E+00         0.00000E+00        -0.58943E+07
 
   -0.81224E+07         0.55785E+03         0.00000E+00
    0.55785E+03        -0.21333E+08         0.00000E+00
    0.00000E+00         0.00000E+00        -0.58911E+07
 
   -0.80791E+07         0.20144E+05         0.00000E+00
    0.20144E+05        -0.21358E+08         0.00000E+00
    0.00000E+00         0.00000E+00        -0.58874E+07
 
   -0.80324E+07         0.43202E+05         0.00000E+00
    0.43202E+05        -0.21384E+08         0.00000E+00
    0.00000E+00         0.00000E+00        -0.58833E+07
 
   -0.79824E+07         0.69726E+05         0.00000E+00
    0.69726E+05        -0.21411E+08         0.00000E+00
    0.00000E+00         0.00000E+00        -0.58787E+07
 
   -0.79295E+07         0.99700E+05         0.00000E+00
    0.99700E+05        -0.21440E+08         0.00000E+00
    0.00000E+00         0.00000E+00        -0.58738E+07
 
   -0.78738E+07         0.13311E+06         0.00000E+00
    0.13311E+06        -0.21469E+08         0.00000E+00
    0.00000E+00         0.00000E+00        -0.58685E+07
 
   -0.78157E+07         0.16992E+06         0.00000E+00
    0.16992E+06        -0.21499E+08         0.00000E+00
    0.00000E+00         0.00000E+00        -0.58630E+07
 
   -0.77554E+07         0.21010E+06         0.00000E+00
    0.21010E+06        -0.21530E+08         0.00000E+00
    0.00000E+00         0.00000E+00        -0.58571E+07
 
   -0.76930E+07         0.25363E+06         0.00000E+00
    0.25363E+06        -0.21562E+08         0.00000E+00
    0.00000E+00         0.00000E+00        -0.58509E+07
 
   -0.76288E+07         0.30047E+06         0.00000E+00
    0.30047E+06        -0.21594E+08         0.00000E+00
    0.00000E+00         0.00000E+00        -0.58445E+07
 
   -0.75631E+07         0.35057E+06         0.00000E+00
    0.35057E+06        -0.21627E+08         0.00000E+00
    0.00000E+00         0.00000E+00        -0.58379E+07
 
   -0.74959E+07         0.40390E+06         0.00000E+00
    0.40390E+06        -0.21660E+08         0.00000E+00
    0.00000E+00         0.00000E+00        -0.58311E+07
 
   -0.74274E+07         0.46042E+06         0.00000E+00
    0.46042E+06        -0.21693E+08         0.00000E+00
    0.00000E+00         0.00000E+00        -0.58242E+07
 
   -0.73580E+07         0.52009E+06         0.00000E+00
    0.52009E+06        -0.21727E+08         0.00000E+00
    0.00000E+00         0.00000E+00        -0.58170E+07
 
   -0.72876E+07         0.58286E+06         0.00000E+00
    0.58286E+06        -0.21761E+08         0.00000E+00
    0.00000E+00         0.00000E+00        -0.58098E+07
 
   -0.72165E+07         0.64869E+06         0.00000E+00
    0.64869E+06        -0.21796E+08         0.00000E+00
    0.00000E+00         0.00000E+00        -0.58024E+07
 
   -0.71449E+07         0.71754E+06         0.00000E+00
    0.71754E+06        -0.21830E+08         0.00000E+00
    0.00000E+00         0.00000E+00        -0.57950E+07
 
   -0.70728E+07         0.78938E+06         0.00000E+00
    0.78938E+06        -0.21865E+08         0.00000E+00
    0.00000E+00         0.00000E+00        -0.57875E+07
 
   -0.70005E+07         0.86415E+06         0.00000E+00
    0.86415E+06        -0.21899E+08         0.00000E+00
    0.00000E+00         0.00000E+00        -0.57799E+07
 
   -0.69281E+07         0.94182E+06         0.00000E+00
    0.94182E+06        -0.21934E+08         0.00000E+00
    0.00000E+00         0.00000E+00        -0.57724E+07
 
   -0.68557E+07         0.10224E+07         0.00000E+00
    0.10224E+07        -0.21968E+08         0.00000E+00
    0.00000E+00         0.00000E+00        -0.57648E+07
 
   -0.67834E+07         0.11057E+07         0.00000E+00
    0.11057E+07        -0.22002E+08         0.00000E+00
    0.00000E+00         0.00000E+00        -0.57572E+07
 
   -0.67115E+07         0.11918E+07         0.00000E+00
    0.11918E+07        -0.22036E+08         0.00000E+00
    0.00000E+00         0.00000E+00        -0.57496E+07
 
   -0.66400E+07         0.12807E+07         0.00000E+00
    0.12807E+07        -0.22070E+08         0.00000E+00
    0.00000E+00         0.00000E+00        -0.57421E+07
 
   -0.65690E+07         0.13722E+07         0.00000E+00
    0.13722E+07        -0.22104E+08         0.00000E+00
    0.00000E+00         0.00000E+00        -0.57346E+07
 
   -0.64988E+07         0.14664E+07         0.00000E+00
    0.14664E+07        -0.22137E+08         0.00000E+00
    0.00000E+00         0.00000E+00        -0.57272E+07
 
   -0.64293E+07         0.15632E+07         0.00000E+00
    0.15632E+07        -0.22170E+08         0.00000E+00
    0.00000E+00         0.00000E+00        -0.57198E+07
 
   -0.63609E+07         0.16625E+07         0.00000E+00
    0.16625E+07        -0.22202E+08         0.00000E+00
    0.00000E+00         0.00000E+00        -0.57126E+07
 
   -0.62935E+07         0.17644E+07         0.00000E+00
    0.17644E+07        -0.22234E+08         0.00000E+00
    0.00000E+00         0.00000E+00        -0.57055E+07
 
   -0.62273E+07         0.18686E+07         0.00000E+00
    0.18686E+07        -0.22265E+08         0.00000E+00
    0.00000E+00         0.00000E+00        -0.56985E+07
 
   -0.61624E+07         0.19753E+07         0.00000E+00
    0.19753E+07        -0.22296E+08         0.00000E+00
    0.00000E+00         0.00000E+00        -0.56916E+07
 
   -0.60990E+07         0.20842E+07         0.00000E+00
    0.20842E+07        -0.22325E+08         0.00000E+00
    0.00000E+00         0.00000E+00        -0.56849E+07
 
   -0.60372E+07         0.21953E+07         0.00000E+00
    0.21953E+07        -0.22354E+08         0.00000E+00
    0.00000E+00         0.00000E+00        -0.56783E+07
 
   -0.59771E+07         0.23086E+07         0.00000E+00
    0.23086E+07        -0.22382E+08         0.00000E+00
    0.00000E+00         0.00000E+00        -0.56719E+07
 
   -0.59188E+07         0.24240E+07         0.00000E+00
    0.24240E+07        -0.22409E+08         0.00000E+00
    0.00000E+00         0.00000E+00        -0.56656E+07
 
   -0.58624E+07         0.25413E+07         0.00000E+00
    0.25413E+07        -0.22436E+08         0.00000E+00
    0.00000E+00         0.00000E+00        -0.56596E+07
 
   -0.58080E+07         0.26604E+07         0.00000E+00
    0.26604E+07        -0.22461E+08         0.00000E+00
    0.00000E+00         0.00000E+00        -0.56537E+07
 
   -0.57558E+07         0.27813E+07         0.00000E+00
    0.27813E+07        -0.22485E+08         0.00000E+00
    0.00000E+00         0.00000E+00        -0.56481E+07
 
   -0.57058E+07         0.29038E+07         0.00000E+00
    0.29038E+07        -0.22507E+08         0.00000E+00
    0.00000E+00         0.00000E+00        -0.56426E+07
 
   -0.56581E+07         0.30278E+07         0.00000E+00
    0.30278E+07        -0.22529E+08         0.00000E+00
    0.00000E+00         0.00000E+00        -0.56374E+07
 
   -0.92899E+07        -0.18819E+05         0.00000E+00
   -0.18819E+05        -0.22073E+08         0.00000E+00
    0.00000E+00         0.00000E+00        -0.62725E+07
 
   -0.92820E+07        -0.47566E+05         0.00000E+00
   -0.47566E+05        -0.22076E+08         0.00000E+00
    0.00000E+00         0.00000E+00        -0.62717E+07
 
   -0.92669E+07        -0.72360E+05         0.00000E+00
   -0.72360E+05        -0.22083E+08         0.00000E+00
    0.00000E+00         0.00000E+00        -0.62700E+07
 
   -0.92449E+07        -0.93109E+05         0.00000E+00
   -0.93109E+05        -0.22093E+08         0.00000E+00
    0.00000E+00         0.00000E+00        -0.62676E+07
 
   -0.92165E+07        -0.10974E+06         0.00000E+00
   -0.10974E+06        -0.22106E+08         0.00000E+00
    0.00000E+00         0.00000E+00        -0.62644E+07
 
   -0.91820E+07        -0.12219E+06         0.00000E+00
   -0.12219E+06        -0.22121E+08         0.00000E+00
    0.00000E+00         0.00000E+00        -0.62605E+07
 
   -0.91420E+07        -0.13043E+06         0.00000E+00
   -0.13043E+06        -0.22138E+08         0.00000E+00
    0.00000E+00         0.00000E+00        -0.62560E+07
 
   -0.90968E+07        -0.13444E+06         0.00000E+00
   -0.13444E+06        -0.22157E+08         0.00000E+00
    0.00000E+00         0.00000E+00        -0.62508E+07
 
   -0.90468E+07        -0.13421E+06         0.00000E+00
   -0.13421E+06        -0.22179E+08         0.00000E+00
    0.00000E+00         0.00000E+00        -0.62451E+07
 
   -0.89924E+07        -0.12975E+06         0.00000E+00
   -0.12975E+06        -0.22202E+08         0.00000E+00
    0.00000E+00         0.00000E+00        -0.62388E+07
 
   -0.89340E+07        -0.12109E+06         0.00000E+00
   -0.12109E+06        -0.22226E+08         0.00000E+00
    0.00000E+00         0.00000E+00        -0.62320E+07
 
   -0.88718E+07        -0.10826E+06         0.00000E+00
   -0.10826E+06        -0.22252E+08         0.00000E+00
    0.00000E+00         0.00000E+00        -0.62248E+07
 
   -0.88063E+07        -0.91299E+05         0.00000E+00
   -0.91299E+05        -0.22280E+08         0.00000E+00
    0.00000E+00         0.00000E+00        -0.62172E+07
 
   -0.87377E+07        -0.70261E+05         0.00000E+00
   -0.70261E+05        -0.22308E+08         0.00000E+00
    0.00000E+00         0.00000E+00        -0.62091E+07
 
   -0.86663E+07        -0.45205E+05         0.00000E+00
   -0.45205E+05        -0.22337E+08         0.00000E+00
    0.00000E+00         0.00000E+00        -0.62008E+07
 
   -0.85925E+07        -0.16191E+05         0.00000E+00
   -0.16191E+05        -0.22368E+08         0.00000E+00
    0.00000E+00         0.00000E+00        -0.61921E+07
 
   -0.85164E+07         0.16711E+05         0.00000E+00
    0.16711E+05        -0.22399E+08         0.00000E+00
    0.00000E+00         0.00000E+00        -0.61831E+07
 
   -0.84383E+07         0.53435E+05         0.00000E+00
    0.53435E+05        -0.22431E+08         0.00000E+00
    0.00000E+00         0.00000E+00        -0.61739E+07
 
   -0.83584E+07         0.93909E+05         0.00000E+00
    0.93909E+05        -0.22464E+08         0.00000E+00
    0.00000E+00         0.00000E+00        -0.61644E+07
 
   -0.82771E+07         0.13806E+06         0.00000E+00
    0.13806E+06        -0.22497E+08         0.00000E+00
    0.00000E+00         0.00000E+00        -0.61548E+07
 
   -0.81944E+07         0.18583E+06         0.00000E+00
    0.18583E+06        -0.22530E+08         0.00000E+00
    0.00000E+00         0.00000E+00        -0.61449E+07
 
   -0.81105E+07         0.23714E+06         0.00000E+00
    0.23714E+06        -0.22564E+08         0.00000E+00
    0.00000E+00         0.00000E+00        -0.61350E+07
 
   -0.80256E+07         0.29192E+06         0.00000E+00
    0.29192E+06        -0.22599E+08         0.00000E+00
    0.00000E+00         0.00000E+00        -0.61249E+07
 
   -0.79400E+07         0.35012E+06         0.00000E+00
    0.35012E+06        -0.22634E+08         0.00000E+00
    0.00000E+00         0.00000E+00        -0.61147E+07
 
   -0.78537E+07         0.41168E+06         0.00000E+00
    0.41168E+06        -0.22669E+08         0.00000E+00
    0.00000E+00         0.00000E+00        -0.61045E+07
 
   -0.77670E+07         0.47655E+06         0.00000E+00
    0.47655E+06        -0.22704E+08         0.00000E+00
    0.00000E+00         0.00000E+00        -0.60942E+07
 
   -0.76799E+07         0.54466E+06         0.00000E+00
    0.54466E+06        -0.22740E+08         0.00000E+00
    0.00000E+00         0.00000E+00        -0.60839E+07
 
   -0.75926E+07         0.61599E+06         0.00000E+00
    0.61599E+06        -0.22775E+08         0.00000E+00
    0.00000E+00         0.00000E+00        -0.60736E+07
 
   -0.75052E+07         0.69047E+06         0.00000E+00
    0.69047E+06        -0.22811E+08         0.00000E+00
    0.00000E+00         0.00000E+00        -0.60633E+07
 
   -0.74180E+07         0.76808E+06         0.00000E+00
    0.76808E+06        -0.22847E+08         0.00000E+00
    0.00000E+00         0.00000E+00        -0.60531E+07
 
   -0.73309E+07         0.84878E+06         0.00000E+00
    0.84878E+06        -0.22883E+08         0.00000E+00
    0.00000E+00         0.00000E+00        -0.60429E+07
 
   -0.72442E+07         0.93253E+06         0.00000E+00
    0.93253E+06        -0.22919E+08         0.00000E+00
    0.00000E+00         0.00000E+00        -0.60327E+07
 
   -0.71579E+07         0.10193E+07         0.00000E+00
    0.10193E+07        -0.22955E+08         0.00000E+00
    0.00000E+00         0.00000E+00        -0.60227E+07
 
   -0.70723E+07         0.11091E+07         0.00000E+00
    0.11091E+07        -0.22991E+08         0.00000E+00
    0.00000E+00         0.00000E+00        -0.60128E+07
 
   -0.69875E+07         0.12018E+07         0.00000E+00
    0.12018E+07        -0.23027E+08         0.00000E+00
    0.00000E+00         0.00000E+00        -0.60030E+07
 
   -0.69035E+07         0.12974E+07         0.00000E+00
    0.12974E+07        -0.23063E+08         0.00000E+00
    0.00000E+00         0.00000E+00        -0.59933E+07
 
   -0.68205E+07         0.13960E+07         0.00000E+00
    0.13960E+07        -0.23098E+08         0.00000E+00
    0.00000E+00         0.00000E+00        -0.59838E+07
 
   -0.67388E+07         0.14974E+07         0.00000E+00
    0.14974E+07        -0.23134E+08         0.00000E+00
    0.00000E+00         0.00000E+00        -0.59745E+07
 
   -0.66583E+07         0.16016E+07         0.00000E+00
    0.16016E+07        -0.23168E+08         0.00000E+00
    0.00000E+00         0.00000E+00        -0.59653E+07
 
   -0.65793E+07         0.17086E+07         0.00000E+00
    0.17086E+07        -0.23203E+08         0.00000E+00
    0.00000E+00         0.00000E+00        -0.59564E+07
 
   -0.65020E+07         0.18183E+07         0.00000E+00
    0.18183E+07        -0.23237E+08         0.00000E+00
    0.00000E+00         0.00000E+00        -0.59477E+07
 
   -0.64265E+07         0.19307E+07         0.00000E+00
    0.19307E+07        -0.23270E+08         0.00000E+00
    0.00000E+00         0.00000E+00        -0.59392E+07
 
   -0.63529E+07         0.20457E+07         0.00000E+00
    0.20457E+07        -0.23302E+08         0.00000E+00
    0.00000E+00         0.00000E+00        -0.59310E+07
 
   -0.62814E+07         0.21632E+07         0.00000E+00
    0.21632E+07        -0.23334E+08         0.00000E+00
    0.00000E+00         0.00000E+00        -0.59231E+07
 
   -0.62122E+07         0.22832E+07         0.00000E+00
    0.22832E+07        -0.23365E+08         0.00000E+00
    0.00000E+00         0.00000E+00        -0.59154E+07
 
   -0.61454E+07         0.24055E+07         0.00000E+00
    0.24055E+07        -0.23394E+08         0.00000E+00
    0.00000E+00         0.00000E+00        -0.59080E+07
 
   -0.60812E+07         0.25300E+07         0.00000E+00
    0.25300E+07        -0.23423E+08         0.00000E+00
    0.00000E+00         0.00000E+00        -0.59009E+07
 
   -0.60197E+07         0.26567E+07         0.00000E+00
    0.26567E+07        -0.23451E+08         0.00000E+00
    0.00000E+00         0.00000E+00        -0.58941E+07
 
   -0.59611E+07         0.27853E+07         0.00000E+00
    0.27853E+07        -0.23477E+08         0.00000E+00
    0.00000E+00         0.00000E+00        -0.58876E+07
 
   -0.59055E+07         0.29158E+07         0.00000E+00
    0.29158E+07        -0.23502E+08         0.00000E+00
    0.00000E+00         0.00000E+00        -0.58815E+07
 
   -0.10405E+08        -0.28710E+05         0.00000E+00
   -0.28710E+05        -0.22991E+08         0.00000E+00
    0.00000E+00         0.00000E+00        -0.66792E+07
 
   -0.10374E+08        -0.74178E+05         0.00000E+00
   -0.74178E+05        -0.22995E+08         0.00000E+00
    0.00000E+00         0.00000E+00        -0.66739E+07
 
   -0.10336E+08        -0.11442E+06         0.00000E+00
   -0.11442E+06        -0.23003E+08         0.00000E+00
    0.00000E+00         0.00000E+00        -0.66678E+07
 
   -0.10291E+08        -0.14938E+06         0.00000E+00
   -0.14938E+06        -0.23013E+08         0.00000E+00
    0.00000E+00         0.00000E+00        -0.66608E+07
 
   -0.10239E+08        -0.17901E+06         0.00000E+00
   -0.17901E+06        -0.23026E+08         0.00000E+00
    0.00000E+00         0.00000E+00        -0.66530E+07
 
   -0.10181E+08        -0.20332E+06         0.00000E+00
   -0.20332E+06        -0.23042E+08         0.00000E+00
    0.00000E+00         0.00000E+00        -0.66446E+07
 
   -0.10117E+08        -0.22233E+06         0.00000E+00
   -0.22233E+06        -0.23060E+08         0.00000E+00
    0.00000E+00         0.00000E+00        -0.66355E+07
 
   -0.10048E+08        -0.23607E+06         0.00000E+00
   -0.23607E+06        -0.23080E+08         0.00000E+00
    0.00000E+00         0.00000E+00        -0.66257E+07
 
   -0.99751E+07        -0.24459E+06         0.00000E+00
   -0.24459E+06        -0.23102E+08         0.00000E+00
    0.00000E+00         0.00000E+00        -0.66154E+07
 
   -0.98976E+07        -0.24798E+06         0.00000E+00
   -0.24798E+06        -0.23126E+08         0.00000E+00
    0.00000E+00         0.00000E+00        -0.66046E+07
 
   -0.98163E+07        -0.24633E+06         0.00000E+00
   -0.24633E+06        -0.23151E+08         0.00000E+00
    0.00000E+00         0.00000E+00        -0.65934E+07
 
   -0.97317E+07        -0.23974E+06         0.00000E+00
   -0.23974E+06        -0.23177E+08         0.00000E+00
    0.00000E+00         0.00000E+00        -0.65817E+07
 
   -0.96442E+07        -0.22833E+06         0.00000E+00
   -0.22833E+06        -0.23204E+08         0.00000E+00
    0.00000E+00         0.00000E+00        -0.65696E+07
 
   -0.95540E+07        -0.21221E+06         0.00000E+00
   -0.21221E+06        -0.23232E+08         0.00000E+00
    0.00000E+00         0.00000E+00        -0.65573E+07
 
   -0.94615E+07        -0.19151E+06         0.00000E+00
   -0.19151E+06        -0.23261E+08         0.00000E+00
    0.00000E+00         0.00000E+00        -0.65446E+07
 
   -0.93670E+07        -0.16636E+06         0.00000E+00
   -0.16636E+06        -0.23291E+08         0.00000E+00
    0.00000E+00         0.00000E+00        -0.65317E+07
 
   -0.92707E+07        -0.13689E+06         0.00000E+00
   -0.13689E+06        -0.23322E+08         0.00000E+00
    0.00000E+00         0.00000E+00        -0.65185E+07
 
   -0.91730E+07        -0.10323E+06         0.00000E+00
   -0.10323E+06        -0.23353E+08         0.00000E+00
    0.00000E+00         0.00000E+00        -0.65052E+07
 
   -0.90739E+07        -0.65492E+05         0.00000E+00
   -0.65492E+05        -0.23385E+08         0.00000E+00
    0.00000E+00         0.00000E+00        -0.64917E+07
 
   -0.89738E+07        -0.23801E+05         0.00000E+00
   -0.23801E+05        -0.23417E+08         0.00000E+00
    0.00000E+00         0.00000E+00        -0.64781E+07
 
   -0.88728E+07         0.21732E+05         0.00000E+00
    0.21732E+05        -0.23449E+08         0.00000E+00
    0.00000E+00         0.00000E+00        -0.64644E+07
 
   -0.87710E+07         0.71005E+05         0.00000E+00
    0.71005E+05        -0.23482E+08         0.00000E+00
    0.00000E+00         0.00000E+00        -0.64507E+07
 
   -0.86686E+07         0.12392E+06         0.00000E+00
    0.12392E+06        -0.23516E+08         0.00000E+00
    0.00000E+00         0.00000E+00        -0.64369E+07
 
   -0.85658E+07         0.18040E+06         0.00000E+00
    0.18040E+06        -0.23550E+08         0.00000E+00
    0.00000E+00         0.00000E+00        -0.64231E+07
 
   -0.84627E+07         0.24035E+06         0.00000E+00
    0.24035E+06        -0.23584E+08         0.00000E+00
    0.00000E+00         0.00000E+00        -0.64093E+07
 
   -0.83594E+07         0.30373E+06         0.00000E+00
    0.30373E+06        -0.23618E+08         0.00000E+00
    0.00000E+00         0.00000E+00        -0.63956E+07
 
   -0.82560E+07         0.37046E+06         0.00000E+00
    0.37046E+06        -0.23653E+08         0.00000E+00
    0.00000E+00         0.00000E+00        -0.63819E+07
 
   -0.81526E+07         0.44050E+06         0.00000E+00
    0.44050E+06        -0.23689E+08         0.00000E+00
    0.00000E+00         0.00000E+00        -0.63683E+07
 
   -0.80493E+07         0.51382E+06         0.00000E+00
    0.51382E+06        -0.23724E+08         0.00000E+00
    0.00000E+00         0.00000E+00        -0.63547E+07
 
   -0.79463E+07         0.59039E+06         0.00000E+00
    0.59039E+06        -0.23760E+08         0.00000E+00
    0.00000E+00         0.00000E+00        -0.63413E+07
 
   -0.78436E+07         0.67018E+06         0.00000E+00
    0.67018E+06        -0.23797E+08         0.00000E+00
    0.00000E+00         0.00000E+00        -0.63281E+07
 
   -0.77413E+07         0.75318E+06         0.00000E+00
    0.75318E+06        -0.23833E+08         0.00000E+00
    0.00000E+00         0.00000E+00        -0.63149E+07
 
   -0.76397E+07         0.83938E+06         0.00000E+00
    0.83938E+06        -0.23870E+08         0.00000E+00
    0.00000E+00         0.00000E+00        -0.63020E+07
 
   -0.75387E+07         0.92879E+06         0.00000E+00
    0.92879E+06        -0.23908E+08         0.00000E+00
    0.00000E+00         0.00000E+00        -0.62892E+07
 
   -0.74386E+07         0.10214E+07         0.00000E+00
    0.10214E+07        -0.23945E+08         0.00000E+00
    0.00000E+00         0.00000E+00        -0.62767E+07
 
   -0.73394E+07         0.11172E+07         0.00000E+00
    0.11172E+07        -0.23982E+08         0.00000E+00
    0.00000E+00         0.00000E+00        -0.62644E+07
 
   -0.72414E+07         0.12162E+07         0.00000E+00
    0.12162E+07        -0.24020E+08         0.00000E+00
    0.00000E+00         0.00000E+00        -0.62523E+07
 
   -0.71446E+07         0.13184E+07         0.00000E+00
    0.13184E+07        -0.24058E+08         0.00000E+00
    0.00000E+00         0.00000E+00        -0.62405E+07
 
   -0.70492E+07         0.14239E+07         0.00000E+00
    0.14239E+07        -0.24096E+08         0.00000E+00
    0.00000E+00         0.00000E+00        -0.62290E+07
 
   -0.69555E+07         0.15325E+07         0.00000E+00
    0.15325E+07        -0.24133E+08         0.00000E+00
    0.00000E+00         0.00000E+00        -0.62177E+07
 
   -0.68637E+07         0.16443E+07         0.00000E+00
    0.16443E+07        -0.24170E+08         0.00000E+00
    0.00000E+00         0.00000E+00        -0.62068E+07
 
   -0.67738E+07         0.17592E+07         0.00000E+00
    0.17592E+07        -0.24207E+08         0.00000E+00
    0.00000E+00         0.00000E+00        -0.61962E+07
 
   -0.66861E+07         0.18773E+07         0.00000E+00
    0.18773E+07        -0.24244E+08         0.00000E+00
    0.00000E+00         0.00000E+00        -0.61860E+07
 
   -0.66009E+07         0.19985E+07         0.00000E+00
    0.19985E+07        -0.24280E+08         0.00000E+00
    0.00000E+00         0.00000E+00        -0.61761E+07
 
   -0.65184E+07         0.21226E+07         0.00000E+00
    0.21226E+07        -0.24315E+08         0.00000E+00
    0.00000E+00         0.00000E+00        -0.61666E+07
 
   -0.64388E+07         0.22497E+07         0.00000E+00
    0.22497E+07        -0.24349E+08         0.00000E+00
    0.00000E+00         0.00000E+00        -0.61576E+07
 
   -0.63623E+07         0.23797E+07         0.00000E+00
    0.23797E+07        -0.24382E+08         0.00000E+00
    0.00000E+00         0.00000E+00        -0.61489E+07
 
   -0.62892E+07         0.25123E+07         0.00000E+00
    0.25123E+07        -0.24414E+08         0.00000E+00
    0.00000E+00         0.00000E+00        -0.61407E+07
 
   -0.62197E+07         0.26475E+07         0.00000E+00
    0.26475E+07        -0.24445E+08         0.00000E+00
    0.00000E+00         0.00000E+00        -0.61330E+07
 
   -0.61540E+07         0.27851E+07         0.00000E+00
    0.27851E+07        -0.24474E+08         0.00000E+00
    0.00000E+00         0.00000E+00        -0.61257E+07
 
   -0.11648E+08        -0.39472E+05         0.00000E+00
   -0.39472E+05        -0.23948E+08         0.00000E+00
    0.00000E+00         0.00000E+00        -0.71191E+07
 
   -0.11587E+08        -0.10253E+06         0.00000E+00
   -0.10253E+06        -0.23952E+08         0.00000E+00
    0.00000E+00         0.00000E+00        -0.71079E+07
 
   -0.11519E+08        -0.15871E+06         0.00000E+00
   -0.15871E+06        -0.23960E+08         0.00000E+00
    0.00000E+00         0.00000E+00        -0.70958E+07
 
   -0.11443E+08        -0.20804E+06         0.00000E+00
   -0.20804E+06        -0.23971E+08         0.00000E+00
    0.00000E+00         0.00000E+00        -0.70829E+07
 
   -0.11361E+08        -0.25054E+06         0.00000E+00
   -0.25054E+06        -0.23984E+08         0.00000E+00
    0.00000E+00         0.00000E+00        -0.70691E+07
 
   -0.11273E+08        -0.28627E+06         0.00000E+00
   -0.28627E+06        -0.24000E+08         0.00000E+00
    0.00000E+00         0.00000E+00        -0.70547E+07
 
   -0.11180E+08        -0.31534E+06         0.00000E+00
   -0.31534E+06        -0.24018E+08         0.00000E+00
    0.00000E+00         0.00000E+00        -0.70397E+07
 
   -0.11082E+08        -0.33790E+06         0.00000E+00
   -0.33790E+06        -0.24038E+08         0.00000E+00
    0.00000E+00         0.00000E+00        -0.70241E+07
 
   -0.10981E+08        -0.35410E+06         0.00000E+00
   -0.35410E+06        -0.24059E+08         0.00000E+00
    0.00000E+00         0.00000E+00        -0.70080E+07
 
   -0.10875E+08        -0.36414E+06         0.00000E+00
   -0.36414E+06        -0.24082E+08         0.00000E+00
    0.00000E+00         0.00000E+00        -0.69915E+07
 
   -0.10767E+08        -0.36822E+06         0.00000E+00
   -0.36822E+06        -0.24106E+08         0.00000E+00
    0.00000E+00         0.00000E+00        -0.69746E+07
 
   -0.10656E+08        -0.36656E+06         0.00000E+00
   -0.36656E+06        -0.24130E+08         0.00000E+00
    0.00000E+00         0.00000E+00        -0.69573E+07
 
   -0.10544E+08        -0.35937E+06         0.00000E+00
   -0.35937E+06        -0.24155E+08         0.00000E+00
    0.00000E+00         0.00000E+00        -0.69398E+07
 
   -0.10429E+08        -0.34690E+06         0.00000E+00
   -0.34690E+06        -0.24181E+08         0.00000E+00
    0.00000E+00         0.00000E+00        -0.69220E+07
 
   -0.10313E+08        -0.32937E+06         0.00000E+00
   -0.32937E+06        -0.24208E+08         0.00000E+00
    0.00000E+00         0.00000E+00        -0.69041E+07
 
   -0.10196E+08        -0.30701E+06         0.00000E+00
   -0.30701E+06        -0.24234E+08         0.00000E+00
    0.00000E+00         0.00000E+00        -0.68860E+07
 
   -0.10078E+08        -0.28004E+06         0.00000E+00
   -0.28004E+06        -0.24262E+08         0.00000E+00
    0.00000E+00         0.00000E+00        -0.68679E+07
 
   -0.99588E+07        -0.24867E+06         0.00000E+00
   -0.24867E+06        -0.24289E+08         0.00000E+00
    0.00000E+00         0.00000E+00        -0.68496E+07
 
   -0.98395E+07        -0.21308E+06         0.00000E+00
   -0.21308E+06        -0.24317E+08         0.00000E+00
    0.00000E+00         0.00000E+00        -0.68314E+07
 
   -0.97198E+07        -0.17347E+06         0.00000E+00
   -0.17347E+06        -0.24346E+08         0.00000E+00
    0.00000E+00         0.00000E+00        -0.68131E+07
 
   -0.95999E+07        -0.12999E+06         0.00000E+00
   -0.12999E+06        -0.24374E+08         0.00000E+00
    0.00000E+00         0.00000E+00        -0.67949E+07
 
   -0.94798E+07        -0.82800E+05         0.00000E+00
   -0.82800E+05        -0.24404E+08         0.00000E+00
    0.00000E+00         0.00000E+00        -0.67767E+07
 
   -0.93597E+07        -0.32017E+05         0.00000E+00
   -0.32017E+05        -0.24433E+08         0.00000E+00
    0.00000E+00         0.00000E+00        -0.67586E+07
 
   -0.92396E+07         0.22247E+05         0.00000E+00
    0.22247E+05        -0.24463E+08         0.00000E+00
    0.00000E+00         0.00000E+00        -0.67406E+07
 
   -0.91195E+07         0.79900E+05         0.00000E+00
    0.79900E+05        -0.24494E+08         0.00000E+00
    0.00000E+00         0.00000E+00        -0.67227E+07
 
   -0.89995E+07         0.14087E+06         0.00000E+00
    0.14087E+06        -0.24525E+08         0.00000E+00
    0.00000E+00         0.00000E+00        -0.67049E+07
 
   -0.88797E+07         0.20510E+06         0.00000E+00
    0.20510E+06        -0.24557E+08         0.00000E+00
    0.00000E+00         0.00000E+00        -0.66873E+07
 
   -0.87601E+07         0.27256E+06         0.00000E+00
    0.27256E+06        -0.24589E+08         0.00000E+00
    0.00000E+00         0.00000E+00        -0.66699E+07
 
   -0.86407E+07         0.34322E+06         0.00000E+00
    0.34322E+06        -0.24623E+08         0.00000E+00
    0.00000E+00         0.00000E+00        -0.66527E+07
 
   -0.85216E+07         0.41708E+06         0.00000E+00
    0.41708E+06        -0.24657E+08         0.00000E+00
    0.00000E+00         0.00000E+00        -0.66357E+07
 
   -0.84029E+07         0.49416E+06         0.00000E+00
    0.49416E+06        -0.24691E+08         0.00000E+00
    0.00000E+00         0.00000E+00        -0.66189E+07
 
   -0.82846E+07         0.57446E+06         0.00000E+00
    0.57446E+06        -0.24727E+08         0.00000E+00
    0.00000E+00         0.00000E+00        -0.66023E+07
 
   -0.81667E+07         0.65804E+06         0.00000E+00
    0.65804E+06        -0.24763E+08         0.00000E+00
    0.00000E+00         0.00000E+00        -0.65860E+07
 
   -0.80495E+07         0.74494E+06         0.00000E+00
    0.74494E+06        -0.24800E+08         0.00000E+00
    0.00000E+00         0.00000E+00        -0.65700E+07
 
   -0.79329E+07         0.83521E+06         0.00000E+00
    0.83521E+06        -0.24838E+08         0.00000E+00
    0.00000E+00         0.00000E+00        -0.65542E+07
 
   -0.78171E+07         0.92893E+06         0.00000E+00
    0.92893E+06        -0.24877E+08         0.00000E+00
    0.00000E+00         0.00000E+00        -0.65388E+07
 
   -0.77022E+07         0.10261E+07         0.00000E+00
    0.10261E+07        -0.24916E+08         0.00000E+00
    0.00000E+00         0.00000E+00        -0.65237E+07
 
   -0.75885E+07         0.11269E+07         0.00000E+00
    0.11269E+07        -0.24956E+08         0.00000E+00
    0.00000E+00         0.00000E+00        -0.65089E+07
 
   -0.74761E+07         0.12314E+07         0.00000E+00
    0.12314E+07        -0.24996E+08         0.00000E+00
    0.00000E+00         0.00000E+00        -0.64945E+07
 
   -0.73652E+07         0.13395E+07         0.00000E+00
    0.13395E+07        -0.25037E+08         0.00000E+00
    0.00000E+00         0.00000E+00        -0.64805E+07
 
   -0.72560E+07         0.14515E+07         0.00000E+00
    0.14515E+07        -0.25078E+08         0.00000E+00
    0.00000E+00         0.00000E+00        -0.64669E+07
 
   -0.71488E+07         0.15672E+07         0.00000E+00
    0.15672E+07        -0.25120E+08         0.00000E+00
    0.00000E+00         0.00000E+00        -0.64537E+07
 
   -0.70439E+07         0.16868E+07         0.00000E+00
    0.16868E+07        -0.25161E+08         0.00000E+00
    0.00000E+00         0.00000E+00        -0.64410E+07
 
   -0.69416E+07         0.18102E+07         0.00000E+00
    0.18102E+07        -0.25202E+08         0.00000E+00
    0.00000E+00         0.00000E+00        -0.64287E+07
 
   -0.68422E+07         0.19375E+07         0.00000E+00
    0.19375E+07        -0.25243E+08         0.00000E+00
    0.00000E+00         0.00000E+00        -0.64170E+07
 
   -0.67460E+07         0.20685E+07         0.00000E+00
    0.20685E+07        -0.25283E+08         0.00000E+00
    0.00000E+00         0.00000E+00        -0.64058E+07
 
   -0.66535E+07         0.22034E+07         0.00000E+00
    0.22034E+07        -0.25322E+08         0.00000E+00
    0.00000E+00         0.00000E+00        -0.63951E+07
 
   -0.65648E+07         0.23419E+07         0.00000E+00
    0.23419E+07        -0.25360E+08         0.00000E+00
    0.00000E+00         0.00000E+00        -0.63850E+07
 
   -0.64806E+07         0.24840E+07         0.00000E+00
    0.24840E+07        -0.25397E+08         0.00000E+00
    0.00000E+00         0.00000E+00        -0.63755E+07
 
   -0.64010E+07         0.26294E+07         0.00000E+00
    0.26294E+07        -0.25432E+08         0.00000E+00
    0.00000E+00         0.00000E+00        -0.63667E+07
 
   -0.13024E+08        -0.51060E+05         0.00000E+00
   -0.51060E+05        -0.24945E+08         0.00000E+00
    0.00000E+00         0.00000E+00        -0.75940E+07
 
   -0.12925E+08        -0.13200E+06         0.00000E+00
   -0.13200E+06        -0.24950E+08         0.00000E+00
    0.00000E+00         0.00000E+00        -0.75749E+07
 
   -0.12817E+08        -0.20401E+06         0.00000E+00
   -0.20401E+06        -0.24958E+08         0.00000E+00
    0.00000E+00         0.00000E+00        -0.75550E+07
 
   -0.12702E+08        -0.26695E+06         0.00000E+00
   -0.26695E+06        -0.24969E+08         0.00000E+00
    0.00000E+00         0.00000E+00        -0.75342E+07
 
   -0.12582E+08        -0.32104E+06         0.00000E+00
   -0.32104E+06        -0.24982E+08         0.00000E+00
    0.00000E+00         0.00000E+00        -0.75127E+07
 
   -0.12456E+08        -0.36653E+06         0.00000E+00
   -0.36653E+06        -0.24997E+08         0.00000E+00
    0.00000E+00         0.00000E+00        -0.74906E+07
 
   -0.12326E+08        -0.40369E+06         0.00000E+00
   -0.40369E+06        -0.25014E+08         0.00000E+00
    0.00000E+00         0.00000E+00        -0.74679E+07
 
   -0.12193E+08        -0.43283E+06         0.00000E+00
   -0.43283E+06        -0.25032E+08         0.00000E+00
    0.00000E+00         0.00000E+00        -0.74448E+07
 
   -0.12057E+08        -0.45429E+06         0.00000E+00
   -0.45429E+06        -0.25050E+08         0.00000E+00
    0.00000E+00         0.00000E+00        -0.74214E+07
 
   -0.11919E+08        -0.46844E+06         0.00000E+00
   -0.46844E+06        -0.25069E+08         0.00000E+00
    0.00000E+00         0.00000E+00        -0.73976E+07
 
   -0.11779E+08        -0.47567E+06         0.00000E+00
   -0.47567E+06        -0.25089E+08         0.00000E+00
    0.00000E+00         0.00000E+00        -0.73736E+07
 
   -0.11639E+08        -0.47640E+06         0.00000E+00
   -0.47640E+06        -0.25109E+08         0.00000E+00
    0.00000E+00         0.00000E+00        -0.73495E+07
 
   -0.11498E+08        -0.47104E+06         0.00000E+00
   -0.47104E+06        -0.25129E+08         0.00000E+00
    0.00000E+00         0.00000E+00        -0.73253E+07
 
   -0.11356E+08        -0.45999E+06         0.00000E+00
   -0.45999E+06        -0.25149E+08         0.00000E+00
    0.00000E+00         0.00000E+00        -0.73010E+07
 
   -0.11215E+08        -0.44365E+06         0.00000E+00
   -0.44365E+06        -0.25169E+08         0.00000E+00
    0.00000E+00         0.00000E+00        -0.72768E+07
 
   -0.11074E+08        -0.42238E+06         0.00000E+00
   -0.42238E+06        -0.25189E+08         0.00000E+00
    0.00000E+00         0.00000E+00        -0.72526E+07
 
   -0.10934E+08        -0.39652E+06         0.00000E+00
   -0.39652E+06        -0.25209E+08         0.00000E+00
    0.00000E+00         0.00000E+00        -0.72285E+07
 
   -0.10794E+08        -0.36637E+06         0.00000E+00
   -0.36637E+06        -0.25229E+08         0.00000E+00
    0.00000E+00         0.00000E+00        -0.72046E+07
 
   -0.10655E+08        -0.33222E+06         0.00000E+00
   -0.33222E+06        -0.25249E+08         0.00000E+00
    0.00000E+00         0.00000E+00        -0.71808E+07
 
   -0.10516E+08        -0.29431E+06         0.00000E+00
   -0.29431E+06        -0.25270E+08         0.00000E+00
    0.00000E+00         0.00000E+00        -0.71572E+07
 
   -0.10378E+08        -0.25286E+06         0.00000E+00
   -0.25286E+06        -0.25291E+08         0.00000E+00
    0.00000E+00         0.00000E+00        -0.71337E+07
 
   -0.10240E+08        -0.20804E+06         0.00000E+00
   -0.20804E+06        -0.25312E+08         0.00000E+00
    0.00000E+00         0.00000E+00        -0.71106E+07
 
   -0.10104E+08        -0.16001E+06         0.00000E+00
   -0.16001E+06        -0.25334E+08         0.00000E+00
    0.00000E+00         0.00000E+00        -0.70876E+07
 
   -0.99673E+07        -0.10889E+06         0.00000E+00
   -0.10889E+06        -0.25357E+08         0.00000E+00
    0.00000E+00         0.00000E+00        -0.70649E+07
 
   -0.98314E+07        -0.54777E+05         0.00000E+00
   -0.54777E+05        -0.25381E+08         0.00000E+00
    0.00000E+00         0.00000E+00        -0.70424E+07
 
   -0.96959E+07         0.22645E+04         0.00000E+00
    0.22645E+04        -0.25405E+08         0.00000E+00
    0.00000E+00         0.00000E+00        -0.70203E+07
 
   -0.95608E+07         0.62194E+05         0.00000E+00
    0.62194E+05        -0.25431E+08         0.00000E+00
    0.00000E+00         0.00000E+00        -0.69984E+07
 
   -0.94259E+07         0.12500E+06         0.00000E+00
    0.12500E+06        -0.25458E+08         0.00000E+00
    0.00000E+00         0.00000E+00        -0.69767E+07
 
   -0.92913E+07         0.19068E+06         0.00000E+00
    0.19068E+06        -0.25486E+08         0.00000E+00
    0.00000E+00         0.00000E+00        -0.69554E+07
 
   -0.91568E+07         0.25928E+06         0.00000E+00
    0.25928E+06        -0.25515E+08         0.00000E+00
    0.00000E+00         0.00000E+00        -0.69344E+07
 
   -0.90225E+07         0.33086E+06         0.00000E+00
    0.33086E+06        -0.25546E+08         0.00000E+00
    0.00000E+00         0.00000E+00        -0.69137E+07
 
   -0.88883E+07         0.40548E+06         0.00000E+00
    0.40548E+06        -0.25578E+08         0.00000E+00
    0.00000E+00         0.00000E+00        -0.68933E+07
 
   -0.87542E+07         0.48326E+06         0.00000E+00
    0.48326E+06        -0.25612E+08         0.00000E+00
    0.00000E+00         0.00000E+00        -0.68732E+07
 
   -0.86202E+07         0.56431E+06         0.00000E+00
    0.56431E+06        -0.25647E+08         0.00000E+00
    0.00000E+00         0.00000E+00        -0.68535E+07
 
   -0.84863E+07         0.64878E+06         0.00000E+00
    0.64878E+06        -0.25684E+08         0.00000E+00
    0.00000E+00         0.00000E+00        -0.68341E+07
 
   -0.83528E+07         0.73681E+06         0.00000E+00
    0.73681E+06        -0.25722E+08         0.00000E+00
    0.00000E+00         0.00000E+00        -0.68150E+07
 
   -0.82195E+07         0.82858E+06         0.00000E+00
    0.82858E+06        -0.25762E+08         0.00000E+00
    0.00000E+00         0.00000E+00        -0.67964E+07
 
   -0.80867E+07         0.92427E+06         0.00000E+00
    0.92427E+06        -0.25804E+08         0.00000E+00
    0.00000E+00         0.00000E+00        -0.67781E+07
 
   -0.79547E+07         0.10241E+07         0.00000E+00
    0.10241E+07        -0.25847E+08         0.00000E+00
    0.00000E+00         0.00000E+00        -0.67603E+07
 
   -0.78235E+07         0.11282E+07         0.00000E+00
    0.11282E+07        -0.25891E+08         0.00000E+00
    0.00000E+00         0.00000E+00        -0.67430E+07
 
   -0.76935E+07         0.12368E+07         0.00000E+00
    0.12368E+07        -0.25937E+08         0.00000E+00
    0.00000E+00         0.00000E+00        -0.67261E+07
 
   -0.75650E+07         0.13501E+07         0.00000E+00
    0.13501E+07        -0.25983E+08         0.00000E+00
    0.00000E+00         0.00000E+00        -0.67097E+07
 
   -0.74383E+07         0.14682E+07         0.00000E+00
    0.14682E+07        -0.26031E+08         0.00000E+00
    0.00000E+00         0.00000E+00        -0.66938E+07
 
   -0.73140E+07         0.15913E+07         0.00000E+00
    0.15913E+07        -0.26079E+08         0.00000E+00
    0.00000E+00         0.00000E+00        -0.66785E+07
 
   -0.71924E+07         0.17194E+07         0.00000E+00
    0.17194E+07        -0.26127E+08         0.00000E+00
    0.00000E+00         0.00000E+00        -0.66638E+07
 
   -0.70740E+07         0.18527E+07         0.00000E+00
    0.18527E+07        -0.26175E+08         0.00000E+00
    0.00000E+00         0.00000E+00        -0.66498E+07
 
   -0.69593E+07         0.19912E+07         0.00000E+00
    0.19912E+07        -0.26223E+08         0.00000E+00
    0.00000E+00         0.00000E+00        -0.66364E+07
 
   -0.68490E+07         0.21349E+07         0.00000E+00
    0.21349E+07        -0.26270E+08         0.00000E+00
    0.00000E+00         0.00000E+00        -0.66237E+07
 
   -0.67437E+07         0.22837E+07         0.00000E+00
    0.22837E+07        -0.26316E+08         0.00000E+00
    0.00000E+00         0.00000E+00        -0.66119E+07
 
   -0.66438E+07         0.24374E+07         0.00000E+00
    0.24374E+07        -0.26360E+08         0.00000E+00
    0.00000E+00         0.00000E+00        -0.66007E+07
 
   -0.14540E+08        -0.63643E+05         0.00000E+00
   -0.63643E+05        -0.25985E+08         0.00000E+00
    0.00000E+00         0.00000E+00        -0.81051E+07
 
   -0.14387E+08        -0.16229E+06         0.00000E+00
   -0.16229E+06        -0.25991E+08         0.00000E+00
    0.00000E+00         0.00000E+00        -0.80756E+07
 
   -0.14227E+08        -0.24817E+06         0.00000E+00
   -0.24817E+06        -0.25998E+08         0.00000E+00
    0.00000E+00         0.00000E+00        -0.80450E+07
 
   -0.14061E+08        -0.32230E+06         0.00000E+00
   -0.32230E+06        -0.26008E+08         0.00000E+00
    0.00000E+00         0.00000E+00        -0.80138E+07
 
   -0.13891E+08        -0.38502E+06         0.00000E+00
   -0.38502E+06        -0.26020E+08         0.00000E+00
    0.00000E+00         0.00000E+00        -0.79821E+07
 
   -0.13717E+08        -0.43666E+06         0.00000E+00
   -0.43666E+06        -0.26033E+08         0.00000E+00
    0.00000E+00         0.00000E+00        -0.79499E+07
 
   -0.13541E+08        -0.47771E+06         0.00000E+00
   -0.47771E+06        -0.26046E+08         0.00000E+00
    0.00000E+00         0.00000E+00        -0.79174E+07
 
   -0.13365E+08        -0.50880E+06         0.00000E+00
   -0.50880E+06        -0.26059E+08         0.00000E+00
    0.00000E+00         0.00000E+00        -0.78847E+07
 
   -0.13188E+08        -0.53069E+06         0.00000E+00
   -0.53069E+06        -0.26071E+08         0.00000E+00
    0.00000E+00         0.00000E+00        -0.78519E+07
 
   -0.13012E+08        -0.54417E+06         0.00000E+00
   -0.54417E+06        -0.26083E+08         0.00000E+00
    0.00000E+00         0.00000E+00        -0.78190E+07
 
   -0.12838E+08        -0.55003E+06         0.00000E+00
   -0.55003E+06        -0.26094E+08         0.00000E+00
    0.00000E+00         0.00000E+00        -0.77863E+07
 
   -0.12665E+08        -0.54902E+06         0.00000E+00
   -0.54902E+06        -0.26104E+08         0.00000E+00
    0.00000E+00         0.00000E+00        -0.77538E+07
 
   -0.12495E+08        -0.54185E+06         0.00000E+00
   -0.54185E+06        -0.26113E+08         0.00000E+00
    0.00000E+00         0.00000E+00        -0.77215E+07
 
   -0.12327E+08        -0.52916E+06         0.00000E+00
   -0.52916E+06        -0.26121E+08         0.00000E+00
    0.00000E+00         0.00000E+00        -0.76896E+07
 
   -0.12161E+08        -0.51152E+06         0.00000E+00
   -0.51152E+06        -0.26129E+08         0.00000E+00
    0.00000E+00         0.00000E+00        -0.76580E+07
 
   -0.11997E+08        -0.48944E+06         0.00000E+00
   -0.48944E+06        -0.26137E+08         0.00000E+00
    0.00000E+00         0.00000E+00        -0.76268E+07
 
   -0.11836E+08        -0.46336E+06         0.00000E+00
   -0.46336E+06        -0.26144E+08         0.00000E+00
    0.00000E+00         0.00000E+00        -0.75961E+07
 
   -0.11677E+08        -0.43367E+06         0.00000E+00
   -0.43367E+06        -0.26152E+08         0.00000E+00
    0.00000E+00         0.00000E+00        -0.75657E+07
 
   -0.11520E+08        -0.40070E+06         0.00000E+00
   -0.40070E+06        -0.26159E+08         0.00000E+00
    0.00000E+00         0.00000E+00        -0.75359E+07
 
   -0.11365E+08        -0.36471E+06         0.00000E+00
   -0.36471E+06        -0.26167E+08         0.00000E+00
    0.00000E+00         0.00000E+00        -0.75064E+07
 
   -0.11211E+08        -0.32593E+06         0.00000E+00
   -0.32593E+06        -0.26176E+08         0.00000E+00
    0.00000E+00         0.00000E+00        -0.74774E+07
 
   -0.11059E+08        -0.28455E+06         0.00000E+00
   -0.28455E+06        -0.26185E+08         0.00000E+00
    0.00000E+00         0.00000E+00        -0.74489E+07
 
   -0.10908E+08        -0.24071E+06         0.00000E+00
   -0.24071E+06        -0.26196E+08         0.00000E+00
    0.00000E+00         0.00000E+00        -0.74208E+07
 
   -0.10758E+08        -0.19452E+06         0.00000E+00
   -0.19452E+06        -0.26207E+08         0.00000E+00
    0.00000E+00         0.00000E+00        -0.73931E+07
 
   -0.10609E+08        -0.14606E+06         0.00000E+00
   -0.14606E+06        -0.26220E+08         0.00000E+00
    0.00000E+00         0.00000E+00        -0.73659E+07
 
   -0.10461E+08        -0.95352E+05         0.00000E+00
   -0.95352E+05        -0.26235E+08         0.00000E+00
    0.00000E+00         0.00000E+00        -0.73391E+07
 
   -0.10313E+08        -0.42423E+05         0.00000E+00
   -0.42423E+05        -0.26251E+08         0.00000E+00
    0.00000E+00         0.00000E+00        -0.73127E+07
 
   -0.10165E+08         0.12748E+05         0.00000E+00
    0.12748E+05        -0.26268E+08         0.00000E+00
    0.00000E+00         0.00000E+00        -0.72867E+07
 
   -0.10017E+08         0.70210E+05         0.00000E+00
    0.70210E+05        -0.26288E+08         0.00000E+00
    0.00000E+00         0.00000E+00        -0.72611E+07
 
   -0.98694E+07         0.13004E+06         0.00000E+00
    0.13004E+06        -0.26310E+08         0.00000E+00
    0.00000E+00         0.00000E+00        -0.72359E+07
 
   -0.97211E+07         0.19233E+06         0.00000E+00
    0.19233E+06        -0.26334E+08         0.00000E+00
    0.00000E+00         0.00000E+00        -0.72111E+07
 
   -0.95723E+07         0.25723E+06         0.00000E+00
    0.25723E+06        -0.26361E+08         0.00000E+00
    0.00000E+00         0.00000E+00        -0.71866E+07
 
   -0.94229E+07         0.32489E+06         0.00000E+00
    0.32489E+06        -0.26390E+08         0.00000E+00
    0.00000E+00         0.00000E+00        -0.71625E+07
 
   -0.92728E+07         0.39552E+06         0.00000E+00
    0.39552E+06        -0.26421E+08         0.00000E+00
    0.00000E+00         0.00000E+00        -0.71387E+07
 
   -0.91219E+07         0.46933E+06         0.00000E+00
    0.46933E+06        -0.26455E+08         0.00000E+00
    0.00000E+00         0.00000E+00        -0.71154E+07
 
   -0.89701E+07         0.54658E+06         0.00000E+00
    0.54658E+06        -0.26492E+08         0.00000E+00
    0.00000E+00         0.00000E+00        -0.70924E+07
 
   -0.88174E+07         0.62758E+06         0.00000E+00
    0.62758E+06        -0.26531E+08         0.00000E+00
    0.00000E+00         0.00000E+00        -0.70697E+07
 
   -0.86639E+07         0.71265E+06         0.00000E+00
    0.71265E+06        -0.26573E+08         0.00000E+00
    0.00000E+00         0.00000E+00        -0.70475E+07
 
   -0.85097E+07         0.80215E+06         0.00000E+00
    0.80215E+06        -0.26618E+08         0.00000E+00
    0.00000E+00         0.00000E+00        -0.70256E+07
 
   -0.83549E+07         0.89648E+06         0.00000E+00
    0.89648E+06        -0.26666E+08         0.00000E+00
    0.00000E+00         0.00000E+00        -0.70042E+07
 
   -0.81998E+07         0.99606E+06         0.00000E+00
    0.99606E+06        -0.26717E+08         0.00000E+00
    0.00000E+00         0.00000E+00        -0.69833E+07
 
   -0.80447E+07         0.11013E+07         0.00000E+00
    0.11013E+07        -0.26770E+08         0.00000E+00
    0.00000E+00         0.00000E+00        -0.69629E+07
 
   -0.78901E+07         0.12127E+07         0.00000E+00
    0.12127E+07        -0.26825E+08         0.00000E+00
    0.00000E+00         0.00000E+00        -0.69430E+07
 
   -0.77367E+07         0.13306E+07         0.00000E+00
    0.13306E+07        -0.26882E+08         0.00000E+00
    0.00000E+00         0.00000E+00        -0.69237E+07
 
   -0.75850E+07         0.14555E+07         0.00000E+00
    0.14555E+07        -0.26941E+08         0.00000E+00
    0.00000E+00         0.00000E+00        -0.69051E+07
 
   -0.74358E+07         0.15874E+07         0.00000E+00
    0.15874E+07        -0.27000E+08         0.00000E+00
    0.00000E+00         0.00000E+00        -0.68872E+07
 
   -0.72899E+07         0.17268E+07         0.00000E+00
    0.17268E+07        -0.27060E+08         0.00000E+00
    0.00000E+00         0.00000E+00        -0.68701E+07
 
   -0.71480E+07         0.18735E+07         0.00000E+00
    0.18735E+07        -0.27120E+08         0.00000E+00
    0.00000E+00         0.00000E+00        -0.68537E+07
 
   -0.70110E+07         0.20278E+07         0.00000E+00
    0.20278E+07        -0.27180E+08         0.00000E+00
    0.00000E+00         0.00000E+00        -0.68381E+07
 
   -0.68804E+07         0.21903E+07         0.00000E+00
    0.21903E+07        -0.27238E+08         0.00000E+00
    0.00000E+00         0.00000E+00        -0.68238E+07
 
   -0.16194E+08        -0.77717E+05         0.00000E+00
   -0.77717E+05        -0.27072E+08         0.00000E+00
    0.00000E+00         0.00000E+00        -0.86532E+07
 
   -0.15968E+08        -0.19057E+06         0.00000E+00
   -0.19057E+06        -0.27075E+08         0.00000E+00
    0.00000E+00         0.00000E+00        -0.86085E+07
 
   -0.15737E+08        -0.28839E+06         0.00000E+00
   -0.28839E+06        -0.27083E+08         0.00000E+00
    0.00000E+00         0.00000E+00        -0.85639E+07
 
   -0.15501E+08        -0.36902E+06         0.00000E+00
   -0.36902E+06        -0.27093E+08         0.00000E+00
    0.00000E+00         0.00000E+00        -0.85187E+07
 
   -0.15264E+08        -0.43287E+06         0.00000E+00
   -0.43287E+06        -0.27101E+08         0.00000E+00
    0.00000E+00         0.00000E+00        -0.84729E+07
 
   -0.15028E+08        -0.48141E+06         0.00000E+00
   -0.48141E+06        -0.27108E+08         0.00000E+00
    0.00000E+00         0.00000E+00        -0.84270E+07
 
   -0.14795E+08        -0.51653E+06         0.00000E+00
   -0.51653E+06        -0.27111E+08         0.00000E+00
    0.00000E+00         0.00000E+00        -0.83812E+07
 
   -0.14568E+08        -0.54009E+06         0.00000E+00
   -0.54009E+06        -0.27111E+08         0.00000E+00
    0.00000E+00         0.00000E+00        -0.83358E+07
 
   -0.14346E+08        -0.55384E+06         0.00000E+00
   -0.55384E+06        -0.27109E+08         0.00000E+00
    0.00000E+00         0.00000E+00        -0.82910E+07
 
   -0.14131E+08        -0.55930E+06         0.00000E+00
   -0.55930E+06        -0.27104E+08         0.00000E+00
    0.00000E+00         0.00000E+00        -0.82469E+07
 
   -0.13921E+08        -0.55777E+06         0.00000E+00
   -0.55777E+06        -0.27097E+08         0.00000E+00
    0.00000E+00         0.00000E+00        -0.82037E+07
 
   -0.13719E+08        -0.55035E+06         0.00000E+00
   -0.55035E+06        -0.27088E+08         0.00000E+00
    0.00000E+00         0.00000E+00        -0.81613E+07
 
   -0.13522E+08        -0.53797E+06         0.00000E+00
   -0.53797E+06        -0.27078E+08         0.00000E+00
    0.00000E+00         0.00000E+00        -0.81199E+07
 
   -0.13330E+08        -0.52137E+06         0.00000E+00
   -0.52137E+06        -0.27067E+08         0.00000E+00
    0.00000E+00         0.00000E+00        -0.80794E+07
 
   -0.13144E+08        -0.50119E+06         0.00000E+00
   -0.50119E+06        -0.27055E+08         0.00000E+00
    0.00000E+00         0.00000E+00        -0.80399E+07
 
   -0.12962E+08        -0.47794E+06         0.00000E+00
   -0.47794E+06        -0.27044E+08         0.00000E+00
    0.00000E+00         0.00000E+00        -0.80012E+07
 
   -0.12785E+08        -0.45202E+06         0.00000E+00
   -0.45202E+06        -0.27032E+08         0.00000E+00
    0.00000E+00         0.00000E+00        -0.79635E+07
 
   -0.12612E+08        -0.42379E+06         0.00000E+00
   -0.42379E+06        -0.27021E+08         0.00000E+00
    0.00000E+00         0.00000E+00        -0.79266E+07
 
   -0.12442E+08        -0.39351E+06         0.00000E+00
   -0.39351E+06        -0.27011E+08         0.00000E+00
    0.00000E+00         0.00000E+00        -0.78906E+07
 
   -0.12275E+08        -0.36139E+06         0.00000E+00
   -0.36139E+06        -0.27002E+08         0.00000E+00
    0.00000E+00         0.00000E+00        -0.78553E+07
 
   -0.12110E+08        -0.32760E+06         0.00000E+00
   -0.32760E+06        -0.26994E+08         0.00000E+00
    0.00000E+00         0.00000E+00        -0.78208E+07
 
   -0.11948E+08        -0.29227E+06         0.00000E+00
   -0.29227E+06        -0.26988E+08         0.00000E+00
    0.00000E+00         0.00000E+00        -0.77871E+07
 
   -0.11787E+08        -0.25548E+06         0.00000E+00
   -0.25548E+06        -0.26983E+08         0.00000E+00
    0.00000E+00         0.00000E+00        -0.77540E+07
 
   -0.11628E+08        -0.21728E+06         0.00000E+00
   -0.21728E+06        -0.26980E+08         0.00000E+00
    0.00000E+00         0.00000E+00        -0.77216E+07
 
   -0.11470E+08        -0.17772E+06         0.00000E+00
   -0.17772E+06        -0.26980E+08         0.00000E+00
    0.00000E+00         0.00000E+00        -0.76898E+07
 
   -0.11312E+08        -0.13679E+06         0.00000E+00
   -0.13679E+06        -0.26981E+08         0.00000E+00
    0.00000E+00         0.00000E+00        -0.76586E+07
 
   -0.11155E+08        -0.94461E+05         0.00000E+00
   -0.94461E+05        -0.26985E+08         0.00000E+00
    0.00000E+00         0.00000E+00        -0.76280E+07
 
   -0.10997E+08        -0.50689E+05         0.00000E+00
   -0.50689E+05        -0.26992E+08         0.00000E+00
    0.00000E+00         0.00000E+00        -0.75978E+07
 
   -0.10839E+08        -0.53983E+04         0.00000E+00
   -0.53983E+04        -0.27001E+08         0.00000E+00
    0.00000E+00         0.00000E+00        -0.75682E+07
 
   -0.10681E+08         0.41510E+05         0.00000E+00
    0.41510E+05        -0.27014E+08         0.00000E+00
    0.00000E+00         0.00000E+00        -0.75390E+07
 
   -0.10522E+08         0.90161E+05         0.00000E+00
    0.90161E+05        -0.27029E+08         0.00000E+00
    0.00000E+00         0.00000E+00        -0.75102E+07
 
   -0.10361E+08         0.14071E+06         0.00000E+00
    0.14071E+06        -0.27048E+08         0.00000E+00
    0.00000E+00         0.00000E+00        -0.74817E+07
 
   -0.10199E+08         0.19335E+06         0.00000E+00
    0.19335E+06        -0.27070E+08         0.00000E+00
    0.00000E+00         0.00000E+00        -0.74537E+07
 
   -0.10035E+08         0.24831E+06         0.00000E+00
    0.24831E+06        -0.27095E+08         0.00000E+00
    0.00000E+00         0.00000E+00        -0.74260E+07
 
   -0.98683E+07         0.30584E+06         0.00000E+00
    0.30584E+06        -0.27124E+08         0.00000E+00
    0.00000E+00         0.00000E+00        -0.73985E+07
 
   -0.96995E+07         0.36626E+06         0.00000E+00
    0.36626E+06        -0.27158E+08         0.00000E+00
    0.00000E+00         0.00000E+00        -0.73714E+07
 
   -0.95282E+07         0.42993E+06         0.00000E+00
    0.42993E+06        -0.27195E+08         0.00000E+00
    0.00000E+00         0.00000E+00        -0.73446E+07
 
   -0.93539E+07         0.49729E+06         0.00000E+00
    0.49729E+06        -0.27236E+08         0.00000E+00
    0.00000E+00         0.00000E+00        -0.73180E+07
 
   -0.91766E+07         0.56884E+06         0.00000E+00
    0.56884E+06        -0.27281E+08         0.00000E+00
    0.00000E+00         0.00000E+00        -0.72916E+07
 
   -0.89962E+07         0.64516E+06         0.00000E+00
    0.64516E+06        -0.27332E+08         0.00000E+00
    0.00000E+00         0.00000E+00        -0.72655E+07
 
   -0.88125E+07         0.72692E+06         0.00000E+00
    0.72692E+06        -0.27386E+08         0.00000E+00
    0.00000E+00         0.00000E+00        -0.72397E+07
 
   -0.86258E+07         0.81492E+06         0.00000E+00
    0.81492E+06        -0.27445E+08         0.00000E+00
    0.00000E+00         0.00000E+00        -0.72142E+07
 
   -0.84362E+07         0.91004E+06         0.00000E+00
    0.91004E+06        -0.27509E+08         0.00000E+00
    0.00000E+00         0.00000E+00        -0.71891E+07
 
   -0.82443E+07         0.10133E+07         0.00000E+00
    0.10133E+07        -0.27578E+08         0.00000E+00
    0.00000E+00         0.00000E+00        -0.71644E+07
 
   -0.80508E+07         0.11258E+07         0.00000E+00
    0.11258E+07        -0.27650E+08         0.00000E+00
    0.00000E+00         0.00000E+00        -0.71402E+07
 
   -0.78569E+07         0.12486E+07         0.00000E+00
    0.12486E+07        -0.27727E+08         0.00000E+00
    0.00000E+00         0.00000E+00        -0.71168E+07
 
   -0.76643E+07         0.13828E+07         0.00000E+00
    0.13828E+07        -0.27807E+08         0.00000E+00
    0.00000E+00         0.00000E+00        -0.70942E+07
 
   -0.74749E+07         0.15290E+07         0.00000E+00
    0.15290E+07        -0.27888E+08         0.00000E+00
    0.00000E+00         0.00000E+00        -0.70726E+07
 
   -0.72905E+07         0.16870E+07         0.00000E+00
    0.16870E+07        -0.27969E+08         0.00000E+00
    0.00000E+00         0.00000E+00        -0.70520E+07
 
   -0.71104E+07         0.18547E+07         0.00000E+00
    0.18547E+07        -0.28047E+08         0.00000E+00
    0.00000E+00         0.00000E+00        -0.70314E+07
 
   -0.17987E+08        -0.96005E+05         0.00000E+00
   -0.96005E+05        -0.28204E+08         0.00000E+00
    0.00000E+00         0.00000E+00        -0.92383E+07
 
   -0.17646E+08        -0.22731E+06         0.00000E+00
   -0.22731E+06        -0.28224E+08         0.00000E+00
    0.00000E+00         0.00000E+00        -0.91740E+07
 
   -0.17297E+08        -0.31881E+06         0.00000E+00
   -0.31881E+06        -0.28231E+08         0.00000E+00
    0.00000E+00         0.00000E+00        -0.91057E+07
 
   -0.16957E+08        -0.38104E+06         0.00000E+00
   -0.38104E+06        -0.28227E+08         0.00000E+00
    0.00000E+00         0.00000E+00        -0.90369E+07
 
   -0.16632E+08        -0.42183E+06         0.00000E+00
   -0.42183E+06        -0.28214E+08         0.00000E+00
    0.00000E+00         0.00000E+00        -0.89693E+07
 
   -0.16324E+08        -0.44688E+06         0.00000E+00
   -0.44688E+06        -0.28194E+08         0.00000E+00
    0.00000E+00         0.00000E+00        -0.89036E+07
 
   -0.16033E+08        -0.46030E+06         0.00000E+00
   -0.46030E+06        -0.28167E+08         0.00000E+00
    0.00000E+00         0.00000E+00        -0.88401E+07
 
   -0.15758E+08        -0.46505E+06         0.00000E+00
   -0.46505E+06        -0.28137E+08         0.00000E+00
    0.00000E+00         0.00000E+00        -0.87789E+07
 
   -0.15498E+08        -0.46327E+06         0.00000E+00
   -0.46327E+06        -0.28103E+08         0.00000E+00
    0.00000E+00         0.00000E+00        -0.87201E+07
 
   -0.15251E+08        -0.45654E+06         0.00000E+00
   -0.45654E+06        -0.28066E+08         0.00000E+00
    0.00000E+00         0.00000E+00        -0.86635E+07
 
   -0.15017E+08        -0.44600E+06         0.00000E+00
   -0.44600E+06        -0.28029E+08         0.00000E+00
    0.00000E+00         0.00000E+00        -0.86091E+07
 
   -0.14793E+08        -0.43251E+06         0.00000E+00
   -0.43251E+06        -0.27991E+08         0.00000E+00
    0.00000E+00         0.00000E+00        -0.85567E+07
 
   -0.14578E+08        -0.41671E+06         0.00000E+00
   -0.41671E+06        -0.27953E+08         0.00000E+00
    0.00000E+00         0.00000E+00        -0.85062E+07
 
   -0.14373E+08        -0.39907E+06         0.00000E+00
   -0.39907E+06        -0.27915E+08         0.00000E+00
    0.00000E+00         0.00000E+00        -0.84575E+07
 
   -0.14174E+08        -0.37996E+06         0.00000E+00
   -0.37996E+06        -0.27879E+08         0.00000E+00
    0.00000E+00         0.00000E+00        -0.84105E+07
 
   -0.13982E+08        -0.35963E+06         0.00000E+00
   -0.35963E+06        -0.27843E+08         0.00000E+00
    0.00000E+00         0.00000E+00        -0.83651E+07
 
   -0.13796E+08        -0.33831E+06         0.00000E+00
   -0.33831E+06        -0.27809E+08         0.00000E+00
    0.00000E+00         0.00000E+00        -0.83211E+07
 
   -0.13615E+08        -0.31613E+06         0.00000E+00
   -0.31613E+06        -0.27777E+08         0.00000E+00
    0.00000E+00         0.00000E+00        -0.82784E+07
 
   -0.13438E+08        -0.29321E+06         0.00000E+00
   -0.29321E+06        -0.27748E+08         0.00000E+00
    0.00000E+00         0.00000E+00        -0.82371E+07
 
   -0.13264E+08        -0.26964E+06         0.00000E+00
   -0.26964E+06        -0.27720E+08         0.00000E+00
    0.00000E+00         0.00000E+00        -0.81969E+07
 
   -0.13094E+08        -0.24546E+06         0.00000E+00
   -0.24546E+06        -0.27695E+08         0.00000E+00
    0.00000E+00         0.00000E+00        -0.81578E+07
 
   -0.12926E+08        -0.22071E+06         0.00000E+00
   -0.22071E+06        -0.27672E+08         0.00000E+00
    0.00000E+00         0.00000E+00        -0.81197E+07
 
   -0.12760E+08        -0.19540E+06         0.00000E+00
   -0.19540E+06        -0.27652E+08         0.00000E+00
    0.00000E+00         0.00000E+00        -0.80825E+07
 
   -0.12596E+08        -0.16953E+06         0.00000E+00
   -0.16953E+06        -0.27635E+08         0.00000E+00
    0.00000E+00         0.00000E+00        -0.80462E+07
 
   -0.12432E+08        -0.14309E+06         0.00000E+00
   -0.14309E+06        -0.27621E+08         0.00000E+00
    0.00000E+00         0.00000E+00        -0.80107E+07
 
   -0.12269E+08        -0.11605E+06         0.00000E+00
   -0.11605E+06        -0.27610E+08         0.00000E+00
    0.00000E+00         0.00000E+00        -0.79760E+07
 
   -0.12107E+08        -0.88356E+05         0.00000E+00
   -0.88356E+05        -0.27603E+08         0.00000E+00
    0.00000E+00         0.00000E+00        -0.79419E+07
 
   -0.11943E+08        -0.59964E+05         0.00000E+00
   -0.59964E+05        -0.27598E+08         0.00000E+00
    0.00000E+00         0.00000E+00        -0.79084E+07
 
   -0.11779E+08        -0.30800E+05         0.00000E+00
   -0.30800E+05        -0.27598E+08         0.00000E+00
    0.00000E+00         0.00000E+00        -0.78754E+07
 
   -0.11614E+08        -0.77765E+03         0.00000E+00
   -0.77765E+03        -0.27600E+08         0.00000E+00
    0.00000E+00         0.00000E+00        -0.78429E+07
 
   -0.11447E+08         0.30207E+05         0.00000E+00
    0.30207E+05        -0.27607E+08         0.00000E+00
    0.00000E+00         0.00000E+00        -0.78109E+07
 
   -0.11279E+08         0.62278E+05         0.00000E+00
    0.62278E+05        -0.27617E+08         0.00000E+00
    0.00000E+00         0.00000E+00        -0.77792E+07
 
   -0.11107E+08         0.95582E+05         0.00000E+00
    0.95582E+05        -0.27632E+08         0.00000E+00
    0.00000E+00         0.00000E+00        -0.77478E+07
 
   -0.10933E+08         0.13030E+06         0.00000E+00
    0.13030E+06        -0.27651E+08         0.00000E+00
    0.00000E+00         0.00000E+00        -0.77167E+07
 
   -0.10755E+08         0.16663E+06         0.00000E+00
    0.16663E+06        -0.27674E+08         0.00000E+00
    0.00000E+00         0.00000E+00        -0.76858E+07
 
   -0.10573E+08         0.20483E+06         0.00000E+00
    0.20483E+06        -0.27702E+08         0.00000E+00
    0.00000E+00         0.00000E+00        -0.76550E+07
 
   -0.10387E+08         0.24521E+06         0.00000E+00
    0.24521E+06        -0.27735E+08         0.00000E+00
    0.00000E+00         0.00000E+00        -0.76243E+07
 
   -0.10195E+08         0.28812E+06         0.00000E+00
    0.28812E+06        -0.27773E+08         0.00000E+00
    0.00000E+00         0.00000E+00        -0.75937E+07
 
   -0.99980E+07         0.33402E+06         0.00000E+00
    0.33402E+06        -0.27817E+08         0.00000E+00
    0.00000E+00         0.00000E+00        -0.75629E+07
 
   -0.97944E+07         0.38345E+06         0.00000E+00
    0.38345E+06        -0.27866E+08         0.00000E+00
    0.00000E+00         0.00000E+00        -0.75321E+07
 
   -0.95838E+07         0.43711E+06         0.00000E+00
    0.43711E+06        -0.27922E+08         0.00000E+00
    0.00000E+00         0.00000E+00        -0.75011E+07
 
   -0.93655E+07         0.49583E+06         0.00000E+00
    0.49583E+06        -0.27984E+08         0.00000E+00
    0.00000E+00         0.00000E+00        -0.74699E+07
 
   -0.91387E+07         0.56072E+06         0.00000E+00
    0.56072E+06        -0.28054E+08         0.00000E+00
    0.00000E+00         0.00000E+00        -0.74385E+07
 
   -0.89029E+07         0.63315E+06         0.00000E+00
    0.63315E+06        -0.28131E+08         0.00000E+00
    0.00000E+00         0.00000E+00        -0.74067E+07
 
   -0.86575E+07         0.71492E+06         0.00000E+00
    0.71492E+06        -0.28216E+08         0.00000E+00
    0.00000E+00         0.00000E+00        -0.73747E+07
 
   -0.84024E+07         0.80837E+06         0.00000E+00
    0.80837E+06        -0.28310E+08         0.00000E+00
    0.00000E+00         0.00000E+00        -0.73425E+07
 
   -0.81384E+07         0.91659E+06         0.00000E+00
    0.91659E+06        -0.28413E+08         0.00000E+00
    0.00000E+00         0.00000E+00        -0.73103E+07
 
   -0.78676E+07         0.10436E+07         0.00000E+00
    0.10436E+07        -0.28526E+08         0.00000E+00
    0.00000E+00         0.00000E+00        -0.72787E+07
 
   -0.75959E+07         0.11949E+07         0.00000E+00
    0.11949E+07        -0.28648E+08         0.00000E+00
    0.00000E+00         0.00000E+00        -0.72487E+07
 
   -0.73362E+07         0.13770E+07         0.00000E+00
    0.13770E+07        -0.28778E+08         0.00000E+00
    0.00000E+00         0.00000E+00        -0.72229E+07
 
   -0.19837E+08        -0.14334E+06         0.00000E+00
   -0.14334E+06        -0.29419E+08         0.00000E+00
    0.00000E+00         0.00000E+00        -0.98512E+07
 
   -0.19248E+08        -0.18418E+06         0.00000E+00
   -0.18418E+06        -0.29370E+08         0.00000E+00
    0.00000E+00         0.00000E+00        -0.97237E+07
 
   -0.18745E+08        -0.20341E+06         0.00000E+00
   -0.20341E+06        -0.29309E+08         0.00000E+00
    0.00000E+00         0.00000E+00        -0.96109E+07
 
   -0.18304E+08        -0.21110E+06         0.00000E+00
   -0.21110E+06        -0.29241E+08         0.00000E+00
    0.00000E+00         0.00000E+00        -0.95091E+07
 
   -0.17912E+08        -0.21239E+06         0.00000E+00
   -0.21239E+06        -0.29169E+08         0.00000E+00
    0.00000E+00         0.00000E+00        -0.94162E+07
 
   -0.17557E+08        -0.20999E+06         0.00000E+00
   -0.20999E+06        -0.29095E+08         0.00000E+00
    0.00000E+00         0.00000E+00        -0.93305E+07
 
   -0.17233E+08        -0.20538E+06         0.00000E+00
   -0.20538E+06        -0.29021E+08         0.00000E+00
    0.00000E+00         0.00000E+00        -0.92508E+07
 
   -0.16934E+08        -0.19941E+06         0.00000E+00
   -0.19941E+06        -0.28947E+08         0.00000E+00
    0.00000E+00         0.00000E+00        -0.91763E+07
 
   -0.16656E+08        -0.19256E+06         0.00000E+00
   -0.19256E+06        -0.28875E+08         0.00000E+00
    0.00000E+00         0.00000E+00        -0.91063E+07
 
   -0.16396E+08        -0.18515E+06         0.00000E+00
   -0.18515E+06        -0.28805E+08         0.00000E+00
    0.00000E+00         0.00000E+00        -0.90402E+07
 
   -0.16152E+08        -0.17734E+06         0.00000E+00
   -0.17734E+06        -0.28737E+08         0.00000E+00
    0.00000E+00         0.00000E+00        -0.89777E+07
 
   -0.15920E+08        -0.16927E+06         0.00000E+00
   -0.16927E+06        -0.28671E+08         0.00000E+00
    0.00000E+00         0.00000E+00        -0.89182E+07
 
   -0.15699E+08        -0.16100E+06         0.00000E+00
   -0.16100E+06        -0.28609E+08         0.00000E+00
    0.00000E+00         0.00000E+00        -0.88616E+07
 
   -0.15488E+08        -0.15259E+06         0.00000E+00
   -0.15259E+06        -0.28549E+08         0.00000E+00
    0.00000E+00         0.00000E+00        -0.88074E+07
 
   -0.15286E+08        -0.14407E+06         0.00000E+00
   -0.14407E+06        -0.28492E+08         0.00000E+00
    0.00000E+00         0.00000E+00        -0.87556E+07
 
   -0.15091E+08        -0.13546E+06         0.00000E+00
   -0.13546E+06        -0.28438E+08         0.00000E+00
    0.00000E+00         0.00000E+00        -0.87058E+07
 
   -0.14901E+08        -0.12677E+06         0.00000E+00
   -0.12677E+06        -0.28388E+08         0.00000E+00
    0.00000E+00         0.00000E+00        -0.86579E+07
 
   -0.14718E+08        -0.11801E+06         0.00000E+00
   -0.11801E+06        -0.28341E+08         0.00000E+00
    0.00000E+00         0.00000E+00        -0.86117E+07
 
   -0.14538E+08        -0.10919E+06         0.00000E+00
   -0.10919E+06        -0.28297E+08         0.00000E+00
    0.00000E+00         0.00000E+00        -0.85671E+07
 
   -0.14363E+08        -0.10030E+06         0.00000E+00
   -0.10030E+06        -0.28257E+08         0.00000E+00
    0.00000E+00         0.00000E+00        -0.85239E+07
 
   -0.14190E+08        -0.91329E+05         0.00000E+00
   -0.91329E+05        -0.28220E+08         0.00000E+00
    0.00000E+00         0.00000E+00        -0.84820E+07
 
   -0.14020E+08        -0.82279E+05         0.00000E+00
   -0.82279E+05        -0.28186E+08         0.00000E+00
    0.00000E+00         0.00000E+00        -0.84414E+07
 
   -0.13852E+08        -0.73135E+05         0.00000E+00
   -0.73135E+05        -0.28156E+08         0.00000E+00
    0.00000E+00         0.00000E+00        -0.84018E+07
 
   -0.13686E+08        -0.63886E+05         0.00000E+00
   -0.63886E+05        -0.28130E+08         0.00000E+00
    0.00000E+00         0.00000E+00        -0.83632E+07
 
   -0.13520E+08        -0.54513E+05         0.00000E+00
   -0.54513E+05        -0.28108E+08         0.00000E+00
    0.00000E+00         0.00000E+00        -0.83255E+07
 
   -0.13355E+08        -0.45000E+05         0.00000E+00
   -0.45000E+05        -0.28089E+08         0.00000E+00
    0.00000E+00         0.00000E+00        -0.82887E+07
 
   -0.13189E+08        -0.35324E+05         0.00000E+00
   -0.35324E+05        -0.28073E+08         0.00000E+00
    0.00000E+00         0.00000E+00        -0.82526E+07
 
   -0.13023E+08        -0.25458E+05         0.00000E+00
   -0.25458E+05        -0.28062E+08         0.00000E+00
    0.00000E+00         0.00000E+00        -0.82171E+07
 
   -0.12856E+08        -0.15375E+05         0.00000E+00
   -0.15375E+05        -0.28055E+08         0.00000E+00
    0.00000E+00         0.00000E+00        -0.81822E+07
 
   -0.12688E+08        -0.50392E+04         0.00000E+00
   -0.50392E+04        -0.28051E+08         0.00000E+00
    0.00000E+00         0.00000E+00        -0.81478E+07
 
   -0.12517E+08         0.55886E+04         0.00000E+00
    0.55886E+04        -0.28052E+08         0.00000E+00
    0.00000E+00         0.00000E+00        -0.81139E+07
 
   -0.12344E+08         0.16555E+05         0.00000E+00
    0.16555E+05        -0.28057E+08         0.00000E+00
    0.00000E+00         0.00000E+00        -0.80803E+07
 
   -0.12168E+08         0.27915E+05         0.00000E+00
    0.27915E+05        -0.28067E+08         0.00000E+00
    0.00000E+00         0.00000E+00        -0.80469E+07
 
   -0.11988E+08         0.39733E+05         0.00000E+00
    0.39733E+05        -0.28081E+08         0.00000E+00
    0.00000E+00         0.00000E+00        -0.80138E+07
 
   -0.11804E+08         0.52087E+05         0.00000E+00
    0.52087E+05        -0.28100E+08         0.00000E+00
    0.00000E+00         0.00000E+00        -0.79807E+07
 
   -0.11615E+08         0.65071E+05         0.00000E+00
    0.65071E+05        -0.28123E+08         0.00000E+00
    0.00000E+00         0.00000E+00        -0.79477E+07
 
   -0.11420E+08         0.78798E+05         0.00000E+00
    0.78798E+05        -0.28153E+08         0.00000E+00
    0.00000E+00         0.00000E+00        -0.79145E+07
 
   -0.11219E+08         0.93409E+05         0.00000E+00
    0.93409E+05        -0.28187E+08         0.00000E+00
    0.00000E+00         0.00000E+00        -0.78812E+07
 
   -0.11010E+08         0.10908E+06         0.00000E+00
    0.10908E+06        -0.28228E+08         0.00000E+00
    0.00000E+00         0.00000E+00        -0.78476E+07
 
   -0.10792E+08         0.12604E+06         0.00000E+00
    0.12604E+06        -0.28275E+08         0.00000E+00
    0.00000E+00         0.00000E+00        -0.78135E+07
 
   -0.10565E+08         0.14456E+06         0.00000E+00
    0.14456E+06        -0.28329E+08         0.00000E+00
    0.00000E+00         0.00000E+00        -0.77788E+07
 
   -0.10326E+08         0.16503E+06         0.00000E+00
    0.16503E+06        -0.28391E+08         0.00000E+00
    0.00000E+00         0.00000E+00        -0.77434E+07
 
   -0.10073E+08         0.18796E+06         0.00000E+00
    0.18796E+06        -0.28461E+08         0.00000E+00
    0.00000E+00         0.00000E+00        -0.77069E+07
 
   -0.98053E+07         0.21403E+06         0.00000E+00
    0.21403E+06        -0.28541E+08         0.00000E+00
    0.00000E+00         0.00000E+00        -0.76693E+07
 
   -0.95186E+07         0.24422E+06         0.00000E+00
    0.24422E+06        -0.28631E+08         0.00000E+00
    0.00000E+00         0.00000E+00        -0.76300E+07
 
   -0.92095E+07         0.27996E+06         0.00000E+00
    0.27996E+06        -0.28734E+08         0.00000E+00
    0.00000E+00         0.00000E+00        -0.75887E+07
 
   -0.88730E+07         0.32341E+06         0.00000E+00
    0.32341E+06        -0.28851E+08         0.00000E+00
    0.00000E+00         0.00000E+00        -0.75448E+07
 
   -0.85020E+07         0.37797E+06         0.00000E+00
    0.37797E+06        -0.28986E+08         0.00000E+00
    0.00000E+00         0.00000E+00        -0.74975E+07
 
   -0.80864E+07         0.44929E+06         0.00000E+00
    0.44929E+06        -0.29141E+08         0.00000E+00
    0.00000E+00         0.00000E+00        -0.74455E+07
 
   -0.76106E+07         0.54736E+06         0.00000E+00
    0.54736E+06        -0.29323E+08         0.00000E+00
    0.00000E+00         0.00000E+00        -0.73867E+07
 
TENSORS stresstot double 
   -0.55849E+08        -0.99419E+05         0.00000E+00
   -0.99419E+05        -0.49982E+08         0.00000E+00
    0.00000E+00         0.00000E+00        -0.62913E+08
 
   -0.56260E+08        -0.12766E+06         0.00000E+00
   -0.12766E+06        -0.50016E+08         0.00000E+00
    0.00000E+00         0.00000E+00        -0.63002E+08
 
   -0.56611E+08        -0.14089E+06         0.00000E+00
   -0.14089E+06        -0.50058E+08         0.00000E+00
    0.00000E+00         0.00000E+00        -0.63081E+08
 
   -0.56919E+08        -0.14612E+06         0.00000E+00
   -0.14612E+06        -0.50105E+08         0.00000E+00
    0.00000E+00         0.00000E+00        -0.63152E+08
 
   -0.57194E+08        -0.14691E+06         0.00000E+00
   -0.14691E+06        -0.50155E+08         0.00000E+00
    0.00000E+00         0.00000E+00        -0.63217E+08
 
   -0.57442E+08        -0.14514E+06         0.00000E+00
   -0.14514E+06        -0.50207E+08         0.00000E+00
    0.00000E+00         0.00000E+00        -0.63277E+08
 
   -0.57670E+08        -0.14184E+06         0.00000E+00
   -0.14184E+06        -0.50258E+08         0.00000E+00
    0.00000E+00         0.00000E+00        -0.63333E+08
 
   -0.57880E+08        -0.13760E+06         0.00000E+00
   -0.13760E+06        -0.50309E+08         0.00000E+00
    0.00000E+00         0.00000E+00        -0.63385E+08
 
   -0.58075E+08        -0.13275E+06         0.00000E+00
   -0.13275E+06        -0.50359E+08         0.00000E+00
    0.00000E+00         0.00000E+00        -0.63435E+08
 
   -0.58258E+08        -0.12750E+06         0.00000E+00
   -0.12750E+06        -0.50407E+08         0.00000E+00
    0.00000E+00         0.00000E+00        -0.63481E+08
 
   -0.58431E+08        -0.12198E+06         0.00000E+00
   -0.12198E+06        -0.50454E+08         0.00000E+00
    0.00000E+00         0.00000E+00        -0.63525E+08
 
   -0.58594E+08        -0.11628E+06         0.00000E+00
   -0.11628E+06        -0.50500E+08         0.00000E+00
    0.00000E+00         0.00000E+00        -0.63567E+08
 
   -0.58750E+08        -0.11044E+06         0.00000E+00
   -0.11044E+06        -0.50543E+08         0.00000E+00
    0.00000E+00         0.00000E+00        -0.63607E+08
 
   -0.58899E+08        -0.10450E+06         0.00000E+00
   -0.10450E+06        -0.50584E+08         0.00000E+00
    0.00000E+00         0.00000E+00        -0.63645E+08
 
   -0.59042E+08        -0.98492E+05         0.00000E+00
   -0.98492E+05        -0.50623E+08         0.00000E+00
    0.00000E+00         0.00000E+00        -0.63681E+08
 
   -0.59181E+08        -0.92418E+05         0.00000E+00
   -0.92418E+05        -0.50660E+08         0.00000E+00
    0.00000E+00         0.00000E+00        -0.63717E+08
 
   -0.59315E+08        -0.86292E+05         0.00000E+00
   -0.86292E+05        -0.50694E+08         0.00000E+00
    0.00000E+00         0.00000E+00        -0.63750E+08
 
   -0.59446E+08        -0.80119E+05         0.00000E+00
   -0.80119E+05        -0.50726E+08         0.00000E+00
    0.00000E+00         0.00000E+00        -0.63783E+08
 
   -0.59573E+08        -0.73899E+05         0.00000E+00
   -0.73899E+05        -0.50756E+08         0.00000E+00
    0.00000E+00         0.00000E+00        -0.63815E+08
 
   -0.59698E+08        -0.67631E+05         0.00000E+00
   -0.67631E+05        -0.50784E+08         0.00000E+00
    0.00000E+00         0.00000E+00        -0.63845E+08
 
   -0.59821E+08        -0.61313E+05         0.00000E+00
   -0.61313E+05        -0.50809E+08         0.00000E+00
    0.00000E+00         0.00000E+00        -0.63875E+08
 
   -0.59942E+08        -0.54937E+05         0.00000E+00
   -0.54937E+05        -0.50831E+08         0.00000E+00
    0.00000E+00         0.00000E+00        -0.63904E+08
 
   -0.60062E+08        -0.48498E+05         0.00000E+00
   -0.48498E+05        -0.50851E+08         0.00000E+00
    0.00000E+00         0.00000E+00        -0.63932E+08
 
   -0.60181E+08        -0.41985E+05         0.00000E+00
   -0.41985E+05        -0.50869E+08         0.00000E+00
    0.00000E+00         0.00000E+00        -0.63959E+08
 
   -0.60299E+08        -0.35388E+05         0.00000E+00
   -0.35388E+05        -0.50884E+08         0.00000E+00
    0.00000E+00         0.00000E+00        -0.63986E+08
 
   -0.60417E+08        -0.28693E+05         0.00000E+00
   -0.28693E+05        -0.50896E+08         0.00000E+00
    0.00000E+00         0.00000E+00        -0.64012E+08
 
   -0.60535E+08        -0.21886E+05         0.00000E+00
   -0.21886E+05        -0.50906E+08         0.00000E+00
    0.00000E+00         0.00000E+00        -0.64038E+08
 
   -0.60654E+08        -0.14948E+05         0.00000E+00
   -0.14948E+05        -0.50913E+08         0.00000E+00
    0.00000E+00         0.00000E+00        -0.64063E+08
 
   -0.60773E+08        -0.78592E+04         0.00000E+00
   -0.78592E+04        -0.50917E+08         0.00000E+00
    0.00000E+00         0.00000E+00        -0.64088E+08
 
   -0.60894E+08        -0.59608E+03         0.00000E+00
   -0.59608E+03        -0.50918E+08         0.00000E+00
    0.00000E+00         0.00000E+00        -0.64112E+08
 
   -0.61016E+08         0.68692E+04         0.00000E+00
    0.68692E+04        -0.50917E+08         0.00000E+00
    0.00000E+00         0.00000E+00        -0.64137E+08
 
   -0.61140E+08         0.14569E+05         0.00000E+00
    0.14569E+05        -0.50912E+08         0.00000E+00
    0.00000E+00         0.00000E+00        -0.64161E+08
 
   -0.61265E+08         0.22541E+05         0.00000E+00
    0.22541E+05        -0.50904E+08         0.00000E+00
    0.00000E+00         0.00000E+00        -0.64184E+08
 
   -0.61394E+08         0.30830E+05         0.00000E+00
    0.30830E+05        -0.50894E+08         0.00000E+00
    0.00000E+00         0.00000E+00        -0.64208E+08
 
   -0.61525E+08         0.39491E+05         0.00000E+00
    0.39491E+05        -0.50879E+08         0.00000E+00
    0.00000E+00         0.00000E+00        -0.64231E+08
 
   -0.61660E+08         0.48588E+05         0.00000E+00
    0.48588E+05        -0.50862E+08         0.00000E+00
    0.00000E+00         0.00000E+00        -0.64255E+08
 
   -0.61799E+08         0.58200E+05         0.00000E+00
    0.58200E+05        -0.50840E+08         0.00000E+00
    0.00000E+00         0.00000E+00        -0.64279E+08
 
   -0.61943E+08         0.68425E+05         0.00000E+00
    0.68425E+05        -0.50815E+08         0.00000E+00
    0.00000E+00         0.00000E+00        -0.64302E+08
 
   -0.62092E+08         0.79385E+05         0.00000E+00
    0.79385E+05        -0.50785E+08         0.00000E+00
    0.00000E+00         0.00000E+00        -0.64326E+08
 
   -0.62247E+08         0.91234E+05         0.00000E+00
    0.91234E+05        -0.50751E+08         0.00000E+00
    0.00000E+00         0.00000E+00        -0.64350E+08
 
   -0.62408E+08         0.10417E+06         0.00000E+00
    0.10417E+06        -0.50712E+08         0.00000E+00
    0.00000E+00         0.00000E+00        -0.64375E+08
 
   -0.62578E+08         0.11846E+06         0.00000E+00
    0.11846E+06        -0.50668E+08         0.00000E+00
    0.00000E+00         0.00000E+00        -0.64400E+08
 
   -0.62757E+08         0.13445E+06         0.00000E+00
    0.13445E+06        -0.50617E+08         0.00000E+00
    0.00000E+00         0.00000E+00        -0.64426E+08
 
   -0.62947E+08         0.15262E+06         0.00000E+00
    0.15262E+06        -0.50561E+08         0.00000E+00
    0.00000E+00         0.00000E+00        -0.64453E+08
 
   -0.63150E+08         0.17365E+06         0.00000E+00
    0.17365E+06        -0.50496E+08         0.00000E+00
    0.00000E+00         0.00000E+00        -0.64481E+08
 
   -0.63369E+08         0.19853E+06         0.00000E+00
    0.19853E+06        -0.50424E+08         0.00000E+00
    0.00000E+00         0.00000E+00        -0.64510E+08
 
   -0.63606E+08         0.22876E+06         0.00000E+00
    0.22876E+06        -0.50341E+08         0.00000E+00
    0.00000E+00         0.00000E+00        -0.64541E+08
 
   -0.63868E+08         0.26669E+06         0.00000E+00
    0.26669E+06        -0.50246E+08         0.00000E+00
    0.00000E+00         0.00000E+00        -0.64574E+08
 
   -0.64160E+08         0.31625E+06         0.00000E+00
    0.31625E+06        -0.50136E+08         0.00000E+00
    0.00000E+00         0.00000E+00        -0.64611E+08
 
   -0.64495E+08         0.38436E+06         0.00000E+00
    0.38436E+06        -0.50008E+08         0.00000E+00
    0.00000E+00         0.00000E+00        -0.64652E+08
 
   -0.56308E+08        -0.66462E+05         0.00000E+00
   -0.66462E+05        -0.50002E+08         0.00000E+00
    0.00000E+00         0.00000E+00        -0.62515E+08
 
   -0.56547E+08        -0.15726E+06         0.00000E+00
   -0.15726E+06        -0.49988E+08         0.00000E+00
    0.00000E+00         0.00000E+00        -0.62560E+08
 
   -0.56791E+08        -0.22045E+06         0.00000E+00
   -0.22045E+06        -0.49983E+08         0.00000E+00
    0.00000E+00         0.00000E+00        -0.62608E+08
 
   -0.57030E+08        -0.26332E+06         0.00000E+00
   -0.26332E+06        -0.49986E+08         0.00000E+00
    0.00000E+00         0.00000E+00        -0.62656E+08
 
   -0.57258E+08        -0.29131E+06         0.00000E+00
   -0.29131E+06        -0.49995E+08         0.00000E+00
    0.00000E+00         0.00000E+00        -0.62704E+08
 
   -0.57474E+08        -0.30839E+06         0.00000E+00
   -0.30839E+06        -0.50009E+08         0.00000E+00
    0.00000E+00         0.00000E+00        -0.62750E+08
 
   -0.57679E+08        -0.31740E+06         0.00000E+00
   -0.31740E+06        -0.50028E+08         0.00000E+00
    0.00000E+00         0.00000E+00        -0.62795E+08
 
   -0.57872E+08        -0.32038E+06         0.00000E+00
   -0.32038E+06        -0.50049E+08         0.00000E+00
    0.00000E+00         0.00000E+00        -0.62838E+08
 
   -0.58056E+08        -0.31885E+06         0.00000E+00
   -0.31885E+06        -0.50073E+08         0.00000E+00
    0.00000E+00         0.00000E+00        -0.62879E+08
 
   -0.58230E+08        -0.31387E+06         0.00000E+00
   -0.31387E+06        -0.50098E+08         0.00000E+00
    0.00000E+00         0.00000E+00        -0.62920E+08
 
   -0.58395E+08        -0.30626E+06         0.00000E+00
   -0.30626E+06        -0.50124E+08         0.00000E+00
    0.00000E+00         0.00000E+00        -0.62958E+08
 
   -0.58554E+08        -0.29660E+06         0.00000E+00
   -0.29660E+06        -0.50150E+08         0.00000E+00
    0.00000E+00         0.00000E+00        -0.62995E+08
 
   -0.58706E+08        -0.28533E+06         0.00000E+00
   -0.28533E+06        -0.50177E+08         0.00000E+00
    0.00000E+00         0.00000E+00        -0.63031E+08
 
   -0.58852E+08        -0.27280E+06         0.00000E+00
   -0.27280E+06        -0.50203E+08         0.00000E+00
    0.00000E+00         0.00000E+00        -0.63066E+08
 
   -0.58992E+08        -0.25924E+06         0.00000E+00
   -0.25924E+06        -0.50228E+08         0.00000E+00
    0.00000E+00         0.00000E+00        -0.63099E+08
 
   -0.59129E+08        -0.24484E+06         0.00000E+00
   -0.24484E+06        -0.50253E+08         0.00000E+00
    0.00000E+00         0.00000E+00        -0.63132E+08
 
   -0.59261E+08        -0.22975E+06         0.00000E+00
   -0.22975E+06        -0.50276E+08         0.00000E+00
    0.00000E+00         0.00000E+00        -0.63163E+08
 
   -0.59390E+08        -0.21407E+06         0.00000E+00
   -0.21407E+06        -0.50298E+08         0.00000E+00
    0.00000E+00         0.00000E+00        -0.63194E+08
 
   -0.59516E+08        -0.19787E+06         0.00000E+00
   -0.19787E+06        -0.50318E+08         0.00000E+00
    0.00000E+00         0.00000E+00        -0.63223E+08
 
   -0.59640E+08        -0.18123E+06         0.00000E+00
   -0.18123E+06        -0.50337E+08         0.00000E+00
    0.00000E+00         0.00000E+00        -0.63252E+08
 
   -0.59762E+08        -0.16416E+06         0.00000E+00
   -0.16416E+06        -0.50354E+08         0.00000E+00
    0.00000E+00         0.00000E+00        -0.63280E+08
 
   -0.59882E+08        -0.14670E+06         0.00000E+00
   -0.14670E+06        -0.50370E+08         0.00000E+00
    0.00000E+00         0.00000E+00        -0.63308E+08
 
   -0.60000E+08        -0.12885E+06         0.00000E+00
   -0.12885E+06        -0.50383E+08         0.00000E+00
    0.00000E+00         0.00000E+00        -0.63334E+08
 
   -0.60118E+08        -0.11062E+06         0.00000E+00
   -0.11062E+06        -0.50394E+08         0.00000E+00
    0.00000E+00         0.00000E+00        -0.63361E+08
 
   -0.60235E+08        -0.91991E+05         0.00000E+00
   -0.91991E+05        -0.50404E+08         0.00000E+00
    0.00000E+00         0.00000E+00        -0.63386E+08
 
   -0.60352E+08        -0.72944E+05         0.00000E+00
   -0.72944E+05        -0.50411E+08         0.00000E+00
    0.00000E+00         0.00000E+00        -0.63411E+08
 
   -0.60469E+08        -0.53451E+05         0.00000E+00
   -0.53451E+05        -0.50415E+08         0.00000E+00
    0.00000E+00         0.00000E+00        -0.63436E+08
 
   -0.60586E+08        -0.33473E+05         0.00000E+00
   -0.33473E+05        -0.50418E+08         0.00000E+00
    0.00000E+00         0.00000E+00        -0.63460E+08
 
   -0.60703E+08        -0.12961E+05         0.00000E+00
   -0.12961E+05        -0.50418E+08         0.00000E+00
    0.00000E+00         0.00000E+00        -0.63484E+08
 
   -0.60822E+08         0.81458E+04         0.00000E+00
    0.81458E+04        -0.50415E+08         0.00000E+00
    0.00000E+00         0.00000E+00        -0.63507E+08
 
   -0.60941E+08         0.29918E+05         0.00000E+00
    0.29918E+05        -0.50410E+08         0.00000E+00
    0.00000E+00         0.00000E+00        -0.63530E+08
 
   -0.61062E+08         0.52442E+05         0.00000E+00
    0.52442E+05        -0.50402E+08         0.00000E+00
    0.00000E+00         0.00000E+00        -0.63553E+08
 
   -0.61185E+08         0.75821E+05         0.00000E+00
    0.75821E+05        -0.50391E+08         0.00000E+00
    0.00000E+00         0.00000E+00        -0.63576E+08
 
   -0.61310E+08         0.10018E+06         0.00000E+00
    0.10018E+06        -0.50377E+08         0.00000E+00
    0.00000E+00         0.00000E+00        -0.63598E+08
 
   -0.61437E+08         0.12565E+06         0.00000E+00
    0.12565E+06        -0.50360E+08         0.00000E+00
    0.00000E+00         0.00000E+00        -0.63620E+08
 
   -0.61568E+08         0.15242E+06         0.00000E+00
    0.15242E+06        -0.50339E+08         0.00000E+00
    0.00000E+00         0.00000E+00        -0.63643E+08
 
   -0.61701E+08         0.18070E+06         0.00000E+00
    0.18070E+06        -0.50315E+08         0.00000E+00
    0.00000E+00         0.00000E+00        -0.63665E+08
 
   -0.61838E+08         0.21074E+06         0.00000E+00
    0.21074E+06        -0.50288E+08         0.00000E+00
    0.00000E+00         0.00000E+00        -0.63687E+08
 
   -0.61979E+08         0.24285E+06         0.00000E+00
    0.24285E+06        -0.50256E+08         0.00000E+00
    0.00000E+00         0.00000E+00        -0.63709E+08
 
   -0.62124E+08         0.27740E+06         0.00000E+00
    0.27740E+06        -0.50221E+08         0.00000E+00
    0.00000E+00         0.00000E+00        -0.63731E+08
 
   -0.62274E+08         0.31489E+06         0.00000E+00
    0.31489E+06        -0.50181E+08         0.00000E+00
    0.00000E+00         0.00000E+00        -0.63753E+08
 
   -0.62430E+08         0.35589E+06         0.00000E+00
    0.35589E+06        -0.50137E+08         0.00000E+00
    0.00000E+00         0.00000E+00        -0.63776E+08
 
   -0.62592E+08         0.40116E+06         0.00000E+00
    0.40116E+06        -0.50087E+08         0.00000E+00
    0.00000E+00         0.00000E+00        -0.63798E+08
 
   -0.62759E+08         0.45166E+06         0.00000E+00
    0.45166E+06        -0.50032E+08         0.00000E+00
    0.00000E+00         0.00000E+00        -0.63821E+08
 
   -0.62934E+08         0.50864E+06         0.00000E+00
    0.50864E+06        -0.49972E+08         0.00000E+00
    0.00000E+00         0.00000E+00        -0.63844E+08
 
   -0.63115E+08         0.57373E+06         0.00000E+00
    0.57373E+06        -0.49905E+08         0.00000E+00
    0.00000E+00         0.00000E+00        -0.63867E+08
 
   -0.63302E+08         0.64905E+06         0.00000E+00
    0.64905E+06        -0.49832E+08         0.00000E+00
    0.00000E+00         0.00000E+00        -0.63890E+08
 
   -0.63494E+08         0.73744E+06         0.00000E+00
    0.73744E+06        -0.49752E+08         0.00000E+00
    0.00000E+00         0.00000E+00        -0.63912E+08
 
   -0.63687E+08         0.84260E+06         0.00000E+00
    0.84260E+06        -0.49666E+08         0.00000E+00
    0.00000E+00         0.00000E+00        -0.63934E+08
 
   -0.63872E+08         0.96923E+06         0.00000E+00
    0.96923E+06        -0.49573E+08         0.00000E+00
    0.00000E+00         0.00000E+00        -0.63952E+08
 
   -0.56763E+08        -0.53666E+05         0.00000E+00
   -0.53666E+05        -0.50001E+08         0.00000E+00
    0.00000E+00         0.00000E+00        -0.62132E+08
 
   -0.56923E+08        -0.13146E+06         0.00000E+00
   -0.13146E+06        -0.49999E+08         0.00000E+00
    0.00000E+00         0.00000E+00        -0.62163E+08
 
   -0.57085E+08        -0.19882E+06         0.00000E+00
   -0.19882E+06        -0.49993E+08         0.00000E+00
    0.00000E+00         0.00000E+00        -0.62195E+08
 
   -0.57251E+08        -0.25426E+06         0.00000E+00
   -0.25426E+06        -0.49986E+08         0.00000E+00
    0.00000E+00         0.00000E+00        -0.62227E+08
 
   -0.57419E+08        -0.29804E+06         0.00000E+00
   -0.29804E+06        -0.49980E+08         0.00000E+00
    0.00000E+00         0.00000E+00        -0.62259E+08
 
   -0.57585E+08        -0.33122E+06         0.00000E+00
   -0.33122E+06        -0.49976E+08         0.00000E+00
    0.00000E+00         0.00000E+00        -0.62292E+08
 
   -0.57749E+08        -0.35507E+06         0.00000E+00
   -0.35507E+06        -0.49974E+08         0.00000E+00
    0.00000E+00         0.00000E+00        -0.62324E+08
 
   -0.57910E+08        -0.37092E+06         0.00000E+00
   -0.37092E+06        -0.49974E+08         0.00000E+00
    0.00000E+00         0.00000E+00        -0.62357E+08
 
   -0.58066E+08        -0.37995E+06         0.00000E+00
   -0.37995E+06        -0.49976E+08         0.00000E+00
    0.00000E+00         0.00000E+00        -0.62389E+08
 
   -0.58219E+08        -0.38324E+06         0.00000E+00
   -0.38324E+06        -0.49979E+08         0.00000E+00
    0.00000E+00         0.00000E+00        -0.62420E+08
 
   -0.58367E+08        -0.38167E+06         0.00000E+00
   -0.38167E+06        -0.49984E+08         0.00000E+00
    0.00000E+00         0.00000E+00        -0.62451E+08
 
   -0.58511E+08        -0.37603E+06         0.00000E+00
   -0.37603E+06        -0.49990E+08         0.00000E+00
    0.00000E+00         0.00000E+00        -0.62482E+08
 
   -0.58651E+08        -0.36694E+06         0.00000E+00
   -0.36694E+06        -0.49997E+08         0.00000E+00
    0.00000E+00         0.00000E+00        -0.62511E+08
 
   -0.58787E+08        -0.35493E+06         0.00000E+00
   -0.35493E+06        -0.50005E+08         0.00000E+00
    0.00000E+00         0.00000E+00        -0.62540E+08
 
   -0.58919E+08        -0.34043E+06         0.00000E+00
   -0.34043E+06        -0.50013E+08         0.00000E+00
    0.00000E+00         0.00000E+00        -0.62569E+08
 
   -0.59048E+08        -0.32380E+06         0.00000E+00
   -0.32380E+06        -0.50021E+08         0.00000E+00
    0.00000E+00         0.00000E+00        -0.62597E+08
 
   -0.59175E+08        -0.30533E+06         0.00000E+00
   -0.30533E+06        -0.50029E+08         0.00000E+00
    0.00000E+00         0.00000E+00        -0.62624E+08
 
   -0.59299E+08        -0.28526E+06         0.00000E+00
   -0.28526E+06        -0.50037E+08         0.00000E+00
    0.00000E+00         0.00000E+00        -0.62651E+08
 
   -0.59420E+08        -0.26376E+06         0.00000E+00
   -0.26376E+06        -0.50044E+08         0.00000E+00
    0.00000E+00         0.00000E+00        -0.62677E+08
 
   -0.59540E+08        -0.24099E+06         0.00000E+00
   -0.24099E+06        -0.50050E+08         0.00000E+00
    0.00000E+00         0.00000E+00        -0.62702E+08
 
   -0.59657E+08        -0.21706E+06         0.00000E+00
   -0.21706E+06        -0.50055E+08         0.00000E+00
    0.00000E+00         0.00000E+00        -0.62727E+08
 
   -0.59774E+08        -0.19207E+06         0.00000E+00
   -0.19207E+06        -0.50059E+08         0.00000E+00
    0.00000E+00         0.00000E+00        -0.62752E+08
 
   -0.59889E+08        -0.16607E+06         0.00000E+00
   -0.16607E+06        -0.50062E+08         0.00000E+00
    0.00000E+00         0.00000E+00        -0.62776E+08
 
   -0.60003E+08        -0.13909E+06         0.00000E+00
   -0.13909E+06        -0.50064E+08         0.00000E+00
    0.00000E+00         0.00000E+00        -0.62799E+08
 
   -0.60117E+08        -0.11117E+06         0.00000E+00
   -0.11117E+06        -0.50064E+08         0.00000E+00
    0.00000E+00         0.00000E+00        -0.62823E+08
 
   -0.60230E+08        -0.82300E+05         0.00000E+00
   -0.82300E+05        -0.50063E+08         0.00000E+00
    0.00000E+00         0.00000E+00        -0.62845E+08
 
   -0.60343E+08        -0.52464E+05         0.00000E+00
   -0.52464E+05        -0.50059E+08         0.00000E+00
    0.00000E+00         0.00000E+00        -0.62868E+08
 
   -0.60456E+08        -0.21628E+05         0.00000E+00
   -0.21628E+05        -0.50054E+08         0.00000E+00
    0.00000E+00         0.00000E+00        -0.62890E+08
 
   -0.60570E+08         0.10258E+05         0.00000E+00
    0.10258E+05        -0.50047E+08         0.00000E+00
    0.00000E+00         0.00000E+00        -0.62911E+08
 
   -0.60684E+08         0.43265E+05         0.00000E+00
    0.43265E+05        -0.50038E+08         0.00000E+00
    0.00000E+00         0.00000E+00        -0.62933E+08
 
   -0.60798E+08         0.77478E+05         0.00000E+00
    0.77478E+05        -0.50027E+08         0.00000E+00
    0.00000E+00         0.00000E+00        -0.62954E+08
 
   -0.60914E+08         0.11301E+06         0.00000E+00
    0.11301E+06        -0.50013E+08         0.00000E+00
    0.00000E+00         0.00000E+00        -0.62974E+08
 
   -0.61030E+08         0.14998E+06         0.00000E+00
    0.14998E+06        -0.49997E+08         0.00000E+00
    0.00000E+00         0.00000E+00        -0.62995E+08
 
   -0.61148E+08         0.18856E+06         0.00000E+00
    0.18856E+06        -0.49979E+08         0.00000E+00
    0.00000E+00         0.00000E+00        -0.63015E+08
 
   -0.61268E+08         0.22892E+06         0.00000E+00
    0.22892E+06        -0.49958E+08         0.00000E+00
    0.00000E+00         0.00000E+00        -0.63035E+08
 
   -0.61389E+08         0.27129E+06         0.00000E+00
    0.27129E+06        -0.49934E+08         0.00000E+00
    0.00000E+00         0.00000E+00        -0.63055E+08
 
   -0.61512E+08         0.31591E+06         0.00000E+00
    0.31591E+06        -0.49907E+08         0.00000E+00
    0.00000E+00         0.00000E+00        -0.63074E+08
 
   -0.61637E+08         0.36309E+06         0.00000E+00
    0.36309E+06        -0.49878E+08         0.00000E+00
    0.00000E+00         0.00000E+00        -0.63094E+08
 
   -0.61764E+08         0.41316E+06         0.00000E+00
    0.41316E+06        -0.49845E+08         0.00000E+00
    0.00000E+00         0.00000E+00        -0.63113E+08
 
   -0.61894E+08         0.46655E+06         0.00000E+00
    0.46655E+06        -0.49809E+08         0.00000E+00
    0.00000E+00         0.00000E+00        -0.63132E+08
 
   -0.62026E+08         0.52371E+06         0.00000E+00
    0.52371E+06        -0.49770E+08         0.00000E+00
    0.00000E+00         0.00000E+00        -0.63151E+08
 
   -0.62159E+08         0.58519E+06         0.00000E+00
    0.58519E+06        -0.49728E+08         0.00000E+00
    0.00000E+00         0.00000E+00        -0.63169E+08
 
   -0.62295E+08         0.65161E+06         0.00000E+00
    0.65161E+06        -0.49682E+08         0.00000E+00
    0.00000E+00         0.00000E+00        -0.63187E+08
 
   -0.62433E+08         0.72366E+06         0.00000E+00
    0.72366E+06        -0.49634E+08         0.00000E+00
    0.00000E+00         0.00000E+00        -0.63205E+08
 
   -0.62571E+08         0.80211E+06         0.00000E+00
    0.80211E+06        -0.49582E+08         0.00000E+00
    0.00000E+00         0.00000E+00        -0.63223E+08
 
   -0.62710E+08         0.88774E+06         0.00000E+00
    0.88774E+06        -0.49527E+08         0.00000E+00
    0.00000E+00         0.00000E+00        -0.63240E+08
 
   -0.62848E+08         0.98125E+06         0.00000E+00
    0.98125E+06        -0.49470E+08         0.00000E+00
    0.00000E+00         0.00000E+00        -0.63256E+08
 
   -0.62983E+08         0.10831E+07         0.00000E+00
    0.10831E+07        -0.49412E+08         0.00000E+00
    0.00000E+00         0.00000E+00        -0.63272E+08
 
   -0.63116E+08         0.11931E+07         0.00000E+00
    0.11931E+07        -0.49354E+08         0.00000E+00
    0.00000E+00         0.00000E+00        -0.63287E+08
 
   -0.63245E+08         0.13099E+07         0.00000E+00
    0.13099E+07        -0.49299E+08         0.00000E+00
    0.00000E+00         0.00000E+00        -0.63301E+08
 
   -0.57155E+08        -0.43796E+05         0.00000E+00
   -0.43796E+05        -0.50001E+08         0.00000E+00
    0.00000E+00         0.00000E+00        -0.61756E+08
 
   -0.57263E+08        -0.11152E+06         0.00000E+00
   -0.11152E+06        -0.49997E+08         0.00000E+00
    0.00000E+00         0.00000E+00        -0.61777E+08
 
   -0.57377E+08        -0.17039E+06         0.00000E+00
   -0.17039E+06        -0.49992E+08         0.00000E+00
    0.00000E+00         0.00000E+00        -0.61799E+08
 
   -0.57494E+08        -0.22111E+06         0.00000E+00
   -0.22111E+06        -0.49985E+08         0.00000E+00
    0.00000E+00         0.00000E+00        -0.61821E+08
 
   -0.57615E+08        -0.26391E+06         0.00000E+00
   -0.26391E+06        -0.49977E+08         0.00000E+00
    0.00000E+00         0.00000E+00        -0.61844E+08
 
   -0.57738E+08        -0.29903E+06         0.00000E+00
   -0.29903E+06        -0.49969E+08         0.00000E+00
    0.00000E+00         0.00000E+00        -0.61867E+08
 
   -0.57863E+08        -0.32680E+06         0.00000E+00
   -0.32680E+06        -0.49960E+08         0.00000E+00
    0.00000E+00         0.00000E+00        -0.61890E+08
 
   -0.57988E+08        -0.34767E+06         0.00000E+00
   -0.34767E+06        -0.49951E+08         0.00000E+00
    0.00000E+00         0.00000E+00        -0.61914E+08
 
   -0.58113E+08        -0.36216E+06         0.00000E+00
   -0.36216E+06        -0.49942E+08         0.00000E+00
    0.00000E+00         0.00000E+00        -0.61938E+08
 
   -0.58238E+08        -0.37081E+06         0.00000E+00
   -0.37081E+06        -0.49934E+08         0.00000E+00
    0.00000E+00         0.00000E+00        -0.61961E+08
 
   -0.58362E+08        -0.37417E+06         0.00000E+00
   -0.37417E+06        -0.49927E+08         0.00000E+00
    0.00000E+00         0.00000E+00        -0.61985E+08
 
   -0.58485E+08        -0.37277E+06         0.00000E+00
   -0.37277E+06        -0.49920E+08         0.00000E+00
    0.00000E+00         0.00000E+00        -0.62009E+08
 
   -0.58607E+08        -0.36710E+06         0.00000E+00
   -0.36710E+06        -0.49914E+08         0.00000E+00
    0.00000E+00         0.00000E+00        -0.62032E+08
 
   -0.58727E+08        -0.35760E+06         0.00000E+00
   -0.35760E+06        -0.49908E+08         0.00000E+00
    0.00000E+00         0.00000E+00        -0.62055E+08
 
   -0.58845E+08        -0.34467E+06         0.00000E+00
   -0.34467E+06        -0.49902E+08         0.00000E+00
    0.00000E+00         0.00000E+00        -0.62078E+08
 
   -0.58962E+08        -0.32866E+06         0.00000E+00
   -0.32866E+06        -0.49897E+08         0.00000E+00
    0.00000E+00         0.00000E+00        -0.62101E+08
 
   -0.59077E+08        -0.30988E+06         0.00000E+00
   -0.30988E+06        -0.49892E+08         0.00000E+00
    0.00000E+00         0.00000E+00        -0.62123E+08
 
   -0.59191E+08        -0.28860E+06         0.00000E+00
   -0.28860E+06        -0.49887E+08         0.00000E+00
    0.00000E+00         0.00000E+00        -0.62145E+08
 
   -0.59304E+08        -0.26504E+06         0.00000E+00
   -0.26504E+06        -0.49882E+08         0.00000E+00
    0.00000E+00         0.00000E+00        -0.62167E+08
 
   -0.59415E+08        -0.23939E+06         0.00000E+00
   -0.23939E+06        -0.49876E+08         0.00000E+00
    0.00000E+00         0.00000E+00        -0.62189E+08
 
   -0.59525E+08        -0.21181E+06         0.00000E+00
   -0.21181E+06        -0.49870E+08         0.00000E+00
    0.00000E+00         0.00000E+00        -0.62210E+08
 
   -0.59635E+08        -0.18243E+06         0.00000E+00
   -0.18243E+06        -0.49863E+08         0.00000E+00
    0.00000E+00         0.00000E+00        -0.62231E+08
 
   -0.59743E+08        -0.15135E+06         0.00000E+00
   -0.15135E+06        -0.49856E+08         0.00000E+00
    0.00000E+00         0.00000E+00        -0.62252E+08
 
   -0.59851E+08        -0.11863E+06         0.00000E+00
   -0.11863E+06        -0.49848E+08         0.00000E+00
    0.00000E+00         0.00000E+00        -0.62272E+08
 
   -0.59958E+08        -0.84345E+05         0.00000E+00
   -0.84345E+05        -0.49838E+08         0.00000E+00
    0.00000E+00         0.00000E+00        -0.62292E+08
 
   -0.60065E+08        -0.48507E+05         0.00000E+00
   -0.48507E+05        -0.49828E+08         0.00000E+00
    0.00000E+00         0.00000E+00        -0.62312E+08
 
   -0.60172E+08        -0.11128E+05         0.00000E+00
   -0.11128E+05        -0.49817E+08         0.00000E+00
    0.00000E+00         0.00000E+00        -0.62331E+08
 
   -0.60278E+08         0.27803E+05         0.00000E+00
    0.27803E+05        -0.49804E+08         0.00000E+00
    0.00000E+00         0.00000E+00        -0.62350E+08
 
   -0.60385E+08         0.68321E+05         0.00000E+00
    0.68321E+05        -0.49790E+08         0.00000E+00
    0.00000E+00         0.00000E+00        -0.62369E+08
 
   -0.60492E+08         0.11048E+06         0.00000E+00
    0.11048E+06        -0.49774E+08         0.00000E+00
    0.00000E+00         0.00000E+00        -0.62388E+08
 
   -0.60599E+08         0.15434E+06         0.00000E+00
    0.15434E+06        -0.49757E+08         0.00000E+00
    0.00000E+00         0.00000E+00        -0.62406E+08
 
   -0.60706E+08         0.20001E+06         0.00000E+00
    0.20001E+06        -0.49738E+08         0.00000E+00
    0.00000E+00         0.00000E+00        -0.62424E+08
 
   -0.60814E+08         0.24759E+06         0.00000E+00
    0.24759E+06        -0.49717E+08         0.00000E+00
    0.00000E+00         0.00000E+00        -0.62442E+08
 
   -0.60922E+08         0.29722E+06         0.00000E+00
    0.29722E+06        -0.49695E+08         0.00000E+00
    0.00000E+00         0.00000E+00        -0.62460E+08
 
   -0.61031E+08         0.34906E+06         0.00000E+00
    0.34906E+06        -0.49670E+08         0.00000E+00
    0.00000E+00         0.00000E+00        -0.62477E+08
 
   -0.61141E+08         0.40328E+06         0.00000E+00
    0.40328E+06        -0.49644E+08         0.00000E+00
    0.00000E+00         0.00000E+00        -0.62494E+08
 
   -0.61251E+08         0.46010E+06         0.00000E+00
    0.46010E+06        -0.49616E+08         0.00000E+00
    0.00000E+00         0.00000E+00        -0.62511E+08
 
   -0.61361E+08         0.51974E+06         0.00000E+00
    0.51974E+06        -0.49585E+08         0.00000E+00
    0.00000E+00         0.00000E+00        -0.62527E+08
 
   -0.61473E+08         0.58245E+06         0.00000E+00
    0.58245E+06        -0.49553E+08         0.00000E+00
    0.00000E+00         0.00000E+00        -0.62543E+08
 
   -0.61584E+08         0.64851E+06         0.00000E+00
    0.64851E+06        -0.49519E+08         0.00000E+00
    0.00000E+00         0.00000E+00        -0.62559E+08
 
   -0.61696E+08         0.71821E+06         0.00000E+00
    0.71821E+06        -0.49483E+08         0.00000E+00
    0.00000E+00         0.00000E+00        -0.62574E+08
 
   -0.61808E+08         0.79184E+06         0.00000E+00
    0.79184E+06        -0.49445E+08         0.00000E+00
    0.00000E+00         0.00000E+00        -0.62589E+08
 
   -0.61920E+08         0.86972E+06         0.00000E+00
    0.86972E+06        -0.49405E+08         0.00000E+00
    0.00000E+00         0.00000E+00        -0.62604E+08
 
   -0.62030E+08         0.95213E+06         0.00000E+00
    0.95213E+06        -0.49364E+08         0.00000E+00
    0.00000E+00         0.00000E+00        -0.62618E+08
 
   -0.62140E+08         0.10393E+07         0.00000E+00
    0.10393E+07        -0.49322E+08         0.00000E+00
    0.00000E+00         0.00000E+00        -0.62632E+08
 
   -0.62248E+08         0.11315E+07         0.00000E+00
    0.11315E+07        -0.49279E+08         0.00000E+00
    0.00000E+00         0.00000E+00        -0.62645E+08
 
   -0.62353E+08         0.12287E+07         0.00000E+00
    0.12287E+07        -0.49236E+08         0.00000E+00
    0.00000E+00         0.00000E+00        -0.62658E+08
 
   -0.62456E+08         0.13311E+07         0.00000E+00
    0.13311E+07        -0.49193E+08         0.00000E+00
    0.00000E+00         0.00000E+00        -0.62670E+08
 
   -0.62555E+08         0.14387E+07         0.00000E+00
    0.14387E+07        -0.49150E+08         0.00000E+00
    0.00000E+00         0.00000E+00        -0.62681E+08
 
   -0.62650E+08         0.15521E+07         0.00000E+00
    0.15521E+07        -0.49108E+08         0.00000E+00
    0.00000E+00         0.00000E+00        -0.62691E+08
 
   -0.57481E+08        -0.34961E+05         0.00000E+00
   -0.34961E+05        -0.50001E+08         0.00000E+00
    0.00000E+00         0.00000E+00        -0.61386E+08
 
   -0.57552E+08        -0.90195E+05         0.00000E+00
   -0.90195E+05        -0.49998E+08         0.00000E+00
    0.00000E+00         0.00000E+00        -0.61400E+08
 
   -0.57629E+08        -0.13923E+06         0.00000E+00
   -0.13923E+06        -0.49992E+08         0.00000E+00
    0.00000E+00         0.00000E+00        -0.61414E+08
 
   -0.57711E+08        -0.18198E+06         0.00000E+00
   -0.18198E+06        -0.49985E+08         0.00000E+00
    0.00000E+00         0.00000E+00        -0.61429E+08
 
   -0.57797E+08        -0.21859E+06         0.00000E+00
   -0.21859E+06        -0.49976E+08         0.00000E+00
    0.00000E+00         0.00000E+00        -0.61445E+08
 
   -0.57887E+08        -0.24924E+06         0.00000E+00
   -0.24924E+06        -0.49965E+08         0.00000E+00
    0.00000E+00         0.00000E+00        -0.61461E+08
 
   -0.57980E+08        -0.27411E+06         0.00000E+00
   -0.27411E+06        -0.49954E+08         0.00000E+00
    0.00000E+00         0.00000E+00        -0.61477E+08
 
   -0.58075E+08        -0.29342E+06         0.00000E+00
   -0.29342E+06        -0.49942E+08         0.00000E+00
    0.00000E+00         0.00000E+00        -0.61494E+08
 
   -0.58172E+08        -0.30740E+06         0.00000E+00
   -0.30740E+06        -0.49929E+08         0.00000E+00
    0.00000E+00         0.00000E+00        -0.61511E+08
 
   -0.58271E+08        -0.31631E+06         0.00000E+00
   -0.31631E+06        -0.49916E+08         0.00000E+00
    0.00000E+00         0.00000E+00        -0.61528E+08
 
   -0.58371E+08        -0.32043E+06         0.00000E+00
   -0.32043E+06        -0.49902E+08         0.00000E+00
    0.00000E+00         0.00000E+00        -0.61546E+08
 
   -0.58472E+08        -0.32004E+06         0.00000E+00
   -0.32004E+06        -0.49888E+08         0.00000E+00
    0.00000E+00         0.00000E+00        -0.61564E+08
 
   -0.58573E+08        -0.31542E+06         0.00000E+00
   -0.31542E+06        -0.49875E+08         0.00000E+00
    0.00000E+00         0.00000E+00        -0.61581E+08
 
   -0.58674E+08        -0.30687E+06         0.00000E+00
   -0.30687E+06        -0.49861E+08         0.00000E+00
    0.00000E+00         0.00000E+00        -0.61599E+08
 
   -0.58775E+08        -0.29464E+06         0.00000E+00
   -0.29464E+06        -0.49847E+08         0.00000E+00
    0.00000E+00         0.00000E+00        -0.61617E+08
 
   -0.58876E+08        -0.27900E+06         0.00000E+00
   -0.27900E+06        -0.49833E+08         0.00000E+00
    0.00000E+00         0.00000E+00        -0.61635E+08
 
   -0.58977E+08        -0.26017E+06         0.00000E+00
   -0.26017E+06        -0.49819E+08         0.00000E+00
    0.00000E+00         0.00000E+00        -0.61653E+08
 
   -0.59078E+08        -0.23838E+06         0.00000E+00
   -0.23838E+06        -0.49805E+08         0.00000E+00
    0.00000E+00         0.00000E+00        -0.61671E+08
 
   -0.59178E+08        -0.21381E+06         0.00000E+00
   -0.21381E+06        -0.49791E+08         0.00000E+00
    0.00000E+00         0.00000E+00        -0.61688E+08
 
   -0.59278E+08        -0.18663E+06         0.00000E+00
   -0.18663E+06        -0.49777E+08         0.00000E+00
    0.00000E+00         0.00000E+00        -0.61706E+08
 
   -0.59377E+08        -0.15700E+06         0.00000E+00
   -0.15700E+06        -0.49762E+08         0.00000E+00
    0.00000E+00         0.00000E+00        -0.61723E+08
 
   -0.59477E+08        -0.12504E+06         0.00000E+00
   -0.12504E+06        -0.49747E+08         0.00000E+00
    0.00000E+00         0.00000E+00        -0.61740E+08
 
   -0.59575E+08        -0.90861E+05         0.00000E+00
   -0.90861E+05        -0.49731E+08         0.00000E+00
    0.00000E+00         0.00000E+00        -0.61757E+08
 
   -0.59674E+08        -0.54538E+05         0.00000E+00
   -0.54538E+05        -0.49715E+08         0.00000E+00
    0.00000E+00         0.00000E+00        -0.61774E+08
 
   -0.59772E+08        -0.16141E+05         0.00000E+00
   -0.16141E+05        -0.49698E+08         0.00000E+00
    0.00000E+00         0.00000E+00        -0.61791E+08
 
   -0.59870E+08         0.24284E+05         0.00000E+00
    0.24284E+05        -0.49681E+08         0.00000E+00
    0.00000E+00         0.00000E+00        -0.61807E+08
 
   -0.59968E+08         0.66708E+05         0.00000E+00
    0.66708E+05        -0.49663E+08         0.00000E+00
    0.00000E+00         0.00000E+00        -0.61824E+08
 
   -0.60065E+08         0.11112E+06         0.00000E+00
    0.11112E+06        -0.49644E+08         0.00000E+00
    0.00000E+00         0.00000E+00        -0.61840E+08
 
   -0.60163E+08         0.15753E+06         0.00000E+00
    0.15753E+06        -0.49624E+08         0.00000E+00
    0.00000E+00         0.00000E+00        -0.61856E+08
 
   -0.60260E+08         0.20596E+06         0.00000E+00
    0.20596E+06        -0.49603E+08         0.00000E+00
    0.00000E+00         0.00000E+00        -0.61872E+08
 
   -0.60357E+08         0.25645E+06         0.00000E+00
    0.25645E+06        -0.49581E+08         0.00000E+00
    0.00000E+00         0.00000E+00        -0.61887E+08
 
   -0.60455E+08         0.30905E+06         0.00000E+00
    0.30905E+06        -0.49558E+08         0.00000E+00
    0.00000E+00         0.00000E+00        -0.61902E+08
 
   -0.60552E+08         0.36383E+06         0.00000E+00
    0.36383E+06        -0.49534E+08         0.00000E+00
    0.00000E+00         0.00000E+00        -0.61917E+08
 
   -0.60649E+08         0.42088E+06         0.00000E+00
    0.42088E+06        -0.49509E+08         0.00000E+00
    0.00000E+00         0.00000E+00        -0.61932E+08
 
   -0.60746E+08         0.48029E+06         0.00000E+00
    0.48029E+06        -0.49483E+08         0.00000E+00
    0.00000E+00         0.00000E+00        -0.61947E+08
 
   -0.60843E+08         0.54217E+06         0.00000E+00
    0.54217E+06        -0.49455E+08         0.00000E+00
    0.00000E+00         0.00000E+00        -0.61961E+08
 
   -0.60940E+08         0.60665E+06         0.00000E+00
    0.60665E+06        -0.49427E+08         0.00000E+00
    0.00000E+00         0.00000E+00        -0.61975E+08
 
   -0.61036E+08         0.67384E+06         0.00000E+00
    0.67384E+06        -0.49397E+08         0.00000E+00
    0.00000E+00         0.00000E+00        -0.61988E+08
 
   -0.61132E+08         0.74388E+06         0.00000E+00
    0.74388E+06        -0.49366E+08         0.00000E+00
    0.00000E+00         0.00000E+00        -0.62002E+08
 
   -0.61227E+08         0.81690E+06         0.00000E+00
    0.81690E+06        -0.49334E+08         0.00000E+00
    0.00000E+00         0.00000E+00        -0.62015E+08
 
   -0.61322E+08         0.89304E+06         0.00000E+00
    0.89304E+06        -0.49302E+08         0.00000E+00
    0.00000E+00         0.00000E+00        -0.62027E+08
 
   -0.61415E+08         0.97241E+06         0.00000E+00
    0.97241E+06        -0.49268E+08         0.00000E+00
    0.00000E+00         0.00000E+00        -0.62039E+08
 
   -0.61507E+08         0.10551E+07         0.00000E+00
    0.10551E+07        -0.49234E+08         0.00000E+00
    0.00000E+00         0.00000E+00        -0.62051E+08
 
   -0.61598E+08         0.11413E+07         0.00000E+00
    0.11413E+07        -0.49199E+08         0.00000E+00
    0.00000E+00         0.00000E+00        -0.62063E+08
 
   -0.61687E+08         0.12310E+07         0.00000E+00
    0.12310E+07        -0.49165E+08         0.00000E+00
    0.00000E+00         0.00000E+00        -0.62074E+08
 
   -0.61773E+08         0.13242E+07         0.00000E+00
    0.13242E+07        -0.49130E+08         0.00000E+00
    0.00000E+00         0.00000E+00        -0.62084E+08
 
   -0.61857E+08         0.14210E+07         0.00000E+00
    0.14210E+07        -0.49095E+08         0.00000E+00
    0.00000E+00         0.00000E+00        -0.62094E+08
 
   -0.61938E+08         0.15215E+07         0.00000E+00
    0.15215E+07        -0.49061E+08         0.00000E+00
    0.00000E+00         0.00000E+00        -0.62103E+08
 
   -0.62015E+08         0.16255E+07         0.00000E+00
    0.16255E+07        -0.49027E+08         0.00000E+00
    0.00000E+00         0.00000E+00        -0.62112E+08
 
   -0.62089E+08         0.17329E+07         0.00000E+00
    0.17329E+07        -0.48995E+08         0.00000E+00
    0.00000E+00         0.00000E+00        -0.62121E+08
 
   -0.57739E+08        -0.26816E+05         0.00000E+00
   -0.26816E+05        -0.50001E+08         0.00000E+00
    0.00000E+00         0.00000E+00        -0.61019E+08
 
   -0.57783E+08        -0.69435E+05         0.00000E+00
   -0.69435E+05        -0.49998E+08         0.00000E+00
    0.00000E+00         0.00000E+00        -0.61027E+08
 
   -0.57833E+08        -0.10728E+06         0.00000E+00
   -0.10728E+06        -0.49993E+08         0.00000E+00
    0.00000E+00         0.00000E+00        -0.61036E+08
 
   -0.57887E+08        -0.14038E+06         0.00000E+00
   -0.14038E+06        -0.49985E+08         0.00000E+00
    0.00000E+00         0.00000E+00        -0.61046E+08
 
   -0.57947E+08        -0.16874E+06         0.00000E+00
   -0.16874E+06        -0.49976E+08         0.00000E+00
    0.00000E+00         0.00000E+00        -0.61056E+08
 
   -0.58010E+08        -0.19242E+06         0.00000E+00
   -0.19242E+06        -0.49965E+08         0.00000E+00
    0.00000E+00         0.00000E+00        -0.61067E+08
 
   -0.58078E+08        -0.21147E+06         0.00000E+00
   -0.21147E+06        -0.49952E+08         0.00000E+00
    0.00000E+00         0.00000E+00        -0.61078E+08
 
   -0.58148E+08        -0.22600E+06         0.00000E+00
   -0.22600E+06        -0.49939E+08         0.00000E+00
    0.00000E+00         0.00000E+00        -0.61089E+08
 
   -0.58222E+08        -0.23614E+06         0.00000E+00
   -0.23614E+06        -0.49924E+08         0.00000E+00
    0.00000E+00         0.00000E+00        -0.61101E+08
 
   -0.58298E+08        -0.24200E+06         0.00000E+00
   -0.24200E+06        -0.49908E+08         0.00000E+00
    0.00000E+00         0.00000E+00        -0.61114E+08
 
   -0.58376E+08        -0.24372E+06         0.00000E+00
   -0.24372E+06        -0.49892E+08         0.00000E+00
    0.00000E+00         0.00000E+00        -0.61126E+08
 
   -0.58456E+08        -0.24147E+06         0.00000E+00
   -0.24147E+06        -0.49875E+08         0.00000E+00
    0.00000E+00         0.00000E+00        -0.61139E+08
 
   -0.58537E+08        -0.23539E+06         0.00000E+00
   -0.23539E+06        -0.49857E+08         0.00000E+00
    0.00000E+00         0.00000E+00        -0.61152E+08
 
   -0.58620E+08        -0.22565E+06         0.00000E+00
   -0.22565E+06        -0.49839E+08         0.00000E+00
    0.00000E+00         0.00000E+00        -0.61166E+08
 
   -0.58704E+08        -0.21240E+06         0.00000E+00
   -0.21240E+06        -0.49821E+08         0.00000E+00
    0.00000E+00         0.00000E+00        -0.61179E+08
 
   -0.58788E+08        -0.19580E+06         0.00000E+00
   -0.19580E+06        -0.49802E+08         0.00000E+00
    0.00000E+00         0.00000E+00        -0.61192E+08
 
   -0.58874E+08        -0.17601E+06         0.00000E+00
   -0.17601E+06        -0.49783E+08         0.00000E+00
    0.00000E+00         0.00000E+00        -0.61206E+08
 
   -0.58960E+08        -0.15316E+06         0.00000E+00
   -0.15316E+06        -0.49764E+08         0.00000E+00
    0.00000E+00         0.00000E+00        -0.61220E+08
 
   -0.59046E+08        -0.12741E+06         0.00000E+00
   -0.12741E+06        -0.49745E+08         0.00000E+00
    0.00000E+00         0.00000E+00        -0.61234E+08
 
   -0.59133E+08        -0.98856E+05         0.00000E+00
   -0.98856E+05        -0.49725E+08         0.00000E+00
    0.00000E+00         0.00000E+00        -0.61247E+08
 
   -0.59220E+08        -0.67630E+05         0.00000E+00
   -0.67630E+05        -0.49705E+08         0.00000E+00
    0.00000E+00         0.00000E+00        -0.61261E+08
 
   -0.59307E+08        -0.33829E+05         0.00000E+00
   -0.33829E+05        -0.49684E+08         0.00000E+00
    0.00000E+00         0.00000E+00        -0.61275E+08
 
   -0.59394E+08         0.24587E+04         0.00000E+00
    0.24587E+04        -0.49663E+08         0.00000E+00
    0.00000E+00         0.00000E+00        -0.61288E+08
 
   -0.59481E+08         0.41156E+05         0.00000E+00
    0.41156E+05        -0.49642E+08         0.00000E+00
    0.00000E+00         0.00000E+00        -0.61302E+08
 
   -0.59568E+08         0.82200E+05         0.00000E+00
    0.82200E+05        -0.49621E+08         0.00000E+00
    0.00000E+00         0.00000E+00        -0.61315E+08
 
   -0.59655E+08         0.12554E+06         0.00000E+00
    0.12554E+06        -0.49599E+08         0.00000E+00
    0.00000E+00         0.00000E+00        -0.61329E+08
 
   -0.59742E+08         0.17114E+06         0.00000E+00
    0.17114E+06        -0.49576E+08         0.00000E+00
    0.00000E+00         0.00000E+00        -0.61342E+08
 
   -0.59829E+08         0.21897E+06         0.00000E+00
    0.21897E+06        -0.49553E+08         0.00000E+00
    0.00000E+00         0.00000E+00        -0.61355E+08
 
   -0.59916E+08         0.26902E+06         0.00000E+00
    0.26902E+06        -0.49530E+08         0.00000E+00
    0.00000E+00         0.00000E+00        -0.61368E+08
 
   -0.60003E+08         0.32129E+06         0.00000E+00
    0.32129E+06        -0.49505E+08         0.00000E+00
    0.00000E+00         0.00000E+00        -0.61381E+08
 
   -0.60089E+08         0.37578E+06         0.00000E+00
    0.37578E+06        -0.49481E+08         0.00000E+00
    0.00000E+00         0.00000E+00        -0.61394E+08
 
   -0.60176E+08         0.43250E+06         0.00000E+00
    0.43250E+06        -0.49455E+08         0.00000E+00
    0.00000E+00         0.00000E+00        -0.61407E+08
 
   -0.60261E+08         0.49149E+06         0.00000E+00
    0.49149E+06        -0.49430E+08         0.00000E+00
    0.00000E+00         0.00000E+00        -0.61419E+08
 
   -0.60347E+08         0.55278E+06         0.00000E+00
    0.55278E+06        -0.49403E+08         0.00000E+00
    0.00000E+00         0.00000E+00        -0.61431E+08
 
   -0.60432E+08         0.61641E+06         0.00000E+00
    0.61641E+06        -0.49376E+08         0.00000E+00
    0.00000E+00         0.00000E+00        -0.61443E+08
 
   -0.60517E+08         0.68242E+06         0.00000E+00
    0.68242E+06        -0.49348E+08         0.00000E+00
    0.00000E+00         0.00000E+00        -0.61455E+08
 
   -0.60601E+08         0.75085E+06         0.00000E+00
    0.75085E+06        -0.49320E+08         0.00000E+00
    0.00000E+00         0.00000E+00        -0.61466E+08
 
   -0.60684E+08         0.82176E+06         0.00000E+00
    0.82176E+06        -0.49291E+08         0.00000E+00
    0.00000E+00         0.00000E+00        -0.61477E+08
 
   -0.60766E+08         0.89520E+06         0.00000E+00
    0.89520E+06        -0.49262E+08         0.00000E+00
    0.00000E+00         0.00000E+00        -0.61488E+08
 
   -0.60847E+08         0.97120E+06         0.00000E+00
    0.97120E+06        -0.49233E+08         0.00000E+00
    0.00000E+00         0.00000E+00        -0.61499E+08
 
   -0.60927E+08         0.10498E+07         0.00000E+00
    0.10498E+07        -0.49203E+08         0.00000E+00
    0.00000E+00         0.00000E+00        -0.61509E+08
 
   -0.61006E+08         0.11311E+07         0.00000E+00
    0.11311E+07        -0.49173E+08         0.00000E+00
    0.00000E+00         0.00000E+00        -0.61519E+08
 
   -0.61083E+08         0.12150E+07         0.00000E+00
    0.12150E+07        -0.49143E+08         0.00000E+00
    0.00000E+00         0.00000E+00        -0.61529E+08
 
   -0.61158E+08         0.13015E+07         0.00000E+00
    0.13015E+07        -0.49114E+08         0.00000E+00
    0.00000E+00         0.00000E+00        -0.61538E+08
 
   -0.61232E+08         0.13908E+07         0.00000E+00
    0.13908E+07        -0.49084E+08         0.00000E+00
    0.00000E+00         0.00000E+00        -0.61547E+08
 
   -0.61303E+08         0.14827E+07         0.00000E+00
    0.14827E+07        -0.49055E+08         0.00000E+00
    0.00000E+00         0.00000E+00        -0.61555E+08
 
   -0.61371E+08         0.15772E+07         0.00000E+00
    0.15772E+07        -0.49026E+08         0.00000E+00
    0.00000E+00         0.00000E+00        -0.61563E+08
 
   -0.61437E+08         0.16742E+07         0.00000E+00
    0.16742E+07        -0.48998E+08         0.00000E+00
    0.00000E+00         0.00000E+00        -0.61571E+08
 
   -0.61500E+08         0.17737E+07         0.00000E+00
    0.17737E+07        -0.48970E+08         0.00000E+00
    0.00000E+00         0.00000E+00        -0.61578E+08
 
   -0.61559E+08         0.18755E+07         0.00000E+00
    0.18755E+07        -0.48944E+08         0.00000E+00
    0.00000E+00         0.00000E+00        -0.61585E+08
 
   -0.57931E+08        -0.19244E+05         0.00000E+00
   -0.19244E+05        -0.50001E+08         0.00000E+00
    0.00000E+00         0.00000E+00        -0.60655E+08
 
   -0.57954E+08        -0.49448E+05         0.00000E+00
   -0.49448E+05        -0.49998E+08         0.00000E+00
    0.00000E+00         0.00000E+00        -0.60660E+08
 
   -0.57983E+08        -0.76032E+05         0.00000E+00
   -0.76032E+05        -0.49993E+08         0.00000E+00
    0.00000E+00         0.00000E+00        -0.60664E+08
 
   -0.58017E+08        -0.98948E+05         0.00000E+00
   -0.98948E+05        -0.49986E+08         0.00000E+00
    0.00000E+00         0.00000E+00        -0.60670E+08
 
   -0.58056E+08        -0.11818E+06         0.00000E+00
   -0.11818E+06        -0.49977E+08         0.00000E+00
    0.00000E+00         0.00000E+00        -0.60676E+08
 
   -0.58098E+08        -0.13372E+06         0.00000E+00
   -0.13372E+06        -0.49966E+08         0.00000E+00
    0.00000E+00         0.00000E+00        -0.60682E+08
 
   -0.58145E+08        -0.14558E+06         0.00000E+00
   -0.14558E+06        -0.49953E+08         0.00000E+00
    0.00000E+00         0.00000E+00        -0.60689E+08
 
   -0.58196E+08        -0.15380E+06         0.00000E+00
   -0.15380E+06        -0.49939E+08         0.00000E+00
    0.00000E+00         0.00000E+00        -0.60697E+08
 
   -0.58249E+08        -0.15840E+06         0.00000E+00
   -0.15840E+06        -0.49924E+08         0.00000E+00
    0.00000E+00         0.00000E+00        -0.60704E+08
 
   -0.58306E+08        -0.15944E+06         0.00000E+00
   -0.15944E+06        -0.49908E+08         0.00000E+00
    0.00000E+00         0.00000E+00        -0.60713E+08
 
   -0.58365E+08        -0.15699E+06         0.00000E+00
   -0.15699E+06        -0.49890E+08         0.00000E+00
    0.00000E+00         0.00000E+00        -0.60721E+08
 
   -0.58427E+08        -0.15111E+06         0.00000E+00
   -0.15111E+06        -0.49872E+08         0.00000E+00
    0.00000E+00         0.00000E+00        -0.60730E+08
 
   -0.58491E+08        -0.14190E+06         0.00000E+00
   -0.14190E+06        -0.49853E+08         0.00000E+00
    0.00000E+00         0.00000E+00        -0.60740E+08
 
   -0.58557E+08        -0.12942E+06         0.00000E+00
   -0.12942E+06        -0.49833E+08         0.00000E+00
    0.00000E+00         0.00000E+00        -0.60749E+08
 
   -0.58624E+08        -0.11377E+06         0.00000E+00
   -0.11377E+06        -0.49813E+08         0.00000E+00
    0.00000E+00         0.00000E+00        -0.60759E+08
 
   -0.58693E+08        -0.95044E+05         0.00000E+00
   -0.95044E+05        -0.49792E+08         0.00000E+00
    0.00000E+00         0.00000E+00        -0.60769E+08
 
   -0.58763E+08        -0.73319E+05         0.00000E+00
   -0.73319E+05        -0.49771E+08         0.00000E+00
    0.00000E+00         0.00000E+00        -0.60779E+08
 
   -0.58834E+08        -0.48689E+05         0.00000E+00
   -0.48689E+05        -0.49749E+08         0.00000E+00
    0.00000E+00         0.00000E+00        -0.60789E+08
 
   -0.58906E+08        -0.21239E+05         0.00000E+00
   -0.21239E+05        -0.49727E+08         0.00000E+00
    0.00000E+00         0.00000E+00        -0.60799E+08
 
   -0.58979E+08         0.89500E+04         0.00000E+00
    0.89500E+04        -0.49704E+08         0.00000E+00
    0.00000E+00         0.00000E+00        -0.60810E+08
 
   -0.59053E+08         0.41800E+05         0.00000E+00
    0.41800E+05        -0.49681E+08         0.00000E+00
    0.00000E+00         0.00000E+00        -0.60820E+08
 
   -0.59127E+08         0.77238E+05         0.00000E+00
    0.77238E+05        -0.49658E+08         0.00000E+00
    0.00000E+00         0.00000E+00        -0.60831E+08
 
   -0.59202E+08         0.11520E+06         0.00000E+00
    0.11520E+06        -0.49635E+08         0.00000E+00
    0.00000E+00         0.00000E+00        -0.60841E+08
 
   -0.59277E+08         0.15562E+06         0.00000E+00
    0.15562E+06        -0.49611E+08         0.00000E+00
    0.00000E+00         0.00000E+00        -0.60852E+08
 
   -0.59353E+08         0.19846E+06         0.00000E+00
    0.19846E+06        -0.49587E+08         0.00000E+00
    0.00000E+00         0.00000E+00        -0.60862E+08
 
   -0.59428E+08         0.24366E+06         0.00000E+00
    0.24366E+06        -0.49562E+08         0.00000E+00
    0.00000E+00         0.00000E+00        -0.60873E+08
 
   -0.59504E+08         0.29118E+06         0.00000E+00
    0.29118E+06        -0.49537E+08         0.00000E+00
    0.00000E+00         0.00000E+00        -0.60884E+08
 
   -0.59580E+08         0.34100E+06         0.00000E+00
    0.34100E+06        -0.49512E+08         0.00000E+00
    0.00000E+00         0.00000E+00        -0.60894E+08
 
   -0.59655E+08         0.39308E+06         0.00000E+00
    0.39308E+06        -0.49487E+08         0.00000E+00
    0.00000E+00         0.00000E+00        -0.60904E+08
 
   -0.59731E+08         0.44741E+06         0.00000E+00
    0.44741E+06        -0.49461E+08         0.00000E+00
    0.00000E+00         0.00000E+00        -0.60915E+08
 
   -0.59806E+08         0.50397E+06         0.00000E+00
    0.50397E+06        -0.49436E+08         0.00000E+00
    0.00000E+00         0.00000E+00        -0.60925E+08
 
   -0.59881E+08         0.56276E+06         0.00000E+00
    0.56276E+06        -0.49409E+08         0.00000E+00
    0.00000E+00         0.00000E+00        -0.60935E+08
 
   -0.59956E+08         0.62376E+06         0.00000E+00
    0.62376E+06        -0.49383E+08         0.00000E+00
    0.00000E+00         0.00000E+00        -0.60945E+08
 
   -0.60030E+08         0.68697E+06         0.00000E+00
    0.68697E+06        -0.49356E+08         0.00000E+00
    0.00000E+00         0.00000E+00        -0.60955E+08
 
   -0.60103E+08         0.75240E+06         0.00000E+00
    0.75240E+06        -0.49329E+08         0.00000E+00
    0.00000E+00         0.00000E+00        -0.60964E+08
 
   -0.60176E+08         0.82004E+06         0.00000E+00
    0.82004E+06        -0.49302E+08         0.00000E+00
    0.00000E+00         0.00000E+00        -0.60974E+08
 
   -0.60249E+08         0.88991E+06         0.00000E+00
    0.88991E+06        -0.49275E+08         0.00000E+00
    0.00000E+00         0.00000E+00        -0.60983E+08
 
   -0.60320E+08         0.96198E+06         0.00000E+00
    0.96198E+06        -0.49248E+08         0.00000E+00
    0.00000E+00         0.00000E+00        -0.60992E+08
 
   -0.60391E+08         0.10363E+07         0.00000E+00
    0.10363E+07        -0.49221E+08         0.00000E+00
    0.00000E+00         0.00000E+00        -0.61001E+08
 
   -0.60460E+08         0.11128E+07         0.00000E+00
    0.11128E+07        -0.49194E+08         0.00000E+00
    0.00000E+00         0.00000E+00        -0.61010E+08
 
   -0.60528E+08         0.11915E+07         0.00000E+00
    0.11915E+07        -0.49167E+08         0.00000E+00
    0.00000E+00         0.00000E+00        -0.61018E+08
 
   -0.60594E+08         0.12724E+07         0.00000E+00
    0.12724E+07        -0.49140E+08         0.00000E+00
    0.00000E+00         0.00000E+00        -0.61026E+08
 
   -0.60660E+08         0.13554E+07         0.00000E+00
    0.13554E+07        -0.49113E+08         0.00000E+00
    0.00000E+00         0.00000E+00        -0.61034E+08
 
   -0.60723E+08         0.14406E+07         0.00000E+00
    0.14406E+07        -0.49087E+08         0.00000E+00
    0.00000E+00         0.00000E+00        -0.61042E+08
 
   -0.60785E+08         0.15279E+07         0.00000E+00
    0.15279E+07        -0.49061E+08         0.00000E+00
    0.00000E+00         0.00000E+00        -0.61049E+08
 
   -0.60844E+08         0.16172E+07         0.00000E+00
    0.16172E+07        -0.49035E+08         0.00000E+00
    0.00000E+00         0.00000E+00        -0.61056E+08
 
   -0.60902E+08         0.17084E+07         0.00000E+00
    0.17084E+07        -0.49011E+08         0.00000E+00
    0.00000E+00         0.00000E+00        -0.61063E+08
 
   -0.60957E+08         0.18015E+07         0.00000E+00
    0.18015E+07        -0.48987E+08         0.00000E+00
    0.00000E+00         0.00000E+00        -0.61069E+08
 
   -0.61009E+08         0.18964E+07         0.00000E+00
    0.18964E+07        -0.48964E+08         0.00000E+00
    0.00000E+00         0.00000E+00        -0.61075E+08
 
   -0.61059E+08         0.19930E+07         0.00000E+00
    0.19930E+07        -0.48942E+08         0.00000E+00
    0.00000E+00         0.00000E+00        -0.61081E+08
 
   -0.58060E+08        -0.12275E+05         0.00000E+00
   -0.12275E+05        -0.50001E+08         0.00000E+00
    0.00000E+00         0.00000E+00        -0.60294E+08
 
   -0.58068E+08        -0.30667E+05         0.00000E+00
   -0.30667E+05        -0.49998E+08         0.00000E+00
    0.00000E+00         0.00000E+00        -0.60295E+08
 
   -0.58081E+08        -0.46321E+05         0.00000E+00
   -0.46321E+05        -0.49994E+08         0.00000E+00
    0.00000E+00         0.00000E+00        -0.60297E+08
 
   -0.58098E+08        -0.59172E+05         0.00000E+00
   -0.59172E+05        -0.49987E+08         0.00000E+00
    0.00000E+00         0.00000E+00        -0.60299E+08
 
   -0.58120E+08        -0.69169E+05         0.00000E+00
   -0.69169E+05        -0.49978E+08         0.00000E+00
    0.00000E+00         0.00000E+00        -0.60302E+08
 
   -0.58147E+08        -0.76274E+05         0.00000E+00
   -0.76274E+05        -0.49968E+08         0.00000E+00
    0.00000E+00         0.00000E+00        -0.60305E+08
 
   -0.58177E+08        -0.80461E+05         0.00000E+00
   -0.80461E+05        -0.49956E+08         0.00000E+00
    0.00000E+00         0.00000E+00        -0.60309E+08
 
   -0.58211E+08        -0.81716E+05         0.00000E+00
   -0.81716E+05        -0.49942E+08         0.00000E+00
    0.00000E+00         0.00000E+00        -0.60313E+08
 
   -0.58249E+08        -0.80037E+05         0.00000E+00
   -0.80037E+05        -0.49927E+08         0.00000E+00
    0.00000E+00         0.00000E+00        -0.60318E+08
 
   -0.58289E+08        -0.75429E+05         0.00000E+00
   -0.75429E+05        -0.49911E+08         0.00000E+00
    0.00000E+00         0.00000E+00        -0.60323E+08
 
   -0.58333E+08        -0.67910E+05         0.00000E+00
   -0.67910E+05        -0.49894E+08         0.00000E+00
    0.00000E+00         0.00000E+00        -0.60328E+08
 
   -0.58379E+08        -0.57501E+05         0.00000E+00
   -0.57501E+05        -0.49876E+08         0.00000E+00
    0.00000E+00         0.00000E+00        -0.60334E+08
 
   -0.58427E+08        -0.44233E+05         0.00000E+00
   -0.44233E+05        -0.49857E+08         0.00000E+00
    0.00000E+00         0.00000E+00        -0.60340E+08
 
   -0.58478E+08        -0.28142E+05         0.00000E+00
   -0.28142E+05        -0.49837E+08         0.00000E+00
    0.00000E+00         0.00000E+00        -0.60347E+08
 
   -0.58531E+08        -0.92675E+04         0.00000E+00
   -0.92675E+04        -0.49816E+08         0.00000E+00
    0.00000E+00         0.00000E+00        -0.60353E+08
 
   -0.58585E+08         0.12346E+05         0.00000E+00
    0.12346E+05        -0.49795E+08         0.00000E+00
    0.00000E+00         0.00000E+00        -0.60360E+08
 
   -0.58641E+08         0.36653E+05         0.00000E+00
    0.36653E+05        -0.49773E+08         0.00000E+00
    0.00000E+00         0.00000E+00        -0.60367E+08
 
   -0.58699E+08         0.63605E+05         0.00000E+00
    0.63605E+05        -0.49750E+08         0.00000E+00
    0.00000E+00         0.00000E+00        -0.60374E+08
 
   -0.58758E+08         0.93153E+05         0.00000E+00
    0.93153E+05        -0.49727E+08         0.00000E+00
    0.00000E+00         0.00000E+00        -0.60382E+08
 
   -0.58818E+08         0.12525E+06         0.00000E+00
    0.12525E+06        -0.49704E+08         0.00000E+00
    0.00000E+00         0.00000E+00        -0.60389E+08
 
   -0.58878E+08         0.15984E+06         0.00000E+00
    0.15984E+06        -0.49680E+08         0.00000E+00
    0.00000E+00         0.00000E+00        -0.60397E+08
 
   -0.58940E+08         0.19689E+06         0.00000E+00
    0.19689E+06        -0.49656E+08         0.00000E+00
    0.00000E+00         0.00000E+00        -0.60405E+08
 
   -0.59003E+08         0.23635E+06         0.00000E+00
    0.23635E+06        -0.49632E+08         0.00000E+00
    0.00000E+00         0.00000E+00        -0.60413E+08
 
   -0.59066E+08         0.27816E+06         0.00000E+00
    0.27816E+06        -0.49607E+08         0.00000E+00
    0.00000E+00         0.00000E+00        -0.60421E+08
 
   -0.59130E+08         0.32231E+06         0.00000E+00
    0.32231E+06        -0.49582E+08         0.00000E+00
    0.00000E+00         0.00000E+00        -0.60429E+08
 
   -0.59194E+08         0.36873E+06         0.00000E+00
    0.36873E+06        -0.49557E+08         0.00000E+00
    0.00000E+00         0.00000E+00        -0.60437E+08
 
   -0.59258E+08         0.41741E+06         0.00000E+00
    0.41741E+06        -0.49532E+08         0.00000E+00
    0.00000E+00         0.00000E+00        -0.60445E+08
 
   -0.59322E+08         0.46831E+06         0.00000E+00
    0.46831E+06        -0.49507E+08         0.00000E+00
    0.00000E+00         0.00000E+00        -0.60453E+08
 
   -0.59387E+08         0.52139E+06         0.00000E+00
    0.52139E+06        -0.49481E+08         0.00000E+00
    0.00000E+00         0.00000E+00        -0.60461E+08
 
   -0.59451E+08         0.57663E+06         0.00000E+00
    0.57663E+06        -0.49455E+08         0.00000E+00
    0.00000E+00         0.00000E+00        -0.60469E+08
 
   -0.59516E+08         0.63401E+06         0.00000E+00
    0.63401E+06        -0.49430E+08         0.00000E+00
    0.00000E+00         0.00000E+00        -0.60477E+08
 
   -0.59580E+08         0.69350E+06         0.00000E+00
    0.69350E+06        -0.49404E+08         0.00000E+00
    0.00000E+00         0.00000E+00        -0.60485E+08
 
   -0.59644E+08         0.75508E+06         0.00000E+00
    0.75508E+06        -0.49378E+08         0.00000E+00
    0.00000E+00         0.00000E+00        -0.60493E+08
 
   -0.59707E+08         0.81873E+06         0.00000E+00
    0.81873E+06        -0.49352E+08         0.00000E+00
    0.00000E+00         0.00000E+00        -0.60501E+08
 
   -0.59770E+08         0.88442E+06         0.00000E+00
    0.88442E+06        -0.49326E+08         0.00000E+00
    0.00000E+00         0.00000E+00        -0.60509E+08
 
   -0.59833E+08         0.95214E+06         0.00000E+00
    0.95214E+06        -0.49300E+08         0.00000E+00
    0.00000E+00         0.00000E+00        -0.60516E+08
 
   -0.59895E+08         0.10219E+07         0.00000E+00
    0.10219E+07        -0.49275E+08         0.00000E+00
    0.00000E+00         0.00000E+00        -0.60524E+08
 
   -0.59955E+08         0.10935E+07         0.00000E+00
    0.10935E+07        -0.49249E+08         0.00000E+00
    0.00000E+00         0.00000E+00        -0.60531E+08
 
   -0.60016E+08         0.11672E+07         0.00000E+00
    0.11672E+07        -0.49224E+08         0.00000E+00
    0.00000E+00         0.00000E+00        -0.60538E+08
 
   -0.60075E+08         0.12428E+07         0.00000E+00
    0.12428E+07        -0.49199E+08         0.00000E+00
    0.00000E+00         0.00000E+00        -0.60545E+08
 
   -0.60132E+08         0.13202E+07         0.00000E+00
    0.13202E+07        -0.49174E+08         0.00000E+00
    0.00000E+00         0.00000E+00        -0.60552E+08
 
   -0.60189E+08         0.13995E+07         0.00000E+00
    0.13995E+07        -0.49150E+08         0.00000E+00
    0.00000E+00         0.00000E+00        -0.60559E+08
 
   -0.60245E+08         0.14806E+07         0.00000E+00
    0.14806E+07        -0.49126E+08         0.00000E+00
    0.00000E+00         0.00000E+00        -0.60565E+08
 
   -0.60298E+08         0.15634E+07         0.00000E+00
    0.15634E+07        -0.49102E+08         0.00000E+00
    0.00000E+00         0.00000E+00        -0.60571E+08
 
   -0.60351E+08         0.16479E+07         0.00000E+00
    0.16479E+07        -0.49079E+08         0.00000E+00
    0.00000E+00         0.00000E+00        -0.60577E+08
 
   -0.60401E+08         0.17341E+07         0.00000E+00
    0.17341E+07        -0.49057E+08         0.00000E+00
    0.00000E+00         0.00000E+00        -0.60583E+08
 
   -0.60450E+08         0.18217E+07         0.00000E+00
    0.18217E+07        -0.49036E+08         0.00000E+00
    0.00000E+00         0.00000E+00        -0.60589E+08
 
   -0.60497E+08         0.19109E+07         0.00000E+00
    0.19109E+07        -0.49015E+08         0.00000E+00
    0.00000E+00         0.00000E+00        -0.60594E+08
 
   -0.60542E+08         0.20014E+07         0.00000E+00
    0.20014E+07        -0.48995E+08         0.00000E+00
    0.00000E+00         0.00000E+00        -0.60599E+08
 
   -0.60585E+08         0.20932E+07         0.00000E+00
    0.20932E+07        -0.48976E+08         0.00000E+00
    0.00000E+00         0.00000E+00        -0.60604E+08
 
   -0.58130E+08        -0.59553E+04         0.00000E+00
   -0.59553E+04        -0.50001E+08         0.00000E+00
    0.00000E+00         0.00000E+00        -0.59936E+08
 
   -0.58126E+08        -0.13388E+05         0.00000E+00
   -0.13388E+05        -0.49999E+08         0.00000E+00
    0.00000E+00         0.00000E+00        -0.59934E+08
 
   -0.58127E+08        -0.18787E+05         0.00000E+00
   -0.18787E+05        -0.49994E+08         0.00000E+00
    0.00000E+00         0.00000E+00        -0.59934E+08
 
   -0.58132E+08        -0.22069E+05         0.00000E+00
   -0.22069E+05        -0.49988E+08         0.00000E+00
    0.00000E+00         0.00000E+00        -0.59934E+08
 
   -0.58141E+08        -0.23169E+05         0.00000E+00
   -0.23169E+05        -0.49980E+08         0.00000E+00
    0.00000E+00         0.00000E+00        -0.59934E+08
 
   -0.58155E+08        -0.22026E+05         0.00000E+00
   -0.22026E+05        -0.49970E+08         0.00000E+00
    0.00000E+00         0.00000E+00        -0.59935E+08
 
   -0.58172E+08        -0.18592E+05         0.00000E+00
   -0.18592E+05        -0.49959E+08         0.00000E+00
    0.00000E+00         0.00000E+00        -0.59936E+08
 
   -0.58193E+08        -0.12829E+05         0.00000E+00
   -0.12829E+05        -0.49946E+08         0.00000E+00
    0.00000E+00         0.00000E+00        -0.59938E+08
 
   -0.58217E+08        -0.47059E+04         0.00000E+00
   -0.47059E+04        -0.49932E+08         0.00000E+00
    0.00000E+00         0.00000E+00        -0.59940E+08
 
   -0.58245E+08         0.57978E+04         0.00000E+00
    0.57978E+04        -0.49917E+08         0.00000E+00
    0.00000E+00         0.00000E+00        -0.59942E+08
 
   -0.58275E+08         0.18697E+05         0.00000E+00
    0.18697E+05        -0.49901E+08         0.00000E+00
    0.00000E+00         0.00000E+00        -0.59945E+08
 
   -0.58308E+08         0.33998E+05         0.00000E+00
    0.33998E+05        -0.49883E+08         0.00000E+00
    0.00000E+00         0.00000E+00        -0.59949E+08
 
   -0.58343E+08         0.51701E+05         0.00000E+00
    0.51701E+05        -0.49865E+08         0.00000E+00
    0.00000E+00         0.00000E+00        -0.59952E+08
 
   -0.58381E+08         0.71803E+05         0.00000E+00
    0.71803E+05        -0.49846E+08         0.00000E+00
    0.00000E+00         0.00000E+00        -0.59956E+08
 
   -0.58421E+08         0.94294E+05         0.00000E+00
    0.94294E+05        -0.49826E+08         0.00000E+00
    0.00000E+00         0.00000E+00        -0.59960E+08
 
   -0.58463E+08         0.11916E+06         0.00000E+00
    0.11916E+06        -0.49805E+08         0.00000E+00
    0.00000E+00         0.00000E+00        -0.59965E+08
 
   -0.58506E+08         0.14638E+06         0.00000E+00
    0.14638E+06        -0.49784E+08         0.00000E+00
    0.00000E+00         0.00000E+00        -0.59969E+08
 
   -0.58551E+08         0.17594E+06         0.00000E+00
    0.17594E+06        -0.49762E+08         0.00000E+00
    0.00000E+00         0.00000E+00        -0.59974E+08
 
   -0.58598E+08         0.20781E+06         0.00000E+00
    0.20781E+06        -0.49740E+08         0.00000E+00
    0.00000E+00         0.00000E+00        -0.59979E+08
 
   -0.58646E+08         0.24196E+06         0.00000E+00
    0.24196E+06        -0.49717E+08         0.00000E+00
    0.00000E+00         0.00000E+00        -0.59985E+08
 
   -0.58695E+08         0.27838E+06         0.00000E+00
    0.27838E+06        -0.49694E+08         0.00000E+00
    0.00000E+00         0.00000E+00        -0.59990E+08
 
   -0.58745E+08         0.31703E+06         0.00000E+00
    0.31703E+06        -0.49670E+08         0.00000E+00
    0.00000E+00         0.00000E+00        -0.59995E+08
 
   -0.58796E+08         0.35788E+06         0.00000E+00
    0.35788E+06        -0.49646E+08         0.00000E+00
    0.00000E+00         0.00000E+00        -0.60001E+08
 
   -0.58848E+08         0.40091E+06         0.00000E+00
    0.40091E+06        -0.49622E+08         0.00000E+00
    0.00000E+00         0.00000E+00        -0.60007E+08
 
   -0.58901E+08         0.44609E+06         0.00000E+00
    0.44609E+06        -0.49598E+08         0.00000E+00
    0.00000E+00         0.00000E+00        -0.60013E+08
 
   -0.58954E+08         0.49338E+06         0.00000E+00
    0.49338E+06        -0.49574E+08         0.00000E+00
    0.00000E+00         0.00000E+00        -0.60019E+08
 
   -0.59007E+08         0.54277E+06         0.00000E+00
    0.54277E+06        -0.49549E+08         0.00000E+00
    0.00000E+00         0.00000E+00        -0.60025E+08
 
   -0.59061E+08         0.59421E+06         0.00000E+00
    0.59421E+06        -0.49524E+08         0.00000E+00
    0.00000E+00         0.00000E+00        -0.60031E+08
 
   -0.59115E+08         0.64769E+06         0.00000E+00
    0.64769E+06        -0.49499E+08         0.00000E+00
    0.00000E+00         0.00000E+00        -0.60037E+08
 
   -0.59169E+08         0.70317E+06         0.00000E+00
    0.70317E+06        -0.49475E+08         0.00000E+00
    0.00000E+00         0.00000E+00        -0.60043E+08
 
   -0.59224E+08         0.76062E+06         0.00000E+00
    0.76062E+06        -0.49450E+08         0.00000E+00
    0.00000E+00         0.00000E+00        -0.60049E+08
 
   -0.59278E+08         0.82002E+06         0.00000E+00
    0.82002E+06        -0.49425E+08         0.00000E+00
    0.00000E+00         0.00000E+00        -0.60055E+08
 
   -0.59332E+08         0.88134E+06         0.00000E+00
    0.88134E+06        -0.49401E+08         0.00000E+00
    0.00000E+00         0.00000E+00        -0.60061E+08
 
   -0.59385E+08         0.94455E+06         0.00000E+00
    0.94455E+06        -0.49376E+08         0.00000E+00
    0.00000E+00         0.00000E+00        -0.60068E+08
 
   -0.59439E+08         0.10096E+07         0.00000E+00
    0.10096E+07        -0.49352E+08         0.00000E+00
    0.00000E+00         0.00000E+00        -0.60074E+08
 
   -0.59492E+08         0.10765E+07         0.00000E+00
    0.10765E+07        -0.49328E+08         0.00000E+00
    0.00000E+00         0.00000E+00        -0.60080E+08
 
   -0.59544E+08         0.11452E+07         0.00000E+00
    0.11452E+07        -0.49304E+08         0.00000E+00
    0.00000E+00         0.00000E+00        -0.60085E+08
 
   -0.59596E+08         0.12156E+07         0.00000E+00
    0.12156E+07        -0.49280E+08         0.00000E+00
    0.00000E+00         0.00000E+00        -0.60091E+08
 
   -0.59647E+08         0.12878E+07         0.00000E+00
    0.12878E+07        -0.49257E+08         0.00000E+00
    0.00000E+00         0.00000E+00        -0.60097E+08
 
   -0.59697E+08         0.13617E+07         0.00000E+00
    0.13617E+07        -0.49234E+08         0.00000E+00
    0.00000E+00         0.00000E+00        -0.60103E+08
 
   -0.59746E+08         0.14371E+07         0.00000E+00
    0.14371E+07        -0.49212E+08         0.00000E+00
    0.00000E+00         0.00000E+00        -0.60108E+08
 
   -0.59794E+08         0.15142E+07         0.00000E+00
    0.15142E+07        -0.49190E+08         0.00000E+00
    0.00000E+00         0.00000E+00        -0.60113E+08
 
   -0.59841E+08         0.15928E+07         0.00000E+00
    0.15928E+07        -0.49168E+08         0.00000E+00
    0.00000E+00         0.00000E+00        -0.60119E+08
 
   -0.59887E+08         0.16729E+07         0.00000E+00
    0.16729E+07        -0.49147E+08         0.00000E+00
    0.00000E+00         0.00000E+00        -0.60124E+08
 
   -0.59932E+08         0.17544E+07         0.00000E+00
    0.17544E+07        -0.49127E+08         0.00000E+00
    0.00000E+00         0.00000E+00        -0.60129E+08
 
   -0.59976E+08         0.18372E+07         0.00000E+00
    0.18372E+07        -0.49107E+08         0.00000E+00
    0.00000E+00         0.00000E+00        -0.60134E+08
 
   -0.60018E+08         0.19213E+07         0.00000E+00
    0.19213E+07        -0.49088E+08         0.00000E+00
    0.00000E+00         0.00000E+00        -0.60138E+08
 
   -0.60058E+08         0.20066E+07         0.00000E+00
    0.20066E+07        -0.49069E+08         0.00000E+00
    0.00000E+00         0.00000E+00        -0.60143E+08
 
   -0.60097E+08         0.20931E+07         0.00000E+00
    0.20931E+07        -0.49052E+08         0.00000E+00
    0.00000E+00         0.00000E+00        -0.60147E+08
 
   -0.60135E+08         0.21805E+07         0.00000E+00
    0.21805E+07        -0.49035E+08         0.00000E+00
    0.00000E+00         0.00000E+00        -0.60151E+08
 
   -0.58146E+08        -0.31964E+03         0.00000E+00
   -0.31964E+03        -0.50001E+08         0.00000E+00
    0.00000E+00         0.00000E+00        -0.59580E+08
 
   -0.58134E+08         0.21914E+04         0.00000E+00
    0.21914E+04        -0.49999E+08         0.00000E+00
    0.00000E+00         0.00000E+00        -0.59577E+08
 
   -0.58125E+08         0.61771E+04         0.00000E+00
    0.61771E+04        -0.49995E+08         0.00000E+00
    0.00000E+00         0.00000E+00        -0.59575E+08
 
   -0.58121E+08         0.11725E+05         0.00000E+00
    0.11725E+05        -0.49989E+08         0.00000E+00
    0.00000E+00         0.00000E+00        -0.59573E+08
 
   -0.58121E+08         0.18914E+05         0.00000E+00
    0.18914E+05        -0.49982E+08         0.00000E+00
    0.00000E+00         0.00000E+00        -0.59571E+08
 
   -0.58125E+08         0.27814E+05         0.00000E+00
    0.27814E+05        -0.49973E+08         0.00000E+00
    0.00000E+00         0.00000E+00        -0.59570E+08
 
   -0.58132E+08         0.38486E+05         0.00000E+00
    0.38486E+05        -0.49963E+08         0.00000E+00
    0.00000E+00         0.00000E+00        -0.59570E+08
 
   -0.58142E+08         0.50984E+05         0.00000E+00
    0.50984E+05        -0.49952E+08         0.00000E+00
    0.00000E+00         0.00000E+00        -0.59569E+08
 
   -0.58156E+08         0.65353E+05         0.00000E+00
    0.65353E+05        -0.49939E+08         0.00000E+00
    0.00000E+00         0.00000E+00        -0.59570E+08
 
   -0.58172E+08         0.81632E+05         0.00000E+00
    0.81632E+05        -0.49925E+08         0.00000E+00
    0.00000E+00         0.00000E+00        -0.59570E+08
 
   -0.58192E+08         0.99853E+05         0.00000E+00
    0.99853E+05        -0.49910E+08         0.00000E+00
    0.00000E+00         0.00000E+00        -0.59571E+08
 
   -0.58214E+08         0.12004E+06         0.00000E+00
    0.12004E+06        -0.49894E+08         0.00000E+00
    0.00000E+00         0.00000E+00        -0.59573E+08
 
   -0.58238E+08         0.14222E+06         0.00000E+00
    0.14222E+06        -0.49877E+08         0.00000E+00
    0.00000E+00         0.00000E+00        -0.59574E+08
 
   -0.58265E+08         0.16640E+06         0.00000E+00
    0.16640E+06        -0.49859E+08         0.00000E+00
    0.00000E+00         0.00000E+00        -0.59576E+08
 
   -0.58294E+08         0.19259E+06         0.00000E+00
    0.19259E+06        -0.49840E+08         0.00000E+00
    0.00000E+00         0.00000E+00        -0.59578E+08
 
   -0.58325E+08         0.22080E+06         0.00000E+00
    0.22080E+06        -0.49821E+08         0.00000E+00
    0.00000E+00         0.00000E+00        -0.59581E+08
 
   -0.58357E+08         0.25103E+06         0.00000E+00
    0.25103E+06        -0.49801E+08         0.00000E+00
    0.00000E+00         0.00000E+00        -0.59583E+08
 
   -0.58392E+08         0.28327E+06         0.00000E+00
    0.28327E+06        -0.49780E+08         0.00000E+00
    0.00000E+00         0.00000E+00        -0.59586E+08
 
   -0.58428E+08         0.31753E+06         0.00000E+00
    0.31753E+06        -0.49759E+08         0.00000E+00
    0.00000E+00         0.00000E+00        -0.59589E+08
 
   -0.58465E+08         0.35379E+06         0.00000E+00
    0.35379E+06        -0.49738E+08         0.00000E+00
    0.00000E+00         0.00000E+00        -0.59593E+08
 
   -0.58503E+08         0.39203E+06         0.00000E+00
    0.39203E+06        -0.49716E+08         0.00000E+00
    0.00000E+00         0.00000E+00        -0.59596E+08
 
   -0.58543E+08         0.43226E+06         0.00000E+00
    0.43226E+06        -0.49694E+08         0.00000E+00
    0.00000E+00         0.00000E+00        -0.59600E+08
 
   -0.58584E+08         0.47444E+06         0.00000E+00
    0.47444E+06        -0.49671E+08         0.00000E+00
    0.00000E+00         0.00000E+00        -0.59604E+08
 
   -0.58625E+08         0.51857E+06         0.00000E+00
    0.51857E+06        -0.49649E+08         0.00000E+00
    0.00000E+00         0.00000E+00        -0.59608E+08
 
   -0.58668E+08         0.56463E+06         0.00000E+00
    0.56463E+06        -0.49626E+08         0.00000E+00
    0.00000E+00         0.00000E+00        -0.59612E+08
 
   -0.58711E+08         0.61259E+06         0.00000E+00
    0.61259E+06        -0.49603E+08         0.00000E+00
    0.00000E+00         0.00000E+00        -0.59616E+08
 
   -0.58754E+08         0.66243E+06         0.00000E+00
    0.66243E+06        -0.49580E+08         0.00000E+00
    0.00000E+00         0.00000E+00        -0.59620E+08
 
   -0.58799E+08         0.71413E+06         0.00000E+00
    0.71413E+06        -0.49557E+08         0.00000E+00
    0.00000E+00         0.00000E+00        -0.59625E+08
 
   -0.58843E+08         0.76767E+06         0.00000E+00
    0.76767E+06        -0.49533E+08         0.00000E+00
    0.00000E+00         0.00000E+00        -0.59629E+08
 
   -0.58888E+08         0.82303E+06         0.00000E+00
    0.82303E+06        -0.49510E+08         0.00000E+00
    0.00000E+00         0.00000E+00        -0.59634E+08
 
   -0.58933E+08         0.88017E+06         0.00000E+00
    0.88017E+06        -0.49487E+08         0.00000E+00
    0.00000E+00         0.00000E+00        -0.59638E+08
 
   -0.58978E+08         0.93906E+06         0.00000E+00
    0.93906E+06        -0.49464E+08         0.00000E+00
    0.00000E+00         0.00000E+00        -0.59643E+08
 
   -0.59022E+08         0.99969E+06         0.00000E+00
    0.99969E+06        -0.49441E+08         0.00000E+00
    0.00000E+00         0.00000E+00        -0.59647E+08
 
   -0.59067E+08         0.10620E+07         0.00000E+00
    0.10620E+07        -0.49419E+08         0.00000E+00
    0.00000E+00         0.00000E+00        -0.59652E+08
 
   -0.59112E+08         0.11260E+07         0.00000E+00
    0.11260E+07        -0.49396E+08         0.00000E+00
    0.00000E+00         0.00000E+00        -0.59657E+08
 
   -0.59156E+08         0.11916E+07         0.00000E+00
    0.11916E+07        -0.49374E+08         0.00000E+00
    0.00000E+00         0.00000E+00        -0.59661E+08
 
   -0.59200E+08         0.12589E+07         0.00000E+00
    0.12589E+07        -0.49352E+08         0.00000E+00
    0.00000E+00         0.00000E+00        -0.59666E+08
 
   -0.59244E+08         0.13276E+07         0.00000E+00
    0.13276E+07        -0.49331E+08         0.00000E+00
    0.00000E+00         0.00000E+00        -0.59670E+08
 
   -0.59287E+08         0.13980E+07         0.00000E+00
    0.13980E+07        -0.49309E+08         0.00000E+00
    0.00000E+00         0.00000E+00        -0.59675E+08
 
   -0.59329E+08         0.14697E+07         0.00000E+00
    0.14697E+07        -0.49289E+08         0.00000E+00
    0.00000E+00         0.00000E+00        -0.59679E+08
 
   -0.59371E+08         0.15430E+07         0.00000E+00
    0.15430E+07        -0.49268E+08         0.00000E+00
    0.00000E+00         0.00000E+00        -0.59684E+08
 
   -0.59412E+08         0.16176E+07         0.00000E+00
    0.16176E+07        -0.49248E+08         0.00000E+00
    0.00000E+00         0.00000E+00        -0.59688E+08
 
   -0.59452E+08         0.16935E+07         0.00000E+00
    0.16935E+07        -0.49229E+08         0.00000E+00
    0.00000E+00         0.00000E+00        -0.59692E+08
 
   -0.59491E+08         0.17707E+07         0.00000E+00
    0.17707E+07        -0.49210E+08         0.00000E+00
    0.00000E+00         0.00000E+00        -0.59697E+08
 
   -0.59529E+08         0.18492E+07         0.00000E+00
    0.18492E+07        -0.49192E+08         0.00000E+00
    0.00000E+00         0.00000E+00        -0.59701E+08
 
   -0.59567E+08         0.19288E+07         0.00000E+00
    0.19288E+07        -0.49174E+08         0.00000E+00
    0.00000E+00         0.00000E+00        -0.59705E+08
 
   -0.59603E+08         0.20095E+07         0.00000E+00
    0.20095E+07        -0.49157E+08         0.00000E+00
    0.00000E+00         0.00000E+00        -0.59709E+08
 
   -0.59638E+08         0.20913E+07         0.00000E+00
    0.20913E+07        -0.49141E+08         0.00000E+00
    0.00000E+00         0.00000E+00        -0.59712E+08
 
   -0.59673E+08         0.21740E+07         0.00000E+00
    0.21740E+07        -0.49126E+08         0.00000E+00
    0.00000E+00         0.00000E+00        -0.59716E+08
 
   -0.59705E+08         0.22576E+07         0.00000E+00
    0.22576E+07        -0.49111E+08         0.00000E+00
    0.00000E+00         0.00000E+00        -0.59720E+08
 
   -0.58114E+08         0.46233E+04         0.00000E+00
    0.46233E+04        -0.50001E+08         0.00000E+00
    0.00000E+00         0.00000E+00        -0.59227E+08
 
   -0.58095E+08         0.15982E+05         0.00000E+00
    0.15982E+05        -0.49999E+08         0.00000E+00
    0.00000E+00         0.00000E+00        -0.59223E+08
 
   -0.58081E+08         0.28371E+05         0.00000E+00
    0.28371E+05        -0.49996E+08         0.00000E+00
    0.00000E+00         0.00000E+00        -0.59220E+08
 
   -0.58070E+08         0.41881E+05         0.00000E+00
    0.41881E+05        -0.49991E+08         0.00000E+00
    0.00000E+00         0.00000E+00        -0.59216E+08
 
   -0.58062E+08         0.56594E+05         0.00000E+00
    0.56594E+05        -0.49984E+08         0.00000E+00
    0.00000E+00         0.00000E+00        -0.59214E+08
 
   -0.58058E+08         0.72585E+05         0.00000E+00
    0.72585E+05        -0.49976E+08         0.00000E+00
    0.00000E+00         0.00000E+00        -0.59211E+08
 
   -0.58057E+08         0.89921E+05         0.00000E+00
    0.89921E+05        -0.49967E+08         0.00000E+00
    0.00000E+00         0.00000E+00        -0.59209E+08
 
   -0.58060E+08         0.10866E+06         0.00000E+00
    0.10866E+06        -0.49957E+08         0.00000E+00
    0.00000E+00         0.00000E+00        -0.59208E+08
 
   -0.58065E+08         0.12887E+06         0.00000E+00
    0.12887E+06        -0.49946E+08         0.00000E+00
    0.00000E+00         0.00000E+00        -0.59207E+08
 
   -0.58073E+08         0.15058E+06         0.00000E+00
    0.15058E+06        -0.49933E+08         0.00000E+00
    0.00000E+00         0.00000E+00        -0.59206E+08
 
   -0.58083E+08         0.17384E+06         0.00000E+00
    0.17384E+06        -0.49919E+08         0.00000E+00
    0.00000E+00         0.00000E+00        -0.59205E+08
 
   -0.58096E+08         0.19869E+06         0.00000E+00
    0.19869E+06        -0.49905E+08         0.00000E+00
    0.00000E+00         0.00000E+00        -0.59205E+08
 
   -0.58112E+08         0.22516E+06         0.00000E+00
    0.22516E+06        -0.49890E+08         0.00000E+00
    0.00000E+00         0.00000E+00        -0.59205E+08
 
   -0.58129E+08         0.25328E+06         0.00000E+00
    0.25328E+06        -0.49873E+08         0.00000E+00
    0.00000E+00         0.00000E+00        -0.59205E+08
 
   -0.58149E+08         0.28307E+06         0.00000E+00
    0.28307E+06        -0.49856E+08         0.00000E+00
    0.00000E+00         0.00000E+00        -0.59206E+08
 
   -0.58171E+08         0.31453E+06         0.00000E+00
    0.31453E+06        -0.49839E+08         0.00000E+00
    0.00000E+00         0.00000E+00        -0.59207E+08
 
   -0.58194E+08         0.34770E+06         0.00000E+00
    0.34770E+06        -0.49821E+08         0.00000E+00
    0.00000E+00         0.00000E+00        -0.59208E+08
 
   -0.58219E+08         0.38258E+06         0.00000E+00
    0.38258E+06        -0.49802E+08         0.00000E+00
    0.00000E+00         0.00000E+00        -0.59210E+08
 
   -0.58246E+08         0.41917E+06         0.00000E+00
    0.41917E+06        -0.49783E+08         0.00000E+00
    0.00000E+00         0.00000E+00        -0.59211E+08
 
   -0.58274E+08         0.45748E+06         0.00000E+00
    0.45748E+06        -0.49763E+08         0.00000E+00
    0.00000E+00         0.00000E+00        -0.59213E+08
 
   -0.58303E+08         0.49751E+06         0.00000E+00
    0.49751E+06        -0.49743E+08         0.00000E+00
    0.00000E+00         0.00000E+00        -0.59215E+08
 
   -0.58334E+08         0.53924E+06         0.00000E+00
    0.53924E+06        -0.49723E+08         0.00000E+00
    0.00000E+00         0.00000E+00        -0.59217E+08
 
   -0.58365E+08         0.58269E+06         0.00000E+00
    0.58269E+06        -0.49702E+08         0.00000E+00
    0.00000E+00         0.00000E+00        -0.59219E+08
 
   -0.58398E+08         0.62784E+06         0.00000E+00
    0.62784E+06        -0.49682E+08         0.00000E+00
    0.00000E+00         0.00000E+00        -0.59222E+08
 
   -0.58431E+08         0.67468E+06         0.00000E+00
    0.67468E+06        -0.49661E+08         0.00000E+00
    0.00000E+00         0.00000E+00        -0.59225E+08
 
   -0.58465E+08         0.72319E+06         0.00000E+00
    0.72319E+06        -0.49639E+08         0.00000E+00
    0.00000E+00         0.00000E+00        -0.59227E+08
 
   -0.58500E+08         0.77337E+06         0.00000E+00
    0.77337E+06        -0.49618E+08         0.00000E+00
    0.00000E+00         0.00000E+00        -0.59230E+08
 
   -0.58535E+08         0.82520E+06         0.00000E+00
    0.82520E+06        -0.49597E+08         0.00000E+00
    0.00000E+00         0.00000E+00        -0.59233E+08
 
   -0.58571E+08         0.87865E+06         0.00000E+00
    0.87865E+06        -0.49576E+08         0.00000E+00
    0.00000E+00         0.00000E+00        -0.59236E+08
 
   -0.58608E+08         0.93371E+06         0.00000E+00
    0.93371E+06        -0.49555E+08         0.00000E+00
    0.00000E+00         0.00000E+00        -0.59239E+08
 
   -0.58644E+08         0.99036E+06         0.00000E+00
    0.99036E+06        -0.49534E+08         0.00000E+00
    0.00000E+00         0.00000E+00        -0.59243E+08
 
   -0.58681E+08         0.10486E+07         0.00000E+00
    0.10486E+07        -0.49513E+08         0.00000E+00
    0.00000E+00         0.00000E+00        -0.59246E+08
 
   -0.58718E+08         0.11083E+07         0.00000E+00
    0.11083E+07        -0.49492E+08         0.00000E+00
    0.00000E+00         0.00000E+00        -0.59249E+08
 
   -0.58754E+08         0.11696E+07         0.00000E+00
    0.11696E+07        -0.49471E+08         0.00000E+00
    0.00000E+00         0.00000E+00        -0.59253E+08
 
   -0.58791E+08         0.12323E+07         0.00000E+00
    0.12323E+07        -0.49451E+08         0.00000E+00
    0.00000E+00         0.00000E+00        -0.59256E+08
 
   -0.58828E+08         0.12965E+07         0.00000E+00
    0.12965E+07        -0.49431E+08         0.00000E+00
    0.00000E+00         0.00000E+00        -0.59260E+08
 
   -0.58864E+08         0.13621E+07         0.00000E+00
    0.13621E+07        -0.49411E+08         0.00000E+00
    0.00000E+00         0.00000E+00        -0.59263E+08
 
   -0.58901E+08         0.14291E+07         0.00000E+00
    0.14291E+07        -0.49392E+08         0.00000E+00
    0.00000E+00         0.00000E+00        -0.59267E+08
 
   -0.58937E+08         0.14975E+07         0.00000E+00
    0.14975E+07        -0.49373E+08         0.00000E+00
    0.00000E+00         0.00000E+00        -0.59270E+08
 
   -0.58972E+08         0.15671E+07         0.00000E+00
    0.15671E+07        -0.49354E+08         0.00000E+00
    0.00000E+00         0.00000E+00        -0.59274E+08
 
   -0.59007E+08         0.16381E+07         0.00000E+00
    0.16381E+07        -0.49336E+08         0.00000E+00
    0.00000E+00         0.00000E+00        -0.59277E+08
 
   -0.59042E+08         0.17102E+07         0.00000E+00
    0.17102E+07        -0.49318E+08         0.00000E+00
    0.00000E+00         0.00000E+00        -0.59280E+08
 
   -0.59076E+08         0.17835E+07         0.00000E+00
    0.17835E+07        -0.49301E+08         0.00000E+00
    0.00000E+00         0.00000E+00        -0.59284E+08
 
   -0.59109E+08         0.18580E+07         0.00000E+00
    0.18580E+07        -0.49284E+08         0.00000E+00
    0.00000E+00         0.00000E+00        -0.59287E+08
 
   -0.59142E+08         0.19336E+07         0.00000E+00
    0.19336E+07        -0.49268E+08         0.00000E+00
    0.00000E+00         0.00000E+00        -0.59291E+08
 
   -0.59174E+08         0.20102E+07         0.00000E+00
    0.20102E+07        -0.49252E+08         0.00000E+00
    0.00000E+00         0.00000E+00        -0.59294E+08
 
   -0.59205E+08         0.20877E+07         0.00000E+00
    0.20877E+07        -0.49237E+08         0.00000E+00
    0.00000E+00         0.00000E+00        -0.59297E+08
 
   -0.59236E+08         0.21662E+07         0.00000E+00
    0.21662E+07        -0.49223E+08         0.00000E+00
    0.00000E+00         0.00000E+00        -0.59301E+08
 
   -0.59265E+08         0.22456E+07         0.00000E+00
    0.22456E+07        -0.49209E+08         0.00000E+00
    0.00000E+00         0.00000E+00        -0.59304E+08
 
   -0.59294E+08         0.23258E+07         0.00000E+00
    0.23258E+07        -0.49196E+08         0.00000E+00
    0.00000E+00         0.00000E+00        -0.59307E+08
 
   -0.58039E+08         0.88909E+04         0.00000E+00
    0.88909E+04        -0.50001E+08         0.00000E+00
    0.00000E+00         0.00000E+00        -0.58878E+08
 
   -0.58017E+08         0.27984E+05         0.00000E+00
    0.27984E+05        -0.49999E+08         0.00000E+00
    0.00000E+00         0.00000E+00        -0.58874E+08
 
   -0.57998E+08         0.47761E+05         0.00000E+00
    0.47761E+05        -0.49996E+08         0.00000E+00
    0.00000E+00         0.00000E+00        -0.58869E+08
 
   -0.57982E+08         0.68310E+05         0.00000E+00
    0.68310E+05        -0.49992E+08         0.00000E+00
    0.00000E+00         0.00000E+00        -0.58865E+08
 
   -0.57969E+08         0.89712E+05         0.00000E+00
    0.89712E+05        -0.49986E+08         0.00000E+00
    0.00000E+00         0.00000E+00        -0.58861E+08
 
   -0.57959E+08         0.11204E+06         0.00000E+00
    0.11204E+06        -0.49980E+08         0.00000E+00
    0.00000E+00         0.00000E+00        -0.58858E+08
 
   -0.57952E+08         0.13537E+06         0.00000E+00
    0.13537E+06        -0.49972E+08         0.00000E+00
    0.00000E+00         0.00000E+00        -0.58855E+08
 
   -0.57948E+08         0.15976E+06         0.00000E+00
    0.15976E+06        -0.49963E+08         0.00000E+00
    0.00000E+00         0.00000E+00        -0.58853E+08
 
   -0.57947E+08         0.18526E+06         0.00000E+00
    0.18526E+06        -0.49952E+08         0.00000E+00
    0.00000E+00         0.00000E+00        -0.58850E+08
 
   -0.57948E+08         0.21194E+06         0.00000E+00
    0.21194E+06        -0.49941E+08         0.00000E+00
    0.00000E+00         0.00000E+00        -0.58848E+08
 
   -0.57952E+08         0.23984E+06         0.00000E+00
    0.23984E+06        -0.49929E+08         0.00000E+00
    0.00000E+00         0.00000E+00        -0.58847E+08
 
   -0.57958E+08         0.26899E+06         0.00000E+00
    0.26899E+06        -0.49917E+08         0.00000E+00
    0.00000E+00         0.00000E+00        -0.58845E+08
 
   -0.57966E+08         0.29945E+06         0.00000E+00
    0.29945E+06        -0.49903E+08         0.00000E+00
    0.00000E+00         0.00000E+00        -0.58844E+08
 
   -0.57976E+08         0.33123E+06         0.00000E+00
    0.33123E+06        -0.49889E+08         0.00000E+00
    0.00000E+00         0.00000E+00        -0.58844E+08
 
   -0.57988E+08         0.36438E+06         0.00000E+00
    0.36438E+06        -0.49874E+08         0.00000E+00
    0.00000E+00         0.00000E+00        -0.58843E+08
 
   -0.58002E+08         0.39892E+06         0.00000E+00
    0.39892E+06        -0.49858E+08         0.00000E+00
    0.00000E+00         0.00000E+00        -0.58843E+08
 
   -0.58017E+08         0.43486E+06         0.00000E+00
    0.43486E+06        -0.49842E+08         0.00000E+00
    0.00000E+00         0.00000E+00        -0.58843E+08
 
   -0.58035E+08         0.47223E+06         0.00000E+00
    0.47223E+06        -0.49825E+08         0.00000E+00
    0.00000E+00         0.00000E+00        -0.58843E+08
 
   -0.58053E+08         0.51103E+06         0.00000E+00
    0.51103E+06        -0.49808E+08         0.00000E+00
    0.00000E+00         0.00000E+00        -0.58843E+08
 
   -0.58073E+08         0.55129E+06         0.00000E+00
    0.55129E+06        -0.49790E+08         0.00000E+00
    0.00000E+00         0.00000E+00        -0.58844E+08
 
   -0.58095E+08         0.59300E+06         0.00000E+00
    0.59300E+06        -0.49773E+08         0.00000E+00
    0.00000E+00         0.00000E+00        -0.58845E+08
 
   -0.58117E+08         0.63617E+06         0.00000E+00
    0.63617E+06        -0.49754E+08         0.00000E+00
    0.00000E+00         0.00000E+00        -0.58846E+08
 
   -0.58141E+08         0.68080E+06         0.00000E+00
    0.68080E+06        -0.49736E+08         0.00000E+00
    0.00000E+00         0.00000E+00        -0.58847E+08
 
   -0.58166E+08         0.72690E+06         0.00000E+00
    0.72690E+06        -0.49717E+08         0.00000E+00
    0.00000E+00         0.00000E+00        -0.58848E+08
 
   -0.58191E+08         0.77446E+06         0.00000E+00
    0.77446E+06        -0.49698E+08         0.00000E+00
    0.00000E+00         0.00000E+00        -0.58850E+08
 
   -0.58218E+08         0.82346E+06         0.00000E+00
    0.82346E+06        -0.49679E+08         0.00000E+00
    0.00000E+00         0.00000E+00        -0.58851E+08
 
   -0.58245E+08         0.87392E+06         0.00000E+00
    0.87392E+06        -0.49660E+08         0.00000E+00
    0.00000E+00         0.00000E+00        -0.58853E+08
 
   -0.58272E+08         0.92581E+06         0.00000E+00
    0.92581E+06        -0.49641E+08         0.00000E+00
    0.00000E+00         0.00000E+00        -0.58855E+08
 
   -0.58301E+08         0.97912E+06         0.00000E+00
    0.97912E+06        -0.49622E+08         0.00000E+00
    0.00000E+00         0.00000E+00        -0.58857E+08
 
   -0.58329E+08         0.10338E+07         0.00000E+00
    0.10338E+07        -0.49603E+08         0.00000E+00
    0.00000E+00         0.00000E+00        -0.58859E+08
 
   -0.58359E+08         0.10899E+07         0.00000E+00
    0.10899E+07        -0.49585E+08         0.00000E+00
    0.00000E+00         0.00000E+00        -0.58861E+08
 
   -0.58388E+08         0.11474E+07         0.00000E+00
    0.11474E+07        -0.49566E+08         0.00000E+00
    0.00000E+00         0.00000E+00        -0.58863E+08
 
   -0.58418E+08         0.12063E+07         0.00000E+00
    0.12063E+07        -0.49547E+08         0.00000E+00
    0.00000E+00         0.00000E+00        -0.58865E+08
 
   -0.58447E+08         0.12664E+07         0.00000E+00
    0.12664E+07        -0.49529E+08         0.00000E+00
    0.00000E+00         0.00000E+00        -0.58868E+08
 
   -0.58477E+08         0.13279E+07         0.00000E+00
    0.13279E+07        -0.49511E+08         0.00000E+00
    0.00000E+00         0.00000E+00        -0.58870E+08
 
   -0.58507E+08         0.13907E+07         0.00000E+00
    0.13907E+07        -0.49493E+08         0.00000E+00
    0.00000E+00         0.00000E+00        -0.58873E+08
 
   -0.58537E+08         0.14547E+07         0.00000E+00
    0.14547E+07        -0.49475E+08         0.00000E+00
    0.00000E+00         0.00000E+00        -0.58875E+08
 
   -0.58567E+08         0.15199E+07         0.00000E+00
    0.15199E+07        -0.49458E+08         0.00000E+00
    0.00000E+00         0.00000E+00        -0.58878E+08
 
   -0.58597E+08         0.15864E+07         0.00000E+00
    0.15864E+07        -0.49441E+08         0.00000E+00
    0.00000E+00         0.00000E+00        -0.58881E+08
 
   -0.58626E+08         0.16540E+07         0.00000E+00
    0.16540E+07        -0.49424E+08         0.00000E+00
    0.00000E+00         0.00000E+00        -0.58883E+08
 
   -0.58655E+08         0.17227E+07         0.00000E+00
    0.17227E+07        -0.49408E+08         0.00000E+00
    0.00000E+00         0.00000E+00        -0.58886E+08
 
   -0.58684E+08         0.17925E+07         0.00000E+00
    0.17925E+07        -0.49393E+08         0.00000E+00
    0.00000E+00         0.00000E+00        -0.58889E+08
 
   -0.58713E+08         0.18634E+07         0.00000E+00
    0.18634E+07        -0.49377E+08         0.00000E+00
    0.00000E+00         0.00000E+00        -0.58891E+08
 
   -0.58741E+08         0.19353E+07         0.00000E+00
    0.19353E+07        -0.49363E+08         0.00000E+00
    0.00000E+00         0.00000E+00        -0.58894E+08
 
   -0.58769E+08         0.20082E+07         0.00000E+00
    0.20082E+07        -0.49348E+08         0.00000E+00
    0.00000E+00         0.00000E+00        -0.58897E+08
 
   -0.58796E+08         0.20820E+07         0.00000E+00
    0.20820E+07        -0.49335E+08         0.00000E+00
    0.00000E+00         0.00000E+00        -0.58900E+08
 
   -0.58822E+08         0.21567E+07         0.00000E+00
    0.21567E+07        -0.49321E+08         0.00000E+00
    0.00000E+00         0.00000E+00        -0.58902E+08
 
   -0.58849E+08         0.22323E+07         0.00000E+00
    0.22323E+07        -0.49309E+08         0.00000E+00
    0.00000E+00         0.00000E+00        -0.58905E+08
 
   -0.58874E+08         0.23086E+07         0.00000E+00
    0.23086E+07        -0.49297E+08         0.00000E+00
    0.00000E+00         0.00000E+00        -0.58908E+08
 
   -0.58899E+08         0.23857E+07         0.00000E+00
    0.23857E+07        -0.49285E+08         0.00000E+00
    0.00000E+00         0.00000E+00        -0.58910E+08
 
   -0.57928E+08         0.12522E+05         0.00000E+00
    0.12522E+05        -0.50001E+08         0.00000E+00
    0.00000E+00         0.00000E+00        -0.58534E+08
 
   -0.57903E+08         0.38271E+05         0.00000E+00
    0.38271E+05        -0.49999E+08         0.00000E+00
    0.00000E+00         0.00000E+00        -0.58528E+08
 
   -0.57881E+08         0.64438E+05         0.00000E+00
    0.64438E+05        -0.49997E+08         0.00000E+00
    0.00000E+00         0.00000E+00        -0.58523E+08
 
   -0.57862E+08         0.91104E+05         0.00000E+00
    0.91104E+05        -0.49993E+08         0.00000E+00
    0.00000E+00         0.00000E+00        -0.58519E+08
 
   -0.57845E+08         0.11835E+06         0.00000E+00
    0.11835E+06        -0.49988E+08         0.00000E+00
    0.00000E+00         0.00000E+00        -0.58515E+08
 
   -0.57831E+08         0.14624E+06         0.00000E+00
    0.14624E+06        -0.49983E+08         0.00000E+00
    0.00000E+00         0.00000E+00        -0.58511E+08
 
   -0.57820E+08         0.17485E+06         0.00000E+00
    0.17485E+06        -0.49976E+08         0.00000E+00
    0.00000E+00         0.00000E+00        -0.58507E+08
 
   -0.57811E+08         0.20424E+06         0.00000E+00
    0.20424E+06        -0.49968E+08         0.00000E+00
    0.00000E+00         0.00000E+00        -0.58504E+08
 
   -0.57805E+08         0.23446E+06         0.00000E+00
    0.23446E+06        -0.49959E+08         0.00000E+00
    0.00000E+00         0.00000E+00        -0.58501E+08
 
   -0.57801E+08         0.26558E+06         0.00000E+00
    0.26558E+06        -0.49950E+08         0.00000E+00
    0.00000E+00         0.00000E+00        -0.58498E+08
 
   -0.57799E+08         0.29763E+06         0.00000E+00
    0.29763E+06        -0.49939E+08         0.00000E+00
    0.00000E+00         0.00000E+00        -0.58496E+08
 
   -0.57799E+08         0.33067E+06         0.00000E+00
    0.33067E+06        -0.49928E+08         0.00000E+00
    0.00000E+00         0.00000E+00        -0.58493E+08
 
   -0.57801E+08         0.36473E+06         0.00000E+00
    0.36473E+06        -0.49916E+08         0.00000E+00
    0.00000E+00         0.00000E+00        -0.58491E+08
 
   -0.57805E+08         0.39986E+06         0.00000E+00
    0.39986E+06        -0.49904E+08         0.00000E+00
    0.00000E+00         0.00000E+00        -0.58490E+08
 
   -0.57811E+08         0.43607E+06         0.00000E+00
    0.43607E+06        -0.49891E+08         0.00000E+00
    0.00000E+00         0.00000E+00        -0.58488E+08
 
   -0.57819E+08         0.47342E+06         0.00000E+00
    0.47342E+06        -0.49877E+08         0.00000E+00
    0.00000E+00         0.00000E+00        -0.58487E+08
 
   -0.57828E+08         0.51191E+06         0.00000E+00
    0.51191E+06        -0.49863E+08         0.00000E+00
    0.00000E+00         0.00000E+00        -0.58486E+08
 
   -0.57839E+08         0.55157E+06         0.00000E+00
    0.55157E+06        -0.49848E+08         0.00000E+00
    0.00000E+00         0.00000E+00        -0.58485E+08
 
   -0.57851E+08         0.59242E+06         0.00000E+00
    0.59242E+06        -0.49833E+08         0.00000E+00
    0.00000E+00         0.00000E+00        -0.58485E+08
 
   -0.57864E+08         0.63447E+06         0.00000E+00
    0.63447E+06        -0.49818E+08         0.00000E+00
    0.00000E+00         0.00000E+00        -0.58485E+08
 
   -0.57879E+08         0.67775E+06         0.00000E+00
    0.67775E+06        -0.49802E+08         0.00000E+00
    0.00000E+00         0.00000E+00        -0.58484E+08
 
   -0.57895E+08         0.72225E+06         0.00000E+00
    0.72225E+06        -0.49786E+08         0.00000E+00
    0.00000E+00         0.00000E+00        -0.58484E+08
 
   -0.57912E+08         0.76799E+06         0.00000E+00
    0.76799E+06        -0.49770E+08         0.00000E+00
    0.00000E+00         0.00000E+00        -0.58485E+08
 
   -0.57930E+08         0.81496E+06         0.00000E+00
    0.81496E+06        -0.49753E+08         0.00000E+00
    0.00000E+00         0.00000E+00        -0.58485E+08
 
   -0.57948E+08         0.86319E+06         0.00000E+00
    0.86319E+06        -0.49737E+08         0.00000E+00
    0.00000E+00         0.00000E+00        -0.58486E+08
 
   -0.57968E+08         0.91265E+06         0.00000E+00
    0.91265E+06        -0.49720E+08         0.00000E+00
    0.00000E+00         0.00000E+00        -0.58486E+08
 
   -0.57989E+08         0.96335E+06         0.00000E+00
    0.96335E+06        -0.49703E+08         0.00000E+00
    0.00000E+00         0.00000E+00        -0.58487E+08
 
   -0.58010E+08         0.10153E+07         0.00000E+00
    0.10153E+07        -0.49686E+08         0.00000E+00
    0.00000E+00         0.00000E+00        -0.58488E+08
 
   -0.58031E+08         0.10685E+07         0.00000E+00
    0.10685E+07        -0.49670E+08         0.00000E+00
    0.00000E+00         0.00000E+00        -0.58489E+08
 
   -0.58053E+08         0.11228E+07         0.00000E+00
    0.11228E+07        -0.49653E+08         0.00000E+00
    0.00000E+00         0.00000E+00        -0.58490E+08
 
   -0.58076E+08         0.11784E+07         0.00000E+00
    0.11784E+07        -0.49636E+08         0.00000E+00
    0.00000E+00         0.00000E+00        -0.58491E+08
 
   -0.58099E+08         0.12352E+07         0.00000E+00
    0.12352E+07        -0.49620E+08         0.00000E+00
    0.00000E+00         0.00000E+00        -0.58493E+08
 
   -0.58123E+08         0.12932E+07         0.00000E+00
    0.12932E+07        -0.49603E+08         0.00000E+00
    0.00000E+00         0.00000E+00        -0.58494E+08
 
   -0.58146E+08         0.13523E+07         0.00000E+00
    0.13523E+07        -0.49587E+08         0.00000E+00
    0.00000E+00         0.00000E+00        -0.58496E+08
 
   -0.58170E+08         0.14126E+07         0.00000E+00
    0.14126E+07        -0.49571E+08         0.00000E+00
    0.00000E+00         0.00000E+00        -0.58497E+08
 
   -0.58194E+08         0.14740E+07         0.00000E+00
    0.14740E+07        -0.49555E+08         0.00000E+00
    0.00000E+00         0.00000E+00        -0.58499E+08
 
   -0.58218E+08         0.15365E+07         0.00000E+00
    0.15365E+07        -0.49540E+08         0.00000E+00
    0.00000E+00         0.00000E+00        -0.58501E+08
 
   -0.58242E+08         0.16001E+07         0.00000E+00
    0.16001E+07        -0.49525E+08         0.00000E+00
    0.00000E+00         0.00000E+00        -0.58503E+08
 
   -0.58266E+08         0.16648E+07         0.00000E+00
    0.16648E+07        -0.49510E+08         0.00000E+00
    0.00000E+00         0.00000E+00        -0.58505E+08
 
   -0.58290E+08         0.17305E+07         0.00000E+00
    0.17305E+07        -0.49495E+08         0.00000E+00
    0.00000E+00         0.00000E+00        -0.58507E+08
 
   -0.58314E+08         0.17972E+07         0.00000E+00
    0.17972E+07        -0.49481E+08         0.00000E+00
    0.00000E+00         0.00000E+00        -0.58509E+08
 
   -0.58338E+08         0.18649E+07         0.00000E+00
    0.18649E+07        -0.49468E+08         0.00000E+00
    0.00000E+00         0.00000E+00        -0.58511E+08
 
   -0.58362E+08         0.19335E+07         0.00000E+00
    0.19335E+07        -0.49454E+08         0.00000E+00
    0.00000E+00         0.00000E+00        -0.58513E+08
 
   -0.58385E+08         0.20030E+07         0.00000E+00
    0.20030E+07        -0.49441E+08         0.00000E+00
    0.00000E+00         0.00000E+00        -0.58515E+08
 
   -0.58408E+08         0.20735E+07         0.00000E+00
    0.20735E+07        -0.49429E+08         0.00000E+00
    0.00000E+00         0.00000E+00        -0.58517E+08
 
   -0.58431E+08         0.21448E+07         0.00000E+00
    0.21448E+07        -0.49417E+08         0.00000E+00
    0.00000E+00         0.00000E+00        -0.58519E+08
 
   -0.58453E+08         0.22169E+07         0.00000E+00
    0.22169E+07        -0.49406E+08         0.00000E+00
    0.00000E+00         0.00000E+00        -0.58522E+08
 
   -0.58476E+08         0.22898E+07         0.00000E+00
    0.22898E+07        -0.49395E+08         0.00000E+00
    0.00000E+00         0.00000E+00        -0.58524E+08
 
   -0.58498E+08         0.23635E+07         0.00000E+00
    0.23635E+07        -0.49384E+08         0.00000E+00
    0.00000E+00         0.00000E+00        -0.58526E+08
 
   -0.58519E+08         0.24379E+07         0.00000E+00
    0.24379E+07        -0.49374E+08         0.00000E+00
    0.00000E+00         0.00000E+00        -0.58529E+08
 
   -0.57785E+08         0.15569E+05         0.00000E+00
    0.15569E+05        -0.50001E+08         0.00000E+00
    0.00000E+00         0.00000E+00        -0.58193E+08
 
   -0.57759E+08         0.46965E+05         0.00000E+00
    0.46965E+05        -0.49999E+08         0.00000E+00
    0.00000E+00         0.00000E+00        -0.58188E+08
 
   -0.57735E+08         0.78577E+05         0.00000E+00
    0.78577E+05        -0.49997E+08         0.00000E+00
    0.00000E+00         0.00000E+00        -0.58183E+08
 
   -0.57714E+08         0.11048E+06         0.00000E+00
    0.11048E+06        -0.49994E+08         0.00000E+00
    0.00000E+00         0.00000E+00        -0.58178E+08
 
   -0.57695E+08         0.14274E+06         0.00000E+00
    0.14274E+06        -0.49990E+08         0.00000E+00
    0.00000E+00         0.00000E+00        -0.58173E+08
 
   -0.57678E+08         0.17544E+06         0.00000E+00
    0.17544E+06        -0.49985E+08         0.00000E+00
    0.00000E+00         0.00000E+00        -0.58169E+08
 
   -0.57664E+08         0.20863E+06         0.00000E+00
    0.20863E+06        -0.49979E+08         0.00000E+00
    0.00000E+00         0.00000E+00        -0.58165E+08
 
   -0.57651E+08         0.24237E+06         0.00000E+00
    0.24237E+06        -0.49973E+08         0.00000E+00
    0.00000E+00         0.00000E+00        -0.58161E+08
 
   -0.57641E+08         0.27672E+06         0.00000E+00
    0.27672E+06        -0.49965E+08         0.00000E+00
    0.00000E+00         0.00000E+00        -0.58158E+08
 
   -0.57633E+08         0.31173E+06         0.00000E+00
    0.31173E+06        -0.49957E+08         0.00000E+00
    0.00000E+00         0.00000E+00        -0.58154E+08
 
   -0.57627E+08         0.34745E+06         0.00000E+00
    0.34745E+06        -0.49948E+08         0.00000E+00
    0.00000E+00         0.00000E+00        -0.58151E+08
 
   -0.57623E+08         0.38392E+06         0.00000E+00
    0.38392E+06        -0.49939E+08         0.00000E+00
    0.00000E+00         0.00000E+00        -0.58149E+08
 
   -0.57620E+08         0.42118E+06         0.00000E+00
    0.42118E+06        -0.49929E+08         0.00000E+00
    0.00000E+00         0.00000E+00        -0.58146E+08
 
   -0.57620E+08         0.45928E+06         0.00000E+00
    0.45928E+06        -0.49918E+08         0.00000E+00
    0.00000E+00         0.00000E+00        -0.58144E+08
 
   -0.57621E+08         0.49824E+06         0.00000E+00
    0.49824E+06        -0.49907E+08         0.00000E+00
    0.00000E+00         0.00000E+00        -0.58142E+08
 
   -0.57623E+08         0.53810E+06         0.00000E+00
    0.53810E+06        -0.49895E+08         0.00000E+00
    0.00000E+00         0.00000E+00        -0.58140E+08
 
   -0.57627E+08         0.57888E+06         0.00000E+00
    0.57888E+06        -0.49883E+08         0.00000E+00
    0.00000E+00         0.00000E+00        -0.58138E+08
 
   -0.57632E+08         0.62061E+06         0.00000E+00
    0.62061E+06        -0.49870E+08         0.00000E+00
    0.00000E+00         0.00000E+00        -0.58137E+08
 
   -0.57639E+08         0.66331E+06         0.00000E+00
    0.66331E+06        -0.49857E+08         0.00000E+00
    0.00000E+00         0.00000E+00        -0.58135E+08
 
   -0.57647E+08         0.70701E+06         0.00000E+00
    0.70701E+06        -0.49844E+08         0.00000E+00
    0.00000E+00         0.00000E+00        -0.58134E+08
 
   -0.57656E+08         0.75170E+06         0.00000E+00
    0.75170E+06        -0.49830E+08         0.00000E+00
    0.00000E+00         0.00000E+00        -0.58134E+08
 
   -0.57666E+08         0.79742E+06         0.00000E+00
    0.79742E+06        -0.49816E+08         0.00000E+00
    0.00000E+00         0.00000E+00        -0.58133E+08
 
   -0.57678E+08         0.84417E+06         0.00000E+00
    0.84417E+06        -0.49802E+08         0.00000E+00
    0.00000E+00         0.00000E+00        -0.58132E+08
 
   -0.57690E+08         0.89196E+06         0.00000E+00
    0.89196E+06        -0.49788E+08         0.00000E+00
    0.00000E+00         0.00000E+00        -0.58132E+08
 
   -0.57703E+08         0.94079E+06         0.00000E+00
    0.94079E+06        -0.49773E+08         0.00000E+00
    0.00000E+00         0.00000E+00        -0.58132E+08
 
   -0.57717E+08         0.99068E+06         0.00000E+00
    0.99068E+06        -0.49759E+08         0.00000E+00
    0.00000E+00         0.00000E+00        -0.58132E+08
 
   -0.57732E+08         0.10416E+07         0.00000E+00
    0.10416E+07        -0.49744E+08         0.00000E+00
    0.00000E+00         0.00000E+00        -0.58132E+08
 
   -0.57747E+08         0.10936E+07         0.00000E+00
    0.10936E+07        -0.49730E+08         0.00000E+00
    0.00000E+00         0.00000E+00        -0.58132E+08
 
   -0.57763E+08         0.11466E+07         0.00000E+00
    0.11466E+07        -0.49715E+08         0.00000E+00
    0.00000E+00         0.00000E+00        -0.58132E+08
 
   -0.57780E+08         0.12007E+07         0.00000E+00
    0.12007E+07        -0.49701E+08         0.00000E+00
    0.00000E+00         0.00000E+00        -0.58133E+08
 
   -0.57797E+08         0.12559E+07         0.00000E+00
    0.12559E+07        -0.49686E+08         0.00000E+00
    0.00000E+00         0.00000E+00        -0.58133E+08
 
   -0.57814E+08         0.13120E+07         0.00000E+00
    0.13120E+07        -0.49672E+08         0.00000E+00
    0.00000E+00         0.00000E+00        -0.58134E+08
 
   -0.57832E+08         0.13692E+07         0.00000E+00
    0.13692E+07        -0.49658E+08         0.00000E+00
    0.00000E+00         0.00000E+00        -0.58135E+08
 
   -0.57850E+08         0.14274E+07         0.00000E+00
    0.14274E+07        -0.49644E+08         0.00000E+00
    0.00000E+00         0.00000E+00        -0.58136E+08
 
   -0.57869E+08         0.14866E+07         0.00000E+00
    0.14866E+07        -0.49630E+08         0.00000E+00
    0.00000E+00         0.00000E+00        -0.58137E+08
 
   -0.57888E+08         0.15468E+07         0.00000E+00
    0.15468E+07        -0.49616E+08         0.00000E+00
    0.00000E+00         0.00000E+00        -0.58138E+08
 
   -0.57906E+08         0.16079E+07         0.00000E+00
    0.16079E+07        -0.49603E+08         0.00000E+00
    0.00000E+00         0.00000E+00        -0.58139E+08
 
   -0.57926E+08         0.16700E+07         0.00000E+00
    0.16700E+07        -0.49590E+08         0.00000E+00
    0.00000E+00         0.00000E+00        -0.58140E+08
 
   -0.57945E+08         0.17331E+07         0.00000E+00
    0.17331E+07        -0.49577E+08         0.00000E+00
    0.00000E+00         0.00000E+00        -0.58141E+08
 
   -0.57964E+08         0.17970E+07         0.00000E+00
    0.17970E+07        -0.49564E+08         0.00000E+00
    0.00000E+00         0.00000E+00        -0.58143E+08
 
   -0.57983E+08         0.18619E+07         0.00000E+00
    0.18619E+07        -0.49552E+08         0.00000E+00
    0.00000E+00         0.00000E+00        -0.58144E+08
 
   -0.58002E+08         0.19276E+07         0.00000E+00
    0.19276E+07        -0.49540E+08         0.00000E+00
    0.00000E+00         0.00000E+00        -0.58146E+08
 
   -0.58021E+08         0.19942E+07         0.00000E+00
    0.19942E+07        -0.49529E+08         0.00000E+00
    0.00000E+00         0.00000E+00        -0.58147E+08
 
   -0.58041E+08         0.20616E+07         0.00000E+00
    0.20616E+07        -0.49518E+08         0.00000E+00
    0.00000E+00         0.00000E+00        -0.58149E+08
 
   -0.58059E+08         0.21299E+07         0.00000E+00
    0.21299E+07        -0.49507E+08         0.00000E+00
    0.00000E+00         0.00000E+00        -0.58150E+08
 
   -0.58078E+08         0.21989E+07         0.00000E+00
    0.21989E+07        -0.49497E+08         0.00000E+00
    0.00000E+00         0.00000E+00        -0.58152E+08
 
   -0.58097E+08         0.22687E+07         0.00000E+00
    0.22687E+07        -0.49487E+08         0.00000E+00
    0.00000E+00         0.00000E+00        -0.58154E+08
 
   -0.58115E+08         0.23392E+07         0.00000E+00
    0.23392E+07        -0.49478E+08         0.00000E+00
    0.00000E+00         0.00000E+00        -0.58156E+08
 
   -0.58134E+08         0.24105E+07         0.00000E+00
    0.24105E+07        -0.49469E+08         0.00000E+00
    0.00000E+00         0.00000E+00        -0.58158E+08
 
   -0.58152E+08         0.24824E+07         0.00000E+00
    0.24824E+07        -0.49461E+08         0.00000E+00
    0.00000E+00         0.00000E+00        -0.58160E+08
 
   -0.57617E+08         0.18094E+05         0.00000E+00
    0.18094E+05        -0.50001E+08         0.00000E+00
    0.00000E+00         0.00000E+00        -0.57858E+08
 
   -0.57590E+08         0.54217E+05         0.00000E+00
    0.54217E+05        -0.50000E+08         0.00000E+00
    0.00000E+00         0.00000E+00        -0.57853E+08
 
   -0.57565E+08         0.90406E+05         0.00000E+00
    0.90406E+05        -0.49998E+08         0.00000E+00
    0.00000E+00         0.00000E+00        -0.57847E+08
 
   -0.57542E+08         0.12673E+06         0.00000E+00
    0.12673E+06        -0.49995E+08         0.00000E+00
    0.00000E+00         0.00000E+00        -0.57842E+08
 
   -0.57522E+08         0.16325E+06         0.00000E+00
    0.16325E+06        -0.49992E+08         0.00000E+00
    0.00000E+00         0.00000E+00        -0.57838E+08
 
   -0.57503E+08         0.20003E+06         0.00000E+00
    0.20003E+06        -0.49988E+08         0.00000E+00
    0.00000E+00         0.00000E+00        -0.57833E+08
 
   -0.57487E+08         0.23713E+06         0.00000E+00
    0.23713E+06        -0.49983E+08         0.00000E+00
    0.00000E+00         0.00000E+00        -0.57829E+08
 
   -0.57472E+08         0.27461E+06         0.00000E+00
    0.27461E+06        -0.49977E+08         0.00000E+00
    0.00000E+00         0.00000E+00        -0.57825E+08
 
   -0.57459E+08         0.31251E+06         0.00000E+00
    0.31251E+06        -0.49971E+08         0.00000E+00
    0.00000E+00         0.00000E+00        -0.57821E+08
 
   -0.57448E+08         0.35088E+06         0.00000E+00
    0.35088E+06        -0.49964E+08         0.00000E+00
    0.00000E+00         0.00000E+00        -0.57817E+08
 
   -0.57439E+08         0.38978E+06         0.00000E+00
    0.38978E+06        -0.49957E+08         0.00000E+00
    0.00000E+00         0.00000E+00        -0.57814E+08
 
   -0.57431E+08         0.42923E+06         0.00000E+00
    0.42923E+06        -0.49949E+08         0.00000E+00
    0.00000E+00         0.00000E+00        -0.57811E+08
 
   -0.57425E+08         0.46929E+06         0.00000E+00
    0.46929E+06        -0.49940E+08         0.00000E+00
    0.00000E+00         0.00000E+00        -0.57808E+08
 
   -0.57421E+08         0.50999E+06         0.00000E+00
    0.50999E+06        -0.49931E+08         0.00000E+00
    0.00000E+00         0.00000E+00        -0.57805E+08
 
   -0.57418E+08         0.55136E+06         0.00000E+00
    0.55136E+06        -0.49921E+08         0.00000E+00
    0.00000E+00         0.00000E+00        -0.57803E+08
 
   -0.57416E+08         0.59344E+06         0.00000E+00
    0.59344E+06        -0.49911E+08         0.00000E+00
    0.00000E+00         0.00000E+00        -0.57800E+08
 
   -0.57416E+08         0.63625E+06         0.00000E+00
    0.63625E+06        -0.49901E+08         0.00000E+00
    0.00000E+00         0.00000E+00        -0.57798E+08
 
   -0.57417E+08         0.67981E+06         0.00000E+00
    0.67981E+06        -0.49890E+08         0.00000E+00
    0.00000E+00         0.00000E+00        -0.57796E+08
 
   -0.57419E+08         0.72416E+06         0.00000E+00
    0.72416E+06        -0.49879E+08         0.00000E+00
    0.00000E+00         0.00000E+00        -0.57794E+08
 
   -0.57423E+08         0.76931E+06         0.00000E+00
    0.76931E+06        -0.49868E+08         0.00000E+00
    0.00000E+00         0.00000E+00        -0.57793E+08
 
   -0.57427E+08         0.81528E+06         0.00000E+00
    0.81528E+06        -0.49856E+08         0.00000E+00
    0.00000E+00         0.00000E+00        -0.57791E+08
 
   -0.57433E+08         0.86209E+06         0.00000E+00
    0.86209E+06        -0.49844E+08         0.00000E+00
    0.00000E+00         0.00000E+00        -0.57790E+08
 
   -0.57439E+08         0.90975E+06         0.00000E+00
    0.90975E+06        -0.49832E+08         0.00000E+00
    0.00000E+00         0.00000E+00        -0.57789E+08
 
   -0.57447E+08         0.95827E+06         0.00000E+00
    0.95827E+06        -0.49820E+08         0.00000E+00
    0.00000E+00         0.00000E+00        -0.57788E+08
 
   -0.57455E+08         0.10077E+07         0.00000E+00
    0.10077E+07        -0.49808E+08         0.00000E+00
    0.00000E+00         0.00000E+00        -0.57787E+08
 
   -0.57464E+08         0.10579E+07         0.00000E+00
    0.10579E+07        -0.49796E+08         0.00000E+00
    0.00000E+00         0.00000E+00        -0.57787E+08
 
   -0.57474E+08         0.11091E+07         0.00000E+00
    0.11091E+07        -0.49783E+08         0.00000E+00
    0.00000E+00         0.00000E+00        -0.57786E+08
 
   -0.57484E+08         0.11611E+07         0.00000E+00
    0.11611E+07        -0.49771E+08         0.00000E+00
    0.00000E+00         0.00000E+00        -0.57786E+08
 
   -0.57496E+08         0.12141E+07         0.00000E+00
    0.12141E+07        -0.49758E+08         0.00000E+00
    0.00000E+00         0.00000E+00        -0.57785E+08
 
   -0.57507E+08         0.12679E+07         0.00000E+00
    0.12679E+07        -0.49746E+08         0.00000E+00
    0.00000E+00         0.00000E+00        -0.57785E+08
 
   -0.57520E+08         0.13226E+07         0.00000E+00
    0.13226E+07        -0.49733E+08         0.00000E+00
    0.00000E+00         0.00000E+00        -0.57785E+08
 
   -0.57532E+08         0.13782E+07         0.00000E+00
    0.13782E+07        -0.49721E+08         0.00000E+00
    0.00000E+00         0.00000E+00        -0.57785E+08
 
   -0.57546E+08         0.14347E+07         0.00000E+00
    0.14347E+07        -0.49709E+08         0.00000E+00
    0.00000E+00         0.00000E+00        -0.57786E+08
 
   -0.57559E+08         0.14921E+07         0.00000E+00
    0.14921E+07        -0.49697E+08         0.00000E+00
    0.00000E+00         0.00000E+00        -0.57786E+08
 
   -0.57573E+08         0.15503E+07         0.00000E+00
    0.15503E+07        -0.49685E+08         0.00000E+00
    0.00000E+00         0.00000E+00        -0.57786E+08
 
   -0.57587E+08         0.16094E+07         0.00000E+00
    0.16094E+07        -0.49673E+08         0.00000E+00
    0.00000E+00         0.00000E+00        -0.57787E+08
 
   -0.57602E+08         0.16693E+07         0.00000E+00
    0.16693E+07        -0.49662E+08         0.00000E+00
    0.00000E+00         0.00000E+00        -0.57788E+08
 
   -0.57616E+08         0.17301E+07         0.00000E+00
    0.17301E+07        -0.49651E+08         0.00000E+00
    0.00000E+00         0.00000E+00        -0.57788E+08
 
   -0.57631E+08         0.17917E+07         0.00000E+00
    0.17917E+07        -0.49640E+08         0.00000E+00
    0.00000E+00         0.00000E+00        -0.57789E+08
 
   -0.57646E+08         0.18541E+07         0.00000E+00
    0.18541E+07        -0.49629E+08         0.00000E+00
    0.00000E+00         0.00000E+00        -0.57790E+08
 
   -0.57661E+08         0.19173E+07         0.00000E+00
    0.19173E+07        -0.49619E+08         0.00000E+00
    0.00000E+00         0.00000E+00        -0.57791E+08
 
   -0.57676E+08         0.19813E+07         0.00000E+00
    0.19813E+07        -0.49609E+08         0.00000E+00
    0.00000E+00         0.00000E+00        -0.57792E+08
 
   -0.57691E+08         0.20460E+07         0.00000E+00
    0.20460E+07        -0.49599E+08         0.00000E+00
    0.00000E+00         0.00000E+00        -0.57793E+08
 
   -0.57706E+08         0.21116E+07         0.00000E+00
    0.21116E+07        -0.49590E+08         0.00000E+00
    0.00000E+00         0.00000E+00        -0.57794E+08
 
   -0.57721E+08         0.21778E+07         0.00000E+00
    0.21778E+07        -0.49581E+08         0.00000E+00
    0.00000E+00         0.00000E+00        -0.57795E+08
 
   -0.57737E+08         0.22448E+07         0.00000E+00
    0.22448E+07        -0.49572E+08         0.00000E+00
    0.00000E+00         0.00000E+00        -0.57797E+08
 
   -0.57752E+08         0.23125E+07         0.00000E+00
    0.23125E+07        -0.49564E+08         0.00000E+00
    0.00000E+00         0.00000E+00        -0.57798E+08
 
   -0.57766E+08         0.23808E+07         0.00000E+00
    0.23808E+07        -0.49556E+08         0.00000E+00
    0.00000E+00         0.00000E+00        -0.57800E+08
 
   -0.57781E+08         0.24499E+07         0.00000E+00
    0.24499E+07        -0.49549E+08         0.00000E+00
    0.00000E+00         0.00000E+00        -0.57801E+08
 
   -0.57796E+08         0.25196E+07         0.00000E+00
    0.25196E+07        -0.49542E+08         0.00000E+00
    0.00000E+00         0.00000E+00        -0.57803E+08
 
   -0.57426E+08         0.20161E+05         0.00000E+00
    0.20161E+05        -0.50000E+08         0.00000E+00
    0.00000E+00         0.00000E+00        -0.57529E+08
 
   -0.57399E+08         0.60191E+05         0.00000E+00
    0.60191E+05        -0.50000E+08         0.00000E+00
    0.00000E+00         0.00000E+00        -0.57523E+08
 
   -0.57374E+08         0.10018E+06         0.00000E+00
    0.10018E+06        -0.49998E+08         0.00000E+00
    0.00000E+00         0.00000E+00        -0.57518E+08
 
   -0.57351E+08         0.14019E+06         0.00000E+00
    0.14019E+06        -0.49996E+08         0.00000E+00
    0.00000E+00         0.00000E+00        -0.57513E+08
 
   -0.57329E+08         0.18027E+06         0.00000E+00
    0.18027E+06        -0.49993E+08         0.00000E+00
    0.00000E+00         0.00000E+00        -0.57508E+08
 
   -0.57310E+08         0.22048E+06         0.00000E+00
    0.22048E+06        -0.49990E+08         0.00000E+00
    0.00000E+00         0.00000E+00        -0.57503E+08
 
   -0.57292E+08         0.26088E+06         0.00000E+00
    0.26088E+06        -0.49986E+08         0.00000E+00
    0.00000E+00         0.00000E+00        -0.57499E+08
 
   -0.57276E+08         0.30151E+06         0.00000E+00
    0.30151E+06        -0.49981E+08         0.00000E+00
    0.00000E+00         0.00000E+00        -0.57495E+08
 
   -0.57261E+08         0.34242E+06         0.00000E+00
    0.34242E+06        -0.49976E+08         0.00000E+00
    0.00000E+00         0.00000E+00        -0.57491E+08
 
   -0.57248E+08         0.38366E+06         0.00000E+00
    0.38366E+06        -0.49970E+08         0.00000E+00
    0.00000E+00         0.00000E+00        -0.57487E+08
 
   -0.57236E+08         0.42527E+06         0.00000E+00
    0.42527E+06        -0.49964E+08         0.00000E+00
    0.00000E+00         0.00000E+00        -0.57483E+08
 
   -0.57226E+08         0.46728E+06         0.00000E+00
    0.46728E+06        -0.49958E+08         0.00000E+00
    0.00000E+00         0.00000E+00        -0.57480E+08
 
   -0.57217E+08         0.50974E+06         0.00000E+00
    0.50974E+06        -0.49950E+08         0.00000E+00
    0.00000E+00         0.00000E+00        -0.57477E+08
 
   -0.57210E+08         0.55268E+06         0.00000E+00
    0.55268E+06        -0.49943E+08         0.00000E+00
    0.00000E+00         0.00000E+00        -0.57474E+08
 
   -0.57204E+08         0.59613E+06         0.00000E+00
    0.59613E+06        -0.49935E+08         0.00000E+00
    0.00000E+00         0.00000E+00        -0.57471E+08
 
   -0.57199E+08         0.64013E+06         0.00000E+00
    0.64013E+06        -0.49926E+08         0.00000E+00
    0.00000E+00         0.00000E+00        -0.57468E+08
 
   -0.57196E+08         0.68470E+06         0.00000E+00
    0.68470E+06        -0.49918E+08         0.00000E+00
    0.00000E+00         0.00000E+00        -0.57466E+08
 
   -0.57193E+08         0.72987E+06         0.00000E+00
    0.72987E+06        -0.49909E+08         0.00000E+00
    0.00000E+00         0.00000E+00        -0.57463E+08
 
   -0.57192E+08         0.77565E+06         0.00000E+00
    0.77565E+06        -0.49899E+08         0.00000E+00
    0.00000E+00         0.00000E+00        -0.57461E+08
 
   -0.57192E+08         0.82208E+06         0.00000E+00
    0.82208E+06        -0.49890E+08         0.00000E+00
    0.00000E+00         0.00000E+00        -0.57459E+08
 
   -0.57193E+08         0.86917E+06         0.00000E+00
    0.86917E+06        -0.49880E+08         0.00000E+00
    0.00000E+00         0.00000E+00        -0.57457E+08
 
   -0.57194E+08         0.91694E+06         0.00000E+00
    0.91694E+06        -0.49870E+08         0.00000E+00
    0.00000E+00         0.00000E+00        -0.57456E+08
 
   -0.57197E+08         0.96540E+06         0.00000E+00
    0.96540E+06        -0.49860E+08         0.00000E+00
    0.00000E+00         0.00000E+00        -0.57454E+08
 
   -0.57200E+08         0.10146E+07         0.00000E+00
    0.10146E+07        -0.49850E+08         0.00000E+00
    0.00000E+00         0.00000E+00        -0.57453E+08
 
   -0.57205E+08         0.10645E+07         0.00000E+00
    0.10645E+07        -0.49839E+08         0.00000E+00
    0.00000E+00         0.00000E+00        -0.57452E+08
 
   -0.57210E+08         0.11151E+07         0.00000E+00
    0.11151E+07        -0.49829E+08         0.00000E+00
    0.00000E+00         0.00000E+00        -0.57450E+08
 
   -0.57216E+08         0.11664E+07         0.00000E+00
    0.11664E+07        -0.49818E+08         0.00000E+00
    0.00000E+00         0.00000E+00        -0.57450E+08
 
   -0.57222E+08         0.12185E+07         0.00000E+00
    0.12185E+07        -0.49808E+08         0.00000E+00
    0.00000E+00         0.00000E+00        -0.57449E+08
 
   -0.57229E+08         0.12714E+07         0.00000E+00
    0.12714E+07        -0.49797E+08         0.00000E+00
    0.00000E+00         0.00000E+00        -0.57448E+08
 
   -0.57237E+08         0.13250E+07         0.00000E+00
    0.13250E+07        -0.49787E+08         0.00000E+00
    0.00000E+00         0.00000E+00        -0.57447E+08
 
   -0.57245E+08         0.13794E+07         0.00000E+00
    0.13794E+07        -0.49776E+08         0.00000E+00
    0.00000E+00         0.00000E+00        -0.57447E+08
 
   -0.57254E+08         0.14345E+07         0.00000E+00
    0.14345E+07        -0.49766E+08         0.00000E+00
    0.00000E+00         0.00000E+00        -0.57447E+08
 
   -0.57263E+08         0.14903E+07         0.00000E+00
    0.14903E+07        -0.49756E+08         0.00000E+00
    0.00000E+00         0.00000E+00        -0.57446E+08
 
   -0.57272E+08         0.15469E+07         0.00000E+00
    0.15469E+07        -0.49746E+08         0.00000E+00
    0.00000E+00         0.00000E+00        -0.57446E+08
 
   -0.57282E+08         0.16043E+07         0.00000E+00
    0.16043E+07        -0.49736E+08         0.00000E+00
    0.00000E+00         0.00000E+00        -0.57446E+08
 
   -0.57292E+08         0.16624E+07         0.00000E+00
    0.16624E+07        -0.49726E+08         0.00000E+00
    0.00000E+00         0.00000E+00        -0.57446E+08
 
   -0.57303E+08         0.17213E+07         0.00000E+00
    0.17213E+07        -0.49716E+08         0.00000E+00
    0.00000E+00         0.00000E+00        -0.57446E+08
 
   -0.57313E+08         0.17808E+07         0.00000E+00
    0.17808E+07        -0.49707E+08         0.00000E+00
    0.00000E+00         0.00000E+00        -0.57447E+08
 
   -0.57324E+08         0.18412E+07         0.00000E+00
    0.18412E+07        -0.49698E+08         0.00000E+00
    0.00000E+00         0.00000E+00        -0.57447E+08
 
   -0.57335E+08         0.19022E+07         0.00000E+00
    0.19022E+07        -0.49689E+08         0.00000E+00
    0.00000E+00         0.00000E+00        -0.57448E+08
 
   -0.57347E+08         0.19639E+07         0.00000E+00
    0.19639E+07        -0.49680E+08         0.00000E+00
    0.00000E+00         0.00000E+00        -0.57448E+08
 
   -0.57358E+08         0.20263E+07         0.00000E+00
    0.20263E+07        -0.49672E+08         0.00000E+00
    0.00000E+00         0.00000E+00        -0.57449E+08
 
   -0.57370E+08         0.20895E+07         0.00000E+00
    0.20895E+07        -0.49664E+08         0.00000E+00
    0.00000E+00         0.00000E+00        -0.57449E+08
 
   -0.57381E+08         0.21533E+07         0.00000E+00
    0.21533E+07        -0.49656E+08         0.00000E+00
    0.00000E+00         0.00000E+00        -0.57450E+08
 
   -0.57393E+08         0.22177E+07         0.00000E+00
    0.22177E+07        -0.49649E+08         0.00000E+00
    0.00000E+00         0.00000E+00        -0.57451E+08
 
   -0.57405E+08         0.22828E+07         0.00000E+00
    0.22828E+07        -0.49641E+08         0.00000E+00
    0.00000E+00         0.00000E+00        -0.57452E+08
 
   -0.57416E+08         0.23486E+07         0.00000E+00
    0.23486E+07        -0.49635E+08         0.00000E+00
    0.00000E+00         0.00000E+00        -0.57453E+08
 
   -0.57428E+08         0.24150E+07         0.00000E+00
    0.24150E+07        -0.49628E+08         0.00000E+00
    0.00000E+00         0.00000E+00        -0.57454E+08
 
   -0.57440E+08         0.24821E+07         0.00000E+00
    0.24821E+07        -0.49623E+08         0.00000E+00
    0.00000E+00         0.00000E+00        -0.57455E+08
 
   -0.57451E+08         0.25497E+07         0.00000E+00
    0.25497E+07        -0.49617E+08         0.00000E+00
    0.00000E+00         0.00000E+00        -0.57456E+08
 
   -0.57217E+08         0.21831E+05         0.00000E+00
    0.21831E+05        -0.50000E+08         0.00000E+00
    0.00000E+00         0.00000E+00        -0.57204E+08
 
   -0.57191E+08         0.65050E+05         0.00000E+00
    0.65050E+05        -0.50000E+08         0.00000E+00
    0.00000E+00         0.00000E+00        -0.57199E+08
 
   -0.57166E+08         0.10815E+06         0.00000E+00
    0.10815E+06        -0.49999E+08         0.00000E+00
    0.00000E+00         0.00000E+00        -0.57194E+08
 
   -0.57143E+08         0.15119E+06         0.00000E+00
    0.15119E+06        -0.49997E+08         0.00000E+00
    0.00000E+00         0.00000E+00        -0.57189E+08
 
   -0.57121E+08         0.19421E+06         0.00000E+00
    0.19421E+06        -0.49995E+08         0.00000E+00
    0.00000E+00         0.00000E+00        -0.57184E+08
 
   -0.57101E+08         0.23727E+06         0.00000E+00
    0.23727E+06        -0.49992E+08         0.00000E+00
    0.00000E+00         0.00000E+00        -0.57180E+08
 
   -0.57082E+08         0.28041E+06         0.00000E+00
    0.28041E+06        -0.49989E+08         0.00000E+00
    0.00000E+00         0.00000E+00        -0.57175E+08
 
   -0.57065E+08         0.32367E+06         0.00000E+00
    0.32367E+06        -0.49985E+08         0.00000E+00
    0.00000E+00         0.00000E+00        -0.57171E+08
 
   -0.57049E+08         0.36710E+06         0.00000E+00
    0.36710E+06        -0.49981E+08         0.00000E+00
    0.00000E+00         0.00000E+00        -0.57167E+08
 
   -0.57035E+08         0.41075E+06         0.00000E+00
    0.41075E+06        -0.49976E+08         0.00000E+00
    0.00000E+00         0.00000E+00        -0.57163E+08
 
   -0.57021E+08         0.45464E+06         0.00000E+00
    0.45464E+06        -0.49971E+08         0.00000E+00
    0.00000E+00         0.00000E+00        -0.57159E+08
 
   -0.57010E+08         0.49881E+06         0.00000E+00
    0.49881E+06        -0.49965E+08         0.00000E+00
    0.00000E+00         0.00000E+00        -0.57156E+08
 
   -0.56999E+08         0.54330E+06         0.00000E+00
    0.54330E+06        -0.49959E+08         0.00000E+00
    0.00000E+00         0.00000E+00        -0.57152E+08
 
   -0.56989E+08         0.58814E+06         0.00000E+00
    0.58814E+06        -0.49953E+08         0.00000E+00
    0.00000E+00         0.00000E+00        -0.57149E+08
 
   -0.56981E+08         0.63337E+06         0.00000E+00
    0.63337E+06        -0.49947E+08         0.00000E+00
    0.00000E+00         0.00000E+00        -0.57146E+08
 
   -0.56974E+08         0.67901E+06         0.00000E+00
    0.67901E+06        -0.49940E+08         0.00000E+00
    0.00000E+00         0.00000E+00        -0.57143E+08
 
   -0.56968E+08         0.72508E+06         0.00000E+00
    0.72508E+06        -0.49932E+08         0.00000E+00
    0.00000E+00         0.00000E+00        -0.57140E+08
 
   -0.56963E+08         0.77162E+06         0.00000E+00
    0.77162E+06        -0.49925E+08         0.00000E+00
    0.00000E+00         0.00000E+00        -0.57138E+08
 
   -0.56958E+08         0.81864E+06         0.00000E+00
    0.81864E+06        -0.49917E+08         0.00000E+00
    0.00000E+00         0.00000E+00        -0.57136E+08
 
   -0.56955E+08         0.86617E+06         0.00000E+00
    0.86617E+06        -0.49909E+08         0.00000E+00
    0.00000E+00         0.00000E+00        -0.57133E+08
 
   -0.56953E+08         0.91422E+06         0.00000E+00
    0.91422E+06        -0.49901E+08         0.00000E+00
    0.00000E+00         0.00000E+00        -0.57131E+08
 
   -0.56952E+08         0.96282E+06         0.00000E+00
    0.96282E+06        -0.49893E+08         0.00000E+00
    0.00000E+00         0.00000E+00        -0.57129E+08
 
   -0.56951E+08         0.10120E+07         0.00000E+00
    0.10120E+07        -0.49884E+08         0.00000E+00
    0.00000E+00         0.00000E+00        -0.57127E+08
 
   -0.56951E+08         0.10617E+07         0.00000E+00
    0.10617E+07        -0.49876E+08         0.00000E+00
    0.00000E+00         0.00000E+00        -0.57126E+08
 
   -0.56952E+08         0.11120E+07         0.00000E+00
    0.11120E+07        -0.49867E+08         0.00000E+00
    0.00000E+00         0.00000E+00        -0.57124E+08
 
   -0.56954E+08         0.11630E+07         0.00000E+00
    0.11630E+07        -0.49859E+08         0.00000E+00
    0.00000E+00         0.00000E+00        -0.57123E+08
 
   -0.56957E+08         0.12145E+07         0.00000E+00
    0.12145E+07        -0.49850E+08         0.00000E+00
    0.00000E+00         0.00000E+00        -0.57121E+08
 
   -0.56960E+08         0.12666E+07         0.00000E+00
    0.12666E+07        -0.49841E+08         0.00000E+00
    0.00000E+00         0.00000E+00        -0.57120E+08
 
   -0.56963E+08         0.13194E+07         0.00000E+00
    0.13194E+07        -0.49832E+08         0.00000E+00
    0.00000E+00         0.00000E+00        -0.57119E+08
 
   -0.56967E+08         0.13728E+07         0.00000E+00
    0.13728E+07        -0.49824E+08         0.00000E+00
    0.00000E+00         0.00000E+00        -0.57118E+08
 
   -0.56972E+08         0.14268E+07         0.00000E+00
    0.14268E+07        -0.49815E+08         0.00000E+00
    0.00000E+00         0.00000E+00        -0.57117E+08
 
   -0.56977E+08         0.14815E+07         0.00000E+00
    0.14815E+07        -0.49806E+08         0.00000E+00
    0.00000E+00         0.00000E+00        -0.57117E+08
 
   -0.56983E+08         0.15368E+07         0.00000E+00
    0.15368E+07        -0.49798E+08         0.00000E+00
    0.00000E+00         0.00000E+00        -0.57116E+08
 
   -0.56989E+08         0.15928E+07         0.00000E+00
    0.15928E+07        -0.49790E+08         0.00000E+00
    0.00000E+00         0.00000E+00        -0.57116E+08
 
   -0.56995E+08         0.16494E+07         0.00000E+00
    0.16494E+07        -0.49781E+08         0.00000E+00
    0.00000E+00         0.00000E+00        -0.57115E+08
 
   -0.57002E+08         0.17066E+07         0.00000E+00
    0.17066E+07        -0.49773E+08         0.00000E+00
    0.00000E+00         0.00000E+00        -0.57115E+08
 
   -0.57009E+08         0.17645E+07         0.00000E+00
    0.17645E+07        -0.49765E+08         0.00000E+00
    0.00000E+00         0.00000E+00        -0.57115E+08
 
   -0.57016E+08         0.18230E+07         0.00000E+00
    0.18230E+07        -0.49757E+08         0.00000E+00
    0.00000E+00         0.00000E+00        -0.57115E+08
 
   -0.57024E+08         0.18822E+07         0.00000E+00
    0.18822E+07        -0.49750E+08         0.00000E+00
    0.00000E+00         0.00000E+00        -0.57115E+08
 
   -0.57032E+08         0.19420E+07         0.00000E+00
    0.19420E+07        -0.49743E+08         0.00000E+00
    0.00000E+00         0.00000E+00        -0.57115E+08
 
   -0.57040E+08         0.20024E+07         0.00000E+00
    0.20024E+07        -0.49736E+08         0.00000E+00
    0.00000E+00         0.00000E+00        -0.57115E+08
 
   -0.57048E+08         0.20634E+07         0.00000E+00
    0.20634E+07        -0.49729E+08         0.00000E+00
    0.00000E+00         0.00000E+00        -0.57115E+08
 
   -0.57056E+08         0.21250E+07         0.00000E+00
    0.21250E+07        -0.49722E+08         0.00000E+00
    0.00000E+00         0.00000E+00        -0.57116E+08
 
   -0.57065E+08         0.21873E+07         0.00000E+00
    0.21873E+07        -0.49716E+08         0.00000E+00
    0.00000E+00         0.00000E+00        -0.57116E+08
 
   -0.57073E+08         0.22501E+07         0.00000E+00
    0.22501E+07        -0.49710E+08         0.00000E+00
    0.00000E+00         0.00000E+00        -0.57117E+08
 
   -0.57082E+08         0.23136E+07         0.00000E+00
    0.23136E+07        -0.49705E+08         0.00000E+00
    0.00000E+00         0.00000E+00        -0.57117E+08
 
   -0.57090E+08         0.23776E+07         0.00000E+00
    0.23776E+07        -0.49699E+08         0.00000E+00
    0.00000E+00         0.00000E+00        -0.57118E+08
 
   -0.57099E+08         0.24422E+07         0.00000E+00
    0.24422E+07        -0.49694E+08         0.00000E+00
    0.00000E+00         0.00000E+00        -0.57119E+08
 
   -0.57108E+08         0.25074E+07         0.00000E+00
    0.25074E+07        -0.49690E+08         0.00000E+00
    0.00000E+00         0.00000E+00        -0.57119E+08
 
   -0.57116E+08         0.25731E+07         0.00000E+00
    0.25731E+07        -0.49685E+08         0.00000E+00
    0.00000E+00         0.00000E+00        -0.57120E+08
 
   -0.56994E+08         0.23163E+05         0.00000E+00
    0.23163E+05        -0.50000E+08         0.00000E+00
    0.00000E+00         0.00000E+00        -0.56886E+08
 
   -0.56968E+08         0.68952E+05         0.00000E+00
    0.68952E+05        -0.50000E+08         0.00000E+00
    0.00000E+00         0.00000E+00        -0.56881E+08
 
   -0.56944E+08         0.11457E+06         0.00000E+00
    0.11457E+06        -0.49999E+08         0.00000E+00
    0.00000E+00         0.00000E+00        -0.56876E+08
 
   -0.56922E+08         0.16007E+06         0.00000E+00
    0.16007E+06        -0.49998E+08         0.00000E+00
    0.00000E+00         0.00000E+00        -0.56871E+08
 
   -0.56900E+08         0.20549E+06         0.00000E+00
    0.20549E+06        -0.49996E+08         0.00000E+00
    0.00000E+00         0.00000E+00        -0.56866E+08
 
   -0.56880E+08         0.25087E+06         0.00000E+00
    0.25087E+06        -0.49994E+08         0.00000E+00
    0.00000E+00         0.00000E+00        -0.56862E+08
 
   -0.56861E+08         0.29626E+06         0.00000E+00
    0.29626E+06        -0.49991E+08         0.00000E+00
    0.00000E+00         0.00000E+00        -0.56858E+08
 
   -0.56843E+08         0.34169E+06         0.00000E+00
    0.34169E+06        -0.49988E+08         0.00000E+00
    0.00000E+00         0.00000E+00        -0.56853E+08
 
   -0.56826E+08         0.38720E+06         0.00000E+00
    0.38720E+06        -0.49984E+08         0.00000E+00
    0.00000E+00         0.00000E+00        -0.56849E+08
 
   -0.56811E+08         0.43284E+06         0.00000E+00
    0.43284E+06        -0.49981E+08         0.00000E+00
    0.00000E+00         0.00000E+00        -0.56845E+08
 
   -0.56797E+08         0.47862E+06         0.00000E+00
    0.47862E+06        -0.49977E+08         0.00000E+00
    0.00000E+00         0.00000E+00        -0.56842E+08
 
   -0.56783E+08         0.52459E+06         0.00000E+00
    0.52459E+06        -0.49972E+08         0.00000E+00
    0.00000E+00         0.00000E+00        -0.56838E+08
 
   -0.56771E+08         0.57078E+06         0.00000E+00
    0.57078E+06        -0.49967E+08         0.00000E+00
    0.00000E+00         0.00000E+00        -0.56835E+08
 
   -0.56760E+08         0.61721E+06         0.00000E+00
    0.61721E+06        -0.49962E+08         0.00000E+00
    0.00000E+00         0.00000E+00        -0.56831E+08
 
   -0.56750E+08         0.66392E+06         0.00000E+00
    0.66392E+06        -0.49957E+08         0.00000E+00
    0.00000E+00         0.00000E+00        -0.56828E+08
 
   -0.56741E+08         0.71093E+06         0.00000E+00
    0.71093E+06        -0.49951E+08         0.00000E+00
    0.00000E+00         0.00000E+00        -0.56825E+08
 
   -0.56733E+08         0.75827E+06         0.00000E+00
    0.75827E+06        -0.49945E+08         0.00000E+00
    0.00000E+00         0.00000E+00        -0.56822E+08
 
   -0.56726E+08         0.80596E+06         0.00000E+00
    0.80596E+06        -0.49939E+08         0.00000E+00
    0.00000E+00         0.00000E+00        -0.56820E+08
 
   -0.56720E+08         0.85402E+06         0.00000E+00
    0.85402E+06        -0.49933E+08         0.00000E+00
    0.00000E+00         0.00000E+00        -0.56817E+08
 
   -0.56714E+08         0.90248E+06         0.00000E+00
    0.90248E+06        -0.49926E+08         0.00000E+00
    0.00000E+00         0.00000E+00        -0.56815E+08
 
   -0.56709E+08         0.95134E+06         0.00000E+00
    0.95134E+06        -0.49920E+08         0.00000E+00
    0.00000E+00         0.00000E+00        -0.56812E+08
 
   -0.56706E+08         0.10006E+07         0.00000E+00
    0.10006E+07        -0.49913E+08         0.00000E+00
    0.00000E+00         0.00000E+00        -0.56810E+08
 
   -0.56703E+08         0.10504E+07         0.00000E+00
    0.10504E+07        -0.49906E+08         0.00000E+00
    0.00000E+00         0.00000E+00        -0.56808E+08
 
   -0.56700E+08         0.11006E+07         0.00000E+00
    0.11006E+07        -0.49899E+08         0.00000E+00
    0.00000E+00         0.00000E+00        -0.56806E+08
 
   -0.56699E+08         0.11513E+07         0.00000E+00
    0.11513E+07        -0.49892E+08         0.00000E+00
    0.00000E+00         0.00000E+00        -0.56804E+08
 
   -0.56698E+08         0.12024E+07         0.00000E+00
    0.12024E+07        -0.49885E+08         0.00000E+00
    0.00000E+00         0.00000E+00        -0.56803E+08
 
   -0.56697E+08         0.12541E+07         0.00000E+00
    0.12541E+07        -0.49878E+08         0.00000E+00
    0.00000E+00         0.00000E+00        -0.56801E+08
 
   -0.56697E+08         0.13063E+07         0.00000E+00
    0.13063E+07        -0.49871E+08         0.00000E+00
    0.00000E+00         0.00000E+00        -0.56800E+08
 
   -0.56698E+08         0.13590E+07         0.00000E+00
    0.13590E+07        -0.49863E+08         0.00000E+00
    0.00000E+00         0.00000E+00        -0.56798E+08
 
   -0.56699E+08         0.14122E+07         0.00000E+00
    0.14122E+07        -0.49856E+08         0.00000E+00
    0.00000E+00         0.00000E+00        -0.56797E+08
 
   -0.56701E+08         0.14659E+07         0.00000E+00
    0.14659E+07        -0.49849E+08         0.00000E+00
    0.00000E+00         0.00000E+00        -0.56796E+08
 
   -0.56703E+08         0.15202E+07         0.00000E+00
    0.15202E+07        -0.49842E+08         0.00000E+00
    0.00000E+00         0.00000E+00        -0.56795E+08
 
   -0.56706E+08         0.15750E+07         0.00000E+00
    0.15750E+07        -0.49835E+08         0.00000E+00
    0.00000E+00         0.00000E+00        -0.56794E+08
 
   -0.56709E+08         0.16304E+07         0.00000E+00
    0.16304E+07        -0.49829E+08         0.00000E+00
    0.00000E+00         0.00000E+00        -0.56794E+08
 
   -0.56713E+08         0.16863E+07         0.00000E+00
    0.16863E+07        -0.49822E+08         0.00000E+00
    0.00000E+00         0.00000E+00        -0.56793E+08
 
   -0.56716E+08         0.17428E+07         0.00000E+00
    0.17428E+07        -0.49815E+08         0.00000E+00
    0.00000E+00         0.00000E+00        -0.56792E+08
 
   -0.56720E+08         0.17998E+07         0.00000E+00
    0.17998E+07        -0.49809E+08         0.00000E+00
    0.00000E+00         0.00000E+00        -0.56792E+08
 
   -0.56725E+08         0.18573E+07         0.00000E+00
    0.18573E+07        -0.49803E+08         0.00000E+00
    0.00000E+00         0.00000E+00        -0.56791E+08
 
   -0.56729E+08         0.19154E+07         0.00000E+00
    0.19154E+07        -0.49797E+08         0.00000E+00
    0.00000E+00         0.00000E+00        -0.56791E+08
 
   -0.56734E+08         0.19741E+07         0.00000E+00
    0.19741E+07        -0.49791E+08         0.00000E+00
    0.00000E+00         0.00000E+00        -0.56791E+08
 
   -0.56739E+08         0.20333E+07         0.00000E+00
    0.20333E+07        -0.49785E+08         0.00000E+00
    0.00000E+00         0.00000E+00        -0.56791E+08
 
   -0.56745E+08         0.20931E+07         0.00000E+00
    0.20931E+07        -0.49780E+08         0.00000E+00
    0.00000E+00         0.00000E+00        -0.56791E+08
 
   -0.56750E+08         0.21533E+07         0.00000E+00
    0.21533E+07        -0.49775E+08         0.00000E+00
    0.00000E+00         0.00000E+00        -0.56791E+08
 
   -0.56756E+08         0.22142E+07         0.00000E+00
    0.22142E+07        -0.49770E+08         0.00000E+00
    0.00000E+00         0.00000E+00        -0.56791E+08
 
   -0.56761E+08         0.22755E+07         0.00000E+00
    0.22755E+07        -0.49765E+08         0.00000E+00
    0.00000E+00         0.00000E+00        -0.56791E+08
 
   -0.56767E+08         0.23374E+07         0.00000E+00
    0.23374E+07        -0.49761E+08         0.00000E+00
    0.00000E+00         0.00000E+00        -0.56791E+08
 
   -0.56773E+08         0.23999E+07         0.00000E+00
    0.23999E+07        -0.49757E+08         0.00000E+00
    0.00000E+00         0.00000E+00        -0.56792E+08
 
   -0.56779E+08         0.24628E+07         0.00000E+00
    0.24628E+07        -0.49753E+08         0.00000E+00
    0.00000E+00         0.00000E+00        -0.56792E+08
 
   -0.56785E+08         0.25263E+07         0.00000E+00
    0.25263E+07        -0.49750E+08         0.00000E+00
    0.00000E+00         0.00000E+00        -0.56793E+08
 
   -0.56791E+08         0.25903E+07         0.00000E+00
    0.25903E+07        -0.49747E+08         0.00000E+00
    0.00000E+00         0.00000E+00        -0.56793E+08
 
   -0.56759E+08         0.24211E+05         0.00000E+00
    0.24211E+05        -0.50000E+08         0.00000E+00
    0.00000E+00         0.00000E+00        -0.56574E+08
 
   -0.56735E+08         0.72042E+05         0.00000E+00
    0.72042E+05        -0.50000E+08         0.00000E+00
    0.00000E+00         0.00000E+00        -0.56569E+08
 
   -0.56711E+08         0.11967E+06         0.00000E+00
    0.11967E+06        -0.49999E+08         0.00000E+00
    0.00000E+00         0.00000E+00        -0.56564E+08
 
   -0.56689E+08         0.16714E+06         0.00000E+00
    0.16714E+06        -0.49998E+08         0.00000E+00
    0.00000E+00         0.00000E+00        -0.56559E+08
 
   -0.56668E+08         0.21449E+06         0.00000E+00
    0.21449E+06        -0.49997E+08         0.00000E+00
    0.00000E+00         0.00000E+00        -0.56555E+08
 
   -0.56648E+08         0.26174E+06         0.00000E+00
    0.26174E+06        -0.49995E+08         0.00000E+00
    0.00000E+00         0.00000E+00        -0.56550E+08
 
   -0.56629E+08         0.30895E+06         0.00000E+00
    0.30895E+06        -0.49993E+08         0.00000E+00
    0.00000E+00         0.00000E+00        -0.56546E+08
 
   -0.56611E+08         0.35614E+06         0.00000E+00
    0.35614E+06        -0.49990E+08         0.00000E+00
    0.00000E+00         0.00000E+00        -0.56542E+08
 
   -0.56594E+08         0.40335E+06         0.00000E+00
    0.40335E+06        -0.49988E+08         0.00000E+00
    0.00000E+00         0.00000E+00        -0.56538E+08
 
   -0.56578E+08         0.45060E+06         0.00000E+00
    0.45060E+06        -0.49985E+08         0.00000E+00
    0.00000E+00         0.00000E+00        -0.56534E+08
 
   -0.56563E+08         0.49793E+06         0.00000E+00
    0.49793E+06        -0.49981E+08         0.00000E+00
    0.00000E+00         0.00000E+00        -0.56531E+08
 
   -0.56549E+08         0.54537E+06         0.00000E+00
    0.54537E+06        -0.49978E+08         0.00000E+00
    0.00000E+00         0.00000E+00        -0.56527E+08
 
   -0.56536E+08         0.59295E+06         0.00000E+00
    0.59295E+06        -0.49974E+08         0.00000E+00
    0.00000E+00         0.00000E+00        -0.56524E+08
 
   -0.56524E+08         0.64069E+06         0.00000E+00
    0.64069E+06        -0.49970E+08         0.00000E+00
    0.00000E+00         0.00000E+00        -0.56520E+08
 
   -0.56513E+08         0.68862E+06         0.00000E+00
    0.68862E+06        -0.49966E+08         0.00000E+00
    0.00000E+00         0.00000E+00        -0.56517E+08
 
   -0.56502E+08         0.73677E+06         0.00000E+00
    0.73677E+06        -0.49961E+08         0.00000E+00
    0.00000E+00         0.00000E+00        -0.56514E+08
 
   -0.56493E+08         0.78515E+06         0.00000E+00
    0.78515E+06        -0.49956E+08         0.00000E+00
    0.00000E+00         0.00000E+00        -0.56511E+08
 
   -0.56484E+08         0.83379E+06         0.00000E+00
    0.83379E+06        -0.49951E+08         0.00000E+00
    0.00000E+00         0.00000E+00        -0.56508E+08
 
   -0.56476E+08         0.88271E+06         0.00000E+00
    0.88271E+06        -0.49946E+08         0.00000E+00
    0.00000E+00         0.00000E+00        -0.56506E+08
 
   -0.56469E+08         0.93192E+06         0.00000E+00
    0.93192E+06        -0.49941E+08         0.00000E+00
    0.00000E+00         0.00000E+00        -0.56503E+08
 
   -0.56462E+08         0.98146E+06         0.00000E+00
    0.98146E+06        -0.49936E+08         0.00000E+00
    0.00000E+00         0.00000E+00        -0.56501E+08
 
   -0.56457E+08         0.10313E+07         0.00000E+00
    0.10313E+07        -0.49930E+08         0.00000E+00
    0.00000E+00         0.00000E+00        -0.56498E+08
 
   -0.56452E+08         0.10815E+07         0.00000E+00
    0.10815E+07        -0.49925E+08         0.00000E+00
    0.00000E+00         0.00000E+00        -0.56496E+08
 
   -0.56447E+08         0.11321E+07         0.00000E+00
    0.11321E+07        -0.49919E+08         0.00000E+00
    0.00000E+00         0.00000E+00        -0.56494E+08
 
   -0.56443E+08         0.11831E+07         0.00000E+00
    0.11831E+07        -0.49914E+08         0.00000E+00
    0.00000E+00         0.00000E+00        -0.56492E+08
 
   -0.56440E+08         0.12345E+07         0.00000E+00
    0.12345E+07        -0.49908E+08         0.00000E+00
    0.00000E+00         0.00000E+00        -0.56490E+08
 
   -0.56437E+08         0.12862E+07         0.00000E+00
    0.12862E+07        -0.49902E+08         0.00000E+00
    0.00000E+00         0.00000E+00        -0.56489E+08
 
   -0.56435E+08         0.13384E+07         0.00000E+00
    0.13384E+07        -0.49896E+08         0.00000E+00
    0.00000E+00         0.00000E+00        -0.56487E+08
 
   -0.56434E+08         0.13910E+07         0.00000E+00
    0.13910E+07        -0.49891E+08         0.00000E+00
    0.00000E+00         0.00000E+00        -0.56485E+08
 
   -0.56433E+08         0.14440E+07         0.00000E+00
    0.14440E+07        -0.49885E+08         0.00000E+00
    0.00000E+00         0.00000E+00        -0.56484E+08
 
   -0.56432E+08         0.14975E+07         0.00000E+00
    0.14975E+07        -0.49879E+08         0.00000E+00
    0.00000E+00         0.00000E+00        -0.56483E+08
 
   -0.56432E+08         0.15514E+07         0.00000E+00
    0.15514E+07        -0.49874E+08         0.00000E+00
    0.00000E+00         0.00000E+00        -0.56482E+08
 
   -0.56432E+08         0.16057E+07         0.00000E+00
    0.16057E+07        -0.49868E+08         0.00000E+00
    0.00000E+00         0.00000E+00        -0.56480E+08
 
   -0.56432E+08         0.16606E+07         0.00000E+00
    0.16606E+07        -0.49863E+08         0.00000E+00
    0.00000E+00         0.00000E+00        -0.56479E+08
 
   -0.56433E+08         0.17159E+07         0.00000E+00
    0.17159E+07        -0.49857E+08         0.00000E+00
    0.00000E+00         0.00000E+00        -0.56478E+08
 
   -0.56435E+08         0.17716E+07         0.00000E+00
    0.17716E+07        -0.49852E+08         0.00000E+00
    0.00000E+00         0.00000E+00        -0.56478E+08
 
   -0.56436E+08         0.18278E+07         0.00000E+00
    0.18278E+07        -0.49847E+08         0.00000E+00
    0.00000E+00         0.00000E+00        -0.56477E+08
 
   -0.56438E+08         0.18845E+07         0.00000E+00
    0.18845E+07        -0.49842E+08         0.00000E+00
    0.00000E+00         0.00000E+00        -0.56476E+08
 
   -0.56440E+08         0.19417E+07         0.00000E+00
    0.19417E+07        -0.49838E+08         0.00000E+00
    0.00000E+00         0.00000E+00        -0.56476E+08
 
   -0.56442E+08         0.19993E+07         0.00000E+00
    0.19993E+07        -0.49833E+08         0.00000E+00
    0.00000E+00         0.00000E+00        -0.56475E+08
 
   -0.56445E+08         0.20574E+07         0.00000E+00
    0.20574E+07        -0.49829E+08         0.00000E+00
    0.00000E+00         0.00000E+00        -0.56475E+08
 
   -0.56448E+08         0.21160E+07         0.00000E+00
    0.21160E+07        -0.49825E+08         0.00000E+00
    0.00000E+00         0.00000E+00        -0.56475E+08
 
   -0.56450E+08         0.21750E+07         0.00000E+00
    0.21750E+07        -0.49821E+08         0.00000E+00
    0.00000E+00         0.00000E+00        -0.56474E+08
 
   -0.56453E+08         0.22346E+07         0.00000E+00
    0.22346E+07        -0.49817E+08         0.00000E+00
    0.00000E+00         0.00000E+00        -0.56474E+08
 
   -0.56457E+08         0.22946E+07         0.00000E+00
    0.22946E+07        -0.49814E+08         0.00000E+00
    0.00000E+00         0.00000E+00        -0.56474E+08
 
   -0.56460E+08         0.23551E+07         0.00000E+00
    0.23551E+07        -0.49811E+08         0.00000E+00
    0.00000E+00         0.00000E+00        -0.56474E+08
 
   -0.56463E+08         0.24160E+07         0.00000E+00
    0.24160E+07        -0.49808E+08         0.00000E+00
    0.00000E+00         0.00000E+00        -0.56474E+08
 
   -0.56467E+08         0.24775E+07         0.00000E+00
    0.24775E+07        -0.49806E+08         0.00000E+00
    0.00000E+00         0.00000E+00        -0.56474E+08
 
   -0.56470E+08         0.25394E+07         0.00000E+00
    0.25394E+07        -0.49803E+08         0.00000E+00
    0.00000E+00         0.00000E+00        -0.56475E+08
 
   -0.56473E+08         0.26017E+07         0.00000E+00
    0.26017E+07        -0.49802E+08         0.00000E+00
    0.00000E+00         0.00000E+00        -0.56475E+08
 
   -0.56515E+08         0.25023E+05         0.00000E+00
    0.25023E+05        -0.50000E+08         0.00000E+00
    0.00000E+00         0.00000E+00        -0.56267E+08
 
   -0.56492E+08         0.74450E+05         0.00000E+00
    0.74450E+05        -0.50000E+08         0.00000E+00
    0.00000E+00         0.00000E+00        -0.56263E+08
 
   -0.56470E+08         0.12366E+06         0.00000E+00
    0.12366E+06        -0.49999E+08         0.00000E+00
    0.00000E+00         0.00000E+00        -0.56258E+08
 
   -0.56448E+08         0.17268E+06         0.00000E+00
    0.17268E+06        -0.49999E+08         0.00000E+00
    0.00000E+00         0.00000E+00        -0.56254E+08
 
   -0.56428E+08         0.22155E+06         0.00000E+00
    0.22155E+06        -0.49997E+08         0.00000E+00
    0.00000E+00         0.00000E+00        -0.56249E+08
 
   -0.56408E+08         0.27030E+06         0.00000E+00
    0.27030E+06        -0.49996E+08         0.00000E+00
    0.00000E+00         0.00000E+00        -0.56245E+08
 
   -0.56389E+08         0.31895E+06         0.00000E+00
    0.31895E+06        -0.49994E+08         0.00000E+00
    0.00000E+00         0.00000E+00        -0.56241E+08
 
   -0.56372E+08         0.36754E+06         0.00000E+00
    0.36754E+06        -0.49993E+08         0.00000E+00
    0.00000E+00         0.00000E+00        -0.56237E+08
 
   -0.56355E+08         0.41610E+06         0.00000E+00
    0.41610E+06        -0.49990E+08         0.00000E+00
    0.00000E+00         0.00000E+00        -0.56233E+08
 
   -0.56339E+08         0.46466E+06         0.00000E+00
    0.46466E+06        -0.49988E+08         0.00000E+00
    0.00000E+00         0.00000E+00        -0.56229E+08
 
   -0.56323E+08         0.51323E+06         0.00000E+00
    0.51323E+06        -0.49985E+08         0.00000E+00
    0.00000E+00         0.00000E+00        -0.56226E+08
 
   -0.56309E+08         0.56186E+06         0.00000E+00
    0.56186E+06        -0.49983E+08         0.00000E+00
    0.00000E+00         0.00000E+00        -0.56222E+08
 
   -0.56295E+08         0.61056E+06         0.00000E+00
    0.61056E+06        -0.49980E+08         0.00000E+00
    0.00000E+00         0.00000E+00        -0.56219E+08
 
   -0.56282E+08         0.65935E+06         0.00000E+00
    0.65935E+06        -0.49976E+08         0.00000E+00
    0.00000E+00         0.00000E+00        -0.56216E+08
 
   -0.56270E+08         0.70827E+06         0.00000E+00
    0.70827E+06        -0.49973E+08         0.00000E+00
    0.00000E+00         0.00000E+00        -0.56212E+08
 
   -0.56259E+08         0.75732E+06         0.00000E+00
    0.75732E+06        -0.49969E+08         0.00000E+00
    0.00000E+00         0.00000E+00        -0.56209E+08
 
   -0.56248E+08         0.80655E+06         0.00000E+00
    0.80655E+06        -0.49966E+08         0.00000E+00
    0.00000E+00         0.00000E+00        -0.56206E+08
 
   -0.56238E+08         0.85595E+06         0.00000E+00
    0.85595E+06        -0.49962E+08         0.00000E+00
    0.00000E+00         0.00000E+00        -0.56204E+08
 
   -0.56229E+08         0.90556E+06         0.00000E+00
    0.90556E+06        -0.49958E+08         0.00000E+00
    0.00000E+00         0.00000E+00        -0.56201E+08
 
   -0.56221E+08         0.95539E+06         0.00000E+00
    0.95539E+06        -0.49954E+08         0.00000E+00
    0.00000E+00         0.00000E+00        -0.56198E+08
 
   -0.56213E+08         0.10055E+07         0.00000E+00
    0.10055E+07        -0.49950E+08         0.00000E+00
    0.00000E+00         0.00000E+00        -0.56196E+08
 
   -0.56205E+08         0.10558E+07         0.00000E+00
    0.10558E+07        -0.49945E+08         0.00000E+00
    0.00000E+00         0.00000E+00        -0.56193E+08
 
   -0.56199E+08         0.11064E+07         0.00000E+00
    0.11064E+07        -0.49941E+08         0.00000E+00
    0.00000E+00         0.00000E+00        -0.56191E+08
 
   -0.56193E+08         0.11572E+07         0.00000E+00
    0.11572E+07        -0.49937E+08         0.00000E+00
    0.00000E+00         0.00000E+00        -0.56189E+08
 
   -0.56187E+08         0.12084E+07         0.00000E+00
    0.12084E+07        -0.49932E+08         0.00000E+00
    0.00000E+00         0.00000E+00        -0.56187E+08
 
   -0.56182E+08         0.12599E+07         0.00000E+00
    0.12599E+07        -0.49928E+08         0.00000E+00
    0.00000E+00         0.00000E+00        -0.56185E+08
 
   -0.56178E+08         0.13117E+07         0.00000E+00
    0.13117E+07        -0.49923E+08         0.00000E+00
    0.00000E+00         0.00000E+00        -0.56183E+08
 
   -0.56174E+08         0.13638E+07         0.00000E+00
    0.13638E+07        -0.49919E+08         0.00000E+00
    0.00000E+00         0.00000E+00        -0.56181E+08
 
   -0.56170E+08         0.14163E+07         0.00000E+00
    0.14163E+07        -0.49914E+08         0.00000E+00
    0.00000E+00         0.00000E+00        -0.56180E+08
 
   -0.56167E+08         0.14692E+07         0.00000E+00
    0.14692E+07        -0.49910E+08         0.00000E+00
    0.00000E+00         0.00000E+00        -0.56178E+08
 
   -0.56164E+08         0.15223E+07         0.00000E+00
    0.15223E+07        -0.49905E+08         0.00000E+00
    0.00000E+00         0.00000E+00        -0.56177E+08
 
   -0.56162E+08         0.15759E+07         0.00000E+00
    0.15759E+07        -0.49901E+08         0.00000E+00
    0.00000E+00         0.00000E+00        -0.56175E+08
 
   -0.56160E+08         0.16298E+07         0.00000E+00
    0.16298E+07        -0.49897E+08         0.00000E+00
    0.00000E+00         0.00000E+00        -0.56174E+08
 
   -0.56159E+08         0.16841E+07         0.00000E+00
    0.16841E+07        -0.49892E+08         0.00000E+00
    0.00000E+00         0.00000E+00        -0.56173E+08
 
   -0.56157E+08         0.17388E+07         0.00000E+00
    0.17388E+07        -0.49888E+08         0.00000E+00
    0.00000E+00         0.00000E+00        -0.56172E+08
 
   -0.56156E+08         0.17939E+07         0.00000E+00
    0.17939E+07        -0.49884E+08         0.00000E+00
    0.00000E+00         0.00000E+00        -0.56171E+08
 
   -0.56156E+08         0.18494E+07         0.00000E+00
    0.18494E+07        -0.49881E+08         0.00000E+00
    0.00000E+00         0.00000E+00        -0.56170E+08
 
   -0.56155E+08         0.19053E+07         0.00000E+00
    0.19053E+07        -0.49877E+08         0.00000E+00
    0.00000E+00         0.00000E+00        -0.56169E+08
 
   -0.56155E+08         0.19616E+07         0.00000E+00
    0.19616E+07        -0.49874E+08         0.00000E+00
    0.00000E+00         0.00000E+00        -0.56168E+08
 
   -0.56155E+08         0.20183E+07         0.00000E+00
    0.20183E+07        -0.49870E+08         0.00000E+00
    0.00000E+00         0.00000E+00        -0.56167E+08
 
   -0.56156E+08         0.20754E+07         0.00000E+00
    0.20754E+07        -0.49867E+08         0.00000E+00
    0.00000E+00         0.00000E+00        -0.56167E+08
 
   -0.56156E+08         0.21329E+07         0.00000E+00
    0.21329E+07        -0.49864E+08         0.00000E+00
    0.00000E+00         0.00000E+00        -0.56166E+08
 
   -0.56157E+08         0.21908E+07         0.00000E+00
    0.21908E+07        -0.49861E+08         0.00000E+00
    0.00000E+00         0.00000E+00        -0.56166E+08
 
   -0.56158E+08         0.22491E+07         0.00000E+00
    0.22491E+07        -0.49859E+08         0.00000E+00
    0.00000E+00         0.00000E+00        -0.56166E+08
 
   -0.56159E+08         0.23079E+07         0.00000E+00
    0.23079E+07        -0.49857E+08         0.00000E+00
    0.00000E+00         0.00000E+00        -0.56165E+08
 
   -0.56160E+08         0.23670E+07         0.00000E+00
    0.23670E+07        -0.49855E+08         0.00000E+00
    0.00000E+00         0.00000E+00        -0.56165E+08
 
   -0.56161E+08         0.24266E+07         0.00000E+00
    0.24266E+07        -0.49853E+08         0.00000E+00
    0.00000E+00         0.00000E+00        -0.56165E+08
 
   -0.56162E+08         0.24866E+07         0.00000E+00
    0.24866E+07        -0.49851E+08         0.00000E+00
    0.00000E+00         0.00000E+00        -0.56165E+08
 
   -0.56163E+08         0.25470E+07         0.00000E+00
    0.25470E+07        -0.49850E+08         0.00000E+00
    0.00000E+00         0.00000E+00        -0.56165E+08
 
   -0.56164E+08         0.26079E+07         0.00000E+00
    0.26079E+07        -0.49849E+08         0.00000E+00
    0.00000E+00         0.00000E+00        -0.56165E+08
 
   -0.56264E+08         0.25638E+05         0.00000E+00
    0.25638E+05        -0.50000E+08         0.00000E+00
    0.00000E+00         0.00000E+00        -0.55967E+08
 
   -0.56242E+08         0.76292E+05         0.00000E+00
    0.76292E+05        -0.50000E+08         0.00000E+00
    0.00000E+00         0.00000E+00        -0.55963E+08
 
   -0.56221E+08         0.12672E+06         0.00000E+00
    0.12672E+06        -0.50000E+08         0.00000E+00
    0.00000E+00         0.00000E+00        -0.55958E+08
 
   -0.56200E+08         0.17694E+06         0.00000E+00
    0.17694E+06        -0.49999E+08         0.00000E+00
    0.00000E+00         0.00000E+00        -0.55954E+08
 
   -0.56181E+08         0.22699E+06         0.00000E+00
    0.22699E+06        -0.49998E+08         0.00000E+00
    0.00000E+00         0.00000E+00        -0.55950E+08
 
   -0.56162E+08         0.27690E+06         0.00000E+00
    0.27690E+06        -0.49997E+08         0.00000E+00
    0.00000E+00         0.00000E+00        -0.55946E+08
 
   -0.56143E+08         0.32668E+06         0.00000E+00
    0.32668E+06        -0.49996E+08         0.00000E+00
    0.00000E+00         0.00000E+00        -0.55942E+08
 
   -0.56126E+08         0.37637E+06         0.00000E+00
    0.37637E+06        -0.49994E+08         0.00000E+00
    0.00000E+00         0.00000E+00        -0.55938E+08
 
   -0.56109E+08         0.42600E+06         0.00000E+00
    0.42600E+06        -0.49993E+08         0.00000E+00
    0.00000E+00         0.00000E+00        -0.55934E+08
 
   -0.56093E+08         0.47557E+06         0.00000E+00
    0.47557E+06        -0.49991E+08         0.00000E+00
    0.00000E+00         0.00000E+00        -0.55931E+08
 
   -0.56078E+08         0.52513E+06         0.00000E+00
    0.52513E+06        -0.49989E+08         0.00000E+00
    0.00000E+00         0.00000E+00        -0.55927E+08
 
   -0.56063E+08         0.57469E+06         0.00000E+00
    0.57469E+06        -0.49987E+08         0.00000E+00
    0.00000E+00         0.00000E+00        -0.55924E+08
 
   -0.56049E+08         0.62427E+06         0.00000E+00
    0.62427E+06        -0.49984E+08         0.00000E+00
    0.00000E+00         0.00000E+00        -0.55920E+08
 
   -0.56036E+08         0.67390E+06         0.00000E+00
    0.67390E+06        -0.49982E+08         0.00000E+00
    0.00000E+00         0.00000E+00        -0.55917E+08
 
   -0.56023E+08         0.72359E+06         0.00000E+00
    0.72359E+06        -0.49979E+08         0.00000E+00
    0.00000E+00         0.00000E+00        -0.55914E+08
 
   -0.56011E+08         0.77336E+06         0.00000E+00
    0.77336E+06        -0.49977E+08         0.00000E+00
    0.00000E+00         0.00000E+00        -0.55911E+08
 
   -0.56000E+08         0.82325E+06         0.00000E+00
    0.82325E+06        -0.49974E+08         0.00000E+00
    0.00000E+00         0.00000E+00        -0.55908E+08
 
   -0.55989E+08         0.87325E+06         0.00000E+00
    0.87325E+06        -0.49971E+08         0.00000E+00
    0.00000E+00         0.00000E+00        -0.55905E+08
 
   -0.55979E+08         0.92340E+06         0.00000E+00
    0.92340E+06        -0.49968E+08         0.00000E+00
    0.00000E+00         0.00000E+00        -0.55903E+08
 
   -0.55970E+08         0.97370E+06         0.00000E+00
    0.97370E+06        -0.49965E+08         0.00000E+00
    0.00000E+00         0.00000E+00        -0.55900E+08
 
   -0.55961E+08         0.10242E+07         0.00000E+00
    0.10242E+07        -0.49961E+08         0.00000E+00
    0.00000E+00         0.00000E+00        -0.55897E+08
 
   -0.55952E+08         0.10748E+07         0.00000E+00
    0.10748E+07        -0.49958E+08         0.00000E+00
    0.00000E+00         0.00000E+00        -0.55895E+08
 
   -0.55944E+08         0.11257E+07         0.00000E+00
    0.11257E+07        -0.49955E+08         0.00000E+00
    0.00000E+00         0.00000E+00        -0.55893E+08
 
   -0.55937E+08         0.11768E+07         0.00000E+00
    0.11768E+07        -0.49951E+08         0.00000E+00
    0.00000E+00         0.00000E+00        -0.55890E+08
 
   -0.55930E+08         0.12281E+07         0.00000E+00
    0.12281E+07        -0.49948E+08         0.00000E+00
    0.00000E+00         0.00000E+00        -0.55888E+08
 
   -0.55924E+08         0.12796E+07         0.00000E+00
    0.12796E+07        -0.49944E+08         0.00000E+00
    0.00000E+00         0.00000E+00        -0.55886E+08
 
   -0.55918E+08         0.13314E+07         0.00000E+00
    0.13314E+07        -0.49941E+08         0.00000E+00
    0.00000E+00         0.00000E+00        -0.55884E+08
 
   -0.55912E+08         0.13835E+07         0.00000E+00
    0.13835E+07        -0.49938E+08         0.00000E+00
    0.00000E+00         0.00000E+00        -0.55883E+08
 
   -0.55907E+08         0.14358E+07         0.00000E+00
    0.14358E+07        -0.49934E+08         0.00000E+00
    0.00000E+00         0.00000E+00        -0.55881E+08
 
   -0.55903E+08         0.14884E+07         0.00000E+00
    0.14884E+07        -0.49931E+08         0.00000E+00
    0.00000E+00         0.00000E+00        -0.55879E+08
 
   -0.55898E+08         0.15414E+07         0.00000E+00
    0.15414E+07        -0.49927E+08         0.00000E+00
    0.00000E+00         0.00000E+00        -0.55878E+08
 
   -0.55894E+08         0.15946E+07         0.00000E+00
    0.15946E+07        -0.49924E+08         0.00000E+00
    0.00000E+00         0.00000E+00        -0.55876E+08
 
   -0.55891E+08         0.16481E+07         0.00000E+00
    0.16481E+07        -0.49921E+08         0.00000E+00
    0.00000E+00         0.00000E+00        -0.55875E+08
 
   -0.55887E+08         0.17019E+07         0.00000E+00
    0.17019E+07        -0.49918E+08         0.00000E+00
    0.00000E+00         0.00000E+00        -0.55873E+08
 
   -0.55884E+08         0.17560E+07         0.00000E+00
    0.17560E+07        -0.49915E+08         0.00000E+00
    0.00000E+00         0.00000E+00        -0.55872E+08
 
   -0.55882E+08         0.18105E+07         0.00000E+00
    0.18105E+07        -0.49912E+08         0.00000E+00
    0.00000E+00         0.00000E+00        -0.55871E+08
 
   -0.55879E+08         0.18653E+07         0.00000E+00
    0.18653E+07        -0.49909E+08         0.00000E+00
    0.00000E+00         0.00000E+00        -0.55870E+08
 
   -0.55877E+08         0.19204E+07         0.00000E+00
    0.19204E+07        -0.49907E+08         0.00000E+00
    0.00000E+00         0.00000E+00        -0.55869E+08
 
   -0.55875E+08         0.19759E+07         0.00000E+00
    0.19759E+07        -0.49904E+08         0.00000E+00
    0.00000E+00         0.00000E+00        -0.55868E+08
 
   -0.55873E+08         0.20317E+07         0.00000E+00
    0.20317E+07        -0.49902E+08         0.00000E+00
    0.00000E+00         0.00000E+00        -0.55867E+08
 
   -0.55872E+08         0.20879E+07         0.00000E+00
    0.20879E+07        -0.49900E+08         0.00000E+00
    0.00000E+00         0.00000E+00        -0.55866E+08
 
   -0.55870E+08         0.21444E+07         0.00000E+00
    0.21444E+07        -0.49898E+08         0.00000E+00
    0.00000E+00         0.00000E+00        -0.55866E+08
 
   -0.55869E+08         0.22012E+07         0.00000E+00
    0.22012E+07        -0.49896E+08         0.00000E+00
    0.00000E+00         0.00000E+00        -0.55865E+08
 
   -0.55868E+08         0.22585E+07         0.00000E+00
    0.22585E+07        -0.49895E+08         0.00000E+00
    0.00000E+00         0.00000E+00        -0.55864E+08
 
   -0.55867E+08         0.23160E+07         0.00000E+00
    0.23160E+07        -0.49894E+08         0.00000E+00
    0.00000E+00         0.00000E+00        -0.55864E+08
 
   -0.55866E+08         0.23740E+07         0.00000E+00
    0.23740E+07        -0.49893E+08         0.00000E+00
    0.00000E+00         0.00000E+00        -0.55863E+08
 
   -0.55865E+08         0.24323E+07         0.00000E+00
    0.24323E+07        -0.49892E+08         0.00000E+00
    0.00000E+00         0.00000E+00        -0.55863E+08
 
   -0.55864E+08         0.24909E+07         0.00000E+00
    0.24909E+07        -0.49891E+08         0.00000E+00
    0.00000E+00         0.00000E+00        -0.55863E+08
 
   -0.55863E+08         0.25499E+07         0.00000E+00
    0.25499E+07        -0.49891E+08         0.00000E+00
    0.00000E+00         0.00000E+00        -0.55863E+08
 
   -0.55863E+08         0.26093E+07         0.00000E+00
    0.26093E+07        -0.49891E+08         0.00000E+00
    0.00000E+00         0.00000E+00        -0.55863E+08
 
   -0.56008E+08         0.26093E+05         0.00000E+00
    0.26093E+05        -0.50000E+08         0.00000E+00
    0.00000E+00         0.00000E+00        -0.55672E+08
 
   -0.55987E+08         0.77665E+05         0.00000E+00
    0.77665E+05        -0.50000E+08         0.00000E+00
    0.00000E+00         0.00000E+00        -0.55668E+08
 
   -0.55967E+08         0.12901E+06         0.00000E+00
    0.12901E+06        -0.50000E+08         0.00000E+00
    0.00000E+00         0.00000E+00        -0.55664E+08
 
   -0.55947E+08         0.18014E+06         0.00000E+00
    0.18014E+06        -0.49999E+08         0.00000E+00
    0.00000E+00         0.00000E+00        -0.55660E+08
 
   -0.55928E+08         0.23109E+06         0.00000E+00
    0.23109E+06        -0.49999E+08         0.00000E+00
    0.00000E+00         0.00000E+00        -0.55656E+08
 
   -0.55910E+08         0.28188E+06         0.00000E+00
    0.28188E+06        -0.49998E+08         0.00000E+00
    0.00000E+00         0.00000E+00        -0.55652E+08
 
   -0.55893E+08         0.33253E+06         0.00000E+00
    0.33253E+06        -0.49997E+08         0.00000E+00
    0.00000E+00         0.00000E+00        -0.55649E+08
 
   -0.55875E+08         0.38306E+06         0.00000E+00
    0.38306E+06        -0.49996E+08         0.00000E+00
    0.00000E+00         0.00000E+00        -0.55645E+08
 
   -0.55859E+08         0.43349E+06         0.00000E+00
    0.43349E+06        -0.49995E+08         0.00000E+00
    0.00000E+00         0.00000E+00        -0.55641E+08
 
   -0.55843E+08         0.48385E+06         0.00000E+00
    0.48385E+06        -0.49993E+08         0.00000E+00
    0.00000E+00         0.00000E+00        -0.55638E+08
 
   -0.55828E+08         0.53416E+06         0.00000E+00
    0.53416E+06        -0.49992E+08         0.00000E+00
    0.00000E+00         0.00000E+00        -0.55634E+08
 
   -0.55813E+08         0.58444E+06         0.00000E+00
    0.58444E+06        -0.49990E+08         0.00000E+00
    0.00000E+00         0.00000E+00        -0.55631E+08
 
   -0.55799E+08         0.63470E+06         0.00000E+00
    0.63470E+06        -0.49988E+08         0.00000E+00
    0.00000E+00         0.00000E+00        -0.55628E+08
 
   -0.55786E+08         0.68496E+06         0.00000E+00
    0.68496E+06        -0.49987E+08         0.00000E+00
    0.00000E+00         0.00000E+00        -0.55625E+08
 
   -0.55773E+08         0.73524E+06         0.00000E+00
    0.73524E+06        -0.49985E+08         0.00000E+00
    0.00000E+00         0.00000E+00        -0.55622E+08
 
   -0.55761E+08         0.78557E+06         0.00000E+00
    0.78557E+06        -0.49983E+08         0.00000E+00
    0.00000E+00         0.00000E+00        -0.55619E+08
 
   -0.55749E+08         0.83595E+06         0.00000E+00
    0.83595E+06        -0.49980E+08         0.00000E+00
    0.00000E+00         0.00000E+00        -0.55616E+08
 
   -0.55738E+08         0.88640E+06         0.00000E+00
    0.88640E+06        -0.49978E+08         0.00000E+00
    0.00000E+00         0.00000E+00        -0.55613E+08
 
   -0.55727E+08         0.93695E+06         0.00000E+00
    0.93695E+06        -0.49976E+08         0.00000E+00
    0.00000E+00         0.00000E+00        -0.55610E+08
 
   -0.55717E+08         0.98760E+06         0.00000E+00
    0.98760E+06        -0.49974E+08         0.00000E+00
    0.00000E+00         0.00000E+00        -0.55608E+08
 
   -0.55707E+08         0.10384E+07         0.00000E+00
    0.10384E+07        -0.49971E+08         0.00000E+00
    0.00000E+00         0.00000E+00        -0.55605E+08
 
   -0.55698E+08         0.10893E+07         0.00000E+00
    0.10893E+07        -0.49969E+08         0.00000E+00
    0.00000E+00         0.00000E+00        -0.55603E+08
 
   -0.55689E+08         0.11403E+07         0.00000E+00
    0.11403E+07        -0.49966E+08         0.00000E+00
    0.00000E+00         0.00000E+00        -0.55601E+08
 
   -0.55681E+08         0.11915E+07         0.00000E+00
    0.11915E+07        -0.49964E+08         0.00000E+00
    0.00000E+00         0.00000E+00        -0.55598E+08
 
   -0.55673E+08         0.12429E+07         0.00000E+00
    0.12429E+07        -0.49961E+08         0.00000E+00
    0.00000E+00         0.00000E+00        -0.55596E+08
 
   -0.55665E+08         0.12944E+07         0.00000E+00
    0.12944E+07        -0.49959E+08         0.00000E+00
    0.00000E+00         0.00000E+00        -0.55594E+08
 
   -0.55658E+08         0.13462E+07         0.00000E+00
    0.13462E+07        -0.49956E+08         0.00000E+00
    0.00000E+00         0.00000E+00        -0.55592E+08
 
   -0.55652E+08         0.13981E+07         0.00000E+00
    0.13981E+07        -0.49954E+08         0.00000E+00
    0.00000E+00         0.00000E+00        -0.55590E+08
 
   -0.55645E+08         0.14503E+07         0.00000E+00
    0.14503E+07        -0.49951E+08         0.00000E+00
    0.00000E+00         0.00000E+00        -0.55588E+08
 
   -0.55639E+08         0.15027E+07         0.00000E+00
    0.15027E+07        -0.49949E+08         0.00000E+00
    0.00000E+00         0.00000E+00        -0.55587E+08
 
   -0.55634E+08         0.15553E+07         0.00000E+00
    0.15553E+07        -0.49946E+08         0.00000E+00
    0.00000E+00         0.00000E+00        -0.55585E+08
 
   -0.55628E+08         0.16081E+07         0.00000E+00
    0.16081E+07        -0.49944E+08         0.00000E+00
    0.00000E+00         0.00000E+00        -0.55583E+08
 
   -0.55623E+08         0.16612E+07         0.00000E+00
    0.16612E+07        -0.49942E+08         0.00000E+00
    0.00000E+00         0.00000E+00        -0.55582E+08
 
   -0.55619E+08         0.17146E+07         0.00000E+00
    0.17146E+07        -0.49940E+08         0.00000E+00
    0.00000E+00         0.00000E+00        -0.55580E+08
 
   -0.55614E+08         0.17682E+07         0.00000E+00
    0.17682E+07        -0.49938E+08         0.00000E+00
    0.00000E+00         0.00000E+00        -0.55579E+08
 
   -0.55610E+08         0.18221E+07         0.00000E+00
    0.18221E+07        -0.49936E+08         0.00000E+00
    0.00000E+00         0.00000E+00        -0.55578E+08
 
   -0.55606E+08         0.18762E+07         0.00000E+00
    0.18762E+07        -0.49934E+08         0.00000E+00
    0.00000E+00         0.00000E+00        -0.55577E+08
 
   -0.55602E+08         0.19306E+07         0.00000E+00
    0.19306E+07        -0.49932E+08         0.00000E+00
    0.00000E+00         0.00000E+00        -0.55576E+08
 
   -0.55599E+08         0.19853E+07         0.00000E+00
    0.19853E+07        -0.49931E+08         0.00000E+00
    0.00000E+00         0.00000E+00        -0.55574E+08
 
   -0.55595E+08         0.20403E+07         0.00000E+00
    0.20403E+07        -0.49929E+08         0.00000E+00
    0.00000E+00         0.00000E+00        -0.55573E+08
 
   -0.55592E+08         0.20956E+07         0.00000E+00
    0.20956E+07        -0.49928E+08         0.00000E+00
    0.00000E+00         0.00000E+00        -0.55573E+08
 
   -0.55589E+08         0.21511E+07         0.00000E+00
    0.21511E+07        -0.49927E+08         0.00000E+00
    0.00000E+00         0.00000E+00        -0.55572E+08
 
   -0.55586E+08         0.22070E+07         0.00000E+00
    0.22070E+07        -0.49926E+08         0.00000E+00
    0.00000E+00         0.00000E+00        -0.55571E+08
 
   -0.55583E+08         0.22632E+07         0.00000E+00
    0.22632E+07        -0.49926E+08         0.00000E+00
    0.00000E+00         0.00000E+00        -0.55570E+08
 
   -0.55581E+08         0.23196E+07         0.00000E+00
    0.23196E+07        -0.49925E+08         0.00000E+00
    0.00000E+00         0.00000E+00        -0.55570E+08
 
   -0.55578E+08         0.23764E+07         0.00000E+00
    0.23764E+07        -0.49925E+08         0.00000E+00
    0.00000E+00         0.00000E+00        -0.55569E+08
 
   -0.55576E+08         0.24335E+07         0.00000E+00
    0.24335E+07        -0.49925E+08         0.00000E+00
    0.00000E+00         0.00000E+00        -0.55569E+08
 
   -0.55573E+08         0.24909E+07         0.00000E+00
    0.24909E+07        -0.49925E+08         0.00000E+00
    0.00000E+00         0.00000E+00        -0.55568E+08
 
   -0.55571E+08         0.25486E+07         0.00000E+00
    0.25486E+07        -0.49926E+08         0.00000E+00
    0.00000E+00         0.00000E+00        -0.55568E+08
 
   -0.55568E+08         0.26066E+07         0.00000E+00
    0.26066E+07        -0.49927E+08         0.00000E+00
    0.00000E+00         0.00000E+00        -0.55567E+08
 
   -0.55748E+08         0.26418E+05         0.00000E+00
    0.26418E+05        -0.50000E+08         0.00000E+00
    0.00000E+00         0.00000E+00        -0.55384E+08
 
   -0.55728E+08         0.78656E+05         0.00000E+00
    0.78656E+05        -0.50000E+08         0.00000E+00
    0.00000E+00         0.00000E+00        -0.55380E+08
 
   -0.55709E+08         0.13067E+06         0.00000E+00
    0.13067E+06        -0.50000E+08         0.00000E+00
    0.00000E+00         0.00000E+00        -0.55376E+08
 
   -0.55690E+08         0.18246E+06         0.00000E+00
    0.18246E+06        -0.50000E+08         0.00000E+00
    0.00000E+00         0.00000E+00        -0.55372E+08
 
   -0.55672E+08         0.23407E+06         0.00000E+00
    0.23407E+06        -0.49999E+08         0.00000E+00
    0.00000E+00         0.00000E+00        -0.55368E+08
 
   -0.55655E+08         0.28551E+06         0.00000E+00
    0.28551E+06        -0.49999E+08         0.00000E+00
    0.00000E+00         0.00000E+00        -0.55365E+08
 
   -0.55638E+08         0.33680E+06         0.00000E+00
    0.33680E+06        -0.49998E+08         0.00000E+00
    0.00000E+00         0.00000E+00        -0.55361E+08
 
   -0.55621E+08         0.38796E+06         0.00000E+00
    0.38796E+06        -0.49997E+08         0.00000E+00
    0.00000E+00         0.00000E+00        -0.55358E+08
 
   -0.55606E+08         0.43900E+06         0.00000E+00
    0.43900E+06        -0.49996E+08         0.00000E+00
    0.00000E+00         0.00000E+00        -0.55354E+08
 
   -0.55590E+08         0.48994E+06         0.00000E+00
    0.48994E+06        -0.49995E+08         0.00000E+00
    0.00000E+00         0.00000E+00        -0.55351E+08
 
   -0.55575E+08         0.54081E+06         0.00000E+00
    0.54081E+06        -0.49994E+08         0.00000E+00
    0.00000E+00         0.00000E+00        -0.55348E+08
 
   -0.55561E+08         0.59161E+06         0.00000E+00
    0.59161E+06        -0.49993E+08         0.00000E+00
    0.00000E+00         0.00000E+00        -0.55344E+08
 
   -0.55547E+08         0.64237E+06         0.00000E+00
    0.64237E+06        -0.49992E+08         0.00000E+00
    0.00000E+00         0.00000E+00        -0.55341E+08
 
   -0.55533E+08         0.69310E+06         0.00000E+00
    0.69310E+06        -0.49990E+08         0.00000E+00
    0.00000E+00         0.00000E+00        -0.55338E+08
 
   -0.55520E+08         0.74382E+06         0.00000E+00
    0.74382E+06        -0.49989E+08         0.00000E+00
    0.00000E+00         0.00000E+00        -0.55335E+08
 
   -0.55508E+08         0.79454E+06         0.00000E+00
    0.79454E+06        -0.49988E+08         0.00000E+00
    0.00000E+00         0.00000E+00        -0.55332E+08
 
   -0.55496E+08         0.84529E+06         0.00000E+00
    0.84529E+06        -0.49986E+08         0.00000E+00
    0.00000E+00         0.00000E+00        -0.55330E+08
 
   -0.55484E+08         0.89606E+06         0.00000E+00
    0.89606E+06        -0.49984E+08         0.00000E+00
    0.00000E+00         0.00000E+00        -0.55327E+08
 
   -0.55473E+08         0.94688E+06         0.00000E+00
    0.94688E+06        -0.49983E+08         0.00000E+00
    0.00000E+00         0.00000E+00        -0.55324E+08
 
   -0.55463E+08         0.99776E+06         0.00000E+00
    0.99776E+06        -0.49981E+08         0.00000E+00
    0.00000E+00         0.00000E+00        -0.55322E+08
 
   -0.55452E+08         0.10487E+07         0.00000E+00
    0.10487E+07        -0.49979E+08         0.00000E+00
    0.00000E+00         0.00000E+00        -0.55319E+08
 
   -0.55443E+08         0.10998E+07         0.00000E+00
    0.10998E+07        -0.49978E+08         0.00000E+00
    0.00000E+00         0.00000E+00        -0.55317E+08
 
   -0.55433E+08         0.11509E+07         0.00000E+00
    0.11509E+07        -0.49976E+08         0.00000E+00
    0.00000E+00         0.00000E+00        -0.55315E+08
 
   -0.55424E+08         0.12022E+07         0.00000E+00
    0.12022E+07        -0.49974E+08         0.00000E+00
    0.00000E+00         0.00000E+00        -0.55312E+08
 
   -0.55416E+08         0.12535E+07         0.00000E+00
    0.12535E+07        -0.49972E+08         0.00000E+00
    0.00000E+00         0.00000E+00        -0.55310E+08
 
   -0.55407E+08         0.13050E+07         0.00000E+00
    0.13050E+07        -0.49971E+08         0.00000E+00
    0.00000E+00         0.00000E+00        -0.55308E+08
 
   -0.55399E+08         0.13567E+07         0.00000E+00
    0.13567E+07        -0.49969E+08         0.00000E+00
    0.00000E+00         0.00000E+00        -0.55306E+08
 
   -0.55392E+08         0.14085E+07         0.00000E+00
    0.14085E+07        -0.49967E+08         0.00000E+00
    0.00000E+00         0.00000E+00        -0.55304E+08
 
   -0.55385E+08         0.14604E+07         0.00000E+00
    0.14604E+07        -0.49965E+08         0.00000E+00
    0.00000E+00         0.00000E+00        -0.55302E+08
 
   -0.55378E+08         0.15125E+07         0.00000E+00
    0.15125E+07        -0.49964E+08         0.00000E+00
    0.00000E+00         0.00000E+00        -0.55301E+08
 
   -0.55371E+08         0.15648E+07         0.00000E+00
    0.15648E+07        -0.49962E+08         0.00000E+00
    0.00000E+00         0.00000E+00        -0.55299E+08
 
   -0.55364E+08         0.16173E+07         0.00000E+00
    0.16173E+07        -0.49961E+08         0.00000E+00
    0.00000E+00         0.00000E+00        -0.55297E+08
 
   -0.55358E+08         0.16700E+07         0.00000E+00
    0.16700E+07        -0.49959E+08         0.00000E+00
    0.00000E+00         0.00000E+00        -0.55296E+08
 
   -0.55352E+08         0.17229E+07         0.00000E+00
    0.17229E+07        -0.49958E+08         0.00000E+00
    0.00000E+00         0.00000E+00        -0.55294E+08
 
   -0.55347E+08         0.17760E+07         0.00000E+00
    0.17760E+07        -0.49957E+08         0.00000E+00
    0.00000E+00         0.00000E+00        -0.55293E+08
 
   -0.55341E+08         0.18293E+07         0.00000E+00
    0.18293E+07        -0.49956E+08         0.00000E+00
    0.00000E+00         0.00000E+00        -0.55291E+08
 
   -0.55336E+08         0.18828E+07         0.00000E+00
    0.18828E+07        -0.49955E+08         0.00000E+00
    0.00000E+00         0.00000E+00        -0.55290E+08
 
   -0.55331E+08         0.19365E+07         0.00000E+00
    0.19365E+07        -0.49954E+08         0.00000E+00
    0.00000E+00         0.00000E+00        -0.55289E+08
 
   -0.55326E+08         0.19905E+07         0.00000E+00
    0.19905E+07        -0.49953E+08         0.00000E+00
    0.00000E+00         0.00000E+00        -0.55288E+08
 
   -0.55322E+08         0.20447E+07         0.00000E+00
    0.20447E+07        -0.49952E+08         0.00000E+00
    0.00000E+00         0.00000E+00        -0.55287E+08
 
   -0.55317E+08         0.20991E+07         0.00000E+00
    0.20991E+07        -0.49952E+08         0.00000E+00
    0.00000E+00         0.00000E+00        -0.55286E+08
 
   -0.55313E+08         0.21538E+07         0.00000E+00
    0.21538E+07        -0.49952E+08         0.00000E+00
    0.00000E+00         0.00000E+00        -0.55285E+08
 
   -0.55309E+08         0.22087E+07         0.00000E+00
    0.22087E+07        -0.49952E+08         0.00000E+00
    0.00000E+00         0.00000E+00        -0.55284E+08
 
   -0.55304E+08         0.22639E+07         0.00000E+00
    0.22639E+07        -0.49952E+08         0.00000E+00
    0.00000E+00         0.00000E+00        -0.55283E+08
 
   -0.55300E+08         0.23193E+07         0.00000E+00
    0.23193E+07        -0.49952E+08         0.00000E+00
    0.00000E+00         0.00000E+00        -0.55282E+08
 
   -0.55296E+08         0.23750E+07         0.00000E+00
    0.23750E+07        -0.49953E+08         0.00000E+00
    0.00000E+00         0.00000E+00        -0.55281E+08
 
   -0.55292E+08         0.24310E+07         0.00000E+00
    0.24310E+07        -0.49953E+08         0.00000E+00
    0.00000E+00         0.00000E+00        -0.55281E+08
 
   -0.55288E+08         0.24872E+07         0.00000E+00
    0.24872E+07        -0.49954E+08         0.00000E+00
    0.00000E+00         0.00000E+00        -0.55280E+08
 
   -0.55285E+08         0.25436E+07         0.00000E+00
    0.25436E+07        -0.49956E+08         0.00000E+00
    0.00000E+00         0.00000E+00        -0.55280E+08
 
   -0.55281E+08         0.26004E+07         0.00000E+00
    0.26004E+07        -0.49957E+08         0.00000E+00
    0.00000E+00         0.00000E+00        -0.55279E+08
 
   -0.55485E+08         0.26638E+05         0.00000E+00
    0.26638E+05        -0.50000E+08         0.00000E+00
    0.00000E+00         0.00000E+00        -0.55100E+08
 
   -0.55466E+08         0.79337E+05         0.00000E+00
    0.79337E+05        -0.50000E+08         0.00000E+00
    0.00000E+00         0.00000E+00        -0.55097E+08
 
   -0.55448E+08         0.13181E+06         0.00000E+00
    0.13181E+06        -0.50000E+08         0.00000E+00
    0.00000E+00         0.00000E+00        -0.55093E+08
 
   -0.55431E+08         0.18408E+06         0.00000E+00
    0.18408E+06        -0.50000E+08         0.00000E+00
    0.00000E+00         0.00000E+00        -0.55090E+08
 
   -0.55414E+08         0.23615E+06         0.00000E+00
    0.23615E+06        -0.49999E+08         0.00000E+00
    0.00000E+00         0.00000E+00        -0.55086E+08
 
   -0.55397E+08         0.28805E+06         0.00000E+00
    0.28805E+06        -0.49999E+08         0.00000E+00
    0.00000E+00         0.00000E+00        -0.55083E+08
 
   -0.55381E+08         0.33979E+06         0.00000E+00
    0.33979E+06        -0.49999E+08         0.00000E+00
    0.00000E+00         0.00000E+00        -0.55079E+08
 
   -0.55365E+08         0.39139E+06         0.00000E+00
    0.39139E+06        -0.49998E+08         0.00000E+00
    0.00000E+00         0.00000E+00        -0.55076E+08
 
   -0.55349E+08         0.44286E+06         0.00000E+00
    0.44286E+06        -0.49997E+08         0.00000E+00
    0.00000E+00         0.00000E+00        -0.55073E+08
 
   -0.55334E+08         0.49421E+06         0.00000E+00
    0.49421E+06        -0.49997E+08         0.00000E+00
    0.00000E+00         0.00000E+00        -0.55069E+08
 
   -0.55320E+08         0.54547E+06         0.00000E+00
    0.54547E+06        -0.49996E+08         0.00000E+00
    0.00000E+00         0.00000E+00        -0.55066E+08
 
   -0.55306E+08         0.59665E+06         0.00000E+00
    0.59665E+06        -0.49995E+08         0.00000E+00
    0.00000E+00         0.00000E+00        -0.55063E+08
 
   -0.55292E+08         0.64776E+06         0.00000E+00
    0.64776E+06        -0.49994E+08         0.00000E+00
    0.00000E+00         0.00000E+00        -0.55060E+08
 
   -0.55279E+08         0.69882E+06         0.00000E+00
    0.69882E+06        -0.49994E+08         0.00000E+00
    0.00000E+00         0.00000E+00        -0.55057E+08
 
   -0.55266E+08         0.74984E+06         0.00000E+00
    0.74984E+06        -0.49993E+08         0.00000E+00
    0.00000E+00         0.00000E+00        -0.55055E+08
 
   -0.55254E+08         0.80083E+06         0.00000E+00
    0.80083E+06        -0.49992E+08         0.00000E+00
    0.00000E+00         0.00000E+00        -0.55052E+08
 
   -0.55242E+08         0.85181E+06         0.00000E+00
    0.85181E+06        -0.49991E+08         0.00000E+00
    0.00000E+00         0.00000E+00        -0.55049E+08
 
   -0.55230E+08         0.90279E+06         0.00000E+00
    0.90279E+06        -0.49989E+08         0.00000E+00
    0.00000E+00         0.00000E+00        -0.55047E+08
 
   -0.55219E+08         0.95378E+06         0.00000E+00
    0.95378E+06        -0.49988E+08         0.00000E+00
    0.00000E+00         0.00000E+00        -0.55044E+08
 
   -0.55208E+08         0.10048E+07         0.00000E+00
    0.10048E+07        -0.49987E+08         0.00000E+00
    0.00000E+00         0.00000E+00        -0.55041E+08
 
   -0.55197E+08         0.10559E+07         0.00000E+00
    0.10559E+07        -0.49986E+08         0.00000E+00
    0.00000E+00         0.00000E+00        -0.55039E+08
 
   -0.55187E+08         0.11070E+07         0.00000E+00
    0.11070E+07        -0.49985E+08         0.00000E+00
    0.00000E+00         0.00000E+00        -0.55037E+08
 
   -0.55177E+08         0.11581E+07         0.00000E+00
    0.11581E+07        -0.49984E+08         0.00000E+00
    0.00000E+00         0.00000E+00        -0.55034E+08
 
   -0.55168E+08         0.12094E+07         0.00000E+00
    0.12094E+07        -0.49983E+08         0.00000E+00
    0.00000E+00         0.00000E+00        -0.55032E+08
 
   -0.55159E+08         0.12607E+07         0.00000E+00
    0.12607E+07        -0.49982E+08         0.00000E+00
    0.00000E+00         0.00000E+00        -0.55030E+08
 
   -0.55150E+08         0.13121E+07         0.00000E+00
    0.13121E+07        -0.49980E+08         0.00000E+00
    0.00000E+00         0.00000E+00        -0.55028E+08
 
   -0.55141E+08         0.13636E+07         0.00000E+00
    0.13636E+07        -0.49979E+08         0.00000E+00
    0.00000E+00         0.00000E+00        -0.55026E+08
 
   -0.55133E+08         0.14152E+07         0.00000E+00
    0.14152E+07        -0.49978E+08         0.00000E+00
    0.00000E+00         0.00000E+00        -0.55024E+08
 
   -0.55125E+08         0.14669E+07         0.00000E+00
    0.14669E+07        -0.49977E+08         0.00000E+00
    0.00000E+00         0.00000E+00        -0.55022E+08
 
   -0.55117E+08         0.15187E+07         0.00000E+00
    0.15187E+07        -0.49976E+08         0.00000E+00
    0.00000E+00         0.00000E+00        -0.55020E+08
 
   -0.55110E+08         0.15707E+07         0.00000E+00
    0.15707E+07        -0.49975E+08         0.00000E+00
    0.00000E+00         0.00000E+00        -0.55019E+08
 
   -0.55103E+08         0.16228E+07         0.00000E+00
    0.16228E+07        -0.49975E+08         0.00000E+00
    0.00000E+00         0.00000E+00        -0.55017E+08
 
   -0.55096E+08         0.16751E+07         0.00000E+00
    0.16751E+07        -0.49974E+08         0.00000E+00
    0.00000E+00         0.00000E+00        -0.55015E+08
 
   -0.55089E+08         0.17275E+07         0.00000E+00
    0.17275E+07        -0.49973E+08         0.00000E+00
    0.00000E+00         0.00000E+00        -0.55014E+08
 
   -0.55082E+08         0.17801E+07         0.00000E+00
    0.17801E+07        -0.49973E+08         0.00000E+00
    0.00000E+00         0.00000E+00        -0.55012E+08
 
   -0.55076E+08         0.18328E+07         0.00000E+00
    0.18328E+07        -0.49972E+08         0.00000E+00
    0.00000E+00         0.00000E+00        -0.55011E+08
 
   -0.55070E+08         0.18857E+07         0.00000E+00
    0.18857E+07        -0.49972E+08         0.00000E+00
    0.00000E+00         0.00000E+00        -0.55010E+08
 
   -0.55064E+08         0.19388E+07         0.00000E+00
    0.19388E+07        -0.49972E+08         0.00000E+00
    0.00000E+00         0.00000E+00        -0.55008E+08
 
   -0.55058E+08         0.19920E+07         0.00000E+00
    0.19920E+07        -0.49972E+08         0.00000E+00
    0.00000E+00         0.00000E+00        -0.55007E+08
 
   -0.55052E+08         0.20455E+07         0.00000E+00
    0.20455E+07        -0.49972E+08         0.00000E+00
    0.00000E+00         0.00000E+00        -0.55006E+08
 
   -0.55046E+08         0.20991E+07         0.00000E+00
    0.20991E+07        -0.49972E+08         0.00000E+00
    0.00000E+00         0.00000E+00        -0.55005E+08
 
   -0.55041E+08         0.21530E+07         0.00000E+00
    0.21530E+07        -0.49972E+08         0.00000E+00
    0.00000E+00         0.00000E+00        -0.55004E+08
 
   -0.55036E+08         0.22070E+07         0.00000E+00
    0.22070E+07        -0.49973E+08         0.00000E+00
    0.00000E+00         0.00000E+00        -0.55003E+08
 
   -0.55030E+08         0.22612E+07         0.00000E+00
    0.22612E+07        -0.49974E+08         0.00000E+00
    0.00000E+00         0.00000E+00        -0.55002E+08
 
   -0.55025E+08         0.23157E+07         0.00000E+00
    0.23157E+07        -0.49975E+08         0.00000E+00
    0.00000E+00         0.00000E+00        -0.55001E+08
 
   -0.55020E+08         0.23703E+07         0.00000E+00
    0.23703E+07        -0.49976E+08         0.00000E+00
    0.00000E+00         0.00000E+00        -0.55000E+08
 
   -0.55015E+08         0.24252E+07         0.00000E+00
    0.24252E+07        -0.49977E+08         0.00000E+00
    0.00000E+00         0.00000E+00        -0.54999E+08
 
   -0.55010E+08         0.24803E+07         0.00000E+00
    0.24803E+07        -0.49979E+08         0.00000E+00
    0.00000E+00         0.00000E+00        -0.54999E+08
 
   -0.55005E+08         0.25355E+07         0.00000E+00
    0.25355E+07        -0.49980E+08         0.00000E+00
    0.00000E+00         0.00000E+00        -0.54998E+08
 
   -0.55000E+08         0.25911E+07         0.00000E+00
    0.25911E+07        -0.49982E+08         0.00000E+00
    0.00000E+00         0.00000E+00        -0.54997E+08
 
   -0.55220E+08         0.26774E+05         0.00000E+00
    0.26774E+05        -0.50000E+08         0.00000E+00
    0.00000E+00         0.00000E+00        -0.54823E+08
 
   -0.55202E+08         0.79767E+05         0.00000E+00
    0.79767E+05        -0.50000E+08         0.00000E+00
    0.00000E+00         0.00000E+00        -0.54819E+08
 
   -0.55186E+08         0.13254E+06         0.00000E+00
    0.13254E+06        -0.50000E+08         0.00000E+00
    0.00000E+00         0.00000E+00        -0.54816E+08
 
   -0.55169E+08         0.18511E+06         0.00000E+00
    0.18511E+06        -0.50000E+08         0.00000E+00
    0.00000E+00         0.00000E+00        -0.54812E+08
 
   -0.55153E+08         0.23749E+06         0.00000E+00
    0.23749E+06        -0.50000E+08         0.00000E+00
    0.00000E+00         0.00000E+00        -0.54809E+08
 
   -0.55137E+08         0.28969E+06         0.00000E+00
    0.28969E+06        -0.49999E+08         0.00000E+00
    0.00000E+00         0.00000E+00        -0.54806E+08
 
   -0.55121E+08         0.34173E+06         0.00000E+00
    0.34173E+06        -0.49999E+08         0.00000E+00
    0.00000E+00         0.00000E+00        -0.54803E+08
 
   -0.55106E+08         0.39362E+06         0.00000E+00
    0.39362E+06        -0.49999E+08         0.00000E+00
    0.00000E+00         0.00000E+00        -0.54800E+08
 
   -0.55092E+08         0.44537E+06         0.00000E+00
    0.44537E+06        -0.49999E+08         0.00000E+00
    0.00000E+00         0.00000E+00        -0.54797E+08
 
   -0.55077E+08         0.49700E+06         0.00000E+00
    0.49700E+06        -0.49998E+08         0.00000E+00
    0.00000E+00         0.00000E+00        -0.54793E+08
 
   -0.55063E+08         0.54852E+06         0.00000E+00
    0.54852E+06        -0.49998E+08         0.00000E+00
    0.00000E+00         0.00000E+00        -0.54791E+08
 
   -0.55050E+08         0.59994E+06         0.00000E+00
    0.59994E+06        -0.49997E+08         0.00000E+00
    0.00000E+00         0.00000E+00        -0.54788E+08
 
   -0.55036E+08         0.65128E+06         0.00000E+00
    0.65128E+06        -0.49997E+08         0.00000E+00
    0.00000E+00         0.00000E+00        -0.54785E+08
 
   -0.55023E+08         0.70254E+06         0.00000E+00
    0.70254E+06        -0.49996E+08         0.00000E+00
    0.00000E+00         0.00000E+00        -0.54782E+08
 
   -0.55011E+08         0.75374E+06         0.00000E+00
    0.75374E+06        -0.49996E+08         0.00000E+00
    0.00000E+00         0.00000E+00        -0.54779E+08
 
   -0.54998E+08         0.80489E+06         0.00000E+00
    0.80489E+06        -0.49995E+08         0.00000E+00
    0.00000E+00         0.00000E+00        -0.54777E+08
 
   -0.54986E+08         0.85601E+06         0.00000E+00
    0.85601E+06        -0.49994E+08         0.00000E+00
    0.00000E+00         0.00000E+00        -0.54774E+08
 
   -0.54975E+08         0.90710E+06         0.00000E+00
    0.90710E+06        -0.49994E+08         0.00000E+00
    0.00000E+00         0.00000E+00        -0.54772E+08
 
   -0.54963E+08         0.95817E+06         0.00000E+00
    0.95817E+06        -0.49993E+08         0.00000E+00
    0.00000E+00         0.00000E+00        -0.54769E+08
 
   -0.54952E+08         0.10092E+07         0.00000E+00
    0.10092E+07        -0.49992E+08         0.00000E+00
    0.00000E+00         0.00000E+00        -0.54767E+08
 
   -0.54942E+08         0.10603E+07         0.00000E+00
    0.10603E+07        -0.49992E+08         0.00000E+00
    0.00000E+00         0.00000E+00        -0.54764E+08
 
   -0.54931E+08         0.11114E+07         0.00000E+00
    0.11114E+07        -0.49991E+08         0.00000E+00
    0.00000E+00         0.00000E+00        -0.54762E+08
 
   -0.54921E+08         0.11625E+07         0.00000E+00
    0.11625E+07        -0.49990E+08         0.00000E+00
    0.00000E+00         0.00000E+00        -0.54760E+08
 
   -0.54912E+08         0.12137E+07         0.00000E+00
    0.12137E+07        -0.49990E+08         0.00000E+00
    0.00000E+00         0.00000E+00        -0.54758E+08
 
   -0.54902E+08         0.12649E+07         0.00000E+00
    0.12649E+07        -0.49989E+08         0.00000E+00
    0.00000E+00         0.00000E+00        -0.54756E+08
 
   -0.54893E+08         0.13161E+07         0.00000E+00
    0.13161E+07        -0.49989E+08         0.00000E+00
    0.00000E+00         0.00000E+00        -0.54754E+08
 
   -0.54884E+08         0.13674E+07         0.00000E+00
    0.13674E+07        -0.49988E+08         0.00000E+00
    0.00000E+00         0.00000E+00        -0.54752E+08
 
   -0.54875E+08         0.14188E+07         0.00000E+00
    0.14188E+07        -0.49987E+08         0.00000E+00
    0.00000E+00         0.00000E+00        -0.54750E+08
 
   -0.54867E+08         0.14703E+07         0.00000E+00
    0.14703E+07        -0.49987E+08         0.00000E+00
    0.00000E+00         0.00000E+00        -0.54748E+08
 
   -0.54858E+08         0.15218E+07         0.00000E+00
    0.15218E+07        -0.49987E+08         0.00000E+00
    0.00000E+00         0.00000E+00        -0.54746E+08
 
   -0.54850E+08         0.15734E+07         0.00000E+00
    0.15734E+07        -0.49986E+08         0.00000E+00
    0.00000E+00         0.00000E+00        -0.54744E+08
 
   -0.54843E+08         0.16252E+07         0.00000E+00
    0.16252E+07        -0.49986E+08         0.00000E+00
    0.00000E+00         0.00000E+00        -0.54743E+08
 
   -0.54835E+08         0.16770E+07         0.00000E+00
    0.16770E+07        -0.49986E+08         0.00000E+00
    0.00000E+00         0.00000E+00        -0.54741E+08
 
   -0.54828E+08         0.17290E+07         0.00000E+00
    0.17290E+07        -0.49986E+08         0.00000E+00
    0.00000E+00         0.00000E+00        -0.54739E+08
 
   -0.54820E+08         0.17810E+07         0.00000E+00
    0.17810E+07        -0.49986E+08         0.00000E+00
    0.00000E+00         0.00000E+00        -0.54738E+08
 
   -0.54813E+08         0.18332E+07         0.00000E+00
    0.18332E+07        -0.49986E+08         0.00000E+00
    0.00000E+00         0.00000E+00        -0.54736E+08
 
   -0.54806E+08         0.18855E+07         0.00000E+00
    0.18855E+07        -0.49986E+08         0.00000E+00
    0.00000E+00         0.00000E+00        -0.54735E+08
 
   -0.54799E+08         0.19380E+07         0.00000E+00
    0.19380E+07        -0.49987E+08         0.00000E+00
    0.00000E+00         0.00000E+00        -0.54734E+08
 
   -0.54793E+08         0.19906E+07         0.00000E+00
    0.19906E+07        -0.49987E+08         0.00000E+00
    0.00000E+00         0.00000E+00        -0.54732E+08
 
   -0.54786E+08         0.20433E+07         0.00000E+00
    0.20433E+07        -0.49988E+08         0.00000E+00
    0.00000E+00         0.00000E+00        -0.54731E+08
 
   -0.54780E+08         0.20962E+07         0.00000E+00
    0.20962E+07        -0.49989E+08         0.00000E+00
    0.00000E+00         0.00000E+00        -0.54730E+08
 
   -0.54773E+08         0.21492E+07         0.00000E+00
    0.21492E+07        -0.49989E+08         0.00000E+00
    0.00000E+00         0.00000E+00        -0.54729E+08
 
   -0.54767E+08         0.22024E+07         0.00000E+00
    0.22024E+07        -0.49991E+08         0.00000E+00
    0.00000E+00         0.00000E+00        -0.54728E+08
 
   -0.54761E+08         0.22557E+07         0.00000E+00
    0.22557E+07        -0.49992E+08         0.00000E+00
    0.00000E+00         0.00000E+00        -0.54727E+08
 
   -0.54755E+08         0.23092E+07         0.00000E+00
    0.23092E+07        -0.49993E+08         0.00000E+00
    0.00000E+00         0.00000E+00        -0.54726E+08
 
   -0.54749E+08         0.23629E+07         0.00000E+00
    0.23629E+07        -0.49995E+08         0.00000E+00
    0.00000E+00         0.00000E+00        -0.54725E+08
 
   -0.54743E+08         0.24167E+07         0.00000E+00
    0.24167E+07        -0.49997E+08         0.00000E+00
    0.00000E+00         0.00000E+00        -0.54724E+08
 
   -0.54737E+08         0.24707E+07         0.00000E+00
    0.24707E+07        -0.49999E+08         0.00000E+00
    0.00000E+00         0.00000E+00        -0.54723E+08
 
   -0.54730E+08         0.25249E+07         0.00000E+00
    0.25249E+07        -0.50001E+08         0.00000E+00
    0.00000E+00         0.00000E+00        -0.54722E+08
 
   -0.54724E+08         0.25792E+07         0.00000E+00
    0.25792E+07        -0.50003E+08         0.00000E+00
    0.00000E+00         0.00000E+00        -0.54722E+08
 
   -0.54954E+08         0.26843E+05         0.00000E+00
    0.26843E+05        -0.50000E+08         0.00000E+00
    0.00000E+00         0.00000E+00        -0.54550E+08
 
   -0.54938E+08         0.79997E+05         0.00000E+00
    0.79997E+05        -0.50000E+08         0.00000E+00
    0.00000E+00         0.00000E+00        -0.54547E+08
 
   -0.54922E+08         0.13294E+06         0.00000E+00
    0.13294E+06        -0.50000E+08         0.00000E+00
    0.00000E+00         0.00000E+00        -0.54544E+08
 
   -0.54906E+08         0.18568E+06         0.00000E+00
    0.18568E+06        -0.50000E+08         0.00000E+00
    0.00000E+00         0.00000E+00        -0.54541E+08
 
   -0.54891E+08         0.23824E+06         0.00000E+00
    0.23824E+06        -0.50000E+08         0.00000E+00
    0.00000E+00         0.00000E+00        -0.54537E+08
 
   -0.54876E+08         0.29062E+06         0.00000E+00
    0.29062E+06        -0.50000E+08         0.00000E+00
    0.00000E+00         0.00000E+00        -0.54534E+08
 
   -0.54861E+08         0.34283E+06         0.00000E+00
    0.34283E+06        -0.50000E+08         0.00000E+00
    0.00000E+00         0.00000E+00        -0.54531E+08
 
   -0.54847E+08         0.39489E+06         0.00000E+00
    0.39489E+06        -0.50000E+08         0.00000E+00
    0.00000E+00         0.00000E+00        -0.54528E+08
 
   -0.54833E+08         0.44680E+06         0.00000E+00
    0.44680E+06        -0.49999E+08         0.00000E+00
    0.00000E+00         0.00000E+00        -0.54526E+08
 
   -0.54819E+08         0.49859E+06         0.00000E+00
    0.49859E+06        -0.49999E+08         0.00000E+00
    0.00000E+00         0.00000E+00        -0.54523E+08
 
   -0.54805E+08         0.55025E+06         0.00000E+00
    0.55025E+06        -0.49999E+08         0.00000E+00
    0.00000E+00         0.00000E+00        -0.54520E+08
 
   -0.54792E+08         0.60181E+06         0.00000E+00
    0.60181E+06        -0.49999E+08         0.00000E+00
    0.00000E+00         0.00000E+00        -0.54517E+08
 
   -0.54779E+08         0.65326E+06         0.00000E+00
    0.65326E+06        -0.49998E+08         0.00000E+00
    0.00000E+00         0.00000E+00        -0.54514E+08
 
   -0.54767E+08         0.70463E+06         0.00000E+00
    0.70463E+06        -0.49998E+08         0.00000E+00
    0.00000E+00         0.00000E+00        -0.54512E+08
 
   -0.54754E+08         0.75592E+06         0.00000E+00
    0.75592E+06        -0.49998E+08         0.00000E+00
    0.00000E+00         0.00000E+00        -0.54509E+08
 
   -0.54742E+08         0.80715E+06         0.00000E+00
    0.80715E+06        -0.49998E+08         0.00000E+00
    0.00000E+00         0.00000E+00        -0.54507E+08
 
   -0.54731E+08         0.85831E+06         0.00000E+00
    0.85831E+06        -0.49997E+08         0.00000E+00
    0.00000E+00         0.00000E+00        -0.54504E+08
 
   -0.54719E+08         0.90943E+06         0.00000E+00
    0.90943E+06        -0.49997E+08         0.00000E+00
    0.00000E+00         0.00000E+00        -0.54502E+08
 
   -0.54708E+08         0.96051E+06         0.00000E+00
    0.96051E+06        -0.49997E+08         0.00000E+00
    0.00000E+00         0.00000E+00        -0.54499E+08
 
   -0.54697E+08         0.10116E+07         0.00000E+00
    0.10116E+07        -0.49996E+08         0.00000E+00
    0.00000E+00         0.00000E+00        -0.54497E+08
 
   -0.54687E+08         0.10626E+07         0.00000E+00
    0.10626E+07        -0.49996E+08         0.00000E+00
    0.00000E+00         0.00000E+00        -0.54495E+08
 
   -0.54676E+08         0.11136E+07         0.00000E+00
    0.11136E+07        -0.49996E+08         0.00000E+00
    0.00000E+00         0.00000E+00        -0.54493E+08
 
   -0.54666E+08         0.11646E+07         0.00000E+00
    0.11646E+07        -0.49996E+08         0.00000E+00
    0.00000E+00         0.00000E+00        -0.54491E+08
 
   -0.54656E+08         0.12156E+07         0.00000E+00
    0.12156E+07        -0.49995E+08         0.00000E+00
    0.00000E+00         0.00000E+00        -0.54488E+08
 
   -0.54646E+08         0.12667E+07         0.00000E+00
    0.12667E+07        -0.49995E+08         0.00000E+00
    0.00000E+00         0.00000E+00        -0.54486E+08
 
   -0.54637E+08         0.13177E+07         0.00000E+00
    0.13177E+07        -0.49995E+08         0.00000E+00
    0.00000E+00         0.00000E+00        -0.54484E+08
 
   -0.54628E+08         0.13688E+07         0.00000E+00
    0.13688E+07        -0.49995E+08         0.00000E+00
    0.00000E+00         0.00000E+00        -0.54482E+08
 
   -0.54619E+08         0.14200E+07         0.00000E+00
    0.14200E+07        -0.49995E+08         0.00000E+00
    0.00000E+00         0.00000E+00        -0.54481E+08
 
   -0.54610E+08         0.14711E+07         0.00000E+00
    0.14711E+07        -0.49995E+08         0.00000E+00
    0.00000E+00         0.00000E+00        -0.54479E+08
 
   -0.54601E+08         0.15223E+07         0.00000E+00
    0.15223E+07        -0.49995E+08         0.00000E+00
    0.00000E+00         0.00000E+00        -0.54477E+08
 
   -0.54593E+08         0.15736E+07         0.00000E+00
    0.15736E+07        -0.49995E+08         0.00000E+00
    0.00000E+00         0.00000E+00        -0.54475E+08
 
   -0.54585E+08         0.16250E+07         0.00000E+00
    0.16250E+07        -0.49995E+08         0.00000E+00
    0.00000E+00         0.00000E+00        -0.54474E+08
 
   -0.54577E+08         0.16764E+07         0.00000E+00
    0.16764E+07        -0.49996E+08         0.00000E+00
    0.00000E+00         0.00000E+00        -0.54472E+08
 
   -0.54569E+08         0.17278E+07         0.00000E+00
    0.17278E+07        -0.49996E+08         0.00000E+00
    0.00000E+00         0.00000E+00        -0.54470E+08
 
   -0.54561E+08         0.17794E+07         0.00000E+00
    0.17794E+07        -0.49997E+08         0.00000E+00
    0.00000E+00         0.00000E+00        -0.54469E+08
 
   -0.54553E+08         0.18311E+07         0.00000E+00
    0.18311E+07        -0.49997E+08         0.00000E+00
    0.00000E+00         0.00000E+00        -0.54467E+08
 
   -0.54546E+08         0.18828E+07         0.00000E+00
    0.18828E+07        -0.49998E+08         0.00000E+00
    0.00000E+00         0.00000E+00        -0.54466E+08
 
   -0.54538E+08         0.19346E+07         0.00000E+00
    0.19346E+07        -0.49999E+08         0.00000E+00
    0.00000E+00         0.00000E+00        -0.54465E+08
 
   -0.54531E+08         0.19866E+07         0.00000E+00
    0.19866E+07        -0.50000E+08         0.00000E+00
    0.00000E+00         0.00000E+00        -0.54463E+08
 
   -0.54524E+08         0.20386E+07         0.00000E+00
    0.20386E+07        -0.50001E+08         0.00000E+00
    0.00000E+00         0.00000E+00        -0.54462E+08
 
   -0.54517E+08         0.20907E+07         0.00000E+00
    0.20907E+07        -0.50002E+08         0.00000E+00
    0.00000E+00         0.00000E+00        -0.54461E+08
 
   -0.54510E+08         0.21430E+07         0.00000E+00
    0.21430E+07        -0.50003E+08         0.00000E+00
    0.00000E+00         0.00000E+00        -0.54460E+08
 
   -0.54503E+08         0.21954E+07         0.00000E+00
    0.21954E+07        -0.50005E+08         0.00000E+00
    0.00000E+00         0.00000E+00        -0.54459E+08
 
   -0.54496E+08         0.22478E+07         0.00000E+00
    0.22478E+07        -0.50007E+08         0.00000E+00
    0.00000E+00         0.00000E+00        -0.54457E+08
 
   -0.54489E+08         0.23005E+07         0.00000E+00
    0.23005E+07        -0.50008E+08         0.00000E+00
    0.00000E+00         0.00000E+00        -0.54456E+08
 
   -0.54482E+08         0.23532E+07         0.00000E+00
    0.23532E+07        -0.50011E+08         0.00000E+00
    0.00000E+00         0.00000E+00        -0.54455E+08
 
   -0.54475E+08         0.24061E+07         0.00000E+00
    0.24061E+07        -0.50013E+08         0.00000E+00
    0.00000E+00         0.00000E+00        -0.54455E+08
 
   -0.54469E+08         0.24590E+07         0.00000E+00
    0.24590E+07        -0.50015E+08         0.00000E+00
    0.00000E+00         0.00000E+00        -0.54454E+08
 
   -0.54462E+08         0.25122E+07         0.00000E+00
    0.25122E+07        -0.50018E+08         0.00000E+00
    0.00000E+00         0.00000E+00        -0.54453E+08
 
   -0.54455E+08         0.25654E+07         0.00000E+00
    0.25654E+07        -0.50021E+08         0.00000E+00
    0.00000E+00         0.00000E+00        -0.54452E+08
 
   -0.54687E+08         0.26859E+05         0.00000E+00
    0.26859E+05        -0.50000E+08         0.00000E+00
    0.00000E+00         0.00000E+00        -0.54283E+08
 
   -0.54672E+08         0.80071E+05         0.00000E+00
    0.80071E+05        -0.50000E+08         0.00000E+00
    0.00000E+00         0.00000E+00        -0.54280E+08
 
   -0.54657E+08         0.13308E+06         0.00000E+00
    0.13308E+06        -0.50000E+08         0.00000E+00
    0.00000E+00         0.00000E+00        -0.54277E+08
 
   -0.54643E+08         0.18589E+06         0.00000E+00
    0.18589E+06        -0.50000E+08         0.00000E+00
    0.00000E+00         0.00000E+00        -0.54274E+08
 
   -0.54628E+08         0.23852E+06         0.00000E+00
    0.23852E+06        -0.50000E+08         0.00000E+00
    0.00000E+00         0.00000E+00        -0.54271E+08
 
   -0.54614E+08         0.29097E+06         0.00000E+00
    0.29097E+06        -0.50000E+08         0.00000E+00
    0.00000E+00         0.00000E+00        -0.54268E+08
 
   -0.54600E+08         0.34326E+06         0.00000E+00
    0.34326E+06        -0.50000E+08         0.00000E+00
    0.00000E+00         0.00000E+00        -0.54265E+08
 
   -0.54587E+08         0.39539E+06         0.00000E+00
    0.39539E+06        -0.50000E+08         0.00000E+00
    0.00000E+00         0.00000E+00        -0.54262E+08
 
   -0.54573E+08         0.44737E+06         0.00000E+00
    0.44737E+06        -0.50000E+08         0.00000E+00
    0.00000E+00         0.00000E+00        -0.54260E+08
 
   -0.54560E+08         0.49922E+06         0.00000E+00
    0.49922E+06        -0.50000E+08         0.00000E+00
    0.00000E+00         0.00000E+00        -0.54257E+08
 
   -0.54547E+08         0.55094E+06         0.00000E+00
    0.55094E+06        -0.50000E+08         0.00000E+00
    0.00000E+00         0.00000E+00        -0.54254E+08
 
   -0.54535E+08         0.60254E+06         0.00000E+00
    0.60254E+06        -0.50000E+08         0.00000E+00
    0.00000E+00         0.00000E+00        -0.54252E+08
 
   -0.54522E+08         0.65403E+06         0.00000E+00
    0.65403E+06        -0.50000E+08         0.00000E+00
    0.00000E+00         0.00000E+00        -0.54249E+08
 
   -0.54510E+08         0.70542E+06         0.00000E+00
    0.70542E+06        -0.50000E+08         0.00000E+00
    0.00000E+00         0.00000E+00        -0.54247E+08
 
   -0.54498E+08         0.75672E+06         0.00000E+00
    0.75672E+06        -0.50000E+08         0.00000E+00
    0.00000E+00         0.00000E+00        -0.54244E+08
 
   -0.54486E+08         0.80793E+06         0.00000E+00
    0.80793E+06        -0.50000E+08         0.00000E+00
    0.00000E+00         0.00000E+00        -0.54242E+08
 
   -0.54475E+08         0.85908E+06         0.00000E+00
    0.85908E+06        -0.50000E+08         0.00000E+00
    0.00000E+00         0.00000E+00        -0.54239E+08
 
   -0.54464E+08         0.91015E+06         0.00000E+00
    0.91015E+06        -0.50000E+08         0.00000E+00
    0.00000E+00         0.00000E+00        -0.54237E+08
 
   -0.54453E+08         0.96117E+06         0.00000E+00
    0.96117E+06        -0.50000E+08         0.00000E+00
    0.00000E+00         0.00000E+00        -0.54235E+08
 
   -0.54442E+08         0.10121E+07         0.00000E+00
    0.10121E+07        -0.50000E+08         0.00000E+00
    0.00000E+00         0.00000E+00        -0.54233E+08
 
   -0.54432E+08         0.10631E+07         0.00000E+00
    0.10631E+07        -0.50000E+08         0.00000E+00
    0.00000E+00         0.00000E+00        -0.54230E+08
 
   -0.54421E+08         0.11140E+07         0.00000E+00
    0.11140E+07        -0.50000E+08         0.00000E+00
    0.00000E+00         0.00000E+00        -0.54228E+08
 
   -0.54411E+08         0.11648E+07         0.00000E+00
    0.11648E+07        -0.50000E+08         0.00000E+00
    0.00000E+00         0.00000E+00        -0.54226E+08
 
   -0.54401E+08         0.12157E+07         0.00000E+00
    0.12157E+07        -0.50000E+08         0.00000E+00
    0.00000E+00         0.00000E+00        -0.54224E+08
 
   -0.54392E+08         0.12665E+07         0.00000E+00
    0.12665E+07        -0.50000E+08         0.00000E+00
    0.00000E+00         0.00000E+00        -0.54222E+08
 
   -0.54382E+08         0.13174E+07         0.00000E+00
    0.13174E+07        -0.50000E+08         0.00000E+00
    0.00000E+00         0.00000E+00        -0.54220E+08
 
   -0.54373E+08         0.13682E+07         0.00000E+00
    0.13682E+07        -0.50001E+08         0.00000E+00
    0.00000E+00         0.00000E+00        -0.54218E+08
 
   -0.54364E+08         0.14190E+07         0.00000E+00
    0.14190E+07        -0.50001E+08         0.00000E+00
    0.00000E+00         0.00000E+00        -0.54217E+08
 
   -0.54355E+08         0.14699E+07         0.00000E+00
    0.14699E+07        -0.50001E+08         0.00000E+00
    0.00000E+00         0.00000E+00        -0.54215E+08
 
   -0.54346E+08         0.15208E+07         0.00000E+00
    0.15208E+07        -0.50002E+08         0.00000E+00
    0.00000E+00         0.00000E+00        -0.54213E+08
 
   -0.54337E+08         0.15717E+07         0.00000E+00
    0.15717E+07        -0.50002E+08         0.00000E+00
    0.00000E+00         0.00000E+00        -0.54211E+08
 
   -0.54329E+08         0.16226E+07         0.00000E+00
    0.16226E+07        -0.50003E+08         0.00000E+00
    0.00000E+00         0.00000E+00        -0.54210E+08
 
   -0.54320E+08         0.16736E+07         0.00000E+00
    0.16736E+07        -0.50004E+08         0.00000E+00
    0.00000E+00         0.00000E+00        -0.54208E+08
 
   -0.54312E+08         0.17246E+07         0.00000E+00
    0.17246E+07        -0.50004E+08         0.00000E+00
    0.00000E+00         0.00000E+00        -0.54207E+08
 
   -0.54304E+08         0.17757E+07         0.00000E+00
    0.17757E+07        -0.50005E+08         0.00000E+00
    0.00000E+00         0.00000E+00        -0.54205E+08
 
   -0.54296E+08         0.18268E+07         0.00000E+00
    0.18268E+07        -0.50006E+08         0.00000E+00
    0.00000E+00         0.00000E+00        -0.54204E+08
 
   -0.54288E+08         0.18780E+07         0.00000E+00
    0.18780E+07        -0.50007E+08         0.00000E+00
    0.00000E+00         0.00000E+00        -0.54202E+08
 
   -0.54281E+08         0.19292E+07         0.00000E+00
    0.19292E+07        -0.50008E+08         0.00000E+00
    0.00000E+00         0.00000E+00        -0.54201E+08
 
   -0.54273E+08         0.19805E+07         0.00000E+00
    0.19805E+07        -0.50010E+08         0.00000E+00
    0.00000E+00         0.00000E+00        -0.54200E+08
 
   -0.54265E+08         0.20319E+07         0.00000E+00
    0.20319E+07        -0.50011E+08         0.00000E+00
    0.00000E+00         0.00000E+00        -0.54198E+08
 
   -0.54258E+08         0.20833E+07         0.00000E+00
    0.20833E+07        -0.50013E+08         0.00000E+00
    0.00000E+00         0.00000E+00        -0.54197E+08
 
   -0.54250E+08         0.21349E+07         0.00000E+00
    0.21349E+07        -0.50015E+08         0.00000E+00
    0.00000E+00         0.00000E+00        -0.54196E+08
 
   -0.54243E+08         0.21864E+07         0.00000E+00
    0.21864E+07        -0.50016E+08         0.00000E+00
    0.00000E+00         0.00000E+00        -0.54195E+08
 
   -0.54235E+08         0.22381E+07         0.00000E+00
    0.22381E+07        -0.50018E+08         0.00000E+00
    0.00000E+00         0.00000E+00        -0.54194E+08
 
   -0.54228E+08         0.22899E+07         0.00000E+00
    0.22899E+07        -0.50021E+08         0.00000E+00
    0.00000E+00         0.00000E+00        -0.54192E+08
 
   -0.54221E+08         0.23417E+07         0.00000E+00
    0.23417E+07        -0.50023E+08         0.00000E+00
    0.00000E+00         0.00000E+00        -0.54191E+08
 
   -0.54213E+08         0.23937E+07         0.00000E+00
    0.23937E+07        -0.50025E+08         0.00000E+00
    0.00000E+00         0.00000E+00        -0.54190E+08
 
   -0.54206E+08         0.24457E+07         0.00000E+00
    0.24457E+07        -0.50028E+08         0.00000E+00
    0.00000E+00         0.00000E+00        -0.54190E+08
 
   -0.54198E+08         0.24978E+07         0.00000E+00
    0.24978E+07        -0.50031E+08         0.00000E+00
    0.00000E+00         0.00000E+00        -0.54189E+08
 
   -0.54191E+08         0.25500E+07         0.00000E+00
    0.25500E+07        -0.50034E+08         0.00000E+00
    0.00000E+00         0.00000E+00        -0.54188E+08
 
   -0.54421E+08         0.26836E+05         0.00000E+00
    0.26836E+05        -0.50000E+08         0.00000E+00
    0.00000E+00         0.00000E+00        -0.54020E+08
 
   -0.54407E+08         0.80023E+05         0.00000E+00
    0.80023E+05        -0.50000E+08         0.00000E+00
    0.00000E+00         0.00000E+00        -0.54017E+08
 
   -0.54393E+08         0.13301E+06         0.00000E+00
    0.13301E+06        -0.50000E+08         0.00000E+00
    0.00000E+00         0.00000E+00        -0.54014E+08
 
   -0.54379E+08         0.18581E+06         0.00000E+00
    0.18581E+06        -0.50000E+08         0.00000E+00
    0.00000E+00         0.00000E+00        -0.54012E+08
 
   -0.54366E+08         0.23843E+06         0.00000E+00
    0.23843E+06        -0.50000E+08         0.00000E+00
    0.00000E+00         0.00000E+00        -0.54009E+08
 
   -0.54352E+08         0.29088E+06         0.00000E+00
    0.29088E+06        -0.50000E+08         0.00000E+00
    0.00000E+00         0.00000E+00        -0.54006E+08
 
   -0.54339E+08         0.34316E+06         0.00000E+00
    0.34316E+06        -0.50000E+08         0.00000E+00
    0.00000E+00         0.00000E+00        -0.54004E+08
 
   -0.54326E+08         0.39528E+06         0.00000E+00
    0.39528E+06        -0.50000E+08         0.00000E+00
    0.00000E+00         0.00000E+00        -0.54001E+08
 
   -0.54314E+08         0.44725E+06         0.00000E+00
    0.44725E+06        -0.50000E+08         0.00000E+00
    0.00000E+00         0.00000E+00        -0.53998E+08
 
   -0.54301E+08         0.49909E+06         0.00000E+00
    0.49909E+06        -0.50001E+08         0.00000E+00
    0.00000E+00         0.00000E+00        -0.53996E+08
 
   -0.54289E+08         0.55079E+06         0.00000E+00
    0.55079E+06        -0.50001E+08         0.00000E+00
    0.00000E+00         0.00000E+00        -0.53993E+08
 
   -0.54277E+08         0.60236E+06         0.00000E+00
    0.60236E+06        -0.50001E+08         0.00000E+00
    0.00000E+00         0.00000E+00        -0.53991E+08
 
   -0.54265E+08         0.65382E+06         0.00000E+00
    0.65382E+06        -0.50001E+08         0.00000E+00
    0.00000E+00         0.00000E+00        -0.53989E+08
 
   -0.54253E+08         0.70517E+06         0.00000E+00
    0.70517E+06        -0.50001E+08         0.00000E+00
    0.00000E+00         0.00000E+00        -0.53986E+08
 
   -0.54242E+08         0.75641E+06         0.00000E+00
    0.75641E+06        -0.50001E+08         0.00000E+00
    0.00000E+00         0.00000E+00        -0.53984E+08
 
   -0.54231E+08         0.80756E+06         0.00000E+00
    0.80756E+06        -0.50001E+08         0.00000E+00
    0.00000E+00         0.00000E+00        -0.53982E+08
 
   -0.54220E+08         0.85862E+06         0.00000E+00
    0.85862E+06        -0.50002E+08         0.00000E+00
    0.00000E+00         0.00000E+00        -0.53979E+08
 
   -0.54209E+08         0.90961E+06         0.00000E+00
    0.90961E+06        -0.50002E+08         0.00000E+00
    0.00000E+00         0.00000E+00        -0.53977E+08
 
   -0.54198E+08         0.96052E+06         0.00000E+00
    0.96052E+06        -0.50002E+08         0.00000E+00
    0.00000E+00         0.00000E+00        -0.53975E+08
 
   -0.54188E+08         0.10114E+07         0.00000E+00
    0.10114E+07        -0.50002E+08         0.00000E+00
    0.00000E+00         0.00000E+00        -0.53973E+08
 
   -0.54177E+08         0.10621E+07         0.00000E+00
    0.10621E+07        -0.50002E+08         0.00000E+00
    0.00000E+00         0.00000E+00        -0.53971E+08
 
   -0.54167E+08         0.11129E+07         0.00000E+00
    0.11129E+07        -0.50003E+08         0.00000E+00
    0.00000E+00         0.00000E+00        -0.53969E+08
 
   -0.54157E+08         0.11636E+07         0.00000E+00
    0.11636E+07        -0.50003E+08         0.00000E+00
    0.00000E+00         0.00000E+00        -0.53967E+08
 
   -0.54148E+08         0.12142E+07         0.00000E+00
    0.12142E+07        -0.50004E+08         0.00000E+00
    0.00000E+00         0.00000E+00        -0.53965E+08
 
   -0.54138E+08         0.12648E+07         0.00000E+00
    0.12648E+07        -0.50004E+08         0.00000E+00
    0.00000E+00         0.00000E+00        -0.53963E+08
 
   -0.54129E+08         0.13154E+07         0.00000E+00
    0.13154E+07        -0.50005E+08         0.00000E+00
    0.00000E+00         0.00000E+00        -0.53961E+08
 
   -0.54119E+08         0.13660E+07         0.00000E+00
    0.13660E+07        -0.50005E+08         0.00000E+00
    0.00000E+00         0.00000E+00        -0.53959E+08
 
   -0.54110E+08         0.14165E+07         0.00000E+00
    0.14165E+07        -0.50006E+08         0.00000E+00
    0.00000E+00         0.00000E+00        -0.53957E+08
 
   -0.54101E+08         0.14671E+07         0.00000E+00
    0.14671E+07        -0.50006E+08         0.00000E+00
    0.00000E+00         0.00000E+00        -0.53956E+08
 
   -0.54092E+08         0.15176E+07         0.00000E+00
    0.15176E+07        -0.50007E+08         0.00000E+00
    0.00000E+00         0.00000E+00        -0.53954E+08
 
   -0.54084E+08         0.15681E+07         0.00000E+00
    0.15681E+07        -0.50008E+08         0.00000E+00
    0.00000E+00         0.00000E+00        -0.53952E+08
 
   -0.54075E+08         0.16186E+07         0.00000E+00
    0.16186E+07        -0.50009E+08         0.00000E+00
    0.00000E+00         0.00000E+00        -0.53951E+08
 
   -0.54067E+08         0.16692E+07         0.00000E+00
    0.16692E+07        -0.50010E+08         0.00000E+00
    0.00000E+00         0.00000E+00        -0.53949E+08
 
   -0.54058E+08         0.17198E+07         0.00000E+00
    0.17198E+07        -0.50011E+08         0.00000E+00
    0.00000E+00         0.00000E+00        -0.53948E+08
 
   -0.54050E+08         0.17703E+07         0.00000E+00
    0.17703E+07        -0.50012E+08         0.00000E+00
    0.00000E+00         0.00000E+00        -0.53946E+08
 
   -0.54042E+08         0.18209E+07         0.00000E+00
    0.18209E+07        -0.50013E+08         0.00000E+00
    0.00000E+00         0.00000E+00        -0.53945E+08
 
   -0.54034E+08         0.18716E+07         0.00000E+00
    0.18716E+07        -0.50015E+08         0.00000E+00
    0.00000E+00         0.00000E+00        -0.53943E+08
 
   -0.54026E+08         0.19222E+07         0.00000E+00
    0.19222E+07        -0.50016E+08         0.00000E+00
    0.00000E+00         0.00000E+00        -0.53942E+08
 
   -0.54018E+08         0.19729E+07         0.00000E+00
    0.19729E+07        -0.50018E+08         0.00000E+00
    0.00000E+00         0.00000E+00        -0.53941E+08
 
   -0.54010E+08         0.20236E+07         0.00000E+00
    0.20236E+07        -0.50019E+08         0.00000E+00
    0.00000E+00         0.00000E+00        -0.53939E+08
 
   -0.54002E+08         0.20744E+07         0.00000E+00
    0.20744E+07        -0.50021E+08         0.00000E+00
    0.00000E+00         0.00000E+00        -0.53938E+08
 
   -0.53994E+08         0.21252E+07         0.00000E+00
    0.21252E+07        -0.50023E+08         0.00000E+00
    0.00000E+00         0.00000E+00        -0.53937E+08
 
   -0.53986E+08         0.21761E+07         0.00000E+00
    0.21761E+07        -0.50025E+08         0.00000E+00
    0.00000E+00         0.00000E+00        -0.53936E+08
 
   -0.53979E+08         0.22270E+07         0.00000E+00
    0.22270E+07        -0.50028E+08         0.00000E+00
    0.00000E+00         0.00000E+00        -0.53935E+08
 
   -0.53971E+08         0.22779E+07         0.00000E+00
    0.22779E+07        -0.50030E+08         0.00000E+00
    0.00000E+00         0.00000E+00        -0.53934E+08
 
   -0.53963E+08         0.23289E+07         0.00000E+00
    0.23289E+07        -0.50033E+08         0.00000E+00
    0.00000E+00         0.00000E+00        -0.53933E+08
 
   -0.53955E+08         0.23800E+07         0.00000E+00
    0.23800E+07        -0.50035E+08         0.00000E+00
    0.00000E+00         0.00000E+00        -0.53932E+08
 
   -0.53948E+08         0.24311E+07         0.00000E+00
    0.24311E+07        -0.50038E+08         0.00000E+00
    0.00000E+00         0.00000E+00        -0.53931E+08
 
   -0.53940E+08         0.24823E+07         0.00000E+00
    0.24823E+07        -0.50041E+08         0.00000E+00
    0.00000E+00         0.00000E+00        -0.53930E+08
 
   -0.53932E+08         0.25335E+07         0.00000E+00
    0.25335E+07        -0.50045E+08         0.00000E+00
    0.00000E+00         0.00000E+00        -0.53929E+08
 
   -0.54154E+08         0.26783E+05         0.00000E+00
    0.26783E+05        -0.50000E+08         0.00000E+00
    0.00000E+00         0.00000E+00        -0.53762E+08
 
   -0.54141E+08         0.79882E+05         0.00000E+00
    0.79882E+05        -0.50000E+08         0.00000E+00
    0.00000E+00         0.00000E+00        -0.53759E+08
 
   -0.54128E+08         0.13279E+06         0.00000E+00
    0.13279E+06        -0.50000E+08         0.00000E+00
    0.00000E+00         0.00000E+00        -0.53757E+08
 
   -0.54116E+08         0.18552E+06         0.00000E+00
    0.18552E+06        -0.50000E+08         0.00000E+00
    0.00000E+00         0.00000E+00        -0.53754E+08
 
   -0.54103E+08         0.23806E+06         0.00000E+00
    0.23806E+06        -0.50000E+08         0.00000E+00
    0.00000E+00         0.00000E+00        -0.53751E+08
 
   -0.54091E+08         0.29044E+06         0.00000E+00
    0.29044E+06        -0.50000E+08         0.00000E+00
    0.00000E+00         0.00000E+00        -0.53749E+08
 
   -0.54078E+08         0.34265E+06         0.00000E+00
    0.34265E+06        -0.50001E+08         0.00000E+00
    0.00000E+00         0.00000E+00        -0.53747E+08
 
   -0.54066E+08         0.39471E+06         0.00000E+00
    0.39471E+06        -0.50001E+08         0.00000E+00
    0.00000E+00         0.00000E+00        -0.53744E+08
 
   -0.54054E+08         0.44661E+06         0.00000E+00
    0.44661E+06        -0.50001E+08         0.00000E+00
    0.00000E+00         0.00000E+00        -0.53742E+08
 
   -0.54043E+08         0.49838E+06         0.00000E+00
    0.49838E+06        -0.50001E+08         0.00000E+00
    0.00000E+00         0.00000E+00        -0.53739E+08
 
   -0.54031E+08         0.55000E+06         0.00000E+00
    0.55000E+06        -0.50001E+08         0.00000E+00
    0.00000E+00         0.00000E+00        -0.53737E+08
 
   -0.54020E+08         0.60149E+06         0.00000E+00
    0.60149E+06        -0.50001E+08         0.00000E+00
    0.00000E+00         0.00000E+00        -0.53735E+08
 
   -0.54008E+08         0.65286E+06         0.00000E+00
    0.65286E+06        -0.50002E+08         0.00000E+00
    0.00000E+00         0.00000E+00        -0.53732E+08
 
   -0.53997E+08         0.70411E+06         0.00000E+00
    0.70411E+06        -0.50002E+08         0.00000E+00
    0.00000E+00         0.00000E+00        -0.53730E+08
 
   -0.53986E+08         0.75526E+06         0.00000E+00
    0.75526E+06        -0.50002E+08         0.00000E+00
    0.00000E+00         0.00000E+00        -0.53728E+08
 
   -0.53975E+08         0.80629E+06         0.00000E+00
    0.80629E+06        -0.50003E+08         0.00000E+00
    0.00000E+00         0.00000E+00        -0.53726E+08
 
   -0.53965E+08         0.85723E+06         0.00000E+00
    0.85723E+06        -0.50003E+08         0.00000E+00
    0.00000E+00         0.00000E+00        -0.53724E+08
 
   -0.53954E+08         0.90807E+06         0.00000E+00
    0.90807E+06        -0.50003E+08         0.00000E+00
    0.00000E+00         0.00000E+00        -0.53722E+08
 
   -0.53944E+08         0.95883E+06         0.00000E+00
    0.95883E+06        -0.50004E+08         0.00000E+00
    0.00000E+00         0.00000E+00        -0.53720E+08
 
   -0.53934E+08         0.10095E+07         0.00000E+00
    0.10095E+07        -0.50004E+08         0.00000E+00
    0.00000E+00         0.00000E+00        -0.53718E+08
 
   -0.53924E+08         0.10601E+07         0.00000E+00
    0.10601E+07        -0.50005E+08         0.00000E+00
    0.00000E+00         0.00000E+00        -0.53716E+08
 
   -0.53914E+08         0.11107E+07         0.00000E+00
    0.11107E+07        -0.50005E+08         0.00000E+00
    0.00000E+00         0.00000E+00        -0.53714E+08
 
   -0.53905E+08         0.11611E+07         0.00000E+00
    0.11611E+07        -0.50006E+08         0.00000E+00
    0.00000E+00         0.00000E+00        -0.53712E+08
 
   -0.53895E+08         0.12115E+07         0.00000E+00
    0.12115E+07        -0.50006E+08         0.00000E+00
    0.00000E+00         0.00000E+00        -0.53710E+08
 
   -0.53886E+08         0.12619E+07         0.00000E+00
    0.12619E+07        -0.50007E+08         0.00000E+00
    0.00000E+00         0.00000E+00        -0.53708E+08
 
   -0.53876E+08         0.13122E+07         0.00000E+00
    0.13122E+07        -0.50008E+08         0.00000E+00
    0.00000E+00         0.00000E+00        -0.53706E+08
 
   -0.53867E+08         0.13625E+07         0.00000E+00
    0.13625E+07        -0.50008E+08         0.00000E+00
    0.00000E+00         0.00000E+00        -0.53705E+08
 
   -0.53858E+08         0.14127E+07         0.00000E+00
    0.14127E+07        -0.50009E+08         0.00000E+00
    0.00000E+00         0.00000E+00        -0.53703E+08
 
   -0.53849E+08         0.14629E+07         0.00000E+00
    0.14629E+07        -0.50010E+08         0.00000E+00
    0.00000E+00         0.00000E+00        -0.53701E+08
 
   -0.53841E+08         0.15131E+07         0.00000E+00
    0.15131E+07        -0.50011E+08         0.00000E+00
    0.00000E+00         0.00000E+00        -0.53700E+08
 
   -0.53832E+08         0.15633E+07         0.00000E+00
    0.15633E+07        -0.50012E+08         0.00000E+00
    0.00000E+00         0.00000E+00        -0.53698E+08
 
   -0.53823E+08         0.16134E+07         0.00000E+00
    0.16134E+07        -0.50013E+08         0.00000E+00
    0.00000E+00         0.00000E+00        -0.53696E+08
 
   -0.53815E+08         0.16635E+07         0.00000E+00
    0.16635E+07        -0.50014E+08         0.00000E+00
    0.00000E+00         0.00000E+00        -0.53695E+08
 
   -0.53807E+08         0.17136E+07         0.00000E+00
    0.17136E+07        -0.50016E+08         0.00000E+00
    0.00000E+00         0.00000E+00        -0.53693E+08
 
   -0.53798E+08         0.17637E+07         0.00000E+00
    0.17637E+07        -0.50017E+08         0.00000E+00
    0.00000E+00         0.00000E+00        -0.53692E+08
 
   -0.53790E+08         0.18138E+07         0.00000E+00
    0.18138E+07        -0.50019E+08         0.00000E+00
    0.00000E+00         0.00000E+00        -0.53691E+08
 
   -0.53782E+08         0.18639E+07         0.00000E+00
    0.18639E+07        -0.50020E+08         0.00000E+00
    0.00000E+00         0.00000E+00        -0.53689E+08
 
   -0.53774E+08         0.19140E+07         0.00000E+00
    0.19140E+07        -0.50022E+08         0.00000E+00
    0.00000E+00         0.00000E+00        -0.53688E+08
 
   -0.53766E+08         0.19641E+07         0.00000E+00
    0.19641E+07        -0.50024E+08         0.00000E+00
    0.00000E+00         0.00000E+00        -0.53687E+08
 
   -0.53758E+08         0.20142E+07         0.00000E+00
    0.20142E+07        -0.50026E+08         0.00000E+00
    0.00000E+00         0.00000E+00        -0.53685E+08
 
   -0.53750E+08         0.20643E+07         0.00000E+00
    0.20643E+07        -0.50028E+08         0.00000E+00
    0.00000E+00         0.00000E+00        -0.53684E+08
 
   -0.53742E+08         0.21145E+07         0.00000E+00
    0.21145E+07        -0.50030E+08         0.00000E+00
    0.00000E+00         0.00000E+00        -0.53683E+08
 
   -0.53734E+08         0.21646E+07         0.00000E+00
    0.21646E+07        -0.50032E+08         0.00000E+00
    0.00000E+00         0.00000E+00        -0.53682E+08
 
   -0.53726E+08         0.22148E+07         0.00000E+00
    0.22148E+07        -0.50034E+08         0.00000E+00
    0.00000E+00         0.00000E+00        -0.53681E+08
 
   -0.53718E+08         0.22650E+07         0.00000E+00
    0.22650E+07        -0.50037E+08         0.00000E+00
    0.00000E+00         0.00000E+00        -0.53680E+08
 
   -0.53710E+08         0.23152E+07         0.00000E+00
    0.23152E+07        -0.50040E+08         0.00000E+00
    0.00000E+00         0.00000E+00        -0.53679E+08
 
   -0.53702E+08         0.23655E+07         0.00000E+00
    0.23655E+07        -0.50043E+08         0.00000E+00
    0.00000E+00         0.00000E+00        -0.53677E+08
 
   -0.53694E+08         0.24157E+07         0.00000E+00
    0.24157E+07        -0.50046E+08         0.00000E+00
    0.00000E+00         0.00000E+00        -0.53677E+08
 
   -0.53686E+08         0.24660E+07         0.00000E+00
    0.24660E+07        -0.50049E+08         0.00000E+00
    0.00000E+00         0.00000E+00        -0.53676E+08
 
   -0.53678E+08         0.25163E+07         0.00000E+00
    0.25163E+07        -0.50052E+08         0.00000E+00
    0.00000E+00         0.00000E+00        -0.53675E+08
 
   -0.53889E+08         0.26707E+05         0.00000E+00
    0.26707E+05        -0.50000E+08         0.00000E+00
    0.00000E+00         0.00000E+00        -0.53508E+08
 
   -0.53877E+08         0.79674E+05         0.00000E+00
    0.79674E+05        -0.50000E+08         0.00000E+00
    0.00000E+00         0.00000E+00        -0.53505E+08
 
   -0.53865E+08         0.13246E+06         0.00000E+00
    0.13246E+06        -0.50000E+08         0.00000E+00
    0.00000E+00         0.00000E+00        -0.53503E+08
 
   -0.53853E+08         0.18506E+06         0.00000E+00
    0.18506E+06        -0.50000E+08         0.00000E+00
    0.00000E+00         0.00000E+00        -0.53501E+08
 
   -0.53841E+08         0.23749E+06         0.00000E+00
    0.23749E+06        -0.50000E+08         0.00000E+00
    0.00000E+00         0.00000E+00        -0.53498E+08
 
   -0.53829E+08         0.28975E+06         0.00000E+00
    0.28975E+06        -0.50001E+08         0.00000E+00
    0.00000E+00         0.00000E+00        -0.53496E+08
 
   -0.53818E+08         0.34185E+06         0.00000E+00
    0.34185E+06        -0.50001E+08         0.00000E+00
    0.00000E+00         0.00000E+00        -0.53494E+08
 
   -0.53807E+08         0.39379E+06         0.00000E+00
    0.39379E+06        -0.50001E+08         0.00000E+00
    0.00000E+00         0.00000E+00        -0.53491E+08
 
   -0.53795E+08         0.44558E+06         0.00000E+00
    0.44558E+06        -0.50001E+08         0.00000E+00
    0.00000E+00         0.00000E+00        -0.53489E+08
 
   -0.53784E+08         0.49723E+06         0.00000E+00
    0.49723E+06        -0.50001E+08         0.00000E+00
    0.00000E+00         0.00000E+00        -0.53487E+08
 
   -0.53773E+08         0.54873E+06         0.00000E+00
    0.54873E+06        -0.50002E+08         0.00000E+00
    0.00000E+00         0.00000E+00        -0.53485E+08
 
   -0.53763E+08         0.60010E+06         0.00000E+00
    0.60010E+06        -0.50002E+08         0.00000E+00
    0.00000E+00         0.00000E+00        -0.53483E+08
 
   -0.53752E+08         0.65134E+06         0.00000E+00
    0.65134E+06        -0.50002E+08         0.00000E+00
    0.00000E+00         0.00000E+00        -0.53481E+08
 
   -0.53742E+08         0.70246E+06         0.00000E+00
    0.70246E+06        -0.50003E+08         0.00000E+00
    0.00000E+00         0.00000E+00        -0.53478E+08
 
   -0.53731E+08         0.75346E+06         0.00000E+00
    0.75346E+06        -0.50003E+08         0.00000E+00
    0.00000E+00         0.00000E+00        -0.53476E+08
 
   -0.53721E+08         0.80435E+06         0.00000E+00
    0.80435E+06        -0.50003E+08         0.00000E+00
    0.00000E+00         0.00000E+00        -0.53474E+08
 
   -0.53711E+08         0.85513E+06         0.00000E+00
    0.85513E+06        -0.50004E+08         0.00000E+00
    0.00000E+00         0.00000E+00        -0.53472E+08
 
   -0.53701E+08         0.90580E+06         0.00000E+00
    0.90580E+06        -0.50004E+08         0.00000E+00
    0.00000E+00         0.00000E+00        -0.53470E+08
 
   -0.53691E+08         0.95638E+06         0.00000E+00
    0.95638E+06        -0.50005E+08         0.00000E+00
    0.00000E+00         0.00000E+00        -0.53469E+08
 
   -0.53681E+08         0.10069E+07         0.00000E+00
    0.10069E+07        -0.50006E+08         0.00000E+00
    0.00000E+00         0.00000E+00        -0.53467E+08
 
   -0.53672E+08         0.10573E+07         0.00000E+00
    0.10573E+07        -0.50006E+08         0.00000E+00
    0.00000E+00         0.00000E+00        -0.53465E+08
 
   -0.53662E+08         0.11076E+07         0.00000E+00
    0.11076E+07        -0.50007E+08         0.00000E+00
    0.00000E+00         0.00000E+00        -0.53463E+08
 
   -0.53653E+08         0.11578E+07         0.00000E+00
    0.11578E+07        -0.50008E+08         0.00000E+00
    0.00000E+00         0.00000E+00        -0.53461E+08
 
   -0.53644E+08         0.12080E+07         0.00000E+00
    0.12080E+07        -0.50008E+08         0.00000E+00
    0.00000E+00         0.00000E+00        -0.53459E+08
 
   -0.53635E+08         0.12581E+07         0.00000E+00
    0.12581E+07        -0.50009E+08         0.00000E+00
    0.00000E+00         0.00000E+00        -0.53458E+08
 
   -0.53626E+08         0.13081E+07         0.00000E+00
    0.13081E+07        -0.50010E+08         0.00000E+00
    0.00000E+00         0.00000E+00        -0.53456E+08
 
   -0.53617E+08         0.13581E+07         0.00000E+00
    0.13581E+07        -0.50011E+08         0.00000E+00
    0.00000E+00         0.00000E+00        -0.53454E+08
 
   -0.53608E+08         0.14080E+07         0.00000E+00
    0.14080E+07        -0.50012E+08         0.00000E+00
    0.00000E+00         0.00000E+00        -0.53453E+08
 
   -0.53599E+08         0.14579E+07         0.00000E+00
    0.14579E+07        -0.50013E+08         0.00000E+00
    0.00000E+00         0.00000E+00        -0.53451E+08
 
   -0.53591E+08         0.15077E+07         0.00000E+00
    0.15077E+07        -0.50014E+08         0.00000E+00
    0.00000E+00         0.00000E+00        -0.53450E+08
 
   -0.53582E+08         0.15575E+07         0.00000E+00
    0.15575E+07        -0.50015E+08         0.00000E+00
    0.00000E+00         0.00000E+00        -0.53448E+08
 
   -0.53574E+08         0.16072E+07         0.00000E+00
    0.16072E+07        -0.50016E+08         0.00000E+00
    0.00000E+00         0.00000E+00        -0.53447E+08
 
   -0.53565E+08         0.16569E+07         0.00000E+00
    0.16569E+07        -0.50018E+08         0.00000E+00
    0.00000E+00         0.00000E+00        -0.53445E+08
 
   -0.53557E+08         0.17066E+07         0.00000E+00
    0.17066E+07        -0.50019E+08         0.00000E+00
    0.00000E+00         0.00000E+00        -0.53444E+08
 
   -0.53549E+08         0.17562E+07         0.00000E+00
    0.17562E+07        -0.50021E+08         0.00000E+00
    0.00000E+00         0.00000E+00        -0.53442E+08
 
   -0.53541E+08         0.18058E+07         0.00000E+00
    0.18058E+07        -0.50022E+08         0.00000E+00
    0.00000E+00         0.00000E+00        -0.53441E+08
 
   -0.53533E+08         0.18554E+07         0.00000E+00
    0.18554E+07        -0.50024E+08         0.00000E+00
    0.00000E+00         0.00000E+00        -0.53440E+08
 
   -0.53525E+08         0.19049E+07         0.00000E+00
    0.19049E+07        -0.50026E+08         0.00000E+00
    0.00000E+00         0.00000E+00        -0.53438E+08
 
   -0.53517E+08         0.19545E+07         0.00000E+00
    0.19545E+07        -0.50028E+08         0.00000E+00
    0.00000E+00         0.00000E+00        -0.53437E+08
 
   -0.53509E+08         0.20040E+07         0.00000E+00
    0.20040E+07        -0.50030E+08         0.00000E+00
    0.00000E+00         0.00000E+00        -0.53436E+08
 
   -0.53501E+08         0.20535E+07         0.00000E+00
    0.20535E+07        -0.50032E+08         0.00000E+00
    0.00000E+00         0.00000E+00        -0.53435E+08
 
   -0.53493E+08         0.21030E+07         0.00000E+00
    0.21030E+07        -0.50034E+08         0.00000E+00
    0.00000E+00         0.00000E+00        -0.53433E+08
 
   -0.53485E+08         0.21525E+07         0.00000E+00
    0.21525E+07        -0.50037E+08         0.00000E+00
    0.00000E+00         0.00000E+00        -0.53432E+08
 
   -0.53477E+08         0.22020E+07         0.00000E+00
    0.22020E+07        -0.50039E+08         0.00000E+00
    0.00000E+00         0.00000E+00        -0.53431E+08
 
   -0.53469E+08         0.22515E+07         0.00000E+00
    0.22515E+07        -0.50042E+08         0.00000E+00
    0.00000E+00         0.00000E+00        -0.53430E+08
 
   -0.53461E+08         0.23009E+07         0.00000E+00
    0.23009E+07        -0.50045E+08         0.00000E+00
    0.00000E+00         0.00000E+00        -0.53429E+08
 
   -0.53453E+08         0.23504E+07         0.00000E+00
    0.23504E+07        -0.50048E+08         0.00000E+00
    0.00000E+00         0.00000E+00        -0.53428E+08
 
   -0.53445E+08         0.23998E+07         0.00000E+00
    0.23998E+07        -0.50051E+08         0.00000E+00
    0.00000E+00         0.00000E+00        -0.53427E+08
 
   -0.53437E+08         0.24493E+07         0.00000E+00
    0.24493E+07        -0.50054E+08         0.00000E+00
    0.00000E+00         0.00000E+00        -0.53426E+08
 
   -0.53429E+08         0.24988E+07         0.00000E+00
    0.24988E+07        -0.50058E+08         0.00000E+00
    0.00000E+00         0.00000E+00        -0.53425E+08
 
   -0.53624E+08         0.26617E+05         0.00000E+00
    0.26617E+05        -0.50000E+08         0.00000E+00
    0.00000E+00         0.00000E+00        -0.53258E+08
 
   -0.53613E+08         0.79418E+05         0.00000E+00
    0.79418E+05        -0.50000E+08         0.00000E+00
    0.00000E+00         0.00000E+00        -0.53256E+08
 
   -0.53602E+08         0.13204E+06         0.00000E+00
    0.13204E+06        -0.50000E+08         0.00000E+00
    0.00000E+00         0.00000E+00        -0.53254E+08
 
   -0.53591E+08         0.18449E+06         0.00000E+00
    0.18449E+06        -0.50000E+08         0.00000E+00
    0.00000E+00         0.00000E+00        -0.53251E+08
 
   -0.53580E+08         0.23677E+06         0.00000E+00
    0.23677E+06        -0.50000E+08         0.00000E+00
    0.00000E+00         0.00000E+00        -0.53249E+08
 
   -0.53569E+08         0.28888E+06         0.00000E+00
    0.28888E+06        -0.50001E+08         0.00000E+00
    0.00000E+00         0.00000E+00        -0.53247E+08
 
   -0.53558E+08         0.34083E+06         0.00000E+00
    0.34083E+06        -0.50001E+08         0.00000E+00
    0.00000E+00         0.00000E+00        -0.53245E+08
 
   -0.53548E+08         0.39263E+06         0.00000E+00
    0.39263E+06        -0.50001E+08         0.00000E+00
    0.00000E+00         0.00000E+00        -0.53243E+08
 
   -0.53537E+08         0.44427E+06         0.00000E+00
    0.44427E+06        -0.50001E+08         0.00000E+00
    0.00000E+00         0.00000E+00        -0.53241E+08
 
   -0.53527E+08         0.49577E+06         0.00000E+00
    0.49577E+06        -0.50002E+08         0.00000E+00
    0.00000E+00         0.00000E+00        -0.53239E+08
 
   -0.53517E+08         0.54713E+06         0.00000E+00
    0.54713E+06        -0.50002E+08         0.00000E+00
    0.00000E+00         0.00000E+00        -0.53237E+08
 
   -0.53506E+08         0.59834E+06         0.00000E+00
    0.59834E+06        -0.50002E+08         0.00000E+00
    0.00000E+00         0.00000E+00        -0.53235E+08
 
   -0.53496E+08         0.64943E+06         0.00000E+00
    0.64943E+06        -0.50003E+08         0.00000E+00
    0.00000E+00         0.00000E+00        -0.53233E+08
 
   -0.53487E+08         0.70038E+06         0.00000E+00
    0.70038E+06        -0.50003E+08         0.00000E+00
    0.00000E+00         0.00000E+00        -0.53231E+08
 
   -0.53477E+08         0.75121E+06         0.00000E+00
    0.75121E+06        -0.50004E+08         0.00000E+00
    0.00000E+00         0.00000E+00        -0.53229E+08
 
   -0.53467E+08         0.80192E+06         0.00000E+00
    0.80192E+06        -0.50004E+08         0.00000E+00
    0.00000E+00         0.00000E+00        -0.53227E+08
 
   -0.53458E+08         0.85252E+06         0.00000E+00
    0.85252E+06        -0.50005E+08         0.00000E+00
    0.00000E+00         0.00000E+00        -0.53225E+08
 
   -0.53448E+08         0.90300E+06         0.00000E+00
    0.90300E+06        -0.50005E+08         0.00000E+00
    0.00000E+00         0.00000E+00        -0.53223E+08
 
   -0.53439E+08         0.95338E+06         0.00000E+00
    0.95338E+06        -0.50006E+08         0.00000E+00
    0.00000E+00         0.00000E+00        -0.53221E+08
 
   -0.53430E+08         0.10037E+07         0.00000E+00
    0.10037E+07        -0.50007E+08         0.00000E+00
    0.00000E+00         0.00000E+00        -0.53220E+08
 
   -0.53421E+08         0.10538E+07         0.00000E+00
    0.10538E+07        -0.50007E+08         0.00000E+00
    0.00000E+00         0.00000E+00        -0.53218E+08
 
   -0.53412E+08         0.11039E+07         0.00000E+00
    0.11039E+07        -0.50008E+08         0.00000E+00
    0.00000E+00         0.00000E+00        -0.53216E+08
 
   -0.53403E+08         0.11539E+07         0.00000E+00
    0.11539E+07        -0.50009E+08         0.00000E+00
    0.00000E+00         0.00000E+00        -0.53214E+08
 
   -0.53394E+08         0.12038E+07         0.00000E+00
    0.12038E+07        -0.50010E+08         0.00000E+00
    0.00000E+00         0.00000E+00        -0.53213E+08
 
   -0.53385E+08         0.12536E+07         0.00000E+00
    0.12536E+07        -0.50011E+08         0.00000E+00
    0.00000E+00         0.00000E+00        -0.53211E+08
 
   -0.53376E+08         0.13034E+07         0.00000E+00
    0.13034E+07        -0.50012E+08         0.00000E+00
    0.00000E+00         0.00000E+00        -0.53210E+08
 
   -0.53368E+08         0.13530E+07         0.00000E+00
    0.13530E+07        -0.50013E+08         0.00000E+00
    0.00000E+00         0.00000E+00        -0.53208E+08
 
   -0.53359E+08         0.14026E+07         0.00000E+00
    0.14026E+07        -0.50014E+08         0.00000E+00
    0.00000E+00         0.00000E+00        -0.53207E+08
 
   -0.53351E+08         0.14522E+07         0.00000E+00
    0.14522E+07        -0.50015E+08         0.00000E+00
    0.00000E+00         0.00000E+00        -0.53205E+08
 
   -0.53343E+08         0.15016E+07         0.00000E+00
    0.15016E+07        -0.50016E+08         0.00000E+00
    0.00000E+00         0.00000E+00        -0.53204E+08
 
   -0.53334E+08         0.15510E+07         0.00000E+00
    0.15510E+07        -0.50017E+08         0.00000E+00
    0.00000E+00         0.00000E+00        -0.53202E+08
 
   -0.53326E+08         0.16004E+07         0.00000E+00
    0.16004E+07        -0.50019E+08         0.00000E+00
    0.00000E+00         0.00000E+00        -0.53201E+08
 
   -0.53318E+08         0.16497E+07         0.00000E+00
    0.16497E+07        -0.50020E+08         0.00000E+00
    0.00000E+00         0.00000E+00        -0.53199E+08
 
   -0.53310E+08         0.16989E+07         0.00000E+00
    0.16989E+07        -0.50022E+08         0.00000E+00
    0.00000E+00         0.00000E+00        -0.53198E+08
 
   -0.53302E+08         0.17481E+07         0.00000E+00
    0.17481E+07        -0.50023E+08         0.00000E+00
    0.00000E+00         0.00000E+00        -0.53197E+08
 
   -0.53294E+08         0.17972E+07         0.00000E+00
    0.17972E+07        -0.50025E+08         0.00000E+00
    0.00000E+00         0.00000E+00        -0.53195E+08
 
   -0.53286E+08         0.18463E+07         0.00000E+00
    0.18463E+07        -0.50027E+08         0.00000E+00
    0.00000E+00         0.00000E+00        -0.53194E+08
 
   -0.53278E+08         0.18953E+07         0.00000E+00
    0.18953E+07        -0.50029E+08         0.00000E+00
    0.00000E+00         0.00000E+00        -0.53193E+08
 
   -0.53270E+08         0.19443E+07         0.00000E+00
    0.19443E+07        -0.50031E+08         0.00000E+00
    0.00000E+00         0.00000E+00        -0.53191E+08
 
   -0.53262E+08         0.19933E+07         0.00000E+00
    0.19933E+07        -0.50033E+08         0.00000E+00
    0.00000E+00         0.00000E+00        -0.53190E+08
 
   -0.53255E+08         0.20422E+07         0.00000E+00
    0.20422E+07        -0.50035E+08         0.00000E+00
    0.00000E+00         0.00000E+00        -0.53189E+08
 
   -0.53247E+08         0.20911E+07         0.00000E+00
    0.20911E+07        -0.50037E+08         0.00000E+00
    0.00000E+00         0.00000E+00        -0.53188E+08
 
   -0.53239E+08         0.21400E+07         0.00000E+00
    0.21400E+07        -0.50040E+08         0.00000E+00
    0.00000E+00         0.00000E+00        -0.53187E+08
 
   -0.53231E+08         0.21888E+07         0.00000E+00
    0.21888E+07        -0.50042E+08         0.00000E+00
    0.00000E+00         0.00000E+00        -0.53186E+08
 
   -0.53223E+08         0.22376E+07         0.00000E+00
    0.22376E+07        -0.50045E+08         0.00000E+00
    0.00000E+00         0.00000E+00        -0.53185E+08
 
   -0.53215E+08         0.22864E+07         0.00000E+00
    0.22864E+07        -0.50048E+08         0.00000E+00
    0.00000E+00         0.00000E+00        -0.53184E+08
 
   -0.53207E+08         0.23351E+07         0.00000E+00
    0.23351E+07        -0.50051E+08         0.00000E+00
    0.00000E+00         0.00000E+00        -0.53183E+08
 
   -0.53199E+08         0.23838E+07         0.00000E+00
    0.23838E+07        -0.50054E+08         0.00000E+00
    0.00000E+00         0.00000E+00        -0.53182E+08
 
   -0.53191E+08         0.24325E+07         0.00000E+00
    0.24325E+07        -0.50057E+08         0.00000E+00
    0.00000E+00         0.00000E+00        -0.53181E+08
 
   -0.53183E+08         0.24812E+07         0.00000E+00
    0.24812E+07        -0.50061E+08         0.00000E+00
    0.00000E+00         0.00000E+00        -0.53180E+08
 
   -0.53360E+08         0.26517E+05         0.00000E+00
    0.26517E+05        -0.50000E+08         0.00000E+00
    0.00000E+00         0.00000E+00        -0.53012E+08
 
   -0.53350E+08         0.79133E+05         0.00000E+00
    0.79133E+05        -0.50000E+08         0.00000E+00
    0.00000E+00         0.00000E+00        -0.53010E+08
 
   -0.53339E+08         0.13158E+06         0.00000E+00
    0.13158E+06        -0.50000E+08         0.00000E+00
    0.00000E+00         0.00000E+00        -0.53008E+08
 
   -0.53329E+08         0.18385E+06         0.00000E+00
    0.18385E+06        -0.50000E+08         0.00000E+00
    0.00000E+00         0.00000E+00        -0.53006E+08
 
   -0.53319E+08         0.23595E+06         0.00000E+00
    0.23595E+06        -0.50000E+08         0.00000E+00
    0.00000E+00         0.00000E+00        -0.53004E+08
 
   -0.53309E+08         0.28789E+06         0.00000E+00
    0.28789E+06        -0.50001E+08         0.00000E+00
    0.00000E+00         0.00000E+00        -0.53002E+08
 
   -0.53299E+08         0.33968E+06         0.00000E+00
    0.33968E+06        -0.50001E+08         0.00000E+00
    0.00000E+00         0.00000E+00        -0.53000E+08
 
   -0.53289E+08         0.39131E+06         0.00000E+00
    0.39131E+06        -0.50001E+08         0.00000E+00
    0.00000E+00         0.00000E+00        -0.52998E+08
 
   -0.53280E+08         0.44278E+06         0.00000E+00
    0.44278E+06        -0.50001E+08         0.00000E+00
    0.00000E+00         0.00000E+00        -0.52996E+08
 
   -0.53270E+08         0.49411E+06         0.00000E+00
    0.49411E+06        -0.50002E+08         0.00000E+00
    0.00000E+00         0.00000E+00        -0.52994E+08
 
   -0.53261E+08         0.54529E+06         0.00000E+00
    0.54529E+06        -0.50002E+08         0.00000E+00
    0.00000E+00         0.00000E+00        -0.52992E+08
 
   -0.53251E+08         0.59634E+06         0.00000E+00
    0.59634E+06        -0.50003E+08         0.00000E+00
    0.00000E+00         0.00000E+00        -0.52990E+08
 
   -0.53242E+08         0.64724E+06         0.00000E+00
    0.64724E+06        -0.50003E+08         0.00000E+00
    0.00000E+00         0.00000E+00        -0.52988E+08
 
   -0.53233E+08         0.69802E+06         0.00000E+00
    0.69802E+06        -0.50003E+08         0.00000E+00
    0.00000E+00         0.00000E+00        -0.52987E+08
 
   -0.53223E+08         0.74866E+06         0.00000E+00
    0.74866E+06        -0.50004E+08         0.00000E+00
    0.00000E+00         0.00000E+00        -0.52985E+08
 
   -0.53214E+08         0.79918E+06         0.00000E+00
    0.79918E+06        -0.50004E+08         0.00000E+00
    0.00000E+00         0.00000E+00        -0.52983E+08
 
   -0.53205E+08         0.84957E+06         0.00000E+00
    0.84957E+06        -0.50005E+08         0.00000E+00
    0.00000E+00         0.00000E+00        -0.52981E+08
 
   -0.53197E+08         0.89985E+06         0.00000E+00
    0.89985E+06        -0.50006E+08         0.00000E+00
    0.00000E+00         0.00000E+00        -0.52980E+08
 
   -0.53188E+08         0.95002E+06         0.00000E+00
    0.95002E+06        -0.50006E+08         0.00000E+00
    0.00000E+00         0.00000E+00        -0.52978E+08
 
   -0.53179E+08         0.10001E+07         0.00000E+00
    0.10001E+07        -0.50007E+08         0.00000E+00
    0.00000E+00         0.00000E+00        -0.52976E+08
 
   -0.53170E+08         0.10500E+07         0.00000E+00
    0.10500E+07        -0.50008E+08         0.00000E+00
    0.00000E+00         0.00000E+00        -0.52975E+08
 
   -0.53162E+08         0.10998E+07         0.00000E+00
    0.10998E+07        -0.50009E+08         0.00000E+00
    0.00000E+00         0.00000E+00        -0.52973E+08
 
   -0.53153E+08         0.11496E+07         0.00000E+00
    0.11496E+07        -0.50010E+08         0.00000E+00
    0.00000E+00         0.00000E+00        -0.52972E+08
 
   -0.53145E+08         0.11992E+07         0.00000E+00
    0.11992E+07        -0.50010E+08         0.00000E+00
    0.00000E+00         0.00000E+00        -0.52970E+08
 
   -0.53137E+08         0.12488E+07         0.00000E+00
    0.12488E+07        -0.50011E+08         0.00000E+00
    0.00000E+00         0.00000E+00        -0.52968E+08
 
   -0.53129E+08         0.12982E+07         0.00000E+00
    0.12982E+07        -0.50012E+08         0.00000E+00
    0.00000E+00         0.00000E+00        -0.52967E+08
 
   -0.53120E+08         0.13476E+07         0.00000E+00
    0.13476E+07        -0.50014E+08         0.00000E+00
    0.00000E+00         0.00000E+00        -0.52966E+08
 
   -0.53112E+08         0.13969E+07         0.00000E+00
    0.13969E+07        -0.50015E+08         0.00000E+00
    0.00000E+00         0.00000E+00        -0.52964E+08
 
   -0.53104E+08         0.14461E+07         0.00000E+00
    0.14461E+07        -0.50016E+08         0.00000E+00
    0.00000E+00         0.00000E+00        -0.52963E+08
 
   -0.53096E+08         0.14952E+07         0.00000E+00
    0.14952E+07        -0.50017E+08         0.00000E+00
    0.00000E+00         0.00000E+00        -0.52961E+08
 
   -0.53088E+08         0.15442E+07         0.00000E+00
    0.15442E+07        -0.50018E+08         0.00000E+00
    0.00000E+00         0.00000E+00        -0.52960E+08
 
   -0.53081E+08         0.15932E+07         0.00000E+00
    0.15932E+07        -0.50020E+08         0.00000E+00
    0.00000E+00         0.00000E+00        -0.52959E+08
 
   -0.53073E+08         0.16421E+07         0.00000E+00
    0.16421E+07        -0.50021E+08         0.00000E+00
    0.00000E+00         0.00000E+00        -0.52957E+08
 
   -0.53065E+08         0.16909E+07         0.00000E+00
    0.16909E+07        -0.50023E+08         0.00000E+00
    0.00000E+00         0.00000E+00        -0.52956E+08
 
   -0.53057E+08         0.17396E+07         0.00000E+00
    0.17396E+07        -0.50025E+08         0.00000E+00
    0.00000E+00         0.00000E+00        -0.52955E+08
 
   -0.53050E+08         0.17883E+07         0.00000E+00
    0.17883E+07        -0.50026E+08         0.00000E+00
    0.00000E+00         0.00000E+00        -0.52953E+08
 
   -0.53042E+08         0.18369E+07         0.00000E+00
    0.18369E+07        -0.50028E+08         0.00000E+00
    0.00000E+00         0.00000E+00        -0.52952E+08
 
   -0.53034E+08         0.18855E+07         0.00000E+00
    0.18855E+07        -0.50030E+08         0.00000E+00
    0.00000E+00         0.00000E+00        -0.52951E+08
 
   -0.53027E+08         0.19340E+07         0.00000E+00
    0.19340E+07        -0.50032E+08         0.00000E+00
    0.00000E+00         0.00000E+00        -0.52950E+08
 
   -0.53019E+08         0.19824E+07         0.00000E+00
    0.19824E+07        -0.50034E+08         0.00000E+00
    0.00000E+00         0.00000E+00        -0.52949E+08
 
   -0.53011E+08         0.20308E+07         0.00000E+00
    0.20308E+07        -0.50036E+08         0.00000E+00
    0.00000E+00         0.00000E+00        -0.52948E+08
 
   -0.53004E+08         0.20791E+07         0.00000E+00
    0.20791E+07        -0.50039E+08         0.00000E+00
    0.00000E+00         0.00000E+00        -0.52947E+08
 
   -0.52996E+08         0.21274E+07         0.00000E+00
    0.21274E+07        -0.50041E+08         0.00000E+00
    0.00000E+00         0.00000E+00        -0.52945E+08
 
   -0.52989E+08         0.21756E+07         0.00000E+00
    0.21756E+07        -0.50044E+08         0.00000E+00
    0.00000E+00         0.00000E+00        -0.52944E+08
 
   -0.52981E+08         0.22238E+07         0.00000E+00
    0.22238E+07        -0.50047E+08         0.00000E+00
    0.00000E+00         0.00000E+00        -0.52943E+08
 
   -0.52973E+08         0.22719E+07         0.00000E+00
    0.22719E+07        -0.50049E+08         0.00000E+00
    0.00000E+00         0.00000E+00        -0.52942E+08
 
   -0.52965E+08         0.23200E+07         0.00000E+00
    0.23200E+07        -0.50052E+08         0.00000E+00
    0.00000E+00         0.00000E+00        -0.52941E+08
 
   -0.52958E+08         0.23680E+07         0.00000E+00
    0.23680E+07        -0.50055E+08         0.00000E+00
    0.00000E+00         0.00000E+00        -0.52941E+08
 
   -0.52950E+08         0.24159E+07         0.00000E+00
    0.24159E+07        -0.50059E+08         0.00000E+00
    0.00000E+00         0.00000E+00        -0.52940E+08
 
   -0.52942E+08         0.24638E+07         0.00000E+00
    0.24638E+07        -0.50062E+08         0.00000E+00
    0.00000E+00         0.00000E+00        -0.52939E+08
 
   -0.53097E+08         0.26412E+05         0.00000E+00
    0.26412E+05        -0.50000E+08         0.00000E+00
    0.00000E+00         0.00000E+00        -0.52769E+08
 
   -0.53087E+08         0.78832E+05         0.00000E+00
    0.78832E+05        -0.50000E+08         0.00000E+00
    0.00000E+00         0.00000E+00        -0.52767E+08
 
   -0.53078E+08         0.13108E+06         0.00000E+00
    0.13108E+06        -0.50000E+08         0.00000E+00
    0.00000E+00         0.00000E+00        -0.52765E+08
 
   -0.53069E+08         0.18317E+06         0.00000E+00
    0.18317E+06        -0.50000E+08         0.00000E+00
    0.00000E+00         0.00000E+00        -0.52764E+08
 
   -0.53059E+08         0.23509E+06         0.00000E+00
    0.23509E+06        -0.50000E+08         0.00000E+00
    0.00000E+00         0.00000E+00        -0.52762E+08
 
   -0.53050E+08         0.28685E+06         0.00000E+00
    0.28685E+06        -0.50001E+08         0.00000E+00
    0.00000E+00         0.00000E+00        -0.52760E+08
 
   -0.53041E+08         0.33845E+06         0.00000E+00
    0.33845E+06        -0.50001E+08         0.00000E+00
    0.00000E+00         0.00000E+00        -0.52758E+08
 
   -0.53032E+08         0.38989E+06         0.00000E+00
    0.38989E+06        -0.50001E+08         0.00000E+00
    0.00000E+00         0.00000E+00        -0.52756E+08
 
   -0.53023E+08         0.44119E+06         0.00000E+00
    0.44119E+06        -0.50001E+08         0.00000E+00
    0.00000E+00         0.00000E+00        -0.52755E+08
 
   -0.53014E+08         0.49234E+06         0.00000E+00
    0.49234E+06        -0.50002E+08         0.00000E+00
    0.00000E+00         0.00000E+00        -0.52753E+08
 
   -0.53005E+08         0.54334E+06         0.00000E+00
    0.54334E+06        -0.50002E+08         0.00000E+00
    0.00000E+00         0.00000E+00        -0.52751E+08
 
   -0.52997E+08         0.59420E+06         0.00000E+00
    0.59420E+06        -0.50003E+08         0.00000E+00
    0.00000E+00         0.00000E+00        -0.52749E+08
 
   -0.52988E+08         0.64491E+06         0.00000E+00
    0.64491E+06        -0.50003E+08         0.00000E+00
    0.00000E+00         0.00000E+00        -0.52748E+08
 
   -0.52980E+08         0.69550E+06         0.00000E+00
    0.69550E+06        -0.50004E+08         0.00000E+00
    0.00000E+00         0.00000E+00        -0.52746E+08
 
   -0.52971E+08         0.74594E+06         0.00000E+00
    0.74594E+06        -0.50004E+08         0.00000E+00
    0.00000E+00         0.00000E+00        -0.52744E+08
 
   -0.52963E+08         0.79626E+06         0.00000E+00
    0.79626E+06        -0.50005E+08         0.00000E+00
    0.00000E+00         0.00000E+00        -0.52743E+08
 
   -0.52954E+08         0.84645E+06         0.00000E+00
    0.84645E+06        -0.50005E+08         0.00000E+00
    0.00000E+00         0.00000E+00        -0.52741E+08
 
   -0.52946E+08         0.89652E+06         0.00000E+00
    0.89652E+06        -0.50006E+08         0.00000E+00
    0.00000E+00         0.00000E+00        -0.52740E+08
 
   -0.52938E+08         0.94646E+06         0.00000E+00
    0.94646E+06        -0.50007E+08         0.00000E+00
    0.00000E+00         0.00000E+00        -0.52738E+08
 
   -0.52930E+08         0.99629E+06         0.00000E+00
    0.99629E+06        -0.50007E+08         0.00000E+00
    0.00000E+00         0.00000E+00        -0.52737E+08
 
   -0.52922E+08         0.10460E+07         0.00000E+00
    0.10460E+07        -0.50008E+08         0.00000E+00
    0.00000E+00         0.00000E+00        -0.52735E+08
 
   -0.52914E+08         0.10956E+07         0.00000E+00
    0.10956E+07        -0.50009E+08         0.00000E+00
    0.00000E+00         0.00000E+00        -0.52734E+08
 
   -0.52906E+08         0.11451E+07         0.00000E+00
    0.11451E+07        -0.50010E+08         0.00000E+00
    0.00000E+00         0.00000E+00        -0.52732E+08
 
   -0.52898E+08         0.11945E+07         0.00000E+00
    0.11945E+07        -0.50011E+08         0.00000E+00
    0.00000E+00         0.00000E+00        -0.52731E+08
 
   -0.52890E+08         0.12437E+07         0.00000E+00
    0.12437E+07        -0.50012E+08         0.00000E+00
    0.00000E+00         0.00000E+00        -0.52729E+08
 
   -0.52882E+08         0.12929E+07         0.00000E+00
    0.12929E+07        -0.50013E+08         0.00000E+00
    0.00000E+00         0.00000E+00        -0.52728E+08
 
   -0.52875E+08         0.13420E+07         0.00000E+00
    0.13420E+07        -0.50014E+08         0.00000E+00
    0.00000E+00         0.00000E+00        -0.52726E+08
 
   -0.52867E+08         0.13909E+07         0.00000E+00
    0.13909E+07        -0.50015E+08         0.00000E+00
    0.00000E+00         0.00000E+00        -0.52725E+08
 
   -0.52859E+08         0.14398E+07         0.00000E+00
    0.14398E+07        -0.50016E+08         0.00000E+00
    0.00000E+00         0.00000E+00        -0.52724E+08
 
   -0.52852E+08         0.14886E+07         0.00000E+00
    0.14886E+07        -0.50018E+08         0.00000E+00
    0.00000E+00         0.00000E+00        -0.52723E+08
 
   -0.52844E+08         0.15373E+07         0.00000E+00
    0.15373E+07        -0.50019E+08         0.00000E+00
    0.00000E+00         0.00000E+00        -0.52721E+08
 
   -0.52837E+08         0.15859E+07         0.00000E+00
    0.15859E+07        -0.50020E+08         0.00000E+00
    0.00000E+00         0.00000E+00        -0.52720E+08
 
   -0.52829E+08         0.16344E+07         0.00000E+00
    0.16344E+07        -0.50022E+08         0.00000E+00
    0.00000E+00         0.00000E+00        -0.52719E+08
 
   -0.52822E+08         0.16828E+07         0.00000E+00
    0.16828E+07        -0.50023E+08         0.00000E+00
    0.00000E+00         0.00000E+00        -0.52718E+08
 
   -0.52815E+08         0.17311E+07         0.00000E+00
    0.17311E+07        -0.50025E+08         0.00000E+00
    0.00000E+00         0.00000E+00        -0.52716E+08
 
   -0.52807E+08         0.17794E+07         0.00000E+00
    0.17794E+07        -0.50027E+08         0.00000E+00
    0.00000E+00         0.00000E+00        -0.52715E+08
 
   -0.52800E+08         0.18276E+07         0.00000E+00
    0.18276E+07        -0.50029E+08         0.00000E+00
    0.00000E+00         0.00000E+00        -0.52714E+08
 
   -0.52793E+08         0.18757E+07         0.00000E+00
    0.18757E+07        -0.50031E+08         0.00000E+00
    0.00000E+00         0.00000E+00        -0.52713E+08
 
   -0.52785E+08         0.19237E+07         0.00000E+00
    0.19237E+07        -0.50033E+08         0.00000E+00
    0.00000E+00         0.00000E+00        -0.52712E+08
 
   -0.52778E+08         0.19716E+07         0.00000E+00
    0.19716E+07        -0.50035E+08         0.00000E+00
    0.00000E+00         0.00000E+00        -0.52711E+08
 
   -0.52771E+08         0.20195E+07         0.00000E+00
    0.20195E+07        -0.50037E+08         0.00000E+00
    0.00000E+00         0.00000E+00        -0.52710E+08
 
   -0.52764E+08         0.20673E+07         0.00000E+00
    0.20673E+07        -0.50039E+08         0.00000E+00
    0.00000E+00         0.00000E+00        -0.52709E+08
 
   -0.52756E+08         0.21150E+07         0.00000E+00
    0.21150E+07        -0.50041E+08         0.00000E+00
    0.00000E+00         0.00000E+00        -0.52708E+08
 
   -0.52749E+08         0.21627E+07         0.00000E+00
    0.21627E+07        -0.50044E+08         0.00000E+00
    0.00000E+00         0.00000E+00        -0.52707E+08
 
   -0.52742E+08         0.22102E+07         0.00000E+00
    0.22102E+07        -0.50047E+08         0.00000E+00
    0.00000E+00         0.00000E+00        -0.52706E+08
 
   -0.52734E+08         0.22577E+07         0.00000E+00
    0.22577E+07        -0.50049E+08         0.00000E+00
    0.00000E+00         0.00000E+00        -0.52705E+08
 
   -0.52727E+08         0.23052E+07         0.00000E+00
    0.23052E+07        -0.50052E+08         0.00000E+00
    0.00000E+00         0.00000E+00        -0.52704E+08
 
   -0.52720E+08         0.23525E+07         0.00000E+00
    0.23525E+07        -0.50055E+08         0.00000E+00
    0.00000E+00         0.00000E+00        -0.52703E+08
 
   -0.52712E+08         0.23998E+07         0.00000E+00
    0.23998E+07        -0.50058E+08         0.00000E+00
    0.00000E+00         0.00000E+00        -0.52702E+08
 
   -0.52705E+08         0.24470E+07         0.00000E+00
    0.24470E+07        -0.50061E+08         0.00000E+00
    0.00000E+00         0.00000E+00        -0.52701E+08
 
   -0.52835E+08         0.26308E+05         0.00000E+00
    0.26308E+05        -0.50000E+08         0.00000E+00
    0.00000E+00         0.00000E+00        -0.52530E+08
 
   -0.52826E+08         0.78528E+05         0.00000E+00
    0.78528E+05        -0.50000E+08         0.00000E+00
    0.00000E+00         0.00000E+00        -0.52528E+08
 
   -0.52818E+08         0.13058E+06         0.00000E+00
    0.13058E+06        -0.50000E+08         0.00000E+00
    0.00000E+00         0.00000E+00        -0.52526E+08
 
   -0.52809E+08         0.18248E+06         0.00000E+00
    0.18248E+06        -0.50000E+08         0.00000E+00
    0.00000E+00         0.00000E+00        -0.52525E+08
 
   -0.52801E+08         0.23421E+06         0.00000E+00
    0.23421E+06        -0.50000E+08         0.00000E+00
    0.00000E+00         0.00000E+00        -0.52523E+08
 
   -0.52792E+08         0.28578E+06         0.00000E+00
    0.28578E+06        -0.50001E+08         0.00000E+00
    0.00000E+00         0.00000E+00        -0.52521E+08
 
   -0.52784E+08         0.33720E+06         0.00000E+00
    0.33720E+06        -0.50001E+08         0.00000E+00
    0.00000E+00         0.00000E+00        -0.52520E+08
 
   -0.52776E+08         0.38846E+06         0.00000E+00
    0.38846E+06        -0.50001E+08         0.00000E+00
    0.00000E+00         0.00000E+00        -0.52518E+08
 
   -0.52768E+08         0.43957E+06         0.00000E+00
    0.43957E+06        -0.50001E+08         0.00000E+00
    0.00000E+00         0.00000E+00        -0.52517E+08
 
   -0.52759E+08         0.49053E+06         0.00000E+00
    0.49053E+06        -0.50002E+08         0.00000E+00
    0.00000E+00         0.00000E+00        -0.52515E+08
 
   -0.52751E+08         0.54134E+06         0.00000E+00
    0.54134E+06        -0.50002E+08         0.00000E+00
    0.00000E+00         0.00000E+00        -0.52513E+08
 
   -0.52743E+08         0.59201E+06         0.00000E+00
    0.59201E+06        -0.50003E+08         0.00000E+00
    0.00000E+00         0.00000E+00        -0.52512E+08
 
   -0.52735E+08         0.64254E+06         0.00000E+00
    0.64254E+06        -0.50003E+08         0.00000E+00
    0.00000E+00         0.00000E+00        -0.52510E+08
 
   -0.52727E+08         0.69293E+06         0.00000E+00
    0.69293E+06        -0.50004E+08         0.00000E+00
    0.00000E+00         0.00000E+00        -0.52509E+08
 
   -0.52720E+08         0.74318E+06         0.00000E+00
    0.74318E+06        -0.50004E+08         0.00000E+00
    0.00000E+00         0.00000E+00        -0.52507E+08
 
   -0.52712E+08         0.79330E+06         0.00000E+00
    0.79330E+06        -0.50005E+08         0.00000E+00
    0.00000E+00         0.00000E+00        -0.52506E+08
 
   -0.52704E+08         0.84328E+06         0.00000E+00
    0.84328E+06        -0.50005E+08         0.00000E+00
    0.00000E+00         0.00000E+00        -0.52504E+08
 
   -0.52696E+08         0.89314E+06         0.00000E+00
    0.89314E+06        -0.50006E+08         0.00000E+00
    0.00000E+00         0.00000E+00        -0.52503E+08
 
   -0.52689E+08         0.94286E+06         0.00000E+00
    0.94286E+06        -0.50007E+08         0.00000E+00
    0.00000E+00         0.00000E+00        -0.52501E+08
 
   -0.52681E+08         0.99246E+06         0.00000E+00
    0.99246E+06        -0.50007E+08         0.00000E+00
    0.00000E+00         0.00000E+00        -0.52500E+08
 
   -0.52674E+08         0.10419E+07         0.00000E+00
    0.10419E+07        -0.50008E+08         0.00000E+00
    0.00000E+00         0.00000E+00        -0.52499E+08
 
   -0.52667E+08         0.10913E+07         0.00000E+00
    0.10913E+07        -0.50009E+08         0.00000E+00
    0.00000E+00         0.00000E+00        -0.52497E+08
 
   -0.52659E+08         0.11405E+07         0.00000E+00
    0.11405E+07        -0.50010E+08         0.00000E+00
    0.00000E+00         0.00000E+00        -0.52496E+08
 
   -0.52652E+08         0.11897E+07         0.00000E+00
    0.11897E+07        -0.50011E+08         0.00000E+00
    0.00000E+00         0.00000E+00        -0.52495E+08
 
   -0.52645E+08         0.12387E+07         0.00000E+00
    0.12387E+07        -0.50012E+08         0.00000E+00
    0.00000E+00         0.00000E+00        -0.52493E+08
 
   -0.52637E+08         0.12876E+07         0.00000E+00
    0.12876E+07        -0.50013E+08         0.00000E+00
    0.00000E+00         0.00000E+00        -0.52492E+08
 
   -0.52630E+08         0.13363E+07         0.00000E+00
    0.13363E+07        -0.50014E+08         0.00000E+00
    0.00000E+00         0.00000E+00        -0.52491E+08
 
   -0.52623E+08         0.13850E+07         0.00000E+00
    0.13850E+07        -0.50015E+08         0.00000E+00
    0.00000E+00         0.00000E+00        -0.52489E+08
 
   -0.52616E+08         0.14336E+07         0.00000E+00
    0.14336E+07        -0.50016E+08         0.00000E+00
    0.00000E+00         0.00000E+00        -0.52488E+08
 
   -0.52609E+08         0.14820E+07         0.00000E+00
    0.14820E+07        -0.50017E+08         0.00000E+00
    0.00000E+00         0.00000E+00        -0.52487E+08
 
   -0.52602E+08         0.15304E+07         0.00000E+00
    0.15304E+07        -0.50019E+08         0.00000E+00
    0.00000E+00         0.00000E+00        -0.52486E+08
 
   -0.52595E+08         0.15786E+07         0.00000E+00
    0.15786E+07        -0.50020E+08         0.00000E+00
    0.00000E+00         0.00000E+00        -0.52485E+08
 
   -0.52588E+08         0.16268E+07         0.00000E+00
    0.16268E+07        -0.50022E+08         0.00000E+00
    0.00000E+00         0.00000E+00        -0.52484E+08
 
   -0.52581E+08         0.16749E+07         0.00000E+00
    0.16749E+07        -0.50023E+08         0.00000E+00
    0.00000E+00         0.00000E+00        -0.52482E+08
 
   -0.52574E+08         0.17228E+07         0.00000E+00
    0.17228E+07        -0.50025E+08         0.00000E+00
    0.00000E+00         0.00000E+00        -0.52481E+08
 
   -0.52567E+08         0.17707E+07         0.00000E+00
    0.17707E+07        -0.50026E+08         0.00000E+00
    0.00000E+00         0.00000E+00        -0.52480E+08
 
   -0.52560E+08         0.18184E+07         0.00000E+00
    0.18184E+07        -0.50028E+08         0.00000E+00
    0.00000E+00         0.00000E+00        -0.52479E+08
 
   -0.52554E+08         0.18661E+07         0.00000E+00
    0.18661E+07        -0.50030E+08         0.00000E+00
    0.00000E+00         0.00000E+00        -0.52478E+08
 
   -0.52547E+08         0.19137E+07         0.00000E+00
    0.19137E+07        -0.50032E+08         0.00000E+00
    0.00000E+00         0.00000E+00        -0.52477E+08
 
   -0.52540E+08         0.19612E+07         0.00000E+00
    0.19612E+07        -0.50034E+08         0.00000E+00
    0.00000E+00         0.00000E+00        -0.52476E+08
 
   -0.52533E+08         0.20085E+07         0.00000E+00
    0.20085E+07        -0.50036E+08         0.00000E+00
    0.00000E+00         0.00000E+00        -0.52475E+08
 
   -0.52526E+08         0.20558E+07         0.00000E+00
    0.20558E+07        -0.50038E+08         0.00000E+00
    0.00000E+00         0.00000E+00        -0.52474E+08
 
   -0.52519E+08         0.21031E+07         0.00000E+00
    0.21031E+07        -0.50040E+08         0.00000E+00
    0.00000E+00         0.00000E+00        -0.52473E+08
 
   -0.52512E+08         0.21502E+07         0.00000E+00
    0.21502E+07        -0.50043E+08         0.00000E+00
    0.00000E+00         0.00000E+00        -0.52472E+08
 
   -0.52505E+08         0.21972E+07         0.00000E+00
    0.21972E+07        -0.50045E+08         0.00000E+00
    0.00000E+00         0.00000E+00        -0.52471E+08
 
   -0.52498E+08         0.22441E+07         0.00000E+00
    0.22441E+07        -0.50048E+08         0.00000E+00
    0.00000E+00         0.00000E+00        -0.52470E+08
 
   -0.52491E+08         0.22910E+07         0.00000E+00
    0.22910E+07        -0.50051E+08         0.00000E+00
    0.00000E+00         0.00000E+00        -0.52470E+08
 
   -0.52484E+08         0.23377E+07         0.00000E+00
    0.23377E+07        -0.50053E+08         0.00000E+00
    0.00000E+00         0.00000E+00        -0.52469E+08
 
   -0.52477E+08         0.23844E+07         0.00000E+00
    0.23844E+07        -0.50056E+08         0.00000E+00
    0.00000E+00         0.00000E+00        -0.52468E+08
 
   -0.52470E+08         0.24310E+07         0.00000E+00
    0.24310E+07        -0.50059E+08         0.00000E+00
    0.00000E+00         0.00000E+00        -0.52467E+08
 
   -0.52574E+08         0.26206E+05         0.00000E+00
    0.26206E+05        -0.50000E+08         0.00000E+00
    0.00000E+00         0.00000E+00        -0.52293E+08
 
   -0.52566E+08         0.78232E+05         0.00000E+00
    0.78232E+05        -0.50000E+08         0.00000E+00
    0.00000E+00         0.00000E+00        -0.52292E+08
 
   -0.52558E+08         0.13010E+06         0.00000E+00
    0.13010E+06        -0.50000E+08         0.00000E+00
    0.00000E+00         0.00000E+00        -0.52290E+08
 
   -0.52551E+08         0.18180E+06         0.00000E+00
    0.18180E+06        -0.50000E+08         0.00000E+00
    0.00000E+00         0.00000E+00        -0.52289E+08
 
   -0.52543E+08         0.23335E+06         0.00000E+00
    0.23335E+06        -0.50000E+08         0.00000E+00
    0.00000E+00         0.00000E+00        -0.52287E+08
 
   -0.52535E+08         0.28473E+06         0.00000E+00
    0.28473E+06        -0.50001E+08         0.00000E+00
    0.00000E+00         0.00000E+00        -0.52286E+08
 
   -0.52528E+08         0.33597E+06         0.00000E+00
    0.33597E+06        -0.50001E+08         0.00000E+00
    0.00000E+00         0.00000E+00        -0.52284E+08
 
   -0.52520E+08         0.38705E+06         0.00000E+00
    0.38705E+06        -0.50001E+08         0.00000E+00
    0.00000E+00         0.00000E+00        -0.52283E+08
 
   -0.52513E+08         0.43798E+06         0.00000E+00
    0.43798E+06        -0.50001E+08         0.00000E+00
    0.00000E+00         0.00000E+00        -0.52281E+08
 
   -0.52505E+08         0.48875E+06         0.00000E+00
    0.48875E+06        -0.50002E+08         0.00000E+00
    0.00000E+00         0.00000E+00        -0.52280E+08
 
   -0.52498E+08         0.53939E+06         0.00000E+00
    0.53939E+06        -0.50002E+08         0.00000E+00
    0.00000E+00         0.00000E+00        -0.52278E+08
 
   -0.52491E+08         0.58987E+06         0.00000E+00
    0.58987E+06        -0.50002E+08         0.00000E+00
    0.00000E+00         0.00000E+00        -0.52277E+08
 
   -0.52483E+08         0.64021E+06         0.00000E+00
    0.64021E+06        -0.50003E+08         0.00000E+00
    0.00000E+00         0.00000E+00        -0.52276E+08
 
   -0.52476E+08         0.69041E+06         0.00000E+00
    0.69041E+06        -0.50003E+08         0.00000E+00
    0.00000E+00         0.00000E+00        -0.52274E+08
 
   -0.52469E+08         0.74047E+06         0.00000E+00
    0.74047E+06        -0.50004E+08         0.00000E+00
    0.00000E+00         0.00000E+00        -0.52273E+08
 
   -0.52462E+08         0.79039E+06         0.00000E+00
    0.79039E+06        -0.50004E+08         0.00000E+00
    0.00000E+00         0.00000E+00        -0.52272E+08
 
   -0.52455E+08         0.84017E+06         0.00000E+00
    0.84017E+06        -0.50005E+08         0.00000E+00
    0.00000E+00         0.00000E+00        -0.52270E+08
 
   -0.52448E+08         0.88982E+06         0.00000E+00
    0.88982E+06        -0.50006E+08         0.00000E+00
    0.00000E+00         0.00000E+00        -0.52269E+08
 
   -0.52441E+08         0.93934E+06         0.00000E+00
    0.93934E+06        -0.50006E+08         0.00000E+00
    0.00000E+00         0.00000E+00        -0.52268E+08
 
   -0.52434E+08         0.98872E+06         0.00000E+00
    0.98872E+06        -0.50007E+08         0.00000E+00
    0.00000E+00         0.00000E+00        -0.52266E+08
 
   -0.52427E+08         0.10380E+07         0.00000E+00
    0.10380E+07        -0.50008E+08         0.00000E+00
    0.00000E+00         0.00000E+00        -0.52265E+08
 
   -0.52421E+08         0.10871E+07         0.00000E+00
    0.10871E+07        -0.50009E+08         0.00000E+00
    0.00000E+00         0.00000E+00        -0.52264E+08
 
   -0.52414E+08         0.11361E+07         0.00000E+00
    0.11361E+07        -0.50009E+08         0.00000E+00
    0.00000E+00         0.00000E+00        -0.52263E+08
 
   -0.52407E+08         0.11850E+07         0.00000E+00
    0.11850E+07        -0.50010E+08         0.00000E+00
    0.00000E+00         0.00000E+00        -0.52261E+08
 
   -0.52400E+08         0.12337E+07         0.00000E+00
    0.12337E+07        -0.50011E+08         0.00000E+00
    0.00000E+00         0.00000E+00        -0.52260E+08
 
   -0.52394E+08         0.12824E+07         0.00000E+00
    0.12824E+07        -0.50012E+08         0.00000E+00
    0.00000E+00         0.00000E+00        -0.52259E+08
 
   -0.52387E+08         0.13309E+07         0.00000E+00
    0.13309E+07        -0.50013E+08         0.00000E+00
    0.00000E+00         0.00000E+00        -0.52258E+08
 
   -0.52381E+08         0.13793E+07         0.00000E+00
    0.13793E+07        -0.50014E+08         0.00000E+00
    0.00000E+00         0.00000E+00        -0.52257E+08
 
   -0.52374E+08         0.14275E+07         0.00000E+00
    0.14275E+07        -0.50016E+08         0.00000E+00
    0.00000E+00         0.00000E+00        -0.52256E+08
 
   -0.52368E+08         0.14757E+07         0.00000E+00
    0.14757E+07        -0.50017E+08         0.00000E+00
    0.00000E+00         0.00000E+00        -0.52254E+08
 
   -0.52361E+08         0.15238E+07         0.00000E+00
    0.15238E+07        -0.50018E+08         0.00000E+00
    0.00000E+00         0.00000E+00        -0.52253E+08
 
   -0.52355E+08         0.15717E+07         0.00000E+00
    0.15717E+07        -0.50019E+08         0.00000E+00
    0.00000E+00         0.00000E+00        -0.52252E+08
 
   -0.52348E+08         0.16195E+07         0.00000E+00
    0.16195E+07        -0.50021E+08         0.00000E+00
    0.00000E+00         0.00000E+00        -0.52251E+08
 
   -0.52342E+08         0.16672E+07         0.00000E+00
    0.16672E+07        -0.50022E+08         0.00000E+00
    0.00000E+00         0.00000E+00        -0.52250E+08
 
   -0.52336E+08         0.17148E+07         0.00000E+00
    0.17148E+07        -0.50024E+08         0.00000E+00
    0.00000E+00         0.00000E+00        -0.52249E+08
 
   -0.52329E+08         0.17623E+07         0.00000E+00
    0.17623E+07        -0.50025E+08         0.00000E+00
    0.00000E+00         0.00000E+00        -0.52248E+08
 
   -0.52323E+08         0.18097E+07         0.00000E+00
    0.18097E+07        -0.50027E+08         0.00000E+00
    0.00000E+00         0.00000E+00        -0.52247E+08
 
   -0.52316E+08         0.18570E+07         0.00000E+00
    0.18570E+07        -0.50029E+08         0.00000E+00
    0.00000E+00         0.00000E+00        -0.52246E+08
 
   -0.52310E+08         0.19041E+07         0.00000E+00
    0.19041E+07        -0.50030E+08         0.00000E+00
    0.00000E+00         0.00000E+00        -0.52245E+08
 
   -0.52304E+08         0.19512E+07         0.00000E+00
    0.19512E+07        -0.50032E+08         0.00000E+00
    0.00000E+00         0.00000E+00        -0.52244E+08
 
   -0.52297E+08         0.19981E+07         0.00000E+00
    0.19981E+07        -0.50034E+08         0.00000E+00
    0.00000E+00         0.00000E+00        -0.52244E+08
 
   -0.52291E+08         0.20450E+07         0.00000E+00
    0.20450E+07        -0.50036E+08         0.00000E+00
    0.00000E+00         0.00000E+00        -0.52243E+08
 
   -0.52285E+08         0.20917E+07         0.00000E+00
    0.20917E+07        -0.50039E+08         0.00000E+00
    0.00000E+00         0.00000E+00        -0.52242E+08
 
   -0.52278E+08         0.21384E+07         0.00000E+00
    0.21384E+07        -0.50041E+08         0.00000E+00
    0.00000E+00         0.00000E+00        -0.52241E+08
 
   -0.52272E+08         0.21849E+07         0.00000E+00
    0.21849E+07        -0.50043E+08         0.00000E+00
    0.00000E+00         0.00000E+00        -0.52240E+08
 
   -0.52265E+08         0.22313E+07         0.00000E+00
    0.22313E+07        -0.50045E+08         0.00000E+00
    0.00000E+00         0.00000E+00        -0.52239E+08
 
   -0.52259E+08         0.22776E+07         0.00000E+00
    0.22776E+07        -0.50048E+08         0.00000E+00
    0.00000E+00         0.00000E+00        -0.52238E+08
 
   -0.52252E+08         0.23238E+07         0.00000E+00
    0.23238E+07        -0.50051E+08         0.00000E+00
    0.00000E+00         0.00000E+00        -0.52238E+08
 
   -0.52246E+08         0.23699E+07         0.00000E+00
    0.23699E+07        -0.50053E+08         0.00000E+00
    0.00000E+00         0.00000E+00        -0.52237E+08
 
   -0.52239E+08         0.24159E+07         0.00000E+00
    0.24159E+07        -0.50056E+08         0.00000E+00
    0.00000E+00         0.00000E+00        -0.52236E+08
 
   -0.52314E+08         0.26109E+05         0.00000E+00
    0.26109E+05        -0.50000E+08         0.00000E+00
    0.00000E+00         0.00000E+00        -0.52060E+08
 
   -0.52307E+08         0.77952E+05         0.00000E+00
    0.77952E+05        -0.50000E+08         0.00000E+00
    0.00000E+00         0.00000E+00        -0.52058E+08
 
   -0.52300E+08         0.12964E+06         0.00000E+00
    0.12964E+06        -0.50000E+08         0.00000E+00
    0.00000E+00         0.00000E+00        -0.52057E+08
 
   -0.52293E+08         0.18116E+06         0.00000E+00
    0.18116E+06        -0.50000E+08         0.00000E+00
    0.00000E+00         0.00000E+00        -0.52056E+08
 
   -0.52286E+08         0.23253E+06         0.00000E+00
    0.23253E+06        -0.50000E+08         0.00000E+00
    0.00000E+00         0.00000E+00        -0.52054E+08
 
   -0.52279E+08         0.28374E+06         0.00000E+00
    0.28374E+06        -0.50001E+08         0.00000E+00
    0.00000E+00         0.00000E+00        -0.52053E+08
 
   -0.52272E+08         0.33480E+06         0.00000E+00
    0.33480E+06        -0.50001E+08         0.00000E+00
    0.00000E+00         0.00000E+00        -0.52051E+08
 
   -0.52266E+08         0.38571E+06         0.00000E+00
    0.38571E+06        -0.50001E+08         0.00000E+00
    0.00000E+00         0.00000E+00        -0.52050E+08
 
   -0.52259E+08         0.43647E+06         0.00000E+00
    0.43647E+06        -0.50001E+08         0.00000E+00
    0.00000E+00         0.00000E+00        -0.52049E+08
 
   -0.52252E+08         0.48707E+06         0.00000E+00
    0.48707E+06        -0.50002E+08         0.00000E+00
    0.00000E+00         0.00000E+00        -0.52048E+08
 
   -0.52246E+08         0.53753E+06         0.00000E+00
    0.53753E+06        -0.50002E+08         0.00000E+00
    0.00000E+00         0.00000E+00        -0.52046E+08
 
   -0.52239E+08         0.58784E+06         0.00000E+00
    0.58784E+06        -0.50002E+08         0.00000E+00
    0.00000E+00         0.00000E+00        -0.52045E+08
 
   -0.52233E+08         0.63800E+06         0.00000E+00
    0.63800E+06        -0.50003E+08         0.00000E+00
    0.00000E+00         0.00000E+00        -0.52044E+08
 
   -0.52226E+08         0.68802E+06         0.00000E+00
    0.68802E+06        -0.50003E+08         0.00000E+00
    0.00000E+00         0.00000E+00        -0.52043E+08
 
   -0.52220E+08         0.73790E+06         0.00000E+00
    0.73790E+06        -0.50004E+08         0.00000E+00
    0.00000E+00         0.00000E+00        -0.52041E+08
 
   -0.52213E+08         0.78763E+06         0.00000E+00
    0.78763E+06        -0.50004E+08         0.00000E+00
    0.00000E+00         0.00000E+00        -0.52040E+08
 
   -0.52207E+08         0.83723E+06         0.00000E+00
    0.83723E+06        -0.50005E+08         0.00000E+00
    0.00000E+00         0.00000E+00        -0.52039E+08
 
   -0.52201E+08         0.88668E+06         0.00000E+00
    0.88668E+06        -0.50005E+08         0.00000E+00
    0.00000E+00         0.00000E+00        -0.52038E+08
 
   -0.52194E+08         0.93600E+06         0.00000E+00
    0.93600E+06        -0.50006E+08         0.00000E+00
    0.00000E+00         0.00000E+00        -0.52037E+08
 
   -0.52188E+08         0.98518E+06         0.00000E+00
    0.98518E+06        -0.50007E+08         0.00000E+00
    0.00000E+00         0.00000E+00        -0.52035E+08
 
   -0.52182E+08         0.10342E+07         0.00000E+00
    0.10342E+07        -0.50007E+08         0.00000E+00
    0.00000E+00         0.00000E+00        -0.52034E+08
 
   -0.52176E+08         0.10831E+07         0.00000E+00
    0.10831E+07        -0.50008E+08         0.00000E+00
    0.00000E+00         0.00000E+00        -0.52033E+08
 
   -0.52170E+08         0.11319E+07         0.00000E+00
    0.11319E+07        -0.50009E+08         0.00000E+00
    0.00000E+00         0.00000E+00        -0.52032E+08
 
   -0.52164E+08         0.11806E+07         0.00000E+00
    0.11806E+07        -0.50010E+08         0.00000E+00
    0.00000E+00         0.00000E+00        -0.52031E+08
 
   -0.52158E+08         0.12291E+07         0.00000E+00
    0.12291E+07        -0.50010E+08         0.00000E+00
    0.00000E+00         0.00000E+00        -0.52030E+08
 
   -0.52152E+08         0.12775E+07         0.00000E+00
    0.12775E+07        -0.50011E+08         0.00000E+00
    0.00000E+00         0.00000E+00        -0.52029E+08
 
   -0.52146E+08         0.13257E+07         0.00000E+00
    0.13257E+07        -0.50012E+08         0.00000E+00
    0.00000E+00         0.00000E+00        -0.52028E+08
 
   -0.52140E+08         0.13739E+07         0.00000E+00
    0.13739E+07        -0.50013E+08         0.00000E+00
    0.00000E+00         0.00000E+00        -0.52027E+08
 
   -0.52134E+08         0.14219E+07         0.00000E+00
    0.14219E+07        -0.50014E+08         0.00000E+00
    0.00000E+00         0.00000E+00        -0.52026E+08
 
   -0.52128E+08         0.14698E+07         0.00000E+00
    0.14698E+07        -0.50016E+08         0.00000E+00
    0.00000E+00         0.00000E+00        -0.52025E+08
 
   -0.52122E+08         0.15175E+07         0.00000E+00
    0.15175E+07        -0.50017E+08         0.00000E+00
    0.00000E+00         0.00000E+00        -0.52024E+08
 
   -0.52116E+08         0.15652E+07         0.00000E+00
    0.15652E+07        -0.50018E+08         0.00000E+00
    0.00000E+00         0.00000E+00        -0.52023E+08
 
   -0.52110E+08         0.16127E+07         0.00000E+00
    0.16127E+07        -0.50019E+08         0.00000E+00
    0.00000E+00         0.00000E+00        -0.52022E+08
 
   -0.52104E+08         0.16601E+07         0.00000E+00
    0.16601E+07        -0.50021E+08         0.00000E+00
    0.00000E+00         0.00000E+00        -0.52021E+08
 
   -0.52099E+08         0.17073E+07         0.00000E+00
    0.17073E+07        -0.50022E+08         0.00000E+00
    0.00000E+00         0.00000E+00        -0.52020E+08
 
   -0.52093E+08         0.17545E+07         0.00000E+00
    0.17545E+07        -0.50023E+08         0.00000E+00
    0.00000E+00         0.00000E+00        -0.52019E+08
 
   -0.52087E+08         0.18015E+07         0.00000E+00
    0.18015E+07        -0.50025E+08         0.00000E+00
    0.00000E+00         0.00000E+00        -0.52018E+08
 
   -0.52081E+08         0.18484E+07         0.00000E+00
    0.18484E+07        -0.50027E+08         0.00000E+00
    0.00000E+00         0.00000E+00        -0.52017E+08
 
   -0.52075E+08         0.18952E+07         0.00000E+00
    0.18952E+07        -0.50028E+08         0.00000E+00
    0.00000E+00         0.00000E+00        -0.52016E+08
 
   -0.52070E+08         0.19419E+07         0.00000E+00
    0.19419E+07        -0.50030E+08         0.00000E+00
    0.00000E+00         0.00000E+00        -0.52016E+08
 
   -0.52064E+08         0.19885E+07         0.00000E+00
    0.19885E+07        -0.50032E+08         0.00000E+00
    0.00000E+00         0.00000E+00        -0.52015E+08
 
   -0.52058E+08         0.20349E+07         0.00000E+00
    0.20349E+07        -0.50034E+08         0.00000E+00
    0.00000E+00         0.00000E+00        -0.52014E+08
 
   -0.52052E+08         0.20812E+07         0.00000E+00
    0.20812E+07        -0.50036E+08         0.00000E+00
    0.00000E+00         0.00000E+00        -0.52013E+08
 
   -0.52046E+08         0.21274E+07         0.00000E+00
    0.21274E+07        -0.50038E+08         0.00000E+00
    0.00000E+00         0.00000E+00        -0.52012E+08
 
   -0.52041E+08         0.21735E+07         0.00000E+00
    0.21735E+07        -0.50040E+08         0.00000E+00
    0.00000E+00         0.00000E+00        -0.52012E+08
 
   -0.52035E+08         0.22194E+07         0.00000E+00
    0.22194E+07        -0.50042E+08         0.00000E+00
    0.00000E+00         0.00000E+00        -0.52011E+08
 
   -0.52029E+08         0.22653E+07         0.00000E+00
    0.22653E+07        -0.50044E+08         0.00000E+00
    0.00000E+00         0.00000E+00        -0.52010E+08
 
   -0.52023E+08         0.23110E+07         0.00000E+00
    0.23110E+07        -0.50047E+08         0.00000E+00
    0.00000E+00         0.00000E+00        -0.52009E+08
 
   -0.52017E+08         0.23566E+07         0.00000E+00
    0.23566E+07        -0.50049E+08         0.00000E+00
    0.00000E+00         0.00000E+00        -0.52009E+08
 
   -0.52011E+08         0.24020E+07         0.00000E+00
    0.24020E+07        -0.50052E+08         0.00000E+00
    0.00000E+00         0.00000E+00        -0.52008E+08
 
   -0.52054E+08         0.26022E+05         0.00000E+00
    0.26022E+05        -0.50000E+08         0.00000E+00
    0.00000E+00         0.00000E+00        -0.51828E+08
 
   -0.52048E+08         0.77696E+05         0.00000E+00
    0.77696E+05        -0.50000E+08         0.00000E+00
    0.00000E+00         0.00000E+00        -0.51827E+08
 
   -0.52042E+08         0.12921E+06         0.00000E+00
    0.12921E+06        -0.50000E+08         0.00000E+00
    0.00000E+00         0.00000E+00        -0.51826E+08
 
   -0.52036E+08         0.18058E+06         0.00000E+00
    0.18058E+06        -0.50000E+08         0.00000E+00
    0.00000E+00         0.00000E+00        -0.51825E+08
 
   -0.52030E+08         0.23178E+06         0.00000E+00
    0.23178E+06        -0.50000E+08         0.00000E+00
    0.00000E+00         0.00000E+00        -0.51823E+08
 
   -0.52024E+08         0.28284E+06         0.00000E+00
    0.28284E+06        -0.50001E+08         0.00000E+00
    0.00000E+00         0.00000E+00        -0.51822E+08
 
   -0.52018E+08         0.33374E+06         0.00000E+00
    0.33374E+06        -0.50001E+08         0.00000E+00
    0.00000E+00         0.00000E+00        -0.51821E+08
 
   -0.52012E+08         0.38449E+06         0.00000E+00
    0.38449E+06        -0.50001E+08         0.00000E+00
    0.00000E+00         0.00000E+00        -0.51820E+08
 
   -0.52006E+08         0.43508E+06         0.00000E+00
    0.43508E+06        -0.50001E+08         0.00000E+00
    0.00000E+00         0.00000E+00        -0.51819E+08
 
   -0.52000E+08         0.48553E+06         0.00000E+00
    0.48553E+06        -0.50001E+08         0.00000E+00
    0.00000E+00         0.00000E+00        -0.51818E+08
 
   -0.51994E+08         0.53583E+06         0.00000E+00
    0.53583E+06        -0.50002E+08         0.00000E+00
    0.00000E+00         0.00000E+00        -0.51816E+08
 
   -0.51988E+08         0.58598E+06         0.00000E+00
    0.58598E+06        -0.50002E+08         0.00000E+00
    0.00000E+00         0.00000E+00        -0.51815E+08
 
   -0.51983E+08         0.63598E+06         0.00000E+00
    0.63598E+06        -0.50002E+08         0.00000E+00
    0.00000E+00         0.00000E+00        -0.51814E+08
 
   -0.51977E+08         0.68583E+06         0.00000E+00
    0.68583E+06        -0.50003E+08         0.00000E+00
    0.00000E+00         0.00000E+00        -0.51813E+08
 
   -0.51971E+08         0.73554E+06         0.00000E+00
    0.73554E+06        -0.50003E+08         0.00000E+00
    0.00000E+00         0.00000E+00        -0.51812E+08
 
   -0.51965E+08         0.78510E+06         0.00000E+00
    0.78510E+06        -0.50004E+08         0.00000E+00
    0.00000E+00         0.00000E+00        -0.51811E+08
 
   -0.51960E+08         0.83453E+06         0.00000E+00
    0.83453E+06        -0.50004E+08         0.00000E+00
    0.00000E+00         0.00000E+00        -0.51810E+08
 
   -0.51954E+08         0.88380E+06         0.00000E+00
    0.88380E+06        -0.50005E+08         0.00000E+00
    0.00000E+00         0.00000E+00        -0.51809E+08
 
   -0.51949E+08         0.93294E+06         0.00000E+00
    0.93294E+06        -0.50005E+08         0.00000E+00
    0.00000E+00         0.00000E+00        -0.51808E+08
 
   -0.51943E+08         0.98194E+06         0.00000E+00
    0.98194E+06        -0.50006E+08         0.00000E+00
    0.00000E+00         0.00000E+00        -0.51807E+08
 
   -0.51938E+08         0.10308E+07         0.00000E+00
    0.10308E+07        -0.50007E+08         0.00000E+00
    0.00000E+00         0.00000E+00        -0.51806E+08
 
   -0.51932E+08         0.10795E+07         0.00000E+00
    0.10795E+07        -0.50007E+08         0.00000E+00
    0.00000E+00         0.00000E+00        -0.51805E+08
 
   -0.51927E+08         0.11281E+07         0.00000E+00
    0.11281E+07        -0.50008E+08         0.00000E+00
    0.00000E+00         0.00000E+00        -0.51804E+08
 
   -0.51921E+08         0.11765E+07         0.00000E+00
    0.11765E+07        -0.50009E+08         0.00000E+00
    0.00000E+00         0.00000E+00        -0.51803E+08
 
   -0.51916E+08         0.12248E+07         0.00000E+00
    0.12248E+07        -0.50009E+08         0.00000E+00
    0.00000E+00         0.00000E+00        -0.51802E+08
 
   -0.51911E+08         0.12730E+07         0.00000E+00
    0.12730E+07        -0.50010E+08         0.00000E+00
    0.00000E+00         0.00000E+00        -0.51801E+08
 
   -0.51905E+08         0.13210E+07         0.00000E+00
    0.13210E+07        -0.50011E+08         0.00000E+00
    0.00000E+00         0.00000E+00        -0.51800E+08
 
   -0.51900E+08         0.13689E+07         0.00000E+00
    0.13689E+07        -0.50012E+08         0.00000E+00
    0.00000E+00         0.00000E+00        -0.51799E+08
 
   -0.51895E+08         0.14167E+07         0.00000E+00
    0.14167E+07        -0.50013E+08         0.00000E+00
    0.00000E+00         0.00000E+00        -0.51798E+08
 
   -0.51889E+08         0.14643E+07         0.00000E+00
    0.14643E+07        -0.50014E+08         0.00000E+00
    0.00000E+00         0.00000E+00        -0.51797E+08
 
   -0.51884E+08         0.15119E+07         0.00000E+00
    0.15119E+07        -0.50015E+08         0.00000E+00
    0.00000E+00         0.00000E+00        -0.51796E+08
 
   -0.51879E+08         0.15592E+07         0.00000E+00
    0.15592E+07        -0.50016E+08         0.00000E+00
    0.00000E+00         0.00000E+00        -0.51796E+08
 
   -0.51874E+08         0.16065E+07         0.00000E+00
    0.16065E+07        -0.50017E+08         0.00000E+00
    0.00000E+00         0.00000E+00        -0.51795E+08
 
   -0.51869E+08         0.16536E+07         0.00000E+00
    0.16536E+07        -0.50018E+08         0.00000E+00
    0.00000E+00         0.00000E+00        -0.51794E+08
 
   -0.51863E+08         0.17005E+07         0.00000E+00
    0.17005E+07        -0.50020E+08         0.00000E+00
    0.00000E+00         0.00000E+00        -0.51793E+08
 
   -0.51858E+08         0.17474E+07         0.00000E+00
    0.17474E+07        -0.50021E+08         0.00000E+00
    0.00000E+00         0.00000E+00        -0.51792E+08
 
   -0.51853E+08         0.17941E+07         0.00000E+00
    0.17941E+07        -0.50022E+08         0.00000E+00
    0.00000E+00         0.00000E+00        -0.51791E+08
 
   -0.51848E+08         0.18407E+07         0.00000E+00
    0.18407E+07        -0.50024E+08         0.00000E+00
    0.00000E+00         0.00000E+00        -0.51791E+08
 
   -0.51843E+08         0.18871E+07         0.00000E+00
    0.18871E+07        -0.50025E+08         0.00000E+00
    0.00000E+00         0.00000E+00        -0.51790E+08
 
   -0.51838E+08         0.19335E+07         0.00000E+00
    0.19335E+07        -0.50027E+08         0.00000E+00
    0.00000E+00         0.00000E+00        -0.51789E+08
 
   -0.51832E+08         0.19797E+07         0.00000E+00
    0.19797E+07        -0.50029E+08         0.00000E+00
    0.00000E+00         0.00000E+00        -0.51788E+08
 
   -0.51827E+08         0.20257E+07         0.00000E+00
    0.20257E+07        -0.50030E+08         0.00000E+00
    0.00000E+00         0.00000E+00        -0.51788E+08
 
   -0.51822E+08         0.20717E+07         0.00000E+00
    0.20717E+07        -0.50032E+08         0.00000E+00
    0.00000E+00         0.00000E+00        -0.51787E+08
 
   -0.51817E+08         0.21175E+07         0.00000E+00
    0.21175E+07        -0.50034E+08         0.00000E+00
    0.00000E+00         0.00000E+00        -0.51786E+08
 
   -0.51811E+08         0.21631E+07         0.00000E+00
    0.21631E+07        -0.50036E+08         0.00000E+00
    0.00000E+00         0.00000E+00        -0.51786E+08
 
   -0.51806E+08         0.22087E+07         0.00000E+00
    0.22087E+07        -0.50038E+08         0.00000E+00
    0.00000E+00         0.00000E+00        -0.51785E+08
 
   -0.51801E+08         0.22541E+07         0.00000E+00
    0.22541E+07        -0.50040E+08         0.00000E+00
    0.00000E+00         0.00000E+00        -0.51784E+08
 
   -0.51796E+08         0.22993E+07         0.00000E+00
    0.22993E+07        -0.50042E+08         0.00000E+00
    0.00000E+00         0.00000E+00        -0.51784E+08
 
   -0.51790E+08         0.23445E+07         0.00000E+00
    0.23445E+07        -0.50044E+08         0.00000E+00
    0.00000E+00         0.00000E+00        -0.51783E+08
 
   -0.51785E+08         0.23895E+07         0.00000E+00
    0.23895E+07        -0.50046E+08         0.00000E+00
    0.00000E+00         0.00000E+00        -0.51782E+08
 
   -0.51796E+08         0.25945E+05         0.00000E+00
    0.25945E+05        -0.50000E+08         0.00000E+00
    0.00000E+00         0.00000E+00        -0.51599E+08
 
   -0.51791E+08         0.77472E+05         0.00000E+00
    0.77472E+05        -0.50000E+08         0.00000E+00
    0.00000E+00         0.00000E+00        -0.51598E+08
 
   -0.51785E+08         0.12884E+06         0.00000E+00
    0.12884E+06        -0.50000E+08         0.00000E+00
    0.00000E+00         0.00000E+00        -0.51597E+08
 
   -0.51780E+08         0.18006E+06         0.00000E+00
    0.18006E+06        -0.50000E+08         0.00000E+00
    0.00000E+00         0.00000E+00        -0.51596E+08
 
   -0.51775E+08         0.23113E+06         0.00000E+00
    0.23113E+06        -0.50000E+08         0.00000E+00
    0.00000E+00         0.00000E+00        -0.51595E+08
 
   -0.51769E+08         0.28204E+06         0.00000E+00
    0.28204E+06        -0.50000E+08         0.00000E+00
    0.00000E+00         0.00000E+00        -0.51594E+08
 
   -0.51764E+08         0.33280E+06         0.00000E+00
    0.33280E+06        -0.50001E+08         0.00000E+00
    0.00000E+00         0.00000E+00        -0.51593E+08
 
   -0.51759E+08         0.38341E+06         0.00000E+00
    0.38341E+06        -0.50001E+08         0.00000E+00
    0.00000E+00         0.00000E+00        -0.51592E+08
 
   -0.51754E+08         0.43387E+06         0.00000E+00
    0.43387E+06        -0.50001E+08         0.00000E+00
    0.00000E+00         0.00000E+00        -0.51591E+08
 
   -0.51749E+08         0.48417E+06         0.00000E+00
    0.48417E+06        -0.50001E+08         0.00000E+00
    0.00000E+00         0.00000E+00        -0.51590E+08
 
   -0.51743E+08         0.53433E+06         0.00000E+00
    0.53433E+06        -0.50002E+08         0.00000E+00
    0.00000E+00         0.00000E+00        -0.51589E+08
 
   -0.51738E+08         0.58433E+06         0.00000E+00
    0.58433E+06        -0.50002E+08         0.00000E+00
    0.00000E+00         0.00000E+00        -0.51588E+08
 
   -0.51733E+08         0.63419E+06         0.00000E+00
    0.63419E+06        -0.50002E+08         0.00000E+00
    0.00000E+00         0.00000E+00        -0.51587E+08
 
   -0.51728E+08         0.68390E+06         0.00000E+00
    0.68390E+06        -0.50002E+08         0.00000E+00
    0.00000E+00         0.00000E+00        -0.51586E+08
 
   -0.51723E+08         0.73346E+06         0.00000E+00
    0.73346E+06        -0.50003E+08         0.00000E+00
    0.00000E+00         0.00000E+00        -0.51585E+08
 
   -0.51718E+08         0.78288E+06         0.00000E+00
    0.78288E+06        -0.50003E+08         0.00000E+00
    0.00000E+00         0.00000E+00        -0.51584E+08
 
   -0.51713E+08         0.83215E+06         0.00000E+00
    0.83215E+06        -0.50004E+08         0.00000E+00
    0.00000E+00         0.00000E+00        -0.51583E+08
 
   -0.51708E+08         0.88127E+06         0.00000E+00
    0.88127E+06        -0.50004E+08         0.00000E+00
    0.00000E+00         0.00000E+00        -0.51582E+08
 
   -0.51704E+08         0.93025E+06         0.00000E+00
    0.93025E+06        -0.50005E+08         0.00000E+00
    0.00000E+00         0.00000E+00        -0.51581E+08
 
   -0.51699E+08         0.97908E+06         0.00000E+00
    0.97908E+06        -0.50005E+08         0.00000E+00
    0.00000E+00         0.00000E+00        -0.51580E+08
 
   -0.51694E+08         0.10278E+07         0.00000E+00
    0.10278E+07        -0.50006E+08         0.00000E+00
    0.00000E+00         0.00000E+00        -0.51579E+08
 
   -0.51689E+08         0.10763E+07         0.00000E+00
    0.10763E+07        -0.50006E+08         0.00000E+00
    0.00000E+00         0.00000E+00        -0.51579E+08
 
   -0.51685E+08         0.11247E+07         0.00000E+00
    0.11247E+07        -0.50007E+08         0.00000E+00
    0.00000E+00         0.00000E+00        -0.51578E+08
 
   -0.51680E+08         0.11730E+07         0.00000E+00
    0.11730E+07        -0.50007E+08         0.00000E+00
    0.00000E+00         0.00000E+00        -0.51577E+08
 
   -0.51675E+08         0.12211E+07         0.00000E+00
    0.12211E+07        -0.50008E+08         0.00000E+00
    0.00000E+00         0.00000E+00        -0.51576E+08
 
   -0.51670E+08         0.12691E+07         0.00000E+00
    0.12691E+07        -0.50009E+08         0.00000E+00
    0.00000E+00         0.00000E+00        -0.51575E+08
 
   -0.51666E+08         0.13169E+07         0.00000E+00
    0.13169E+07        -0.50010E+08         0.00000E+00
    0.00000E+00         0.00000E+00        -0.51574E+08
 
   -0.51661E+08         0.13646E+07         0.00000E+00
    0.13646E+07        -0.50010E+08         0.00000E+00
    0.00000E+00         0.00000E+00        -0.51574E+08
 
   -0.51657E+08         0.14122E+07         0.00000E+00
    0.14122E+07        -0.50011E+08         0.00000E+00
    0.00000E+00         0.00000E+00        -0.51573E+08
 
   -0.51652E+08         0.14596E+07         0.00000E+00
    0.14596E+07        -0.50012E+08         0.00000E+00
    0.00000E+00         0.00000E+00        -0.51572E+08
 
   -0.51648E+08         0.15068E+07         0.00000E+00
    0.15068E+07        -0.50013E+08         0.00000E+00
    0.00000E+00         0.00000E+00        -0.51571E+08
 
   -0.51643E+08         0.15540E+07         0.00000E+00
    0.15540E+07        -0.50014E+08         0.00000E+00
    0.00000E+00         0.00000E+00        -0.51571E+08
 
   -0.51638E+08         0.16010E+07         0.00000E+00
    0.16010E+07        -0.50015E+08         0.00000E+00
    0.00000E+00         0.00000E+00        -0.51570E+08
 
   -0.51634E+08         0.16478E+07         0.00000E+00
    0.16478E+07        -0.50016E+08         0.00000E+00
    0.00000E+00         0.00000E+00        -0.51569E+08
 
   -0.51629E+08         0.16945E+07         0.00000E+00
    0.16945E+07        -0.50017E+08         0.00000E+00
    0.00000E+00         0.00000E+00        -0.51568E+08
 
   -0.51625E+08         0.17411E+07         0.00000E+00
    0.17411E+07        -0.50018E+08         0.00000E+00
    0.00000E+00         0.00000E+00        -0.51568E+08
 
   -0.51620E+08         0.17876E+07         0.00000E+00
    0.17876E+07        -0.50019E+08         0.00000E+00
    0.00000E+00         0.00000E+00        -0.51567E+08
 
   -0.51616E+08         0.18339E+07         0.00000E+00
    0.18339E+07        -0.50021E+08         0.00000E+00
    0.00000E+00         0.00000E+00        -0.51566E+08
 
   -0.51611E+08         0.18800E+07         0.00000E+00
    0.18800E+07        -0.50022E+08         0.00000E+00
    0.00000E+00         0.00000E+00        -0.51566E+08
 
   -0.51607E+08         0.19260E+07         0.00000E+00
    0.19260E+07        -0.50023E+08         0.00000E+00
    0.00000E+00         0.00000E+00        -0.51565E+08
 
   -0.51602E+08         0.19719E+07         0.00000E+00
    0.19719E+07        -0.50025E+08         0.00000E+00
    0.00000E+00         0.00000E+00        -0.51564E+08
 
   -0.51598E+08         0.20176E+07         0.00000E+00
    0.20176E+07        -0.50026E+08         0.00000E+00
    0.00000E+00         0.00000E+00        -0.51564E+08
 
   -0.51593E+08         0.20632E+07         0.00000E+00
    0.20632E+07        -0.50028E+08         0.00000E+00
    0.00000E+00         0.00000E+00        -0.51563E+08
 
   -0.51589E+08         0.21087E+07         0.00000E+00
    0.21087E+07        -0.50029E+08         0.00000E+00
    0.00000E+00         0.00000E+00        -0.51563E+08
 
   -0.51584E+08         0.21540E+07         0.00000E+00
    0.21540E+07        -0.50031E+08         0.00000E+00
    0.00000E+00         0.00000E+00        -0.51562E+08
 
   -0.51580E+08         0.21992E+07         0.00000E+00
    0.21992E+07        -0.50033E+08         0.00000E+00
    0.00000E+00         0.00000E+00        -0.51561E+08
 
   -0.51575E+08         0.22442E+07         0.00000E+00
    0.22442E+07        -0.50034E+08         0.00000E+00
    0.00000E+00         0.00000E+00        -0.51561E+08
 
   -0.51571E+08         0.22891E+07         0.00000E+00
    0.22891E+07        -0.50036E+08         0.00000E+00
    0.00000E+00         0.00000E+00        -0.51560E+08
 
   -0.51566E+08         0.23338E+07         0.00000E+00
    0.23338E+07        -0.50038E+08         0.00000E+00
    0.00000E+00         0.00000E+00        -0.51560E+08
 
   -0.51561E+08         0.23784E+07         0.00000E+00
    0.23784E+07        -0.50040E+08         0.00000E+00
    0.00000E+00         0.00000E+00        -0.51559E+08
 
   -0.51538E+08         0.25881E+05         0.00000E+00
    0.25881E+05        -0.50000E+08         0.00000E+00
    0.00000E+00         0.00000E+00        -0.51372E+08
 
   -0.51534E+08         0.77284E+05         0.00000E+00
    0.77284E+05        -0.50000E+08         0.00000E+00
    0.00000E+00         0.00000E+00        -0.51371E+08
 
   -0.51529E+08         0.12854E+06         0.00000E+00
    0.12854E+06        -0.50000E+08         0.00000E+00
    0.00000E+00         0.00000E+00        -0.51370E+08
 
   -0.51525E+08         0.17963E+06         0.00000E+00
    0.17963E+06        -0.50000E+08         0.00000E+00
    0.00000E+00         0.00000E+00        -0.51369E+08
 
   -0.51520E+08         0.23058E+06         0.00000E+00
    0.23058E+06        -0.50000E+08         0.00000E+00
    0.00000E+00         0.00000E+00        -0.51368E+08
 
   -0.51515E+08         0.28137E+06         0.00000E+00
    0.28137E+06        -0.50000E+08         0.00000E+00
    0.00000E+00         0.00000E+00        -0.51367E+08
 
   -0.51511E+08         0.33202E+06         0.00000E+00
    0.33202E+06        -0.50000E+08         0.00000E+00
    0.00000E+00         0.00000E+00        -0.51366E+08
 
   -0.51506E+08         0.38251E+06         0.00000E+00
    0.38251E+06        -0.50001E+08         0.00000E+00
    0.00000E+00         0.00000E+00        -0.51366E+08
 
   -0.51502E+08         0.43285E+06         0.00000E+00
    0.43285E+06        -0.50001E+08         0.00000E+00
    0.00000E+00         0.00000E+00        -0.51365E+08
 
   -0.51498E+08         0.48304E+06         0.00000E+00
    0.48304E+06        -0.50001E+08         0.00000E+00
    0.00000E+00         0.00000E+00        -0.51364E+08
 
   -0.51493E+08         0.53307E+06         0.00000E+00
    0.53307E+06        -0.50001E+08         0.00000E+00
    0.00000E+00         0.00000E+00        -0.51363E+08
 
   -0.51489E+08         0.58296E+06         0.00000E+00
    0.58296E+06        -0.50001E+08         0.00000E+00
    0.00000E+00         0.00000E+00        -0.51362E+08
 
   -0.51485E+08         0.63270E+06         0.00000E+00
    0.63270E+06        -0.50002E+08         0.00000E+00
    0.00000E+00         0.00000E+00        -0.51361E+08
 
   -0.51480E+08         0.68229E+06         0.00000E+00
    0.68229E+06        -0.50002E+08         0.00000E+00
    0.00000E+00         0.00000E+00        -0.51360E+08
 
   -0.51476E+08         0.73172E+06         0.00000E+00
    0.73172E+06        -0.50002E+08         0.00000E+00
    0.00000E+00         0.00000E+00        -0.51360E+08
 
   -0.51472E+08         0.78101E+06         0.00000E+00
    0.78101E+06        -0.50003E+08         0.00000E+00
    0.00000E+00         0.00000E+00        -0.51359E+08
 
   -0.51468E+08         0.83015E+06         0.00000E+00
    0.83015E+06        -0.50003E+08         0.00000E+00
    0.00000E+00         0.00000E+00        -0.51358E+08
 
   -0.51464E+08         0.87914E+06         0.00000E+00
    0.87914E+06        -0.50003E+08         0.00000E+00
    0.00000E+00         0.00000E+00        -0.51357E+08
 
   -0.51459E+08         0.92799E+06         0.00000E+00
    0.92799E+06        -0.50004E+08         0.00000E+00
    0.00000E+00         0.00000E+00        -0.51356E+08
 
   -0.51455E+08         0.97668E+06         0.00000E+00
    0.97668E+06        -0.50004E+08         0.00000E+00
    0.00000E+00         0.00000E+00        -0.51356E+08
 
   -0.51451E+08         0.10252E+07         0.00000E+00
    0.10252E+07        -0.50005E+08         0.00000E+00
    0.00000E+00         0.00000E+00        -0.51355E+08
 
   -0.51447E+08         0.10736E+07         0.00000E+00
    0.10736E+07        -0.50005E+08         0.00000E+00
    0.00000E+00         0.00000E+00        -0.51354E+08
 
   -0.51443E+08         0.11219E+07         0.00000E+00
    0.11219E+07        -0.50006E+08         0.00000E+00
    0.00000E+00         0.00000E+00        -0.51354E+08
 
   -0.51439E+08         0.11700E+07         0.00000E+00
    0.11700E+07        -0.50006E+08         0.00000E+00
    0.00000E+00         0.00000E+00        -0.51353E+08
 
   -0.51435E+08         0.12179E+07         0.00000E+00
    0.12179E+07        -0.50007E+08         0.00000E+00
    0.00000E+00         0.00000E+00        -0.51352E+08
 
   -0.51431E+08         0.12658E+07         0.00000E+00
    0.12658E+07        -0.50007E+08         0.00000E+00
    0.00000E+00         0.00000E+00        -0.51351E+08
 
   -0.51427E+08         0.13134E+07         0.00000E+00
    0.13134E+07        -0.50008E+08         0.00000E+00
    0.00000E+00         0.00000E+00        -0.51351E+08
 
   -0.51424E+08         0.13609E+07         0.00000E+00
    0.13609E+07        -0.50008E+08         0.00000E+00
    0.00000E+00         0.00000E+00        -0.51350E+08
 
   -0.51420E+08         0.14083E+07         0.00000E+00
    0.14083E+07        -0.50009E+08         0.00000E+00
    0.00000E+00         0.00000E+00        -0.51349E+08
 
   -0.51416E+08         0.14555E+07         0.00000E+00
    0.14555E+07        -0.50010E+08         0.00000E+00
    0.00000E+00         0.00000E+00        -0.51349E+08
 
   -0.51412E+08         0.15026E+07         0.00000E+00
    0.15026E+07        -0.50011E+08         0.00000E+00
    0.00000E+00         0.00000E+00        -0.51348E+08
 
   -0.51408E+08         0.15495E+07         0.00000E+00
    0.15495E+07        -0.50011E+08         0.00000E+00
    0.00000E+00         0.00000E+00        -0.51347E+08
 
   -0.51404E+08         0.15963E+07         0.00000E+00
    0.15963E+07        -0.50012E+08         0.00000E+00
    0.00000E+00         0.00000E+00        -0.51347E+08
 
   -0.51401E+08         0.16430E+07         0.00000E+00
    0.16430E+07        -0.50013E+08         0.00000E+00
    0.00000E+00         0.00000E+00        -0.51346E+08
 
   -0.51397E+08         0.16895E+07         0.00000E+00
    0.16895E+07        -0.50014E+08         0.00000E+00
    0.00000E+00         0.00000E+00        -0.51346E+08
 
   -0.51393E+08         0.17358E+07         0.00000E+00
    0.17358E+07        -0.50015E+08         0.00000E+00
    0.00000E+00         0.00000E+00        -0.51345E+08
 
   -0.51389E+08         0.17820E+07         0.00000E+00
    0.17820E+07        -0.50016E+08         0.00000E+00
    0.00000E+00         0.00000E+00        -0.51344E+08
 
   -0.51385E+08         0.18281E+07         0.00000E+00
    0.18281E+07        -0.50017E+08         0.00000E+00
    0.00000E+00         0.00000E+00        -0.51344E+08
 
   -0.51382E+08         0.18740E+07         0.00000E+00
    0.18740E+07        -0.50018E+08         0.00000E+00
    0.00000E+00         0.00000E+00        -0.51343E+08
 
   -0.51378E+08         0.19197E+07         0.00000E+00
    0.19197E+07        -0.50019E+08         0.00000E+00
    0.00000E+00         0.00000E+00        -0.51343E+08
 
   -0.51374E+08         0.19653E+07         0.00000E+00
    0.19653E+07        -0.50020E+08         0.00000E+00
    0.00000E+00         0.00000E+00        -0.51342E+08
 
   -0.51370E+08         0.20108E+07         0.00000E+00
    0.20108E+07        -0.50021E+08         0.00000E+00
    0.00000E+00         0.00000E+00        -0.51342E+08
 
   -0.51367E+08         0.20561E+07         0.00000E+00
    0.20561E+07        -0.50023E+08         0.00000E+00
    0.00000E+00         0.00000E+00        -0.51341E+08
 
   -0.51363E+08         0.21012E+07         0.00000E+00
    0.21012E+07        -0.50024E+08         0.00000E+00
    0.00000E+00         0.00000E+00        -0.51341E+08
 
   -0.51359E+08         0.21462E+07         0.00000E+00
    0.21462E+07        -0.50025E+08         0.00000E+00
    0.00000E+00         0.00000E+00        -0.51340E+08
 
   -0.51355E+08         0.21911E+07         0.00000E+00
    0.21911E+07        -0.50027E+08         0.00000E+00
    0.00000E+00         0.00000E+00        -0.51340E+08
 
   -0.51351E+08         0.22358E+07         0.00000E+00
    0.22358E+07        -0.50028E+08         0.00000E+00
    0.00000E+00         0.00000E+00        -0.51339E+08
 
   -0.51347E+08         0.22803E+07         0.00000E+00
    0.22803E+07        -0.50030E+08         0.00000E+00
    0.00000E+00         0.00000E+00        -0.51339E+08
 
   -0.51343E+08         0.23247E+07         0.00000E+00
    0.23247E+07        -0.50032E+08         0.00000E+00
    0.00000E+00         0.00000E+00        -0.51338E+08
 
   -0.51340E+08         0.23690E+07         0.00000E+00
    0.23690E+07        -0.50033E+08         0.00000E+00
    0.00000E+00         0.00000E+00        -0.51338E+08
 
   -0.51281E+08         0.25831E+05         0.00000E+00
    0.25831E+05        -0.50000E+08         0.00000E+00
    0.00000E+00         0.00000E+00        -0.51146E+08
 
   -0.51277E+08         0.77138E+05         0.00000E+00
    0.77138E+05        -0.50000E+08         0.00000E+00
    0.00000E+00         0.00000E+00        -0.51145E+08
 
   -0.51273E+08         0.12829E+06         0.00000E+00
    0.12829E+06        -0.50000E+08         0.00000E+00
    0.00000E+00         0.00000E+00        -0.51145E+08
 
   -0.51270E+08         0.17930E+06         0.00000E+00
    0.17930E+06        -0.50000E+08         0.00000E+00
    0.00000E+00         0.00000E+00        -0.51144E+08
 
   -0.51266E+08         0.23015E+06         0.00000E+00
    0.23015E+06        -0.50000E+08         0.00000E+00
    0.00000E+00         0.00000E+00        -0.51143E+08
 
   -0.51262E+08         0.28086E+06         0.00000E+00
    0.28086E+06        -0.50000E+08         0.00000E+00
    0.00000E+00         0.00000E+00        -0.51142E+08
 
   -0.51258E+08         0.33141E+06         0.00000E+00
    0.33141E+06        -0.50000E+08         0.00000E+00
    0.00000E+00         0.00000E+00        -0.51142E+08
 
   -0.51255E+08         0.38181E+06         0.00000E+00
    0.38181E+06        -0.50000E+08         0.00000E+00
    0.00000E+00         0.00000E+00        -0.51141E+08
 
   -0.51251E+08         0.43206E+06         0.00000E+00
    0.43206E+06        -0.50001E+08         0.00000E+00
    0.00000E+00         0.00000E+00        -0.51140E+08
 
   -0.51247E+08         0.48216E+06         0.00000E+00
    0.48216E+06        -0.50001E+08         0.00000E+00
    0.00000E+00         0.00000E+00        -0.51139E+08
 
   -0.51244E+08         0.53210E+06         0.00000E+00
    0.53210E+06        -0.50001E+08         0.00000E+00
    0.00000E+00         0.00000E+00        -0.51139E+08
 
   -0.51240E+08         0.58190E+06         0.00000E+00
    0.58190E+06        -0.50001E+08         0.00000E+00
    0.00000E+00         0.00000E+00        -0.51138E+08
 
   -0.51237E+08         0.63154E+06         0.00000E+00
    0.63154E+06        -0.50001E+08         0.00000E+00
    0.00000E+00         0.00000E+00        -0.51137E+08
 
   -0.51233E+08         0.68103E+06         0.00000E+00
    0.68103E+06        -0.50001E+08         0.00000E+00
    0.00000E+00         0.00000E+00        -0.51137E+08
 
   -0.51230E+08         0.73037E+06         0.00000E+00
    0.73037E+06        -0.50002E+08         0.00000E+00
    0.00000E+00         0.00000E+00        -0.51136E+08
 
   -0.51226E+08         0.77956E+06         0.00000E+00
    0.77956E+06        -0.50002E+08         0.00000E+00
    0.00000E+00         0.00000E+00        -0.51135E+08
 
   -0.51223E+08         0.82860E+06         0.00000E+00
    0.82860E+06        -0.50002E+08         0.00000E+00
    0.00000E+00         0.00000E+00        -0.51135E+08
 
   -0.51219E+08         0.87749E+06         0.00000E+00
    0.87749E+06        -0.50002E+08         0.00000E+00
    0.00000E+00         0.00000E+00        -0.51134E+08
 
   -0.51216E+08         0.92622E+06         0.00000E+00
    0.92622E+06        -0.50003E+08         0.00000E+00
    0.00000E+00         0.00000E+00        -0.51133E+08
 
   -0.51213E+08         0.97481E+06         0.00000E+00
    0.97481E+06        -0.50003E+08         0.00000E+00
    0.00000E+00         0.00000E+00        -0.51133E+08
 
   -0.51209E+08         0.10232E+07         0.00000E+00
    0.10232E+07        -0.50003E+08         0.00000E+00
    0.00000E+00         0.00000E+00        -0.51132E+08
 
   -0.51206E+08         0.10715E+07         0.00000E+00
    0.10715E+07        -0.50004E+08         0.00000E+00
    0.00000E+00         0.00000E+00        -0.51132E+08
 
   -0.51203E+08         0.11197E+07         0.00000E+00
    0.11197E+07        -0.50004E+08         0.00000E+00
    0.00000E+00         0.00000E+00        -0.51131E+08
 
   -0.51199E+08         0.11676E+07         0.00000E+00
    0.11676E+07        -0.50004E+08         0.00000E+00
    0.00000E+00         0.00000E+00        -0.51130E+08
 
   -0.51196E+08         0.12155E+07         0.00000E+00
    0.12155E+07        -0.50005E+08         0.00000E+00
    0.00000E+00         0.00000E+00        -0.51130E+08
 
   -0.51193E+08         0.12631E+07         0.00000E+00
    0.12631E+07        -0.50005E+08         0.00000E+00
    0.00000E+00         0.00000E+00        -0.51129E+08
 
   -0.51190E+08         0.13107E+07         0.00000E+00
    0.13107E+07        -0.50006E+08         0.00000E+00
    0.00000E+00         0.00000E+00        -0.51129E+08
 
   -0.51187E+08         0.13580E+07         0.00000E+00
    0.13580E+07        -0.50006E+08         0.00000E+00
    0.00000E+00         0.00000E+00        -0.51128E+08
 
   -0.51184E+08         0.14053E+07         0.00000E+00
    0.14053E+07        -0.50007E+08         0.00000E+00
    0.00000E+00         0.00000E+00        -0.51127E+08
 
   -0.51180E+08         0.14523E+07         0.00000E+00
    0.14523E+07        -0.50007E+08         0.00000E+00
    0.00000E+00         0.00000E+00        -0.51127E+08
 
   -0.51177E+08         0.14993E+07         0.00000E+00
    0.14993E+07        -0.50008E+08         0.00000E+00
    0.00000E+00         0.00000E+00        -0.51126E+08
 
   -0.51174E+08         0.15460E+07         0.00000E+00
    0.15460E+07        -0.50008E+08         0.00000E+00
    0.00000E+00         0.00000E+00        -0.51126E+08
 
   -0.51171E+08         0.15926E+07         0.00000E+00
    0.15926E+07        -0.50009E+08         0.00000E+00
    0.00000E+00         0.00000E+00        -0.51125E+08
 
   -0.51168E+08         0.16391E+07         0.00000E+00
    0.16391E+07        -0.50010E+08         0.00000E+00
    0.00000E+00         0.00000E+00        -0.51125E+08
 
   -0.51165E+08         0.16854E+07         0.00000E+00
    0.16854E+07        -0.50010E+08         0.00000E+00
    0.00000E+00         0.00000E+00        -0.51124E+08
 
   -0.51162E+08         0.17316E+07         0.00000E+00
    0.17316E+07        -0.50011E+08         0.00000E+00
    0.00000E+00         0.00000E+00        -0.51124E+08
 
   -0.51159E+08         0.17776E+07         0.00000E+00
    0.17776E+07        -0.50012E+08         0.00000E+00
    0.00000E+00         0.00000E+00        -0.51123E+08
 
   -0.51156E+08         0.18234E+07         0.00000E+00
    0.18234E+07        -0.50013E+08         0.00000E+00
    0.00000E+00         0.00000E+00        -0.51123E+08
 
   -0.51153E+08         0.18691E+07         0.00000E+00
    0.18691E+07        -0.50014E+08         0.00000E+00
    0.00000E+00         0.00000E+00        -0.51123E+08
 
   -0.51150E+08         0.19146E+07         0.00000E+00
    0.19146E+07        -0.50014E+08         0.00000E+00
    0.00000E+00         0.00000E+00        -0.51122E+08
 
   -0.51147E+08         0.19600E+07         0.00000E+00
    0.19600E+07        -0.50015E+08         0.00000E+00
    0.00000E+00         0.00000E+00        -0.51122E+08
 
   -0.51144E+08         0.20052E+07         0.00000E+00
    0.20052E+07        -0.50016E+08         0.00000E+00
    0.00000E+00         0.00000E+00        -0.51121E+08
 
   -0.51141E+08         0.20503E+07         0.00000E+00
    0.20503E+07        -0.50017E+08         0.00000E+00
    0.00000E+00         0.00000E+00        -0.51121E+08
 
   -0.51138E+08         0.20952E+07         0.00000E+00
    0.20952E+07        -0.50018E+08         0.00000E+00
    0.00000E+00         0.00000E+00        -0.51120E+08
 
   -0.51135E+08         0.21399E+07         0.00000E+00
    0.21399E+07        -0.50019E+08         0.00000E+00
    0.00000E+00         0.00000E+00        -0.51120E+08
 
   -0.51132E+08         0.21845E+07         0.00000E+00
    0.21845E+07        -0.50020E+08         0.00000E+00
    0.00000E+00         0.00000E+00        -0.51120E+08
 
   -0.51129E+08         0.22289E+07         0.00000E+00
    0.22289E+07        -0.50022E+08         0.00000E+00
    0.00000E+00         0.00000E+00        -0.51119E+08
 
   -0.51126E+08         0.22732E+07         0.00000E+00
    0.22732E+07        -0.50023E+08         0.00000E+00
    0.00000E+00         0.00000E+00        -0.51119E+08
 
   -0.51123E+08         0.23173E+07         0.00000E+00
    0.23173E+07        -0.50024E+08         0.00000E+00
    0.00000E+00         0.00000E+00        -0.51119E+08
 
   -0.51120E+08         0.23612E+07         0.00000E+00
    0.23612E+07        -0.50026E+08         0.00000E+00
    0.00000E+00         0.00000E+00        -0.51118E+08
 
   -0.51024E+08         0.25796E+05         0.00000E+00
    0.25796E+05        -0.50000E+08         0.00000E+00
    0.00000E+00         0.00000E+00        -0.50922E+08
 
   -0.51021E+08         0.77038E+05         0.00000E+00
    0.77038E+05        -0.50000E+08         0.00000E+00
    0.00000E+00         0.00000E+00        -0.50921E+08
 
   -0.51018E+08         0.12813E+06         0.00000E+00
    0.12813E+06        -0.50000E+08         0.00000E+00
    0.00000E+00         0.00000E+00        -0.50921E+08
 
   -0.51015E+08         0.17907E+06         0.00000E+00
    0.17907E+06        -0.50000E+08         0.00000E+00
    0.00000E+00         0.00000E+00        -0.50920E+08
 
   -0.51012E+08         0.22987E+06         0.00000E+00
    0.22987E+06        -0.50000E+08         0.00000E+00
    0.00000E+00         0.00000E+00        -0.50919E+08
 
   -0.51009E+08         0.28051E+06         0.00000E+00
    0.28051E+06        -0.50000E+08         0.00000E+00
    0.00000E+00         0.00000E+00        -0.50919E+08
 
   -0.51006E+08         0.33100E+06         0.00000E+00
    0.33100E+06        -0.50000E+08         0.00000E+00
    0.00000E+00         0.00000E+00        -0.50918E+08
 
   -0.51003E+08         0.38134E+06         0.00000E+00
    0.38134E+06        -0.50000E+08         0.00000E+00
    0.00000E+00         0.00000E+00        -0.50918E+08
 
   -0.51000E+08         0.43152E+06         0.00000E+00
    0.43152E+06        -0.50000E+08         0.00000E+00
    0.00000E+00         0.00000E+00        -0.50917E+08
 
   -0.50997E+08         0.48156E+06         0.00000E+00
    0.48156E+06        -0.50000E+08         0.00000E+00
    0.00000E+00         0.00000E+00        -0.50916E+08
 
   -0.50995E+08         0.53144E+06         0.00000E+00
    0.53144E+06        -0.50001E+08         0.00000E+00
    0.00000E+00         0.00000E+00        -0.50916E+08
 
   -0.50992E+08         0.58117E+06         0.00000E+00
    0.58117E+06        -0.50001E+08         0.00000E+00
    0.00000E+00         0.00000E+00        -0.50915E+08
 
   -0.50989E+08         0.63075E+06         0.00000E+00
    0.63075E+06        -0.50001E+08         0.00000E+00
    0.00000E+00         0.00000E+00        -0.50915E+08
 
   -0.50986E+08         0.68018E+06         0.00000E+00
    0.68018E+06        -0.50001E+08         0.00000E+00
    0.00000E+00         0.00000E+00        -0.50914E+08
 
   -0.50983E+08         0.72945E+06         0.00000E+00
    0.72945E+06        -0.50001E+08         0.00000E+00
    0.00000E+00         0.00000E+00        -0.50914E+08
 
   -0.50981E+08         0.77857E+06         0.00000E+00
    0.77857E+06        -0.50001E+08         0.00000E+00
    0.00000E+00         0.00000E+00        -0.50913E+08
 
   -0.50978E+08         0.82754E+06         0.00000E+00
    0.82754E+06        -0.50001E+08         0.00000E+00
    0.00000E+00         0.00000E+00        -0.50913E+08
 
   -0.50975E+08         0.87635E+06         0.00000E+00
    0.87635E+06        -0.50001E+08         0.00000E+00
    0.00000E+00         0.00000E+00        -0.50912E+08
 
   -0.50973E+08         0.92501E+06         0.00000E+00
    0.92501E+06        -0.50002E+08         0.00000E+00
    0.00000E+00         0.00000E+00        -0.50912E+08
 
   -0.50970E+08         0.97352E+06         0.00000E+00
    0.97352E+06        -0.50002E+08         0.00000E+00
    0.00000E+00         0.00000E+00        -0.50911E+08
 
   -0.50968E+08         0.10219E+07         0.00000E+00
    0.10219E+07        -0.50002E+08         0.00000E+00
    0.00000E+00         0.00000E+00        -0.50911E+08
 
   -0.50965E+08         0.10701E+07         0.00000E+00
    0.10701E+07        -0.50002E+08         0.00000E+00
    0.00000E+00         0.00000E+00        -0.50910E+08
 
   -0.50963E+08         0.11181E+07         0.00000E+00
    0.11181E+07        -0.50003E+08         0.00000E+00
    0.00000E+00         0.00000E+00        -0.50910E+08
 
   -0.50960E+08         0.11660E+07         0.00000E+00
    0.11660E+07        -0.50003E+08         0.00000E+00
    0.00000E+00         0.00000E+00        -0.50909E+08
 
   -0.50958E+08         0.12137E+07         0.00000E+00
    0.12137E+07        -0.50003E+08         0.00000E+00
    0.00000E+00         0.00000E+00        -0.50909E+08
 
   -0.50955E+08         0.12613E+07         0.00000E+00
    0.12613E+07        -0.50003E+08         0.00000E+00
    0.00000E+00         0.00000E+00        -0.50908E+08
 
   -0.50953E+08         0.13087E+07         0.00000E+00
    0.13087E+07        -0.50004E+08         0.00000E+00
    0.00000E+00         0.00000E+00        -0.50908E+08
 
   -0.50951E+08         0.13560E+07         0.00000E+00
    0.13560E+07        -0.50004E+08         0.00000E+00
    0.00000E+00         0.00000E+00        -0.50907E+08
 
   -0.50948E+08         0.14031E+07         0.00000E+00
    0.14031E+07        -0.50004E+08         0.00000E+00
    0.00000E+00         0.00000E+00        -0.50907E+08
 
   -0.50946E+08         0.14501E+07         0.00000E+00
    0.14501E+07        -0.50005E+08         0.00000E+00
    0.00000E+00         0.00000E+00        -0.50907E+08
 
   -0.50944E+08         0.14969E+07         0.00000E+00
    0.14969E+07        -0.50005E+08         0.00000E+00
    0.00000E+00         0.00000E+00        -0.50906E+08
 
   -0.50941E+08         0.15435E+07         0.00000E+00
    0.15435E+07        -0.50005E+08         0.00000E+00
    0.00000E+00         0.00000E+00        -0.50906E+08
 
   -0.50939E+08         0.15900E+07         0.00000E+00
    0.15900E+07        -0.50006E+08         0.00000E+00
    0.00000E+00         0.00000E+00        -0.50905E+08
 
   -0.50937E+08         0.16363E+07         0.00000E+00
    0.16363E+07        -0.50006E+08         0.00000E+00
    0.00000E+00         0.00000E+00        -0.50905E+08
 
   -0.50934E+08         0.16825E+07         0.00000E+00
    0.16825E+07        -0.50007E+08         0.00000E+00
    0.00000E+00         0.00000E+00        -0.50905E+08
 
   -0.50932E+08         0.17285E+07         0.00000E+00
    0.17285E+07        -0.50007E+08         0.00000E+00
    0.00000E+00         0.00000E+00        -0.50904E+08
 
   -0.50930E+08         0.17743E+07         0.00000E+00
    0.17743E+07        -0.50008E+08         0.00000E+00
    0.00000E+00         0.00000E+00        -0.50904E+08
 
   -0.50928E+08         0.18200E+07         0.00000E+00
    0.18200E+07        -0.50008E+08         0.00000E+00
    0.00000E+00         0.00000E+00        -0.50904E+08
 
   -0.50925E+08         0.18655E+07         0.00000E+00
    0.18655E+07        -0.50009E+08         0.00000E+00
    0.00000E+00         0.00000E+00        -0.50903E+08
 
   -0.50923E+08         0.19109E+07         0.00000E+00
    0.19109E+07        -0.50009E+08         0.00000E+00
    0.00000E+00         0.00000E+00        -0.50903E+08
 
   -0.50921E+08         0.19561E+07         0.00000E+00
    0.19561E+07        -0.50010E+08         0.00000E+00
    0.00000E+00         0.00000E+00        -0.50903E+08
 
   -0.50919E+08         0.20011E+07         0.00000E+00
    0.20011E+07        -0.50011E+08         0.00000E+00
    0.00000E+00         0.00000E+00        -0.50902E+08
 
   -0.50917E+08         0.20460E+07         0.00000E+00
    0.20460E+07        -0.50011E+08         0.00000E+00
    0.00000E+00         0.00000E+00        -0.50902E+08
 
   -0.50914E+08         0.20907E+07         0.00000E+00
    0.20907E+07        -0.50012E+08         0.00000E+00
    0.00000E+00         0.00000E+00        -0.50902E+08
 
   -0.50912E+08         0.21352E+07         0.00000E+00
    0.21352E+07        -0.50013E+08         0.00000E+00
    0.00000E+00         0.00000E+00        -0.50901E+08
 
   -0.50910E+08         0.21796E+07         0.00000E+00
    0.21796E+07        -0.50014E+08         0.00000E+00
    0.00000E+00         0.00000E+00        -0.50901E+08
 
   -0.50908E+08         0.22237E+07         0.00000E+00
    0.22237E+07        -0.50014E+08         0.00000E+00
    0.00000E+00         0.00000E+00        -0.50901E+08
 
   -0.50905E+08         0.22678E+07         0.00000E+00
    0.22678E+07        -0.50015E+08         0.00000E+00
    0.00000E+00         0.00000E+00        -0.50900E+08
 
   -0.50903E+08         0.23116E+07         0.00000E+00
    0.23116E+07        -0.50016E+08         0.00000E+00
    0.00000E+00         0.00000E+00        -0.50900E+08
 
   -0.50901E+08         0.23553E+07         0.00000E+00
    0.23553E+07        -0.50017E+08         0.00000E+00
    0.00000E+00         0.00000E+00        -0.50900E+08
 
   -0.50768E+08         0.25779E+05         0.00000E+00
    0.25779E+05        -0.50000E+08         0.00000E+00
    0.00000E+00         0.00000E+00        -0.50698E+08
 
   -0.50766E+08         0.76989E+05         0.00000E+00
    0.76989E+05        -0.50000E+08         0.00000E+00
    0.00000E+00         0.00000E+00        -0.50698E+08
 
   -0.50763E+08         0.12805E+06         0.00000E+00
    0.12805E+06        -0.50000E+08         0.00000E+00
    0.00000E+00         0.00000E+00        -0.50698E+08
 
   -0.50761E+08         0.17896E+06         0.00000E+00
    0.17896E+06        -0.50000E+08         0.00000E+00
    0.00000E+00         0.00000E+00        -0.50697E+08
 
   -0.50759E+08         0.22972E+06         0.00000E+00
    0.22972E+06        -0.50000E+08         0.00000E+00
    0.00000E+00         0.00000E+00        -0.50697E+08
 
   -0.50756E+08         0.28034E+06         0.00000E+00
    0.28034E+06        -0.50000E+08         0.00000E+00
    0.00000E+00         0.00000E+00        -0.50696E+08
 
   -0.50754E+08         0.33080E+06         0.00000E+00
    0.33080E+06        -0.50000E+08         0.00000E+00
    0.00000E+00         0.00000E+00        -0.50696E+08
 
   -0.50752E+08         0.38111E+06         0.00000E+00
    0.38111E+06        -0.50000E+08         0.00000E+00
    0.00000E+00         0.00000E+00        -0.50695E+08
 
   -0.50750E+08         0.43126E+06         0.00000E+00
    0.43126E+06        -0.50000E+08         0.00000E+00
    0.00000E+00         0.00000E+00        -0.50695E+08
 
   -0.50748E+08         0.48127E+06         0.00000E+00
    0.48127E+06        -0.50000E+08         0.00000E+00
    0.00000E+00         0.00000E+00        -0.50694E+08
 
   -0.50746E+08         0.53112E+06         0.00000E+00
    0.53112E+06        -0.50000E+08         0.00000E+00
    0.00000E+00         0.00000E+00        -0.50694E+08
 
   -0.50743E+08         0.58082E+06         0.00000E+00
    0.58082E+06        -0.50000E+08         0.00000E+00
    0.00000E+00         0.00000E+00        -0.50694E+08
 
   -0.50741E+08         0.63037E+06         0.00000E+00
    0.63037E+06        -0.50000E+08         0.00000E+00
    0.00000E+00         0.00000E+00        -0.50693E+08
 
   -0.50739E+08         0.67976E+06         0.00000E+00
    0.67976E+06        -0.50000E+08         0.00000E+00
    0.00000E+00         0.00000E+00        -0.50693E+08
 
   -0.50738E+08         0.72900E+06         0.00000E+00
    0.72900E+06        -0.50000E+08         0.00000E+00
    0.00000E+00         0.00000E+00        -0.50692E+08
 
   -0.50736E+08         0.77808E+06         0.00000E+00
    0.77808E+06        -0.50000E+08         0.00000E+00
    0.00000E+00         0.00000E+00        -0.50692E+08
 
   -0.50734E+08         0.82701E+06         0.00000E+00
    0.82701E+06        -0.50000E+08         0.00000E+00
    0.00000E+00         0.00000E+00        -0.50692E+08
 
   -0.50732E+08         0.87578E+06         0.00000E+00
    0.87578E+06        -0.50000E+08         0.00000E+00
    0.00000E+00         0.00000E+00        -0.50691E+08
 
   -0.50730E+08         0.92440E+06         0.00000E+00
    0.92440E+06        -0.50001E+08         0.00000E+00
    0.00000E+00         0.00000E+00        -0.50691E+08
 
   -0.50728E+08         0.97286E+06         0.00000E+00
    0.97286E+06        -0.50001E+08         0.00000E+00
    0.00000E+00         0.00000E+00        -0.50690E+08
 
   -0.50726E+08         0.10212E+07         0.00000E+00
    0.10212E+07        -0.50001E+08         0.00000E+00
    0.00000E+00         0.00000E+00        -0.50690E+08
 
   -0.50725E+08         0.10693E+07         0.00000E+00
    0.10693E+07        -0.50001E+08         0.00000E+00
    0.00000E+00         0.00000E+00        -0.50690E+08
 
   -0.50723E+08         0.11173E+07         0.00000E+00
    0.11173E+07        -0.50001E+08         0.00000E+00
    0.00000E+00         0.00000E+00        -0.50689E+08
 
   -0.50721E+08         0.11651E+07         0.00000E+00
    0.11651E+07        -0.50001E+08         0.00000E+00
    0.00000E+00         0.00000E+00        -0.50689E+08
 
   -0.50720E+08         0.12128E+07         0.00000E+00
    0.12128E+07        -0.50001E+08         0.00000E+00
    0.00000E+00         0.00000E+00        -0.50689E+08
 
   -0.50718E+08         0.12603E+07         0.00000E+00
    0.12603E+07        -0.50001E+08         0.00000E+00
    0.00000E+00         0.00000E+00        -0.50688E+08
 
   -0.50716E+08         0.13077E+07         0.00000E+00
    0.13077E+07        -0.50001E+08         0.00000E+00
    0.00000E+00         0.00000E+00        -0.50688E+08
 
   -0.50715E+08         0.13549E+07         0.00000E+00
    0.13549E+07        -0.50001E+08         0.00000E+00
    0.00000E+00         0.00000E+00        -0.50688E+08
 
   -0.50713E+08         0.14019E+07         0.00000E+00
    0.14019E+07        -0.50001E+08         0.00000E+00
    0.00000E+00         0.00000E+00        -0.50688E+08
 
   -0.50712E+08         0.14488E+07         0.00000E+00
    0.14488E+07        -0.50002E+08         0.00000E+00
    0.00000E+00         0.00000E+00        -0.50687E+08
 
   -0.50710E+08         0.14955E+07         0.00000E+00
    0.14955E+07        -0.50002E+08         0.00000E+00
    0.00000E+00         0.00000E+00        -0.50687E+08
 
   -0.50709E+08         0.15420E+07         0.00000E+00
    0.15420E+07        -0.50002E+08         0.00000E+00
    0.00000E+00         0.00000E+00        -0.50687E+08
 
   -0.50707E+08         0.15884E+07         0.00000E+00
    0.15884E+07        -0.50002E+08         0.00000E+00
    0.00000E+00         0.00000E+00        -0.50686E+08
 
   -0.50706E+08         0.16346E+07         0.00000E+00
    0.16346E+07        -0.50002E+08         0.00000E+00
    0.00000E+00         0.00000E+00        -0.50686E+08
 
   -0.50704E+08         0.16807E+07         0.00000E+00
    0.16807E+07        -0.50003E+08         0.00000E+00
    0.00000E+00         0.00000E+00        -0.50686E+08
 
   -0.50703E+08         0.17266E+07         0.00000E+00
    0.17266E+07        -0.50003E+08         0.00000E+00
    0.00000E+00         0.00000E+00        -0.50686E+08
 
   -0.50701E+08         0.17723E+07         0.00000E+00
    0.17723E+07        -0.50003E+08         0.00000E+00
    0.00000E+00         0.00000E+00        -0.50685E+08
 
   -0.50700E+08         0.18179E+07         0.00000E+00
    0.18179E+07        -0.50003E+08         0.00000E+00
    0.00000E+00         0.00000E+00        -0.50685E+08
 
   -0.50699E+08         0.18633E+07         0.00000E+00
    0.18633E+07        -0.50004E+08         0.00000E+00
    0.00000E+00         0.00000E+00        -0.50685E+08
 
   -0.50697E+08         0.19085E+07         0.00000E+00
    0.19085E+07        -0.50004E+08         0.00000E+00
    0.00000E+00         0.00000E+00        -0.50685E+08
 
   -0.50696E+08         0.19536E+07         0.00000E+00
    0.19536E+07        -0.50004E+08         0.00000E+00
    0.00000E+00         0.00000E+00        -0.50685E+08
 
   -0.50694E+08         0.19985E+07         0.00000E+00
    0.19985E+07        -0.50005E+08         0.00000E+00
    0.00000E+00         0.00000E+00        -0.50684E+08
 
   -0.50693E+08         0.20432E+07         0.00000E+00
    0.20432E+07        -0.50005E+08         0.00000E+00
    0.00000E+00         0.00000E+00        -0.50684E+08
 
   -0.50692E+08         0.20877E+07         0.00000E+00
    0.20877E+07        -0.50005E+08         0.00000E+00
    0.00000E+00         0.00000E+00        -0.50684E+08
 
   -0.50690E+08         0.21321E+07         0.00000E+00
    0.21321E+07        -0.50006E+08         0.00000E+00
    0.00000E+00         0.00000E+00        -0.50684E+08
 
   -0.50689E+08         0.21763E+07         0.00000E+00
    0.21763E+07        -0.50006E+08         0.00000E+00
    0.00000E+00         0.00000E+00        -0.50684E+08
 
   -0.50688E+08         0.22203E+07         0.00000E+00
    0.22203E+07        -0.50007E+08         0.00000E+00
    0.00000E+00         0.00000E+00        -0.50683E+08
 
   -0.50686E+08         0.22642E+07         0.00000E+00
    0.22642E+07        -0.50007E+08         0.00000E+00
    0.00000E+00         0.00000E+00        -0.50683E+08
 
   -0.50685E+08         0.23078E+07         0.00000E+00
    0.23078E+07        -0.50008E+08         0.00000E+00
    0.00000E+00         0.00000E+00        -0.50683E+08
 
   -0.50683E+08         0.23513E+07         0.00000E+00
    0.23513E+07        -0.50008E+08         0.00000E+00
    0.00000E+00         0.00000E+00        -0.50683E+08
 
   -0.50512E+08         0.25779E+05         0.00000E+00
    0.25779E+05        -0.50000E+08         0.00000E+00
    0.00000E+00         0.00000E+00        -0.50476E+08
 
   -0.50510E+08         0.76992E+05         0.00000E+00
    0.76992E+05        -0.50000E+08         0.00000E+00
    0.00000E+00         0.00000E+00        -0.50476E+08
 
   -0.50508E+08         0.12806E+06         0.00000E+00
    0.12806E+06        -0.50000E+08         0.00000E+00
    0.00000E+00         0.00000E+00        -0.50475E+08
 
   -0.50507E+08         0.17897E+06         0.00000E+00
    0.17897E+06        -0.50000E+08         0.00000E+00
    0.00000E+00         0.00000E+00        -0.50475E+08
 
   -0.50505E+08         0.22974E+06         0.00000E+00
    0.22974E+06        -0.50000E+08         0.00000E+00
    0.00000E+00         0.00000E+00        -0.50475E+08
 
   -0.50504E+08         0.28036E+06         0.00000E+00
    0.28036E+06        -0.50000E+08         0.00000E+00
    0.00000E+00         0.00000E+00        -0.50474E+08
 
   -0.50502E+08         0.33082E+06         0.00000E+00
    0.33082E+06        -0.50000E+08         0.00000E+00
    0.00000E+00         0.00000E+00        -0.50474E+08
 
   -0.50501E+08         0.38114E+06         0.00000E+00
    0.38114E+06        -0.50000E+08         0.00000E+00
    0.00000E+00         0.00000E+00        -0.50474E+08
 
   -0.50499E+08         0.43130E+06         0.00000E+00
    0.43130E+06        -0.50000E+08         0.00000E+00
    0.00000E+00         0.00000E+00        -0.50473E+08
 
   -0.50498E+08         0.48131E+06         0.00000E+00
    0.48131E+06        -0.50000E+08         0.00000E+00
    0.00000E+00         0.00000E+00        -0.50473E+08
 
   -0.50497E+08         0.53116E+06         0.00000E+00
    0.53116E+06        -0.50000E+08         0.00000E+00
    0.00000E+00         0.00000E+00        -0.50473E+08
 
   -0.50495E+08         0.58087E+06         0.00000E+00
    0.58087E+06        -0.50000E+08         0.00000E+00
    0.00000E+00         0.00000E+00        -0.50473E+08
 
   -0.50494E+08         0.63041E+06         0.00000E+00
    0.63041E+06        -0.50000E+08         0.00000E+00
    0.00000E+00         0.00000E+00        -0.50472E+08
 
   -0.50493E+08         0.67981E+06         0.00000E+00
    0.67981E+06        -0.50000E+08         0.00000E+00
    0.00000E+00         0.00000E+00        -0.50472E+08
 
   -0.50492E+08         0.72904E+06         0.00000E+00
    0.72904E+06        -0.50000E+08         0.00000E+00
    0.00000E+00         0.00000E+00        -0.50472E+08
 
   -0.50491E+08         0.77812E+06         0.00000E+00
    0.77812E+06        -0.49999E+08         0.00000E+00
    0.00000E+00         0.00000E+00        -0.50472E+08
 
   -0.50489E+08         0.82705E+06         0.00000E+00
    0.82705E+06        -0.49999E+08         0.00000E+00
    0.00000E+00         0.00000E+00        -0.50471E+08
 
   -0.50488E+08         0.87581E+06         0.00000E+00
    0.87581E+06        -0.49999E+08         0.00000E+00
    0.00000E+00         0.00000E+00        -0.50471E+08
 
   -0.50487E+08         0.92442E+06         0.00000E+00
    0.92442E+06        -0.49999E+08         0.00000E+00
    0.00000E+00         0.00000E+00        -0.50471E+08
 
   -0.50486E+08         0.97287E+06         0.00000E+00
    0.97287E+06        -0.49999E+08         0.00000E+00
    0.00000E+00         0.00000E+00        -0.50471E+08
 
   -0.50485E+08         0.10212E+07         0.00000E+00
    0.10212E+07        -0.49999E+08         0.00000E+00
    0.00000E+00         0.00000E+00        -0.50470E+08
 
   -0.50484E+08         0.10693E+07         0.00000E+00
    0.10693E+07        -0.49999E+08         0.00000E+00
    0.00000E+00         0.00000E+00        -0.50470E+08
 
   -0.50483E+08         0.11173E+07         0.00000E+00
    0.11173E+07        -0.49999E+08         0.00000E+00
    0.00000E+00         0.00000E+00        -0.50470E+08
 
   -0.50483E+08         0.11651E+07         0.00000E+00
    0.11651E+07        -0.49999E+08         0.00000E+00
    0.00000E+00         0.00000E+00        -0.50470E+08
 
   -0.50482E+08         0.12127E+07         0.00000E+00
    0.12127E+07        -0.49999E+08         0.00000E+00
    0.00000E+00         0.00000E+00        -0.50470E+08
 
   -0.50481E+08         0.12602E+07         0.00000E+00
    0.12602E+07        -0.49999E+08         0.00000E+00
    0.00000E+00         0.00000E+00        -0.50469E+08
 
   -0.50480E+08         0.13075E+07         0.00000E+00
    0.13075E+07        -0.49999E+08         0.00000E+00
    0.00000E+00         0.00000E+00        -0.50469E+08
 
   -0.50479E+08         0.13547E+07         0.00000E+00
    0.13547E+07        -0.49999E+08         0.00000E+00
    0.00000E+00         0.00000E+00        -0.50469E+08
 
   -0.50479E+08         0.14017E+07         0.00000E+00
    0.14017E+07        -0.49999E+08         0.00000E+00
    0.00000E+00         0.00000E+00        -0.50469E+08
 
   -0.50478E+08         0.14485E+07         0.00000E+00
    0.14485E+07        -0.49998E+08         0.00000E+00
    0.00000E+00         0.00000E+00        -0.50469E+08
 
   -0.50477E+08         0.14952E+07         0.00000E+00
    0.14952E+07        -0.49998E+08         0.00000E+00
    0.00000E+00         0.00000E+00        -0.50469E+08
 
   -0.50476E+08         0.15417E+07         0.00000E+00
    0.15417E+07        -0.49998E+08         0.00000E+00
    0.00000E+00         0.00000E+00        -0.50468E+08
 
   -0.50476E+08         0.15880E+07         0.00000E+00
    0.15880E+07        -0.49998E+08         0.00000E+00
    0.00000E+00         0.00000E+00        -0.50468E+08
 
   -0.50475E+08         0.16342E+07         0.00000E+00
    0.16342E+07        -0.49998E+08         0.00000E+00
    0.00000E+00         0.00000E+00        -0.50468E+08
 
   -0.50475E+08         0.16802E+07         0.00000E+00
    0.16802E+07        -0.49998E+08         0.00000E+00
    0.00000E+00         0.00000E+00        -0.50468E+08
 
   -0.50474E+08         0.17260E+07         0.00000E+00
    0.17260E+07        -0.49998E+08         0.00000E+00
    0.00000E+00         0.00000E+00        -0.50468E+08
 
   -0.50473E+08         0.17717E+07         0.00000E+00
    0.17717E+07        -0.49998E+08         0.00000E+00
    0.00000E+00         0.00000E+00        -0.50468E+08
 
   -0.50473E+08         0.18172E+07         0.00000E+00
    0.18172E+07        -0.49998E+08         0.00000E+00
    0.00000E+00         0.00000E+00        -0.50468E+08
 
   -0.50472E+08         0.18625E+07         0.00000E+00
    0.18625E+07        -0.49998E+08         0.00000E+00
    0.00000E+00         0.00000E+00        -0.50468E+08
 
   -0.50472E+08         0.19076E+07         0.00000E+00
    0.19076E+07        -0.49998E+08         0.00000E+00
    0.00000E+00         0.00000E+00        -0.50467E+08
 
   -0.50471E+08         0.19526E+07         0.00000E+00
    0.19526E+07        -0.49998E+08         0.00000E+00
    0.00000E+00         0.00000E+00        -0.50467E+08
 
   -0.50471E+08         0.19974E+07         0.00000E+00
    0.19974E+07        -0.49998E+08         0.00000E+00
    0.00000E+00         0.00000E+00        -0.50467E+08
 
   -0.50470E+08         0.20420E+07         0.00000E+00
    0.20420E+07        -0.49998E+08         0.00000E+00
    0.00000E+00         0.00000E+00        -0.50467E+08
 
   -0.50470E+08         0.20865E+07         0.00000E+00
    0.20865E+07        -0.49998E+08         0.00000E+00
    0.00000E+00         0.00000E+00        -0.50467E+08
 
   -0.50469E+08         0.21307E+07         0.00000E+00
    0.21307E+07        -0.49999E+08         0.00000E+00
    0.00000E+00         0.00000E+00        -0.50467E+08
 
   -0.50469E+08         0.21748E+07         0.00000E+00
    0.21748E+07        -0.49999E+08         0.00000E+00
    0.00000E+00         0.00000E+00        -0.50467E+08
 
   -0.50468E+08         0.22187E+07         0.00000E+00
    0.22187E+07        -0.49999E+08         0.00000E+00
    0.00000E+00         0.00000E+00        -0.50467E+08
 
   -0.50468E+08         0.22624E+07         0.00000E+00
    0.22624E+07        -0.49999E+08         0.00000E+00
    0.00000E+00         0.00000E+00        -0.50467E+08
 
   -0.50467E+08         0.23059E+07         0.00000E+00
    0.23059E+07        -0.49999E+08         0.00000E+00
    0.00000E+00         0.00000E+00        -0.50467E+08
 
   -0.50467E+08         0.23493E+07         0.00000E+00
    0.23493E+07        -0.49999E+08         0.00000E+00
    0.00000E+00         0.00000E+00        -0.50467E+08
 
   -0.50255E+08         0.25798E+05         0.00000E+00
    0.25798E+05        -0.50000E+08         0.00000E+00
    0.00000E+00         0.00000E+00        -0.50254E+08
 
   -0.50254E+08         0.77052E+05         0.00000E+00
    0.77052E+05        -0.50000E+08         0.00000E+00
    0.00000E+00         0.00000E+00        -0.50254E+08
 
   -0.50253E+08         0.12816E+06         0.00000E+00
    0.12816E+06        -0.50000E+08         0.00000E+00
    0.00000E+00         0.00000E+00        -0.50254E+08
 
   -0.50252E+08         0.17911E+06         0.00000E+00
    0.17911E+06        -0.50000E+08         0.00000E+00
    0.00000E+00         0.00000E+00        -0.50253E+08
 
   -0.50252E+08         0.22992E+06         0.00000E+00
    0.22992E+06        -0.50000E+08         0.00000E+00
    0.00000E+00         0.00000E+00        -0.50253E+08
 
   -0.50251E+08         0.28058E+06         0.00000E+00
    0.28058E+06        -0.50000E+08         0.00000E+00
    0.00000E+00         0.00000E+00        -0.50253E+08
 
   -0.50250E+08         0.33109E+06         0.00000E+00
    0.33109E+06        -0.50000E+08         0.00000E+00
    0.00000E+00         0.00000E+00        -0.50253E+08
 
   -0.50249E+08         0.38144E+06         0.00000E+00
    0.38144E+06        -0.50000E+08         0.00000E+00
    0.00000E+00         0.00000E+00        -0.50253E+08
 
   -0.50249E+08         0.43164E+06         0.00000E+00
    0.43164E+06        -0.50000E+08         0.00000E+00
    0.00000E+00         0.00000E+00        -0.50253E+08
 
   -0.50248E+08         0.48169E+06         0.00000E+00
    0.48169E+06        -0.49999E+08         0.00000E+00
    0.00000E+00         0.00000E+00        -0.50253E+08
 
   -0.50248E+08         0.53159E+06         0.00000E+00
    0.53159E+06        -0.49999E+08         0.00000E+00
    0.00000E+00         0.00000E+00        -0.50252E+08
 
   -0.50247E+08         0.58133E+06         0.00000E+00
    0.58133E+06        -0.49999E+08         0.00000E+00
    0.00000E+00         0.00000E+00        -0.50252E+08
 
   -0.50247E+08         0.63091E+06         0.00000E+00
    0.63091E+06        -0.49999E+08         0.00000E+00
    0.00000E+00         0.00000E+00        -0.50252E+08
 
   -0.50246E+08         0.68034E+06         0.00000E+00
    0.68034E+06        -0.49999E+08         0.00000E+00
    0.00000E+00         0.00000E+00        -0.50252E+08
 
   -0.50246E+08         0.72962E+06         0.00000E+00
    0.72962E+06        -0.49999E+08         0.00000E+00
    0.00000E+00         0.00000E+00        -0.50252E+08
 
   -0.50245E+08         0.77873E+06         0.00000E+00
    0.77873E+06        -0.49999E+08         0.00000E+00
    0.00000E+00         0.00000E+00        -0.50252E+08
 
   -0.50245E+08         0.82769E+06         0.00000E+00
    0.82769E+06        -0.49998E+08         0.00000E+00
    0.00000E+00         0.00000E+00        -0.50252E+08
 
   -0.50245E+08         0.87648E+06         0.00000E+00
    0.87648E+06        -0.49998E+08         0.00000E+00
    0.00000E+00         0.00000E+00        -0.50252E+08
 
   -0.50245E+08         0.92512E+06         0.00000E+00
    0.92512E+06        -0.49998E+08         0.00000E+00
    0.00000E+00         0.00000E+00        -0.50251E+08
 
   -0.50244E+08         0.97360E+06         0.00000E+00
    0.97360E+06        -0.49998E+08         0.00000E+00
    0.00000E+00         0.00000E+00        -0.50251E+08
 
   -0.50244E+08         0.10219E+07         0.00000E+00
    0.10219E+07        -0.49998E+08         0.00000E+00
    0.00000E+00         0.00000E+00        -0.50251E+08
 
   -0.50244E+08         0.10701E+07         0.00000E+00
    0.10701E+07        -0.49997E+08         0.00000E+00
    0.00000E+00         0.00000E+00        -0.50251E+08
 
   -0.50244E+08         0.11181E+07         0.00000E+00
    0.11181E+07        -0.49997E+08         0.00000E+00
    0.00000E+00         0.00000E+00        -0.50251E+08
 
   -0.50244E+08         0.11659E+07         0.00000E+00
    0.11659E+07        -0.49997E+08         0.00000E+00
    0.00000E+00         0.00000E+00        -0.50251E+08
 
   -0.50244E+08         0.12136E+07         0.00000E+00
    0.12136E+07        -0.49997E+08         0.00000E+00
    0.00000E+00         0.00000E+00        -0.50251E+08
 
   -0.50244E+08         0.12611E+07         0.00000E+00
    0.12611E+07        -0.49996E+08         0.00000E+00
    0.00000E+00         0.00000E+00        -0.50251E+08
 
   -0.50244E+08         0.13084E+07         0.00000E+00
    0.13084E+07        -0.49996E+08         0.00000E+00
    0.00000E+00         0.00000E+00        -0.50251E+08
 
   -0.50244E+08         0.13556E+07         0.00000E+00
    0.13556E+07        -0.49996E+08         0.00000E+00
    0.00000E+00         0.00000E+00        -0.50251E+08
 
   -0.50244E+08         0.14026E+07         0.00000E+00
    0.14026E+07        -0.49996E+08         0.00000E+00
    0.00000E+00         0.00000E+00        -0.50251E+08
 
   -0.50244E+08         0.14494E+07         0.00000E+00
    0.14494E+07        -0.49995E+08         0.00000E+00
    0.00000E+00         0.00000E+00        -0.50251E+08
 
   -0.50244E+08         0.14961E+07         0.00000E+00
    0.14961E+07        -0.49995E+08         0.00000E+00
    0.00000E+00         0.00000E+00        -0.50251E+08
 
   -0.50244E+08         0.15426E+07         0.00000E+00
    0.15426E+07        -0.49995E+08         0.00000E+00
    0.00000E+00         0.00000E+00        -0.50251E+08
 
   -0.50245E+08         0.15889E+07         0.00000E+00
    0.15889E+07        -0.49994E+08         0.00000E+00
    0.00000E+00         0.00000E+00        -0.50251E+08
 
   -0.50245E+08         0.16350E+07         0.00000E+00
    0.16350E+07        -0.49994E+08         0.00000E+00
    0.00000E+00         0.00000E+00        -0.50251E+08
 
   -0.50245E+08         0.16810E+07         0.00000E+00
    0.16810E+07        -0.49994E+08         0.00000E+00
    0.00000E+00         0.00000E+00        -0.50251E+08
 
   -0.50245E+08         0.17268E+07         0.00000E+00
    0.17268E+07        -0.49993E+08         0.00000E+00
    0.00000E+00         0.00000E+00        -0.50251E+08
 
   -0.50246E+08         0.17725E+07         0.00000E+00
    0.17725E+07        -0.49993E+08         0.00000E+00
    0.00000E+00         0.00000E+00        -0.50251E+08
 
   -0.50246E+08         0.18179E+07         0.00000E+00
    0.18179E+07        -0.49993E+08         0.00000E+00
    0.00000E+00         0.00000E+00        -0.50251E+08
 
   -0.50246E+08         0.18632E+07         0.00000E+00
    0.18632E+07        -0.49993E+08         0.00000E+00
    0.00000E+00         0.00000E+00        -0.50251E+08
 
   -0.50247E+08         0.19083E+07         0.00000E+00
    0.19083E+07        -0.49992E+08         0.00000E+00
    0.00000E+00         0.00000E+00        -0.50251E+08
 
   -0.50247E+08         0.19532E+07         0.00000E+00
    0.19532E+07        -0.49992E+08         0.00000E+00
    0.00000E+00         0.00000E+00        -0.50251E+08
 
   -0.50247E+08         0.19980E+07         0.00000E+00
    0.19980E+07        -0.49992E+08         0.00000E+00
    0.00000E+00         0.00000E+00        -0.50251E+08
 
   -0.50248E+08         0.20425E+07         0.00000E+00
    0.20425E+07        -0.49991E+08         0.00000E+00
    0.00000E+00         0.00000E+00        -0.50251E+08
 
   -0.50248E+08         0.20869E+07         0.00000E+00
    0.20869E+07        -0.49991E+08         0.00000E+00
    0.00000E+00         0.00000E+00        -0.50251E+08
 
   -0.50249E+08         0.21311E+07         0.00000E+00
    0.21311E+07        -0.49991E+08         0.00000E+00
    0.00000E+00         0.00000E+00        -0.50251E+08
 
   -0.50249E+08         0.21751E+07         0.00000E+00
    0.21751E+07        -0.49991E+08         0.00000E+00
    0.00000E+00         0.00000E+00        -0.50251E+08
 
   -0.50249E+08         0.22190E+07         0.00000E+00
    0.22190E+07        -0.49990E+08         0.00000E+00
    0.00000E+00         0.00000E+00        -0.50251E+08
 
   -0.50250E+08         0.22626E+07         0.00000E+00
    0.22626E+07        -0.49990E+08         0.00000E+00
    0.00000E+00         0.00000E+00        -0.50251E+08
 
   -0.50250E+08         0.23061E+07         0.00000E+00
    0.23061E+07        -0.49990E+08         0.00000E+00
    0.00000E+00         0.00000E+00        -0.50251E+08
 
   -0.50251E+08         0.23493E+07         0.00000E+00
    0.23493E+07        -0.49990E+08         0.00000E+00
    0.00000E+00         0.00000E+00        -0.50251E+08
 
   -0.49998E+08         0.25837E+05         0.00000E+00
    0.25837E+05        -0.50000E+08         0.00000E+00
    0.00000E+00         0.00000E+00        -0.50032E+08
 
   -0.49998E+08         0.77170E+05         0.00000E+00
    0.77170E+05        -0.50000E+08         0.00000E+00
    0.00000E+00         0.00000E+00        -0.50032E+08
 
   -0.49998E+08         0.12835E+06         0.00000E+00
    0.12835E+06        -0.50000E+08         0.00000E+00
    0.00000E+00         0.00000E+00        -0.50032E+08
 
   -0.49998E+08         0.17939E+06         0.00000E+00
    0.17939E+06        -0.50000E+08         0.00000E+00
    0.00000E+00         0.00000E+00        -0.50032E+08
 
   -0.49998E+08         0.23028E+06         0.00000E+00
    0.23028E+06        -0.50000E+08         0.00000E+00
    0.00000E+00         0.00000E+00        -0.50032E+08
 
   -0.49998E+08         0.28102E+06         0.00000E+00
    0.28102E+06        -0.50000E+08         0.00000E+00
    0.00000E+00         0.00000E+00        -0.50032E+08
 
   -0.49998E+08         0.33160E+06         0.00000E+00
    0.33160E+06        -0.50000E+08         0.00000E+00
    0.00000E+00         0.00000E+00        -0.50032E+08
 
   -0.49998E+08         0.38204E+06         0.00000E+00
    0.38204E+06        -0.49999E+08         0.00000E+00
    0.00000E+00         0.00000E+00        -0.50032E+08
 
   -0.49998E+08         0.43232E+06         0.00000E+00
    0.43232E+06        -0.49999E+08         0.00000E+00
    0.00000E+00         0.00000E+00        -0.50032E+08
 
   -0.49998E+08         0.48244E+06         0.00000E+00
    0.48244E+06        -0.49999E+08         0.00000E+00
    0.00000E+00         0.00000E+00        -0.50032E+08
 
   -0.49998E+08         0.53242E+06         0.00000E+00
    0.53242E+06        -0.49999E+08         0.00000E+00
    0.00000E+00         0.00000E+00        -0.50032E+08
 
   -0.49999E+08         0.58223E+06         0.00000E+00
    0.58223E+06        -0.49999E+08         0.00000E+00
    0.00000E+00         0.00000E+00        -0.50032E+08
 
   -0.49999E+08         0.63189E+06         0.00000E+00
    0.63189E+06        -0.49998E+08         0.00000E+00
    0.00000E+00         0.00000E+00        -0.50032E+08
 
   -0.49999E+08         0.68140E+06         0.00000E+00
    0.68140E+06        -0.49998E+08         0.00000E+00
    0.00000E+00         0.00000E+00        -0.50032E+08
 
   -0.50000E+08         0.73074E+06         0.00000E+00
    0.73074E+06        -0.49998E+08         0.00000E+00
    0.00000E+00         0.00000E+00        -0.50032E+08
 
   -0.50000E+08         0.77993E+06         0.00000E+00
    0.77993E+06        -0.49998E+08         0.00000E+00
    0.00000E+00         0.00000E+00        -0.50032E+08
 
   -0.50001E+08         0.82895E+06         0.00000E+00
    0.82895E+06        -0.49997E+08         0.00000E+00
    0.00000E+00         0.00000E+00        -0.50032E+08
 
   -0.50001E+08         0.87782E+06         0.00000E+00
    0.87782E+06        -0.49997E+08         0.00000E+00
    0.00000E+00         0.00000E+00        -0.50032E+08
 
   -0.50002E+08         0.92653E+06         0.00000E+00
    0.92653E+06        -0.49997E+08         0.00000E+00
    0.00000E+00         0.00000E+00        -0.50032E+08
 
   -0.50002E+08         0.97507E+06         0.00000E+00
    0.97507E+06        -0.49996E+08         0.00000E+00
    0.00000E+00         0.00000E+00        -0.50032E+08
 
   -0.50003E+08         0.10234E+07         0.00000E+00
    0.10234E+07        -0.49996E+08         0.00000E+00
    0.00000E+00         0.00000E+00        -0.50032E+08
 
   -0.50004E+08         0.10717E+07         0.00000E+00
    0.10717E+07        -0.49996E+08         0.00000E+00
    0.00000E+00         0.00000E+00        -0.50032E+08
 
   -0.50004E+08         0.11197E+07         0.00000E+00
    0.11197E+07        -0.49995E+08         0.00000E+00
    0.00000E+00         0.00000E+00        -0.50033E+08
 
   -0.50005E+08         0.11676E+07         0.00000E+00
    0.11676E+07        -0.49995E+08         0.00000E+00
    0.00000E+00         0.00000E+00        -0.50033E+08
 
   -0.50006E+08         0.12153E+07         0.00000E+00
    0.12153E+07        -0.49994E+08         0.00000E+00
    0.00000E+00         0.00000E+00        -0.50033E+08
 
   -0.50007E+08         0.12629E+07         0.00000E+00
    0.12629E+07        -0.49994E+08         0.00000E+00
    0.00000E+00         0.00000E+00        -0.50033E+08
 
   -0.50007E+08         0.13103E+07         0.00000E+00
    0.13103E+07        -0.49993E+08         0.00000E+00
    0.00000E+00         0.00000E+00        -0.50033E+08
 
   -0.50008E+08         0.13575E+07         0.00000E+00
    0.13575E+07        -0.49993E+08         0.00000E+00
    0.00000E+00         0.00000E+00        -0.50033E+08
 
   -0.50009E+08         0.14045E+07         0.00000E+00
    0.14045E+07        -0.49992E+08         0.00000E+00
    0.00000E+00         0.00000E+00        -0.50033E+08
 
   -0.50010E+08         0.14514E+07         0.00000E+00
    0.14514E+07        -0.49992E+08         0.00000E+00
    0.00000E+00         0.00000E+00        -0.50033E+08
 
   -0.50011E+08         0.14981E+07         0.00000E+00
    0.14981E+07        -0.49991E+08         0.00000E+00
    0.00000E+00         0.00000E+00        -0.50033E+08
 
   -0.50012E+08         0.15446E+07         0.00000E+00
    0.15446E+07        -0.49991E+08         0.00000E+00
    0.00000E+00         0.00000E+00        -0.50033E+08
 
   -0.50013E+08         0.15910E+07         0.00000E+00
    0.15910E+07        -0.49990E+08         0.00000E+00
    0.00000E+00         0.00000E+00        -0.50033E+08
 
   -0.50014E+08         0.16372E+07         0.00000E+00
    0.16372E+07        -0.49990E+08         0.00000E+00
    0.00000E+00         0.00000E+00        -0.50034E+08
 
   -0.50015E+08         0.16832E+07         0.00000E+00
    0.16832E+07        -0.49989E+08         0.00000E+00
    0.00000E+00         0.00000E+00        -0.50034E+08
 
   -0.50017E+08         0.17290E+07         0.00000E+00
    0.17290E+07        -0.49989E+08         0.00000E+00
    0.00000E+00         0.00000E+00        -0.50034E+08
 
   -0.50018E+08         0.17747E+07         0.00000E+00
    0.17747E+07        -0.49988E+08         0.00000E+00
    0.00000E+00         0.00000E+00        -0.50034E+08
 
   -0.50019E+08         0.18202E+07         0.00000E+00
    0.18202E+07        -0.49987E+08         0.00000E+00
    0.00000E+00         0.00000E+00        -0.50034E+08
 
   -0.50020E+08         0.18655E+07         0.00000E+00
    0.18655E+07        -0.49987E+08         0.00000E+00
    0.00000E+00         0.00000E+00        -0.50034E+08
 
   -0.50021E+08         0.19106E+07         0.00000E+00
    0.19106E+07        -0.49986E+08         0.00000E+00
    0.00000E+00         0.00000E+00        -0.50034E+08
 
   -0.50023E+08         0.19555E+07         0.00000E+00
    0.19555E+07        -0.49985E+08         0.00000E+00
    0.00000E+00         0.00000E+00        -0.50034E+08
 
   -0.50024E+08         0.20002E+07         0.00000E+00
    0.20002E+07        -0.49985E+08         0.00000E+00
    0.00000E+00         0.00000E+00        -0.50035E+08
 
   -0.50025E+08         0.20448E+07         0.00000E+00
    0.20448E+07        -0.49984E+08         0.00000E+00
    0.00000E+00         0.00000E+00        -0.50035E+08
 
   -0.50027E+08         0.20892E+07         0.00000E+00
    0.20892E+07        -0.49984E+08         0.00000E+00
    0.00000E+00         0.00000E+00        -0.50035E+08
 
   -0.50028E+08         0.21334E+07         0.00000E+00
    0.21334E+07        -0.49983E+08         0.00000E+00
    0.00000E+00         0.00000E+00        -0.50035E+08
 
   -0.50029E+08         0.21774E+07         0.00000E+00
    0.21774E+07        -0.49982E+08         0.00000E+00
    0.00000E+00         0.00000E+00        -0.50035E+08
 
   -0.50031E+08         0.22212E+07         0.00000E+00
    0.22212E+07        -0.49982E+08         0.00000E+00
    0.00000E+00         0.00000E+00        -0.50035E+08
 
   -0.50032E+08         0.22648E+07         0.00000E+00
    0.22648E+07        -0.49981E+08         0.00000E+00
    0.00000E+00         0.00000E+00        -0.50035E+08
 
   -0.50034E+08         0.23083E+07         0.00000E+00
    0.23083E+07        -0.49980E+08         0.00000E+00
    0.00000E+00         0.00000E+00        -0.50036E+08
 
   -0.50035E+08         0.23515E+07         0.00000E+00
    0.23515E+07        -0.49980E+08         0.00000E+00
    0.00000E+00         0.00000E+00        -0.50036E+08
 
   -0.49741E+08         0.25897E+05         0.00000E+00
    0.25897E+05        -0.50000E+08         0.00000E+00
    0.00000E+00         0.00000E+00        -0.49811E+08
 
   -0.49741E+08         0.77348E+05         0.00000E+00
    0.77348E+05        -0.50000E+08         0.00000E+00
    0.00000E+00         0.00000E+00        -0.49811E+08
 
   -0.49742E+08         0.12865E+06         0.00000E+00
    0.12865E+06        -0.50000E+08         0.00000E+00
    0.00000E+00         0.00000E+00        -0.49811E+08
 
   -0.49743E+08         0.17981E+06         0.00000E+00
    0.17981E+06        -0.50000E+08         0.00000E+00
    0.00000E+00         0.00000E+00        -0.49811E+08
 
   -0.49743E+08         0.23081E+06         0.00000E+00
    0.23081E+06        -0.50000E+08         0.00000E+00
    0.00000E+00         0.00000E+00        -0.49811E+08
 
   -0.49744E+08         0.28167E+06         0.00000E+00
    0.28167E+06        -0.50000E+08         0.00000E+00
    0.00000E+00         0.00000E+00        -0.49811E+08
 
   -0.49745E+08         0.33237E+06         0.00000E+00
    0.33237E+06        -0.49999E+08         0.00000E+00
    0.00000E+00         0.00000E+00        -0.49811E+08
 
   -0.49746E+08         0.38293E+06         0.00000E+00
    0.38293E+06        -0.49999E+08         0.00000E+00
    0.00000E+00         0.00000E+00        -0.49811E+08
 
   -0.49747E+08         0.43332E+06         0.00000E+00
    0.43332E+06        -0.49999E+08         0.00000E+00
    0.00000E+00         0.00000E+00        -0.49811E+08
 
   -0.49748E+08         0.48357E+06         0.00000E+00
    0.48357E+06        -0.49999E+08         0.00000E+00
    0.00000E+00         0.00000E+00        -0.49812E+08
 
   -0.49749E+08         0.53366E+06         0.00000E+00
    0.53366E+06        -0.49998E+08         0.00000E+00
    0.00000E+00         0.00000E+00        -0.49812E+08
 
   -0.49750E+08         0.58359E+06         0.00000E+00
    0.58359E+06        -0.49998E+08         0.00000E+00
    0.00000E+00         0.00000E+00        -0.49812E+08
 
   -0.49751E+08         0.63336E+06         0.00000E+00
    0.63336E+06        -0.49998E+08         0.00000E+00
    0.00000E+00         0.00000E+00        -0.49812E+08
 
   -0.49752E+08         0.68298E+06         0.00000E+00
    0.68298E+06        -0.49997E+08         0.00000E+00
    0.00000E+00         0.00000E+00        -0.49812E+08
 
   -0.49753E+08         0.73244E+06         0.00000E+00
    0.73244E+06        -0.49997E+08         0.00000E+00
    0.00000E+00         0.00000E+00        -0.49812E+08
 
   -0.49754E+08         0.78173E+06         0.00000E+00
    0.78173E+06        -0.49997E+08         0.00000E+00
    0.00000E+00         0.00000E+00        -0.49813E+08
 
   -0.49756E+08         0.83087E+06         0.00000E+00
    0.83087E+06        -0.49996E+08         0.00000E+00
    0.00000E+00         0.00000E+00        -0.49813E+08
 
   -0.49757E+08         0.87984E+06         0.00000E+00
    0.87984E+06        -0.49996E+08         0.00000E+00
    0.00000E+00         0.00000E+00        -0.49813E+08
 
   -0.49758E+08         0.92866E+06         0.00000E+00
    0.92866E+06        -0.49995E+08         0.00000E+00
    0.00000E+00         0.00000E+00        -0.49813E+08
 
   -0.49760E+08         0.97731E+06         0.00000E+00
    0.97731E+06        -0.49995E+08         0.00000E+00
    0.00000E+00         0.00000E+00        -0.49813E+08
 
   -0.49761E+08         0.10258E+07         0.00000E+00
    0.10258E+07        -0.49994E+08         0.00000E+00
    0.00000E+00         0.00000E+00        -0.49814E+08
 
   -0.49763E+08         0.10741E+07         0.00000E+00
    0.10741E+07        -0.49994E+08         0.00000E+00
    0.00000E+00         0.00000E+00        -0.49814E+08
 
   -0.49764E+08         0.11223E+07         0.00000E+00
    0.11223E+07        -0.49993E+08         0.00000E+00
    0.00000E+00         0.00000E+00        -0.49814E+08
 
   -0.49766E+08         0.11702E+07         0.00000E+00
    0.11702E+07        -0.49992E+08         0.00000E+00
    0.00000E+00         0.00000E+00        -0.49814E+08
 
   -0.49767E+08         0.12181E+07         0.00000E+00
    0.12181E+07        -0.49992E+08         0.00000E+00
    0.00000E+00         0.00000E+00        -0.49814E+08
 
   -0.49769E+08         0.12657E+07         0.00000E+00
    0.12657E+07        -0.49991E+08         0.00000E+00
    0.00000E+00         0.00000E+00        -0.49815E+08
 
   -0.49771E+08         0.13132E+07         0.00000E+00
    0.13132E+07        -0.49991E+08         0.00000E+00
    0.00000E+00         0.00000E+00        -0.49815E+08
 
   -0.49772E+08         0.13605E+07         0.00000E+00
    0.13605E+07        -0.49990E+08         0.00000E+00
    0.00000E+00         0.00000E+00        -0.49815E+08
 
   -0.49774E+08         0.14076E+07         0.00000E+00
    0.14076E+07        -0.49989E+08         0.00000E+00
    0.00000E+00         0.00000E+00        -0.49815E+08
 
   -0.49776E+08         0.14546E+07         0.00000E+00
    0.14546E+07        -0.49988E+08         0.00000E+00
    0.00000E+00         0.00000E+00        -0.49815E+08
 
   -0.49778E+08         0.15014E+07         0.00000E+00
    0.15014E+07        -0.49988E+08         0.00000E+00
    0.00000E+00         0.00000E+00        -0.49816E+08
 
   -0.49780E+08         0.15480E+07         0.00000E+00
    0.15480E+07        -0.49987E+08         0.00000E+00
    0.00000E+00         0.00000E+00        -0.49816E+08
 
   -0.49782E+08         0.15944E+07         0.00000E+00
    0.15944E+07        -0.49986E+08         0.00000E+00
    0.00000E+00         0.00000E+00        -0.49816E+08
 
   -0.49784E+08         0.16407E+07         0.00000E+00
    0.16407E+07        -0.49985E+08         0.00000E+00
    0.00000E+00         0.00000E+00        -0.49816E+08
 
   -0.49786E+08         0.16868E+07         0.00000E+00
    0.16868E+07        -0.49984E+08         0.00000E+00
    0.00000E+00         0.00000E+00        -0.49817E+08
 
   -0.49788E+08         0.17327E+07         0.00000E+00
    0.17327E+07        -0.49983E+08         0.00000E+00
    0.00000E+00         0.00000E+00        -0.49817E+08
 
   -0.49790E+08         0.17784E+07         0.00000E+00
    0.17784E+07        -0.49983E+08         0.00000E+00
    0.00000E+00         0.00000E+00        -0.49817E+08
 
   -0.49792E+08         0.18239E+07         0.00000E+00
    0.18239E+07        -0.49982E+08         0.00000E+00
    0.00000E+00         0.00000E+00        -0.49817E+08
 
   -0.49794E+08         0.18693E+07         0.00000E+00
    0.18693E+07        -0.49981E+08         0.00000E+00
    0.00000E+00         0.00000E+00        -0.49818E+08
 
   -0.49796E+08         0.19145E+07         0.00000E+00
    0.19145E+07        -0.49980E+08         0.00000E+00
    0.00000E+00         0.00000E+00        -0.49818E+08
 
   -0.49798E+08         0.19595E+07         0.00000E+00
    0.19595E+07        -0.49979E+08         0.00000E+00
    0.00000E+00         0.00000E+00        -0.49818E+08
 
   -0.49801E+08         0.20043E+07         0.00000E+00
    0.20043E+07        -0.49978E+08         0.00000E+00
    0.00000E+00         0.00000E+00        -0.49818E+08
 
   -0.49803E+08         0.20489E+07         0.00000E+00
    0.20489E+07        -0.49977E+08         0.00000E+00
    0.00000E+00         0.00000E+00        -0.49819E+08
 
   -0.49805E+08         0.20933E+07         0.00000E+00
    0.20933E+07        -0.49976E+08         0.00000E+00
    0.00000E+00         0.00000E+00        -0.49819E+08
 
   -0.49807E+08         0.21375E+07         0.00000E+00
    0.21375E+07        -0.49975E+08         0.00000E+00
    0.00000E+00         0.00000E+00        -0.49819E+08
 
   -0.49810E+08         0.21816E+07         0.00000E+00
    0.21816E+07        -0.49974E+08         0.00000E+00
    0.00000E+00         0.00000E+00        -0.49819E+08
 
   -0.49812E+08         0.22254E+07         0.00000E+00
    0.22254E+07        -0.49973E+08         0.00000E+00
    0.00000E+00         0.00000E+00        -0.49820E+08
 
   -0.49815E+08         0.22691E+07         0.00000E+00
    0.22691E+07        -0.49972E+08         0.00000E+00
    0.00000E+00         0.00000E+00        -0.49820E+08
 
   -0.49817E+08         0.23125E+07         0.00000E+00
    0.23125E+07        -0.49971E+08         0.00000E+00
    0.00000E+00         0.00000E+00        -0.49820E+08
 
   -0.49819E+08         0.23558E+07         0.00000E+00
    0.23558E+07        -0.49970E+08         0.00000E+00
    0.00000E+00         0.00000E+00        -0.49820E+08
 
   -0.49483E+08         0.25977E+05         0.00000E+00
    0.25977E+05        -0.50000E+08         0.00000E+00
    0.00000E+00         0.00000E+00        -0.49588E+08
 
   -0.49484E+08         0.77589E+05         0.00000E+00
    0.77589E+05        -0.50000E+08         0.00000E+00
    0.00000E+00         0.00000E+00        -0.49589E+08
 
   -0.49485E+08         0.12905E+06         0.00000E+00
    0.12905E+06        -0.50000E+08         0.00000E+00
    0.00000E+00         0.00000E+00        -0.49589E+08
 
   -0.49487E+08         0.18037E+06         0.00000E+00
    0.18037E+06        -0.50000E+08         0.00000E+00
    0.00000E+00         0.00000E+00        -0.49589E+08
 
   -0.49488E+08         0.23153E+06         0.00000E+00
    0.23153E+06        -0.50000E+08         0.00000E+00
    0.00000E+00         0.00000E+00        -0.49589E+08
 
   -0.49490E+08         0.28255E+06         0.00000E+00
    0.28255E+06        -0.49999E+08         0.00000E+00
    0.00000E+00         0.00000E+00        -0.49590E+08
 
   -0.49491E+08         0.33341E+06         0.00000E+00
    0.33341E+06        -0.49999E+08         0.00000E+00
    0.00000E+00         0.00000E+00        -0.49590E+08
 
   -0.49493E+08         0.38412E+06         0.00000E+00
    0.38412E+06        -0.49999E+08         0.00000E+00
    0.00000E+00         0.00000E+00        -0.49590E+08
 
   -0.49495E+08         0.43468E+06         0.00000E+00
    0.43468E+06        -0.49999E+08         0.00000E+00
    0.00000E+00         0.00000E+00        -0.49591E+08
 
   -0.49496E+08         0.48508E+06         0.00000E+00
    0.48508E+06        -0.49998E+08         0.00000E+00
    0.00000E+00         0.00000E+00        -0.49591E+08
 
   -0.49498E+08         0.53532E+06         0.00000E+00
    0.53532E+06        -0.49998E+08         0.00000E+00
    0.00000E+00         0.00000E+00        -0.49591E+08
 
   -0.49500E+08         0.58541E+06         0.00000E+00
    0.58541E+06        -0.49998E+08         0.00000E+00
    0.00000E+00         0.00000E+00        -0.49591E+08
 
   -0.49502E+08         0.63534E+06         0.00000E+00
    0.63534E+06        -0.49997E+08         0.00000E+00
    0.00000E+00         0.00000E+00        -0.49592E+08
 
   -0.49504E+08         0.68511E+06         0.00000E+00
    0.68511E+06        -0.49997E+08         0.00000E+00
    0.00000E+00         0.00000E+00        -0.49592E+08
 
   -0.49506E+08         0.73472E+06         0.00000E+00
    0.73472E+06        -0.49996E+08         0.00000E+00
    0.00000E+00         0.00000E+00        -0.49592E+08
 
   -0.49508E+08         0.78417E+06         0.00000E+00
    0.78417E+06        -0.49996E+08         0.00000E+00
    0.00000E+00         0.00000E+00        -0.49593E+08
 
   -0.49510E+08         0.83345E+06         0.00000E+00
    0.83345E+06        -0.49995E+08         0.00000E+00
    0.00000E+00         0.00000E+00        -0.49593E+08
 
   -0.49512E+08         0.88258E+06         0.00000E+00
    0.88258E+06        -0.49995E+08         0.00000E+00
    0.00000E+00         0.00000E+00        -0.49593E+08
 
   -0.49514E+08         0.93154E+06         0.00000E+00
    0.93154E+06        -0.49994E+08         0.00000E+00
    0.00000E+00         0.00000E+00        -0.49594E+08
 
   -0.49516E+08         0.98033E+06         0.00000E+00
    0.98033E+06        -0.49993E+08         0.00000E+00
    0.00000E+00         0.00000E+00        -0.49594E+08
 
   -0.49519E+08         0.10290E+07         0.00000E+00
    0.10290E+07        -0.49993E+08         0.00000E+00
    0.00000E+00         0.00000E+00        -0.49594E+08
 
   -0.49521E+08         0.10774E+07         0.00000E+00
    0.10774E+07        -0.49992E+08         0.00000E+00
    0.00000E+00         0.00000E+00        -0.49595E+08
 
   -0.49523E+08         0.11257E+07         0.00000E+00
    0.11257E+07        -0.49991E+08         0.00000E+00
    0.00000E+00         0.00000E+00        -0.49595E+08
 
   -0.49526E+08         0.11738E+07         0.00000E+00
    0.11738E+07        -0.49990E+08         0.00000E+00
    0.00000E+00         0.00000E+00        -0.49595E+08
 
   -0.49528E+08         0.12218E+07         0.00000E+00
    0.12218E+07        -0.49989E+08         0.00000E+00
    0.00000E+00         0.00000E+00        -0.49596E+08
 
   -0.49531E+08         0.12696E+07         0.00000E+00
    0.12696E+07        -0.49989E+08         0.00000E+00
    0.00000E+00         0.00000E+00        -0.49596E+08
 
   -0.49533E+08         0.13172E+07         0.00000E+00
    0.13172E+07        -0.49988E+08         0.00000E+00
    0.00000E+00         0.00000E+00        -0.49596E+08
 
   -0.49536E+08         0.13646E+07         0.00000E+00
    0.13646E+07        -0.49987E+08         0.00000E+00
    0.00000E+00         0.00000E+00        -0.49597E+08
 
   -0.49539E+08         0.14119E+07         0.00000E+00
    0.14119E+07        -0.49986E+08         0.00000E+00
    0.00000E+00         0.00000E+00        -0.49597E+08
 
   -0.49541E+08         0.14590E+07         0.00000E+00
    0.14590E+07        -0.49985E+08         0.00000E+00
    0.00000E+00         0.00000E+00        -0.49597E+08
 
   -0.49544E+08         0.15059E+07         0.00000E+00
    0.15059E+07        -0.49984E+08         0.00000E+00
    0.00000E+00         0.00000E+00        -0.49598E+08
 
   -0.49547E+08         0.15526E+07         0.00000E+00
    0.15526E+07        -0.49983E+08         0.00000E+00
    0.00000E+00         0.00000E+00        -0.49598E+08
 
   -0.49550E+08         0.15992E+07         0.00000E+00
    0.15992E+07        -0.49982E+08         0.00000E+00
    0.00000E+00         0.00000E+00        -0.49598E+08
 
   -0.49553E+08         0.16456E+07         0.00000E+00
    0.16456E+07        -0.49981E+08         0.00000E+00
    0.00000E+00         0.00000E+00        -0.49599E+08
 
   -0.49555E+08         0.16918E+07         0.00000E+00
    0.16918E+07        -0.49979E+08         0.00000E+00
    0.00000E+00         0.00000E+00        -0.49599E+08
 
   -0.49558E+08         0.17378E+07         0.00000E+00
    0.17378E+07        -0.49978E+08         0.00000E+00
    0.00000E+00         0.00000E+00        -0.49600E+08
 
   -0.49561E+08         0.17836E+07         0.00000E+00
    0.17836E+07        -0.49977E+08         0.00000E+00
    0.00000E+00         0.00000E+00        -0.49600E+08
 
   -0.49564E+08         0.18293E+07         0.00000E+00
    0.18293E+07        -0.49976E+08         0.00000E+00
    0.00000E+00         0.00000E+00        -0.49600E+08
 
   -0.49567E+08         0.18748E+07         0.00000E+00
    0.18748E+07        -0.49975E+08         0.00000E+00
    0.00000E+00         0.00000E+00        -0.49601E+08
 
   -0.49571E+08         0.19200E+07         0.00000E+00
    0.19200E+07        -0.49973E+08         0.00000E+00
    0.00000E+00         0.00000E+00        -0.49601E+08
 
   -0.49574E+08         0.19651E+07         0.00000E+00
    0.19651E+07        -0.49972E+08         0.00000E+00
    0.00000E+00         0.00000E+00        -0.49601E+08
 
   -0.49577E+08         0.20100E+07         0.00000E+00
    0.20100E+07        -0.49971E+08         0.00000E+00
    0.00000E+00         0.00000E+00        -0.49602E+08
 
   -0.49580E+08         0.20548E+07         0.00000E+00
    0.20548E+07        -0.49969E+08         0.00000E+00
    0.00000E+00         0.00000E+00        -0.49602E+08
 
   -0.49583E+08         0.20993E+07         0.00000E+00
    0.20993E+07        -0.49968E+08         0.00000E+00
    0.00000E+00         0.00000E+00        -0.49603E+08
 
   -0.49587E+08         0.21436E+07         0.00000E+00
    0.21436E+07        -0.49967E+08         0.00000E+00
    0.00000E+00         0.00000E+00        -0.49603E+08
 
   -0.49590E+08         0.21877E+07         0.00000E+00
    0.21877E+07        -0.49965E+08         0.00000E+00
    0.00000E+00         0.00000E+00        -0.49603E+08
 
   -0.49593E+08         0.22317E+07         0.00000E+00
    0.22317E+07        -0.49964E+08         0.00000E+00
    0.00000E+00         0.00000E+00        -0.49604E+08
 
   -0.49597E+08         0.22754E+07         0.00000E+00
    0.22754E+07        -0.49962E+08         0.00000E+00
    0.00000E+00         0.00000E+00        -0.49604E+08
 
   -0.49600E+08         0.23190E+07         0.00000E+00
    0.23190E+07        -0.49961E+08         0.00000E+00
    0.00000E+00         0.00000E+00        -0.49604E+08
 
   -0.49603E+08         0.23623E+07         0.00000E+00
    0.23623E+07        -0.49959E+08         0.00000E+00
    0.00000E+00         0.00000E+00        -0.49605E+08
 
   -0.49224E+08         0.26079E+05         0.00000E+00
    0.26079E+05        -0.50000E+08         0.00000E+00
    0.00000E+00         0.00000E+00        -0.49366E+08
 
   -0.49226E+08         0.77893E+05         0.00000E+00
    0.77893E+05        -0.50000E+08         0.00000E+00
    0.00000E+00         0.00000E+00        -0.49366E+08
 
   -0.49228E+08         0.12956E+06         0.00000E+00
    0.12956E+06        -0.50000E+08         0.00000E+00
    0.00000E+00         0.00000E+00        -0.49367E+08
 
   -0.49230E+08         0.18108E+06         0.00000E+00
    0.18108E+06        -0.50000E+08         0.00000E+00
    0.00000E+00         0.00000E+00        -0.49367E+08
 
   -0.49232E+08         0.23244E+06         0.00000E+00
    0.23244E+06        -0.50000E+08         0.00000E+00
    0.00000E+00         0.00000E+00        -0.49367E+08
 
   -0.49235E+08         0.28366E+06         0.00000E+00
    0.28366E+06        -0.49999E+08         0.00000E+00
    0.00000E+00         0.00000E+00        -0.49368E+08
 
   -0.49237E+08         0.33472E+06         0.00000E+00
    0.33472E+06        -0.49999E+08         0.00000E+00
    0.00000E+00         0.00000E+00        -0.49368E+08
 
   -0.49239E+08         0.38563E+06         0.00000E+00
    0.38563E+06        -0.49999E+08         0.00000E+00
    0.00000E+00         0.00000E+00        -0.49369E+08
 
   -0.49242E+08         0.43638E+06         0.00000E+00
    0.43638E+06        -0.49998E+08         0.00000E+00
    0.00000E+00         0.00000E+00        -0.49369E+08
 
   -0.49244E+08         0.48698E+06         0.00000E+00
    0.48698E+06        -0.49998E+08         0.00000E+00
    0.00000E+00         0.00000E+00        -0.49370E+08
 
   -0.49247E+08         0.53742E+06         0.00000E+00
    0.53742E+06        -0.49998E+08         0.00000E+00
    0.00000E+00         0.00000E+00        -0.49370E+08
 
   -0.49250E+08         0.58770E+06         0.00000E+00
    0.58770E+06        -0.49997E+08         0.00000E+00
    0.00000E+00         0.00000E+00        -0.49370E+08
 
   -0.49252E+08         0.63783E+06         0.00000E+00
    0.63783E+06        -0.49997E+08         0.00000E+00
    0.00000E+00         0.00000E+00        -0.49371E+08
 
   -0.49255E+08         0.68779E+06         0.00000E+00
    0.68779E+06        -0.49996E+08         0.00000E+00
    0.00000E+00         0.00000E+00        -0.49371E+08
 
   -0.49258E+08         0.73760E+06         0.00000E+00
    0.73760E+06        -0.49995E+08         0.00000E+00
    0.00000E+00         0.00000E+00        -0.49372E+08
 
   -0.49261E+08         0.78724E+06         0.00000E+00
    0.78724E+06        -0.49995E+08         0.00000E+00
    0.00000E+00         0.00000E+00        -0.49372E+08
 
   -0.49263E+08         0.83672E+06         0.00000E+00
    0.83672E+06        -0.49994E+08         0.00000E+00
    0.00000E+00         0.00000E+00        -0.49373E+08
 
   -0.49266E+08         0.88603E+06         0.00000E+00
    0.88603E+06        -0.49993E+08         0.00000E+00
    0.00000E+00         0.00000E+00        -0.49373E+08
 
   -0.49269E+08         0.93518E+06         0.00000E+00
    0.93518E+06        -0.49992E+08         0.00000E+00
    0.00000E+00         0.00000E+00        -0.49374E+08
 
   -0.49272E+08         0.98416E+06         0.00000E+00
    0.98416E+06        -0.49992E+08         0.00000E+00
    0.00000E+00         0.00000E+00        -0.49374E+08
 
   -0.49276E+08         0.10330E+07         0.00000E+00
    0.10330E+07        -0.49991E+08         0.00000E+00
    0.00000E+00         0.00000E+00        -0.49375E+08
 
   -0.49279E+08         0.10816E+07         0.00000E+00
    0.10816E+07        -0.49990E+08         0.00000E+00
    0.00000E+00         0.00000E+00        -0.49375E+08
 
   -0.49282E+08         0.11301E+07         0.00000E+00
    0.11301E+07        -0.49989E+08         0.00000E+00
    0.00000E+00         0.00000E+00        -0.49375E+08
 
   -0.49285E+08         0.11784E+07         0.00000E+00
    0.11784E+07        -0.49988E+08         0.00000E+00
    0.00000E+00         0.00000E+00        -0.49376E+08
 
   -0.49289E+08         0.12265E+07         0.00000E+00
    0.12265E+07        -0.49987E+08         0.00000E+00
    0.00000E+00         0.00000E+00        -0.49376E+08
 
   -0.49292E+08         0.12745E+07         0.00000E+00
    0.12745E+07        -0.49986E+08         0.00000E+00
    0.00000E+00         0.00000E+00        -0.49377E+08
 
   -0.49295E+08         0.13223E+07         0.00000E+00
    0.13223E+07        -0.49985E+08         0.00000E+00
    0.00000E+00         0.00000E+00        -0.49377E+08
 
   -0.49299E+08         0.13699E+07         0.00000E+00
    0.13699E+07        -0.49984E+08         0.00000E+00
    0.00000E+00         0.00000E+00        -0.49378E+08
 
   -0.49302E+08         0.14174E+07         0.00000E+00
    0.14174E+07        -0.49982E+08         0.00000E+00
    0.00000E+00         0.00000E+00        -0.49378E+08
 
   -0.49306E+08         0.14646E+07         0.00000E+00
    0.14646E+07        -0.49981E+08         0.00000E+00
    0.00000E+00         0.00000E+00        -0.49379E+08
 
   -0.49310E+08         0.15117E+07         0.00000E+00
    0.15117E+07        -0.49980E+08         0.00000E+00
    0.00000E+00         0.00000E+00        -0.49379E+08
 
   -0.49313E+08         0.15586E+07         0.00000E+00
    0.15586E+07        -0.49979E+08         0.00000E+00
    0.00000E+00         0.00000E+00        -0.49380E+08
 
   -0.49317E+08         0.16054E+07         0.00000E+00
    0.16054E+07        -0.49977E+08         0.00000E+00
    0.00000E+00         0.00000E+00        -0.49380E+08
 
   -0.49321E+08         0.16519E+07         0.00000E+00
    0.16519E+07        -0.49976E+08         0.00000E+00
    0.00000E+00         0.00000E+00        -0.49381E+08
 
   -0.49325E+08         0.16983E+07         0.00000E+00
    0.16983E+07        -0.49974E+08         0.00000E+00
    0.00000E+00         0.00000E+00        -0.49381E+08
 
   -0.49328E+08         0.17445E+07         0.00000E+00
    0.17445E+07        -0.49973E+08         0.00000E+00
    0.00000E+00         0.00000E+00        -0.49382E+08
 
   -0.49332E+08         0.17905E+07         0.00000E+00
    0.17905E+07        -0.49971E+08         0.00000E+00
    0.00000E+00         0.00000E+00        -0.49382E+08
 
   -0.49336E+08         0.18363E+07         0.00000E+00
    0.18363E+07        -0.49970E+08         0.00000E+00
    0.00000E+00         0.00000E+00        -0.49383E+08
 
   -0.49340E+08         0.18819E+07         0.00000E+00
    0.18819E+07        -0.49968E+08         0.00000E+00
    0.00000E+00         0.00000E+00        -0.49383E+08
 
   -0.49344E+08         0.19273E+07         0.00000E+00
    0.19273E+07        -0.49967E+08         0.00000E+00
    0.00000E+00         0.00000E+00        -0.49384E+08
 
   -0.49348E+08         0.19726E+07         0.00000E+00
    0.19726E+07        -0.49965E+08         0.00000E+00
    0.00000E+00         0.00000E+00        -0.49384E+08
 
   -0.49352E+08         0.20176E+07         0.00000E+00
    0.20176E+07        -0.49963E+08         0.00000E+00
    0.00000E+00         0.00000E+00        -0.49385E+08
 
   -0.49357E+08         0.20625E+07         0.00000E+00
    0.20625E+07        -0.49962E+08         0.00000E+00
    0.00000E+00         0.00000E+00        -0.49385E+08
 
   -0.49361E+08         0.21072E+07         0.00000E+00
    0.21072E+07        -0.49960E+08         0.00000E+00
    0.00000E+00         0.00000E+00        -0.49386E+08
 
   -0.49365E+08         0.21516E+07         0.00000E+00
    0.21516E+07        -0.49958E+08         0.00000E+00
    0.00000E+00         0.00000E+00        -0.49386E+08
 
   -0.49369E+08         0.21959E+07         0.00000E+00
    0.21959E+07        -0.49956E+08         0.00000E+00
    0.00000E+00         0.00000E+00        -0.49387E+08
 
   -0.49374E+08         0.22400E+07         0.00000E+00
    0.22400E+07        -0.49954E+08         0.00000E+00
    0.00000E+00         0.00000E+00        -0.49387E+08
 
   -0.49378E+08         0.22839E+07         0.00000E+00
    0.22839E+07        -0.49953E+08         0.00000E+00
    0.00000E+00         0.00000E+00        -0.49388E+08
 
   -0.49382E+08         0.23276E+07         0.00000E+00
    0.23276E+07        -0.49951E+08         0.00000E+00
    0.00000E+00         0.00000E+00        -0.49388E+08
 
   -0.49387E+08         0.23710E+07         0.00000E+00
    0.23710E+07        -0.49949E+08         0.00000E+00
    0.00000E+00         0.00000E+00        -0.49389E+08
 
   -0.48964E+08         0.26202E+05         0.00000E+00
    0.26202E+05        -0.50000E+08         0.00000E+00
    0.00000E+00         0.00000E+00        -0.49142E+08
 
   -0.48967E+08         0.78261E+05         0.00000E+00
    0.78261E+05        -0.50000E+08         0.00000E+00
    0.00000E+00         0.00000E+00        -0.49143E+08
 
   -0.48969E+08         0.13017E+06         0.00000E+00
    0.13017E+06        -0.50000E+08         0.00000E+00
    0.00000E+00         0.00000E+00        -0.49143E+08
 
   -0.48972E+08         0.18193E+06         0.00000E+00
    0.18193E+06        -0.50000E+08         0.00000E+00
    0.00000E+00         0.00000E+00        -0.49144E+08
 
   -0.48975E+08         0.23354E+06         0.00000E+00
    0.23354E+06        -0.49999E+08         0.00000E+00
    0.00000E+00         0.00000E+00        -0.49145E+08
 
   -0.48978E+08         0.28500E+06         0.00000E+00
    0.28500E+06        -0.49999E+08         0.00000E+00
    0.00000E+00         0.00000E+00        -0.49145E+08
 
   -0.48981E+08         0.33630E+06         0.00000E+00
    0.33630E+06        -0.49999E+08         0.00000E+00
    0.00000E+00         0.00000E+00        -0.49146E+08
 
   -0.48985E+08         0.38745E+06         0.00000E+00
    0.38745E+06        -0.49999E+08         0.00000E+00
    0.00000E+00         0.00000E+00        -0.49146E+08
 
   -0.48988E+08         0.43845E+06         0.00000E+00
    0.43845E+06        -0.49998E+08         0.00000E+00
    0.00000E+00         0.00000E+00        -0.49147E+08
 
   -0.48991E+08         0.48928E+06         0.00000E+00
    0.48928E+06        -0.49998E+08         0.00000E+00
    0.00000E+00         0.00000E+00        -0.49147E+08
 
   -0.48994E+08         0.53996E+06         0.00000E+00
    0.53996E+06        -0.49997E+08         0.00000E+00
    0.00000E+00         0.00000E+00        -0.49148E+08
 
   -0.48998E+08         0.59048E+06         0.00000E+00
    0.59048E+06        -0.49997E+08         0.00000E+00
    0.00000E+00         0.00000E+00        -0.49149E+08
 
   -0.49001E+08         0.64084E+06         0.00000E+00
    0.64084E+06        -0.49996E+08         0.00000E+00
    0.00000E+00         0.00000E+00        -0.49149E+08
 
   -0.49005E+08         0.69104E+06         0.00000E+00
    0.69104E+06        -0.49995E+08         0.00000E+00
    0.00000E+00         0.00000E+00        -0.49150E+08
 
   -0.49009E+08         0.74108E+06         0.00000E+00
    0.74108E+06        -0.49994E+08         0.00000E+00
    0.00000E+00         0.00000E+00        -0.49150E+08
 
   -0.49012E+08         0.79096E+06         0.00000E+00
    0.79096E+06        -0.49994E+08         0.00000E+00
    0.00000E+00         0.00000E+00        -0.49151E+08
 
   -0.49016E+08         0.84067E+06         0.00000E+00
    0.84067E+06        -0.49993E+08         0.00000E+00
    0.00000E+00         0.00000E+00        -0.49152E+08
 
   -0.49020E+08         0.89022E+06         0.00000E+00
    0.89022E+06        -0.49992E+08         0.00000E+00
    0.00000E+00         0.00000E+00        -0.49152E+08
 
   -0.49023E+08         0.93960E+06         0.00000E+00
    0.93960E+06        -0.49991E+08         0.00000E+00
    0.00000E+00         0.00000E+00        -0.49153E+08
 
   -0.49027E+08         0.98881E+06         0.00000E+00
    0.98881E+06        -0.49990E+08         0.00000E+00
    0.00000E+00         0.00000E+00        -0.49153E+08
 
   -0.49031E+08         0.10379E+07         0.00000E+00
    0.10379E+07        -0.49989E+08         0.00000E+00
    0.00000E+00         0.00000E+00        -0.49154E+08
 
   -0.49035E+08         0.10867E+07         0.00000E+00
    0.10867E+07        -0.49988E+08         0.00000E+00
    0.00000E+00         0.00000E+00        -0.49155E+08
 
   -0.49039E+08         0.11354E+07         0.00000E+00
    0.11354E+07        -0.49987E+08         0.00000E+00
    0.00000E+00         0.00000E+00        -0.49155E+08
 
   -0.49044E+08         0.11840E+07         0.00000E+00
    0.11840E+07        -0.49986E+08         0.00000E+00
    0.00000E+00         0.00000E+00        -0.49156E+08
 
   -0.49048E+08         0.12323E+07         0.00000E+00
    0.12323E+07        -0.49984E+08         0.00000E+00
    0.00000E+00         0.00000E+00        -0.49156E+08
 
   -0.49052E+08         0.12805E+07         0.00000E+00
    0.12805E+07        -0.49983E+08         0.00000E+00
    0.00000E+00         0.00000E+00        -0.49157E+08
 
   -0.49056E+08         0.13285E+07         0.00000E+00
    0.13285E+07        -0.49982E+08         0.00000E+00
    0.00000E+00         0.00000E+00        -0.49158E+08
 
   -0.49061E+08         0.13764E+07         0.00000E+00
    0.13764E+07        -0.49980E+08         0.00000E+00
    0.00000E+00         0.00000E+00        -0.49158E+08
 
   -0.49065E+08         0.14240E+07         0.00000E+00
    0.14240E+07        -0.49979E+08         0.00000E+00
    0.00000E+00         0.00000E+00        -0.49159E+08
 
   -0.49069E+08         0.14715E+07         0.00000E+00
    0.14715E+07        -0.49977E+08         0.00000E+00
    0.00000E+00         0.00000E+00        -0.49159E+08
 
   -0.49074E+08         0.15188E+07         0.00000E+00
    0.15188E+07        -0.49976E+08         0.00000E+00
    0.00000E+00         0.00000E+00        -0.49160E+08
 
   -0.49079E+08         0.15660E+07         0.00000E+00
    0.15660E+07        -0.49974E+08         0.00000E+00
    0.00000E+00         0.00000E+00        -0.49161E+08
 
   -0.49083E+08         0.16129E+07         0.00000E+00
    0.16129E+07        -0.49973E+08         0.00000E+00
    0.00000E+00         0.00000E+00        -0.49161E+08
 
   -0.49088E+08         0.16597E+07         0.00000E+00
    0.16597E+07        -0.49971E+08         0.00000E+00
    0.00000E+00         0.00000E+00        -0.49162E+08
 
   -0.49093E+08         0.17062E+07         0.00000E+00
    0.17062E+07        -0.49969E+08         0.00000E+00
    0.00000E+00         0.00000E+00        -0.49163E+08
 
   -0.49097E+08         0.17526E+07         0.00000E+00
    0.17526E+07        -0.49968E+08         0.00000E+00
    0.00000E+00         0.00000E+00        -0.49163E+08
 
   -0.49102E+08         0.17988E+07         0.00000E+00
    0.17988E+07        -0.49966E+08         0.00000E+00
    0.00000E+00         0.00000E+00        -0.49164E+08
 
   -0.49107E+08         0.18449E+07         0.00000E+00
    0.18449E+07        -0.49964E+08         0.00000E+00
    0.00000E+00         0.00000E+00        -0.49164E+08
 
   -0.49112E+08         0.18907E+07         0.00000E+00
    0.18907E+07        -0.49962E+08         0.00000E+00
    0.00000E+00         0.00000E+00        -0.49165E+08
 
   -0.49117E+08         0.19363E+07         0.00000E+00
    0.19363E+07        -0.49960E+08         0.00000E+00
    0.00000E+00         0.00000E+00        -0.49166E+08
 
   -0.49122E+08         0.19818E+07         0.00000E+00
    0.19818E+07        -0.49958E+08         0.00000E+00
    0.00000E+00         0.00000E+00        -0.49166E+08
 
   -0.49127E+08         0.20270E+07         0.00000E+00
    0.20270E+07        -0.49956E+08         0.00000E+00
    0.00000E+00         0.00000E+00        -0.49167E+08
 
   -0.49132E+08         0.20721E+07         0.00000E+00
    0.20721E+07        -0.49954E+08         0.00000E+00
    0.00000E+00         0.00000E+00        -0.49168E+08
 
   -0.49137E+08         0.21170E+07         0.00000E+00
    0.21170E+07        -0.49952E+08         0.00000E+00
    0.00000E+00         0.00000E+00        -0.49168E+08
 
   -0.49143E+08         0.21616E+07         0.00000E+00
    0.21616E+07        -0.49950E+08         0.00000E+00
    0.00000E+00         0.00000E+00        -0.49169E+08
 
   -0.49148E+08         0.22061E+07         0.00000E+00
    0.22061E+07        -0.49947E+08         0.00000E+00
    0.00000E+00         0.00000E+00        -0.49169E+08
 
   -0.49153E+08         0.22504E+07         0.00000E+00
    0.22504E+07        -0.49945E+08         0.00000E+00
    0.00000E+00         0.00000E+00        -0.49170E+08
 
   -0.49159E+08         0.22945E+07         0.00000E+00
    0.22945E+07        -0.49943E+08         0.00000E+00
    0.00000E+00         0.00000E+00        -0.49171E+08
 
   -0.49164E+08         0.23383E+07         0.00000E+00
    0.23383E+07        -0.49940E+08         0.00000E+00
    0.00000E+00         0.00000E+00        -0.49171E+08
 
   -0.49169E+08         0.23820E+07         0.00000E+00
    0.23820E+07        -0.49938E+08         0.00000E+00
    0.00000E+00         0.00000E+00        -0.49172E+08
 
   -0.48702E+08         0.26347E+05         0.00000E+00
    0.26347E+05        -0.50000E+08         0.00000E+00
    0.00000E+00         0.00000E+00        -0.48918E+08
 
   -0.48706E+08         0.78694E+05         0.00000E+00
    0.78694E+05        -0.50000E+08         0.00000E+00
    0.00000E+00         0.00000E+00        -0.48918E+08
 
   -0.48710E+08         0.13089E+06         0.00000E+00
    0.13089E+06        -0.50000E+08         0.00000E+00
    0.00000E+00         0.00000E+00        -0.48919E+08
 
   -0.48713E+08         0.18294E+06         0.00000E+00
    0.18294E+06        -0.50000E+08         0.00000E+00
    0.00000E+00         0.00000E+00        -0.48920E+08
 
   -0.48717E+08         0.23483E+06         0.00000E+00
    0.23483E+06        -0.49999E+08         0.00000E+00
    0.00000E+00         0.00000E+00        -0.48921E+08
 
   -0.48721E+08         0.28657E+06         0.00000E+00
    0.28657E+06        -0.49999E+08         0.00000E+00
    0.00000E+00         0.00000E+00        -0.48921E+08
 
   -0.48725E+08         0.33816E+06         0.00000E+00
    0.33816E+06        -0.49999E+08         0.00000E+00
    0.00000E+00         0.00000E+00        -0.48922E+08
 
   -0.48729E+08         0.38959E+06         0.00000E+00
    0.38959E+06        -0.49998E+08         0.00000E+00
    0.00000E+00         0.00000E+00        -0.48923E+08
 
   -0.48733E+08         0.44087E+06         0.00000E+00
    0.44087E+06        -0.49998E+08         0.00000E+00
    0.00000E+00         0.00000E+00        -0.48923E+08
 
   -0.48737E+08         0.49199E+06         0.00000E+00
    0.49199E+06        -0.49997E+08         0.00000E+00
    0.00000E+00         0.00000E+00        -0.48924E+08
 
   -0.48741E+08         0.54295E+06         0.00000E+00
    0.54295E+06        -0.49997E+08         0.00000E+00
    0.00000E+00         0.00000E+00        -0.48925E+08
 
   -0.48745E+08         0.59375E+06         0.00000E+00
    0.59375E+06        -0.49996E+08         0.00000E+00
    0.00000E+00         0.00000E+00        -0.48926E+08
 
   -0.48749E+08         0.64439E+06         0.00000E+00
    0.64439E+06        -0.49995E+08         0.00000E+00
    0.00000E+00         0.00000E+00        -0.48926E+08
 
   -0.48754E+08         0.69487E+06         0.00000E+00
    0.69487E+06        -0.49994E+08         0.00000E+00
    0.00000E+00         0.00000E+00        -0.48927E+08
 
   -0.48758E+08         0.74518E+06         0.00000E+00
    0.74518E+06        -0.49994E+08         0.00000E+00
    0.00000E+00         0.00000E+00        -0.48928E+08
 
   -0.48763E+08         0.79533E+06         0.00000E+00
    0.79533E+06        -0.49993E+08         0.00000E+00
    0.00000E+00         0.00000E+00        -0.48929E+08
 
   -0.48767E+08         0.84532E+06         0.00000E+00
    0.84532E+06        -0.49992E+08         0.00000E+00
    0.00000E+00         0.00000E+00        -0.48929E+08
 
   -0.48772E+08         0.89514E+06         0.00000E+00
    0.89514E+06        -0.49991E+08         0.00000E+00
    0.00000E+00         0.00000E+00        -0.48930E+08
 
   -0.48776E+08         0.94479E+06         0.00000E+00
    0.94479E+06        -0.49990E+08         0.00000E+00
    0.00000E+00         0.00000E+00        -0.48931E+08
 
   -0.48781E+08         0.99428E+06         0.00000E+00
    0.99428E+06        -0.49988E+08         0.00000E+00
    0.00000E+00         0.00000E+00        -0.48931E+08
 
   -0.48786E+08         0.10436E+07         0.00000E+00
    0.10436E+07        -0.49987E+08         0.00000E+00
    0.00000E+00         0.00000E+00        -0.48932E+08
 
   -0.48791E+08         0.10927E+07         0.00000E+00
    0.10927E+07        -0.49986E+08         0.00000E+00
    0.00000E+00         0.00000E+00        -0.48933E+08
 
   -0.48796E+08         0.11417E+07         0.00000E+00
    0.11417E+07        -0.49985E+08         0.00000E+00
    0.00000E+00         0.00000E+00        -0.48934E+08
 
   -0.48801E+08         0.11905E+07         0.00000E+00
    0.11905E+07        -0.49983E+08         0.00000E+00
    0.00000E+00         0.00000E+00        -0.48934E+08
 
   -0.48806E+08         0.12392E+07         0.00000E+00
    0.12392E+07        -0.49982E+08         0.00000E+00
    0.00000E+00         0.00000E+00        -0.48935E+08
 
   -0.48811E+08         0.12876E+07         0.00000E+00
    0.12876E+07        -0.49980E+08         0.00000E+00
    0.00000E+00         0.00000E+00        -0.48936E+08
 
   -0.48816E+08         0.13359E+07         0.00000E+00
    0.13359E+07        -0.49979E+08         0.00000E+00
    0.00000E+00         0.00000E+00        -0.48937E+08
 
   -0.48821E+08         0.13840E+07         0.00000E+00
    0.13840E+07        -0.49977E+08         0.00000E+00
    0.00000E+00         0.00000E+00        -0.48938E+08
 
   -0.48827E+08         0.14319E+07         0.00000E+00
    0.14319E+07        -0.49975E+08         0.00000E+00
    0.00000E+00         0.00000E+00        -0.48938E+08
 
   -0.48832E+08         0.14797E+07         0.00000E+00
    0.14797E+07        -0.49974E+08         0.00000E+00
    0.00000E+00         0.00000E+00        -0.48939E+08
 
   -0.48837E+08         0.15272E+07         0.00000E+00
    0.15272E+07        -0.49972E+08         0.00000E+00
    0.00000E+00         0.00000E+00        -0.48940E+08
 
   -0.48843E+08         0.15746E+07         0.00000E+00
    0.15746E+07        -0.49970E+08         0.00000E+00
    0.00000E+00         0.00000E+00        -0.48941E+08
 
   -0.48848E+08         0.16218E+07         0.00000E+00
    0.16218E+07        -0.49968E+08         0.00000E+00
    0.00000E+00         0.00000E+00        -0.48941E+08
 
   -0.48854E+08         0.16689E+07         0.00000E+00
    0.16689E+07        -0.49966E+08         0.00000E+00
    0.00000E+00         0.00000E+00        -0.48942E+08
 
   -0.48860E+08         0.17157E+07         0.00000E+00
    0.17157E+07        -0.49964E+08         0.00000E+00
    0.00000E+00         0.00000E+00        -0.48943E+08
 
   -0.48865E+08         0.17623E+07         0.00000E+00
    0.17623E+07        -0.49962E+08         0.00000E+00
    0.00000E+00         0.00000E+00        -0.48944E+08
 
   -0.48871E+08         0.18088E+07         0.00000E+00
    0.18088E+07        -0.49960E+08         0.00000E+00
    0.00000E+00         0.00000E+00        -0.48944E+08
 
   -0.48877E+08         0.18551E+07         0.00000E+00
    0.18551E+07        -0.49958E+08         0.00000E+00
    0.00000E+00         0.00000E+00        -0.48945E+08
 
   -0.48883E+08         0.19012E+07         0.00000E+00
    0.19012E+07        -0.49956E+08         0.00000E+00
    0.00000E+00         0.00000E+00        -0.48946E+08
 
   -0.48889E+08         0.19471E+07         0.00000E+00
    0.19471E+07        -0.49953E+08         0.00000E+00
    0.00000E+00         0.00000E+00        -0.48947E+08
 
   -0.48895E+08         0.19928E+07         0.00000E+00
    0.19928E+07        -0.49951E+08         0.00000E+00
    0.00000E+00         0.00000E+00        -0.48947E+08
 
   -0.48901E+08         0.20383E+07         0.00000E+00
    0.20383E+07        -0.49949E+08         0.00000E+00
    0.00000E+00         0.00000E+00        -0.48948E+08
 
   -0.48907E+08         0.20836E+07         0.00000E+00
    0.20836E+07        -0.49946E+08         0.00000E+00
    0.00000E+00         0.00000E+00        -0.48949E+08
 
   -0.48913E+08         0.21287E+07         0.00000E+00
    0.21287E+07        -0.49944E+08         0.00000E+00
    0.00000E+00         0.00000E+00        -0.48950E+08
 
   -0.48919E+08         0.21737E+07         0.00000E+00
    0.21737E+07        -0.49941E+08         0.00000E+00
    0.00000E+00         0.00000E+00        -0.48950E+08
 
   -0.48925E+08         0.22184E+07         0.00000E+00
    0.22184E+07        -0.49938E+08         0.00000E+00
    0.00000E+00         0.00000E+00        -0.48951E+08
 
   -0.48932E+08         0.22629E+07         0.00000E+00
    0.22629E+07        -0.49936E+08         0.00000E+00
    0.00000E+00         0.00000E+00        -0.48952E+08
 
   -0.48938E+08         0.23072E+07         0.00000E+00
    0.23072E+07        -0.49933E+08         0.00000E+00
    0.00000E+00         0.00000E+00        -0.48953E+08
 
   -0.48945E+08         0.23513E+07         0.00000E+00
    0.23513E+07        -0.49930E+08         0.00000E+00
    0.00000E+00         0.00000E+00        -0.48953E+08
 
   -0.48951E+08         0.23953E+07         0.00000E+00
    0.23953E+07        -0.49927E+08         0.00000E+00
    0.00000E+00         0.00000E+00        -0.48954E+08
 
   -0.48440E+08         0.26514E+05         0.00000E+00
    0.26514E+05        -0.50000E+08         0.00000E+00
    0.00000E+00         0.00000E+00        -0.48692E+08
 
   -0.48444E+08         0.79192E+05         0.00000E+00
    0.79192E+05        -0.50000E+08         0.00000E+00
    0.00000E+00         0.00000E+00        -0.48693E+08
 
   -0.48448E+08         0.13172E+06         0.00000E+00
    0.13172E+06        -0.50000E+08         0.00000E+00
    0.00000E+00         0.00000E+00        -0.48693E+08
 
   -0.48453E+08         0.18409E+06         0.00000E+00
    0.18409E+06        -0.50000E+08         0.00000E+00
    0.00000E+00         0.00000E+00        -0.48694E+08
 
   -0.48457E+08         0.23632E+06         0.00000E+00
    0.23632E+06        -0.49999E+08         0.00000E+00
    0.00000E+00         0.00000E+00        -0.48695E+08
 
   -0.48462E+08         0.28839E+06         0.00000E+00
    0.28839E+06        -0.49999E+08         0.00000E+00
    0.00000E+00         0.00000E+00        -0.48696E+08
 
   -0.48466E+08         0.34030E+06         0.00000E+00
    0.34030E+06        -0.49999E+08         0.00000E+00
    0.00000E+00         0.00000E+00        -0.48697E+08
 
   -0.48471E+08         0.39206E+06         0.00000E+00
    0.39206E+06        -0.49998E+08         0.00000E+00
    0.00000E+00         0.00000E+00        -0.48698E+08
 
   -0.48476E+08         0.44366E+06         0.00000E+00
    0.44366E+06        -0.49997E+08         0.00000E+00
    0.00000E+00         0.00000E+00        -0.48699E+08
 
   -0.48481E+08         0.49510E+06         0.00000E+00
    0.49510E+06        -0.49997E+08         0.00000E+00
    0.00000E+00         0.00000E+00        -0.48699E+08
 
   -0.48486E+08         0.54638E+06         0.00000E+00
    0.54638E+06        -0.49996E+08         0.00000E+00
    0.00000E+00         0.00000E+00        -0.48700E+08
 
   -0.48491E+08         0.59750E+06         0.00000E+00
    0.59750E+06        -0.49995E+08         0.00000E+00
    0.00000E+00         0.00000E+00        -0.48701E+08
 
   -0.48496E+08         0.64846E+06         0.00000E+00
    0.64846E+06        -0.49995E+08         0.00000E+00
    0.00000E+00         0.00000E+00        -0.48702E+08
 
   -0.48501E+08         0.69926E+06         0.00000E+00
    0.69926E+06        -0.49994E+08         0.00000E+00
    0.00000E+00         0.00000E+00        -0.48703E+08
 
   -0.48506E+08         0.74990E+06         0.00000E+00
    0.74990E+06        -0.49993E+08         0.00000E+00
    0.00000E+00         0.00000E+00        -0.48704E+08
 
   -0.48511E+08         0.80037E+06         0.00000E+00
    0.80037E+06        -0.49992E+08         0.00000E+00
    0.00000E+00         0.00000E+00        -0.48705E+08
 
   -0.48517E+08         0.85067E+06         0.00000E+00
    0.85067E+06        -0.49991E+08         0.00000E+00
    0.00000E+00         0.00000E+00        -0.48706E+08
 
   -0.48522E+08         0.90081E+06         0.00000E+00
    0.90081E+06        -0.49989E+08         0.00000E+00
    0.00000E+00         0.00000E+00        -0.48706E+08
 
   -0.48528E+08         0.95078E+06         0.00000E+00
    0.95078E+06        -0.49988E+08         0.00000E+00
    0.00000E+00         0.00000E+00        -0.48707E+08
 
   -0.48533E+08         0.10006E+07         0.00000E+00
    0.10006E+07        -0.49987E+08         0.00000E+00
    0.00000E+00         0.00000E+00        -0.48708E+08
 
   -0.48539E+08         0.10502E+07         0.00000E+00
    0.10502E+07        -0.49985E+08         0.00000E+00
    0.00000E+00         0.00000E+00        -0.48709E+08
 
   -0.48545E+08         0.10997E+07         0.00000E+00
    0.10997E+07        -0.49984E+08         0.00000E+00
    0.00000E+00         0.00000E+00        -0.48710E+08
 
   -0.48550E+08         0.11490E+07         0.00000E+00
    0.11490E+07        -0.49982E+08         0.00000E+00
    0.00000E+00         0.00000E+00        -0.48711E+08
 
   -0.48556E+08         0.11981E+07         0.00000E+00
    0.11981E+07        -0.49981E+08         0.00000E+00
    0.00000E+00         0.00000E+00        -0.48712E+08
 
   -0.48562E+08         0.12470E+07         0.00000E+00
    0.12470E+07        -0.49979E+08         0.00000E+00
    0.00000E+00         0.00000E+00        -0.48713E+08
 
   -0.48568E+08         0.12958E+07         0.00000E+00
    0.12958E+07        -0.49978E+08         0.00000E+00
    0.00000E+00         0.00000E+00        -0.48714E+08
 
   -0.48574E+08         0.13444E+07         0.00000E+00
    0.13444E+07        -0.49976E+08         0.00000E+00
    0.00000E+00         0.00000E+00        -0.48715E+08
 
   -0.48580E+08         0.13928E+07         0.00000E+00
    0.13928E+07        -0.49974E+08         0.00000E+00
    0.00000E+00         0.00000E+00        -0.48715E+08
 
   -0.48587E+08         0.14410E+07         0.00000E+00
    0.14410E+07        -0.49972E+08         0.00000E+00
    0.00000E+00         0.00000E+00        -0.48716E+08
 
   -0.48593E+08         0.14891E+07         0.00000E+00
    0.14891E+07        -0.49970E+08         0.00000E+00
    0.00000E+00         0.00000E+00        -0.48717E+08
 
   -0.48599E+08         0.15370E+07         0.00000E+00
    0.15370E+07        -0.49968E+08         0.00000E+00
    0.00000E+00         0.00000E+00        -0.48718E+08
 
   -0.48606E+08         0.15847E+07         0.00000E+00
    0.15847E+07        -0.49966E+08         0.00000E+00
    0.00000E+00         0.00000E+00        -0.48719E+08
 
   -0.48612E+08         0.16322E+07         0.00000E+00
    0.16322E+07        -0.49964E+08         0.00000E+00
    0.00000E+00         0.00000E+00        -0.48720E+08
 
   -0.48618E+08         0.16795E+07         0.00000E+00
    0.16795E+07        -0.49961E+08         0.00000E+00
    0.00000E+00         0.00000E+00        -0.48721E+08
 
   -0.48625E+08         0.17267E+07         0.00000E+00
    0.17267E+07        -0.49959E+08         0.00000E+00
    0.00000E+00         0.00000E+00        -0.48722E+08
 
   -0.48632E+08         0.17736E+07         0.00000E+00
    0.17736E+07        -0.49957E+08         0.00000E+00
    0.00000E+00         0.00000E+00        -0.48723E+08
 
   -0.48638E+08         0.18204E+07         0.00000E+00
    0.18204E+07        -0.49954E+08         0.00000E+00
    0.00000E+00         0.00000E+00        -0.48723E+08
 
   -0.48645E+08         0.18670E+07         0.00000E+00
    0.18670E+07        -0.49952E+08         0.00000E+00
    0.00000E+00         0.00000E+00        -0.48724E+08
 
   -0.48652E+08         0.19134E+07         0.00000E+00
    0.19134E+07        -0.49949E+08         0.00000E+00
    0.00000E+00         0.00000E+00        -0.48725E+08
 
   -0.48659E+08         0.19596E+07         0.00000E+00
    0.19596E+07        -0.49947E+08         0.00000E+00
    0.00000E+00         0.00000E+00        -0.48726E+08
 
   -0.48666E+08         0.20056E+07         0.00000E+00
    0.20056E+07        -0.49944E+08         0.00000E+00
    0.00000E+00         0.00000E+00        -0.48727E+08
 
   -0.48673E+08         0.20514E+07         0.00000E+00
    0.20514E+07        -0.49941E+08         0.00000E+00
    0.00000E+00         0.00000E+00        -0.48728E+08
 
   -0.48680E+08         0.20970E+07         0.00000E+00
    0.20970E+07        -0.49938E+08         0.00000E+00
    0.00000E+00         0.00000E+00        -0.48729E+08
 
   -0.48687E+08         0.21425E+07         0.00000E+00
    0.21425E+07        -0.49935E+08         0.00000E+00
    0.00000E+00         0.00000E+00        -0.48730E+08
 
   -0.48694E+08         0.21877E+07         0.00000E+00
    0.21877E+07        -0.49932E+08         0.00000E+00
    0.00000E+00         0.00000E+00        -0.48730E+08
 
   -0.48702E+08         0.22327E+07         0.00000E+00
    0.22327E+07        -0.49929E+08         0.00000E+00
    0.00000E+00         0.00000E+00        -0.48731E+08
 
   -0.48709E+08         0.22775E+07         0.00000E+00
    0.22775E+07        -0.49926E+08         0.00000E+00
    0.00000E+00         0.00000E+00        -0.48732E+08
 
   -0.48716E+08         0.23222E+07         0.00000E+00
    0.23222E+07        -0.49923E+08         0.00000E+00
    0.00000E+00         0.00000E+00        -0.48733E+08
 
   -0.48724E+08         0.23666E+07         0.00000E+00
    0.23666E+07        -0.49920E+08         0.00000E+00
    0.00000E+00         0.00000E+00        -0.48734E+08
 
   -0.48731E+08         0.24108E+07         0.00000E+00
    0.24108E+07        -0.49917E+08         0.00000E+00
    0.00000E+00         0.00000E+00        -0.48735E+08
 
   -0.48175E+08         0.26702E+05         0.00000E+00
    0.26702E+05        -0.50000E+08         0.00000E+00
    0.00000E+00         0.00000E+00        -0.48464E+08
 
   -0.48180E+08         0.79755E+05         0.00000E+00
    0.79755E+05        -0.50000E+08         0.00000E+00
    0.00000E+00         0.00000E+00        -0.48465E+08
 
   -0.48185E+08         0.13265E+06         0.00000E+00
    0.13265E+06        -0.50000E+08         0.00000E+00
    0.00000E+00         0.00000E+00        -0.48466E+08
 
   -0.48190E+08         0.18540E+06         0.00000E+00
    0.18540E+06        -0.50000E+08         0.00000E+00
    0.00000E+00         0.00000E+00        -0.48467E+08
 
   -0.48195E+08         0.23800E+06         0.00000E+00
    0.23800E+06        -0.49999E+08         0.00000E+00
    0.00000E+00         0.00000E+00        -0.48468E+08
 
   -0.48201E+08         0.29043E+06         0.00000E+00
    0.29043E+06        -0.49999E+08         0.00000E+00
    0.00000E+00         0.00000E+00        -0.48469E+08
 
   -0.48206E+08         0.34272E+06         0.00000E+00
    0.34272E+06        -0.49998E+08         0.00000E+00
    0.00000E+00         0.00000E+00        -0.48470E+08
 
   -0.48212E+08         0.39484E+06         0.00000E+00
    0.39484E+06        -0.49998E+08         0.00000E+00
    0.00000E+00         0.00000E+00        -0.48471E+08
 
   -0.48217E+08         0.44681E+06         0.00000E+00
    0.44681E+06        -0.49997E+08         0.00000E+00
    0.00000E+00         0.00000E+00        -0.48472E+08
 
   -0.48223E+08         0.49862E+06         0.00000E+00
    0.49862E+06        -0.49996E+08         0.00000E+00
    0.00000E+00         0.00000E+00        -0.48473E+08
 
   -0.48229E+08         0.55026E+06         0.00000E+00
    0.55026E+06        -0.49996E+08         0.00000E+00
    0.00000E+00         0.00000E+00        -0.48474E+08
 
   -0.48234E+08         0.60175E+06         0.00000E+00
    0.60175E+06        -0.49995E+08         0.00000E+00
    0.00000E+00         0.00000E+00        -0.48475E+08
 
   -0.48240E+08         0.65307E+06         0.00000E+00
    0.65307E+06        -0.49994E+08         0.00000E+00
    0.00000E+00         0.00000E+00        -0.48476E+08
 
   -0.48246E+08         0.70423E+06         0.00000E+00
    0.70423E+06        -0.49993E+08         0.00000E+00
    0.00000E+00         0.00000E+00        -0.48477E+08
 
   -0.48252E+08         0.75523E+06         0.00000E+00
    0.75523E+06        -0.49992E+08         0.00000E+00
    0.00000E+00         0.00000E+00        -0.48478E+08
 
   -0.48259E+08         0.80606E+06         0.00000E+00
    0.80606E+06        -0.49991E+08         0.00000E+00
    0.00000E+00         0.00000E+00        -0.48479E+08
 
   -0.48265E+08         0.85672E+06         0.00000E+00
    0.85672E+06        -0.49989E+08         0.00000E+00
    0.00000E+00         0.00000E+00        -0.48480E+08
 
   -0.48271E+08         0.90722E+06         0.00000E+00
    0.90722E+06        -0.49988E+08         0.00000E+00
    0.00000E+00         0.00000E+00        -0.48481E+08
 
   -0.48277E+08         0.95755E+06         0.00000E+00
    0.95755E+06        -0.49987E+08         0.00000E+00
    0.00000E+00         0.00000E+00        -0.48482E+08
 
   -0.48284E+08         0.10077E+07         0.00000E+00
    0.10077E+07        -0.49985E+08         0.00000E+00
    0.00000E+00         0.00000E+00        -0.48483E+08
 
   -0.48290E+08         0.10577E+07         0.00000E+00
    0.10577E+07        -0.49984E+08         0.00000E+00
    0.00000E+00         0.00000E+00        -0.48484E+08
 
   -0.48297E+08         0.11075E+07         0.00000E+00
    0.11075E+07        -0.49982E+08         0.00000E+00
    0.00000E+00         0.00000E+00        -0.48485E+08
 
   -0.48304E+08         0.11572E+07         0.00000E+00
    0.11572E+07        -0.49980E+08         0.00000E+00
    0.00000E+00         0.00000E+00        -0.48486E+08
 
   -0.48310E+08         0.12066E+07         0.00000E+00
    0.12066E+07        -0.49979E+08         0.00000E+00
    0.00000E+00         0.00000E+00        -0.48487E+08
 
   -0.48317E+08         0.12559E+07         0.00000E+00
    0.12559E+07        -0.49977E+08         0.00000E+00
    0.00000E+00         0.00000E+00        -0.48489E+08
 
   -0.48324E+08         0.13051E+07         0.00000E+00
    0.13051E+07        -0.49975E+08         0.00000E+00
    0.00000E+00         0.00000E+00        -0.48490E+08
 
   -0.48331E+08         0.13540E+07         0.00000E+00
    0.13540E+07        -0.49973E+08         0.00000E+00
    0.00000E+00         0.00000E+00        -0.48491E+08
 
   -0.48338E+08         0.14028E+07         0.00000E+00
    0.14028E+07        -0.49971E+08         0.00000E+00
    0.00000E+00         0.00000E+00        -0.48492E+08
 
   -0.48345E+08         0.14514E+07         0.00000E+00
    0.14514E+07        -0.49969E+08         0.00000E+00
    0.00000E+00         0.00000E+00        -0.48493E+08
 
   -0.48352E+08         0.14998E+07         0.00000E+00
    0.14998E+07        -0.49966E+08         0.00000E+00
    0.00000E+00         0.00000E+00        -0.48494E+08
 
   -0.48359E+08         0.15480E+07         0.00000E+00
    0.15480E+07        -0.49964E+08         0.00000E+00
    0.00000E+00         0.00000E+00        -0.48495E+08
 
   -0.48367E+08         0.15961E+07         0.00000E+00
    0.15961E+07        -0.49962E+08         0.00000E+00
    0.00000E+00         0.00000E+00        -0.48496E+08
 
   -0.48374E+08         0.16439E+07         0.00000E+00
    0.16439E+07        -0.49959E+08         0.00000E+00
    0.00000E+00         0.00000E+00        -0.48497E+08
 
   -0.48381E+08         0.16916E+07         0.00000E+00
    0.16916E+07        -0.49957E+08         0.00000E+00
    0.00000E+00         0.00000E+00        -0.48498E+08
 
   -0.48389E+08         0.17391E+07         0.00000E+00
    0.17391E+07        -0.49954E+08         0.00000E+00
    0.00000E+00         0.00000E+00        -0.48499E+08
 
   -0.48396E+08         0.17864E+07         0.00000E+00
    0.17864E+07        -0.49951E+08         0.00000E+00
    0.00000E+00         0.00000E+00        -0.48500E+08
 
   -0.48404E+08         0.18336E+07         0.00000E+00
    0.18336E+07        -0.49949E+08         0.00000E+00
    0.00000E+00         0.00000E+00        -0.48501E+08
 
   -0.48412E+08         0.18805E+07         0.00000E+00
    0.18805E+07        -0.49946E+08         0.00000E+00
    0.00000E+00         0.00000E+00        -0.48502E+08
 
   -0.48420E+08         0.19273E+07         0.00000E+00
    0.19273E+07        -0.49943E+08         0.00000E+00
    0.00000E+00         0.00000E+00        -0.48503E+08
 
   -0.48427E+08         0.19738E+07         0.00000E+00
    0.19738E+07        -0.49940E+08         0.00000E+00
    0.00000E+00         0.00000E+00        -0.48504E+08
 
   -0.48435E+08         0.20202E+07         0.00000E+00
    0.20202E+07        -0.49937E+08         0.00000E+00
    0.00000E+00         0.00000E+00        -0.48505E+08
 
   -0.48443E+08         0.20664E+07         0.00000E+00
    0.20664E+07        -0.49934E+08         0.00000E+00
    0.00000E+00         0.00000E+00        -0.48506E+08
 
   -0.48451E+08         0.21123E+07         0.00000E+00
    0.21123E+07        -0.49930E+08         0.00000E+00
    0.00000E+00         0.00000E+00        -0.48507E+08
 
   -0.48460E+08         0.21581E+07         0.00000E+00
    0.21581E+07        -0.49927E+08         0.00000E+00
    0.00000E+00         0.00000E+00        -0.48508E+08
 
   -0.48468E+08         0.22037E+07         0.00000E+00
    0.22037E+07        -0.49924E+08         0.00000E+00
    0.00000E+00         0.00000E+00        -0.48509E+08
 
   -0.48476E+08         0.22491E+07         0.00000E+00
    0.22491E+07        -0.49920E+08         0.00000E+00
    0.00000E+00         0.00000E+00        -0.48510E+08
 
   -0.48484E+08         0.22943E+07         0.00000E+00
    0.22943E+07        -0.49917E+08         0.00000E+00
    0.00000E+00         0.00000E+00        -0.48511E+08
 
   -0.48493E+08         0.23393E+07         0.00000E+00
    0.23393E+07        -0.49913E+08         0.00000E+00
    0.00000E+00         0.00000E+00        -0.48512E+08
 
   -0.48501E+08         0.23840E+07         0.00000E+00
    0.23840E+07        -0.49910E+08         0.00000E+00
    0.00000E+00         0.00000E+00        -0.48513E+08
 
   -0.48510E+08         0.24286E+07         0.00000E+00
    0.24286E+07        -0.49906E+08         0.00000E+00
    0.00000E+00         0.00000E+00        -0.48514E+08
 
   -0.47908E+08         0.26913E+05         0.00000E+00
    0.26913E+05        -0.50000E+08         0.00000E+00
    0.00000E+00         0.00000E+00        -0.48234E+08
 
   -0.47914E+08         0.80382E+05         0.00000E+00
    0.80382E+05        -0.50000E+08         0.00000E+00
    0.00000E+00         0.00000E+00        -0.48236E+08
 
   -0.47920E+08         0.13370E+06         0.00000E+00
    0.13370E+06        -0.50000E+08         0.00000E+00
    0.00000E+00         0.00000E+00        -0.48237E+08
 
   -0.47926E+08         0.18686E+06         0.00000E+00
    0.18686E+06        -0.49999E+08         0.00000E+00
    0.00000E+00         0.00000E+00        -0.48238E+08
 
   -0.47932E+08         0.23987E+06         0.00000E+00
    0.23987E+06        -0.49999E+08         0.00000E+00
    0.00000E+00         0.00000E+00        -0.48239E+08
 
   -0.47938E+08         0.29272E+06         0.00000E+00
    0.29272E+06        -0.49999E+08         0.00000E+00
    0.00000E+00         0.00000E+00        -0.48240E+08
 
   -0.47944E+08         0.34541E+06         0.00000E+00
    0.34541E+06        -0.49998E+08         0.00000E+00
    0.00000E+00         0.00000E+00        -0.48241E+08
 
   -0.47950E+08         0.39794E+06         0.00000E+00
    0.39794E+06        -0.49998E+08         0.00000E+00
    0.00000E+00         0.00000E+00        -0.48242E+08
 
   -0.47957E+08         0.45032E+06         0.00000E+00
    0.45032E+06        -0.49997E+08         0.00000E+00
    0.00000E+00         0.00000E+00        -0.48244E+08
 
   -0.47963E+08         0.50253E+06         0.00000E+00
    0.50253E+06        -0.49996E+08         0.00000E+00
    0.00000E+00         0.00000E+00        -0.48245E+08
 
   -0.47970E+08         0.55458E+06         0.00000E+00
    0.55458E+06        -0.49995E+08         0.00000E+00
    0.00000E+00         0.00000E+00        -0.48246E+08
 
   -0.47976E+08         0.60648E+06         0.00000E+00
    0.60648E+06        -0.49994E+08         0.00000E+00
    0.00000E+00         0.00000E+00        -0.48247E+08
 
   -0.47983E+08         0.65820E+06         0.00000E+00
    0.65820E+06        -0.49993E+08         0.00000E+00
    0.00000E+00         0.00000E+00        -0.48248E+08
 
   -0.47990E+08         0.70977E+06         0.00000E+00
    0.70977E+06        -0.49992E+08         0.00000E+00
    0.00000E+00         0.00000E+00        -0.48249E+08
 
   -0.47997E+08         0.76117E+06         0.00000E+00
    0.76117E+06        -0.49991E+08         0.00000E+00
    0.00000E+00         0.00000E+00        -0.48251E+08
 
   -0.48004E+08         0.81240E+06         0.00000E+00
    0.81240E+06        -0.49990E+08         0.00000E+00
    0.00000E+00         0.00000E+00        -0.48252E+08
 
   -0.48011E+08         0.86347E+06         0.00000E+00
    0.86347E+06        -0.49988E+08         0.00000E+00
    0.00000E+00         0.00000E+00        -0.48253E+08
 
   -0.48018E+08         0.91436E+06         0.00000E+00
    0.91436E+06        -0.49987E+08         0.00000E+00
    0.00000E+00         0.00000E+00        -0.48254E+08
 
   -0.48025E+08         0.96509E+06         0.00000E+00
    0.96509E+06        -0.49985E+08         0.00000E+00
    0.00000E+00         0.00000E+00        -0.48255E+08
 
   -0.48032E+08         0.10157E+07         0.00000E+00
    0.10157E+07        -0.49984E+08         0.00000E+00
    0.00000E+00         0.00000E+00        -0.48257E+08
 
   -0.48040E+08         0.10660E+07         0.00000E+00
    0.10660E+07        -0.49982E+08         0.00000E+00
    0.00000E+00         0.00000E+00        -0.48258E+08
 
   -0.48047E+08         0.11163E+07         0.00000E+00
    0.11163E+07        -0.49980E+08         0.00000E+00
    0.00000E+00         0.00000E+00        -0.48259E+08
 
   -0.48055E+08         0.11663E+07         0.00000E+00
    0.11663E+07        -0.49978E+08         0.00000E+00
    0.00000E+00         0.00000E+00        -0.48260E+08
 
   -0.48062E+08         0.12162E+07         0.00000E+00
    0.12162E+07        -0.49976E+08         0.00000E+00
    0.00000E+00         0.00000E+00        -0.48261E+08
 
   -0.48070E+08         0.12659E+07         0.00000E+00
    0.12659E+07        -0.49974E+08         0.00000E+00
    0.00000E+00         0.00000E+00        -0.48262E+08
 
   -0.48078E+08         0.13154E+07         0.00000E+00
    0.13154E+07        -0.49972E+08         0.00000E+00
    0.00000E+00         0.00000E+00        -0.48264E+08
 
   -0.48086E+08         0.13648E+07         0.00000E+00
    0.13648E+07        -0.49970E+08         0.00000E+00
    0.00000E+00         0.00000E+00        -0.48265E+08
 
   -0.48093E+08         0.14139E+07         0.00000E+00
    0.14139E+07        -0.49968E+08         0.00000E+00
    0.00000E+00         0.00000E+00        -0.48266E+08
 
   -0.48101E+08         0.14629E+07         0.00000E+00
    0.14629E+07        -0.49965E+08         0.00000E+00
    0.00000E+00         0.00000E+00        -0.48267E+08
 
   -0.48109E+08         0.15117E+07         0.00000E+00
    0.15117E+07        -0.49963E+08         0.00000E+00
    0.00000E+00         0.00000E+00        -0.48268E+08
 
   -0.48118E+08         0.15604E+07         0.00000E+00
    0.15604E+07        -0.49960E+08         0.00000E+00
    0.00000E+00         0.00000E+00        -0.48269E+08
 
   -0.48126E+08         0.16088E+07         0.00000E+00
    0.16088E+07        -0.49957E+08         0.00000E+00
    0.00000E+00         0.00000E+00        -0.48271E+08
 
   -0.48134E+08         0.16571E+07         0.00000E+00
    0.16571E+07        -0.49955E+08         0.00000E+00
    0.00000E+00         0.00000E+00        -0.48272E+08
 
   -0.48142E+08         0.17052E+07         0.00000E+00
    0.17052E+07        -0.49952E+08         0.00000E+00
    0.00000E+00         0.00000E+00        -0.48273E+08
 
   -0.48151E+08         0.17531E+07         0.00000E+00
    0.17531E+07        -0.49949E+08         0.00000E+00
    0.00000E+00         0.00000E+00        -0.48274E+08
 
   -0.48159E+08         0.18008E+07         0.00000E+00
    0.18008E+07        -0.49946E+08         0.00000E+00
    0.00000E+00         0.00000E+00        -0.48275E+08
 
   -0.48168E+08         0.18483E+07         0.00000E+00
    0.18483E+07        -0.49943E+08         0.00000E+00
    0.00000E+00         0.00000E+00        -0.48276E+08
 
   -0.48177E+08         0.18957E+07         0.00000E+00
    0.18957E+07        -0.49940E+08         0.00000E+00
    0.00000E+00         0.00000E+00        -0.48277E+08
 
   -0.48185E+08         0.19428E+07         0.00000E+00
    0.19428E+07        -0.49937E+08         0.00000E+00
    0.00000E+00         0.00000E+00        -0.48279E+08
 
   -0.48194E+08         0.19898E+07         0.00000E+00
    0.19898E+07        -0.49933E+08         0.00000E+00
    0.00000E+00         0.00000E+00        -0.48280E+08
 
   -0.48203E+08         0.20366E+07         0.00000E+00
    0.20366E+07        -0.49930E+08         0.00000E+00
    0.00000E+00         0.00000E+00        -0.48281E+08
 
   -0.48212E+08         0.20832E+07         0.00000E+00
    0.20832E+07        -0.49926E+08         0.00000E+00
    0.00000E+00         0.00000E+00        -0.48282E+08
 
   -0.48221E+08         0.21296E+07         0.00000E+00
    0.21296E+07        -0.49923E+08         0.00000E+00
    0.00000E+00         0.00000E+00        -0.48283E+08
 
   -0.48230E+08         0.21757E+07         0.00000E+00
    0.21757E+07        -0.49919E+08         0.00000E+00
    0.00000E+00         0.00000E+00        -0.48284E+08
 
   -0.48239E+08         0.22217E+07         0.00000E+00
    0.22217E+07        -0.49915E+08         0.00000E+00
    0.00000E+00         0.00000E+00        -0.48285E+08
 
   -0.48249E+08         0.22675E+07         0.00000E+00
    0.22675E+07        -0.49911E+08         0.00000E+00
    0.00000E+00         0.00000E+00        -0.48286E+08
 
   -0.48258E+08         0.23131E+07         0.00000E+00
    0.23131E+07        -0.49908E+08         0.00000E+00
    0.00000E+00         0.00000E+00        -0.48287E+08
 
   -0.48267E+08         0.23585E+07         0.00000E+00
    0.23585E+07        -0.49903E+08         0.00000E+00
    0.00000E+00         0.00000E+00        -0.48289E+08
 
   -0.48277E+08         0.24037E+07         0.00000E+00
    0.24037E+07        -0.49899E+08         0.00000E+00
    0.00000E+00         0.00000E+00        -0.48290E+08
 
   -0.48286E+08         0.24487E+07         0.00000E+00
    0.24487E+07        -0.49895E+08         0.00000E+00
    0.00000E+00         0.00000E+00        -0.48291E+08
 
   -0.47639E+08         0.27145E+05         0.00000E+00
    0.27145E+05        -0.50000E+08         0.00000E+00
    0.00000E+00         0.00000E+00        -0.48003E+08
 
   -0.47646E+08         0.81073E+05         0.00000E+00
    0.81073E+05        -0.50000E+08         0.00000E+00
    0.00000E+00         0.00000E+00        -0.48004E+08
 
   -0.47652E+08         0.13485E+06         0.00000E+00
    0.13485E+06        -0.50000E+08         0.00000E+00
    0.00000E+00         0.00000E+00        -0.48005E+08
 
   -0.47659E+08         0.18846E+06         0.00000E+00
    0.18846E+06        -0.49999E+08         0.00000E+00
    0.00000E+00         0.00000E+00        -0.48006E+08
 
   -0.47666E+08         0.24193E+06         0.00000E+00
    0.24193E+06        -0.49999E+08         0.00000E+00
    0.00000E+00         0.00000E+00        -0.48008E+08
 
   -0.47673E+08         0.29523E+06         0.00000E+00
    0.29523E+06        -0.49999E+08         0.00000E+00
    0.00000E+00         0.00000E+00        -0.48009E+08
 
   -0.47680E+08         0.34837E+06         0.00000E+00
    0.34837E+06        -0.49998E+08         0.00000E+00
    0.00000E+00         0.00000E+00        -0.48010E+08
 
   -0.47687E+08         0.40136E+06         0.00000E+00
    0.40136E+06        -0.49997E+08         0.00000E+00
    0.00000E+00         0.00000E+00        -0.48012E+08
 
   -0.47694E+08         0.45418E+06         0.00000E+00
    0.45418E+06        -0.49997E+08         0.00000E+00
    0.00000E+00         0.00000E+00        -0.48013E+08
 
   -0.47702E+08         0.50684E+06         0.00000E+00
    0.50684E+06        -0.49996E+08         0.00000E+00
    0.00000E+00         0.00000E+00        -0.48014E+08
 
   -0.47709E+08         0.55934E+06         0.00000E+00
    0.55934E+06        -0.49995E+08         0.00000E+00
    0.00000E+00         0.00000E+00        -0.48016E+08
 
   -0.47716E+08         0.61168E+06         0.00000E+00
    0.61168E+06        -0.49994E+08         0.00000E+00
    0.00000E+00         0.00000E+00        -0.48017E+08
 
   -0.47724E+08         0.66386E+06         0.00000E+00
    0.66386E+06        -0.49993E+08         0.00000E+00
    0.00000E+00         0.00000E+00        -0.48018E+08
 
   -0.47731E+08         0.71586E+06         0.00000E+00
    0.71586E+06        -0.49991E+08         0.00000E+00
    0.00000E+00         0.00000E+00        -0.48020E+08
 
   -0.47739E+08         0.76771E+06         0.00000E+00
    0.76771E+06        -0.49990E+08         0.00000E+00
    0.00000E+00         0.00000E+00        -0.48021E+08
 
   -0.47747E+08         0.81939E+06         0.00000E+00
    0.81939E+06        -0.49989E+08         0.00000E+00
    0.00000E+00         0.00000E+00        -0.48022E+08
 
   -0.47755E+08         0.87089E+06         0.00000E+00
    0.87089E+06        -0.49987E+08         0.00000E+00
    0.00000E+00         0.00000E+00        -0.48024E+08
 
   -0.47763E+08         0.92224E+06         0.00000E+00
    0.92224E+06        -0.49985E+08         0.00000E+00
    0.00000E+00         0.00000E+00        -0.48025E+08
 
   -0.47771E+08         0.97341E+06         0.00000E+00
    0.97341E+06        -0.49984E+08         0.00000E+00
    0.00000E+00         0.00000E+00        -0.48026E+08
 
   -0.47779E+08         0.10244E+07         0.00000E+00
    0.10244E+07        -0.49982E+08         0.00000E+00
    0.00000E+00         0.00000E+00        -0.48027E+08
 
   -0.47787E+08         0.10752E+07         0.00000E+00
    0.10752E+07        -0.49980E+08         0.00000E+00
    0.00000E+00         0.00000E+00        -0.48029E+08
 
   -0.47795E+08         0.11259E+07         0.00000E+00
    0.11259E+07        -0.49978E+08         0.00000E+00
    0.00000E+00         0.00000E+00        -0.48030E+08
 
   -0.47804E+08         0.11764E+07         0.00000E+00
    0.11764E+07        -0.49976E+08         0.00000E+00
    0.00000E+00         0.00000E+00        -0.48031E+08
 
   -0.47812E+08         0.12267E+07         0.00000E+00
    0.12267E+07        -0.49974E+08         0.00000E+00
    0.00000E+00         0.00000E+00        -0.48033E+08
 
   -0.47821E+08         0.12769E+07         0.00000E+00
    0.12769E+07        -0.49972E+08         0.00000E+00
    0.00000E+00         0.00000E+00        -0.48034E+08
 
   -0.47829E+08         0.13268E+07         0.00000E+00
    0.13268E+07        -0.49969E+08         0.00000E+00
    0.00000E+00         0.00000E+00        -0.48035E+08
 
   -0.47838E+08         0.13766E+07         0.00000E+00
    0.13766E+07        -0.49967E+08         0.00000E+00
    0.00000E+00         0.00000E+00        -0.48037E+08
 
   -0.47847E+08         0.14262E+07         0.00000E+00
    0.14262E+07        -0.49964E+08         0.00000E+00
    0.00000E+00         0.00000E+00        -0.48038E+08
 
   -0.47856E+08         0.14757E+07         0.00000E+00
    0.14757E+07        -0.49962E+08         0.00000E+00
    0.00000E+00         0.00000E+00        -0.48039E+08
 
   -0.47865E+08         0.15249E+07         0.00000E+00
    0.15249E+07        -0.49959E+08         0.00000E+00
    0.00000E+00         0.00000E+00        -0.48041E+08
 
   -0.47874E+08         0.15740E+07         0.00000E+00
    0.15740E+07        -0.49956E+08         0.00000E+00
    0.00000E+00         0.00000E+00        -0.48042E+08
 
   -0.47883E+08         0.16229E+07         0.00000E+00
    0.16229E+07        -0.49953E+08         0.00000E+00
    0.00000E+00         0.00000E+00        -0.48043E+08
 
   -0.47892E+08         0.16716E+07         0.00000E+00
    0.16716E+07        -0.49950E+08         0.00000E+00
    0.00000E+00         0.00000E+00        -0.48044E+08
 
   -0.47901E+08         0.17202E+07         0.00000E+00
    0.17202E+07        -0.49947E+08         0.00000E+00
    0.00000E+00         0.00000E+00        -0.48046E+08
 
   -0.47911E+08         0.17685E+07         0.00000E+00
    0.17685E+07        -0.49944E+08         0.00000E+00
    0.00000E+00         0.00000E+00        -0.48047E+08
 
   -0.47920E+08         0.18167E+07         0.00000E+00
    0.18167E+07        -0.49941E+08         0.00000E+00
    0.00000E+00         0.00000E+00        -0.48048E+08
 
   -0.47930E+08         0.18647E+07         0.00000E+00
    0.18647E+07        -0.49937E+08         0.00000E+00
    0.00000E+00         0.00000E+00        -0.48050E+08
 
   -0.47939E+08         0.19125E+07         0.00000E+00
    0.19125E+07        -0.49934E+08         0.00000E+00
    0.00000E+00         0.00000E+00        -0.48051E+08
 
   -0.47949E+08         0.19601E+07         0.00000E+00
    0.19601E+07        -0.49930E+08         0.00000E+00
    0.00000E+00         0.00000E+00        -0.48052E+08
 
   -0.47959E+08         0.20075E+07         0.00000E+00
    0.20075E+07        -0.49927E+08         0.00000E+00
    0.00000E+00         0.00000E+00        -0.48053E+08
 
   -0.47969E+08         0.20548E+07         0.00000E+00
    0.20548E+07        -0.49923E+08         0.00000E+00
    0.00000E+00         0.00000E+00        -0.48055E+08
 
   -0.47978E+08         0.21018E+07         0.00000E+00
    0.21018E+07        -0.49919E+08         0.00000E+00
    0.00000E+00         0.00000E+00        -0.48056E+08
 
   -0.47988E+08         0.21486E+07         0.00000E+00
    0.21486E+07        -0.49915E+08         0.00000E+00
    0.00000E+00         0.00000E+00        -0.48057E+08
 
   -0.47999E+08         0.21953E+07         0.00000E+00
    0.21953E+07        -0.49911E+08         0.00000E+00
    0.00000E+00         0.00000E+00        -0.48058E+08
 
   -0.48009E+08         0.22418E+07         0.00000E+00
    0.22418E+07        -0.49907E+08         0.00000E+00
    0.00000E+00         0.00000E+00        -0.48060E+08
 
   -0.48019E+08         0.22880E+07         0.00000E+00
    0.22880E+07        -0.49903E+08         0.00000E+00
    0.00000E+00         0.00000E+00        -0.48061E+08
 
   -0.48029E+08         0.23341E+07         0.00000E+00
    0.23341E+07        -0.49898E+08         0.00000E+00
    0.00000E+00         0.00000E+00        -0.48062E+08
 
   -0.48040E+08         0.23800E+07         0.00000E+00
    0.23800E+07        -0.49894E+08         0.00000E+00
    0.00000E+00         0.00000E+00        -0.48063E+08
 
   -0.48050E+08         0.24256E+07         0.00000E+00
    0.24256E+07        -0.49889E+08         0.00000E+00
    0.00000E+00         0.00000E+00        -0.48064E+08
 
   -0.48061E+08         0.24711E+07         0.00000E+00
    0.24711E+07        -0.49885E+08         0.00000E+00
    0.00000E+00         0.00000E+00        -0.48066E+08
 
   -0.47368E+08         0.27397E+05         0.00000E+00
    0.27397E+05        -0.50000E+08         0.00000E+00
    0.00000E+00         0.00000E+00        -0.47768E+08
 
   -0.47375E+08         0.81827E+05         0.00000E+00
    0.81827E+05        -0.50000E+08         0.00000E+00
    0.00000E+00         0.00000E+00        -0.47770E+08
 
   -0.47383E+08         0.13610E+06         0.00000E+00
    0.13610E+06        -0.50000E+08         0.00000E+00
    0.00000E+00         0.00000E+00        -0.47771E+08
 
   -0.47390E+08         0.19021E+06         0.00000E+00
    0.19021E+06        -0.49999E+08         0.00000E+00
    0.00000E+00         0.00000E+00        -0.47772E+08
 
   -0.47398E+08         0.24417E+06         0.00000E+00
    0.24417E+06        -0.49999E+08         0.00000E+00
    0.00000E+00         0.00000E+00        -0.47774E+08
 
   -0.47406E+08         0.29797E+06         0.00000E+00
    0.29797E+06        -0.49998E+08         0.00000E+00
    0.00000E+00         0.00000E+00        -0.47775E+08
 
   -0.47413E+08         0.35160E+06         0.00000E+00
    0.35160E+06        -0.49998E+08         0.00000E+00
    0.00000E+00         0.00000E+00        -0.47777E+08
 
   -0.47421E+08         0.40508E+06         0.00000E+00
    0.40508E+06        -0.49997E+08         0.00000E+00
    0.00000E+00         0.00000E+00        -0.47778E+08
 
   -0.47429E+08         0.45839E+06         0.00000E+00
    0.45839E+06        -0.49996E+08         0.00000E+00
    0.00000E+00         0.00000E+00        -0.47780E+08
 
   -0.47437E+08         0.51155E+06         0.00000E+00
    0.51155E+06        -0.49995E+08         0.00000E+00
    0.00000E+00         0.00000E+00        -0.47781E+08
 
   -0.47446E+08         0.56453E+06         0.00000E+00
    0.56453E+06        -0.49994E+08         0.00000E+00
    0.00000E+00         0.00000E+00        -0.47783E+08
 
   -0.47454E+08         0.61736E+06         0.00000E+00
    0.61736E+06        -0.49993E+08         0.00000E+00
    0.00000E+00         0.00000E+00        -0.47784E+08
 
   -0.47462E+08         0.67002E+06         0.00000E+00
    0.67002E+06        -0.49992E+08         0.00000E+00
    0.00000E+00         0.00000E+00        -0.47786E+08
 
   -0.47471E+08         0.72251E+06         0.00000E+00
    0.72251E+06        -0.49991E+08         0.00000E+00
    0.00000E+00         0.00000E+00        -0.47787E+08
 
   -0.47479E+08         0.77484E+06         0.00000E+00
    0.77484E+06        -0.49989E+08         0.00000E+00
    0.00000E+00         0.00000E+00        -0.47789E+08
 
   -0.47488E+08         0.82700E+06         0.00000E+00
    0.82700E+06        -0.49988E+08         0.00000E+00
    0.00000E+00         0.00000E+00        -0.47790E+08
 
   -0.47496E+08         0.87900E+06         0.00000E+00
    0.87900E+06        -0.49986E+08         0.00000E+00
    0.00000E+00         0.00000E+00        -0.47792E+08
 
   -0.47505E+08         0.93082E+06         0.00000E+00
    0.93082E+06        -0.49984E+08         0.00000E+00
    0.00000E+00         0.00000E+00        -0.47793E+08
 
   -0.47514E+08         0.98248E+06         0.00000E+00
    0.98248E+06        -0.49982E+08         0.00000E+00
    0.00000E+00         0.00000E+00        -0.47794E+08
 
   -0.47523E+08         0.10340E+07         0.00000E+00
    0.10340E+07        -0.49980E+08         0.00000E+00
    0.00000E+00         0.00000E+00        -0.47796E+08
 
   -0.47532E+08         0.10853E+07         0.00000E+00
    0.10853E+07        -0.49978E+08         0.00000E+00
    0.00000E+00         0.00000E+00        -0.47797E+08
 
   -0.47541E+08         0.11364E+07         0.00000E+00
    0.11364E+07        -0.49976E+08         0.00000E+00
    0.00000E+00         0.00000E+00        -0.47799E+08
 
   -0.47551E+08         0.11874E+07         0.00000E+00
    0.11874E+07        -0.49974E+08         0.00000E+00
    0.00000E+00         0.00000E+00        -0.47800E+08
 
   -0.47560E+08         0.12382E+07         0.00000E+00
    0.12382E+07        -0.49972E+08         0.00000E+00
    0.00000E+00         0.00000E+00        -0.47802E+08
 
   -0.47569E+08         0.12888E+07         0.00000E+00
    0.12888E+07        -0.49969E+08         0.00000E+00
    0.00000E+00         0.00000E+00        -0.47803E+08
 
   -0.47579E+08         0.13393E+07         0.00000E+00
    0.13393E+07        -0.49967E+08         0.00000E+00
    0.00000E+00         0.00000E+00        -0.47805E+08
 
   -0.47588E+08         0.13896E+07         0.00000E+00
    0.13896E+07        -0.49964E+08         0.00000E+00
    0.00000E+00         0.00000E+00        -0.47806E+08
 
   -0.47598E+08         0.14397E+07         0.00000E+00
    0.14397E+07        -0.49961E+08         0.00000E+00
    0.00000E+00         0.00000E+00        -0.47808E+08
 
   -0.47608E+08         0.14896E+07         0.00000E+00
    0.14896E+07        -0.49958E+08         0.00000E+00
    0.00000E+00         0.00000E+00        -0.47809E+08
 
   -0.47618E+08         0.15394E+07         0.00000E+00
    0.15394E+07        -0.49956E+08         0.00000E+00
    0.00000E+00         0.00000E+00        -0.47810E+08
 
   -0.47628E+08         0.15889E+07         0.00000E+00
    0.15889E+07        -0.49952E+08         0.00000E+00
    0.00000E+00         0.00000E+00        -0.47812E+08
 
   -0.47638E+08         0.16383E+07         0.00000E+00
    0.16383E+07        -0.49949E+08         0.00000E+00
    0.00000E+00         0.00000E+00        -0.47813E+08
 
   -0.47648E+08         0.16876E+07         0.00000E+00
    0.16876E+07        -0.49946E+08         0.00000E+00
    0.00000E+00         0.00000E+00        -0.47815E+08
 
   -0.47658E+08         0.17366E+07         0.00000E+00
    0.17366E+07        -0.49943E+08         0.00000E+00
    0.00000E+00         0.00000E+00        -0.47816E+08
 
   -0.47668E+08         0.17854E+07         0.00000E+00
    0.17854E+07        -0.49939E+08         0.00000E+00
    0.00000E+00         0.00000E+00        -0.47818E+08
 
   -0.47678E+08         0.18341E+07         0.00000E+00
    0.18341E+07        -0.49936E+08         0.00000E+00
    0.00000E+00         0.00000E+00        -0.47819E+08
 
   -0.47689E+08         0.18826E+07         0.00000E+00
    0.18826E+07        -0.49932E+08         0.00000E+00
    0.00000E+00         0.00000E+00        -0.47820E+08
 
   -0.47699E+08         0.19309E+07         0.00000E+00
    0.19309E+07        -0.49928E+08         0.00000E+00
    0.00000E+00         0.00000E+00        -0.47822E+08
 
   -0.47710E+08         0.19790E+07         0.00000E+00
    0.19790E+07        -0.49924E+08         0.00000E+00
    0.00000E+00         0.00000E+00        -0.47823E+08
 
   -0.47721E+08         0.20269E+07         0.00000E+00
    0.20269E+07        -0.49920E+08         0.00000E+00
    0.00000E+00         0.00000E+00        -0.47824E+08
 
   -0.47732E+08         0.20747E+07         0.00000E+00
    0.20747E+07        -0.49916E+08         0.00000E+00
    0.00000E+00         0.00000E+00        -0.47826E+08
 
   -0.47742E+08         0.21222E+07         0.00000E+00
    0.21222E+07        -0.49912E+08         0.00000E+00
    0.00000E+00         0.00000E+00        -0.47827E+08
 
   -0.47753E+08         0.21696E+07         0.00000E+00
    0.21696E+07        -0.49908E+08         0.00000E+00
    0.00000E+00         0.00000E+00        -0.47829E+08
 
   -0.47764E+08         0.22168E+07         0.00000E+00
    0.22168E+07        -0.49903E+08         0.00000E+00
    0.00000E+00         0.00000E+00        -0.47830E+08
 
   -0.47776E+08         0.22638E+07         0.00000E+00
    0.22638E+07        -0.49899E+08         0.00000E+00
    0.00000E+00         0.00000E+00        -0.47831E+08
 
   -0.47787E+08         0.23105E+07         0.00000E+00
    0.23105E+07        -0.49894E+08         0.00000E+00
    0.00000E+00         0.00000E+00        -0.47833E+08
 
   -0.47798E+08         0.23571E+07         0.00000E+00
    0.23571E+07        -0.49889E+08         0.00000E+00
    0.00000E+00         0.00000E+00        -0.47834E+08
 
   -0.47810E+08         0.24035E+07         0.00000E+00
    0.24035E+07        -0.49884E+08         0.00000E+00
    0.00000E+00         0.00000E+00        -0.47835E+08
 
   -0.47821E+08         0.24497E+07         0.00000E+00
    0.24497E+07        -0.49879E+08         0.00000E+00
    0.00000E+00         0.00000E+00        -0.47837E+08
 
   -0.47833E+08         0.24957E+07         0.00000E+00
    0.24957E+07        -0.49874E+08         0.00000E+00
    0.00000E+00         0.00000E+00        -0.47838E+08
 
   -0.47094E+08         0.27671E+05         0.00000E+00
    0.27671E+05        -0.50000E+08         0.00000E+00
    0.00000E+00         0.00000E+00        -0.47531E+08
 
   -0.47102E+08         0.82642E+05         0.00000E+00
    0.82642E+05        -0.50000E+08         0.00000E+00
    0.00000E+00         0.00000E+00        -0.47532E+08
 
   -0.47110E+08         0.13745E+06         0.00000E+00
    0.13745E+06        -0.50000E+08         0.00000E+00
    0.00000E+00         0.00000E+00        -0.47534E+08
 
   -0.47119E+08         0.19211E+06         0.00000E+00
    0.19211E+06        -0.49999E+08         0.00000E+00
    0.00000E+00         0.00000E+00        -0.47536E+08
 
   -0.47127E+08         0.24660E+06         0.00000E+00
    0.24660E+06        -0.49999E+08         0.00000E+00
    0.00000E+00         0.00000E+00        -0.47537E+08
 
   -0.47136E+08         0.30093E+06         0.00000E+00
    0.30093E+06        -0.49998E+08         0.00000E+00
    0.00000E+00         0.00000E+00        -0.47539E+08
 
   -0.47144E+08         0.35510E+06         0.00000E+00
    0.35510E+06        -0.49998E+08         0.00000E+00
    0.00000E+00         0.00000E+00        -0.47541E+08
 
   -0.47153E+08         0.40910E+06         0.00000E+00
    0.40910E+06        -0.49997E+08         0.00000E+00
    0.00000E+00         0.00000E+00        -0.47542E+08
 
   -0.47162E+08         0.46295E+06         0.00000E+00
    0.46295E+06        -0.49996E+08         0.00000E+00
    0.00000E+00         0.00000E+00        -0.47544E+08
 
   -0.47171E+08         0.51663E+06         0.00000E+00
    0.51663E+06        -0.49995E+08         0.00000E+00
    0.00000E+00         0.00000E+00        -0.47545E+08
 
   -0.47180E+08         0.57014E+06         0.00000E+00
    0.57014E+06        -0.49994E+08         0.00000E+00
    0.00000E+00         0.00000E+00        -0.47547E+08
 
   -0.47189E+08         0.62349E+06         0.00000E+00
    0.62349E+06        -0.49993E+08         0.00000E+00
    0.00000E+00         0.00000E+00        -0.47549E+08
 
   -0.47198E+08         0.67668E+06         0.00000E+00
    0.67668E+06        -0.49991E+08         0.00000E+00
    0.00000E+00         0.00000E+00        -0.47550E+08
 
   -0.47207E+08         0.72970E+06         0.00000E+00
    0.72970E+06        -0.49990E+08         0.00000E+00
    0.00000E+00         0.00000E+00        -0.47552E+08
 
   -0.47217E+08         0.78255E+06         0.00000E+00
    0.78255E+06        -0.49988E+08         0.00000E+00
    0.00000E+00         0.00000E+00        -0.47553E+08
 
   -0.47226E+08         0.83524E+06         0.00000E+00
    0.83524E+06        -0.49987E+08         0.00000E+00
    0.00000E+00         0.00000E+00        -0.47555E+08
 
   -0.47236E+08         0.88776E+06         0.00000E+00
    0.88776E+06        -0.49985E+08         0.00000E+00
    0.00000E+00         0.00000E+00        -0.47557E+08
 
   -0.47245E+08         0.94011E+06         0.00000E+00
    0.94011E+06        -0.49983E+08         0.00000E+00
    0.00000E+00         0.00000E+00        -0.47558E+08
 
   -0.47255E+08         0.99229E+06         0.00000E+00
    0.99229E+06        -0.49981E+08         0.00000E+00
    0.00000E+00         0.00000E+00        -0.47560E+08
 
   -0.47265E+08         0.10443E+07         0.00000E+00
    0.10443E+07        -0.49979E+08         0.00000E+00
    0.00000E+00         0.00000E+00        -0.47562E+08
 
   -0.47275E+08         0.10961E+07         0.00000E+00
    0.10961E+07        -0.49977E+08         0.00000E+00
    0.00000E+00         0.00000E+00        -0.47563E+08
 
   -0.47285E+08         0.11478E+07         0.00000E+00
    0.11478E+07        -0.49974E+08         0.00000E+00
    0.00000E+00         0.00000E+00        -0.47565E+08
 
   -0.47295E+08         0.11993E+07         0.00000E+00
    0.11993E+07        -0.49972E+08         0.00000E+00
    0.00000E+00         0.00000E+00        -0.47566E+08
 
   -0.47305E+08         0.12506E+07         0.00000E+00
    0.12506E+07        -0.49970E+08         0.00000E+00
    0.00000E+00         0.00000E+00        -0.47568E+08
 
   -0.47315E+08         0.13018E+07         0.00000E+00
    0.13018E+07        -0.49967E+08         0.00000E+00
    0.00000E+00         0.00000E+00        -0.47570E+08
 
   -0.47326E+08         0.13528E+07         0.00000E+00
    0.13528E+07        -0.49964E+08         0.00000E+00
    0.00000E+00         0.00000E+00        -0.47571E+08
 
   -0.47336E+08         0.14036E+07         0.00000E+00
    0.14036E+07        -0.49961E+08         0.00000E+00
    0.00000E+00         0.00000E+00        -0.47573E+08
 
   -0.47347E+08         0.14542E+07         0.00000E+00
    0.14542E+07        -0.49958E+08         0.00000E+00
    0.00000E+00         0.00000E+00        -0.47574E+08
 
   -0.47357E+08         0.15047E+07         0.00000E+00
    0.15047E+07        -0.49955E+08         0.00000E+00
    0.00000E+00         0.00000E+00        -0.47576E+08
 
   -0.47368E+08         0.15550E+07         0.00000E+00
    0.15550E+07        -0.49952E+08         0.00000E+00
    0.00000E+00         0.00000E+00        -0.47577E+08
 
   -0.47379E+08         0.16051E+07         0.00000E+00
    0.16051E+07        -0.49949E+08         0.00000E+00
    0.00000E+00         0.00000E+00        -0.47579E+08
 
   -0.47390E+08         0.16550E+07         0.00000E+00
    0.16550E+07        -0.49945E+08         0.00000E+00
    0.00000E+00         0.00000E+00        -0.47581E+08
 
   -0.47401E+08         0.17048E+07         0.00000E+00
    0.17048E+07        -0.49942E+08         0.00000E+00
    0.00000E+00         0.00000E+00        -0.47582E+08
 
   -0.47412E+08         0.17544E+07         0.00000E+00
    0.17544E+07        -0.49938E+08         0.00000E+00
    0.00000E+00         0.00000E+00        -0.47584E+08
 
   -0.47423E+08         0.18038E+07         0.00000E+00
    0.18038E+07        -0.49934E+08         0.00000E+00
    0.00000E+00         0.00000E+00        -0.47585E+08
 
   -0.47434E+08         0.18530E+07         0.00000E+00
    0.18530E+07        -0.49931E+08         0.00000E+00
    0.00000E+00         0.00000E+00        -0.47587E+08
 
   -0.47446E+08         0.19020E+07         0.00000E+00
    0.19020E+07        -0.49927E+08         0.00000E+00
    0.00000E+00         0.00000E+00        -0.47588E+08
 
   -0.47457E+08         0.19509E+07         0.00000E+00
    0.19509E+07        -0.49923E+08         0.00000E+00
    0.00000E+00         0.00000E+00        -0.47590E+08
 
   -0.47469E+08         0.19996E+07         0.00000E+00
    0.19996E+07        -0.49918E+08         0.00000E+00
    0.00000E+00         0.00000E+00        -0.47591E+08
 
   -0.47480E+08         0.20480E+07         0.00000E+00
    0.20480E+07        -0.49914E+08         0.00000E+00
    0.00000E+00         0.00000E+00        -0.47593E+08
 
   -0.47492E+08         0.20963E+07         0.00000E+00
    0.20963E+07        -0.49910E+08         0.00000E+00
    0.00000E+00         0.00000E+00        -0.47594E+08
 
   -0.47504E+08         0.21445E+07         0.00000E+00
    0.21445E+07        -0.49905E+08         0.00000E+00
    0.00000E+00         0.00000E+00        -0.47596E+08
 
   -0.47516E+08         0.21924E+07         0.00000E+00
    0.21924E+07        -0.49900E+08         0.00000E+00
    0.00000E+00         0.00000E+00        -0.47597E+08
 
   -0.47528E+08         0.22401E+07         0.00000E+00
    0.22401E+07        -0.49895E+08         0.00000E+00
    0.00000E+00         0.00000E+00        -0.47599E+08
 
   -0.47540E+08         0.22877E+07         0.00000E+00
    0.22877E+07        -0.49891E+08         0.00000E+00
    0.00000E+00         0.00000E+00        -0.47600E+08
 
   -0.47552E+08         0.23350E+07         0.00000E+00
    0.23350E+07        -0.49886E+08         0.00000E+00
    0.00000E+00         0.00000E+00        -0.47602E+08
 
   -0.47564E+08         0.23822E+07         0.00000E+00
    0.23822E+07        -0.49880E+08         0.00000E+00
    0.00000E+00         0.00000E+00        -0.47603E+08
 
   -0.47577E+08         0.24292E+07         0.00000E+00
    0.24292E+07        -0.49875E+08         0.00000E+00
    0.00000E+00         0.00000E+00        -0.47605E+08
 
   -0.47589E+08         0.24760E+07         0.00000E+00
    0.24760E+07        -0.49870E+08         0.00000E+00
    0.00000E+00         0.00000E+00        -0.47606E+08
 
   -0.47602E+08         0.25225E+07         0.00000E+00
    0.25225E+07        -0.49864E+08         0.00000E+00
    0.00000E+00         0.00000E+00        -0.47607E+08
 
   -0.46817E+08         0.27964E+05         0.00000E+00
    0.27964E+05        -0.50000E+08         0.00000E+00
    0.00000E+00         0.00000E+00        -0.47291E+08
 
   -0.46826E+08         0.83516E+05         0.00000E+00
    0.83516E+05        -0.50000E+08         0.00000E+00
    0.00000E+00         0.00000E+00        -0.47292E+08
 
   -0.46835E+08         0.13891E+06         0.00000E+00
    0.13891E+06        -0.50000E+08         0.00000E+00
    0.00000E+00         0.00000E+00        -0.47294E+08
 
   -0.46844E+08         0.19413E+06         0.00000E+00
    0.19413E+06        -0.49999E+08         0.00000E+00
    0.00000E+00         0.00000E+00        -0.47296E+08
 
   -0.46854E+08         0.24920E+06         0.00000E+00
    0.24920E+06        -0.49999E+08         0.00000E+00
    0.00000E+00         0.00000E+00        -0.47298E+08
 
   -0.46863E+08         0.30410E+06         0.00000E+00
    0.30410E+06        -0.49998E+08         0.00000E+00
    0.00000E+00         0.00000E+00        -0.47299E+08
 
   -0.46872E+08         0.35884E+06         0.00000E+00
    0.35884E+06        -0.49997E+08         0.00000E+00
    0.00000E+00         0.00000E+00        -0.47301E+08
 
   -0.46882E+08         0.41342E+06         0.00000E+00
    0.41342E+06        -0.49997E+08         0.00000E+00
    0.00000E+00         0.00000E+00        -0.47303E+08
 
   -0.46892E+08         0.46783E+06         0.00000E+00
    0.46783E+06        -0.49996E+08         0.00000E+00
    0.00000E+00         0.00000E+00        -0.47305E+08
 
   -0.46901E+08         0.52207E+06         0.00000E+00
    0.52207E+06        -0.49995E+08         0.00000E+00
    0.00000E+00         0.00000E+00        -0.47306E+08
 
   -0.46911E+08         0.57615E+06         0.00000E+00
    0.57615E+06        -0.49993E+08         0.00000E+00
    0.00000E+00         0.00000E+00        -0.47308E+08
 
   -0.46921E+08         0.63007E+06         0.00000E+00
    0.63007E+06        -0.49992E+08         0.00000E+00
    0.00000E+00         0.00000E+00        -0.47310E+08
 
   -0.46931E+08         0.68382E+06         0.00000E+00
    0.68382E+06        -0.49991E+08         0.00000E+00
    0.00000E+00         0.00000E+00        -0.47312E+08
 
   -0.46941E+08         0.73740E+06         0.00000E+00
    0.73740E+06        -0.49989E+08         0.00000E+00
    0.00000E+00         0.00000E+00        -0.47314E+08
 
   -0.46951E+08         0.79082E+06         0.00000E+00
    0.79082E+06        -0.49988E+08         0.00000E+00
    0.00000E+00         0.00000E+00        -0.47315E+08
 
   -0.46962E+08         0.84407E+06         0.00000E+00
    0.84407E+06        -0.49986E+08         0.00000E+00
    0.00000E+00         0.00000E+00        -0.47317E+08
 
   -0.46972E+08         0.89715E+06         0.00000E+00
    0.89715E+06        -0.49984E+08         0.00000E+00
    0.00000E+00         0.00000E+00        -0.47319E+08
 
   -0.46983E+08         0.95006E+06         0.00000E+00
    0.95006E+06        -0.49982E+08         0.00000E+00
    0.00000E+00         0.00000E+00        -0.47321E+08
 
   -0.46993E+08         0.10028E+07         0.00000E+00
    0.10028E+07        -0.49980E+08         0.00000E+00
    0.00000E+00         0.00000E+00        -0.47322E+08
 
   -0.47004E+08         0.10554E+07         0.00000E+00
    0.10554E+07        -0.49978E+08         0.00000E+00
    0.00000E+00         0.00000E+00        -0.47324E+08
 
   -0.47015E+08         0.11078E+07         0.00000E+00
    0.11078E+07        -0.49975E+08         0.00000E+00
    0.00000E+00         0.00000E+00        -0.47326E+08
 
   -0.47025E+08         0.11600E+07         0.00000E+00
    0.11600E+07        -0.49973E+08         0.00000E+00
    0.00000E+00         0.00000E+00        -0.47328E+08
 
   -0.47036E+08         0.12121E+07         0.00000E+00
    0.12121E+07        -0.49970E+08         0.00000E+00
    0.00000E+00         0.00000E+00        -0.47329E+08
 
   -0.47047E+08         0.12640E+07         0.00000E+00
    0.12640E+07        -0.49967E+08         0.00000E+00
    0.00000E+00         0.00000E+00        -0.47331E+08
 
   -0.47059E+08         0.13157E+07         0.00000E+00
    0.13157E+07        -0.49965E+08         0.00000E+00
    0.00000E+00         0.00000E+00        -0.47333E+08
 
   -0.47070E+08         0.13673E+07         0.00000E+00
    0.13673E+07        -0.49962E+08         0.00000E+00
    0.00000E+00         0.00000E+00        -0.47335E+08
 
   -0.47081E+08         0.14187E+07         0.00000E+00
    0.14187E+07        -0.49959E+08         0.00000E+00
    0.00000E+00         0.00000E+00        -0.47336E+08
 
   -0.47092E+08         0.14699E+07         0.00000E+00
    0.14699E+07        -0.49955E+08         0.00000E+00
    0.00000E+00         0.00000E+00        -0.47338E+08
 
   -0.47104E+08         0.15209E+07         0.00000E+00
    0.15209E+07        -0.49952E+08         0.00000E+00
    0.00000E+00         0.00000E+00        -0.47340E+08
 
   -0.47116E+08         0.15718E+07         0.00000E+00
    0.15718E+07        -0.49949E+08         0.00000E+00
    0.00000E+00         0.00000E+00        -0.47341E+08
 
   -0.47127E+08         0.16225E+07         0.00000E+00
    0.16225E+07        -0.49945E+08         0.00000E+00
    0.00000E+00         0.00000E+00        -0.47343E+08
 
   -0.47139E+08         0.16730E+07         0.00000E+00
    0.16730E+07        -0.49942E+08         0.00000E+00
    0.00000E+00         0.00000E+00        -0.47345E+08
 
   -0.47151E+08         0.17233E+07         0.00000E+00
    0.17233E+07        -0.49938E+08         0.00000E+00
    0.00000E+00         0.00000E+00        -0.47347E+08
 
   -0.47163E+08         0.17735E+07         0.00000E+00
    0.17735E+07        -0.49934E+08         0.00000E+00
    0.00000E+00         0.00000E+00        -0.47348E+08
 
   -0.47175E+08         0.18235E+07         0.00000E+00
    0.18235E+07        -0.49930E+08         0.00000E+00
    0.00000E+00         0.00000E+00        -0.47350E+08
 
   -0.47187E+08         0.18733E+07         0.00000E+00
    0.18733E+07        -0.49926E+08         0.00000E+00
    0.00000E+00         0.00000E+00        -0.47352E+08
 
   -0.47199E+08         0.19229E+07         0.00000E+00
    0.19229E+07        -0.49921E+08         0.00000E+00
    0.00000E+00         0.00000E+00        -0.47353E+08
 
   -0.47212E+08         0.19724E+07         0.00000E+00
    0.19724E+07        -0.49917E+08         0.00000E+00
    0.00000E+00         0.00000E+00        -0.47355E+08
 
   -0.47224E+08         0.20217E+07         0.00000E+00
    0.20217E+07        -0.49913E+08         0.00000E+00
    0.00000E+00         0.00000E+00        -0.47356E+08
 
   -0.47237E+08         0.20708E+07         0.00000E+00
    0.20708E+07        -0.49908E+08         0.00000E+00
    0.00000E+00         0.00000E+00        -0.47358E+08
 
   -0.47249E+08         0.21197E+07         0.00000E+00
    0.21197E+07        -0.49903E+08         0.00000E+00
    0.00000E+00         0.00000E+00        -0.47360E+08
 
   -0.47262E+08         0.21684E+07         0.00000E+00
    0.21684E+07        -0.49898E+08         0.00000E+00
    0.00000E+00         0.00000E+00        -0.47361E+08
 
   -0.47275E+08         0.22170E+07         0.00000E+00
    0.22170E+07        -0.49893E+08         0.00000E+00
    0.00000E+00         0.00000E+00        -0.47363E+08
 
   -0.47288E+08         0.22653E+07         0.00000E+00
    0.22653E+07        -0.49888E+08         0.00000E+00
    0.00000E+00         0.00000E+00        -0.47365E+08
 
   -0.47301E+08         0.23135E+07         0.00000E+00
    0.23135E+07        -0.49883E+08         0.00000E+00
    0.00000E+00         0.00000E+00        -0.47366E+08
 
   -0.47314E+08         0.23615E+07         0.00000E+00
    0.23615E+07        -0.49877E+08         0.00000E+00
    0.00000E+00         0.00000E+00        -0.47368E+08
 
   -0.47327E+08         0.24093E+07         0.00000E+00
    0.24093E+07        -0.49872E+08         0.00000E+00
    0.00000E+00         0.00000E+00        -0.47369E+08
 
   -0.47341E+08         0.24569E+07         0.00000E+00
    0.24569E+07        -0.49866E+08         0.00000E+00
    0.00000E+00         0.00000E+00        -0.47371E+08
 
   -0.47354E+08         0.25043E+07         0.00000E+00
    0.25043E+07        -0.49860E+08         0.00000E+00
    0.00000E+00         0.00000E+00        -0.47372E+08
 
   -0.47368E+08         0.25516E+07         0.00000E+00
    0.25516E+07        -0.49854E+08         0.00000E+00
    0.00000E+00         0.00000E+00        -0.47374E+08
 
   -0.46538E+08         0.28277E+05         0.00000E+00
    0.28277E+05        -0.50000E+08         0.00000E+00
    0.00000E+00         0.00000E+00        -0.47047E+08
 
   -0.46547E+08         0.84447E+05         0.00000E+00
    0.84447E+05        -0.50000E+08         0.00000E+00
    0.00000E+00         0.00000E+00        -0.47049E+08
 
   -0.46557E+08         0.14045E+06         0.00000E+00
    0.14045E+06        -0.50000E+08         0.00000E+00
    0.00000E+00         0.00000E+00        -0.47051E+08
 
   -0.46567E+08         0.19629E+06         0.00000E+00
    0.19629E+06        -0.49999E+08         0.00000E+00
    0.00000E+00         0.00000E+00        -0.47053E+08
 
   -0.46577E+08         0.25197E+06         0.00000E+00
    0.25197E+06        -0.49999E+08         0.00000E+00
    0.00000E+00         0.00000E+00        -0.47054E+08
 
   -0.46587E+08         0.30748E+06         0.00000E+00
    0.30748E+06        -0.49998E+08         0.00000E+00
    0.00000E+00         0.00000E+00        -0.47056E+08
 
   -0.46598E+08         0.36283E+06         0.00000E+00
    0.36283E+06        -0.49997E+08         0.00000E+00
    0.00000E+00         0.00000E+00        -0.47058E+08
 
   -0.46608E+08         0.41801E+06         0.00000E+00
    0.41801E+06        -0.49996E+08         0.00000E+00
    0.00000E+00         0.00000E+00        -0.47060E+08
 
   -0.46618E+08         0.47302E+06         0.00000E+00
    0.47302E+06        -0.49995E+08         0.00000E+00
    0.00000E+00         0.00000E+00        -0.47062E+08
 
   -0.46629E+08         0.52787E+06         0.00000E+00
    0.52787E+06        -0.49994E+08         0.00000E+00
    0.00000E+00         0.00000E+00        -0.47064E+08
 
   -0.46640E+08         0.58255E+06         0.00000E+00
    0.58255E+06        -0.49993E+08         0.00000E+00
    0.00000E+00         0.00000E+00        -0.47066E+08
 
   -0.46650E+08         0.63707E+06         0.00000E+00
    0.63707E+06        -0.49992E+08         0.00000E+00
    0.00000E+00         0.00000E+00        -0.47068E+08
 
   -0.46661E+08         0.69142E+06         0.00000E+00
    0.69142E+06        -0.49990E+08         0.00000E+00
    0.00000E+00         0.00000E+00        -0.47070E+08
 
   -0.46672E+08         0.74560E+06         0.00000E+00
    0.74560E+06        -0.49989E+08         0.00000E+00
    0.00000E+00         0.00000E+00        -0.47072E+08
 
   -0.46683E+08         0.79962E+06         0.00000E+00
    0.79962E+06        -0.49987E+08         0.00000E+00
    0.00000E+00         0.00000E+00        -0.47074E+08
 
   -0.46694E+08         0.85346E+06         0.00000E+00
    0.85346E+06        -0.49985E+08         0.00000E+00
    0.00000E+00         0.00000E+00        -0.47076E+08
 
   -0.46706E+08         0.90715E+06         0.00000E+00
    0.90715E+06        -0.49983E+08         0.00000E+00
    0.00000E+00         0.00000E+00        -0.47078E+08
 
   -0.46717E+08         0.96066E+06         0.00000E+00
    0.96066E+06        -0.49981E+08         0.00000E+00
    0.00000E+00         0.00000E+00        -0.47080E+08
 
   -0.46728E+08         0.10140E+07         0.00000E+00
    0.10140E+07        -0.49979E+08         0.00000E+00
    0.00000E+00         0.00000E+00        -0.47081E+08
 
   -0.46740E+08         0.10672E+07         0.00000E+00
    0.10672E+07        -0.49976E+08         0.00000E+00
    0.00000E+00         0.00000E+00        -0.47083E+08
 
   -0.46751E+08         0.11202E+07         0.00000E+00
    0.11202E+07        -0.49974E+08         0.00000E+00
    0.00000E+00         0.00000E+00        -0.47085E+08
 
   -0.46763E+08         0.11730E+07         0.00000E+00
    0.11730E+07        -0.49971E+08         0.00000E+00
    0.00000E+00         0.00000E+00        -0.47087E+08
 
   -0.46775E+08         0.12257E+07         0.00000E+00
    0.12257E+07        -0.49968E+08         0.00000E+00
    0.00000E+00         0.00000E+00        -0.47089E+08
 
   -0.46787E+08         0.12782E+07         0.00000E+00
    0.12782E+07        -0.49965E+08         0.00000E+00
    0.00000E+00         0.00000E+00        -0.47091E+08
 
   -0.46799E+08         0.13306E+07         0.00000E+00
    0.13306E+07        -0.49962E+08         0.00000E+00
    0.00000E+00         0.00000E+00        -0.47093E+08
 
   -0.46811E+08         0.13827E+07         0.00000E+00
    0.13827E+07        -0.49959E+08         0.00000E+00
    0.00000E+00         0.00000E+00        -0.47095E+08
 
   -0.46823E+08         0.14347E+07         0.00000E+00
    0.14347E+07        -0.49956E+08         0.00000E+00
    0.00000E+00         0.00000E+00        -0.47096E+08
 
   -0.46835E+08         0.14866E+07         0.00000E+00
    0.14866E+07        -0.49953E+08         0.00000E+00
    0.00000E+00         0.00000E+00        -0.47098E+08
 
   -0.46848E+08         0.15382E+07         0.00000E+00
    0.15382E+07        -0.49949E+08         0.00000E+00
    0.00000E+00         0.00000E+00        -0.47100E+08
 
   -0.46860E+08         0.15897E+07         0.00000E+00
    0.15897E+07        -0.49946E+08         0.00000E+00
    0.00000E+00         0.00000E+00        -0.47102E+08
 
   -0.46873E+08         0.16410E+07         0.00000E+00
    0.16410E+07        -0.49942E+08         0.00000E+00
    0.00000E+00         0.00000E+00        -0.47104E+08
 
   -0.46885E+08         0.16922E+07         0.00000E+00
    0.16922E+07        -0.49938E+08         0.00000E+00
    0.00000E+00         0.00000E+00        -0.47106E+08
 
   -0.46898E+08         0.17431E+07         0.00000E+00
    0.17431E+07        -0.49934E+08         0.00000E+00
    0.00000E+00         0.00000E+00        -0.47108E+08
 
   -0.46911E+08         0.17939E+07         0.00000E+00
    0.17939E+07        -0.49930E+08         0.00000E+00
    0.00000E+00         0.00000E+00        -0.47109E+08
 
   -0.46924E+08         0.18446E+07         0.00000E+00
    0.18446E+07        -0.49926E+08         0.00000E+00
    0.00000E+00         0.00000E+00        -0.47111E+08
 
   -0.46937E+08         0.18950E+07         0.00000E+00
    0.18950E+07        -0.49921E+08         0.00000E+00
    0.00000E+00         0.00000E+00        -0.47113E+08
 
   -0.46950E+08         0.19453E+07         0.00000E+00
    0.19453E+07        -0.49917E+08         0.00000E+00
    0.00000E+00         0.00000E+00        -0.47115E+08
 
   -0.46963E+08         0.19954E+07         0.00000E+00
    0.19954E+07        -0.49912E+08         0.00000E+00
    0.00000E+00         0.00000E+00        -0.47116E+08
 
   -0.46977E+08         0.20453E+07         0.00000E+00
    0.20453E+07        -0.49907E+08         0.00000E+00
    0.00000E+00         0.00000E+00        -0.47118E+08
 
   -0.46990E+08         0.20951E+07         0.00000E+00
    0.20951E+07        -0.49902E+08         0.00000E+00
    0.00000E+00         0.00000E+00        -0.47120E+08
 
   -0.47004E+08         0.21447E+07         0.00000E+00
    0.21447E+07        -0.49897E+08         0.00000E+00
    0.00000E+00         0.00000E+00        -0.47122E+08
 
   -0.47017E+08         0.21941E+07         0.00000E+00
    0.21941E+07        -0.49892E+08         0.00000E+00
    0.00000E+00         0.00000E+00        -0.47123E+08
 
   -0.47031E+08         0.22433E+07         0.00000E+00
    0.22433E+07        -0.49886E+08         0.00000E+00
    0.00000E+00         0.00000E+00        -0.47125E+08
 
   -0.47045E+08         0.22923E+07         0.00000E+00
    0.22923E+07        -0.49881E+08         0.00000E+00
    0.00000E+00         0.00000E+00        -0.47127E+08
 
   -0.47059E+08         0.23412E+07         0.00000E+00
    0.23412E+07        -0.49875E+08         0.00000E+00
    0.00000E+00         0.00000E+00        -0.47129E+08
 
   -0.47073E+08         0.23899E+07         0.00000E+00
    0.23899E+07        -0.49870E+08         0.00000E+00
    0.00000E+00         0.00000E+00        -0.47130E+08
 
   -0.47087E+08         0.24384E+07         0.00000E+00
    0.24384E+07        -0.49864E+08         0.00000E+00
    0.00000E+00         0.00000E+00        -0.47132E+08
 
   -0.47101E+08         0.24867E+07         0.00000E+00
    0.24867E+07        -0.49858E+08         0.00000E+00
    0.00000E+00         0.00000E+00        -0.47134E+08
 
   -0.47116E+08         0.25348E+07         0.00000E+00
    0.25348E+07        -0.49851E+08         0.00000E+00
    0.00000E+00         0.00000E+00        -0.47135E+08
 
   -0.47130E+08         0.25827E+07         0.00000E+00
    0.25827E+07        -0.49845E+08         0.00000E+00
    0.00000E+00         0.00000E+00        -0.47137E+08
 
   -0.46255E+08         0.28607E+05         0.00000E+00
    0.28607E+05        -0.50000E+08         0.00000E+00
    0.00000E+00         0.00000E+00        -0.46799E+08
 
   -0.46265E+08         0.85431E+05         0.00000E+00
    0.85431E+05        -0.50000E+08         0.00000E+00
    0.00000E+00         0.00000E+00        -0.46801E+08
 
   -0.46276E+08         0.14209E+06         0.00000E+00
    0.14209E+06        -0.50000E+08         0.00000E+00
    0.00000E+00         0.00000E+00        -0.46804E+08
 
   -0.46287E+08         0.19858E+06         0.00000E+00
    0.19858E+06        -0.49999E+08         0.00000E+00
    0.00000E+00         0.00000E+00        -0.46806E+08
 
   -0.46298E+08         0.25490E+06         0.00000E+00
    0.25490E+06        -0.49999E+08         0.00000E+00
    0.00000E+00         0.00000E+00        -0.46808E+08
 
   -0.46309E+08         0.31105E+06         0.00000E+00
    0.31105E+06        -0.49998E+08         0.00000E+00
    0.00000E+00         0.00000E+00        -0.46810E+08
 
   -0.46320E+08         0.36704E+06         0.00000E+00
    0.36704E+06        -0.49997E+08         0.00000E+00
    0.00000E+00         0.00000E+00        -0.46812E+08
 
   -0.46331E+08         0.42286E+06         0.00000E+00
    0.42286E+06        -0.49996E+08         0.00000E+00
    0.00000E+00         0.00000E+00        -0.46814E+08
 
   -0.46342E+08         0.47851E+06         0.00000E+00
    0.47851E+06        -0.49995E+08         0.00000E+00
    0.00000E+00         0.00000E+00        -0.46816E+08
 
   -0.46354E+08         0.53400E+06         0.00000E+00
    0.53400E+06        -0.49994E+08         0.00000E+00
    0.00000E+00         0.00000E+00        -0.46818E+08
 
   -0.46365E+08         0.58931E+06         0.00000E+00
    0.58931E+06        -0.49993E+08         0.00000E+00
    0.00000E+00         0.00000E+00        -0.46820E+08
 
   -0.46377E+08         0.64447E+06         0.00000E+00
    0.64447E+06        -0.49991E+08         0.00000E+00
    0.00000E+00         0.00000E+00        -0.46822E+08
 
   -0.46388E+08         0.69945E+06         0.00000E+00
    0.69945E+06        -0.49990E+08         0.00000E+00
    0.00000E+00         0.00000E+00        -0.46824E+08
 
   -0.46400E+08         0.75427E+06         0.00000E+00
    0.75427E+06        -0.49988E+08         0.00000E+00
    0.00000E+00         0.00000E+00        -0.46826E+08
 
   -0.46412E+08         0.80892E+06         0.00000E+00
    0.80892E+06        -0.49986E+08         0.00000E+00
    0.00000E+00         0.00000E+00        -0.46829E+08
 
   -0.46424E+08         0.86340E+06         0.00000E+00
    0.86340E+06        -0.49984E+08         0.00000E+00
    0.00000E+00         0.00000E+00        -0.46831E+08
 
   -0.46436E+08         0.91772E+06         0.00000E+00
    0.91772E+06        -0.49982E+08         0.00000E+00
    0.00000E+00         0.00000E+00        -0.46833E+08
 
   -0.46448E+08         0.97187E+06         0.00000E+00
    0.97187E+06        -0.49980E+08         0.00000E+00
    0.00000E+00         0.00000E+00        -0.46835E+08
 
   -0.46460E+08         0.10259E+07         0.00000E+00
    0.10259E+07        -0.49977E+08         0.00000E+00
    0.00000E+00         0.00000E+00        -0.46837E+08
 
   -0.46473E+08         0.10797E+07         0.00000E+00
    0.10797E+07        -0.49975E+08         0.00000E+00
    0.00000E+00         0.00000E+00        -0.46839E+08
 
   -0.46485E+08         0.11333E+07         0.00000E+00
    0.11333E+07        -0.49972E+08         0.00000E+00
    0.00000E+00         0.00000E+00        -0.46841E+08
 
   -0.46498E+08         0.11868E+07         0.00000E+00
    0.11868E+07        -0.49969E+08         0.00000E+00
    0.00000E+00         0.00000E+00        -0.46843E+08
 
   -0.46510E+08         0.12401E+07         0.00000E+00
    0.12401E+07        -0.49967E+08         0.00000E+00
    0.00000E+00         0.00000E+00        -0.46845E+08
 
   -0.46523E+08         0.12933E+07         0.00000E+00
    0.12933E+07        -0.49964E+08         0.00000E+00
    0.00000E+00         0.00000E+00        -0.46847E+08
 
   -0.46536E+08         0.13463E+07         0.00000E+00
    0.13463E+07        -0.49960E+08         0.00000E+00
    0.00000E+00         0.00000E+00        -0.46849E+08
 
   -0.46549E+08         0.13991E+07         0.00000E+00
    0.13991E+07        -0.49957E+08         0.00000E+00
    0.00000E+00         0.00000E+00        -0.46851E+08
 
   -0.46562E+08         0.14517E+07         0.00000E+00
    0.14517E+07        -0.49954E+08         0.00000E+00
    0.00000E+00         0.00000E+00        -0.46853E+08
 
   -0.46575E+08         0.15042E+07         0.00000E+00
    0.15042E+07        -0.49950E+08         0.00000E+00
    0.00000E+00         0.00000E+00        -0.46855E+08
 
   -0.46588E+08         0.15565E+07         0.00000E+00
    0.15565E+07        -0.49946E+08         0.00000E+00
    0.00000E+00         0.00000E+00        -0.46857E+08
 
   -0.46601E+08         0.16087E+07         0.00000E+00
    0.16087E+07        -0.49943E+08         0.00000E+00
    0.00000E+00         0.00000E+00        -0.46859E+08
 
   -0.46615E+08         0.16607E+07         0.00000E+00
    0.16607E+07        -0.49939E+08         0.00000E+00
    0.00000E+00         0.00000E+00        -0.46861E+08
 
   -0.46628E+08         0.17125E+07         0.00000E+00
    0.17125E+07        -0.49935E+08         0.00000E+00
    0.00000E+00         0.00000E+00        -0.46863E+08
 
   -0.46642E+08         0.17641E+07         0.00000E+00
    0.17641E+07        -0.49930E+08         0.00000E+00
    0.00000E+00         0.00000E+00        -0.46865E+08
 
   -0.46656E+08         0.18156E+07         0.00000E+00
    0.18156E+07        -0.49926E+08         0.00000E+00
    0.00000E+00         0.00000E+00        -0.46867E+08
 
   -0.46669E+08         0.18669E+07         0.00000E+00
    0.18669E+07        -0.49921E+08         0.00000E+00
    0.00000E+00         0.00000E+00        -0.46869E+08
 
   -0.46683E+08         0.19181E+07         0.00000E+00
    0.19181E+07        -0.49917E+08         0.00000E+00
    0.00000E+00         0.00000E+00        -0.46871E+08
 
   -0.46697E+08         0.19690E+07         0.00000E+00
    0.19690E+07        -0.49912E+08         0.00000E+00
    0.00000E+00         0.00000E+00        -0.46873E+08
 
   -0.46711E+08         0.20198E+07         0.00000E+00
    0.20198E+07        -0.49907E+08         0.00000E+00
    0.00000E+00         0.00000E+00        -0.46874E+08
 
   -0.46726E+08         0.20705E+07         0.00000E+00
    0.20705E+07        -0.49902E+08         0.00000E+00
    0.00000E+00         0.00000E+00        -0.46876E+08
 
   -0.46740E+08         0.21209E+07         0.00000E+00
    0.21209E+07        -0.49897E+08         0.00000E+00
    0.00000E+00         0.00000E+00        -0.46878E+08
 
   -0.46754E+08         0.21712E+07         0.00000E+00
    0.21712E+07        -0.49891E+08         0.00000E+00
    0.00000E+00         0.00000E+00        -0.46880E+08
 
   -0.46769E+08         0.22213E+07         0.00000E+00
    0.22213E+07        -0.49886E+08         0.00000E+00
    0.00000E+00         0.00000E+00        -0.46882E+08
 
   -0.46784E+08         0.22713E+07         0.00000E+00
    0.22713E+07        -0.49880E+08         0.00000E+00
    0.00000E+00         0.00000E+00        -0.46884E+08
 
   -0.46798E+08         0.23211E+07         0.00000E+00
    0.23211E+07        -0.49874E+08         0.00000E+00
    0.00000E+00         0.00000E+00        -0.46886E+08
 
   -0.46813E+08         0.23706E+07         0.00000E+00
    0.23706E+07        -0.49868E+08         0.00000E+00
    0.00000E+00         0.00000E+00        -0.46887E+08
 
   -0.46828E+08         0.24201E+07         0.00000E+00
    0.24201E+07        -0.49862E+08         0.00000E+00
    0.00000E+00         0.00000E+00        -0.46889E+08
 
   -0.46843E+08         0.24693E+07         0.00000E+00
    0.24693E+07        -0.49856E+08         0.00000E+00
    0.00000E+00         0.00000E+00        -0.46891E+08
 
   -0.46858E+08         0.25184E+07         0.00000E+00
    0.25184E+07        -0.49849E+08         0.00000E+00
    0.00000E+00         0.00000E+00        -0.46893E+08
 
   -0.46874E+08         0.25672E+07         0.00000E+00
    0.25672E+07        -0.49843E+08         0.00000E+00
    0.00000E+00         0.00000E+00        -0.46894E+08
 
   -0.46889E+08         0.26159E+07         0.00000E+00
    0.26159E+07        -0.49836E+08         0.00000E+00
    0.00000E+00         0.00000E+00        -0.46896E+08
 
   -0.45969E+08         0.28955E+05         0.00000E+00
    0.28955E+05        -0.50000E+08         0.00000E+00
    0.00000E+00         0.00000E+00        -0.46548E+08
 
   -0.45980E+08         0.86465E+05         0.00000E+00
    0.86465E+05        -0.50000E+08         0.00000E+00
    0.00000E+00         0.00000E+00        -0.46550E+08
 
   -0.45991E+08         0.14380E+06         0.00000E+00
    0.14380E+06        -0.50000E+08         0.00000E+00
    0.00000E+00         0.00000E+00        -0.46552E+08
 
   -0.46003E+08         0.20097E+06         0.00000E+00
    0.20097E+06        -0.49999E+08         0.00000E+00
    0.00000E+00         0.00000E+00        -0.46555E+08
 
   -0.46015E+08         0.25797E+06         0.00000E+00
    0.25797E+06        -0.49999E+08         0.00000E+00
    0.00000E+00         0.00000E+00        -0.46557E+08
 
   -0.46027E+08         0.31480E+06         0.00000E+00
    0.31480E+06        -0.49998E+08         0.00000E+00
    0.00000E+00         0.00000E+00        -0.46559E+08
 
   -0.46039E+08         0.37146E+06         0.00000E+00
    0.37146E+06        -0.49997E+08         0.00000E+00
    0.00000E+00         0.00000E+00        -0.46561E+08
 
   -0.46051E+08         0.42796E+06         0.00000E+00
    0.42796E+06        -0.49996E+08         0.00000E+00
    0.00000E+00         0.00000E+00        -0.46564E+08
 
   -0.46063E+08         0.48428E+06         0.00000E+00
    0.48428E+06        -0.49995E+08         0.00000E+00
    0.00000E+00         0.00000E+00        -0.46566E+08
 
   -0.46075E+08         0.54043E+06         0.00000E+00
    0.54043E+06        -0.49994E+08         0.00000E+00
    0.00000E+00         0.00000E+00        -0.46568E+08
 
   -0.46087E+08         0.59642E+06         0.00000E+00
    0.59642E+06        -0.49992E+08         0.00000E+00
    0.00000E+00         0.00000E+00        -0.46570E+08
 
   -0.46100E+08         0.65224E+06         0.00000E+00
    0.65224E+06        -0.49991E+08         0.00000E+00
    0.00000E+00         0.00000E+00        -0.46573E+08
 
   -0.46112E+08         0.70789E+06         0.00000E+00
    0.70789E+06        -0.49989E+08         0.00000E+00
    0.00000E+00         0.00000E+00        -0.46575E+08
 
   -0.46125E+08         0.76337E+06         0.00000E+00
    0.76337E+06        -0.49987E+08         0.00000E+00
    0.00000E+00         0.00000E+00        -0.46577E+08
 
   -0.46137E+08         0.81869E+06         0.00000E+00
    0.81869E+06        -0.49985E+08         0.00000E+00
    0.00000E+00         0.00000E+00        -0.46579E+08
 
   -0.46150E+08         0.87384E+06         0.00000E+00
    0.87384E+06        -0.49983E+08         0.00000E+00
    0.00000E+00         0.00000E+00        -0.46582E+08
 
   -0.46163E+08         0.92882E+06         0.00000E+00
    0.92882E+06        -0.49981E+08         0.00000E+00
    0.00000E+00         0.00000E+00        -0.46584E+08
 
   -0.46176E+08         0.98364E+06         0.00000E+00
    0.98364E+06        -0.49979E+08         0.00000E+00
    0.00000E+00         0.00000E+00        -0.46586E+08
 
   -0.46189E+08         0.10383E+07         0.00000E+00
    0.10383E+07        -0.49976E+08         0.00000E+00
    0.00000E+00         0.00000E+00        -0.46588E+08
 
   -0.46202E+08         0.10928E+07         0.00000E+00
    0.10928E+07        -0.49974E+08         0.00000E+00
    0.00000E+00         0.00000E+00        -0.46590E+08
 
   -0.46216E+08         0.11471E+07         0.00000E+00
    0.11471E+07        -0.49971E+08         0.00000E+00
    0.00000E+00         0.00000E+00        -0.46593E+08
 
   -0.46229E+08         0.12013E+07         0.00000E+00
    0.12013E+07        -0.49968E+08         0.00000E+00
    0.00000E+00         0.00000E+00        -0.46595E+08
 
   -0.46242E+08         0.12553E+07         0.00000E+00
    0.12553E+07        -0.49965E+08         0.00000E+00
    0.00000E+00         0.00000E+00        -0.46597E+08
 
   -0.46256E+08         0.13091E+07         0.00000E+00
    0.13091E+07        -0.49962E+08         0.00000E+00
    0.00000E+00         0.00000E+00        -0.46599E+08
 
   -0.46270E+08         0.13628E+07         0.00000E+00
    0.13628E+07        -0.49959E+08         0.00000E+00
    0.00000E+00         0.00000E+00        -0.46601E+08
 
   -0.46283E+08         0.14163E+07         0.00000E+00
    0.14163E+07        -0.49955E+08         0.00000E+00
    0.00000E+00         0.00000E+00        -0.46603E+08
 
   -0.46297E+08         0.14696E+07         0.00000E+00
    0.14696E+07        -0.49952E+08         0.00000E+00
    0.00000E+00         0.00000E+00        -0.46606E+08
 
   -0.46311E+08         0.15228E+07         0.00000E+00
    0.15228E+07        -0.49948E+08         0.00000E+00
    0.00000E+00         0.00000E+00        -0.46608E+08
 
   -0.46325E+08         0.15758E+07         0.00000E+00
    0.15758E+07        -0.49944E+08         0.00000E+00
    0.00000E+00         0.00000E+00        -0.46610E+08
 
   -0.46339E+08         0.16287E+07         0.00000E+00
    0.16287E+07        -0.49940E+08         0.00000E+00
    0.00000E+00         0.00000E+00        -0.46612E+08
 
   -0.46354E+08         0.16814E+07         0.00000E+00
    0.16814E+07        -0.49936E+08         0.00000E+00
    0.00000E+00         0.00000E+00        -0.46614E+08
 
   -0.46368E+08         0.17339E+07         0.00000E+00
    0.17339E+07        -0.49931E+08         0.00000E+00
    0.00000E+00         0.00000E+00        -0.46616E+08
 
   -0.46382E+08         0.17863E+07         0.00000E+00
    0.17863E+07        -0.49927E+08         0.00000E+00
    0.00000E+00         0.00000E+00        -0.46618E+08
 
   -0.46397E+08         0.18385E+07         0.00000E+00
    0.18385E+07        -0.49922E+08         0.00000E+00
    0.00000E+00         0.00000E+00        -0.46620E+08
 
   -0.46411E+08         0.18905E+07         0.00000E+00
    0.18905E+07        -0.49918E+08         0.00000E+00
    0.00000E+00         0.00000E+00        -0.46622E+08
 
   -0.46426E+08         0.19424E+07         0.00000E+00
    0.19424E+07        -0.49913E+08         0.00000E+00
    0.00000E+00         0.00000E+00        -0.46624E+08
 
   -0.46441E+08         0.19941E+07         0.00000E+00
    0.19941E+07        -0.49908E+08         0.00000E+00
    0.00000E+00         0.00000E+00        -0.46626E+08
 
   -0.46456E+08         0.20456E+07         0.00000E+00
    0.20456E+07        -0.49902E+08         0.00000E+00
    0.00000E+00         0.00000E+00        -0.46628E+08
 
   -0.46471E+08         0.20970E+07         0.00000E+00
    0.20970E+07        -0.49897E+08         0.00000E+00
    0.00000E+00         0.00000E+00        -0.46630E+08
 
   -0.46486E+08         0.21482E+07         0.00000E+00
    0.21482E+07        -0.49892E+08         0.00000E+00
    0.00000E+00         0.00000E+00        -0.46632E+08
 
   -0.46501E+08         0.21993E+07         0.00000E+00
    0.21993E+07        -0.49886E+08         0.00000E+00
    0.00000E+00         0.00000E+00        -0.46634E+08
 
   -0.46517E+08         0.22502E+07         0.00000E+00
    0.22502E+07        -0.49880E+08         0.00000E+00
    0.00000E+00         0.00000E+00        -0.46636E+08
 
   -0.46532E+08         0.23009E+07         0.00000E+00
    0.23009E+07        -0.49874E+08         0.00000E+00
    0.00000E+00         0.00000E+00        -0.46638E+08
 
   -0.46548E+08         0.23514E+07         0.00000E+00
    0.23514E+07        -0.49868E+08         0.00000E+00
    0.00000E+00         0.00000E+00        -0.46640E+08
 
   -0.46564E+08         0.24018E+07         0.00000E+00
    0.24018E+07        -0.49862E+08         0.00000E+00
    0.00000E+00         0.00000E+00        -0.46642E+08
 
   -0.46580E+08         0.24520E+07         0.00000E+00
    0.24520E+07        -0.49855E+08         0.00000E+00
    0.00000E+00         0.00000E+00        -0.46644E+08
 
   -0.46596E+08         0.25021E+07         0.00000E+00
    0.25021E+07        -0.49848E+08         0.00000E+00
    0.00000E+00         0.00000E+00        -0.46646E+08
 
   -0.46612E+08         0.25520E+07         0.00000E+00
    0.25520E+07        -0.49842E+08         0.00000E+00
    0.00000E+00         0.00000E+00        -0.46648E+08
 
   -0.46628E+08         0.26017E+07         0.00000E+00
    0.26017E+07        -0.49835E+08         0.00000E+00
    0.00000E+00         0.00000E+00        -0.46650E+08
 
   -0.46644E+08         0.26512E+07         0.00000E+00
    0.26512E+07        -0.49827E+08         0.00000E+00
    0.00000E+00         0.00000E+00        -0.46651E+08
 
   -0.45679E+08         0.29318E+05         0.00000E+00
    0.29318E+05        -0.50000E+08         0.00000E+00
    0.00000E+00         0.00000E+00        -0.46292E+08
 
   -0.45691E+08         0.87546E+05         0.00000E+00
    0.87546E+05        -0.50000E+08         0.00000E+00
    0.00000E+00         0.00000E+00        -0.46295E+08
 
   -0.45703E+08         0.14560E+06         0.00000E+00
    0.14560E+06        -0.50000E+08         0.00000E+00
    0.00000E+00         0.00000E+00        -0.46297E+08
 
   -0.45716E+08         0.20348E+06         0.00000E+00
    0.20348E+06        -0.49999E+08         0.00000E+00
    0.00000E+00         0.00000E+00        -0.46299E+08
 
   -0.45728E+08         0.26119E+06         0.00000E+00
    0.26119E+06        -0.49998E+08         0.00000E+00
    0.00000E+00         0.00000E+00        -0.46302E+08
 
   -0.45741E+08         0.31872E+06         0.00000E+00
    0.31872E+06        -0.49998E+08         0.00000E+00
    0.00000E+00         0.00000E+00        -0.46304E+08
 
   -0.45754E+08         0.37608E+06         0.00000E+00
    0.37608E+06        -0.49997E+08         0.00000E+00
    0.00000E+00         0.00000E+00        -0.46307E+08
 
   -0.45767E+08         0.43327E+06         0.00000E+00
    0.43327E+06        -0.49996E+08         0.00000E+00
    0.00000E+00         0.00000E+00        -0.46309E+08
 
   -0.45780E+08         0.49030E+06         0.00000E+00
    0.49030E+06        -0.49995E+08         0.00000E+00
    0.00000E+00         0.00000E+00        -0.46312E+08
 
   -0.45793E+08         0.54715E+06         0.00000E+00
    0.54715E+06        -0.49993E+08         0.00000E+00
    0.00000E+00         0.00000E+00        -0.46314E+08
 
   -0.45806E+08         0.60383E+06         0.00000E+00
    0.60383E+06        -0.49992E+08         0.00000E+00
    0.00000E+00         0.00000E+00        -0.46316E+08
 
   -0.45819E+08         0.66034E+06         0.00000E+00
    0.66034E+06        -0.49990E+08         0.00000E+00
    0.00000E+00         0.00000E+00        -0.46319E+08
 
   -0.45833E+08         0.71669E+06         0.00000E+00
    0.71669E+06        -0.49989E+08         0.00000E+00
    0.00000E+00         0.00000E+00        -0.46321E+08
 
   -0.45846E+08         0.77287E+06         0.00000E+00
    0.77287E+06        -0.49987E+08         0.00000E+00
    0.00000E+00         0.00000E+00        -0.46324E+08
 
   -0.45860E+08         0.82888E+06         0.00000E+00
    0.82888E+06        -0.49985E+08         0.00000E+00
    0.00000E+00         0.00000E+00        -0.46326E+08
 
   -0.45873E+08         0.88473E+06         0.00000E+00
    0.88473E+06        -0.49983E+08         0.00000E+00
    0.00000E+00         0.00000E+00        -0.46328E+08
 
   -0.45887E+08         0.94041E+06         0.00000E+00
    0.94041E+06        -0.49980E+08         0.00000E+00
    0.00000E+00         0.00000E+00        -0.46331E+08
 
   -0.45901E+08         0.99593E+06         0.00000E+00
    0.99593E+06        -0.49978E+08         0.00000E+00
    0.00000E+00         0.00000E+00        -0.46333E+08
 
   -0.45915E+08         0.10513E+07         0.00000E+00
    0.10513E+07        -0.49975E+08         0.00000E+00
    0.00000E+00         0.00000E+00        -0.46335E+08
 
   -0.45929E+08         0.11065E+07         0.00000E+00
    0.11065E+07        -0.49973E+08         0.00000E+00
    0.00000E+00         0.00000E+00        -0.46338E+08
 
   -0.45943E+08         0.11615E+07         0.00000E+00
    0.11615E+07        -0.49970E+08         0.00000E+00
    0.00000E+00         0.00000E+00        -0.46340E+08
 
   -0.45957E+08         0.12164E+07         0.00000E+00
    0.12164E+07        -0.49967E+08         0.00000E+00
    0.00000E+00         0.00000E+00        -0.46342E+08
 
   -0.45971E+08         0.12711E+07         0.00000E+00
    0.12711E+07        -0.49964E+08         0.00000E+00
    0.00000E+00         0.00000E+00        -0.46345E+08
 
   -0.45985E+08         0.13256E+07         0.00000E+00
    0.13256E+07        -0.49960E+08         0.00000E+00
    0.00000E+00         0.00000E+00        -0.46347E+08
 
   -0.46000E+08         0.13800E+07         0.00000E+00
    0.13800E+07        -0.49957E+08         0.00000E+00
    0.00000E+00         0.00000E+00        -0.46349E+08
 
   -0.46014E+08         0.14343E+07         0.00000E+00
    0.14343E+07        -0.49953E+08         0.00000E+00
    0.00000E+00         0.00000E+00        -0.46352E+08
 
   -0.46029E+08         0.14883E+07         0.00000E+00
    0.14883E+07        -0.49950E+08         0.00000E+00
    0.00000E+00         0.00000E+00        -0.46354E+08
 
   -0.46044E+08         0.15422E+07         0.00000E+00
    0.15422E+07        -0.49946E+08         0.00000E+00
    0.00000E+00         0.00000E+00        -0.46356E+08
 
   -0.46059E+08         0.15960E+07         0.00000E+00
    0.15960E+07        -0.49942E+08         0.00000E+00
    0.00000E+00         0.00000E+00        -0.46358E+08
 
   -0.46074E+08         0.16496E+07         0.00000E+00
    0.16496E+07        -0.49937E+08         0.00000E+00
    0.00000E+00         0.00000E+00        -0.46361E+08
 
   -0.46089E+08         0.17030E+07         0.00000E+00
    0.17030E+07        -0.49933E+08         0.00000E+00
    0.00000E+00         0.00000E+00        -0.46363E+08
 
   -0.46104E+08         0.17563E+07         0.00000E+00
    0.17563E+07        -0.49929E+08         0.00000E+00
    0.00000E+00         0.00000E+00        -0.46365E+08
 
   -0.46119E+08         0.18094E+07         0.00000E+00
    0.18094E+07        -0.49924E+08         0.00000E+00
    0.00000E+00         0.00000E+00        -0.46367E+08
 
   -0.46134E+08         0.18624E+07         0.00000E+00
    0.18624E+07        -0.49919E+08         0.00000E+00
    0.00000E+00         0.00000E+00        -0.46369E+08
 
   -0.46150E+08         0.19152E+07         0.00000E+00
    0.19152E+07        -0.49914E+08         0.00000E+00
    0.00000E+00         0.00000E+00        -0.46372E+08
 
   -0.46165E+08         0.19678E+07         0.00000E+00
    0.19678E+07        -0.49909E+08         0.00000E+00
    0.00000E+00         0.00000E+00        -0.46374E+08
 
   -0.46181E+08         0.20203E+07         0.00000E+00
    0.20203E+07        -0.49904E+08         0.00000E+00
    0.00000E+00         0.00000E+00        -0.46376E+08
 
   -0.46197E+08         0.20727E+07         0.00000E+00
    0.20727E+07        -0.49898E+08         0.00000E+00
    0.00000E+00         0.00000E+00        -0.46378E+08
 
   -0.46212E+08         0.21249E+07         0.00000E+00
    0.21249E+07        -0.49893E+08         0.00000E+00
    0.00000E+00         0.00000E+00        -0.46380E+08
 
   -0.46228E+08         0.21769E+07         0.00000E+00
    0.21769E+07        -0.49887E+08         0.00000E+00
    0.00000E+00         0.00000E+00        -0.46382E+08
 
   -0.46245E+08         0.22288E+07         0.00000E+00
    0.22288E+07        -0.49881E+08         0.00000E+00
    0.00000E+00         0.00000E+00        -0.46384E+08
 
   -0.46261E+08         0.22805E+07         0.00000E+00
    0.22805E+07        -0.49875E+08         0.00000E+00
    0.00000E+00         0.00000E+00        -0.46386E+08
 
   -0.46277E+08         0.23320E+07         0.00000E+00
    0.23320E+07        -0.49869E+08         0.00000E+00
    0.00000E+00         0.00000E+00        -0.46389E+08
 
   -0.46293E+08         0.23834E+07         0.00000E+00
    0.23834E+07        -0.49862E+08         0.00000E+00
    0.00000E+00         0.00000E+00        -0.46391E+08
 
   -0.46310E+08         0.24346E+07         0.00000E+00
    0.24346E+07        -0.49855E+08         0.00000E+00
    0.00000E+00         0.00000E+00        -0.46393E+08
 
   -0.46327E+08         0.24857E+07         0.00000E+00
    0.24857E+07        -0.49849E+08         0.00000E+00
    0.00000E+00         0.00000E+00        -0.46395E+08
 
   -0.46344E+08         0.25366E+07         0.00000E+00
    0.25366E+07        -0.49842E+08         0.00000E+00
    0.00000E+00         0.00000E+00        -0.46397E+08
 
   -0.46360E+08         0.25873E+07         0.00000E+00
    0.25873E+07        -0.49834E+08         0.00000E+00
    0.00000E+00         0.00000E+00        -0.46399E+08
 
   -0.46378E+08         0.26379E+07         0.00000E+00
    0.26379E+07        -0.49827E+08         0.00000E+00
    0.00000E+00         0.00000E+00        -0.46401E+08
 
   -0.46395E+08         0.26883E+07         0.00000E+00
    0.26883E+07        -0.49820E+08         0.00000E+00
    0.00000E+00         0.00000E+00        -0.46402E+08
 
   -0.45385E+08         0.29696E+05         0.00000E+00
    0.29696E+05        -0.50000E+08         0.00000E+00
    0.00000E+00         0.00000E+00        -0.46032E+08
 
   -0.45399E+08         0.88667E+05         0.00000E+00
    0.88667E+05        -0.50000E+08         0.00000E+00
    0.00000E+00         0.00000E+00        -0.46034E+08
 
   -0.45412E+08         0.14746E+06         0.00000E+00
    0.14746E+06        -0.49999E+08         0.00000E+00
    0.00000E+00         0.00000E+00        -0.46037E+08
 
   -0.45425E+08         0.20608E+06         0.00000E+00
    0.20608E+06        -0.49999E+08         0.00000E+00
    0.00000E+00         0.00000E+00        -0.46040E+08
 
   -0.45439E+08         0.26452E+06         0.00000E+00
    0.26452E+06        -0.49998E+08         0.00000E+00
    0.00000E+00         0.00000E+00        -0.46042E+08
 
   -0.45452E+08         0.32278E+06         0.00000E+00
    0.32278E+06        -0.49998E+08         0.00000E+00
    0.00000E+00         0.00000E+00        -0.46045E+08
 
   -0.45466E+08         0.38087E+06         0.00000E+00
    0.38087E+06        -0.49997E+08         0.00000E+00
    0.00000E+00         0.00000E+00        -0.46047E+08
 
   -0.45479E+08         0.43879E+06         0.00000E+00
    0.43879E+06        -0.49996E+08         0.00000E+00
    0.00000E+00         0.00000E+00        -0.46050E+08
 
   -0.45493E+08         0.49654E+06         0.00000E+00
    0.49654E+06        -0.49995E+08         0.00000E+00
    0.00000E+00         0.00000E+00        -0.46053E+08
 
   -0.45507E+08         0.55411E+06         0.00000E+00
    0.55411E+06        -0.49993E+08         0.00000E+00
    0.00000E+00         0.00000E+00        -0.46055E+08
 
   -0.45521E+08         0.61152E+06         0.00000E+00
    0.61152E+06        -0.49992E+08         0.00000E+00
    0.00000E+00         0.00000E+00        -0.46058E+08
 
   -0.45535E+08         0.66875E+06         0.00000E+00
    0.66875E+06        -0.49990E+08         0.00000E+00
    0.00000E+00         0.00000E+00        -0.46060E+08
 
   -0.45549E+08         0.72582E+06         0.00000E+00
    0.72582E+06        -0.49988E+08         0.00000E+00
    0.00000E+00         0.00000E+00        -0.46063E+08
 
   -0.45564E+08         0.78272E+06         0.00000E+00
    0.78272E+06        -0.49986E+08         0.00000E+00
    0.00000E+00         0.00000E+00        -0.46065E+08
 
   -0.45578E+08         0.83946E+06         0.00000E+00
    0.83946E+06        -0.49984E+08         0.00000E+00
    0.00000E+00         0.00000E+00        -0.46068E+08
 
   -0.45593E+08         0.89603E+06         0.00000E+00
    0.89603E+06        -0.49982E+08         0.00000E+00
    0.00000E+00         0.00000E+00        -0.46070E+08
 
   -0.45607E+08         0.95244E+06         0.00000E+00
    0.95244E+06        -0.49980E+08         0.00000E+00
    0.00000E+00         0.00000E+00        -0.46073E+08
 
   -0.45622E+08         0.10087E+07         0.00000E+00
    0.10087E+07        -0.49977E+08         0.00000E+00
    0.00000E+00         0.00000E+00        -0.46076E+08
 
   -0.45636E+08         0.10648E+07         0.00000E+00
    0.10648E+07        -0.49974E+08         0.00000E+00
    0.00000E+00         0.00000E+00        -0.46078E+08
 
   -0.45651E+08         0.11207E+07         0.00000E+00
    0.11207E+07        -0.49972E+08         0.00000E+00
    0.00000E+00         0.00000E+00        -0.46081E+08
 
   -0.45666E+08         0.11765E+07         0.00000E+00
    0.11765E+07        -0.49969E+08         0.00000E+00
    0.00000E+00         0.00000E+00        -0.46083E+08
 
   -0.45681E+08         0.12321E+07         0.00000E+00
    0.12321E+07        -0.49966E+08         0.00000E+00
    0.00000E+00         0.00000E+00        -0.46085E+08
 
   -0.45696E+08         0.12875E+07         0.00000E+00
    0.12875E+07        -0.49962E+08         0.00000E+00
    0.00000E+00         0.00000E+00        -0.46088E+08
 
   -0.45711E+08         0.13428E+07         0.00000E+00
    0.13428E+07        -0.49959E+08         0.00000E+00
    0.00000E+00         0.00000E+00        -0.46090E+08
 
   -0.45727E+08         0.13979E+07         0.00000E+00
    0.13979E+07        -0.49955E+08         0.00000E+00
    0.00000E+00         0.00000E+00        -0.46093E+08
 
   -0.45742E+08         0.14529E+07         0.00000E+00
    0.14529E+07        -0.49952E+08         0.00000E+00
    0.00000E+00         0.00000E+00        -0.46095E+08
 
   -0.45757E+08         0.15078E+07         0.00000E+00
    0.15078E+07        -0.49948E+08         0.00000E+00
    0.00000E+00         0.00000E+00        -0.46098E+08
 
   -0.45773E+08         0.15624E+07         0.00000E+00
    0.15624E+07        -0.49944E+08         0.00000E+00
    0.00000E+00         0.00000E+00        -0.46100E+08
 
   -0.45788E+08         0.16170E+07         0.00000E+00
    0.16170E+07        -0.49940E+08         0.00000E+00
    0.00000E+00         0.00000E+00        -0.46102E+08
 
   -0.45804E+08         0.16713E+07         0.00000E+00
    0.16713E+07        -0.49935E+08         0.00000E+00
    0.00000E+00         0.00000E+00        -0.46105E+08
 
   -0.45820E+08         0.17256E+07         0.00000E+00
    0.17256E+07        -0.49931E+08         0.00000E+00
    0.00000E+00         0.00000E+00        -0.46107E+08
 
   -0.45836E+08         0.17796E+07         0.00000E+00
    0.17796E+07        -0.49926E+08         0.00000E+00
    0.00000E+00         0.00000E+00        -0.46109E+08
 
   -0.45852E+08         0.18335E+07         0.00000E+00
    0.18335E+07        -0.49921E+08         0.00000E+00
    0.00000E+00         0.00000E+00        -0.46112E+08
 
   -0.45868E+08         0.18873E+07         0.00000E+00
    0.18873E+07        -0.49916E+08         0.00000E+00
    0.00000E+00         0.00000E+00        -0.46114E+08
 
   -0.45884E+08         0.19409E+07         0.00000E+00
    0.19409E+07        -0.49911E+08         0.00000E+00
    0.00000E+00         0.00000E+00        -0.46116E+08
 
   -0.45900E+08         0.19944E+07         0.00000E+00
    0.19944E+07        -0.49906E+08         0.00000E+00
    0.00000E+00         0.00000E+00        -0.46119E+08
 
   -0.45917E+08         0.20477E+07         0.00000E+00
    0.20477E+07        -0.49900E+08         0.00000E+00
    0.00000E+00         0.00000E+00        -0.46121E+08
 
   -0.45933E+08         0.21009E+07         0.00000E+00
    0.21009E+07        -0.49895E+08         0.00000E+00
    0.00000E+00         0.00000E+00        -0.46123E+08
 
   -0.45950E+08         0.21539E+07         0.00000E+00
    0.21539E+07        -0.49889E+08         0.00000E+00
    0.00000E+00         0.00000E+00        -0.46125E+08
 
   -0.45967E+08         0.22068E+07         0.00000E+00
    0.22068E+07        -0.49883E+08         0.00000E+00
    0.00000E+00         0.00000E+00        -0.46128E+08
 
   -0.45983E+08         0.22595E+07         0.00000E+00
    0.22595E+07        -0.49877E+08         0.00000E+00
    0.00000E+00         0.00000E+00        -0.46130E+08
 
   -0.46000E+08         0.23121E+07         0.00000E+00
    0.23121E+07        -0.49870E+08         0.00000E+00
    0.00000E+00         0.00000E+00        -0.46132E+08
 
   -0.46018E+08         0.23645E+07         0.00000E+00
    0.23645E+07        -0.49864E+08         0.00000E+00
    0.00000E+00         0.00000E+00        -0.46134E+08
 
   -0.46035E+08         0.24168E+07         0.00000E+00
    0.24168E+07        -0.49857E+08         0.00000E+00
    0.00000E+00         0.00000E+00        -0.46136E+08
 
   -0.46052E+08         0.24689E+07         0.00000E+00
    0.24689E+07        -0.49850E+08         0.00000E+00
    0.00000E+00         0.00000E+00        -0.46138E+08
 
   -0.46070E+08         0.25209E+07         0.00000E+00
    0.25209E+07        -0.49843E+08         0.00000E+00
    0.00000E+00         0.00000E+00        -0.46141E+08
 
   -0.46087E+08         0.25728E+07         0.00000E+00
    0.25728E+07        -0.49836E+08         0.00000E+00
    0.00000E+00         0.00000E+00        -0.46143E+08
 
   -0.46105E+08         0.26244E+07         0.00000E+00
    0.26244E+07        -0.49828E+08         0.00000E+00
    0.00000E+00         0.00000E+00        -0.46145E+08
 
   -0.46123E+08         0.26759E+07         0.00000E+00
    0.26759E+07        -0.49820E+08         0.00000E+00
    0.00000E+00         0.00000E+00        -0.46147E+08
 
   -0.46141E+08         0.27273E+07         0.00000E+00
    0.27273E+07        -0.49813E+08         0.00000E+00
    0.00000E+00         0.00000E+00        -0.46149E+08
 
   -0.45088E+08         0.30085E+05         0.00000E+00
    0.30085E+05        -0.50000E+08         0.00000E+00
    0.00000E+00         0.00000E+00        -0.45767E+08
 
   -0.45102E+08         0.89824E+05         0.00000E+00
    0.89824E+05        -0.50000E+08         0.00000E+00
    0.00000E+00         0.00000E+00        -0.45769E+08
 
   -0.45116E+08         0.14938E+06         0.00000E+00
    0.14938E+06        -0.49999E+08         0.00000E+00
    0.00000E+00         0.00000E+00        -0.45772E+08
 
   -0.45131E+08         0.20876E+06         0.00000E+00
    0.20876E+06        -0.49999E+08         0.00000E+00
    0.00000E+00         0.00000E+00        -0.45775E+08
 
   -0.45145E+08         0.26795E+06         0.00000E+00
    0.26795E+06        -0.49998E+08         0.00000E+00
    0.00000E+00         0.00000E+00        -0.45778E+08
 
   -0.45159E+08         0.32697E+06         0.00000E+00
    0.32697E+06        -0.49998E+08         0.00000E+00
    0.00000E+00         0.00000E+00        -0.45780E+08
 
   -0.45174E+08         0.38581E+06         0.00000E+00
    0.38581E+06        -0.49997E+08         0.00000E+00
    0.00000E+00         0.00000E+00        -0.45783E+08
 
   -0.45188E+08         0.44448E+06         0.00000E+00
    0.44448E+06        -0.49996E+08         0.00000E+00
    0.00000E+00         0.00000E+00        -0.45786E+08
 
   -0.45203E+08         0.50297E+06         0.00000E+00
    0.50297E+06        -0.49994E+08         0.00000E+00
    0.00000E+00         0.00000E+00        -0.45789E+08
 
   -0.45218E+08         0.56129E+06         0.00000E+00
    0.56129E+06        -0.49993E+08         0.00000E+00
    0.00000E+00         0.00000E+00        -0.45792E+08
 
   -0.45233E+08         0.61944E+06         0.00000E+00
    0.61944E+06        -0.49991E+08         0.00000E+00
    0.00000E+00         0.00000E+00        -0.45794E+08
 
   -0.45248E+08         0.67742E+06         0.00000E+00
    0.67742E+06        -0.49990E+08         0.00000E+00
    0.00000E+00         0.00000E+00        -0.45797E+08
 
   -0.45263E+08         0.73523E+06         0.00000E+00
    0.73523E+06        -0.49988E+08         0.00000E+00
    0.00000E+00         0.00000E+00        -0.45800E+08
 
   -0.45278E+08         0.79288E+06         0.00000E+00
    0.79288E+06        -0.49986E+08         0.00000E+00
    0.00000E+00         0.00000E+00        -0.45802E+08
 
   -0.45293E+08         0.85036E+06         0.00000E+00
    0.85036E+06        -0.49984E+08         0.00000E+00
    0.00000E+00         0.00000E+00        -0.45805E+08
 
   -0.45308E+08         0.90768E+06         0.00000E+00
    0.90768E+06        -0.49982E+08         0.00000E+00
    0.00000E+00         0.00000E+00        -0.45808E+08
 
   -0.45324E+08         0.96483E+06         0.00000E+00
    0.96483E+06        -0.49979E+08         0.00000E+00
    0.00000E+00         0.00000E+00        -0.45810E+08
 
   -0.45339E+08         0.10218E+07         0.00000E+00
    0.10218E+07        -0.49977E+08         0.00000E+00
    0.00000E+00         0.00000E+00        -0.45813E+08
 
   -0.45355E+08         0.10787E+07         0.00000E+00
    0.10787E+07        -0.49974E+08         0.00000E+00
    0.00000E+00         0.00000E+00        -0.45816E+08
 
   -0.45370E+08         0.11354E+07         0.00000E+00
    0.11354E+07        -0.49971E+08         0.00000E+00
    0.00000E+00         0.00000E+00        -0.45818E+08
 
   -0.45386E+08         0.11919E+07         0.00000E+00
    0.11919E+07        -0.49968E+08         0.00000E+00
    0.00000E+00         0.00000E+00        -0.45821E+08
 
   -0.45402E+08         0.12482E+07         0.00000E+00
    0.12482E+07        -0.49965E+08         0.00000E+00
    0.00000E+00         0.00000E+00        -0.45824E+08
 
   -0.45417E+08         0.13045E+07         0.00000E+00
    0.13045E+07        -0.49961E+08         0.00000E+00
    0.00000E+00         0.00000E+00        -0.45826E+08
 
   -0.45433E+08         0.13605E+07         0.00000E+00
    0.13605E+07        -0.49958E+08         0.00000E+00
    0.00000E+00         0.00000E+00        -0.45829E+08
 
   -0.45449E+08         0.14164E+07         0.00000E+00
    0.14164E+07        -0.49954E+08         0.00000E+00
    0.00000E+00         0.00000E+00        -0.45831E+08
 
   -0.45465E+08         0.14722E+07         0.00000E+00
    0.14722E+07        -0.49950E+08         0.00000E+00
    0.00000E+00         0.00000E+00        -0.45834E+08
 
   -0.45482E+08         0.15278E+07         0.00000E+00
    0.15278E+07        -0.49946E+08         0.00000E+00
    0.00000E+00         0.00000E+00        -0.45837E+08
 
   -0.45498E+08         0.15833E+07         0.00000E+00
    0.15833E+07        -0.49942E+08         0.00000E+00
    0.00000E+00         0.00000E+00        -0.45839E+08
 
   -0.45514E+08         0.16386E+07         0.00000E+00
    0.16386E+07        -0.49938E+08         0.00000E+00
    0.00000E+00         0.00000E+00        -0.45842E+08
 
   -0.45531E+08         0.16938E+07         0.00000E+00
    0.16938E+07        -0.49933E+08         0.00000E+00
    0.00000E+00         0.00000E+00        -0.45844E+08
 
   -0.45547E+08         0.17489E+07         0.00000E+00
    0.17489E+07        -0.49929E+08         0.00000E+00
    0.00000E+00         0.00000E+00        -0.45847E+08
 
   -0.45564E+08         0.18038E+07         0.00000E+00
    0.18038E+07        -0.49924E+08         0.00000E+00
    0.00000E+00         0.00000E+00        -0.45849E+08
 
   -0.45580E+08         0.18585E+07         0.00000E+00
    0.18585E+07        -0.49919E+08         0.00000E+00
    0.00000E+00         0.00000E+00        -0.45851E+08
 
   -0.45597E+08         0.19131E+07         0.00000E+00
    0.19131E+07        -0.49914E+08         0.00000E+00
    0.00000E+00         0.00000E+00        -0.45854E+08
 
   -0.45614E+08         0.19676E+07         0.00000E+00
    0.19676E+07        -0.49908E+08         0.00000E+00
    0.00000E+00         0.00000E+00        -0.45856E+08
 
   -0.45631E+08         0.20219E+07         0.00000E+00
    0.20219E+07        -0.49903E+08         0.00000E+00
    0.00000E+00         0.00000E+00        -0.45859E+08
 
   -0.45648E+08         0.20761E+07         0.00000E+00
    0.20761E+07        -0.49897E+08         0.00000E+00
    0.00000E+00         0.00000E+00        -0.45861E+08
 
   -0.45666E+08         0.21302E+07         0.00000E+00
    0.21302E+07        -0.49891E+08         0.00000E+00
    0.00000E+00         0.00000E+00        -0.45863E+08
 
   -0.45683E+08         0.21841E+07         0.00000E+00
    0.21841E+07        -0.49885E+08         0.00000E+00
    0.00000E+00         0.00000E+00        -0.45866E+08
 
   -0.45700E+08         0.22379E+07         0.00000E+00
    0.22379E+07        -0.49879E+08         0.00000E+00
    0.00000E+00         0.00000E+00        -0.45868E+08
 
   -0.45718E+08         0.22915E+07         0.00000E+00
    0.22915E+07        -0.49873E+08         0.00000E+00
    0.00000E+00         0.00000E+00        -0.45870E+08
 
   -0.45736E+08         0.23450E+07         0.00000E+00
    0.23450E+07        -0.49866E+08         0.00000E+00
    0.00000E+00         0.00000E+00        -0.45873E+08
 
   -0.45753E+08         0.23984E+07         0.00000E+00
    0.23984E+07        -0.49859E+08         0.00000E+00
    0.00000E+00         0.00000E+00        -0.45875E+08
 
   -0.45771E+08         0.24516E+07         0.00000E+00
    0.24516E+07        -0.49852E+08         0.00000E+00
    0.00000E+00         0.00000E+00        -0.45877E+08
 
   -0.45789E+08         0.25047E+07         0.00000E+00
    0.25047E+07        -0.49845E+08         0.00000E+00
    0.00000E+00         0.00000E+00        -0.45879E+08
 
   -0.45808E+08         0.25576E+07         0.00000E+00
    0.25576E+07        -0.49838E+08         0.00000E+00
    0.00000E+00         0.00000E+00        -0.45882E+08
 
   -0.45826E+08         0.26104E+07         0.00000E+00
    0.26104E+07        -0.49830E+08         0.00000E+00
    0.00000E+00         0.00000E+00        -0.45884E+08
 
   -0.45844E+08         0.26631E+07         0.00000E+00
    0.26631E+07        -0.49822E+08         0.00000E+00
    0.00000E+00         0.00000E+00        -0.45886E+08
 
   -0.45863E+08         0.27156E+07         0.00000E+00
    0.27156E+07        -0.49814E+08         0.00000E+00
    0.00000E+00         0.00000E+00        -0.45888E+08
 
   -0.45882E+08         0.27680E+07         0.00000E+00
    0.27680E+07        -0.49806E+08         0.00000E+00
    0.00000E+00         0.00000E+00        -0.45890E+08
 
   -0.44787E+08         0.30485E+05         0.00000E+00
    0.30485E+05        -0.50000E+08         0.00000E+00
    0.00000E+00         0.00000E+00        -0.45496E+08
 
   -0.44802E+08         0.91010E+05         0.00000E+00
    0.91010E+05        -0.50000E+08         0.00000E+00
    0.00000E+00         0.00000E+00        -0.45499E+08
 
   -0.44817E+08         0.15135E+06         0.00000E+00
    0.15135E+06        -0.49999E+08         0.00000E+00
    0.00000E+00         0.00000E+00        -0.45502E+08
 
   -0.44832E+08         0.21150E+06         0.00000E+00
    0.21150E+06        -0.49999E+08         0.00000E+00
    0.00000E+00         0.00000E+00        -0.45505E+08
 
   -0.44847E+08         0.27147E+06         0.00000E+00
    0.27147E+06        -0.49998E+08         0.00000E+00
    0.00000E+00         0.00000E+00        -0.45508E+08
 
   -0.44863E+08         0.33126E+06         0.00000E+00
    0.33126E+06        -0.49998E+08         0.00000E+00
    0.00000E+00         0.00000E+00        -0.45511E+08
 
   -0.44878E+08         0.39087E+06         0.00000E+00
    0.39087E+06        -0.49997E+08         0.00000E+00
    0.00000E+00         0.00000E+00        -0.45514E+08
 
   -0.44894E+08         0.45030E+06         0.00000E+00
    0.45030E+06        -0.49996E+08         0.00000E+00
    0.00000E+00         0.00000E+00        -0.45517E+08
 
   -0.44909E+08         0.50955E+06         0.00000E+00
    0.50955E+06        -0.49994E+08         0.00000E+00
    0.00000E+00         0.00000E+00        -0.45520E+08
 
   -0.44925E+08         0.56864E+06         0.00000E+00
    0.56864E+06        -0.49993E+08         0.00000E+00
    0.00000E+00         0.00000E+00        -0.45523E+08
 
   -0.44940E+08         0.62755E+06         0.00000E+00
    0.62755E+06        -0.49991E+08         0.00000E+00
    0.00000E+00         0.00000E+00        -0.45526E+08
 
   -0.44956E+08         0.68629E+06         0.00000E+00
    0.68629E+06        -0.49990E+08         0.00000E+00
    0.00000E+00         0.00000E+00        -0.45528E+08
 
   -0.44972E+08         0.74486E+06         0.00000E+00
    0.74486E+06        -0.49988E+08         0.00000E+00
    0.00000E+00         0.00000E+00        -0.45531E+08
 
   -0.44988E+08         0.80327E+06         0.00000E+00
    0.80327E+06        -0.49986E+08         0.00000E+00
    0.00000E+00         0.00000E+00        -0.45534E+08
 
   -0.45004E+08         0.86152E+06         0.00000E+00
    0.86152E+06        -0.49984E+08         0.00000E+00
    0.00000E+00         0.00000E+00        -0.45537E+08
 
   -0.45020E+08         0.91960E+06         0.00000E+00
    0.91960E+06        -0.49981E+08         0.00000E+00
    0.00000E+00         0.00000E+00        -0.45540E+08
 
   -0.45036E+08         0.97752E+06         0.00000E+00
    0.97752E+06        -0.49979E+08         0.00000E+00
    0.00000E+00         0.00000E+00        -0.45543E+08
 
   -0.45052E+08         0.10353E+07         0.00000E+00
    0.10353E+07        -0.49976E+08         0.00000E+00
    0.00000E+00         0.00000E+00        -0.45546E+08
 
   -0.45069E+08         0.10929E+07         0.00000E+00
    0.10929E+07        -0.49973E+08         0.00000E+00
    0.00000E+00         0.00000E+00        -0.45548E+08
 
   -0.45085E+08         0.11504E+07         0.00000E+00
    0.11504E+07        -0.49970E+08         0.00000E+00
    0.00000E+00         0.00000E+00        -0.45551E+08
 
   -0.45102E+08         0.12077E+07         0.00000E+00
    0.12077E+07        -0.49967E+08         0.00000E+00
    0.00000E+00         0.00000E+00        -0.45554E+08
 
   -0.45118E+08         0.12648E+07         0.00000E+00
    0.12648E+07        -0.49964E+08         0.00000E+00
    0.00000E+00         0.00000E+00        -0.45557E+08
 
   -0.45135E+08         0.13218E+07         0.00000E+00
    0.13218E+07        -0.49961E+08         0.00000E+00
    0.00000E+00         0.00000E+00        -0.45559E+08
 
   -0.45151E+08         0.13787E+07         0.00000E+00
    0.13787E+07        -0.49957E+08         0.00000E+00
    0.00000E+00         0.00000E+00        -0.45562E+08
 
   -0.45168E+08         0.14354E+07         0.00000E+00
    0.14354E+07        -0.49953E+08         0.00000E+00
    0.00000E+00         0.00000E+00        -0.45565E+08
 
   -0.45185E+08         0.14920E+07         0.00000E+00
    0.14920E+07        -0.49949E+08         0.00000E+00
    0.00000E+00         0.00000E+00        -0.45568E+08
 
   -0.45202E+08         0.15484E+07         0.00000E+00
    0.15484E+07        -0.49945E+08         0.00000E+00
    0.00000E+00         0.00000E+00        -0.45570E+08
 
   -0.45219E+08         0.16047E+07         0.00000E+00
    0.16047E+07        -0.49941E+08         0.00000E+00
    0.00000E+00         0.00000E+00        -0.45573E+08
 
   -0.45236E+08         0.16609E+07         0.00000E+00
    0.16609E+07        -0.49937E+08         0.00000E+00
    0.00000E+00         0.00000E+00        -0.45575E+08
 
   -0.45253E+08         0.17169E+07         0.00000E+00
    0.17169E+07        -0.49932E+08         0.00000E+00
    0.00000E+00         0.00000E+00        -0.45578E+08
 
   -0.45270E+08         0.17728E+07         0.00000E+00
    0.17728E+07        -0.49927E+08         0.00000E+00
    0.00000E+00         0.00000E+00        -0.45581E+08
 
   -0.45287E+08         0.18286E+07         0.00000E+00
    0.18286E+07        -0.49922E+08         0.00000E+00
    0.00000E+00         0.00000E+00        -0.45583E+08
 
   -0.45305E+08         0.18842E+07         0.00000E+00
    0.18842E+07        -0.49917E+08         0.00000E+00
    0.00000E+00         0.00000E+00        -0.45586E+08
 
   -0.45322E+08         0.19397E+07         0.00000E+00
    0.19397E+07        -0.49912E+08         0.00000E+00
    0.00000E+00         0.00000E+00        -0.45588E+08
 
   -0.45340E+08         0.19950E+07         0.00000E+00
    0.19950E+07        -0.49906E+08         0.00000E+00
    0.00000E+00         0.00000E+00        -0.45591E+08
 
   -0.45358E+08         0.20503E+07         0.00000E+00
    0.20503E+07        -0.49901E+08         0.00000E+00
    0.00000E+00         0.00000E+00        -0.45593E+08
 
   -0.45375E+08         0.21054E+07         0.00000E+00
    0.21054E+07        -0.49895E+08         0.00000E+00
    0.00000E+00         0.00000E+00        -0.45596E+08
 
   -0.45393E+08         0.21603E+07         0.00000E+00
    0.21603E+07        -0.49889E+08         0.00000E+00
    0.00000E+00         0.00000E+00        -0.45598E+08
 
   -0.45411E+08         0.22152E+07         0.00000E+00
    0.22152E+07        -0.49883E+08         0.00000E+00
    0.00000E+00         0.00000E+00        -0.45601E+08
 
   -0.45429E+08         0.22699E+07         0.00000E+00
    0.22699E+07        -0.49876E+08         0.00000E+00
    0.00000E+00         0.00000E+00        -0.45603E+08
 
   -0.45448E+08         0.23245E+07         0.00000E+00
    0.23245E+07        -0.49870E+08         0.00000E+00
    0.00000E+00         0.00000E+00        -0.45606E+08
 
   -0.45466E+08         0.23790E+07         0.00000E+00
    0.23790E+07        -0.49863E+08         0.00000E+00
    0.00000E+00         0.00000E+00        -0.45608E+08
 
   -0.45484E+08         0.24333E+07         0.00000E+00
    0.24333E+07        -0.49856E+08         0.00000E+00
    0.00000E+00         0.00000E+00        -0.45610E+08
 
   -0.45503E+08         0.24875E+07         0.00000E+00
    0.24875E+07        -0.49849E+08         0.00000E+00
    0.00000E+00         0.00000E+00        -0.45613E+08
 
   -0.45522E+08         0.25416E+07         0.00000E+00
    0.25416E+07        -0.49841E+08         0.00000E+00
    0.00000E+00         0.00000E+00        -0.45615E+08
 
   -0.45541E+08         0.25956E+07         0.00000E+00
    0.25956E+07        -0.49834E+08         0.00000E+00
    0.00000E+00         0.00000E+00        -0.45617E+08
 
   -0.45560E+08         0.26494E+07         0.00000E+00
    0.26494E+07        -0.49826E+08         0.00000E+00
    0.00000E+00         0.00000E+00        -0.45619E+08
 
   -0.45579E+08         0.27032E+07         0.00000E+00
    0.27032E+07        -0.49818E+08         0.00000E+00
    0.00000E+00         0.00000E+00        -0.45622E+08
 
   -0.45598E+08         0.27567E+07         0.00000E+00
    0.27567E+07        -0.49810E+08         0.00000E+00
    0.00000E+00         0.00000E+00        -0.45624E+08
 
   -0.45617E+08         0.28102E+07         0.00000E+00
    0.28102E+07        -0.49801E+08         0.00000E+00
    0.00000E+00         0.00000E+00        -0.45626E+08
 
   -0.44482E+08         0.30892E+05         0.00000E+00
    0.30892E+05        -0.50000E+08         0.00000E+00
    0.00000E+00         0.00000E+00        -0.45220E+08
 
   -0.44498E+08         0.92217E+05         0.00000E+00
    0.92217E+05        -0.50000E+08         0.00000E+00
    0.00000E+00         0.00000E+00        -0.45223E+08
 
   -0.44514E+08         0.15335E+06         0.00000E+00
    0.15335E+06        -0.49999E+08         0.00000E+00
    0.00000E+00         0.00000E+00        -0.45226E+08
 
   -0.44530E+08         0.21429E+06         0.00000E+00
    0.21429E+06        -0.49999E+08         0.00000E+00
    0.00000E+00         0.00000E+00        -0.45230E+08
 
   -0.44546E+08         0.27505E+06         0.00000E+00
    0.27505E+06        -0.49998E+08         0.00000E+00
    0.00000E+00         0.00000E+00        -0.45233E+08
 
   -0.44562E+08         0.33562E+06         0.00000E+00
    0.33562E+06        -0.49998E+08         0.00000E+00
    0.00000E+00         0.00000E+00        -0.45236E+08
 
   -0.44579E+08         0.39601E+06         0.00000E+00
    0.39601E+06        -0.49997E+08         0.00000E+00
    0.00000E+00         0.00000E+00        -0.45239E+08
 
   -0.44595E+08         0.45621E+06         0.00000E+00
    0.45621E+06        -0.49995E+08         0.00000E+00
    0.00000E+00         0.00000E+00        -0.45242E+08
 
   -0.44611E+08         0.51625E+06         0.00000E+00
    0.51625E+06        -0.49994E+08         0.00000E+00
    0.00000E+00         0.00000E+00        -0.45245E+08
 
   -0.44628E+08         0.57610E+06         0.00000E+00
    0.57610E+06        -0.49993E+08         0.00000E+00
    0.00000E+00         0.00000E+00        -0.45248E+08
 
   -0.44644E+08         0.63579E+06         0.00000E+00
    0.63579E+06        -0.49991E+08         0.00000E+00
    0.00000E+00         0.00000E+00        -0.45251E+08
 
   -0.44661E+08         0.69530E+06         0.00000E+00
    0.69530E+06        -0.49989E+08         0.00000E+00
    0.00000E+00         0.00000E+00        -0.45254E+08
 
   -0.44678E+08         0.75465E+06         0.00000E+00
    0.75465E+06        -0.49988E+08         0.00000E+00
    0.00000E+00         0.00000E+00        -0.45257E+08
 
   -0.44694E+08         0.81383E+06         0.00000E+00
    0.81383E+06        -0.49986E+08         0.00000E+00
    0.00000E+00         0.00000E+00        -0.45261E+08
 
   -0.44711E+08         0.87285E+06         0.00000E+00
    0.87285E+06        -0.49983E+08         0.00000E+00
    0.00000E+00         0.00000E+00        -0.45264E+08
 
   -0.44728E+08         0.93172E+06         0.00000E+00
    0.93172E+06        -0.49981E+08         0.00000E+00
    0.00000E+00         0.00000E+00        -0.45267E+08
 
   -0.44745E+08         0.99042E+06         0.00000E+00
    0.99042E+06        -0.49978E+08         0.00000E+00
    0.00000E+00         0.00000E+00        -0.45270E+08
 
   -0.44762E+08         0.10490E+07         0.00000E+00
    0.10490E+07        -0.49976E+08         0.00000E+00
    0.00000E+00         0.00000E+00        -0.45272E+08
 
   -0.44779E+08         0.11074E+07         0.00000E+00
    0.11074E+07        -0.49973E+08         0.00000E+00
    0.00000E+00         0.00000E+00        -0.45275E+08
 
   -0.44796E+08         0.11656E+07         0.00000E+00
    0.11656E+07        -0.49970E+08         0.00000E+00
    0.00000E+00         0.00000E+00        -0.45278E+08
 
   -0.44813E+08         0.12237E+07         0.00000E+00
    0.12237E+07        -0.49967E+08         0.00000E+00
    0.00000E+00         0.00000E+00        -0.45281E+08
 
   -0.44831E+08         0.12817E+07         0.00000E+00
    0.12817E+07        -0.49963E+08         0.00000E+00
    0.00000E+00         0.00000E+00        -0.45284E+08
 
   -0.44848E+08         0.13395E+07         0.00000E+00
    0.13395E+07        -0.49960E+08         0.00000E+00
    0.00000E+00         0.00000E+00        -0.45287E+08
 
   -0.44865E+08         0.13972E+07         0.00000E+00
    0.13972E+07        -0.49956E+08         0.00000E+00
    0.00000E+00         0.00000E+00        -0.45290E+08
 
   -0.44883E+08         0.14548E+07         0.00000E+00
    0.14548E+07        -0.49953E+08         0.00000E+00
    0.00000E+00         0.00000E+00        -0.45293E+08
 
   -0.44900E+08         0.15122E+07         0.00000E+00
    0.15122E+07        -0.49949E+08         0.00000E+00
    0.00000E+00         0.00000E+00        -0.45296E+08
 
   -0.44918E+08         0.15694E+07         0.00000E+00
    0.15694E+07        -0.49944E+08         0.00000E+00
    0.00000E+00         0.00000E+00        -0.45298E+08
 
   -0.44935E+08         0.16266E+07         0.00000E+00
    0.16266E+07        -0.49940E+08         0.00000E+00
    0.00000E+00         0.00000E+00        -0.45301E+08
 
   -0.44953E+08         0.16836E+07         0.00000E+00
    0.16836E+07        -0.49936E+08         0.00000E+00
    0.00000E+00         0.00000E+00        -0.45304E+08
 
   -0.44971E+08         0.17405E+07         0.00000E+00
    0.17405E+07        -0.49931E+08         0.00000E+00
    0.00000E+00         0.00000E+00        -0.45307E+08
 
   -0.44989E+08         0.17973E+07         0.00000E+00
    0.17973E+07        -0.49926E+08         0.00000E+00
    0.00000E+00         0.00000E+00        -0.45309E+08
 
   -0.45007E+08         0.18539E+07         0.00000E+00
    0.18539E+07        -0.49921E+08         0.00000E+00
    0.00000E+00         0.00000E+00        -0.45312E+08
 
   -0.45025E+08         0.19104E+07         0.00000E+00
    0.19104E+07        -0.49916E+08         0.00000E+00
    0.00000E+00         0.00000E+00        -0.45315E+08
 
   -0.45043E+08         0.19668E+07         0.00000E+00
    0.19668E+07        -0.49911E+08         0.00000E+00
    0.00000E+00         0.00000E+00        -0.45317E+08
 
   -0.45061E+08         0.20231E+07         0.00000E+00
    0.20231E+07        -0.49905E+08         0.00000E+00
    0.00000E+00         0.00000E+00        -0.45320E+08
 
   -0.45079E+08         0.20793E+07         0.00000E+00
    0.20793E+07        -0.49899E+08         0.00000E+00
    0.00000E+00         0.00000E+00        -0.45323E+08
 
   -0.45098E+08         0.21353E+07         0.00000E+00
    0.21353E+07        -0.49893E+08         0.00000E+00
    0.00000E+00         0.00000E+00        -0.45325E+08
 
   -0.45116E+08         0.21913E+07         0.00000E+00
    0.21913E+07        -0.49887E+08         0.00000E+00
    0.00000E+00         0.00000E+00        -0.45328E+08
 
   -0.45135E+08         0.22471E+07         0.00000E+00
    0.22471E+07        -0.49881E+08         0.00000E+00
    0.00000E+00         0.00000E+00        -0.45330E+08
 
   -0.45154E+08         0.23028E+07         0.00000E+00
    0.23028E+07        -0.49874E+08         0.00000E+00
    0.00000E+00         0.00000E+00        -0.45333E+08
 
   -0.45172E+08         0.23584E+07         0.00000E+00
    0.23584E+07        -0.49867E+08         0.00000E+00
    0.00000E+00         0.00000E+00        -0.45335E+08
 
   -0.45191E+08         0.24139E+07         0.00000E+00
    0.24139E+07        -0.49860E+08         0.00000E+00
    0.00000E+00         0.00000E+00        -0.45338E+08
 
   -0.45210E+08         0.24693E+07         0.00000E+00
    0.24693E+07        -0.49853E+08         0.00000E+00
    0.00000E+00         0.00000E+00        -0.45340E+08
 
   -0.45230E+08         0.25245E+07         0.00000E+00
    0.25245E+07        -0.49846E+08         0.00000E+00
    0.00000E+00         0.00000E+00        -0.45343E+08
 
   -0.45249E+08         0.25797E+07         0.00000E+00
    0.25797E+07        -0.49838E+08         0.00000E+00
    0.00000E+00         0.00000E+00        -0.45345E+08
 
   -0.45268E+08         0.26347E+07         0.00000E+00
    0.26347E+07        -0.49830E+08         0.00000E+00
    0.00000E+00         0.00000E+00        -0.45347E+08
 
   -0.45288E+08         0.26897E+07         0.00000E+00
    0.26897E+07        -0.49822E+08         0.00000E+00
    0.00000E+00         0.00000E+00        -0.45350E+08
 
   -0.45308E+08         0.27445E+07         0.00000E+00
    0.27445E+07        -0.49814E+08         0.00000E+00
    0.00000E+00         0.00000E+00        -0.45352E+08
 
   -0.45328E+08         0.27992E+07         0.00000E+00
    0.27992E+07        -0.49806E+08         0.00000E+00
    0.00000E+00         0.00000E+00        -0.45354E+08
 
   -0.45348E+08         0.28538E+07         0.00000E+00
    0.28538E+07        -0.49797E+08         0.00000E+00
    0.00000E+00         0.00000E+00        -0.45357E+08
 
   -0.44173E+08         0.31303E+05         0.00000E+00
    0.31303E+05        -0.50000E+08         0.00000E+00
    0.00000E+00         0.00000E+00        -0.44938E+08
 
   -0.44190E+08         0.93436E+05         0.00000E+00
    0.93436E+05        -0.50000E+08         0.00000E+00
    0.00000E+00         0.00000E+00        -0.44942E+08
 
   -0.44207E+08         0.15537E+06         0.00000E+00
    0.15537E+06        -0.49999E+08         0.00000E+00
    0.00000E+00         0.00000E+00        -0.44945E+08
 
   -0.44224E+08         0.21711E+06         0.00000E+00
    0.21711E+06        -0.49999E+08         0.00000E+00
    0.00000E+00         0.00000E+00        -0.44948E+08
 
   -0.44241E+08         0.27866E+06         0.00000E+00
    0.27866E+06        -0.49998E+08         0.00000E+00
    0.00000E+00         0.00000E+00        -0.44952E+08
 
   -0.44258E+08         0.34002E+06         0.00000E+00
    0.34002E+06        -0.49997E+08         0.00000E+00
    0.00000E+00         0.00000E+00        -0.44955E+08
 
   -0.44275E+08         0.40119E+06         0.00000E+00
    0.40119E+06        -0.49997E+08         0.00000E+00
    0.00000E+00         0.00000E+00        -0.44958E+08
 
   -0.44292E+08         0.46218E+06         0.00000E+00
    0.46218E+06        -0.49995E+08         0.00000E+00
    0.00000E+00         0.00000E+00        -0.44962E+08
 
   -0.44310E+08         0.52299E+06         0.00000E+00
    0.52299E+06        -0.49994E+08         0.00000E+00
    0.00000E+00         0.00000E+00        -0.44965E+08
 
   -0.44327E+08         0.58363E+06         0.00000E+00
    0.58363E+06        -0.49993E+08         0.00000E+00
    0.00000E+00         0.00000E+00        -0.44968E+08
 
   -0.44344E+08         0.64409E+06         0.00000E+00
    0.64409E+06        -0.49991E+08         0.00000E+00
    0.00000E+00         0.00000E+00        -0.44971E+08
 
   -0.44362E+08         0.70439E+06         0.00000E+00
    0.70439E+06        -0.49989E+08         0.00000E+00
    0.00000E+00         0.00000E+00        -0.44975E+08
 
   -0.44379E+08         0.76451E+06         0.00000E+00
    0.76451E+06        -0.49987E+08         0.00000E+00
    0.00000E+00         0.00000E+00        -0.44978E+08
 
   -0.44397E+08         0.82448E+06         0.00000E+00
    0.82448E+06        -0.49985E+08         0.00000E+00
    0.00000E+00         0.00000E+00        -0.44981E+08
 
   -0.44415E+08         0.88429E+06         0.00000E+00
    0.88429E+06        -0.49983E+08         0.00000E+00
    0.00000E+00         0.00000E+00        -0.44984E+08
 
   -0.44432E+08         0.94394E+06         0.00000E+00
    0.94394E+06        -0.49981E+08         0.00000E+00
    0.00000E+00         0.00000E+00        -0.44987E+08
 
   -0.44450E+08         0.10034E+07         0.00000E+00
    0.10034E+07        -0.49978E+08         0.00000E+00
    0.00000E+00         0.00000E+00        -0.44990E+08
 
   -0.44468E+08         0.10628E+07         0.00000E+00
    0.10628E+07        -0.49976E+08         0.00000E+00
    0.00000E+00         0.00000E+00        -0.44994E+08
 
   -0.44485E+08         0.11220E+07         0.00000E+00
    0.11220E+07        -0.49973E+08         0.00000E+00
    0.00000E+00         0.00000E+00        -0.44997E+08
 
   -0.44503E+08         0.11810E+07         0.00000E+00
    0.11810E+07        -0.49970E+08         0.00000E+00
    0.00000E+00         0.00000E+00        -0.45000E+08
 
   -0.44521E+08         0.12400E+07         0.00000E+00
    0.12400E+07        -0.49967E+08         0.00000E+00
    0.00000E+00         0.00000E+00        -0.45003E+08
 
   -0.44539E+08         0.12987E+07         0.00000E+00
    0.12987E+07        -0.49963E+08         0.00000E+00
    0.00000E+00         0.00000E+00        -0.45006E+08
 
   -0.44557E+08         0.13574E+07         0.00000E+00
    0.13574E+07        -0.49960E+08         0.00000E+00
    0.00000E+00         0.00000E+00        -0.45009E+08
 
   -0.44575E+08         0.14159E+07         0.00000E+00
    0.14159E+07        -0.49956E+08         0.00000E+00
    0.00000E+00         0.00000E+00        -0.45012E+08
 
   -0.44593E+08         0.14743E+07         0.00000E+00
    0.14743E+07        -0.49952E+08         0.00000E+00
    0.00000E+00         0.00000E+00        -0.45015E+08
 
   -0.44611E+08         0.15326E+07         0.00000E+00
    0.15326E+07        -0.49948E+08         0.00000E+00
    0.00000E+00         0.00000E+00        -0.45018E+08
 
   -0.44630E+08         0.15907E+07         0.00000E+00
    0.15907E+07        -0.49944E+08         0.00000E+00
    0.00000E+00         0.00000E+00        -0.45021E+08
 
   -0.44648E+08         0.16487E+07         0.00000E+00
    0.16487E+07        -0.49940E+08         0.00000E+00
    0.00000E+00         0.00000E+00        -0.45024E+08
 
   -0.44666E+08         0.17066E+07         0.00000E+00
    0.17066E+07        -0.49935E+08         0.00000E+00
    0.00000E+00         0.00000E+00        -0.45027E+08
 
   -0.44685E+08         0.17644E+07         0.00000E+00
    0.17644E+07        -0.49931E+08         0.00000E+00
    0.00000E+00         0.00000E+00        -0.45029E+08
 
   -0.44703E+08         0.18221E+07         0.00000E+00
    0.18221E+07        -0.49926E+08         0.00000E+00
    0.00000E+00         0.00000E+00        -0.45032E+08
 
   -0.44722E+08         0.18796E+07         0.00000E+00
    0.18796E+07        -0.49921E+08         0.00000E+00
    0.00000E+00         0.00000E+00        -0.45035E+08
 
   -0.44740E+08         0.19371E+07         0.00000E+00
    0.19371E+07        -0.49915E+08         0.00000E+00
    0.00000E+00         0.00000E+00        -0.45038E+08
 
   -0.44759E+08         0.19944E+07         0.00000E+00
    0.19944E+07        -0.49910E+08         0.00000E+00
    0.00000E+00         0.00000E+00        -0.45041E+08
 
   -0.44778E+08         0.20517E+07         0.00000E+00
    0.20517E+07        -0.49904E+08         0.00000E+00
    0.00000E+00         0.00000E+00        -0.45043E+08
 
   -0.44796E+08         0.21088E+07         0.00000E+00
    0.21088E+07        -0.49898E+08         0.00000E+00
    0.00000E+00         0.00000E+00        -0.45046E+08
 
   -0.44815E+08         0.21658E+07         0.00000E+00
    0.21658E+07        -0.49892E+08         0.00000E+00
    0.00000E+00         0.00000E+00        -0.45049E+08
 
   -0.44834E+08         0.22228E+07         0.00000E+00
    0.22228E+07        -0.49886E+08         0.00000E+00
    0.00000E+00         0.00000E+00        -0.45051E+08
 
   -0.44854E+08         0.22796E+07         0.00000E+00
    0.22796E+07        -0.49880E+08         0.00000E+00
    0.00000E+00         0.00000E+00        -0.45054E+08
 
   -0.44873E+08         0.23364E+07         0.00000E+00
    0.23364E+07        -0.49873E+08         0.00000E+00
    0.00000E+00         0.00000E+00        -0.45057E+08
 
   -0.44892E+08         0.23930E+07         0.00000E+00
    0.23930E+07        -0.49866E+08         0.00000E+00
    0.00000E+00         0.00000E+00        -0.45059E+08
 
   -0.44912E+08         0.24496E+07         0.00000E+00
    0.24496E+07        -0.49859E+08         0.00000E+00
    0.00000E+00         0.00000E+00        -0.45062E+08
 
   -0.44931E+08         0.25060E+07         0.00000E+00
    0.25060E+07        -0.49852E+08         0.00000E+00
    0.00000E+00         0.00000E+00        -0.45064E+08
 
   -0.44951E+08         0.25624E+07         0.00000E+00
    0.25624E+07        -0.49844E+08         0.00000E+00
    0.00000E+00         0.00000E+00        -0.45067E+08
 
   -0.44971E+08         0.26187E+07         0.00000E+00
    0.26187E+07        -0.49836E+08         0.00000E+00
    0.00000E+00         0.00000E+00        -0.45069E+08
 
   -0.44991E+08         0.26748E+07         0.00000E+00
    0.26748E+07        -0.49828E+08         0.00000E+00
    0.00000E+00         0.00000E+00        -0.45072E+08
 
   -0.45011E+08         0.27309E+07         0.00000E+00
    0.27309E+07        -0.49820E+08         0.00000E+00
    0.00000E+00         0.00000E+00        -0.45074E+08
 
   -0.45031E+08         0.27869E+07         0.00000E+00
    0.27869E+07        -0.49812E+08         0.00000E+00
    0.00000E+00         0.00000E+00        -0.45076E+08
 
   -0.45051E+08         0.28428E+07         0.00000E+00
    0.28428E+07        -0.49803E+08         0.00000E+00
    0.00000E+00         0.00000E+00        -0.45079E+08
 
   -0.45072E+08         0.28986E+07         0.00000E+00
    0.28986E+07        -0.49794E+08         0.00000E+00
    0.00000E+00         0.00000E+00        -0.45081E+08
 
   -0.43860E+08         0.31716E+05         0.00000E+00
    0.31716E+05        -0.50000E+08         0.00000E+00
    0.00000E+00         0.00000E+00        -0.44650E+08
 
   -0.43877E+08         0.94656E+05         0.00000E+00
    0.94656E+05        -0.50000E+08         0.00000E+00
    0.00000E+00         0.00000E+00        -0.44654E+08
 
   -0.43895E+08         0.15739E+06         0.00000E+00
    0.15739E+06        -0.49999E+08         0.00000E+00
    0.00000E+00         0.00000E+00        -0.44657E+08
 
   -0.43913E+08         0.21993E+06         0.00000E+00
    0.21993E+06        -0.49999E+08         0.00000E+00
    0.00000E+00         0.00000E+00        -0.44661E+08
 
   -0.43931E+08         0.28227E+06         0.00000E+00
    0.28227E+06        -0.49998E+08         0.00000E+00
    0.00000E+00         0.00000E+00        -0.44664E+08
 
   -0.43950E+08         0.34441E+06         0.00000E+00
    0.34441E+06        -0.49997E+08         0.00000E+00
    0.00000E+00         0.00000E+00        -0.44668E+08
 
   -0.43968E+08         0.40637E+06         0.00000E+00
    0.40637E+06        -0.49997E+08         0.00000E+00
    0.00000E+00         0.00000E+00        -0.44671E+08
 
   -0.43986E+08         0.46814E+06         0.00000E+00
    0.46814E+06        -0.49995E+08         0.00000E+00
    0.00000E+00         0.00000E+00        -0.44675E+08
 
   -0.44004E+08         0.52973E+06         0.00000E+00
    0.52973E+06        -0.49994E+08         0.00000E+00
    0.00000E+00         0.00000E+00        -0.44678E+08
 
   -0.44022E+08         0.59115E+06         0.00000E+00
    0.59115E+06        -0.49993E+08         0.00000E+00
    0.00000E+00         0.00000E+00        -0.44682E+08
 
   -0.44041E+08         0.65239E+06         0.00000E+00
    0.65239E+06        -0.49991E+08         0.00000E+00
    0.00000E+00         0.00000E+00        -0.44685E+08
 
   -0.44059E+08         0.71346E+06         0.00000E+00
    0.71346E+06        -0.49989E+08         0.00000E+00
    0.00000E+00         0.00000E+00        -0.44689E+08
 
   -0.44077E+08         0.77437E+06         0.00000E+00
    0.77437E+06        -0.49988E+08         0.00000E+00
    0.00000E+00         0.00000E+00        -0.44692E+08
 
   -0.44096E+08         0.83512E+06         0.00000E+00
    0.83512E+06        -0.49986E+08         0.00000E+00
    0.00000E+00         0.00000E+00        -0.44695E+08
 
   -0.44114E+08         0.89571E+06         0.00000E+00
    0.89571E+06        -0.49983E+08         0.00000E+00
    0.00000E+00         0.00000E+00        -0.44699E+08
 
   -0.44132E+08         0.95615E+06         0.00000E+00
    0.95615E+06        -0.49981E+08         0.00000E+00
    0.00000E+00         0.00000E+00        -0.44702E+08
 
   -0.44151E+08         0.10164E+07         0.00000E+00
    0.10164E+07        -0.49978E+08         0.00000E+00
    0.00000E+00         0.00000E+00        -0.44705E+08
 
   -0.44169E+08         0.10766E+07         0.00000E+00
    0.10766E+07        -0.49976E+08         0.00000E+00
    0.00000E+00         0.00000E+00        -0.44709E+08
 
   -0.44188E+08         0.11366E+07         0.00000E+00
    0.11366E+07        -0.49973E+08         0.00000E+00
    0.00000E+00         0.00000E+00        -0.44712E+08
 
   -0.44206E+08         0.11965E+07         0.00000E+00
    0.11965E+07        -0.49970E+08         0.00000E+00
    0.00000E+00         0.00000E+00        -0.44715E+08
 
   -0.44225E+08         0.12562E+07         0.00000E+00
    0.12562E+07        -0.49967E+08         0.00000E+00
    0.00000E+00         0.00000E+00        -0.44718E+08
 
   -0.44243E+08         0.13158E+07         0.00000E+00
    0.13158E+07        -0.49963E+08         0.00000E+00
    0.00000E+00         0.00000E+00        -0.44722E+08
 
   -0.44262E+08         0.13753E+07         0.00000E+00
    0.13753E+07        -0.49960E+08         0.00000E+00
    0.00000E+00         0.00000E+00        -0.44725E+08
 
   -0.44281E+08         0.14346E+07         0.00000E+00
    0.14346E+07        -0.49956E+08         0.00000E+00
    0.00000E+00         0.00000E+00        -0.44728E+08
 
   -0.44299E+08         0.14939E+07         0.00000E+00
    0.14939E+07        -0.49953E+08         0.00000E+00
    0.00000E+00         0.00000E+00        -0.44731E+08
 
   -0.44318E+08         0.15530E+07         0.00000E+00
    0.15530E+07        -0.49949E+08         0.00000E+00
    0.00000E+00         0.00000E+00        -0.44734E+08
 
   -0.44337E+08         0.16120E+07         0.00000E+00
    0.16120E+07        -0.49944E+08         0.00000E+00
    0.00000E+00         0.00000E+00        -0.44737E+08
 
   -0.44356E+08         0.16709E+07         0.00000E+00
    0.16709E+07        -0.49940E+08         0.00000E+00
    0.00000E+00         0.00000E+00        -0.44740E+08
 
   -0.44375E+08         0.17297E+07         0.00000E+00
    0.17297E+07        -0.49935E+08         0.00000E+00
    0.00000E+00         0.00000E+00        -0.44743E+08
 
   -0.44394E+08         0.17884E+07         0.00000E+00
    0.17884E+07        -0.49931E+08         0.00000E+00
    0.00000E+00         0.00000E+00        -0.44746E+08
 
   -0.44413E+08         0.18470E+07         0.00000E+00
    0.18470E+07        -0.49926E+08         0.00000E+00
    0.00000E+00         0.00000E+00        -0.44749E+08
 
   -0.44432E+08         0.19055E+07         0.00000E+00
    0.19055E+07        -0.49921E+08         0.00000E+00
    0.00000E+00         0.00000E+00        -0.44752E+08
 
   -0.44451E+08         0.19639E+07         0.00000E+00
    0.19639E+07        -0.49915E+08         0.00000E+00
    0.00000E+00         0.00000E+00        -0.44755E+08
 
   -0.44470E+08         0.20223E+07         0.00000E+00
    0.20223E+07        -0.49910E+08         0.00000E+00
    0.00000E+00         0.00000E+00        -0.44758E+08
 
   -0.44489E+08         0.20805E+07         0.00000E+00
    0.20805E+07        -0.49904E+08         0.00000E+00
    0.00000E+00         0.00000E+00        -0.44760E+08
 
   -0.44508E+08         0.21386E+07         0.00000E+00
    0.21386E+07        -0.49898E+08         0.00000E+00
    0.00000E+00         0.00000E+00        -0.44763E+08
 
   -0.44528E+08         0.21967E+07         0.00000E+00
    0.21967E+07        -0.49892E+08         0.00000E+00
    0.00000E+00         0.00000E+00        -0.44766E+08
 
   -0.44547E+08         0.22547E+07         0.00000E+00
    0.22547E+07        -0.49886E+08         0.00000E+00
    0.00000E+00         0.00000E+00        -0.44769E+08
 
   -0.44567E+08         0.23126E+07         0.00000E+00
    0.23126E+07        -0.49880E+08         0.00000E+00
    0.00000E+00         0.00000E+00        -0.44771E+08
 
   -0.44587E+08         0.23704E+07         0.00000E+00
    0.23704E+07        -0.49873E+08         0.00000E+00
    0.00000E+00         0.00000E+00        -0.44774E+08
 
   -0.44606E+08         0.24281E+07         0.00000E+00
    0.24281E+07        -0.49866E+08         0.00000E+00
    0.00000E+00         0.00000E+00        -0.44777E+08
 
   -0.44626E+08         0.24858E+07         0.00000E+00
    0.24858E+07        -0.49859E+08         0.00000E+00
    0.00000E+00         0.00000E+00        -0.44779E+08
 
   -0.44646E+08         0.25434E+07         0.00000E+00
    0.25434E+07        -0.49851E+08         0.00000E+00
    0.00000E+00         0.00000E+00        -0.44782E+08
 
   -0.44666E+08         0.26009E+07         0.00000E+00
    0.26009E+07        -0.49844E+08         0.00000E+00
    0.00000E+00         0.00000E+00        -0.44784E+08
 
   -0.44687E+08         0.26583E+07         0.00000E+00
    0.26583E+07        -0.49836E+08         0.00000E+00
    0.00000E+00         0.00000E+00        -0.44787E+08
 
   -0.44707E+08         0.27157E+07         0.00000E+00
    0.27157E+07        -0.49828E+08         0.00000E+00
    0.00000E+00         0.00000E+00        -0.44789E+08
 
   -0.44727E+08         0.27730E+07         0.00000E+00
    0.27730E+07        -0.49819E+08         0.00000E+00
    0.00000E+00         0.00000E+00        -0.44792E+08
 
   -0.44748E+08         0.28302E+07         0.00000E+00
    0.28302E+07        -0.49811E+08         0.00000E+00
    0.00000E+00         0.00000E+00        -0.44794E+08
 
   -0.44769E+08         0.28874E+07         0.00000E+00
    0.28874E+07        -0.49802E+08         0.00000E+00
    0.00000E+00         0.00000E+00        -0.44797E+08
 
   -0.44790E+08         0.29445E+07         0.00000E+00
    0.29445E+07        -0.49793E+08         0.00000E+00
    0.00000E+00         0.00000E+00        -0.44799E+08
 
   -0.43542E+08         0.32126E+05         0.00000E+00
    0.32126E+05        -0.50000E+08         0.00000E+00
    0.00000E+00         0.00000E+00        -0.44356E+08
 
   -0.43561E+08         0.95867E+05         0.00000E+00
    0.95867E+05        -0.50000E+08         0.00000E+00
    0.00000E+00         0.00000E+00        -0.44360E+08
 
   -0.43580E+08         0.15940E+06         0.00000E+00
    0.15940E+06        -0.49999E+08         0.00000E+00
    0.00000E+00         0.00000E+00        -0.44363E+08
 
   -0.43599E+08         0.22272E+06         0.00000E+00
    0.22272E+06        -0.49999E+08         0.00000E+00
    0.00000E+00         0.00000E+00        -0.44367E+08
 
   -0.43618E+08         0.28584E+06         0.00000E+00
    0.28584E+06        -0.49998E+08         0.00000E+00
    0.00000E+00         0.00000E+00        -0.44371E+08
 
   -0.43637E+08         0.34876E+06         0.00000E+00
    0.34876E+06        -0.49998E+08         0.00000E+00
    0.00000E+00         0.00000E+00        -0.44374E+08
 
   -0.43656E+08         0.41149E+06         0.00000E+00
    0.41149E+06        -0.49997E+08         0.00000E+00
    0.00000E+00         0.00000E+00        -0.44378E+08
 
   -0.43676E+08         0.47404E+06         0.00000E+00
    0.47404E+06        -0.49995E+08         0.00000E+00
    0.00000E+00         0.00000E+00        -0.44382E+08
 
   -0.43695E+08         0.53640E+06         0.00000E+00
    0.53640E+06        -0.49994E+08         0.00000E+00
    0.00000E+00         0.00000E+00        -0.44385E+08
 
   -0.43714E+08         0.59858E+06         0.00000E+00
    0.59858E+06        -0.49993E+08         0.00000E+00
    0.00000E+00         0.00000E+00        -0.44389E+08
 
   -0.43733E+08         0.66059E+06         0.00000E+00
    0.66059E+06        -0.49991E+08         0.00000E+00
    0.00000E+00         0.00000E+00        -0.44393E+08
 
   -0.43752E+08         0.72243E+06         0.00000E+00
    0.72243E+06        -0.49990E+08         0.00000E+00
    0.00000E+00         0.00000E+00        -0.44396E+08
 
   -0.43771E+08         0.78411E+06         0.00000E+00
    0.78411E+06        -0.49988E+08         0.00000E+00
    0.00000E+00         0.00000E+00        -0.44400E+08
 
   -0.43790E+08         0.84564E+06         0.00000E+00
    0.84564E+06        -0.49986E+08         0.00000E+00
    0.00000E+00         0.00000E+00        -0.44403E+08
 
   -0.43809E+08         0.90701E+06         0.00000E+00
    0.90701E+06        -0.49984E+08         0.00000E+00
    0.00000E+00         0.00000E+00        -0.44407E+08
 
   -0.43829E+08         0.96823E+06         0.00000E+00
    0.96823E+06        -0.49981E+08         0.00000E+00
    0.00000E+00         0.00000E+00        -0.44410E+08
 
   -0.43848E+08         0.10293E+07         0.00000E+00
    0.10293E+07        -0.49979E+08         0.00000E+00
    0.00000E+00         0.00000E+00        -0.44414E+08
 
   -0.43867E+08         0.10902E+07         0.00000E+00
    0.10902E+07        -0.49976E+08         0.00000E+00
    0.00000E+00         0.00000E+00        -0.44417E+08
 
   -0.43886E+08         0.11511E+07         0.00000E+00
    0.11511E+07        -0.49973E+08         0.00000E+00
    0.00000E+00         0.00000E+00        -0.44421E+08
 
   -0.43905E+08         0.12117E+07         0.00000E+00
    0.12117E+07        -0.49970E+08         0.00000E+00
    0.00000E+00         0.00000E+00        -0.44424E+08
 
   -0.43924E+08         0.12723E+07         0.00000E+00
    0.12723E+07        -0.49967E+08         0.00000E+00
    0.00000E+00         0.00000E+00        -0.44427E+08
 
   -0.43944E+08         0.13327E+07         0.00000E+00
    0.13327E+07        -0.49964E+08         0.00000E+00
    0.00000E+00         0.00000E+00        -0.44431E+08
 
   -0.43963E+08         0.13930E+07         0.00000E+00
    0.13930E+07        -0.49961E+08         0.00000E+00
    0.00000E+00         0.00000E+00        -0.44434E+08
 
   -0.43982E+08         0.14532E+07         0.00000E+00
    0.14532E+07        -0.49957E+08         0.00000E+00
    0.00000E+00         0.00000E+00        -0.44437E+08
 
   -0.44001E+08         0.15133E+07         0.00000E+00
    0.15133E+07        -0.49953E+08         0.00000E+00
    0.00000E+00         0.00000E+00        -0.44440E+08
 
   -0.44021E+08         0.15733E+07         0.00000E+00
    0.15733E+07        -0.49949E+08         0.00000E+00
    0.00000E+00         0.00000E+00        -0.44444E+08
 
   -0.44040E+08         0.16332E+07         0.00000E+00
    0.16332E+07        -0.49945E+08         0.00000E+00
    0.00000E+00         0.00000E+00        -0.44447E+08
 
   -0.44059E+08         0.16930E+07         0.00000E+00
    0.16930E+07        -0.49941E+08         0.00000E+00
    0.00000E+00         0.00000E+00        -0.44450E+08
 
   -0.44079E+08         0.17528E+07         0.00000E+00
    0.17528E+07        -0.49936E+08         0.00000E+00
    0.00000E+00         0.00000E+00        -0.44453E+08
 
   -0.44098E+08         0.18124E+07         0.00000E+00
    0.18124E+07        -0.49932E+08         0.00000E+00
    0.00000E+00         0.00000E+00        -0.44456E+08
 
   -0.44117E+08         0.18719E+07         0.00000E+00
    0.18719E+07        -0.49927E+08         0.00000E+00
    0.00000E+00         0.00000E+00        -0.44459E+08
 
   -0.44137E+08         0.19314E+07         0.00000E+00
    0.19314E+07        -0.49922E+08         0.00000E+00
    0.00000E+00         0.00000E+00        -0.44462E+08
 
   -0.44156E+08         0.19908E+07         0.00000E+00
    0.19908E+07        -0.49917E+08         0.00000E+00
    0.00000E+00         0.00000E+00        -0.44465E+08
 
   -0.44176E+08         0.20501E+07         0.00000E+00
    0.20501E+07        -0.49911E+08         0.00000E+00
    0.00000E+00         0.00000E+00        -0.44468E+08
 
   -0.44196E+08         0.21093E+07         0.00000E+00
    0.21093E+07        -0.49905E+08         0.00000E+00
    0.00000E+00         0.00000E+00        -0.44471E+08
 
   -0.44215E+08         0.21685E+07         0.00000E+00
    0.21685E+07        -0.49900E+08         0.00000E+00
    0.00000E+00         0.00000E+00        -0.44474E+08
 
   -0.44235E+08         0.22276E+07         0.00000E+00
    0.22276E+07        -0.49894E+08         0.00000E+00
    0.00000E+00         0.00000E+00        -0.44477E+08
 
   -0.44255E+08         0.22866E+07         0.00000E+00
    0.22866E+07        -0.49887E+08         0.00000E+00
    0.00000E+00         0.00000E+00        -0.44480E+08
 
   -0.44275E+08         0.23456E+07         0.00000E+00
    0.23456E+07        -0.49881E+08         0.00000E+00
    0.00000E+00         0.00000E+00        -0.44482E+08
 
   -0.44295E+08         0.24046E+07         0.00000E+00
    0.24046E+07        -0.49874E+08         0.00000E+00
    0.00000E+00         0.00000E+00        -0.44485E+08
 
   -0.44315E+08         0.24634E+07         0.00000E+00
    0.24634E+07        -0.49867E+08         0.00000E+00
    0.00000E+00         0.00000E+00        -0.44488E+08
 
   -0.44335E+08         0.25223E+07         0.00000E+00
    0.25223E+07        -0.49860E+08         0.00000E+00
    0.00000E+00         0.00000E+00        -0.44490E+08
 
   -0.44355E+08         0.25810E+07         0.00000E+00
    0.25810E+07        -0.49852E+08         0.00000E+00
    0.00000E+00         0.00000E+00        -0.44493E+08
 
   -0.44376E+08         0.26397E+07         0.00000E+00
    0.26397E+07        -0.49845E+08         0.00000E+00
    0.00000E+00         0.00000E+00        -0.44496E+08
 
   -0.44396E+08         0.26984E+07         0.00000E+00
    0.26984E+07        -0.49837E+08         0.00000E+00
    0.00000E+00         0.00000E+00        -0.44498E+08
 
   -0.44417E+08         0.27570E+07         0.00000E+00
    0.27570E+07        -0.49829E+08         0.00000E+00
    0.00000E+00         0.00000E+00        -0.44501E+08
 
   -0.44438E+08         0.28156E+07         0.00000E+00
    0.28156E+07        -0.49820E+08         0.00000E+00
    0.00000E+00         0.00000E+00        -0.44503E+08
 
   -0.44459E+08         0.28741E+07         0.00000E+00
    0.28741E+07        -0.49812E+08         0.00000E+00
    0.00000E+00         0.00000E+00        -0.44506E+08
 
   -0.44480E+08         0.29326E+07         0.00000E+00
    0.29326E+07        -0.49803E+08         0.00000E+00
    0.00000E+00         0.00000E+00        -0.44508E+08
 
   -0.44501E+08         0.29910E+07         0.00000E+00
    0.29910E+07        -0.49793E+08         0.00000E+00
    0.00000E+00         0.00000E+00        -0.44511E+08
 
   -0.43221E+08         0.32528E+05         0.00000E+00
    0.32528E+05        -0.50000E+08         0.00000E+00
    0.00000E+00         0.00000E+00        -0.44054E+08
 
   -0.43241E+08         0.97052E+05         0.00000E+00
    0.97052E+05        -0.50000E+08         0.00000E+00
    0.00000E+00         0.00000E+00        -0.44058E+08
 
   -0.43261E+08         0.16136E+06         0.00000E+00
    0.16136E+06        -0.49999E+08         0.00000E+00
    0.00000E+00         0.00000E+00        -0.44062E+08
 
   -0.43281E+08         0.22545E+06         0.00000E+00
    0.22545E+06        -0.49999E+08         0.00000E+00
    0.00000E+00         0.00000E+00        -0.44066E+08
 
   -0.43301E+08         0.28933E+06         0.00000E+00
    0.28933E+06        -0.49998E+08         0.00000E+00
    0.00000E+00         0.00000E+00        -0.44070E+08
 
   -0.43321E+08         0.35301E+06         0.00000E+00
    0.35301E+06        -0.49998E+08         0.00000E+00
    0.00000E+00         0.00000E+00        -0.44074E+08
 
   -0.43341E+08         0.41650E+06         0.00000E+00
    0.41650E+06        -0.49997E+08         0.00000E+00
    0.00000E+00         0.00000E+00        -0.44078E+08
 
   -0.43361E+08         0.47979E+06         0.00000E+00
    0.47979E+06        -0.49996E+08         0.00000E+00
    0.00000E+00         0.00000E+00        -0.44082E+08
 
   -0.43381E+08         0.54290E+06         0.00000E+00
    0.54290E+06        -0.49994E+08         0.00000E+00
    0.00000E+00         0.00000E+00        -0.44086E+08
 
   -0.43401E+08         0.60583E+06         0.00000E+00
    0.60583E+06        -0.49993E+08         0.00000E+00
    0.00000E+00         0.00000E+00        -0.44090E+08
 
   -0.43421E+08         0.66860E+06         0.00000E+00
    0.66860E+06        -0.49992E+08         0.00000E+00
    0.00000E+00         0.00000E+00        -0.44093E+08
 
   -0.43441E+08         0.73119E+06         0.00000E+00
    0.73119E+06        -0.49990E+08         0.00000E+00
    0.00000E+00         0.00000E+00        -0.44097E+08
 
   -0.43461E+08         0.79362E+06         0.00000E+00
    0.79362E+06        -0.49988E+08         0.00000E+00
    0.00000E+00         0.00000E+00        -0.44101E+08
 
   -0.43481E+08         0.85590E+06         0.00000E+00
    0.85590E+06        -0.49986E+08         0.00000E+00
    0.00000E+00         0.00000E+00        -0.44105E+08
 
   -0.43501E+08         0.91804E+06         0.00000E+00
    0.91804E+06        -0.49984E+08         0.00000E+00
    0.00000E+00         0.00000E+00        -0.44108E+08
 
   -0.43521E+08         0.98002E+06         0.00000E+00
    0.98002E+06        -0.49982E+08         0.00000E+00
    0.00000E+00         0.00000E+00        -0.44112E+08
 
   -0.43541E+08         0.10419E+07         0.00000E+00
    0.10419E+07        -0.49979E+08         0.00000E+00
    0.00000E+00         0.00000E+00        -0.44116E+08
 
   -0.43561E+08         0.11036E+07         0.00000E+00
    0.11036E+07        -0.49977E+08         0.00000E+00
    0.00000E+00         0.00000E+00        -0.44119E+08
 
   -0.43580E+08         0.11652E+07         0.00000E+00
    0.11652E+07        -0.49974E+08         0.00000E+00
    0.00000E+00         0.00000E+00        -0.44123E+08
 
   -0.43600E+08         0.12267E+07         0.00000E+00
    0.12267E+07        -0.49971E+08         0.00000E+00
    0.00000E+00         0.00000E+00        -0.44126E+08
 
   -0.43620E+08         0.12880E+07         0.00000E+00
    0.12880E+07        -0.49968E+08         0.00000E+00
    0.00000E+00         0.00000E+00        -0.44130E+08
 
   -0.43640E+08         0.13493E+07         0.00000E+00
    0.13493E+07        -0.49965E+08         0.00000E+00
    0.00000E+00         0.00000E+00        -0.44133E+08
 
   -0.43659E+08         0.14104E+07         0.00000E+00
    0.14104E+07        -0.49962E+08         0.00000E+00
    0.00000E+00         0.00000E+00        -0.44137E+08
 
   -0.43679E+08         0.14715E+07         0.00000E+00
    0.14715E+07        -0.49958E+08         0.00000E+00
    0.00000E+00         0.00000E+00        -0.44140E+08
 
   -0.43699E+08         0.15324E+07         0.00000E+00
    0.15324E+07        -0.49955E+08         0.00000E+00
    0.00000E+00         0.00000E+00        -0.44143E+08
 
   -0.43719E+08         0.15933E+07         0.00000E+00
    0.15933E+07        -0.49951E+08         0.00000E+00
    0.00000E+00         0.00000E+00        -0.44147E+08
 
   -0.43738E+08         0.16541E+07         0.00000E+00
    0.16541E+07        -0.49947E+08         0.00000E+00
    0.00000E+00         0.00000E+00        -0.44150E+08
 
   -0.43758E+08         0.17148E+07         0.00000E+00
    0.17148E+07        -0.49942E+08         0.00000E+00
    0.00000E+00         0.00000E+00        -0.44153E+08
 
   -0.43778E+08         0.17754E+07         0.00000E+00
    0.17754E+07        -0.49938E+08         0.00000E+00
    0.00000E+00         0.00000E+00        -0.44156E+08
 
   -0.43798E+08         0.18360E+07         0.00000E+00
    0.18360E+07        -0.49934E+08         0.00000E+00
    0.00000E+00         0.00000E+00        -0.44159E+08
 
   -0.43817E+08         0.18965E+07         0.00000E+00
    0.18965E+07        -0.49929E+08         0.00000E+00
    0.00000E+00         0.00000E+00        -0.44163E+08
 
   -0.43837E+08         0.19569E+07         0.00000E+00
    0.19569E+07        -0.49924E+08         0.00000E+00
    0.00000E+00         0.00000E+00        -0.44166E+08
 
   -0.43857E+08         0.20173E+07         0.00000E+00
    0.20173E+07        -0.49919E+08         0.00000E+00
    0.00000E+00         0.00000E+00        -0.44169E+08
 
   -0.43877E+08         0.20776E+07         0.00000E+00
    0.20776E+07        -0.49913E+08         0.00000E+00
    0.00000E+00         0.00000E+00        -0.44172E+08
 
   -0.43897E+08         0.21379E+07         0.00000E+00
    0.21379E+07        -0.49908E+08         0.00000E+00
    0.00000E+00         0.00000E+00        -0.44175E+08
 
   -0.43917E+08         0.21982E+07         0.00000E+00
    0.21982E+07        -0.49902E+08         0.00000E+00
    0.00000E+00         0.00000E+00        -0.44178E+08
 
   -0.43937E+08         0.22583E+07         0.00000E+00
    0.22583E+07        -0.49896E+08         0.00000E+00
    0.00000E+00         0.00000E+00        -0.44181E+08
 
   -0.43957E+08         0.23185E+07         0.00000E+00
    0.23185E+07        -0.49890E+08         0.00000E+00
    0.00000E+00         0.00000E+00        -0.44183E+08
 
   -0.43977E+08         0.23786E+07         0.00000E+00
    0.23786E+07        -0.49883E+08         0.00000E+00
    0.00000E+00         0.00000E+00        -0.44186E+08
 
   -0.43997E+08         0.24387E+07         0.00000E+00
    0.24387E+07        -0.49877E+08         0.00000E+00
    0.00000E+00         0.00000E+00        -0.44189E+08
 
   -0.44018E+08         0.24987E+07         0.00000E+00
    0.24987E+07        -0.49870E+08         0.00000E+00
    0.00000E+00         0.00000E+00        -0.44192E+08
 
   -0.44038E+08         0.25587E+07         0.00000E+00
    0.25587E+07        -0.49862E+08         0.00000E+00
    0.00000E+00         0.00000E+00        -0.44195E+08
 
   -0.44059E+08         0.26187E+07         0.00000E+00
    0.26187E+07        -0.49855E+08         0.00000E+00
    0.00000E+00         0.00000E+00        -0.44197E+08
 
   -0.44079E+08         0.26787E+07         0.00000E+00
    0.26787E+07        -0.49847E+08         0.00000E+00
    0.00000E+00         0.00000E+00        -0.44200E+08
 
   -0.44100E+08         0.27386E+07         0.00000E+00
    0.27386E+07        -0.49840E+08         0.00000E+00
    0.00000E+00         0.00000E+00        -0.44203E+08
 
   -0.44121E+08         0.27986E+07         0.00000E+00
    0.27986E+07        -0.49831E+08         0.00000E+00
    0.00000E+00         0.00000E+00        -0.44205E+08
 
   -0.44142E+08         0.28585E+07         0.00000E+00
    0.28585E+07        -0.49823E+08         0.00000E+00
    0.00000E+00         0.00000E+00        -0.44208E+08
 
   -0.44163E+08         0.29183E+07         0.00000E+00
    0.29183E+07        -0.49814E+08         0.00000E+00
    0.00000E+00         0.00000E+00        -0.44210E+08
 
   -0.44184E+08         0.29782E+07         0.00000E+00
    0.29782E+07        -0.49805E+08         0.00000E+00
    0.00000E+00         0.00000E+00        -0.44213E+08
 
   -0.44206E+08         0.30380E+07         0.00000E+00
    0.30380E+07        -0.49796E+08         0.00000E+00
    0.00000E+00         0.00000E+00        -0.44215E+08
 
   -0.42896E+08         0.32917E+05         0.00000E+00
    0.32917E+05        -0.50000E+08         0.00000E+00
    0.00000E+00         0.00000E+00        -0.43746E+08
 
   -0.42917E+08         0.98195E+05         0.00000E+00
    0.98195E+05        -0.50000E+08         0.00000E+00
    0.00000E+00         0.00000E+00        -0.43750E+08
 
   -0.42938E+08         0.16324E+06         0.00000E+00
    0.16324E+06        -0.49999E+08         0.00000E+00
    0.00000E+00         0.00000E+00        -0.43754E+08
 
   -0.42959E+08         0.22807E+06         0.00000E+00
    0.22807E+06        -0.49999E+08         0.00000E+00
    0.00000E+00         0.00000E+00        -0.43759E+08
 
   -0.42981E+08         0.29269E+06         0.00000E+00
    0.29269E+06        -0.49998E+08         0.00000E+00
    0.00000E+00         0.00000E+00        -0.43763E+08
 
   -0.43002E+08         0.35710E+06         0.00000E+00
    0.35710E+06        -0.49998E+08         0.00000E+00
    0.00000E+00         0.00000E+00        -0.43767E+08
 
   -0.43023E+08         0.42131E+06         0.00000E+00
    0.42131E+06        -0.49997E+08         0.00000E+00
    0.00000E+00         0.00000E+00        -0.43771E+08
 
   -0.43044E+08         0.48532E+06         0.00000E+00
    0.48532E+06        -0.49996E+08         0.00000E+00
    0.00000E+00         0.00000E+00        -0.43775E+08
 
   -0.43064E+08         0.54915E+06         0.00000E+00
    0.54915E+06        -0.49995E+08         0.00000E+00
    0.00000E+00         0.00000E+00        -0.43779E+08
 
   -0.43085E+08         0.61280E+06         0.00000E+00
    0.61280E+06        -0.49993E+08         0.00000E+00
    0.00000E+00         0.00000E+00        -0.43783E+08
 
   -0.43106E+08         0.67628E+06         0.00000E+00
    0.67628E+06        -0.49992E+08         0.00000E+00
    0.00000E+00         0.00000E+00        -0.43787E+08
 
   -0.43127E+08         0.73960E+06         0.00000E+00
    0.73960E+06        -0.49990E+08         0.00000E+00
    0.00000E+00         0.00000E+00        -0.43791E+08
 
   -0.43148E+08         0.80276E+06         0.00000E+00
    0.80276E+06        -0.49989E+08         0.00000E+00
    0.00000E+00         0.00000E+00        -0.43795E+08
 
   -0.43168E+08         0.86577E+06         0.00000E+00
    0.86577E+06        -0.49987E+08         0.00000E+00
    0.00000E+00         0.00000E+00        -0.43799E+08
 
   -0.43189E+08         0.92864E+06         0.00000E+00
    0.92864E+06        -0.49985E+08         0.00000E+00
    0.00000E+00         0.00000E+00        -0.43803E+08
 
   -0.43209E+08         0.99137E+06         0.00000E+00
    0.99137E+06        -0.49983E+08         0.00000E+00
    0.00000E+00         0.00000E+00        -0.43806E+08
 
   -0.43230E+08         0.10540E+07         0.00000E+00
    0.10540E+07        -0.49980E+08         0.00000E+00
    0.00000E+00         0.00000E+00        -0.43810E+08
 
   -0.43250E+08         0.11165E+07         0.00000E+00
    0.11165E+07        -0.49978E+08         0.00000E+00
    0.00000E+00         0.00000E+00        -0.43814E+08
 
   -0.43271E+08         0.11788E+07         0.00000E+00
    0.11788E+07        -0.49975E+08         0.00000E+00
    0.00000E+00         0.00000E+00        -0.43818E+08
 
   -0.43291E+08         0.12411E+07         0.00000E+00
    0.12411E+07        -0.49973E+08         0.00000E+00
    0.00000E+00         0.00000E+00        -0.43821E+08
 
   -0.43311E+08         0.13032E+07         0.00000E+00
    0.13032E+07        -0.49970E+08         0.00000E+00
    0.00000E+00         0.00000E+00        -0.43825E+08
 
   -0.43332E+08         0.13653E+07         0.00000E+00
    0.13653E+07        -0.49967E+08         0.00000E+00
    0.00000E+00         0.00000E+00        -0.43828E+08
 
   -0.43352E+08         0.14273E+07         0.00000E+00
    0.14273E+07        -0.49964E+08         0.00000E+00
    0.00000E+00         0.00000E+00        -0.43832E+08
 
   -0.43372E+08         0.14891E+07         0.00000E+00
    0.14891E+07        -0.49960E+08         0.00000E+00
    0.00000E+00         0.00000E+00        -0.43836E+08
 
   -0.43392E+08         0.15510E+07         0.00000E+00
    0.15510E+07        -0.49957E+08         0.00000E+00
    0.00000E+00         0.00000E+00        -0.43839E+08
 
   -0.43412E+08         0.16127E+07         0.00000E+00
    0.16127E+07        -0.49953E+08         0.00000E+00
    0.00000E+00         0.00000E+00        -0.43842E+08
 
   -0.43432E+08         0.16744E+07         0.00000E+00
    0.16744E+07        -0.49949E+08         0.00000E+00
    0.00000E+00         0.00000E+00        -0.43846E+08
 
   -0.43452E+08         0.17360E+07         0.00000E+00
    0.17360E+07        -0.49945E+08         0.00000E+00
    0.00000E+00         0.00000E+00        -0.43849E+08
 
   -0.43473E+08         0.17975E+07         0.00000E+00
    0.17975E+07        -0.49941E+08         0.00000E+00
    0.00000E+00         0.00000E+00        -0.43852E+08
 
   -0.43493E+08         0.18590E+07         0.00000E+00
    0.18590E+07        -0.49936E+08         0.00000E+00
    0.00000E+00         0.00000E+00        -0.43856E+08
 
   -0.43513E+08         0.19205E+07         0.00000E+00
    0.19205E+07        -0.49932E+08         0.00000E+00
    0.00000E+00         0.00000E+00        -0.43859E+08
 
   -0.43533E+08         0.19819E+07         0.00000E+00
    0.19819E+07        -0.49927E+08         0.00000E+00
    0.00000E+00         0.00000E+00        -0.43862E+08
 
   -0.43553E+08         0.20433E+07         0.00000E+00
    0.20433E+07        -0.49922E+08         0.00000E+00
    0.00000E+00         0.00000E+00        -0.43865E+08
 
   -0.43573E+08         0.21047E+07         0.00000E+00
    0.21047E+07        -0.49917E+08         0.00000E+00
    0.00000E+00         0.00000E+00        -0.43868E+08
 
   -0.43593E+08         0.21660E+07         0.00000E+00
    0.21660E+07        -0.49911E+08         0.00000E+00
    0.00000E+00         0.00000E+00        -0.43871E+08
 
   -0.43613E+08         0.22273E+07         0.00000E+00
    0.22273E+07        -0.49906E+08         0.00000E+00
    0.00000E+00         0.00000E+00        -0.43874E+08
 
   -0.43633E+08         0.22886E+07         0.00000E+00
    0.22886E+07        -0.49900E+08         0.00000E+00
    0.00000E+00         0.00000E+00        -0.43877E+08
 
   -0.43654E+08         0.23499E+07         0.00000E+00
    0.23499E+07        -0.49894E+08         0.00000E+00
    0.00000E+00         0.00000E+00        -0.43880E+08
 
   -0.43674E+08         0.24111E+07         0.00000E+00
    0.24111E+07        -0.49887E+08         0.00000E+00
    0.00000E+00         0.00000E+00        -0.43883E+08
 
   -0.43694E+08         0.24724E+07         0.00000E+00
    0.24724E+07        -0.49881E+08         0.00000E+00
    0.00000E+00         0.00000E+00        -0.43886E+08
 
   -0.43715E+08         0.25337E+07         0.00000E+00
    0.25337E+07        -0.49874E+08         0.00000E+00
    0.00000E+00         0.00000E+00        -0.43889E+08
 
   -0.43735E+08         0.25949E+07         0.00000E+00
    0.25949E+07        -0.49867E+08         0.00000E+00
    0.00000E+00         0.00000E+00        -0.43892E+08
 
   -0.43756E+08         0.26562E+07         0.00000E+00
    0.26562E+07        -0.49860E+08         0.00000E+00
    0.00000E+00         0.00000E+00        -0.43894E+08
 
   -0.43776E+08         0.27174E+07         0.00000E+00
    0.27174E+07        -0.49852E+08         0.00000E+00
    0.00000E+00         0.00000E+00        -0.43897E+08
 
   -0.43797E+08         0.27787E+07         0.00000E+00
    0.27787E+07        -0.49844E+08         0.00000E+00
    0.00000E+00         0.00000E+00        -0.43900E+08
 
   -0.43818E+08         0.28400E+07         0.00000E+00
    0.28400E+07        -0.49836E+08         0.00000E+00
    0.00000E+00         0.00000E+00        -0.43902E+08
 
   -0.43839E+08         0.29013E+07         0.00000E+00
    0.29013E+07        -0.49828E+08         0.00000E+00
    0.00000E+00         0.00000E+00        -0.43905E+08
 
   -0.43860E+08         0.29626E+07         0.00000E+00
    0.29626E+07        -0.49819E+08         0.00000E+00
    0.00000E+00         0.00000E+00        -0.43907E+08
 
   -0.43881E+08         0.30239E+07         0.00000E+00
    0.30239E+07        -0.49810E+08         0.00000E+00
    0.00000E+00         0.00000E+00        -0.43910E+08
 
   -0.43903E+08         0.30852E+07         0.00000E+00
    0.30852E+07        -0.49801E+08         0.00000E+00
    0.00000E+00         0.00000E+00        -0.43912E+08
 
   -0.42567E+08         0.33286E+05         0.00000E+00
    0.33286E+05        -0.50000E+08         0.00000E+00
    0.00000E+00         0.00000E+00        -0.43430E+08
 
   -0.42590E+08         0.99275E+05         0.00000E+00
    0.99275E+05        -0.50000E+08         0.00000E+00
    0.00000E+00         0.00000E+00        -0.43435E+08
 
   -0.42612E+08         0.16503E+06         0.00000E+00
    0.16503E+06        -0.49999E+08         0.00000E+00
    0.00000E+00         0.00000E+00        -0.43439E+08
 
   -0.42634E+08         0.23055E+06         0.00000E+00
    0.23055E+06        -0.49999E+08         0.00000E+00
    0.00000E+00         0.00000E+00        -0.43443E+08
 
   -0.42656E+08         0.29585E+06         0.00000E+00
    0.29585E+06        -0.49998E+08         0.00000E+00
    0.00000E+00         0.00000E+00        -0.43448E+08
 
   -0.42678E+08         0.36094E+06         0.00000E+00
    0.36094E+06        -0.49998E+08         0.00000E+00
    0.00000E+00         0.00000E+00        -0.43452E+08
 
   -0.42700E+08         0.42583E+06         0.00000E+00
    0.42583E+06        -0.49997E+08         0.00000E+00
    0.00000E+00         0.00000E+00        -0.43456E+08
 
   -0.42722E+08         0.49052E+06         0.00000E+00
    0.49052E+06        -0.49996E+08         0.00000E+00
    0.00000E+00         0.00000E+00        -0.43461E+08
 
   -0.42744E+08         0.55503E+06         0.00000E+00
    0.55503E+06        -0.49995E+08         0.00000E+00
    0.00000E+00         0.00000E+00        -0.43465E+08
 
   -0.42766E+08         0.61936E+06         0.00000E+00
    0.61936E+06        -0.49994E+08         0.00000E+00
    0.00000E+00         0.00000E+00        -0.43469E+08
 
   -0.42787E+08         0.68352E+06         0.00000E+00
    0.68352E+06        -0.49992E+08         0.00000E+00
    0.00000E+00         0.00000E+00        -0.43473E+08
 
   -0.42809E+08         0.74751E+06         0.00000E+00
    0.74751E+06        -0.49991E+08         0.00000E+00
    0.00000E+00         0.00000E+00        -0.43477E+08
 
   -0.42830E+08         0.81136E+06         0.00000E+00
    0.81136E+06        -0.49989E+08         0.00000E+00
    0.00000E+00         0.00000E+00        -0.43481E+08
 
   -0.42852E+08         0.87506E+06         0.00000E+00
    0.87506E+06        -0.49988E+08         0.00000E+00
    0.00000E+00         0.00000E+00        -0.43486E+08
 
   -0.42873E+08         0.93863E+06         0.00000E+00
    0.93863E+06        -0.49986E+08         0.00000E+00
    0.00000E+00         0.00000E+00        -0.43490E+08
 
   -0.42894E+08         0.10021E+07         0.00000E+00
    0.10021E+07        -0.49984E+08         0.00000E+00
    0.00000E+00         0.00000E+00        -0.43494E+08
 
   -0.42915E+08         0.10654E+07         0.00000E+00
    0.10654E+07        -0.49982E+08         0.00000E+00
    0.00000E+00         0.00000E+00        -0.43497E+08
 
   -0.42936E+08         0.11286E+07         0.00000E+00
    0.11286E+07        -0.49979E+08         0.00000E+00
    0.00000E+00         0.00000E+00        -0.43501E+08
 
   -0.42957E+08         0.11917E+07         0.00000E+00
    0.11917E+07        -0.49977E+08         0.00000E+00
    0.00000E+00         0.00000E+00        -0.43505E+08
 
   -0.42978E+08         0.12547E+07         0.00000E+00
    0.12547E+07        -0.49975E+08         0.00000E+00
    0.00000E+00         0.00000E+00        -0.43509E+08
 
   -0.42999E+08         0.13176E+07         0.00000E+00
    0.13176E+07        -0.49972E+08         0.00000E+00
    0.00000E+00         0.00000E+00        -0.43513E+08
 
   -0.43020E+08         0.13805E+07         0.00000E+00
    0.13805E+07        -0.49969E+08         0.00000E+00
    0.00000E+00         0.00000E+00        -0.43516E+08
 
   -0.43040E+08         0.14432E+07         0.00000E+00
    0.14432E+07        -0.49966E+08         0.00000E+00
    0.00000E+00         0.00000E+00        -0.43520E+08
 
   -0.43061E+08         0.15059E+07         0.00000E+00
    0.15059E+07        -0.49963E+08         0.00000E+00
    0.00000E+00         0.00000E+00        -0.43524E+08
 
   -0.43081E+08         0.15686E+07         0.00000E+00
    0.15686E+07        -0.49959E+08         0.00000E+00
    0.00000E+00         0.00000E+00        -0.43527E+08
 
   -0.43102E+08         0.16312E+07         0.00000E+00
    0.16312E+07        -0.49956E+08         0.00000E+00
    0.00000E+00         0.00000E+00        -0.43531E+08
 
   -0.43122E+08         0.16937E+07         0.00000E+00
    0.16937E+07        -0.49952E+08         0.00000E+00
    0.00000E+00         0.00000E+00        -0.43534E+08
 
   -0.43142E+08         0.17562E+07         0.00000E+00
    0.17562E+07        -0.49948E+08         0.00000E+00
    0.00000E+00         0.00000E+00        -0.43538E+08
 
   -0.43163E+08         0.18187E+07         0.00000E+00
    0.18187E+07        -0.49944E+08         0.00000E+00
    0.00000E+00         0.00000E+00        -0.43541E+08
 
   -0.43183E+08         0.18811E+07         0.00000E+00
    0.18811E+07        -0.49940E+08         0.00000E+00
    0.00000E+00         0.00000E+00        -0.43544E+08
 
   -0.43203E+08         0.19436E+07         0.00000E+00
    0.19436E+07        -0.49936E+08         0.00000E+00
    0.00000E+00         0.00000E+00        -0.43548E+08
 
   -0.43223E+08         0.20060E+07         0.00000E+00
    0.20060E+07        -0.49931E+08         0.00000E+00
    0.00000E+00         0.00000E+00        -0.43551E+08
 
   -0.43243E+08         0.20684E+07         0.00000E+00
    0.20684E+07        -0.49926E+08         0.00000E+00
    0.00000E+00         0.00000E+00        -0.43554E+08
 
   -0.43264E+08         0.21308E+07         0.00000E+00
    0.21308E+07        -0.49921E+08         0.00000E+00
    0.00000E+00         0.00000E+00        -0.43557E+08
 
   -0.43284E+08         0.21932E+07         0.00000E+00
    0.21932E+07        -0.49916E+08         0.00000E+00
    0.00000E+00         0.00000E+00        -0.43560E+08
 
   -0.43304E+08         0.22556E+07         0.00000E+00
    0.22556E+07        -0.49911E+08         0.00000E+00
    0.00000E+00         0.00000E+00        -0.43564E+08
 
   -0.43324E+08         0.23180E+07         0.00000E+00
    0.23180E+07        -0.49905E+08         0.00000E+00
    0.00000E+00         0.00000E+00        -0.43567E+08
 
   -0.43344E+08         0.23805E+07         0.00000E+00
    0.23805E+07        -0.49899E+08         0.00000E+00
    0.00000E+00         0.00000E+00        -0.43569E+08
 
   -0.43364E+08         0.24429E+07         0.00000E+00
    0.24429E+07        -0.49893E+08         0.00000E+00
    0.00000E+00         0.00000E+00        -0.43572E+08
 
   -0.43385E+08         0.25054E+07         0.00000E+00
    0.25054E+07        -0.49887E+08         0.00000E+00
    0.00000E+00         0.00000E+00        -0.43575E+08
 
   -0.43405E+08         0.25679E+07         0.00000E+00
    0.25679E+07        -0.49880E+08         0.00000E+00
    0.00000E+00         0.00000E+00        -0.43578E+08
 
   -0.43426E+08         0.26304E+07         0.00000E+00
    0.26304E+07        -0.49873E+08         0.00000E+00
    0.00000E+00         0.00000E+00        -0.43581E+08
 
   -0.43446E+08         0.26930E+07         0.00000E+00
    0.26930E+07        -0.49866E+08         0.00000E+00
    0.00000E+00         0.00000E+00        -0.43584E+08
 
   -0.43467E+08         0.27556E+07         0.00000E+00
    0.27556E+07        -0.49859E+08         0.00000E+00
    0.00000E+00         0.00000E+00        -0.43586E+08
 
   -0.43487E+08         0.28183E+07         0.00000E+00
    0.28183E+07        -0.49851E+08         0.00000E+00
    0.00000E+00         0.00000E+00        -0.43589E+08
 
   -0.43508E+08         0.28809E+07         0.00000E+00
    0.28809E+07        -0.49843E+08         0.00000E+00
    0.00000E+00         0.00000E+00        -0.43592E+08
 
   -0.43529E+08         0.29437E+07         0.00000E+00
    0.29437E+07        -0.49835E+08         0.00000E+00
    0.00000E+00         0.00000E+00        -0.43594E+08
 
   -0.43550E+08         0.30064E+07         0.00000E+00
    0.30064E+07        -0.49826E+08         0.00000E+00
    0.00000E+00         0.00000E+00        -0.43597E+08
 
   -0.43571E+08         0.30693E+07         0.00000E+00
    0.30693E+07        -0.49817E+08         0.00000E+00
    0.00000E+00         0.00000E+00        -0.43599E+08
 
   -0.43592E+08         0.31321E+07         0.00000E+00
    0.31321E+07        -0.49808E+08         0.00000E+00
    0.00000E+00         0.00000E+00        -0.43602E+08
 
   -0.42235E+08         0.33626E+05         0.00000E+00
    0.33626E+05        -0.50000E+08         0.00000E+00
    0.00000E+00         0.00000E+00        -0.43106E+08
 
   -0.42259E+08         0.10027E+06         0.00000E+00
    0.10027E+06        -0.50000E+08         0.00000E+00
    0.00000E+00         0.00000E+00        -0.43111E+08
 
   -0.42282E+08         0.16666E+06         0.00000E+00
    0.16666E+06        -0.49999E+08         0.00000E+00
    0.00000E+00         0.00000E+00        -0.43116E+08
 
   -0.42305E+08         0.23282E+06         0.00000E+00
    0.23282E+06        -0.49999E+08         0.00000E+00
    0.00000E+00         0.00000E+00        -0.43120E+08
 
   -0.42329E+08         0.29875E+06         0.00000E+00
    0.29875E+06        -0.49999E+08         0.00000E+00
    0.00000E+00         0.00000E+00        -0.43125E+08
 
   -0.42352E+08         0.36447E+06         0.00000E+00
    0.36447E+06        -0.49998E+08         0.00000E+00
    0.00000E+00         0.00000E+00        -0.43130E+08
 
   -0.42375E+08         0.42997E+06         0.00000E+00
    0.42997E+06        -0.49997E+08         0.00000E+00
    0.00000E+00         0.00000E+00        -0.43134E+08
 
   -0.42398E+08         0.49528E+06         0.00000E+00
    0.49528E+06        -0.49996E+08         0.00000E+00
    0.00000E+00         0.00000E+00        -0.43139E+08
 
   -0.42420E+08         0.56040E+06         0.00000E+00
    0.56040E+06        -0.49995E+08         0.00000E+00
    0.00000E+00         0.00000E+00        -0.43143E+08
 
   -0.42443E+08         0.62535E+06         0.00000E+00
    0.62535E+06        -0.49994E+08         0.00000E+00
    0.00000E+00         0.00000E+00        -0.43147E+08
 
   -0.42465E+08         0.69013E+06         0.00000E+00
    0.69013E+06        -0.49993E+08         0.00000E+00
    0.00000E+00         0.00000E+00        -0.43152E+08
 
   -0.42488E+08         0.75475E+06         0.00000E+00
    0.75475E+06        -0.49992E+08         0.00000E+00
    0.00000E+00         0.00000E+00        -0.43156E+08
 
   -0.42510E+08         0.81923E+06         0.00000E+00
    0.81923E+06        -0.49990E+08         0.00000E+00
    0.00000E+00         0.00000E+00        -0.43160E+08
 
   -0.42532E+08         0.88357E+06         0.00000E+00
    0.88357E+06        -0.49989E+08         0.00000E+00
    0.00000E+00         0.00000E+00        -0.43165E+08
 
   -0.42554E+08         0.94778E+06         0.00000E+00
    0.94778E+06        -0.49987E+08         0.00000E+00
    0.00000E+00         0.00000E+00        -0.43169E+08
 
   -0.42576E+08         0.10119E+07         0.00000E+00
    0.10119E+07        -0.49985E+08         0.00000E+00
    0.00000E+00         0.00000E+00        -0.43173E+08
 
   -0.42597E+08         0.10759E+07         0.00000E+00
    0.10759E+07        -0.49984E+08         0.00000E+00
    0.00000E+00         0.00000E+00        -0.43177E+08
 
   -0.42619E+08         0.11398E+07         0.00000E+00
    0.11398E+07        -0.49982E+08         0.00000E+00
    0.00000E+00         0.00000E+00        -0.43181E+08
 
   -0.42640E+08         0.12036E+07         0.00000E+00
    0.12036E+07        -0.49979E+08         0.00000E+00
    0.00000E+00         0.00000E+00        -0.43185E+08
 
   -0.42661E+08         0.12673E+07         0.00000E+00
    0.12673E+07        -0.49977E+08         0.00000E+00
    0.00000E+00         0.00000E+00        -0.43189E+08
 
   -0.42683E+08         0.13309E+07         0.00000E+00
    0.13309E+07        -0.49975E+08         0.00000E+00
    0.00000E+00         0.00000E+00        -0.43193E+08
 
   -0.42704E+08         0.13945E+07         0.00000E+00
    0.13945E+07        -0.49972E+08         0.00000E+00
    0.00000E+00         0.00000E+00        -0.43197E+08
 
   -0.42725E+08         0.14581E+07         0.00000E+00
    0.14581E+07        -0.49969E+08         0.00000E+00
    0.00000E+00         0.00000E+00        -0.43200E+08
 
   -0.42745E+08         0.15216E+07         0.00000E+00
    0.15216E+07        -0.49966E+08         0.00000E+00
    0.00000E+00         0.00000E+00        -0.43204E+08
 
   -0.42766E+08         0.15850E+07         0.00000E+00
    0.15850E+07        -0.49963E+08         0.00000E+00
    0.00000E+00         0.00000E+00        -0.43208E+08
 
   -0.42787E+08         0.16484E+07         0.00000E+00
    0.16484E+07        -0.49960E+08         0.00000E+00
    0.00000E+00         0.00000E+00        -0.43211E+08
 
   -0.42807E+08         0.17118E+07         0.00000E+00
    0.17118E+07        -0.49957E+08         0.00000E+00
    0.00000E+00         0.00000E+00        -0.43215E+08
 
   -0.42828E+08         0.17752E+07         0.00000E+00
    0.17752E+07        -0.49953E+08         0.00000E+00
    0.00000E+00         0.00000E+00        -0.43219E+08
 
   -0.42848E+08         0.18386E+07         0.00000E+00
    0.18386E+07        -0.49949E+08         0.00000E+00
    0.00000E+00         0.00000E+00        -0.43222E+08
 
   -0.42868E+08         0.19020E+07         0.00000E+00
    0.19020E+07        -0.49945E+08         0.00000E+00
    0.00000E+00         0.00000E+00        -0.43225E+08
 
   -0.42888E+08         0.19654E+07         0.00000E+00
    0.19654E+07        -0.49941E+08         0.00000E+00
    0.00000E+00         0.00000E+00        -0.43229E+08
 
   -0.42909E+08         0.20288E+07         0.00000E+00
    0.20288E+07        -0.49937E+08         0.00000E+00
    0.00000E+00         0.00000E+00        -0.43232E+08
 
   -0.42929E+08         0.20922E+07         0.00000E+00
    0.20922E+07        -0.49933E+08         0.00000E+00
    0.00000E+00         0.00000E+00        -0.43235E+08
 
   -0.42949E+08         0.21557E+07         0.00000E+00
    0.21557E+07        -0.49928E+08         0.00000E+00
    0.00000E+00         0.00000E+00        -0.43239E+08
 
   -0.42969E+08         0.22191E+07         0.00000E+00
    0.22191E+07        -0.49923E+08         0.00000E+00
    0.00000E+00         0.00000E+00        -0.43242E+08
 
   -0.42989E+08         0.22827E+07         0.00000E+00
    0.22827E+07        -0.49918E+08         0.00000E+00
    0.00000E+00         0.00000E+00        -0.43245E+08
 
   -0.43009E+08         0.23462E+07         0.00000E+00
    0.23462E+07        -0.49912E+08         0.00000E+00
    0.00000E+00         0.00000E+00        -0.43248E+08
 
   -0.43029E+08         0.24098E+07         0.00000E+00
    0.24098E+07        -0.49907E+08         0.00000E+00
    0.00000E+00         0.00000E+00        -0.43251E+08
 
   -0.43049E+08         0.24735E+07         0.00000E+00
    0.24735E+07        -0.49901E+08         0.00000E+00
    0.00000E+00         0.00000E+00        -0.43254E+08
 
   -0.43069E+08         0.25372E+07         0.00000E+00
    0.25372E+07        -0.49895E+08         0.00000E+00
    0.00000E+00         0.00000E+00        -0.43257E+08
 
   -0.43089E+08         0.26010E+07         0.00000E+00
    0.26010E+07        -0.49889E+08         0.00000E+00
    0.00000E+00         0.00000E+00        -0.43259E+08
 
   -0.43109E+08         0.26649E+07         0.00000E+00
    0.26649E+07        -0.49882E+08         0.00000E+00
    0.00000E+00         0.00000E+00        -0.43262E+08
 
   -0.43130E+08         0.27288E+07         0.00000E+00
    0.27288E+07        -0.49875E+08         0.00000E+00
    0.00000E+00         0.00000E+00        -0.43265E+08
 
   -0.43150E+08         0.27928E+07         0.00000E+00
    0.27928E+07        -0.49868E+08         0.00000E+00
    0.00000E+00         0.00000E+00        -0.43268E+08
 
   -0.43170E+08         0.28569E+07         0.00000E+00
    0.28569E+07        -0.49860E+08         0.00000E+00
    0.00000E+00         0.00000E+00        -0.43270E+08
 
   -0.43191E+08         0.29210E+07         0.00000E+00
    0.29210E+07        -0.49853E+08         0.00000E+00
    0.00000E+00         0.00000E+00        -0.43273E+08
 
   -0.43211E+08         0.29853E+07         0.00000E+00
    0.29853E+07        -0.49845E+08         0.00000E+00
    0.00000E+00         0.00000E+00        -0.43275E+08
 
   -0.43232E+08         0.30496E+07         0.00000E+00
    0.30496E+07        -0.49836E+08         0.00000E+00
    0.00000E+00         0.00000E+00        -0.43278E+08
 
   -0.43253E+08         0.31140E+07         0.00000E+00
    0.31140E+07        -0.49828E+08         0.00000E+00
    0.00000E+00         0.00000E+00        -0.43280E+08
 
   -0.43273E+08         0.31785E+07         0.00000E+00
    0.31785E+07        -0.49819E+08         0.00000E+00
    0.00000E+00         0.00000E+00        -0.43283E+08
 
   -0.41900E+08         0.33930E+05         0.00000E+00
    0.33930E+05        -0.50000E+08         0.00000E+00
    0.00000E+00         0.00000E+00        -0.42775E+08
 
   -0.41924E+08         0.10115E+06         0.00000E+00
    0.10115E+06        -0.50000E+08         0.00000E+00
    0.00000E+00         0.00000E+00        -0.42780E+08
 
   -0.41949E+08         0.16811E+06         0.00000E+00
    0.16811E+06        -0.50000E+08         0.00000E+00
    0.00000E+00         0.00000E+00        -0.42785E+08
 
   -0.41974E+08         0.23482E+06         0.00000E+00
    0.23482E+06        -0.49999E+08         0.00000E+00
    0.00000E+00         0.00000E+00        -0.42789E+08
 
   -0.41998E+08         0.30130E+06         0.00000E+00
    0.30130E+06        -0.49999E+08         0.00000E+00
    0.00000E+00         0.00000E+00        -0.42794E+08
 
   -0.42022E+08         0.36756E+06         0.00000E+00
    0.36756E+06        -0.49998E+08         0.00000E+00
    0.00000E+00         0.00000E+00        -0.42799E+08
 
   -0.42046E+08         0.43360E+06         0.00000E+00
    0.43360E+06        -0.49998E+08         0.00000E+00
    0.00000E+00         0.00000E+00        -0.42804E+08
 
   -0.42070E+08         0.49945E+06         0.00000E+00
    0.49945E+06        -0.49997E+08         0.00000E+00
    0.00000E+00         0.00000E+00        -0.42809E+08
 
   -0.42094E+08         0.56511E+06         0.00000E+00
    0.56511E+06        -0.49996E+08         0.00000E+00
    0.00000E+00         0.00000E+00        -0.42813E+08
 
   -0.42117E+08         0.63060E+06         0.00000E+00
    0.63060E+06        -0.49995E+08         0.00000E+00
    0.00000E+00         0.00000E+00        -0.42818E+08
 
   -0.42140E+08         0.69593E+06         0.00000E+00
    0.69593E+06        -0.49994E+08         0.00000E+00
    0.00000E+00         0.00000E+00        -0.42822E+08
 
   -0.42164E+08         0.76111E+06         0.00000E+00
    0.76111E+06        -0.49993E+08         0.00000E+00
    0.00000E+00         0.00000E+00        -0.42827E+08
 
   -0.42186E+08         0.82614E+06         0.00000E+00
    0.82614E+06        -0.49992E+08         0.00000E+00
    0.00000E+00         0.00000E+00        -0.42831E+08
 
   -0.42209E+08         0.89106E+06         0.00000E+00
    0.89106E+06        -0.49991E+08         0.00000E+00
    0.00000E+00         0.00000E+00        -0.42836E+08
 
   -0.42232E+08         0.95585E+06         0.00000E+00
    0.95585E+06        -0.49989E+08         0.00000E+00
    0.00000E+00         0.00000E+00        -0.42840E+08
 
   -0.42254E+08         0.10205E+07         0.00000E+00
    0.10205E+07        -0.49988E+08         0.00000E+00
    0.00000E+00         0.00000E+00        -0.42844E+08
 
   -0.42276E+08         0.10851E+07         0.00000E+00
    0.10851E+07        -0.49986E+08         0.00000E+00
    0.00000E+00         0.00000E+00        -0.42849E+08
 
   -0.42298E+08         0.11497E+07         0.00000E+00
    0.11497E+07        -0.49984E+08         0.00000E+00
    0.00000E+00         0.00000E+00        -0.42853E+08
 
   -0.42320E+08         0.12141E+07         0.00000E+00
    0.12141E+07        -0.49982E+08         0.00000E+00
    0.00000E+00         0.00000E+00        -0.42857E+08
 
   -0.42341E+08         0.12785E+07         0.00000E+00
    0.12785E+07        -0.49980E+08         0.00000E+00
    0.00000E+00         0.00000E+00        -0.42861E+08
 
   -0.42363E+08         0.13428E+07         0.00000E+00
    0.13428E+07        -0.49978E+08         0.00000E+00
    0.00000E+00         0.00000E+00        -0.42865E+08
 
   -0.42384E+08         0.14071E+07         0.00000E+00
    0.14071E+07        -0.49976E+08         0.00000E+00
    0.00000E+00         0.00000E+00        -0.42869E+08
 
   -0.42405E+08         0.14714E+07         0.00000E+00
    0.14714E+07        -0.49973E+08         0.00000E+00
    0.00000E+00         0.00000E+00        -0.42873E+08
 
   -0.42426E+08         0.15356E+07         0.00000E+00
    0.15356E+07        -0.49971E+08         0.00000E+00
    0.00000E+00         0.00000E+00        -0.42877E+08
 
   -0.42447E+08         0.15998E+07         0.00000E+00
    0.15998E+07        -0.49968E+08         0.00000E+00
    0.00000E+00         0.00000E+00        -0.42880E+08
 
   -0.42467E+08         0.16641E+07         0.00000E+00
    0.16641E+07        -0.49965E+08         0.00000E+00
    0.00000E+00         0.00000E+00        -0.42884E+08
 
   -0.42488E+08         0.17283E+07         0.00000E+00
    0.17283E+07        -0.49962E+08         0.00000E+00
    0.00000E+00         0.00000E+00        -0.42888E+08
 
   -0.42508E+08         0.17926E+07         0.00000E+00
    0.17926E+07        -0.49959E+08         0.00000E+00
    0.00000E+00         0.00000E+00        -0.42891E+08
 
   -0.42529E+08         0.18568E+07         0.00000E+00
    0.18568E+07        -0.49956E+08         0.00000E+00
    0.00000E+00         0.00000E+00        -0.42895E+08
 
   -0.42549E+08         0.19211E+07         0.00000E+00
    0.19211E+07        -0.49952E+08         0.00000E+00
    0.00000E+00         0.00000E+00        -0.42898E+08
 
   -0.42569E+08         0.19855E+07         0.00000E+00
    0.19855E+07        -0.49948E+08         0.00000E+00
    0.00000E+00         0.00000E+00        -0.42902E+08
 
   -0.42589E+08         0.20499E+07         0.00000E+00
    0.20499E+07        -0.49945E+08         0.00000E+00
    0.00000E+00         0.00000E+00        -0.42905E+08
 
   -0.42609E+08         0.21143E+07         0.00000E+00
    0.21143E+07        -0.49940E+08         0.00000E+00
    0.00000E+00         0.00000E+00        -0.42908E+08
 
   -0.42629E+08         0.21788E+07         0.00000E+00
    0.21788E+07        -0.49936E+08         0.00000E+00
    0.00000E+00         0.00000E+00        -0.42912E+08
 
   -0.42649E+08         0.22434E+07         0.00000E+00
    0.22434E+07        -0.49932E+08         0.00000E+00
    0.00000E+00         0.00000E+00        -0.42915E+08
 
   -0.42668E+08         0.23080E+07         0.00000E+00
    0.23080E+07        -0.49927E+08         0.00000E+00
    0.00000E+00         0.00000E+00        -0.42918E+08
 
   -0.42688E+08         0.23728E+07         0.00000E+00
    0.23728E+07        -0.49922E+08         0.00000E+00
    0.00000E+00         0.00000E+00        -0.42921E+08
 
   -0.42708E+08         0.24376E+07         0.00000E+00
    0.24376E+07        -0.49917E+08         0.00000E+00
    0.00000E+00         0.00000E+00        -0.42924E+08
 
   -0.42727E+08         0.25025E+07         0.00000E+00
    0.25025E+07        -0.49911E+08         0.00000E+00
    0.00000E+00         0.00000E+00        -0.42927E+08
 
   -0.42747E+08         0.25675E+07         0.00000E+00
    0.25675E+07        -0.49905E+08         0.00000E+00
    0.00000E+00         0.00000E+00        -0.42930E+08
 
   -0.42767E+08         0.26326E+07         0.00000E+00
    0.26326E+07        -0.49899E+08         0.00000E+00
    0.00000E+00         0.00000E+00        -0.42933E+08
 
   -0.42787E+08         0.26978E+07         0.00000E+00
    0.26978E+07        -0.49893E+08         0.00000E+00
    0.00000E+00         0.00000E+00        -0.42935E+08
 
   -0.42806E+08         0.27631E+07         0.00000E+00
    0.27631E+07        -0.49887E+08         0.00000E+00
    0.00000E+00         0.00000E+00        -0.42938E+08
 
   -0.42826E+08         0.28285E+07         0.00000E+00
    0.28285E+07        -0.49880E+08         0.00000E+00
    0.00000E+00         0.00000E+00        -0.42941E+08
 
   -0.42846E+08         0.28941E+07         0.00000E+00
    0.28941E+07        -0.49873E+08         0.00000E+00
    0.00000E+00         0.00000E+00        -0.42943E+08
 
   -0.42866E+08         0.29598E+07         0.00000E+00
    0.29598E+07        -0.49865E+08         0.00000E+00
    0.00000E+00         0.00000E+00        -0.42946E+08
 
   -0.42886E+08         0.30256E+07         0.00000E+00
    0.30256E+07        -0.49858E+08         0.00000E+00
    0.00000E+00         0.00000E+00        -0.42948E+08
 
   -0.42906E+08         0.30915E+07         0.00000E+00
    0.30915E+07        -0.49850E+08         0.00000E+00
    0.00000E+00         0.00000E+00        -0.42951E+08
 
   -0.42926E+08         0.31576E+07         0.00000E+00
    0.31576E+07        -0.49841E+08         0.00000E+00
    0.00000E+00         0.00000E+00        -0.42953E+08
 
   -0.42946E+08         0.32237E+07         0.00000E+00
    0.32237E+07        -0.49832E+08         0.00000E+00
    0.00000E+00         0.00000E+00        -0.42955E+08
 
   -0.41562E+08         0.34184E+05         0.00000E+00
    0.34184E+05        -0.50000E+08         0.00000E+00
    0.00000E+00         0.00000E+00        -0.42434E+08
 
   -0.41588E+08         0.10188E+06         0.00000E+00
    0.10188E+06        -0.50000E+08         0.00000E+00
    0.00000E+00         0.00000E+00        -0.42440E+08
 
   -0.41614E+08         0.16930E+06         0.00000E+00
    0.16930E+06        -0.50000E+08         0.00000E+00
    0.00000E+00         0.00000E+00        -0.42445E+08
 
   -0.41640E+08         0.23647E+06         0.00000E+00
    0.23647E+06        -0.49999E+08         0.00000E+00
    0.00000E+00         0.00000E+00        -0.42450E+08
 
   -0.41665E+08         0.30339E+06         0.00000E+00
    0.30339E+06        -0.49999E+08         0.00000E+00
    0.00000E+00         0.00000E+00        -0.42455E+08
 
   -0.41690E+08         0.37009E+06         0.00000E+00
    0.37009E+06        -0.49999E+08         0.00000E+00
    0.00000E+00         0.00000E+00        -0.42460E+08
 
   -0.41715E+08         0.43658E+06         0.00000E+00
    0.43658E+06        -0.49998E+08         0.00000E+00
    0.00000E+00         0.00000E+00        -0.42465E+08
 
   -0.41740E+08         0.50287E+06         0.00000E+00
    0.50287E+06        -0.49998E+08         0.00000E+00
    0.00000E+00         0.00000E+00        -0.42470E+08
 
   -0.41765E+08         0.56897E+06         0.00000E+00
    0.56897E+06        -0.49997E+08         0.00000E+00
    0.00000E+00         0.00000E+00        -0.42475E+08
 
   -0.41789E+08         0.63491E+06         0.00000E+00
    0.63491E+06        -0.49996E+08         0.00000E+00
    0.00000E+00         0.00000E+00        -0.42480E+08
 
   -0.41813E+08         0.70069E+06         0.00000E+00
    0.70069E+06        -0.49995E+08         0.00000E+00
    0.00000E+00         0.00000E+00        -0.42485E+08
 
   -0.41837E+08         0.76633E+06         0.00000E+00
    0.76633E+06        -0.49995E+08         0.00000E+00
    0.00000E+00         0.00000E+00        -0.42489E+08
 
   -0.41860E+08         0.83184E+06         0.00000E+00
    0.83184E+06        -0.49994E+08         0.00000E+00
    0.00000E+00         0.00000E+00        -0.42494E+08
 
   -0.41884E+08         0.89723E+06         0.00000E+00
    0.89723E+06        -0.49993E+08         0.00000E+00
    0.00000E+00         0.00000E+00        -0.42498E+08
 
   -0.41907E+08         0.96253E+06         0.00000E+00
    0.96253E+06        -0.49991E+08         0.00000E+00
    0.00000E+00         0.00000E+00        -0.42503E+08
 
   -0.41929E+08         0.10277E+07         0.00000E+00
    0.10277E+07        -0.49990E+08         0.00000E+00
    0.00000E+00         0.00000E+00        -0.42507E+08
 
   -0.41952E+08         0.10929E+07         0.00000E+00
    0.10929E+07        -0.49989E+08         0.00000E+00
    0.00000E+00         0.00000E+00        -0.42512E+08
 
   -0.41974E+08         0.11579E+07         0.00000E+00
    0.11579E+07        -0.49987E+08         0.00000E+00
    0.00000E+00         0.00000E+00        -0.42516E+08
 
   -0.41996E+08         0.12230E+07         0.00000E+00
    0.12230E+07        -0.49986E+08         0.00000E+00
    0.00000E+00         0.00000E+00        -0.42520E+08
 
   -0.42018E+08         0.12879E+07         0.00000E+00
    0.12879E+07        -0.49984E+08         0.00000E+00
    0.00000E+00         0.00000E+00        -0.42524E+08
 
   -0.42040E+08         0.13529E+07         0.00000E+00
    0.13529E+07        -0.49983E+08         0.00000E+00
    0.00000E+00         0.00000E+00        -0.42529E+08
 
   -0.42061E+08         0.14178E+07         0.00000E+00
    0.14178E+07        -0.49981E+08         0.00000E+00
    0.00000E+00         0.00000E+00        -0.42533E+08
 
   -0.42082E+08         0.14828E+07         0.00000E+00
    0.14828E+07        -0.49979E+08         0.00000E+00
    0.00000E+00         0.00000E+00        -0.42537E+08
 
   -0.42103E+08         0.15477E+07         0.00000E+00
    0.15477E+07        -0.49977E+08         0.00000E+00
    0.00000E+00         0.00000E+00        -0.42541E+08
 
   -0.42124E+08         0.16127E+07         0.00000E+00
    0.16127E+07        -0.49974E+08         0.00000E+00
    0.00000E+00         0.00000E+00        -0.42544E+08
 
   -0.42144E+08         0.16777E+07         0.00000E+00
    0.16777E+07        -0.49972E+08         0.00000E+00
    0.00000E+00         0.00000E+00        -0.42548E+08
 
   -0.42165E+08         0.17427E+07         0.00000E+00
    0.17427E+07        -0.49969E+08         0.00000E+00
    0.00000E+00         0.00000E+00        -0.42552E+08
 
   -0.42185E+08         0.18078E+07         0.00000E+00
    0.18078E+07        -0.49967E+08         0.00000E+00
    0.00000E+00         0.00000E+00        -0.42556E+08
 
   -0.42205E+08         0.18729E+07         0.00000E+00
    0.18729E+07        -0.49964E+08         0.00000E+00
    0.00000E+00         0.00000E+00        -0.42559E+08
 
   -0.42225E+08         0.19381E+07         0.00000E+00
    0.19381E+07        -0.49961E+08         0.00000E+00
    0.00000E+00         0.00000E+00        -0.42563E+08
 
   -0.42245E+08         0.20034E+07         0.00000E+00
    0.20034E+07        -0.49958E+08         0.00000E+00
    0.00000E+00         0.00000E+00        -0.42566E+08
 
   -0.42264E+08         0.20688E+07         0.00000E+00
    0.20688E+07        -0.49954E+08         0.00000E+00
    0.00000E+00         0.00000E+00        -0.42569E+08
 
   -0.42284E+08         0.21342E+07         0.00000E+00
    0.21342E+07        -0.49950E+08         0.00000E+00
    0.00000E+00         0.00000E+00        -0.42573E+08
 
   -0.42303E+08         0.21998E+07         0.00000E+00
    0.21998E+07        -0.49947E+08         0.00000E+00
    0.00000E+00         0.00000E+00        -0.42576E+08
 
   -0.42323E+08         0.22654E+07         0.00000E+00
    0.22654E+07        -0.49943E+08         0.00000E+00
    0.00000E+00         0.00000E+00        -0.42579E+08
 
   -0.42342E+08         0.23312E+07         0.00000E+00
    0.23312E+07        -0.49938E+08         0.00000E+00
    0.00000E+00         0.00000E+00        -0.42582E+08
 
   -0.42361E+08         0.23971E+07         0.00000E+00
    0.23971E+07        -0.49934E+08         0.00000E+00
    0.00000E+00         0.00000E+00        -0.42585E+08
 
   -0.42380E+08         0.24632E+07         0.00000E+00
    0.24632E+07        -0.49929E+08         0.00000E+00
    0.00000E+00         0.00000E+00        -0.42588E+08
 
   -0.42399E+08         0.25293E+07         0.00000E+00
    0.25293E+07        -0.49924E+08         0.00000E+00
    0.00000E+00         0.00000E+00        -0.42591E+08
 
   -0.42419E+08         0.25956E+07         0.00000E+00
    0.25956E+07        -0.49919E+08         0.00000E+00
    0.00000E+00         0.00000E+00        -0.42594E+08
 
   -0.42438E+08         0.26621E+07         0.00000E+00
    0.26621E+07        -0.49913E+08         0.00000E+00
    0.00000E+00         0.00000E+00        -0.42597E+08
 
   -0.42457E+08         0.27287E+07         0.00000E+00
    0.27287E+07        -0.49908E+08         0.00000E+00
    0.00000E+00         0.00000E+00        -0.42600E+08
 
   -0.42476E+08         0.27954E+07         0.00000E+00
    0.27954E+07        -0.49901E+08         0.00000E+00
    0.00000E+00         0.00000E+00        -0.42602E+08
 
   -0.42495E+08         0.28623E+07         0.00000E+00
    0.28623E+07        -0.49895E+08         0.00000E+00
    0.00000E+00         0.00000E+00        -0.42605E+08
 
   -0.42514E+08         0.29294E+07         0.00000E+00
    0.29294E+07        -0.49888E+08         0.00000E+00
    0.00000E+00         0.00000E+00        -0.42608E+08
 
   -0.42533E+08         0.29967E+07         0.00000E+00
    0.29967E+07        -0.49881E+08         0.00000E+00
    0.00000E+00         0.00000E+00        -0.42610E+08
 
   -0.42552E+08         0.30641E+07         0.00000E+00
    0.30641E+07        -0.49874E+08         0.00000E+00
    0.00000E+00         0.00000E+00        -0.42612E+08
 
   -0.42572E+08         0.31317E+07         0.00000E+00
    0.31317E+07        -0.49866E+08         0.00000E+00
    0.00000E+00         0.00000E+00        -0.42615E+08
 
   -0.42591E+08         0.31995E+07         0.00000E+00
    0.31995E+07        -0.49858E+08         0.00000E+00
    0.00000E+00         0.00000E+00        -0.42617E+08
 
   -0.42611E+08         0.32674E+07         0.00000E+00
    0.32674E+07        -0.49850E+08         0.00000E+00
    0.00000E+00         0.00000E+00        -0.42619E+08
 
   -0.41221E+08         0.34375E+05         0.00000E+00
    0.34375E+05        -0.50000E+08         0.00000E+00
    0.00000E+00         0.00000E+00        -0.42086E+08
 
   -0.41249E+08         0.10241E+06         0.00000E+00
    0.10241E+06        -0.50000E+08         0.00000E+00
    0.00000E+00         0.00000E+00        -0.42091E+08
 
   -0.41276E+08         0.17017E+06         0.00000E+00
    0.17017E+06        -0.50000E+08         0.00000E+00
    0.00000E+00         0.00000E+00        -0.42097E+08
 
   -0.41303E+08         0.23766E+06         0.00000E+00
    0.23766E+06        -0.49999E+08         0.00000E+00
    0.00000E+00         0.00000E+00        -0.42102E+08
 
   -0.41330E+08         0.30491E+06         0.00000E+00
    0.30491E+06        -0.49999E+08         0.00000E+00
    0.00000E+00         0.00000E+00        -0.42107E+08
 
   -0.41357E+08         0.37192E+06         0.00000E+00
    0.37192E+06        -0.49999E+08         0.00000E+00
    0.00000E+00         0.00000E+00        -0.42113E+08
 
   -0.41383E+08         0.43872E+06         0.00000E+00
    0.43872E+06        -0.49999E+08         0.00000E+00
    0.00000E+00         0.00000E+00        -0.42118E+08
 
   -0.41408E+08         0.50533E+06         0.00000E+00
    0.50533E+06        -0.49998E+08         0.00000E+00
    0.00000E+00         0.00000E+00        -0.42123E+08
 
   -0.41434E+08         0.57176E+06         0.00000E+00
    0.57176E+06        -0.49998E+08         0.00000E+00
    0.00000E+00         0.00000E+00        -0.42128E+08
 
   -0.41459E+08         0.63802E+06         0.00000E+00
    0.63802E+06        -0.49997E+08         0.00000E+00
    0.00000E+00         0.00000E+00        -0.42133E+08
 
   -0.41484E+08         0.70414E+06         0.00000E+00
    0.70414E+06        -0.49997E+08         0.00000E+00
    0.00000E+00         0.00000E+00        -0.42138E+08
 
   -0.41508E+08         0.77013E+06         0.00000E+00
    0.77013E+06        -0.49996E+08         0.00000E+00
    0.00000E+00         0.00000E+00        -0.42143E+08
 
   -0.41532E+08         0.83600E+06         0.00000E+00
    0.83600E+06        -0.49996E+08         0.00000E+00
    0.00000E+00         0.00000E+00        -0.42148E+08
 
   -0.41556E+08         0.90178E+06         0.00000E+00
    0.90178E+06        -0.49995E+08         0.00000E+00
    0.00000E+00         0.00000E+00        -0.42152E+08
 
   -0.41579E+08         0.96747E+06         0.00000E+00
    0.96747E+06        -0.49994E+08         0.00000E+00
    0.00000E+00         0.00000E+00        -0.42157E+08
 
   -0.41602E+08         0.10331E+07         0.00000E+00
    0.10331E+07        -0.49993E+08         0.00000E+00
    0.00000E+00         0.00000E+00        -0.42162E+08
 
   -0.41625E+08         0.10987E+07         0.00000E+00
    0.10987E+07        -0.49993E+08         0.00000E+00
    0.00000E+00         0.00000E+00        -0.42166E+08
 
   -0.41648E+08         0.11642E+07         0.00000E+00
    0.11642E+07        -0.49992E+08         0.00000E+00
    0.00000E+00         0.00000E+00        -0.42171E+08
 
   -0.41670E+08         0.12297E+07         0.00000E+00
    0.12297E+07        -0.49991E+08         0.00000E+00
    0.00000E+00         0.00000E+00        -0.42175E+08
 
   -0.41692E+08         0.12952E+07         0.00000E+00
    0.12952E+07        -0.49989E+08         0.00000E+00
    0.00000E+00         0.00000E+00        -0.42179E+08
 
   -0.41713E+08         0.13607E+07         0.00000E+00
    0.13607E+07        -0.49988E+08         0.00000E+00
    0.00000E+00         0.00000E+00        -0.42184E+08
 
   -0.41735E+08         0.14262E+07         0.00000E+00
    0.14262E+07        -0.49987E+08         0.00000E+00
    0.00000E+00         0.00000E+00        -0.42188E+08
 
   -0.41756E+08         0.14918E+07         0.00000E+00
    0.14918E+07        -0.49985E+08         0.00000E+00
    0.00000E+00         0.00000E+00        -0.42192E+08
 
   -0.41777E+08         0.15574E+07         0.00000E+00
    0.15574E+07        -0.49984E+08         0.00000E+00
    0.00000E+00         0.00000E+00        -0.42196E+08
 
   -0.41797E+08         0.16230E+07         0.00000E+00
    0.16230E+07        -0.49982E+08         0.00000E+00
    0.00000E+00         0.00000E+00        -0.42200E+08
 
   -0.41817E+08         0.16887E+07         0.00000E+00
    0.16887E+07        -0.49980E+08         0.00000E+00
    0.00000E+00         0.00000E+00        -0.42204E+08
 
   -0.41837E+08         0.17545E+07         0.00000E+00
    0.17545E+07        -0.49978E+08         0.00000E+00
    0.00000E+00         0.00000E+00        -0.42207E+08
 
   -0.41857E+08         0.18204E+07         0.00000E+00
    0.18204E+07        -0.49976E+08         0.00000E+00
    0.00000E+00         0.00000E+00        -0.42211E+08
 
   -0.41877E+08         0.18863E+07         0.00000E+00
    0.18863E+07        -0.49974E+08         0.00000E+00
    0.00000E+00         0.00000E+00        -0.42215E+08
 
   -0.41896E+08         0.19524E+07         0.00000E+00
    0.19524E+07        -0.49971E+08         0.00000E+00
    0.00000E+00         0.00000E+00        -0.42218E+08
 
   -0.41916E+08         0.20186E+07         0.00000E+00
    0.20186E+07        -0.49969E+08         0.00000E+00
    0.00000E+00         0.00000E+00        -0.42222E+08
 
   -0.41935E+08         0.20849E+07         0.00000E+00
    0.20849E+07        -0.49966E+08         0.00000E+00
    0.00000E+00         0.00000E+00        -0.42225E+08
 
   -0.41954E+08         0.21514E+07         0.00000E+00
    0.21514E+07        -0.49963E+08         0.00000E+00
    0.00000E+00         0.00000E+00        -0.42228E+08
 
   -0.41973E+08         0.22180E+07         0.00000E+00
    0.22180E+07        -0.49960E+08         0.00000E+00
    0.00000E+00         0.00000E+00        -0.42232E+08
 
   -0.41991E+08         0.22848E+07         0.00000E+00
    0.22848E+07        -0.49956E+08         0.00000E+00
    0.00000E+00         0.00000E+00        -0.42235E+08
 
   -0.42010E+08         0.23517E+07         0.00000E+00
    0.23517E+07        -0.49953E+08         0.00000E+00
    0.00000E+00         0.00000E+00        -0.42238E+08
 
   -0.42028E+08         0.24188E+07         0.00000E+00
    0.24188E+07        -0.49949E+08         0.00000E+00
    0.00000E+00         0.00000E+00        -0.42241E+08
 
   -0.42047E+08         0.24860E+07         0.00000E+00
    0.24860E+07        -0.49945E+08         0.00000E+00
    0.00000E+00         0.00000E+00        -0.42244E+08
 
   -0.42065E+08         0.25535E+07         0.00000E+00
    0.25535E+07        -0.49940E+08         0.00000E+00
    0.00000E+00         0.00000E+00        -0.42247E+08
 
   -0.42083E+08         0.26211E+07         0.00000E+00
    0.26211E+07        -0.49935E+08         0.00000E+00
    0.00000E+00         0.00000E+00        -0.42250E+08
 
   -0.42101E+08         0.26889E+07         0.00000E+00
    0.26889E+07        -0.49931E+08         0.00000E+00
    0.00000E+00         0.00000E+00        -0.42252E+08
 
   -0.42120E+08         0.27570E+07         0.00000E+00
    0.27570E+07        -0.49925E+08         0.00000E+00
    0.00000E+00         0.00000E+00        -0.42255E+08
 
   -0.42138E+08         0.28252E+07         0.00000E+00
    0.28252E+07        -0.49920E+08         0.00000E+00
    0.00000E+00         0.00000E+00        -0.42258E+08
 
   -0.42156E+08         0.28937E+07         0.00000E+00
    0.28937E+07        -0.49914E+08         0.00000E+00
    0.00000E+00         0.00000E+00        -0.42260E+08
 
   -0.42174E+08         0.29623E+07         0.00000E+00
    0.29623E+07        -0.49908E+08         0.00000E+00
    0.00000E+00         0.00000E+00        -0.42263E+08
 
   -0.42192E+08         0.30312E+07         0.00000E+00
    0.30312E+07        -0.49901E+08         0.00000E+00
    0.00000E+00         0.00000E+00        -0.42265E+08
 
   -0.42211E+08         0.31003E+07         0.00000E+00
    0.31003E+07        -0.49895E+08         0.00000E+00
    0.00000E+00         0.00000E+00        -0.42267E+08
 
   -0.42229E+08         0.31697E+07         0.00000E+00
    0.31697E+07        -0.49888E+08         0.00000E+00
    0.00000E+00         0.00000E+00        -0.42270E+08
 
   -0.42247E+08         0.32392E+07         0.00000E+00
    0.32392E+07        -0.49880E+08         0.00000E+00
    0.00000E+00         0.00000E+00        -0.42272E+08
 
   -0.42266E+08         0.33090E+07         0.00000E+00
    0.33090E+07        -0.49872E+08         0.00000E+00
    0.00000E+00         0.00000E+00        -0.42274E+08
 
   -0.40880E+08         0.34485E+05         0.00000E+00
    0.34485E+05        -0.50000E+08         0.00000E+00
    0.00000E+00         0.00000E+00        -0.41728E+08
 
   -0.40909E+08         0.10271E+06         0.00000E+00
    0.10271E+06        -0.50000E+08         0.00000E+00
    0.00000E+00         0.00000E+00        -0.41733E+08
 
   -0.40938E+08         0.17064E+06         0.00000E+00
    0.17064E+06        -0.50000E+08         0.00000E+00
    0.00000E+00         0.00000E+00        -0.41739E+08
 
   -0.40966E+08         0.23829E+06         0.00000E+00
    0.23829E+06        -0.50000E+08         0.00000E+00
    0.00000E+00         0.00000E+00        -0.41745E+08
 
   -0.40994E+08         0.30570E+06         0.00000E+00
    0.30570E+06        -0.50000E+08         0.00000E+00
    0.00000E+00         0.00000E+00        -0.41751E+08
 
   -0.41022E+08         0.37287E+06         0.00000E+00
    0.37287E+06        -0.49999E+08         0.00000E+00
    0.00000E+00         0.00000E+00        -0.41756E+08
 
   -0.41049E+08         0.43984E+06         0.00000E+00
    0.43984E+06        -0.49999E+08         0.00000E+00
    0.00000E+00         0.00000E+00        -0.41762E+08
 
   -0.41075E+08         0.50661E+06         0.00000E+00
    0.50661E+06        -0.49999E+08         0.00000E+00
    0.00000E+00         0.00000E+00        -0.41767E+08
 
   -0.41102E+08         0.57321E+06         0.00000E+00
    0.57321E+06        -0.49999E+08         0.00000E+00
    0.00000E+00         0.00000E+00        -0.41772E+08
 
   -0.41127E+08         0.63965E+06         0.00000E+00
    0.63965E+06        -0.49999E+08         0.00000E+00
    0.00000E+00         0.00000E+00        -0.41778E+08
 
   -0.41153E+08         0.70597E+06         0.00000E+00
    0.70597E+06        -0.49999E+08         0.00000E+00
    0.00000E+00         0.00000E+00        -0.41783E+08
 
   -0.41178E+08         0.77217E+06         0.00000E+00
    0.77217E+06        -0.49999E+08         0.00000E+00
    0.00000E+00         0.00000E+00        -0.41788E+08
 
   -0.41202E+08         0.83827E+06         0.00000E+00
    0.83827E+06        -0.49998E+08         0.00000E+00
    0.00000E+00         0.00000E+00        -0.41793E+08
 
   -0.41226E+08         0.90430E+06         0.00000E+00
    0.90430E+06        -0.49998E+08         0.00000E+00
    0.00000E+00         0.00000E+00        -0.41798E+08
 
   -0.41250E+08         0.97026E+06         0.00000E+00
    0.97026E+06        -0.49998E+08         0.00000E+00
    0.00000E+00         0.00000E+00        -0.41802E+08
 
   -0.41274E+08         0.10362E+07         0.00000E+00
    0.10362E+07        -0.49998E+08         0.00000E+00
    0.00000E+00         0.00000E+00        -0.41807E+08
 
   -0.41296E+08         0.11021E+07         0.00000E+00
    0.11021E+07        -0.49997E+08         0.00000E+00
    0.00000E+00         0.00000E+00        -0.41812E+08
 
   -0.41319E+08         0.11680E+07         0.00000E+00
    0.11680E+07        -0.49997E+08         0.00000E+00
    0.00000E+00         0.00000E+00        -0.41816E+08
 
   -0.41341E+08         0.12339E+07         0.00000E+00
    0.12339E+07        -0.49996E+08         0.00000E+00
    0.00000E+00         0.00000E+00        -0.41821E+08
 
   -0.41363E+08         0.12998E+07         0.00000E+00
    0.12998E+07        -0.49996E+08         0.00000E+00
    0.00000E+00         0.00000E+00        -0.41825E+08
 
   -0.41385E+08         0.13658E+07         0.00000E+00
    0.13658E+07        -0.49995E+08         0.00000E+00
    0.00000E+00         0.00000E+00        -0.41830E+08
 
   -0.41406E+08         0.14318E+07         0.00000E+00
    0.14318E+07        -0.49994E+08         0.00000E+00
    0.00000E+00         0.00000E+00        -0.41834E+08
 
   -0.41426E+08         0.14978E+07         0.00000E+00
    0.14978E+07        -0.49993E+08         0.00000E+00
    0.00000E+00         0.00000E+00        -0.41838E+08
 
   -0.41447E+08         0.15640E+07         0.00000E+00
    0.15640E+07        -0.49993E+08         0.00000E+00
    0.00000E+00         0.00000E+00        -0.41842E+08
 
   -0.41467E+08         0.16303E+07         0.00000E+00
    0.16303E+07        -0.49992E+08         0.00000E+00
    0.00000E+00         0.00000E+00        -0.41846E+08
 
   -0.41487E+08         0.16966E+07         0.00000E+00
    0.16966E+07        -0.49990E+08         0.00000E+00
    0.00000E+00         0.00000E+00        -0.41850E+08
 
   -0.41506E+08         0.17631E+07         0.00000E+00
    0.17631E+07        -0.49989E+08         0.00000E+00
    0.00000E+00         0.00000E+00        -0.41854E+08
 
   -0.41526E+08         0.18297E+07         0.00000E+00
    0.18297E+07        -0.49988E+08         0.00000E+00
    0.00000E+00         0.00000E+00        -0.41857E+08
 
   -0.41545E+08         0.18965E+07         0.00000E+00
    0.18965E+07        -0.49986E+08         0.00000E+00
    0.00000E+00         0.00000E+00        -0.41861E+08
 
   -0.41564E+08         0.19634E+07         0.00000E+00
    0.19634E+07        -0.49984E+08         0.00000E+00
    0.00000E+00         0.00000E+00        -0.41865E+08
 
   -0.41582E+08         0.20305E+07         0.00000E+00
    0.20305E+07        -0.49982E+08         0.00000E+00
    0.00000E+00         0.00000E+00        -0.41868E+08
 
   -0.41600E+08         0.20978E+07         0.00000E+00
    0.20978E+07        -0.49980E+08         0.00000E+00
    0.00000E+00         0.00000E+00        -0.41872E+08
 
   -0.41619E+08         0.21652E+07         0.00000E+00
    0.21652E+07        -0.49978E+08         0.00000E+00
    0.00000E+00         0.00000E+00        -0.41875E+08
 
   -0.41637E+08         0.22329E+07         0.00000E+00
    0.22329E+07        -0.49976E+08         0.00000E+00
    0.00000E+00         0.00000E+00        -0.41878E+08
 
   -0.41654E+08         0.23007E+07         0.00000E+00
    0.23007E+07        -0.49973E+08         0.00000E+00
    0.00000E+00         0.00000E+00        -0.41881E+08
 
   -0.41672E+08         0.23688E+07         0.00000E+00
    0.23688E+07        -0.49970E+08         0.00000E+00
    0.00000E+00         0.00000E+00        -0.41884E+08
 
   -0.41689E+08         0.24371E+07         0.00000E+00
    0.24371E+07        -0.49967E+08         0.00000E+00
    0.00000E+00         0.00000E+00        -0.41887E+08
 
   -0.41707E+08         0.25056E+07         0.00000E+00
    0.25056E+07        -0.49963E+08         0.00000E+00
    0.00000E+00         0.00000E+00        -0.41890E+08
 
   -0.41724E+08         0.25743E+07         0.00000E+00
    0.25743E+07        -0.49960E+08         0.00000E+00
    0.00000E+00         0.00000E+00        -0.41893E+08
 
   -0.41741E+08         0.26433E+07         0.00000E+00
    0.26433E+07        -0.49956E+08         0.00000E+00
    0.00000E+00         0.00000E+00        -0.41896E+08
 
   -0.41758E+08         0.27126E+07         0.00000E+00
    0.27126E+07        -0.49952E+08         0.00000E+00
    0.00000E+00         0.00000E+00        -0.41898E+08
 
   -0.41775E+08         0.27821E+07         0.00000E+00
    0.27821E+07        -0.49947E+08         0.00000E+00
    0.00000E+00         0.00000E+00        -0.41901E+08
 
   -0.41792E+08         0.28518E+07         0.00000E+00
    0.28518E+07        -0.49942E+08         0.00000E+00
    0.00000E+00         0.00000E+00        -0.41903E+08
 
   -0.41809E+08         0.29219E+07         0.00000E+00
    0.29219E+07        -0.49937E+08         0.00000E+00
    0.00000E+00         0.00000E+00        -0.41906E+08
 
   -0.41826E+08         0.29922E+07         0.00000E+00
    0.29922E+07        -0.49932E+08         0.00000E+00
    0.00000E+00         0.00000E+00        -0.41908E+08
 
   -0.41843E+08         0.30627E+07         0.00000E+00
    0.30627E+07        -0.49926E+08         0.00000E+00
    0.00000E+00         0.00000E+00        -0.41910E+08
 
   -0.41860E+08         0.31336E+07         0.00000E+00
    0.31336E+07        -0.49920E+08         0.00000E+00
    0.00000E+00         0.00000E+00        -0.41913E+08
 
   -0.41877E+08         0.32047E+07         0.00000E+00
    0.32047E+07        -0.49913E+08         0.00000E+00
    0.00000E+00         0.00000E+00        -0.41915E+08
 
   -0.41894E+08         0.32762E+07         0.00000E+00
    0.32762E+07        -0.49906E+08         0.00000E+00
    0.00000E+00         0.00000E+00        -0.41917E+08
 
   -0.41911E+08         0.33479E+07         0.00000E+00
    0.33479E+07        -0.49899E+08         0.00000E+00
    0.00000E+00         0.00000E+00        -0.41919E+08
 
   -0.40538E+08         0.34494E+05         0.00000E+00
    0.34494E+05        -0.50000E+08         0.00000E+00
    0.00000E+00         0.00000E+00        -0.41360E+08
 
   -0.40569E+08         0.10270E+06         0.00000E+00
    0.10270E+06        -0.50000E+08         0.00000E+00
    0.00000E+00         0.00000E+00        -0.41367E+08
 
   -0.40599E+08         0.17060E+06         0.00000E+00
    0.17060E+06        -0.50000E+08         0.00000E+00
    0.00000E+00         0.00000E+00        -0.41373E+08
 
   -0.40629E+08         0.23822E+06         0.00000E+00
    0.23822E+06        -0.50000E+08         0.00000E+00
    0.00000E+00         0.00000E+00        -0.41379E+08
 
   -0.40658E+08         0.30559E+06         0.00000E+00
    0.30559E+06        -0.50000E+08         0.00000E+00
    0.00000E+00         0.00000E+00        -0.41385E+08
 
   -0.40686E+08         0.37273E+06         0.00000E+00
    0.37273E+06        -0.50000E+08         0.00000E+00
    0.00000E+00         0.00000E+00        -0.41390E+08
 
   -0.40714E+08         0.43967E+06         0.00000E+00
    0.43967E+06        -0.50000E+08         0.00000E+00
    0.00000E+00         0.00000E+00        -0.41396E+08
 
   -0.40742E+08         0.50642E+06         0.00000E+00
    0.50642E+06        -0.50001E+08         0.00000E+00
    0.00000E+00         0.00000E+00        -0.41402E+08
 
   -0.40769E+08         0.57301E+06         0.00000E+00
    0.57301E+06        -0.50001E+08         0.00000E+00
    0.00000E+00         0.00000E+00        -0.41407E+08
 
   -0.40795E+08         0.63946E+06         0.00000E+00
    0.63946E+06        -0.50001E+08         0.00000E+00
    0.00000E+00         0.00000E+00        -0.41413E+08
 
   -0.40821E+08         0.70580E+06         0.00000E+00
    0.70580E+06        -0.50001E+08         0.00000E+00
    0.00000E+00         0.00000E+00        -0.41418E+08
 
   -0.40847E+08         0.77204E+06         0.00000E+00
    0.77204E+06        -0.50001E+08         0.00000E+00
    0.00000E+00         0.00000E+00        -0.41423E+08
 
   -0.40872E+08         0.83821E+06         0.00000E+00
    0.83821E+06        -0.50002E+08         0.00000E+00
    0.00000E+00         0.00000E+00        -0.41428E+08
 
   -0.40896E+08         0.90434E+06         0.00000E+00
    0.90434E+06        -0.50002E+08         0.00000E+00
    0.00000E+00         0.00000E+00        -0.41434E+08
 
   -0.40920E+08         0.97043E+06         0.00000E+00
    0.97043E+06        -0.50002E+08         0.00000E+00
    0.00000E+00         0.00000E+00        -0.41439E+08
 
   -0.40943E+08         0.10365E+07         0.00000E+00
    0.10365E+07        -0.50003E+08         0.00000E+00
    0.00000E+00         0.00000E+00        -0.41443E+08
 
   -0.40966E+08         0.11026E+07         0.00000E+00
    0.11026E+07        -0.50003E+08         0.00000E+00
    0.00000E+00         0.00000E+00        -0.41448E+08
 
   -0.40989E+08         0.11687E+07         0.00000E+00
    0.11687E+07        -0.50003E+08         0.00000E+00
    0.00000E+00         0.00000E+00        -0.41453E+08
 
   -0.41011E+08         0.12349E+07         0.00000E+00
    0.12349E+07        -0.50003E+08         0.00000E+00
    0.00000E+00         0.00000E+00        -0.41457E+08
 
   -0.41032E+08         0.13011E+07         0.00000E+00
    0.13011E+07        -0.50003E+08         0.00000E+00
    0.00000E+00         0.00000E+00        -0.41462E+08
 
   -0.41054E+08         0.13674E+07         0.00000E+00
    0.13674E+07        -0.50003E+08         0.00000E+00
    0.00000E+00         0.00000E+00        -0.41466E+08
 
   -0.41074E+08         0.14338E+07         0.00000E+00
    0.14338E+07        -0.50003E+08         0.00000E+00
    0.00000E+00         0.00000E+00        -0.41471E+08
 
   -0.41095E+08         0.15004E+07         0.00000E+00
    0.15004E+07        -0.50003E+08         0.00000E+00
    0.00000E+00         0.00000E+00        -0.41475E+08
 
   -0.41115E+08         0.15670E+07         0.00000E+00
    0.15670E+07        -0.50003E+08         0.00000E+00
    0.00000E+00         0.00000E+00        -0.41479E+08
 
   -0.41134E+08         0.16338E+07         0.00000E+00
    0.16338E+07        -0.50003E+08         0.00000E+00
    0.00000E+00         0.00000E+00        -0.41483E+08
 
   -0.41153E+08         0.17008E+07         0.00000E+00
    0.17008E+07        -0.50003E+08         0.00000E+00
    0.00000E+00         0.00000E+00        -0.41487E+08
 
   -0.41172E+08         0.17679E+07         0.00000E+00
    0.17679E+07        -0.50002E+08         0.00000E+00
    0.00000E+00         0.00000E+00        -0.41491E+08
 
   -0.41190E+08         0.18352E+07         0.00000E+00
    0.18352E+07        -0.50002E+08         0.00000E+00
    0.00000E+00         0.00000E+00        -0.41494E+08
 
   -0.41209E+08         0.19027E+07         0.00000E+00
    0.19027E+07        -0.50001E+08         0.00000E+00
    0.00000E+00         0.00000E+00        -0.41498E+08
 
   -0.41226E+08         0.19705E+07         0.00000E+00
    0.19705E+07        -0.50000E+08         0.00000E+00
    0.00000E+00         0.00000E+00        -0.41502E+08
 
   -0.41244E+08         0.20384E+07         0.00000E+00
    0.20384E+07        -0.49999E+08         0.00000E+00
    0.00000E+00         0.00000E+00        -0.41505E+08
 
   -0.41261E+08         0.21066E+07         0.00000E+00
    0.21066E+07        -0.49998E+08         0.00000E+00
    0.00000E+00         0.00000E+00        -0.41508E+08
 
   -0.41278E+08         0.21750E+07         0.00000E+00
    0.21750E+07        -0.49996E+08         0.00000E+00
    0.00000E+00         0.00000E+00        -0.41512E+08
 
   -0.41295E+08         0.22437E+07         0.00000E+00
    0.22437E+07        -0.49995E+08         0.00000E+00
    0.00000E+00         0.00000E+00        -0.41515E+08
 
   -0.41312E+08         0.23126E+07         0.00000E+00
    0.23126E+07        -0.49993E+08         0.00000E+00
    0.00000E+00         0.00000E+00        -0.41518E+08
 
   -0.41328E+08         0.23818E+07         0.00000E+00
    0.23818E+07        -0.49991E+08         0.00000E+00
    0.00000E+00         0.00000E+00        -0.41521E+08
 
   -0.41344E+08         0.24513E+07         0.00000E+00
    0.24513E+07        -0.49989E+08         0.00000E+00
    0.00000E+00         0.00000E+00        -0.41524E+08
 
   -0.41360E+08         0.25211E+07         0.00000E+00
    0.25211E+07        -0.49986E+08         0.00000E+00
    0.00000E+00         0.00000E+00        -0.41527E+08
 
   -0.41376E+08         0.25912E+07         0.00000E+00
    0.25912E+07        -0.49983E+08         0.00000E+00
    0.00000E+00         0.00000E+00        -0.41529E+08
 
   -0.41392E+08         0.26616E+07         0.00000E+00
    0.26616E+07        -0.49980E+08         0.00000E+00
    0.00000E+00         0.00000E+00        -0.41532E+08
 
   -0.41408E+08         0.27323E+07         0.00000E+00
    0.27323E+07        -0.49977E+08         0.00000E+00
    0.00000E+00         0.00000E+00        -0.41534E+08
 
   -0.41423E+08         0.28033E+07         0.00000E+00
    0.28033E+07        -0.49973E+08         0.00000E+00
    0.00000E+00         0.00000E+00        -0.41537E+08
 
   -0.41439E+08         0.28746E+07         0.00000E+00
    0.28746E+07        -0.49969E+08         0.00000E+00
    0.00000E+00         0.00000E+00        -0.41539E+08
 
   -0.41454E+08         0.29463E+07         0.00000E+00
    0.29463E+07        -0.49965E+08         0.00000E+00
    0.00000E+00         0.00000E+00        -0.41542E+08
 
   -0.41469E+08         0.30183E+07         0.00000E+00
    0.30183E+07        -0.49960E+08         0.00000E+00
    0.00000E+00         0.00000E+00        -0.41544E+08
 
   -0.41485E+08         0.30906E+07         0.00000E+00
    0.30906E+07        -0.49955E+08         0.00000E+00
    0.00000E+00         0.00000E+00        -0.41546E+08
 
   -0.41500E+08         0.31633E+07         0.00000E+00
    0.31633E+07        -0.49950E+08         0.00000E+00
    0.00000E+00         0.00000E+00        -0.41548E+08
 
   -0.41516E+08         0.32363E+07         0.00000E+00
    0.32363E+07        -0.49944E+08         0.00000E+00
    0.00000E+00         0.00000E+00        -0.41550E+08
 
   -0.41531E+08         0.33097E+07         0.00000E+00
    0.33097E+07        -0.49938E+08         0.00000E+00
    0.00000E+00         0.00000E+00        -0.41552E+08
 
   -0.41547E+08         0.33834E+07         0.00000E+00
    0.33834E+07        -0.49932E+08         0.00000E+00
    0.00000E+00         0.00000E+00        -0.41554E+08
 
   -0.40197E+08         0.34378E+05         0.00000E+00
    0.34378E+05        -0.50000E+08         0.00000E+00
    0.00000E+00         0.00000E+00        -0.40984E+08
 
   -0.40229E+08         0.10232E+06         0.00000E+00
    0.10232E+06        -0.50000E+08         0.00000E+00
    0.00000E+00         0.00000E+00        -0.40990E+08
 
   -0.40261E+08         0.16994E+06         0.00000E+00
    0.16994E+06        -0.50000E+08         0.00000E+00
    0.00000E+00         0.00000E+00        -0.40997E+08
 
   -0.40292E+08         0.23729E+06         0.00000E+00
    0.23729E+06        -0.50000E+08         0.00000E+00
    0.00000E+00         0.00000E+00        -0.41003E+08
 
   -0.40322E+08         0.30438E+06         0.00000E+00
    0.30438E+06        -0.50001E+08         0.00000E+00
    0.00000E+00         0.00000E+00        -0.41009E+08
 
   -0.40352E+08         0.37125E+06         0.00000E+00
    0.37125E+06        -0.50001E+08         0.00000E+00
    0.00000E+00         0.00000E+00        -0.41015E+08
 
   -0.40381E+08         0.43793E+06         0.00000E+00
    0.43793E+06        -0.50001E+08         0.00000E+00
    0.00000E+00         0.00000E+00        -0.41021E+08
 
   -0.40409E+08         0.50443E+06         0.00000E+00
    0.50443E+06        -0.50002E+08         0.00000E+00
    0.00000E+00         0.00000E+00        -0.41027E+08
 
   -0.40437E+08         0.57079E+06         0.00000E+00
    0.57079E+06        -0.50003E+08         0.00000E+00
    0.00000E+00         0.00000E+00        -0.41033E+08
 
   -0.40464E+08         0.63704E+06         0.00000E+00
    0.63704E+06        -0.50003E+08         0.00000E+00
    0.00000E+00         0.00000E+00        -0.41038E+08
 
   -0.40490E+08         0.70319E+06         0.00000E+00
    0.70319E+06        -0.50004E+08         0.00000E+00
    0.00000E+00         0.00000E+00        -0.41044E+08
 
   -0.40516E+08         0.76928E+06         0.00000E+00
    0.76928E+06        -0.50005E+08         0.00000E+00
    0.00000E+00         0.00000E+00        -0.41049E+08
 
   -0.40541E+08         0.83534E+06         0.00000E+00
    0.83534E+06        -0.50006E+08         0.00000E+00
    0.00000E+00         0.00000E+00        -0.41055E+08
 
   -0.40566E+08         0.90137E+06         0.00000E+00
    0.90137E+06        -0.50007E+08         0.00000E+00
    0.00000E+00         0.00000E+00        -0.41060E+08
 
   -0.40590E+08         0.96741E+06         0.00000E+00
    0.96741E+06        -0.50008E+08         0.00000E+00
    0.00000E+00         0.00000E+00        -0.41065E+08
 
   -0.40613E+08         0.10335E+07         0.00000E+00
    0.10335E+07        -0.50009E+08         0.00000E+00
    0.00000E+00         0.00000E+00        -0.41070E+08
 
   -0.40636E+08         0.10996E+07         0.00000E+00
    0.10996E+07        -0.50010E+08         0.00000E+00
    0.00000E+00         0.00000E+00        -0.41075E+08
 
   -0.40658E+08         0.11658E+07         0.00000E+00
    0.11658E+07        -0.50011E+08         0.00000E+00
    0.00000E+00         0.00000E+00        -0.41080E+08
 
   -0.40679E+08         0.12321E+07         0.00000E+00
    0.12321E+07        -0.50012E+08         0.00000E+00
    0.00000E+00         0.00000E+00        -0.41084E+08
 
   -0.40701E+08         0.12985E+07         0.00000E+00
    0.12985E+07        -0.50013E+08         0.00000E+00
    0.00000E+00         0.00000E+00        -0.41089E+08
 
   -0.40721E+08         0.13651E+07         0.00000E+00
    0.13651E+07        -0.50014E+08         0.00000E+00
    0.00000E+00         0.00000E+00        -0.41093E+08
 
   -0.40741E+08         0.14318E+07         0.00000E+00
    0.14318E+07        -0.50014E+08         0.00000E+00
    0.00000E+00         0.00000E+00        -0.41098E+08
 
   -0.40761E+08         0.14986E+07         0.00000E+00
    0.14986E+07        -0.50015E+08         0.00000E+00
    0.00000E+00         0.00000E+00        -0.41102E+08
 
   -0.40780E+08         0.15657E+07         0.00000E+00
    0.15657E+07        -0.50016E+08         0.00000E+00
    0.00000E+00         0.00000E+00        -0.41106E+08
 
   -0.40798E+08         0.16329E+07         0.00000E+00
    0.16329E+07        -0.50017E+08         0.00000E+00
    0.00000E+00         0.00000E+00        -0.41110E+08
 
   -0.40817E+08         0.17004E+07         0.00000E+00
    0.17004E+07        -0.50018E+08         0.00000E+00
    0.00000E+00         0.00000E+00        -0.41114E+08
 
   -0.40834E+08         0.17681E+07         0.00000E+00
    0.17681E+07        -0.50018E+08         0.00000E+00
    0.00000E+00         0.00000E+00        -0.41118E+08
 
   -0.40852E+08         0.18361E+07         0.00000E+00
    0.18361E+07        -0.50018E+08         0.00000E+00
    0.00000E+00         0.00000E+00        -0.41122E+08
 
   -0.40869E+08         0.19043E+07         0.00000E+00
    0.19043E+07        -0.50019E+08         0.00000E+00
    0.00000E+00         0.00000E+00        -0.41125E+08
 
   -0.40885E+08         0.19728E+07         0.00000E+00
    0.19728E+07        -0.50019E+08         0.00000E+00
    0.00000E+00         0.00000E+00        -0.41129E+08
 
   -0.40901E+08         0.20415E+07         0.00000E+00
    0.20415E+07        -0.50019E+08         0.00000E+00
    0.00000E+00         0.00000E+00        -0.41132E+08
 
   -0.40917E+08         0.21106E+07         0.00000E+00
    0.21106E+07        -0.50019E+08         0.00000E+00
    0.00000E+00         0.00000E+00        -0.41135E+08
 
   -0.40933E+08         0.21800E+07         0.00000E+00
    0.21800E+07        -0.50018E+08         0.00000E+00
    0.00000E+00         0.00000E+00        -0.41138E+08
 
   -0.40948E+08         0.22497E+07         0.00000E+00
    0.22497E+07        -0.50018E+08         0.00000E+00
    0.00000E+00         0.00000E+00        -0.41142E+08
 
   -0.40963E+08         0.23197E+07         0.00000E+00
    0.23197E+07        -0.50017E+08         0.00000E+00
    0.00000E+00         0.00000E+00        -0.41145E+08
 
   -0.40978E+08         0.23901E+07         0.00000E+00
    0.23901E+07        -0.50016E+08         0.00000E+00
    0.00000E+00         0.00000E+00        -0.41147E+08
 
   -0.40993E+08         0.24608E+07         0.00000E+00
    0.24608E+07        -0.50015E+08         0.00000E+00
    0.00000E+00         0.00000E+00        -0.41150E+08
 
   -0.41007E+08         0.25319E+07         0.00000E+00
    0.25319E+07        -0.50013E+08         0.00000E+00
    0.00000E+00         0.00000E+00        -0.41153E+08
 
   -0.41022E+08         0.26033E+07         0.00000E+00
    0.26033E+07        -0.50012E+08         0.00000E+00
    0.00000E+00         0.00000E+00        -0.41155E+08
 
   -0.41036E+08         0.26751E+07         0.00000E+00
    0.26751E+07        -0.50010E+08         0.00000E+00
    0.00000E+00         0.00000E+00        -0.41158E+08
 
   -0.41049E+08         0.27473E+07         0.00000E+00
    0.27473E+07        -0.50007E+08         0.00000E+00
    0.00000E+00         0.00000E+00        -0.41160E+08
 
   -0.41063E+08         0.28199E+07         0.00000E+00
    0.28199E+07        -0.50005E+08         0.00000E+00
    0.00000E+00         0.00000E+00        -0.41163E+08
 
   -0.41077E+08         0.28929E+07         0.00000E+00
    0.28929E+07        -0.50002E+08         0.00000E+00
    0.00000E+00         0.00000E+00        -0.41165E+08
 
   -0.41091E+08         0.29662E+07         0.00000E+00
    0.29662E+07        -0.49998E+08         0.00000E+00
    0.00000E+00         0.00000E+00        -0.41167E+08
 
   -0.41104E+08         0.30400E+07         0.00000E+00
    0.30400E+07        -0.49995E+08         0.00000E+00
    0.00000E+00         0.00000E+00        -0.41169E+08
 
   -0.41118E+08         0.31141E+07         0.00000E+00
    0.31141E+07        -0.49991E+08         0.00000E+00
    0.00000E+00         0.00000E+00        -0.41171E+08
 
   -0.41131E+08         0.31887E+07         0.00000E+00
    0.31887E+07        -0.49986E+08         0.00000E+00
    0.00000E+00         0.00000E+00        -0.41173E+08
 
   -0.41145E+08         0.32637E+07         0.00000E+00
    0.32637E+07        -0.49981E+08         0.00000E+00
    0.00000E+00         0.00000E+00        -0.41175E+08
 
   -0.41158E+08         0.33391E+07         0.00000E+00
    0.33391E+07        -0.49976E+08         0.00000E+00
    0.00000E+00         0.00000E+00        -0.41176E+08
 
   -0.41172E+08         0.34149E+07         0.00000E+00
    0.34149E+07        -0.49971E+08         0.00000E+00
    0.00000E+00         0.00000E+00        -0.41178E+08
 
   -0.39857E+08         0.34105E+05         0.00000E+00
    0.34105E+05        -0.50000E+08         0.00000E+00
    0.00000E+00         0.00000E+00        -0.40597E+08
 
   -0.39891E+08         0.10147E+06         0.00000E+00
    0.10147E+06        -0.50000E+08         0.00000E+00
    0.00000E+00         0.00000E+00        -0.40604E+08
 
   -0.39925E+08         0.16852E+06         0.00000E+00
    0.16852E+06        -0.50000E+08         0.00000E+00
    0.00000E+00         0.00000E+00        -0.40611E+08
 
   -0.39957E+08         0.23530E+06         0.00000E+00
    0.23530E+06        -0.50001E+08         0.00000E+00
    0.00000E+00         0.00000E+00        -0.40617E+08
 
   -0.39988E+08         0.30182E+06         0.00000E+00
    0.30182E+06        -0.50001E+08         0.00000E+00
    0.00000E+00         0.00000E+00        -0.40624E+08
 
   -0.40019E+08         0.36814E+06         0.00000E+00
    0.36814E+06        -0.50002E+08         0.00000E+00
    0.00000E+00         0.00000E+00        -0.40630E+08
 
   -0.40049E+08         0.43427E+06         0.00000E+00
    0.43427E+06        -0.50003E+08         0.00000E+00
    0.00000E+00         0.00000E+00        -0.40636E+08
 
   -0.40078E+08         0.50026E+06         0.00000E+00
    0.50026E+06        -0.50004E+08         0.00000E+00
    0.00000E+00         0.00000E+00        -0.40643E+08
 
   -0.40106E+08         0.56613E+06         0.00000E+00
    0.56613E+06        -0.50005E+08         0.00000E+00
    0.00000E+00         0.00000E+00        -0.40649E+08
 
   -0.40134E+08         0.63192E+06         0.00000E+00
    0.63192E+06        -0.50006E+08         0.00000E+00
    0.00000E+00         0.00000E+00        -0.40654E+08
 
   -0.40160E+08         0.69765E+06         0.00000E+00
    0.69765E+06        -0.50008E+08         0.00000E+00
    0.00000E+00         0.00000E+00        -0.40660E+08
 
   -0.40186E+08         0.76335E+06         0.00000E+00
    0.76335E+06        -0.50009E+08         0.00000E+00
    0.00000E+00         0.00000E+00        -0.40666E+08
 
   -0.40212E+08         0.82906E+06         0.00000E+00
    0.82906E+06        -0.50011E+08         0.00000E+00
    0.00000E+00         0.00000E+00        -0.40671E+08
 
   -0.40236E+08         0.89479E+06         0.00000E+00
    0.89479E+06        -0.50012E+08         0.00000E+00
    0.00000E+00         0.00000E+00        -0.40677E+08
 
   -0.40260E+08         0.96058E+06         0.00000E+00
    0.96058E+06        -0.50014E+08         0.00000E+00
    0.00000E+00         0.00000E+00        -0.40682E+08
 
   -0.40283E+08         0.10265E+07         0.00000E+00
    0.10265E+07        -0.50016E+08         0.00000E+00
    0.00000E+00         0.00000E+00        -0.40687E+08
 
   -0.40305E+08         0.10924E+07         0.00000E+00
    0.10924E+07        -0.50018E+08         0.00000E+00
    0.00000E+00         0.00000E+00        -0.40692E+08
 
   -0.40327E+08         0.11585E+07         0.00000E+00
    0.11585E+07        -0.50020E+08         0.00000E+00
    0.00000E+00         0.00000E+00        -0.40697E+08
 
   -0.40348E+08         0.12248E+07         0.00000E+00
    0.12248E+07        -0.50022E+08         0.00000E+00
    0.00000E+00         0.00000E+00        -0.40701E+08
 
   -0.40368E+08         0.12912E+07         0.00000E+00
    0.12912E+07        -0.50024E+08         0.00000E+00
    0.00000E+00         0.00000E+00        -0.40706E+08
 
   -0.40388E+08         0.13579E+07         0.00000E+00
    0.13579E+07        -0.50026E+08         0.00000E+00
    0.00000E+00         0.00000E+00        -0.40711E+08
 
   -0.40407E+08         0.14247E+07         0.00000E+00
    0.14247E+07        -0.50028E+08         0.00000E+00
    0.00000E+00         0.00000E+00        -0.40715E+08
 
   -0.40425E+08         0.14918E+07         0.00000E+00
    0.14918E+07        -0.50030E+08         0.00000E+00
    0.00000E+00         0.00000E+00        -0.40719E+08
 
   -0.40443E+08         0.15591E+07         0.00000E+00
    0.15591E+07        -0.50032E+08         0.00000E+00
    0.00000E+00         0.00000E+00        -0.40723E+08
 
   -0.40461E+08         0.16268E+07         0.00000E+00
    0.16268E+07        -0.50033E+08         0.00000E+00
    0.00000E+00         0.00000E+00        -0.40727E+08
 
   -0.40477E+08         0.16947E+07         0.00000E+00
    0.16947E+07        -0.50035E+08         0.00000E+00
    0.00000E+00         0.00000E+00        -0.40731E+08
 
   -0.40494E+08         0.17629E+07         0.00000E+00
    0.17629E+07        -0.50037E+08         0.00000E+00
    0.00000E+00         0.00000E+00        -0.40735E+08
 
   -0.40510E+08         0.18314E+07         0.00000E+00
    0.18314E+07        -0.50039E+08         0.00000E+00
    0.00000E+00         0.00000E+00        -0.40739E+08
 
   -0.40525E+08         0.19003E+07         0.00000E+00
    0.19003E+07        -0.50040E+08         0.00000E+00
    0.00000E+00         0.00000E+00        -0.40742E+08
 
   -0.40540E+08         0.19695E+07         0.00000E+00
    0.19695E+07        -0.50041E+08         0.00000E+00
    0.00000E+00         0.00000E+00        -0.40745E+08
 
   -0.40555E+08         0.20391E+07         0.00000E+00
    0.20391E+07        -0.50043E+08         0.00000E+00
    0.00000E+00         0.00000E+00        -0.40749E+08
 
   -0.40569E+08         0.21090E+07         0.00000E+00
    0.21090E+07        -0.50044E+08         0.00000E+00
    0.00000E+00         0.00000E+00        -0.40752E+08
 
   -0.40583E+08         0.21793E+07         0.00000E+00
    0.21793E+07        -0.50045E+08         0.00000E+00
    0.00000E+00         0.00000E+00        -0.40755E+08
 
   -0.40596E+08         0.22501E+07         0.00000E+00
    0.22501E+07        -0.50045E+08         0.00000E+00
    0.00000E+00         0.00000E+00        -0.40758E+08
 
   -0.40610E+08         0.23212E+07         0.00000E+00
    0.23212E+07        -0.50046E+08         0.00000E+00
    0.00000E+00         0.00000E+00        -0.40761E+08
 
   -0.40623E+08         0.23927E+07         0.00000E+00
    0.23927E+07        -0.50046E+08         0.00000E+00
    0.00000E+00         0.00000E+00        -0.40764E+08
 
   -0.40635E+08         0.24647E+07         0.00000E+00
    0.24647E+07        -0.50046E+08         0.00000E+00
    0.00000E+00         0.00000E+00        -0.40766E+08
 
   -0.40648E+08         0.25371E+07         0.00000E+00
    0.25371E+07        -0.50046E+08         0.00000E+00
    0.00000E+00         0.00000E+00        -0.40769E+08
 
   -0.40660E+08         0.26099E+07         0.00000E+00
    0.26099E+07        -0.50045E+08         0.00000E+00
    0.00000E+00         0.00000E+00        -0.40771E+08
 
   -0.40672E+08         0.26832E+07         0.00000E+00
    0.26832E+07        -0.50044E+08         0.00000E+00
    0.00000E+00         0.00000E+00        -0.40773E+08
 
   -0.40684E+08         0.27569E+07         0.00000E+00
    0.27569E+07        -0.50043E+08         0.00000E+00
    0.00000E+00         0.00000E+00        -0.40776E+08
 
   -0.40695E+08         0.28311E+07         0.00000E+00
    0.28311E+07        -0.50042E+08         0.00000E+00
    0.00000E+00         0.00000E+00        -0.40778E+08
 
   -0.40707E+08         0.29057E+07         0.00000E+00
    0.29057E+07        -0.50040E+08         0.00000E+00
    0.00000E+00         0.00000E+00        -0.40780E+08
 
   -0.40718E+08         0.29809E+07         0.00000E+00
    0.29809E+07        -0.50038E+08         0.00000E+00
    0.00000E+00         0.00000E+00        -0.40782E+08
 
   -0.40730E+08         0.30564E+07         0.00000E+00
    0.30564E+07        -0.50035E+08         0.00000E+00
    0.00000E+00         0.00000E+00        -0.40783E+08
 
   -0.40741E+08         0.31325E+07         0.00000E+00
    0.31325E+07        -0.50032E+08         0.00000E+00
    0.00000E+00         0.00000E+00        -0.40785E+08
 
   -0.40752E+08         0.32090E+07         0.00000E+00
    0.32090E+07        -0.50029E+08         0.00000E+00
    0.00000E+00         0.00000E+00        -0.40787E+08
 
   -0.40764E+08         0.32860E+07         0.00000E+00
    0.32860E+07        -0.50025E+08         0.00000E+00
    0.00000E+00         0.00000E+00        -0.40788E+08
 
   -0.40775E+08         0.33636E+07         0.00000E+00
    0.33636E+07        -0.50021E+08         0.00000E+00
    0.00000E+00         0.00000E+00        -0.40790E+08
 
   -0.40786E+08         0.34416E+07         0.00000E+00
    0.34416E+07        -0.50016E+08         0.00000E+00
    0.00000E+00         0.00000E+00        -0.40791E+08
 
   -0.39522E+08         0.33640E+05         0.00000E+00
    0.33640E+05        -0.50000E+08         0.00000E+00
    0.00000E+00         0.00000E+00        -0.40201E+08
 
   -0.39558E+08         0.10006E+06         0.00000E+00
    0.10006E+06        -0.50000E+08         0.00000E+00
    0.00000E+00         0.00000E+00        -0.40208E+08
 
   -0.39592E+08         0.16617E+06         0.00000E+00
    0.16617E+06        -0.50000E+08         0.00000E+00
    0.00000E+00         0.00000E+00        -0.40215E+08
 
   -0.39626E+08         0.23201E+06         0.00000E+00
    0.23201E+06        -0.50001E+08         0.00000E+00
    0.00000E+00         0.00000E+00        -0.40222E+08
 
   -0.39658E+08         0.29762E+06         0.00000E+00
    0.29762E+06        -0.50002E+08         0.00000E+00
    0.00000E+00         0.00000E+00        -0.40229E+08
 
   -0.39690E+08         0.36304E+06         0.00000E+00
    0.36304E+06        -0.50003E+08         0.00000E+00
    0.00000E+00         0.00000E+00        -0.40235E+08
 
   -0.39721E+08         0.42831E+06         0.00000E+00
    0.42831E+06        -0.50004E+08         0.00000E+00
    0.00000E+00         0.00000E+00        -0.40242E+08
 
   -0.39750E+08         0.49346E+06         0.00000E+00
    0.49346E+06        -0.50006E+08         0.00000E+00
    0.00000E+00         0.00000E+00        -0.40248E+08
 
   -0.39779E+08         0.55853E+06         0.00000E+00
    0.55853E+06        -0.50008E+08         0.00000E+00
    0.00000E+00         0.00000E+00        -0.40254E+08
 
   -0.39807E+08         0.62355E+06         0.00000E+00
    0.62355E+06        -0.50010E+08         0.00000E+00
    0.00000E+00         0.00000E+00        -0.40260E+08
 
   -0.39833E+08         0.68857E+06         0.00000E+00
    0.68857E+06        -0.50012E+08         0.00000E+00
    0.00000E+00         0.00000E+00        -0.40266E+08
 
   -0.39859E+08         0.75361E+06         0.00000E+00
    0.75361E+06        -0.50014E+08         0.00000E+00
    0.00000E+00         0.00000E+00        -0.40272E+08
 
   -0.39884E+08         0.81870E+06         0.00000E+00
    0.81870E+06        -0.50017E+08         0.00000E+00
    0.00000E+00         0.00000E+00        -0.40278E+08
 
   -0.39908E+08         0.88389E+06         0.00000E+00
    0.88389E+06        -0.50019E+08         0.00000E+00
    0.00000E+00         0.00000E+00        -0.40283E+08
 
   -0.39932E+08         0.94919E+06         0.00000E+00
    0.94919E+06        -0.50022E+08         0.00000E+00
    0.00000E+00         0.00000E+00        -0.40288E+08
 
   -0.39954E+08         0.10146E+07         0.00000E+00
    0.10146E+07        -0.50025E+08         0.00000E+00
    0.00000E+00         0.00000E+00        -0.40294E+08
 
   -0.39976E+08         0.10803E+07         0.00000E+00
    0.10803E+07        -0.50028E+08         0.00000E+00
    0.00000E+00         0.00000E+00        -0.40299E+08
 
   -0.39996E+08         0.11461E+07         0.00000E+00
    0.11461E+07        -0.50031E+08         0.00000E+00
    0.00000E+00         0.00000E+00        -0.40304E+08
 
   -0.40016E+08         0.12121E+07         0.00000E+00
    0.12121E+07        -0.50034E+08         0.00000E+00
    0.00000E+00         0.00000E+00        -0.40308E+08
 
   -0.40035E+08         0.12784E+07         0.00000E+00
    0.12784E+07        -0.50037E+08         0.00000E+00
    0.00000E+00         0.00000E+00        -0.40313E+08
 
   -0.40054E+08         0.13450E+07         0.00000E+00
    0.13450E+07        -0.50040E+08         0.00000E+00
    0.00000E+00         0.00000E+00        -0.40317E+08
 
   -0.40072E+08         0.14118E+07         0.00000E+00
    0.14118E+07        -0.50044E+08         0.00000E+00
    0.00000E+00         0.00000E+00        -0.40322E+08
 
   -0.40089E+08         0.14790E+07         0.00000E+00
    0.14790E+07        -0.50047E+08         0.00000E+00
    0.00000E+00         0.00000E+00        -0.40326E+08
 
   -0.40105E+08         0.15465E+07         0.00000E+00
    0.15465E+07        -0.50050E+08         0.00000E+00
    0.00000E+00         0.00000E+00        -0.40330E+08
 
   -0.40121E+08         0.16144E+07         0.00000E+00
    0.16144E+07        -0.50053E+08         0.00000E+00
    0.00000E+00         0.00000E+00        -0.40334E+08
 
   -0.40136E+08         0.16827E+07         0.00000E+00
    0.16827E+07        -0.50056E+08         0.00000E+00
    0.00000E+00         0.00000E+00        -0.40338E+08
 
   -0.40151E+08         0.17513E+07         0.00000E+00
    0.17513E+07        -0.50059E+08         0.00000E+00
    0.00000E+00         0.00000E+00        -0.40341E+08
 
   -0.40165E+08         0.18203E+07         0.00000E+00
    0.18203E+07        -0.50062E+08         0.00000E+00
    0.00000E+00         0.00000E+00        -0.40345E+08
 
   -0.40178E+08         0.18898E+07         0.00000E+00
    0.18898E+07        -0.50065E+08         0.00000E+00
    0.00000E+00         0.00000E+00        -0.40348E+08
 
   -0.40191E+08         0.19597E+07         0.00000E+00
    0.19597E+07        -0.50068E+08         0.00000E+00
    0.00000E+00         0.00000E+00        -0.40352E+08
 
   -0.40204E+08         0.20300E+07         0.00000E+00
    0.20300E+07        -0.50071E+08         0.00000E+00
    0.00000E+00         0.00000E+00        -0.40355E+08
 
   -0.40216E+08         0.21008E+07         0.00000E+00
    0.21008E+07        -0.50073E+08         0.00000E+00
    0.00000E+00         0.00000E+00        -0.40358E+08
 
   -0.40228E+08         0.21721E+07         0.00000E+00
    0.21721E+07        -0.50075E+08         0.00000E+00
    0.00000E+00         0.00000E+00        -0.40361E+08
 
   -0.40239E+08         0.22438E+07         0.00000E+00
    0.22438E+07        -0.50077E+08         0.00000E+00
    0.00000E+00         0.00000E+00        -0.40364E+08
 
   -0.40250E+08         0.23161E+07         0.00000E+00
    0.23161E+07        -0.50079E+08         0.00000E+00
    0.00000E+00         0.00000E+00        -0.40366E+08
 
   -0.40261E+08         0.23888E+07         0.00000E+00
    0.23888E+07        -0.50081E+08         0.00000E+00
    0.00000E+00         0.00000E+00        -0.40369E+08
 
   -0.40271E+08         0.24621E+07         0.00000E+00
    0.24621E+07        -0.50082E+08         0.00000E+00
    0.00000E+00         0.00000E+00        -0.40371E+08
 
   -0.40281E+08         0.25358E+07         0.00000E+00
    0.25358E+07        -0.50083E+08         0.00000E+00
    0.00000E+00         0.00000E+00        -0.40374E+08
 
   -0.40291E+08         0.26101E+07         0.00000E+00
    0.26101E+07        -0.50084E+08         0.00000E+00
    0.00000E+00         0.00000E+00        -0.40376E+08
 
   -0.40300E+08         0.26849E+07         0.00000E+00
    0.26849E+07        -0.50085E+08         0.00000E+00
    0.00000E+00         0.00000E+00        -0.40378E+08
 
   -0.40310E+08         0.27602E+07         0.00000E+00
    0.27602E+07        -0.50085E+08         0.00000E+00
    0.00000E+00         0.00000E+00        -0.40380E+08
 
   -0.40319E+08         0.28360E+07         0.00000E+00
    0.28360E+07        -0.50085E+08         0.00000E+00
    0.00000E+00         0.00000E+00        -0.40382E+08
 
   -0.40328E+08         0.29124E+07         0.00000E+00
    0.29124E+07        -0.50084E+08         0.00000E+00
    0.00000E+00         0.00000E+00        -0.40383E+08
 
   -0.40337E+08         0.29894E+07         0.00000E+00
    0.29894E+07        -0.50083E+08         0.00000E+00
    0.00000E+00         0.00000E+00        -0.40385E+08
 
   -0.40346E+08         0.30669E+07         0.00000E+00
    0.30669E+07        -0.50082E+08         0.00000E+00
    0.00000E+00         0.00000E+00        -0.40387E+08
 
   -0.40354E+08         0.31449E+07         0.00000E+00
    0.31449E+07        -0.50081E+08         0.00000E+00
    0.00000E+00         0.00000E+00        -0.40388E+08
 
   -0.40363E+08         0.32235E+07         0.00000E+00
    0.32235E+07        -0.50079E+08         0.00000E+00
    0.00000E+00         0.00000E+00        -0.40390E+08
 
   -0.40372E+08         0.33027E+07         0.00000E+00
    0.33027E+07        -0.50076E+08         0.00000E+00
    0.00000E+00         0.00000E+00        -0.40391E+08
 
   -0.40380E+08         0.33824E+07         0.00000E+00
    0.33824E+07        -0.50073E+08         0.00000E+00
    0.00000E+00         0.00000E+00        -0.40392E+08
 
   -0.40389E+08         0.34627E+07         0.00000E+00
    0.34627E+07        -0.50070E+08         0.00000E+00
    0.00000E+00         0.00000E+00        -0.40393E+08
 
   -0.39192E+08         0.32939E+05         0.00000E+00
    0.32939E+05        -0.50000E+08         0.00000E+00
    0.00000E+00         0.00000E+00        -0.39794E+08
 
   -0.39230E+08         0.97967E+05         0.00000E+00
    0.97967E+05        -0.50000E+08         0.00000E+00
    0.00000E+00         0.00000E+00        -0.39802E+08
 
   -0.39266E+08         0.16270E+06         0.00000E+00
    0.16270E+06        -0.50001E+08         0.00000E+00
    0.00000E+00         0.00000E+00        -0.39809E+08
 
   -0.39300E+08         0.22717E+06         0.00000E+00
    0.22717E+06        -0.50002E+08         0.00000E+00
    0.00000E+00         0.00000E+00        -0.39817E+08
 
   -0.39334E+08         0.29145E+06         0.00000E+00
    0.29145E+06        -0.50003E+08         0.00000E+00
    0.00000E+00         0.00000E+00        -0.39824E+08
 
   -0.39366E+08         0.35556E+06         0.00000E+00
    0.35556E+06        -0.50004E+08         0.00000E+00
    0.00000E+00         0.00000E+00        -0.39830E+08
 
   -0.39398E+08         0.41956E+06         0.00000E+00
    0.41956E+06        -0.50006E+08         0.00000E+00
    0.00000E+00         0.00000E+00        -0.39837E+08
 
   -0.39428E+08         0.48349E+06         0.00000E+00
    0.48349E+06        -0.50009E+08         0.00000E+00
    0.00000E+00         0.00000E+00        -0.39844E+08
 
   -0.39456E+08         0.54740E+06         0.00000E+00
    0.54740E+06        -0.50011E+08         0.00000E+00
    0.00000E+00         0.00000E+00        -0.39850E+08
 
   -0.39484E+08         0.61131E+06         0.00000E+00
    0.61131E+06        -0.50014E+08         0.00000E+00
    0.00000E+00         0.00000E+00        -0.39856E+08
 
   -0.39511E+08         0.67528E+06         0.00000E+00
    0.67528E+06        -0.50017E+08         0.00000E+00
    0.00000E+00         0.00000E+00        -0.39862E+08
 
   -0.39536E+08         0.73933E+06         0.00000E+00
    0.73933E+06        -0.50020E+08         0.00000E+00
    0.00000E+00         0.00000E+00        -0.39868E+08
 
   -0.39561E+08         0.80351E+06         0.00000E+00
    0.80351E+06        -0.50024E+08         0.00000E+00
    0.00000E+00         0.00000E+00        -0.39874E+08
 
   -0.39584E+08         0.86786E+06         0.00000E+00
    0.86786E+06        -0.50027E+08         0.00000E+00
    0.00000E+00         0.00000E+00        -0.39879E+08
 
   -0.39606E+08         0.93239E+06         0.00000E+00
    0.93239E+06        -0.50031E+08         0.00000E+00
    0.00000E+00         0.00000E+00        -0.39885E+08
 
   -0.39628E+08         0.99716E+06         0.00000E+00
    0.99716E+06        -0.50035E+08         0.00000E+00
    0.00000E+00         0.00000E+00        -0.39890E+08
 
   -0.39648E+08         0.10622E+07         0.00000E+00
    0.10622E+07        -0.50039E+08         0.00000E+00
    0.00000E+00         0.00000E+00        -0.39895E+08
 
   -0.39668E+08         0.11275E+07         0.00000E+00
    0.11275E+07        -0.50044E+08         0.00000E+00
    0.00000E+00         0.00000E+00        -0.39900E+08
 
   -0.39686E+08         0.11931E+07         0.00000E+00
    0.11931E+07        -0.50048E+08         0.00000E+00
    0.00000E+00         0.00000E+00        -0.39905E+08
 
   -0.39704E+08         0.12591E+07         0.00000E+00
    0.12591E+07        -0.50053E+08         0.00000E+00
    0.00000E+00         0.00000E+00        -0.39909E+08
 
   -0.39721E+08         0.13254E+07         0.00000E+00
    0.13254E+07        -0.50057E+08         0.00000E+00
    0.00000E+00         0.00000E+00        -0.39914E+08
 
   -0.39737E+08         0.13921E+07         0.00000E+00
    0.13921E+07        -0.50062E+08         0.00000E+00
    0.00000E+00         0.00000E+00        -0.39918E+08
 
   -0.39752E+08         0.14593E+07         0.00000E+00
    0.14593E+07        -0.50067E+08         0.00000E+00
    0.00000E+00         0.00000E+00        -0.39922E+08
 
   -0.39766E+08         0.15268E+07         0.00000E+00
    0.15268E+07        -0.50072E+08         0.00000E+00
    0.00000E+00         0.00000E+00        -0.39926E+08
 
   -0.39780E+08         0.15949E+07         0.00000E+00
    0.15949E+07        -0.50076E+08         0.00000E+00
    0.00000E+00         0.00000E+00        -0.39930E+08
 
   -0.39793E+08         0.16634E+07         0.00000E+00
    0.16634E+07        -0.50081E+08         0.00000E+00
    0.00000E+00         0.00000E+00        -0.39933E+08
 
   -0.39805E+08         0.17323E+07         0.00000E+00
    0.17323E+07        -0.50086E+08         0.00000E+00
    0.00000E+00         0.00000E+00        -0.39937E+08
 
   -0.39817E+08         0.18018E+07         0.00000E+00
    0.18018E+07        -0.50090E+08         0.00000E+00
    0.00000E+00         0.00000E+00        -0.39940E+08
 
   -0.39828E+08         0.18718E+07         0.00000E+00
    0.18718E+07        -0.50095E+08         0.00000E+00
    0.00000E+00         0.00000E+00        -0.39944E+08
 
   -0.39839E+08         0.19424E+07         0.00000E+00
    0.19424E+07        -0.50099E+08         0.00000E+00
    0.00000E+00         0.00000E+00        -0.39947E+08
 
   -0.39849E+08         0.20134E+07         0.00000E+00
    0.20134E+07        -0.50103E+08         0.00000E+00
    0.00000E+00         0.00000E+00        -0.39950E+08
 
   -0.39859E+08         0.20851E+07         0.00000E+00
    0.20851E+07        -0.50107E+08         0.00000E+00
    0.00000E+00         0.00000E+00        -0.39953E+08
 
   -0.39868E+08         0.21573E+07         0.00000E+00
    0.21573E+07        -0.50111E+08         0.00000E+00
    0.00000E+00         0.00000E+00        -0.39955E+08
 
   -0.39876E+08         0.22301E+07         0.00000E+00
    0.22301E+07        -0.50115E+08         0.00000E+00
    0.00000E+00         0.00000E+00        -0.39958E+08
 
   -0.39885E+08         0.23034E+07         0.00000E+00
    0.23034E+07        -0.50118E+08         0.00000E+00
    0.00000E+00         0.00000E+00        -0.39960E+08
 
   -0.39893E+08         0.23774E+07         0.00000E+00
    0.23774E+07        -0.50122E+08         0.00000E+00
    0.00000E+00         0.00000E+00        -0.39963E+08
 
   -0.39900E+08         0.24519E+07         0.00000E+00
    0.24519E+07        -0.50125E+08         0.00000E+00
    0.00000E+00         0.00000E+00        -0.39965E+08
 
   -0.39907E+08         0.25271E+07         0.00000E+00
    0.25271E+07        -0.50127E+08         0.00000E+00
    0.00000E+00         0.00000E+00        -0.39967E+08
 
   -0.39914E+08         0.26029E+07         0.00000E+00
    0.26029E+07        -0.50130E+08         0.00000E+00
    0.00000E+00         0.00000E+00        -0.39969E+08
 
   -0.39921E+08         0.26792E+07         0.00000E+00
    0.26792E+07        -0.50132E+08         0.00000E+00
    0.00000E+00         0.00000E+00        -0.39971E+08
 
   -0.39927E+08         0.27562E+07         0.00000E+00
    0.27562E+07        -0.50134E+08         0.00000E+00
    0.00000E+00         0.00000E+00        -0.39972E+08
 
   -0.39934E+08         0.28339E+07         0.00000E+00
    0.28339E+07        -0.50135E+08         0.00000E+00
    0.00000E+00         0.00000E+00        -0.39974E+08
 
   -0.39940E+08         0.29121E+07         0.00000E+00
    0.29121E+07        -0.50136E+08         0.00000E+00
    0.00000E+00         0.00000E+00        -0.39975E+08
 
   -0.39946E+08         0.29910E+07         0.00000E+00
    0.29910E+07        -0.50137E+08         0.00000E+00
    0.00000E+00         0.00000E+00        -0.39977E+08
 
   -0.39952E+08         0.30705E+07         0.00000E+00
    0.30705E+07        -0.50137E+08         0.00000E+00
    0.00000E+00         0.00000E+00        -0.39978E+08
 
   -0.39958E+08         0.31506E+07         0.00000E+00
    0.31506E+07        -0.50137E+08         0.00000E+00
    0.00000E+00         0.00000E+00        -0.39979E+08
 
   -0.39963E+08         0.32314E+07         0.00000E+00
    0.32314E+07        -0.50136E+08         0.00000E+00
    0.00000E+00         0.00000E+00        -0.39980E+08
 
   -0.39969E+08         0.33127E+07         0.00000E+00
    0.33127E+07        -0.50135E+08         0.00000E+00
    0.00000E+00         0.00000E+00        -0.39981E+08
 
   -0.39975E+08         0.33948E+07         0.00000E+00
    0.33948E+07        -0.50134E+08         0.00000E+00
    0.00000E+00         0.00000E+00        -0.39982E+08
 
   -0.39980E+08         0.34774E+07         0.00000E+00
    0.34774E+07        -0.50132E+08         0.00000E+00
    0.00000E+00         0.00000E+00        -0.39983E+08
 
   -0.38871E+08         0.31953E+05         0.00000E+00
    0.31953E+05        -0.50000E+08         0.00000E+00
    0.00000E+00         0.00000E+00        -0.39378E+08
 
   -0.38910E+08         0.95043E+05         0.00000E+00
    0.95043E+05        -0.50000E+08         0.00000E+00
    0.00000E+00         0.00000E+00        -0.39386E+08
 
   -0.38947E+08         0.15786E+06         0.00000E+00
    0.15786E+06        -0.50001E+08         0.00000E+00
    0.00000E+00         0.00000E+00        -0.39394E+08
 
   -0.38983E+08         0.22046E+06         0.00000E+00
    0.22046E+06        -0.50002E+08         0.00000E+00
    0.00000E+00         0.00000E+00        -0.39401E+08
 
   -0.39017E+08         0.28290E+06         0.00000E+00
    0.28290E+06        -0.50004E+08         0.00000E+00
    0.00000E+00         0.00000E+00        -0.39408E+08
 
   -0.39050E+08         0.34523E+06         0.00000E+00
    0.34523E+06        -0.50006E+08         0.00000E+00
    0.00000E+00         0.00000E+00        -0.39415E+08
 
   -0.39082E+08         0.40750E+06         0.00000E+00
    0.40750E+06        -0.50009E+08         0.00000E+00
    0.00000E+00         0.00000E+00        -0.39422E+08
 
   -0.39112E+08         0.46977E+06         0.00000E+00
    0.46977E+06        -0.50012E+08         0.00000E+00
    0.00000E+00         0.00000E+00        -0.39429E+08
 
   -0.39141E+08         0.53207E+06         0.00000E+00
    0.53207E+06        -0.50015E+08         0.00000E+00
    0.00000E+00         0.00000E+00        -0.39435E+08
 
   -0.39168E+08         0.59447E+06         0.00000E+00
    0.59447E+06        -0.50019E+08         0.00000E+00
    0.00000E+00         0.00000E+00        -0.39442E+08
 
   -0.39194E+08         0.65700E+06         0.00000E+00
    0.65700E+06        -0.50023E+08         0.00000E+00
    0.00000E+00         0.00000E+00        -0.39448E+08
 
   -0.39219E+08         0.71970E+06         0.00000E+00
    0.71970E+06        -0.50027E+08         0.00000E+00
    0.00000E+00         0.00000E+00        -0.39454E+08
 
   -0.39242E+08         0.78262E+06         0.00000E+00
    0.78262E+06        -0.50032E+08         0.00000E+00
    0.00000E+00         0.00000E+00        -0.39460E+08
 
   -0.39265E+08         0.84579E+06         0.00000E+00
    0.84579E+06        -0.50037E+08         0.00000E+00
    0.00000E+00         0.00000E+00        -0.39465E+08
 
   -0.39286E+08         0.90926E+06         0.00000E+00
    0.90926E+06        -0.50042E+08         0.00000E+00
    0.00000E+00         0.00000E+00        -0.39470E+08
 
   -0.39306E+08         0.97305E+06         0.00000E+00
    0.97305E+06        -0.50048E+08         0.00000E+00
    0.00000E+00         0.00000E+00        -0.39476E+08
 
   -0.39324E+08         0.10372E+07         0.00000E+00
    0.10372E+07        -0.50053E+08         0.00000E+00
    0.00000E+00         0.00000E+00        -0.39481E+08
 
   -0.39342E+08         0.11018E+07         0.00000E+00
    0.11018E+07        -0.50059E+08         0.00000E+00
    0.00000E+00         0.00000E+00        -0.39486E+08
 
   -0.39359E+08         0.11667E+07         0.00000E+00
    0.11667E+07        -0.50065E+08         0.00000E+00
    0.00000E+00         0.00000E+00        -0.39490E+08
 
   -0.39374E+08         0.12322E+07         0.00000E+00
    0.12322E+07        -0.50071E+08         0.00000E+00
    0.00000E+00         0.00000E+00        -0.39495E+08
 
   -0.39389E+08         0.12981E+07         0.00000E+00
    0.12981E+07        -0.50078E+08         0.00000E+00
    0.00000E+00         0.00000E+00        -0.39499E+08
 
   -0.39403E+08         0.13645E+07         0.00000E+00
    0.13645E+07        -0.50084E+08         0.00000E+00
    0.00000E+00         0.00000E+00        -0.39503E+08
 
   -0.39415E+08         0.14314E+07         0.00000E+00
    0.14314E+07        -0.50090E+08         0.00000E+00
    0.00000E+00         0.00000E+00        -0.39507E+08
 
   -0.39427E+08         0.14989E+07         0.00000E+00
    0.14989E+07        -0.50097E+08         0.00000E+00
    0.00000E+00         0.00000E+00        -0.39511E+08
 
   -0.39438E+08         0.15670E+07         0.00000E+00
    0.15670E+07        -0.50103E+08         0.00000E+00
    0.00000E+00         0.00000E+00        -0.39515E+08
 
   -0.39449E+08         0.16356E+07         0.00000E+00
    0.16356E+07        -0.50110E+08         0.00000E+00
    0.00000E+00         0.00000E+00        -0.39518E+08
 
   -0.39458E+08         0.17049E+07         0.00000E+00
    0.17049E+07        -0.50116E+08         0.00000E+00
    0.00000E+00         0.00000E+00        -0.39521E+08
 
   -0.39467E+08         0.17747E+07         0.00000E+00
    0.17747E+07        -0.50123E+08         0.00000E+00
    0.00000E+00         0.00000E+00        -0.39524E+08
 
   -0.39476E+08         0.18452E+07         0.00000E+00
    0.18452E+07        -0.50129E+08         0.00000E+00
    0.00000E+00         0.00000E+00        -0.39528E+08
 
   -0.39483E+08         0.19164E+07         0.00000E+00
    0.19164E+07        -0.50135E+08         0.00000E+00
    0.00000E+00         0.00000E+00        -0.39530E+08
 
   -0.39490E+08         0.19882E+07         0.00000E+00
    0.19882E+07        -0.50141E+08         0.00000E+00
    0.00000E+00         0.00000E+00        -0.39533E+08
 
   -0.39497E+08         0.20607E+07         0.00000E+00
    0.20607E+07        -0.50147E+08         0.00000E+00
    0.00000E+00         0.00000E+00        -0.39536E+08
 
   -0.39503E+08         0.21338E+07         0.00000E+00
    0.21338E+07        -0.50153E+08         0.00000E+00
    0.00000E+00         0.00000E+00        -0.39538E+08
 
   -0.39508E+08         0.22077E+07         0.00000E+00
    0.22077E+07        -0.50159E+08         0.00000E+00
    0.00000E+00         0.00000E+00        -0.39540E+08
 
   -0.39513E+08         0.22822E+07         0.00000E+00
    0.22822E+07        -0.50164E+08         0.00000E+00
    0.00000E+00         0.00000E+00        -0.39543E+08
 
   -0.39518E+08         0.23574E+07         0.00000E+00
    0.23574E+07        -0.50169E+08         0.00000E+00
    0.00000E+00         0.00000E+00        -0.39545E+08
 
   -0.39522E+08         0.24333E+07         0.00000E+00
    0.24333E+07        -0.50174E+08         0.00000E+00
    0.00000E+00         0.00000E+00        -0.39546E+08
 
   -0.39526E+08         0.25100E+07         0.00000E+00
    0.25100E+07        -0.50178E+08         0.00000E+00
    0.00000E+00         0.00000E+00        -0.39548E+08
 
   -0.39530E+08         0.25873E+07         0.00000E+00
    0.25873E+07        -0.50183E+08         0.00000E+00
    0.00000E+00         0.00000E+00        -0.39550E+08
 
   -0.39533E+08         0.26654E+07         0.00000E+00
    0.26654E+07        -0.50186E+08         0.00000E+00
    0.00000E+00         0.00000E+00        -0.39551E+08
 
   -0.39536E+08         0.27441E+07         0.00000E+00
    0.27441E+07        -0.50190E+08         0.00000E+00
    0.00000E+00         0.00000E+00        -0.39553E+08
 
   -0.39539E+08         0.28236E+07         0.00000E+00
    0.28236E+07        -0.50193E+08         0.00000E+00
    0.00000E+00         0.00000E+00        -0.39554E+08
 
   -0.39542E+08         0.29038E+07         0.00000E+00
    0.29038E+07        -0.50196E+08         0.00000E+00
    0.00000E+00         0.00000E+00        -0.39555E+08
 
   -0.39545E+08         0.29847E+07         0.00000E+00
    0.29847E+07        -0.50198E+08         0.00000E+00
    0.00000E+00         0.00000E+00        -0.39556E+08
 
   -0.39547E+08         0.30663E+07         0.00000E+00
    0.30663E+07        -0.50200E+08         0.00000E+00
    0.00000E+00         0.00000E+00        -0.39557E+08
 
   -0.39550E+08         0.31487E+07         0.00000E+00
    0.31487E+07        -0.50201E+08         0.00000E+00
    0.00000E+00         0.00000E+00        -0.39558E+08
 
   -0.39552E+08         0.32317E+07         0.00000E+00
    0.32317E+07        -0.50202E+08         0.00000E+00
    0.00000E+00         0.00000E+00        -0.39559E+08
 
   -0.39554E+08         0.33154E+07         0.00000E+00
    0.33154E+07        -0.50203E+08         0.00000E+00
    0.00000E+00         0.00000E+00        -0.39559E+08
 
   -0.39557E+08         0.33999E+07         0.00000E+00
    0.33999E+07        -0.50203E+08         0.00000E+00
    0.00000E+00         0.00000E+00        -0.39560E+08
 
   -0.39559E+08         0.34851E+07         0.00000E+00
    0.34851E+07        -0.50202E+08         0.00000E+00
    0.00000E+00         0.00000E+00        -0.39560E+08
 
   -0.38561E+08         0.30622E+05         0.00000E+00
    0.30622E+05        -0.49999E+08         0.00000E+00
    0.00000E+00         0.00000E+00        -0.38951E+08
 
   -0.38601E+08         0.91125E+05         0.00000E+00
    0.91125E+05        -0.50000E+08         0.00000E+00
    0.00000E+00         0.00000E+00        -0.38960E+08
 
   -0.38640E+08         0.15140E+06         0.00000E+00
    0.15140E+06        -0.50001E+08         0.00000E+00
    0.00000E+00         0.00000E+00        -0.38967E+08
 
   -0.38676E+08         0.21151E+06         0.00000E+00
    0.21151E+06        -0.50003E+08         0.00000E+00
    0.00000E+00         0.00000E+00        -0.38975E+08
 
   -0.38711E+08         0.27153E+06         0.00000E+00
    0.27153E+06        -0.50005E+08         0.00000E+00
    0.00000E+00         0.00000E+00        -0.38983E+08
 
   -0.38744E+08         0.33151E+06         0.00000E+00
    0.33151E+06        -0.50008E+08         0.00000E+00
    0.00000E+00         0.00000E+00        -0.38990E+08
 
   -0.38776E+08         0.39151E+06         0.00000E+00
    0.39151E+06        -0.50012E+08         0.00000E+00
    0.00000E+00         0.00000E+00        -0.38997E+08
 
   -0.38806E+08         0.45160E+06         0.00000E+00
    0.45160E+06        -0.50016E+08         0.00000E+00
    0.00000E+00         0.00000E+00        -0.39004E+08
 
   -0.38834E+08         0.51181E+06         0.00000E+00
    0.51181E+06        -0.50020E+08         0.00000E+00
    0.00000E+00         0.00000E+00        -0.39010E+08
 
   -0.38860E+08         0.57222E+06         0.00000E+00
    0.57222E+06        -0.50025E+08         0.00000E+00
    0.00000E+00         0.00000E+00        -0.39017E+08
 
   -0.38885E+08         0.63286E+06         0.00000E+00
    0.63286E+06        -0.50030E+08         0.00000E+00
    0.00000E+00         0.00000E+00        -0.39023E+08
 
   -0.38909E+08         0.69379E+06         0.00000E+00
    0.69379E+06        -0.50036E+08         0.00000E+00
    0.00000E+00         0.00000E+00        -0.39029E+08
 
   -0.38931E+08         0.75505E+06         0.00000E+00
    0.75505E+06        -0.50042E+08         0.00000E+00
    0.00000E+00         0.00000E+00        -0.39035E+08
 
   -0.38952E+08         0.81668E+06         0.00000E+00
    0.81668E+06        -0.50048E+08         0.00000E+00
    0.00000E+00         0.00000E+00        -0.39040E+08
 
   -0.38971E+08         0.87873E+06         0.00000E+00
    0.87873E+06        -0.50055E+08         0.00000E+00
    0.00000E+00         0.00000E+00        -0.39045E+08
 
   -0.38989E+08         0.94124E+06         0.00000E+00
    0.94124E+06        -0.50062E+08         0.00000E+00
    0.00000E+00         0.00000E+00        -0.39050E+08
 
   -0.39005E+08         0.10042E+07         0.00000E+00
    0.10042E+07        -0.50069E+08         0.00000E+00
    0.00000E+00         0.00000E+00        -0.39055E+08
 
   -0.39020E+08         0.10678E+07         0.00000E+00
    0.10678E+07        -0.50077E+08         0.00000E+00
    0.00000E+00         0.00000E+00        -0.39060E+08
 
   -0.39035E+08         0.11318E+07         0.00000E+00
    0.11318E+07        -0.50085E+08         0.00000E+00
    0.00000E+00         0.00000E+00        -0.39065E+08
 
   -0.39048E+08         0.11965E+07         0.00000E+00
    0.11965E+07        -0.50093E+08         0.00000E+00
    0.00000E+00         0.00000E+00        -0.39069E+08
 
   -0.39059E+08         0.12618E+07         0.00000E+00
    0.12618E+07        -0.50101E+08         0.00000E+00
    0.00000E+00         0.00000E+00        -0.39073E+08
 
   -0.39070E+08         0.13277E+07         0.00000E+00
    0.13277E+07        -0.50109E+08         0.00000E+00
    0.00000E+00         0.00000E+00        -0.39077E+08
 
   -0.39080E+08         0.13943E+07         0.00000E+00
    0.13943E+07        -0.50118E+08         0.00000E+00
    0.00000E+00         0.00000E+00        -0.39081E+08
 
   -0.39089E+08         0.14615E+07         0.00000E+00
    0.14615E+07        -0.50126E+08         0.00000E+00
    0.00000E+00         0.00000E+00        -0.39084E+08
 
   -0.39097E+08         0.15295E+07         0.00000E+00
    0.15295E+07        -0.50135E+08         0.00000E+00
    0.00000E+00         0.00000E+00        -0.39088E+08
 
   -0.39104E+08         0.15982E+07         0.00000E+00
    0.15982E+07        -0.50143E+08         0.00000E+00
    0.00000E+00         0.00000E+00        -0.39091E+08
 
   -0.39110E+08         0.16677E+07         0.00000E+00
    0.16677E+07        -0.50152E+08         0.00000E+00
    0.00000E+00         0.00000E+00        -0.39094E+08
 
   -0.39115E+08         0.17379E+07         0.00000E+00
    0.17379E+07        -0.50160E+08         0.00000E+00
    0.00000E+00         0.00000E+00        -0.39097E+08
 
   -0.39120E+08         0.18088E+07         0.00000E+00
    0.18088E+07        -0.50169E+08         0.00000E+00
    0.00000E+00         0.00000E+00        -0.39099E+08
 
   -0.39124E+08         0.18806E+07         0.00000E+00
    0.18806E+07        -0.50177E+08         0.00000E+00
    0.00000E+00         0.00000E+00        -0.39102E+08
 
   -0.39128E+08         0.19531E+07         0.00000E+00
    0.19531E+07        -0.50185E+08         0.00000E+00
    0.00000E+00         0.00000E+00        -0.39104E+08
 
   -0.39130E+08         0.20264E+07         0.00000E+00
    0.20264E+07        -0.50193E+08         0.00000E+00
    0.00000E+00         0.00000E+00        -0.39107E+08
 
   -0.39133E+08         0.21006E+07         0.00000E+00
    0.21006E+07        -0.50201E+08         0.00000E+00
    0.00000E+00         0.00000E+00        -0.39109E+08
 
   -0.39134E+08         0.21755E+07         0.00000E+00
    0.21755E+07        -0.50209E+08         0.00000E+00
    0.00000E+00         0.00000E+00        -0.39111E+08
 
   -0.39136E+08         0.22512E+07         0.00000E+00
    0.22512E+07        -0.50216E+08         0.00000E+00
    0.00000E+00         0.00000E+00        -0.39112E+08
 
   -0.39137E+08         0.23278E+07         0.00000E+00
    0.23278E+07        -0.50223E+08         0.00000E+00
    0.00000E+00         0.00000E+00        -0.39114E+08
 
   -0.39137E+08         0.24052E+07         0.00000E+00
    0.24052E+07        -0.50230E+08         0.00000E+00
    0.00000E+00         0.00000E+00        -0.39116E+08
 
   -0.39137E+08         0.24834E+07         0.00000E+00
    0.24834E+07        -0.50237E+08         0.00000E+00
    0.00000E+00         0.00000E+00        -0.39117E+08
 
   -0.39137E+08         0.25624E+07         0.00000E+00
    0.25624E+07        -0.50243E+08         0.00000E+00
    0.00000E+00         0.00000E+00        -0.39118E+08
 
   -0.39137E+08         0.26422E+07         0.00000E+00
    0.26422E+07        -0.50249E+08         0.00000E+00
    0.00000E+00         0.00000E+00        -0.39119E+08
 
   -0.39136E+08         0.27229E+07         0.00000E+00
    0.27229E+07        -0.50254E+08         0.00000E+00
    0.00000E+00         0.00000E+00        -0.39120E+08
 
   -0.39135E+08         0.28043E+07         0.00000E+00
    0.28043E+07        -0.50259E+08         0.00000E+00
    0.00000E+00         0.00000E+00        -0.39121E+08
 
   -0.39134E+08         0.28866E+07         0.00000E+00
    0.28866E+07        -0.50264E+08         0.00000E+00
    0.00000E+00         0.00000E+00        -0.39122E+08
 
   -0.39133E+08         0.29697E+07         0.00000E+00
    0.29697E+07        -0.50268E+08         0.00000E+00
    0.00000E+00         0.00000E+00        -0.39123E+08
 
   -0.39132E+08         0.30536E+07         0.00000E+00
    0.30536E+07        -0.50272E+08         0.00000E+00
    0.00000E+00         0.00000E+00        -0.39123E+08
 
   -0.39130E+08         0.31382E+07         0.00000E+00
    0.31382E+07        -0.50275E+08         0.00000E+00
    0.00000E+00         0.00000E+00        -0.39124E+08
 
   -0.39129E+08         0.32237E+07         0.00000E+00
    0.32237E+07        -0.50278E+08         0.00000E+00
    0.00000E+00         0.00000E+00        -0.39124E+08
 
   -0.39128E+08         0.33100E+07         0.00000E+00
    0.33100E+07        -0.50280E+08         0.00000E+00
    0.00000E+00         0.00000E+00        -0.39124E+08
 
   -0.39126E+08         0.33970E+07         0.00000E+00
    0.33970E+07        -0.50281E+08         0.00000E+00
    0.00000E+00         0.00000E+00        -0.39124E+08
 
   -0.39125E+08         0.34848E+07         0.00000E+00
    0.34848E+07        -0.50283E+08         0.00000E+00
    0.00000E+00         0.00000E+00        -0.39124E+08
 
   -0.38266E+08         0.28877E+05         0.00000E+00
    0.28877E+05        -0.49999E+08         0.00000E+00
    0.00000E+00         0.00000E+00        -0.38515E+08
 
   -0.38307E+08         0.86026E+05         0.00000E+00
    0.86026E+05        -0.50000E+08         0.00000E+00
    0.00000E+00         0.00000E+00        -0.38523E+08
 
   -0.38346E+08         0.14302E+06         0.00000E+00
    0.14302E+06        -0.50002E+08         0.00000E+00
    0.00000E+00         0.00000E+00        -0.38531E+08
 
   -0.38384E+08         0.19994E+06         0.00000E+00
    0.19994E+06        -0.50004E+08         0.00000E+00
    0.00000E+00         0.00000E+00        -0.38539E+08
 
   -0.38419E+08         0.25684E+06         0.00000E+00
    0.25684E+06        -0.50007E+08         0.00000E+00
    0.00000E+00         0.00000E+00        -0.38547E+08
 
   -0.38451E+08         0.31382E+06         0.00000E+00
    0.31382E+06        -0.50011E+08         0.00000E+00
    0.00000E+00         0.00000E+00        -0.38554E+08
 
   -0.38482E+08         0.37092E+06         0.00000E+00
    0.37092E+06        -0.50015E+08         0.00000E+00
    0.00000E+00         0.00000E+00        -0.38561E+08
 
   -0.38511E+08         0.42823E+06         0.00000E+00
    0.42823E+06        -0.50020E+08         0.00000E+00
    0.00000E+00         0.00000E+00        -0.38568E+08
 
   -0.38538E+08         0.48579E+06         0.00000E+00
    0.48579E+06        -0.50025E+08         0.00000E+00
    0.00000E+00         0.00000E+00        -0.38575E+08
 
   -0.38564E+08         0.54367E+06         0.00000E+00
    0.54367E+06        -0.50032E+08         0.00000E+00
    0.00000E+00         0.00000E+00        -0.38581E+08
 
   -0.38587E+08         0.60192E+06         0.00000E+00
    0.60192E+06        -0.50038E+08         0.00000E+00
    0.00000E+00         0.00000E+00        -0.38587E+08
 
   -0.38609E+08         0.66060E+06         0.00000E+00
    0.66060E+06        -0.50045E+08         0.00000E+00
    0.00000E+00         0.00000E+00        -0.38593E+08
 
   -0.38629E+08         0.71975E+06         0.00000E+00
    0.71975E+06        -0.50053E+08         0.00000E+00
    0.00000E+00         0.00000E+00        -0.38599E+08
 
   -0.38647E+08         0.77943E+06         0.00000E+00
    0.77943E+06        -0.50061E+08         0.00000E+00
    0.00000E+00         0.00000E+00        -0.38604E+08
 
   -0.38664E+08         0.83968E+06         0.00000E+00
    0.83968E+06        -0.50070E+08         0.00000E+00
    0.00000E+00         0.00000E+00        -0.38609E+08
 
   -0.38679E+08         0.90054E+06         0.00000E+00
    0.90054E+06        -0.50079E+08         0.00000E+00
    0.00000E+00         0.00000E+00        -0.38614E+08
 
   -0.38692E+08         0.96204E+06         0.00000E+00
    0.96204E+06        -0.50088E+08         0.00000E+00
    0.00000E+00         0.00000E+00        -0.38619E+08
 
   -0.38705E+08         0.10242E+07         0.00000E+00
    0.10242E+07        -0.50098E+08         0.00000E+00
    0.00000E+00         0.00000E+00        -0.38623E+08
 
   -0.38715E+08         0.10871E+07         0.00000E+00
    0.10871E+07        -0.50108E+08         0.00000E+00
    0.00000E+00         0.00000E+00        -0.38627E+08
 
   -0.38725E+08         0.11508E+07         0.00000E+00
    0.11508E+07        -0.50118E+08         0.00000E+00
    0.00000E+00         0.00000E+00        -0.38631E+08
 
   -0.38733E+08         0.12152E+07         0.00000E+00
    0.12152E+07        -0.50128E+08         0.00000E+00
    0.00000E+00         0.00000E+00        -0.38635E+08
 
   -0.38740E+08         0.12805E+07         0.00000E+00
    0.12805E+07        -0.50139E+08         0.00000E+00
    0.00000E+00         0.00000E+00        -0.38639E+08
 
   -0.38746E+08         0.13465E+07         0.00000E+00
    0.13465E+07        -0.50149E+08         0.00000E+00
    0.00000E+00         0.00000E+00        -0.38642E+08
 
   -0.38751E+08         0.14135E+07         0.00000E+00
    0.14135E+07        -0.50160E+08         0.00000E+00
    0.00000E+00         0.00000E+00        -0.38646E+08
 
   -0.38755E+08         0.14812E+07         0.00000E+00
    0.14812E+07        -0.50171E+08         0.00000E+00
    0.00000E+00         0.00000E+00        -0.38649E+08
 
   -0.38758E+08         0.15499E+07         0.00000E+00
    0.15499E+07        -0.50182E+08         0.00000E+00
    0.00000E+00         0.00000E+00        -0.38651E+08
 
   -0.38760E+08         0.16195E+07         0.00000E+00
    0.16195E+07        -0.50193E+08         0.00000E+00
    0.00000E+00         0.00000E+00        -0.38654E+08
 
   -0.38762E+08         0.16899E+07         0.00000E+00
    0.16899E+07        -0.50203E+08         0.00000E+00
    0.00000E+00         0.00000E+00        -0.38657E+08
 
   -0.38762E+08         0.17613E+07         0.00000E+00
    0.17613E+07        -0.50214E+08         0.00000E+00
    0.00000E+00         0.00000E+00        -0.38659E+08
 
   -0.38762E+08         0.18337E+07         0.00000E+00
    0.18337E+07        -0.50225E+08         0.00000E+00
    0.00000E+00         0.00000E+00        -0.38661E+08
 
   -0.38761E+08         0.19069E+07         0.00000E+00
    0.19069E+07        -0.50235E+08         0.00000E+00
    0.00000E+00         0.00000E+00        -0.38663E+08
 
   -0.38759E+08         0.19812E+07         0.00000E+00
    0.19812E+07        -0.50246E+08         0.00000E+00
    0.00000E+00         0.00000E+00        -0.38665E+08
 
   -0.38757E+08         0.20563E+07         0.00000E+00
    0.20563E+07        -0.50256E+08         0.00000E+00
    0.00000E+00         0.00000E+00        -0.38667E+08
 
   -0.38755E+08         0.21324E+07         0.00000E+00
    0.21324E+07        -0.50266E+08         0.00000E+00
    0.00000E+00         0.00000E+00        -0.38668E+08
 
   -0.38751E+08         0.22095E+07         0.00000E+00
    0.22095E+07        -0.50275E+08         0.00000E+00
    0.00000E+00         0.00000E+00        -0.38669E+08
 
   -0.38748E+08         0.22875E+07         0.00000E+00
    0.22875E+07        -0.50285E+08         0.00000E+00
    0.00000E+00         0.00000E+00        -0.38671E+08
 
   -0.38744E+08         0.23664E+07         0.00000E+00
    0.23664E+07        -0.50294E+08         0.00000E+00
    0.00000E+00         0.00000E+00        -0.38672E+08
 
   -0.38740E+08         0.24463E+07         0.00000E+00
    0.24463E+07        -0.50303E+08         0.00000E+00
    0.00000E+00         0.00000E+00        -0.38673E+08
 
   -0.38735E+08         0.25271E+07         0.00000E+00
    0.25271E+07        -0.50311E+08         0.00000E+00
    0.00000E+00         0.00000E+00        -0.38673E+08
 
   -0.38731E+08         0.26089E+07         0.00000E+00
    0.26089E+07        -0.50319E+08         0.00000E+00
    0.00000E+00         0.00000E+00        -0.38674E+08
 
   -0.38726E+08         0.26915E+07         0.00000E+00
    0.26915E+07        -0.50327E+08         0.00000E+00
    0.00000E+00         0.00000E+00        -0.38675E+08
 
   -0.38720E+08         0.27751E+07         0.00000E+00
    0.27751E+07        -0.50334E+08         0.00000E+00
    0.00000E+00         0.00000E+00        -0.38675E+08
 
   -0.38715E+08         0.28596E+07         0.00000E+00
    0.28596E+07        -0.50340E+08         0.00000E+00
    0.00000E+00         0.00000E+00        -0.38675E+08
 
   -0.38710E+08         0.29450E+07         0.00000E+00
    0.29450E+07        -0.50347E+08         0.00000E+00
    0.00000E+00         0.00000E+00        -0.38676E+08
 
   -0.38704E+08         0.30313E+07         0.00000E+00
    0.30313E+07        -0.50352E+08         0.00000E+00
    0.00000E+00         0.00000E+00        -0.38676E+08
 
   -0.38699E+08         0.31185E+07         0.00000E+00
    0.31185E+07        -0.50357E+08         0.00000E+00
    0.00000E+00         0.00000E+00        -0.38676E+08
 
   -0.38693E+08         0.32066E+07         0.00000E+00
    0.32066E+07        -0.50362E+08         0.00000E+00
    0.00000E+00         0.00000E+00        -0.38675E+08
 
   -0.38688E+08         0.32955E+07         0.00000E+00
    0.32955E+07        -0.50366E+08         0.00000E+00
    0.00000E+00         0.00000E+00        -0.38675E+08
 
   -0.38682E+08         0.33853E+07         0.00000E+00
    0.33853E+07        -0.50370E+08         0.00000E+00
    0.00000E+00         0.00000E+00        -0.38675E+08
 
   -0.38677E+08         0.34759E+07         0.00000E+00
    0.34759E+07        -0.50373E+08         0.00000E+00
    0.00000E+00         0.00000E+00        -0.38674E+08
 
   -0.37990E+08         0.26643E+05         0.00000E+00
    0.26643E+05        -0.49999E+08         0.00000E+00
    0.00000E+00         0.00000E+00        -0.38068E+08
 
   -0.38032E+08         0.79539E+05         0.00000E+00
    0.79539E+05        -0.50000E+08         0.00000E+00
    0.00000E+00         0.00000E+00        -0.38077E+08
 
   -0.38072E+08         0.13239E+06         0.00000E+00
    0.13239E+06        -0.50002E+08         0.00000E+00
    0.00000E+00         0.00000E+00        -0.38085E+08
 
   -0.38109E+08         0.18528E+06         0.00000E+00
    0.18528E+06        -0.50005E+08         0.00000E+00
    0.00000E+00         0.00000E+00        -0.38093E+08
 
   -0.38143E+08         0.23829E+06         0.00000E+00
    0.23829E+06        -0.50009E+08         0.00000E+00
    0.00000E+00         0.00000E+00        -0.38101E+08
 
   -0.38175E+08         0.29150E+06         0.00000E+00
    0.29150E+06        -0.50013E+08         0.00000E+00
    0.00000E+00         0.00000E+00        -0.38108E+08
 
   -0.38205E+08         0.34500E+06         0.00000E+00
    0.34500E+06        -0.50019E+08         0.00000E+00
    0.00000E+00         0.00000E+00        -0.38115E+08
 
   -0.38232E+08         0.39884E+06         0.00000E+00
    0.39884E+06        -0.50025E+08         0.00000E+00
    0.00000E+00         0.00000E+00        -0.38122E+08
 
   -0.38258E+08         0.45311E+06         0.00000E+00
    0.45311E+06        -0.50032E+08         0.00000E+00
    0.00000E+00         0.00000E+00        -0.38129E+08
 
   -0.38281E+08         0.50785E+06         0.00000E+00
    0.50785E+06        -0.50040E+08         0.00000E+00
    0.00000E+00         0.00000E+00        -0.38135E+08
 
   -0.38302E+08         0.56315E+06         0.00000E+00
    0.56315E+06        -0.50048E+08         0.00000E+00
    0.00000E+00         0.00000E+00        -0.38141E+08
 
   -0.38321E+08         0.61905E+06         0.00000E+00
    0.61905E+06        -0.50057E+08         0.00000E+00
    0.00000E+00         0.00000E+00        -0.38146E+08
 
   -0.38338E+08         0.67561E+06         0.00000E+00
    0.67561E+06        -0.50066E+08         0.00000E+00
    0.00000E+00         0.00000E+00        -0.38152E+08
 
   -0.38353E+08         0.73287E+06         0.00000E+00
    0.73287E+06        -0.50076E+08         0.00000E+00
    0.00000E+00         0.00000E+00        -0.38157E+08
 
   -0.38366E+08         0.79090E+06         0.00000E+00
    0.79090E+06        -0.50087E+08         0.00000E+00
    0.00000E+00         0.00000E+00        -0.38162E+08
 
   -0.38377E+08         0.84972E+06         0.00000E+00
    0.84972E+06        -0.50098E+08         0.00000E+00
    0.00000E+00         0.00000E+00        -0.38166E+08
 
   -0.38387E+08         0.90938E+06         0.00000E+00
    0.90938E+06        -0.50110E+08         0.00000E+00
    0.00000E+00         0.00000E+00        -0.38171E+08
 
   -0.38396E+08         0.96992E+06         0.00000E+00
    0.96992E+06        -0.50121E+08         0.00000E+00
    0.00000E+00         0.00000E+00        -0.38175E+08
 
   -0.38402E+08         0.10314E+07         0.00000E+00
    0.10314E+07        -0.50134E+08         0.00000E+00
    0.00000E+00         0.00000E+00        -0.38179E+08
 
   -0.38408E+08         0.10938E+07         0.00000E+00
    0.10938E+07        -0.50146E+08         0.00000E+00
    0.00000E+00         0.00000E+00        -0.38182E+08
 
   -0.38411E+08         0.11571E+07         0.00000E+00
    0.11571E+07        -0.50159E+08         0.00000E+00
    0.00000E+00         0.00000E+00        -0.38186E+08
 
   -0.38414E+08         0.12215E+07         0.00000E+00
    0.12215E+07        -0.50172E+08         0.00000E+00
    0.00000E+00         0.00000E+00        -0.38189E+08
 
   -0.38415E+08         0.12869E+07         0.00000E+00
    0.12869E+07        -0.50185E+08         0.00000E+00
    0.00000E+00         0.00000E+00        -0.38192E+08
 
   -0.38415E+08         0.13533E+07         0.00000E+00
    0.13533E+07        -0.50198E+08         0.00000E+00
    0.00000E+00         0.00000E+00        -0.38194E+08
 
   -0.38415E+08         0.14208E+07         0.00000E+00
    0.14208E+07        -0.50212E+08         0.00000E+00
    0.00000E+00         0.00000E+00        -0.38197E+08
 
   -0.38413E+08         0.14893E+07         0.00000E+00
    0.14893E+07        -0.50225E+08         0.00000E+00
    0.00000E+00         0.00000E+00        -0.38199E+08
 
   -0.38410E+08         0.15590E+07         0.00000E+00
    0.15590E+07        -0.50239E+08         0.00000E+00
    0.00000E+00         0.00000E+00        -0.38201E+08
 
   -0.38406E+08         0.16297E+07         0.00000E+00
    0.16297E+07        -0.50252E+08         0.00000E+00
    0.00000E+00         0.00000E+00        -0.38203E+08
 
   -0.38401E+08         0.17015E+07         0.00000E+00
    0.17015E+07        -0.50265E+08         0.00000E+00
    0.00000E+00         0.00000E+00        -0.38205E+08
 
   -0.38396E+08         0.17745E+07         0.00000E+00
    0.17745E+07        -0.50279E+08         0.00000E+00
    0.00000E+00         0.00000E+00        -0.38207E+08
 
   -0.38390E+08         0.18485E+07         0.00000E+00
    0.18485E+07        -0.50292E+08         0.00000E+00
    0.00000E+00         0.00000E+00        -0.38208E+08
 
   -0.38383E+08         0.19236E+07         0.00000E+00
    0.19236E+07        -0.50305E+08         0.00000E+00
    0.00000E+00         0.00000E+00        -0.38210E+08
 
   -0.38376E+08         0.19999E+07         0.00000E+00
    0.19999E+07        -0.50317E+08         0.00000E+00
    0.00000E+00         0.00000E+00        -0.38211E+08
 
   -0.38368E+08         0.20772E+07         0.00000E+00
    0.20772E+07        -0.50330E+08         0.00000E+00
    0.00000E+00         0.00000E+00        -0.38212E+08
 
   -0.38360E+08         0.21557E+07         0.00000E+00
    0.21557E+07        -0.50342E+08         0.00000E+00
    0.00000E+00         0.00000E+00        -0.38213E+08
 
   -0.38352E+08         0.22352E+07         0.00000E+00
    0.22352E+07        -0.50354E+08         0.00000E+00
    0.00000E+00         0.00000E+00        -0.38213E+08
 
   -0.38343E+08         0.23159E+07         0.00000E+00
    0.23159E+07        -0.50365E+08         0.00000E+00
    0.00000E+00         0.00000E+00        -0.38214E+08
 
   -0.38333E+08         0.23976E+07         0.00000E+00
    0.23976E+07        -0.50377E+08         0.00000E+00
    0.00000E+00         0.00000E+00        -0.38214E+08
 
   -0.38324E+08         0.24804E+07         0.00000E+00
    0.24804E+07        -0.50387E+08         0.00000E+00
    0.00000E+00         0.00000E+00        -0.38214E+08
 
   -0.38314E+08         0.25642E+07         0.00000E+00
    0.25642E+07        -0.50398E+08         0.00000E+00
    0.00000E+00         0.00000E+00        -0.38215E+08
 
   -0.38304E+08         0.26491E+07         0.00000E+00
    0.26491E+07        -0.50408E+08         0.00000E+00
    0.00000E+00         0.00000E+00        -0.38215E+08
 
   -0.38294E+08         0.27350E+07         0.00000E+00
    0.27350E+07        -0.50417E+08         0.00000E+00
    0.00000E+00         0.00000E+00        -0.38214E+08
 
   -0.38284E+08         0.28219E+07         0.00000E+00
    0.28219E+07        -0.50426E+08         0.00000E+00
    0.00000E+00         0.00000E+00        -0.38214E+08
 
   -0.38274E+08         0.29099E+07         0.00000E+00
    0.29099E+07        -0.50434E+08         0.00000E+00
    0.00000E+00         0.00000E+00        -0.38214E+08
 
   -0.38264E+08         0.29988E+07         0.00000E+00
    0.29988E+07        -0.50442E+08         0.00000E+00
    0.00000E+00         0.00000E+00        -0.38213E+08
 
   -0.38254E+08         0.30887E+07         0.00000E+00
    0.30887E+07        -0.50450E+08         0.00000E+00
    0.00000E+00         0.00000E+00        -0.38213E+08
 
   -0.38244E+08         0.31795E+07         0.00000E+00
    0.31795E+07        -0.50456E+08         0.00000E+00
    0.00000E+00         0.00000E+00        -0.38212E+08
 
   -0.38234E+08         0.32713E+07         0.00000E+00
    0.32713E+07        -0.50462E+08         0.00000E+00
    0.00000E+00         0.00000E+00        -0.38211E+08
 
   -0.38224E+08         0.33640E+07         0.00000E+00
    0.33640E+07        -0.50468E+08         0.00000E+00
    0.00000E+00         0.00000E+00        -0.38211E+08
 
   -0.38214E+08         0.34576E+07         0.00000E+00
    0.34576E+07        -0.50473E+08         0.00000E+00
    0.00000E+00         0.00000E+00        -0.38210E+08
 
   -0.37738E+08         0.23834E+05         0.00000E+00
    0.23834E+05        -0.49999E+08         0.00000E+00
    0.00000E+00         0.00000E+00        -0.37612E+08
 
   -0.37780E+08         0.71436E+05         0.00000E+00
    0.71436E+05        -0.50000E+08         0.00000E+00
    0.00000E+00         0.00000E+00        -0.37621E+08
 
   -0.37820E+08         0.11915E+06         0.00000E+00
    0.11915E+06        -0.50003E+08         0.00000E+00
    0.00000E+00         0.00000E+00        -0.37629E+08
 
   -0.37856E+08         0.16706E+06         0.00000E+00
    0.16706E+06        -0.50006E+08         0.00000E+00
    0.00000E+00         0.00000E+00        -0.37637E+08
 
   -0.37889E+08         0.21527E+06         0.00000E+00
    0.21527E+06        -0.50011E+08         0.00000E+00
    0.00000E+00         0.00000E+00        -0.37645E+08
 
   -0.37919E+08         0.26388E+06         0.00000E+00
    0.26388E+06        -0.50017E+08         0.00000E+00
    0.00000E+00         0.00000E+00        -0.37652E+08
 
   -0.37947E+08         0.31295E+06         0.00000E+00
    0.31295E+06        -0.50023E+08         0.00000E+00
    0.00000E+00         0.00000E+00        -0.37659E+08
 
   -0.37972E+08         0.36258E+06         0.00000E+00
    0.36258E+06        -0.50031E+08         0.00000E+00
    0.00000E+00         0.00000E+00        -0.37666E+08
 
   -0.37995E+08         0.41283E+06         0.00000E+00
    0.41283E+06        -0.50039E+08         0.00000E+00
    0.00000E+00         0.00000E+00        -0.37672E+08
 
   -0.38015E+08         0.46378E+06         0.00000E+00
    0.46378E+06        -0.50049E+08         0.00000E+00
    0.00000E+00         0.00000E+00        -0.37678E+08
 
   -0.38032E+08         0.51550E+06         0.00000E+00
    0.51550E+06        -0.50059E+08         0.00000E+00
    0.00000E+00         0.00000E+00        -0.37683E+08
 
   -0.38047E+08         0.56804E+06         0.00000E+00
    0.56804E+06        -0.50070E+08         0.00000E+00
    0.00000E+00         0.00000E+00        -0.37688E+08
 
   -0.38060E+08         0.62146E+06         0.00000E+00
    0.62146E+06        -0.50081E+08         0.00000E+00
    0.00000E+00         0.00000E+00        -0.37693E+08
 
   -0.38071E+08         0.67582E+06         0.00000E+00
    0.67582E+06        -0.50093E+08         0.00000E+00
    0.00000E+00         0.00000E+00        -0.37698E+08
 
   -0.38080E+08         0.73116E+06         0.00000E+00
    0.73116E+06        -0.50106E+08         0.00000E+00
    0.00000E+00         0.00000E+00        -0.37703E+08
 
   -0.38087E+08         0.78754E+06         0.00000E+00
    0.78754E+06        -0.50120E+08         0.00000E+00
    0.00000E+00         0.00000E+00        -0.37707E+08
 
   -0.38092E+08         0.84499E+06         0.00000E+00
    0.84499E+06        -0.50134E+08         0.00000E+00
    0.00000E+00         0.00000E+00        -0.37710E+08
 
   -0.38095E+08         0.90354E+06         0.00000E+00
    0.90354E+06        -0.50148E+08         0.00000E+00
    0.00000E+00         0.00000E+00        -0.37714E+08
 
   -0.38097E+08         0.96324E+06         0.00000E+00
    0.96324E+06        -0.50163E+08         0.00000E+00
    0.00000E+00         0.00000E+00        -0.37717E+08
 
   -0.38097E+08         0.10241E+07         0.00000E+00
    0.10241E+07        -0.50178E+08         0.00000E+00
    0.00000E+00         0.00000E+00        -0.37720E+08
 
   -0.38095E+08         0.10862E+07         0.00000E+00
    0.10862E+07        -0.50193E+08         0.00000E+00
    0.00000E+00         0.00000E+00        -0.37723E+08
 
   -0.38092E+08         0.11495E+07         0.00000E+00
    0.11495E+07        -0.50209E+08         0.00000E+00
    0.00000E+00         0.00000E+00        -0.37726E+08
 
   -0.38088E+08         0.12140E+07         0.00000E+00
    0.12140E+07        -0.50225E+08         0.00000E+00
    0.00000E+00         0.00000E+00        -0.37728E+08
 
   -0.38082E+08         0.12798E+07         0.00000E+00
    0.12798E+07        -0.50241E+08         0.00000E+00
    0.00000E+00         0.00000E+00        -0.37730E+08
 
   -0.38075E+08         0.13469E+07         0.00000E+00
    0.13469E+07        -0.50257E+08         0.00000E+00
    0.00000E+00         0.00000E+00        -0.37732E+08
 
   -0.38067E+08         0.14153E+07         0.00000E+00
    0.14153E+07        -0.50273E+08         0.00000E+00
    0.00000E+00         0.00000E+00        -0.37734E+08
 
   -0.38059E+08         0.14849E+07         0.00000E+00
    0.14849E+07        -0.50290E+08         0.00000E+00
    0.00000E+00         0.00000E+00        -0.37735E+08
 
   -0.38049E+08         0.15559E+07         0.00000E+00
    0.15559E+07        -0.50306E+08         0.00000E+00
    0.00000E+00         0.00000E+00        -0.37737E+08
 
   -0.38038E+08         0.16281E+07         0.00000E+00
    0.16281E+07        -0.50322E+08         0.00000E+00
    0.00000E+00         0.00000E+00        -0.37738E+08
 
   -0.38027E+08         0.17017E+07         0.00000E+00
    0.17017E+07        -0.50338E+08         0.00000E+00
    0.00000E+00         0.00000E+00        -0.37739E+08
 
   -0.38015E+08         0.17765E+07         0.00000E+00
    0.17765E+07        -0.50354E+08         0.00000E+00
    0.00000E+00         0.00000E+00        -0.37739E+08
 
   -0.38002E+08         0.18527E+07         0.00000E+00
    0.18527E+07        -0.50370E+08         0.00000E+00
    0.00000E+00         0.00000E+00        -0.37740E+08
 
   -0.37989E+08         0.19301E+07         0.00000E+00
    0.19301E+07        -0.50385E+08         0.00000E+00
    0.00000E+00         0.00000E+00        -0.37741E+08
 
   -0.37975E+08         0.20088E+07         0.00000E+00
    0.20088E+07        -0.50401E+08         0.00000E+00
    0.00000E+00         0.00000E+00        -0.37741E+08
 
   -0.37961E+08         0.20888E+07         0.00000E+00
    0.20888E+07        -0.50416E+08         0.00000E+00
    0.00000E+00         0.00000E+00        -0.37741E+08
 
   -0.37947E+08         0.21701E+07         0.00000E+00
    0.21701E+07        -0.50430E+08         0.00000E+00
    0.00000E+00         0.00000E+00        -0.37741E+08
 
   -0.37932E+08         0.22526E+07         0.00000E+00
    0.22526E+07        -0.50444E+08         0.00000E+00
    0.00000E+00         0.00000E+00        -0.37741E+08
 
   -0.37917E+08         0.23363E+07         0.00000E+00
    0.23363E+07        -0.50458E+08         0.00000E+00
    0.00000E+00         0.00000E+00        -0.37741E+08
 
   -0.37902E+08         0.24212E+07         0.00000E+00
    0.24212E+07        -0.50472E+08         0.00000E+00
    0.00000E+00         0.00000E+00        -0.37740E+08
 
   -0.37887E+08         0.25074E+07         0.00000E+00
    0.25074E+07        -0.50485E+08         0.00000E+00
    0.00000E+00         0.00000E+00        -0.37740E+08
 
   -0.37871E+08         0.25947E+07         0.00000E+00
    0.25947E+07        -0.50497E+08         0.00000E+00
    0.00000E+00         0.00000E+00        -0.37739E+08
 
   -0.37856E+08         0.26831E+07         0.00000E+00
    0.26831E+07        -0.50509E+08         0.00000E+00
    0.00000E+00         0.00000E+00        -0.37739E+08
 
   -0.37840E+08         0.27727E+07         0.00000E+00
    0.27727E+07        -0.50520E+08         0.00000E+00
    0.00000E+00         0.00000E+00        -0.37738E+08
 
   -0.37825E+08         0.28634E+07         0.00000E+00
    0.28634E+07        -0.50531E+08         0.00000E+00
    0.00000E+00         0.00000E+00        -0.37737E+08
 
   -0.37810E+08         0.29552E+07         0.00000E+00
    0.29552E+07        -0.50541E+08         0.00000E+00
    0.00000E+00         0.00000E+00        -0.37736E+08
 
   -0.37795E+08         0.30480E+07         0.00000E+00
    0.30480E+07        -0.50551E+08         0.00000E+00
    0.00000E+00         0.00000E+00        -0.37735E+08
 
   -0.37780E+08         0.31419E+07         0.00000E+00
    0.31419E+07        -0.50560E+08         0.00000E+00
    0.00000E+00         0.00000E+00        -0.37733E+08
 
   -0.37765E+08         0.32368E+07         0.00000E+00
    0.32368E+07        -0.50568E+08         0.00000E+00
    0.00000E+00         0.00000E+00        -0.37732E+08
 
   -0.37750E+08         0.33327E+07         0.00000E+00
    0.33327E+07        -0.50576E+08         0.00000E+00
    0.00000E+00         0.00000E+00        -0.37731E+08
 
   -0.37736E+08         0.34295E+07         0.00000E+00
    0.34295E+07        -0.50583E+08         0.00000E+00
    0.00000E+00         0.00000E+00        -0.37729E+08
 
   -0.37516E+08         0.20362E+05         0.00000E+00
    0.20362E+05        -0.49999E+08         0.00000E+00
    0.00000E+00         0.00000E+00        -0.37147E+08
 
   -0.37558E+08         0.61482E+05         0.00000E+00
    0.61482E+05        -0.50001E+08         0.00000E+00
    0.00000E+00         0.00000E+00        -0.37156E+08
 
   -0.37595E+08         0.10292E+06         0.00000E+00
    0.10292E+06        -0.50004E+08         0.00000E+00
    0.00000E+00         0.00000E+00        -0.37164E+08
 
   -0.37630E+08         0.14480E+06         0.00000E+00
    0.14480E+06        -0.50008E+08         0.00000E+00
    0.00000E+00         0.00000E+00        -0.37172E+08
 
   -0.37661E+08         0.18720E+06         0.00000E+00
    0.18720E+06        -0.50013E+08         0.00000E+00
    0.00000E+00         0.00000E+00        -0.37179E+08
 
   -0.37689E+08         0.23024E+06         0.00000E+00
    0.23024E+06        -0.50020E+08         0.00000E+00
    0.00000E+00         0.00000E+00        -0.37186E+08
 
   -0.37713E+08         0.27400E+06         0.00000E+00
    0.27400E+06        -0.50028E+08         0.00000E+00
    0.00000E+00         0.00000E+00        -0.37192E+08
 
   -0.37735E+08         0.31858E+06         0.00000E+00
    0.31858E+06        -0.50037E+08         0.00000E+00
    0.00000E+00         0.00000E+00        -0.37198E+08
 
   -0.37753E+08         0.36404E+06         0.00000E+00
    0.36404E+06        -0.50047E+08         0.00000E+00
    0.00000E+00         0.00000E+00        -0.37204E+08
 
   -0.37769E+08         0.41046E+06         0.00000E+00
    0.41046E+06        -0.50059E+08         0.00000E+00
    0.00000E+00         0.00000E+00        -0.37210E+08
 
   -0.37782E+08         0.45792E+06         0.00000E+00
    0.45792E+06        -0.50071E+08         0.00000E+00
    0.00000E+00         0.00000E+00        -0.37215E+08
 
   -0.37792E+08         0.50648E+06         0.00000E+00
    0.50648E+06        -0.50084E+08         0.00000E+00
    0.00000E+00         0.00000E+00        -0.37219E+08
 
   -0.37800E+08         0.55620E+06         0.00000E+00
    0.55620E+06        -0.50098E+08         0.00000E+00
    0.00000E+00         0.00000E+00        -0.37224E+08
 
   -0.37805E+08         0.60713E+06         0.00000E+00
    0.60713E+06        -0.50112E+08         0.00000E+00
    0.00000E+00         0.00000E+00        -0.37228E+08
 
   -0.37808E+08         0.65932E+06         0.00000E+00
    0.65932E+06        -0.50128E+08         0.00000E+00
    0.00000E+00         0.00000E+00        -0.37231E+08
 
   -0.37809E+08         0.71282E+06         0.00000E+00
    0.71282E+06        -0.50144E+08         0.00000E+00
    0.00000E+00         0.00000E+00        -0.37235E+08
 
   -0.37808E+08         0.76766E+06         0.00000E+00
    0.76766E+06        -0.50160E+08         0.00000E+00
    0.00000E+00         0.00000E+00        -0.37238E+08
 
   -0.37805E+08         0.82389E+06         0.00000E+00
    0.82389E+06        -0.50177E+08         0.00000E+00
    0.00000E+00         0.00000E+00        -0.37241E+08
 
   -0.37800E+08         0.88153E+06         0.00000E+00
    0.88153E+06        -0.50195E+08         0.00000E+00
    0.00000E+00         0.00000E+00        -0.37243E+08
 
   -0.37793E+08         0.94061E+06         0.00000E+00
    0.94061E+06        -0.50213E+08         0.00000E+00
    0.00000E+00         0.00000E+00        -0.37246E+08
 
   -0.37785E+08         0.10012E+07         0.00000E+00
    0.10012E+07        -0.50231E+08         0.00000E+00
    0.00000E+00         0.00000E+00        -0.37248E+08
 
   -0.37775E+08         0.10632E+07         0.00000E+00
    0.10632E+07        -0.50250E+08         0.00000E+00
    0.00000E+00         0.00000E+00        -0.37249E+08
 
   -0.37764E+08         0.11267E+07         0.00000E+00
    0.11267E+07        -0.50269E+08         0.00000E+00
    0.00000E+00         0.00000E+00        -0.37251E+08
 
   -0.37751E+08         0.11918E+07         0.00000E+00
    0.11918E+07        -0.50288E+08         0.00000E+00
    0.00000E+00         0.00000E+00        -0.37252E+08
 
   -0.37738E+08         0.12584E+07         0.00000E+00
    0.12584E+07        -0.50307E+08         0.00000E+00
    0.00000E+00         0.00000E+00        -0.37253E+08
 
   -0.37723E+08         0.13265E+07         0.00000E+00
    0.13265E+07        -0.50326E+08         0.00000E+00
    0.00000E+00         0.00000E+00        -0.37254E+08
 
   -0.37707E+08         0.13961E+07         0.00000E+00
    0.13961E+07        -0.50346E+08         0.00000E+00
    0.00000E+00         0.00000E+00        -0.37255E+08
 
   -0.37690E+08         0.14673E+07         0.00000E+00
    0.14673E+07        -0.50365E+08         0.00000E+00
    0.00000E+00         0.00000E+00        -0.37255E+08
 
   -0.37672E+08         0.15400E+07         0.00000E+00
    0.15400E+07        -0.50384E+08         0.00000E+00
    0.00000E+00         0.00000E+00        -0.37255E+08
 
   -0.37654E+08         0.16142E+07         0.00000E+00
    0.16142E+07        -0.50403E+08         0.00000E+00
    0.00000E+00         0.00000E+00        -0.37256E+08
 
   -0.37635E+08         0.16899E+07         0.00000E+00
    0.16899E+07        -0.50422E+08         0.00000E+00
    0.00000E+00         0.00000E+00        -0.37256E+08
 
   -0.37615E+08         0.17672E+07         0.00000E+00
    0.17672E+07        -0.50441E+08         0.00000E+00
    0.00000E+00         0.00000E+00        -0.37255E+08
 
   -0.37595E+08         0.18459E+07         0.00000E+00
    0.18459E+07        -0.50460E+08         0.00000E+00
    0.00000E+00         0.00000E+00        -0.37255E+08
 
   -0.37575E+08         0.19262E+07         0.00000E+00
    0.19262E+07        -0.50478E+08         0.00000E+00
    0.00000E+00         0.00000E+00        -0.37254E+08
 
   -0.37554E+08         0.20078E+07         0.00000E+00
    0.20078E+07        -0.50496E+08         0.00000E+00
    0.00000E+00         0.00000E+00        -0.37254E+08
 
   -0.37532E+08         0.20910E+07         0.00000E+00
    0.20910E+07        -0.50513E+08         0.00000E+00
    0.00000E+00         0.00000E+00        -0.37253E+08
 
   -0.37511E+08         0.21755E+07         0.00000E+00
    0.21755E+07        -0.50530E+08         0.00000E+00
    0.00000E+00         0.00000E+00        -0.37252E+08
 
   -0.37490E+08         0.22614E+07         0.00000E+00
    0.22614E+07        -0.50547E+08         0.00000E+00
    0.00000E+00         0.00000E+00        -0.37251E+08
 
   -0.37468E+08         0.23488E+07         0.00000E+00
    0.23488E+07        -0.50563E+08         0.00000E+00
    0.00000E+00         0.00000E+00        -0.37250E+08
 
   -0.37447E+08         0.24374E+07         0.00000E+00
    0.24374E+07        -0.50579E+08         0.00000E+00
    0.00000E+00         0.00000E+00        -0.37249E+08
 
   -0.37425E+08         0.25274E+07         0.00000E+00
    0.25274E+07        -0.50594E+08         0.00000E+00
    0.00000E+00         0.00000E+00        -0.37248E+08
 
   -0.37404E+08         0.26186E+07         0.00000E+00
    0.26186E+07        -0.50608E+08         0.00000E+00
    0.00000E+00         0.00000E+00        -0.37246E+08
 
   -0.37382E+08         0.27111E+07         0.00000E+00
    0.27111E+07        -0.50622E+08         0.00000E+00
    0.00000E+00         0.00000E+00        -0.37245E+08
 
   -0.37361E+08         0.28048E+07         0.00000E+00
    0.28048E+07        -0.50636E+08         0.00000E+00
    0.00000E+00         0.00000E+00        -0.37243E+08
 
   -0.37340E+08         0.28998E+07         0.00000E+00
    0.28998E+07        -0.50648E+08         0.00000E+00
    0.00000E+00         0.00000E+00        -0.37241E+08
 
   -0.37320E+08         0.29958E+07         0.00000E+00
    0.29958E+07        -0.50660E+08         0.00000E+00
    0.00000E+00         0.00000E+00        -0.37240E+08
 
   -0.37299E+08         0.30930E+07         0.00000E+00
    0.30930E+07        -0.50672E+08         0.00000E+00
    0.00000E+00         0.00000E+00        -0.37238E+08
 
   -0.37279E+08         0.31913E+07         0.00000E+00
    0.31913E+07        -0.50682E+08         0.00000E+00
    0.00000E+00         0.00000E+00        -0.37236E+08
 
   -0.37260E+08         0.32906E+07         0.00000E+00
    0.32906E+07        -0.50692E+08         0.00000E+00
    0.00000E+00         0.00000E+00        -0.37234E+08
 
   -0.37240E+08         0.33909E+07         0.00000E+00
    0.33909E+07        -0.50701E+08         0.00000E+00
    0.00000E+00         0.00000E+00        -0.37232E+08
 
   -0.37330E+08         0.16134E+05         0.00000E+00
    0.16134E+05        -0.49999E+08         0.00000E+00
    0.00000E+00         0.00000E+00        -0.36673E+08
 
   -0.37370E+08         0.49441E+05         0.00000E+00
    0.49441E+05        -0.50001E+08         0.00000E+00
    0.00000E+00         0.00000E+00        -0.36682E+08
 
   -0.37405E+08         0.83361E+05         0.00000E+00
    0.83361E+05        -0.50004E+08         0.00000E+00
    0.00000E+00         0.00000E+00        -0.36689E+08
 
   -0.37436E+08         0.11801E+06         0.00000E+00
    0.11801E+06        -0.50009E+08         0.00000E+00
    0.00000E+00         0.00000E+00        -0.36697E+08
 
   -0.37464E+08         0.15350E+06         0.00000E+00
    0.15350E+06        -0.50016E+08         0.00000E+00
    0.00000E+00         0.00000E+00        -0.36703E+08
 
   -0.37487E+08         0.18994E+06         0.00000E+00
    0.18994E+06        -0.50024E+08         0.00000E+00
    0.00000E+00         0.00000E+00        -0.36710E+08
 
   -0.37507E+08         0.22743E+06         0.00000E+00
    0.22743E+06        -0.50034E+08         0.00000E+00
    0.00000E+00         0.00000E+00        -0.36716E+08
 
   -0.37524E+08         0.26604E+06         0.00000E+00
    0.26604E+06        -0.50044E+08         0.00000E+00
    0.00000E+00         0.00000E+00        -0.36721E+08
 
   -0.37537E+08         0.30588E+06         0.00000E+00
    0.30588E+06        -0.50057E+08         0.00000E+00
    0.00000E+00         0.00000E+00        -0.36726E+08
 
   -0.37547E+08         0.34701E+06         0.00000E+00
    0.34701E+06        -0.50070E+08         0.00000E+00
    0.00000E+00         0.00000E+00        -0.36731E+08
 
   -0.37553E+08         0.38951E+06         0.00000E+00
    0.38951E+06        -0.50084E+08         0.00000E+00
    0.00000E+00         0.00000E+00        -0.36735E+08
 
   -0.37557E+08         0.43344E+06         0.00000E+00
    0.43344E+06        -0.50099E+08         0.00000E+00
    0.00000E+00         0.00000E+00        -0.36739E+08
 
   -0.37558E+08         0.47885E+06         0.00000E+00
    0.47885E+06        -0.50116E+08         0.00000E+00
    0.00000E+00         0.00000E+00        -0.36742E+08
 
   -0.37557E+08         0.52581E+06         0.00000E+00
    0.52581E+06        -0.50133E+08         0.00000E+00
    0.00000E+00         0.00000E+00        -0.36745E+08
 
   -0.37552E+08         0.57436E+06         0.00000E+00
    0.57436E+06        -0.50151E+08         0.00000E+00
    0.00000E+00         0.00000E+00        -0.36748E+08
 
   -0.37546E+08         0.62454E+06         0.00000E+00
    0.62454E+06        -0.50170E+08         0.00000E+00
    0.00000E+00         0.00000E+00        -0.36750E+08
 
   -0.37537E+08         0.67640E+06         0.00000E+00
    0.67640E+06        -0.50189E+08         0.00000E+00
    0.00000E+00         0.00000E+00        -0.36753E+08
 
   -0.37526E+08         0.72995E+06         0.00000E+00
    0.72995E+06        -0.50209E+08         0.00000E+00
    0.00000E+00         0.00000E+00        -0.36754E+08
 
   -0.37513E+08         0.78523E+06         0.00000E+00
    0.78523E+06        -0.50230E+08         0.00000E+00
    0.00000E+00         0.00000E+00        -0.36756E+08
 
   -0.37499E+08         0.84226E+06         0.00000E+00
    0.84226E+06        -0.50251E+08         0.00000E+00
    0.00000E+00         0.00000E+00        -0.36757E+08
 
   -0.37482E+08         0.90106E+06         0.00000E+00
    0.90106E+06        -0.50272E+08         0.00000E+00
    0.00000E+00         0.00000E+00        -0.36758E+08
 
   -0.37464E+08         0.96165E+06         0.00000E+00
    0.96165E+06        -0.50294E+08         0.00000E+00
    0.00000E+00         0.00000E+00        -0.36759E+08
 
   -0.37445E+08         0.10240E+07         0.00000E+00
    0.10240E+07        -0.50316E+08         0.00000E+00
    0.00000E+00         0.00000E+00        -0.36759E+08
 
   -0.37424E+08         0.10882E+07         0.00000E+00
    0.10882E+07        -0.50338E+08         0.00000E+00
    0.00000E+00         0.00000E+00        -0.36759E+08
 
   -0.37402E+08         0.11542E+07         0.00000E+00
    0.11542E+07        -0.50361E+08         0.00000E+00
    0.00000E+00         0.00000E+00        -0.36759E+08
 
   -0.37379E+08         0.12220E+07         0.00000E+00
    0.12220E+07        -0.50383E+08         0.00000E+00
    0.00000E+00         0.00000E+00        -0.36759E+08
 
   -0.37355E+08         0.12916E+07         0.00000E+00
    0.12916E+07        -0.50406E+08         0.00000E+00
    0.00000E+00         0.00000E+00        -0.36759E+08
 
   -0.37329E+08         0.13630E+07         0.00000E+00
    0.13630E+07        -0.50428E+08         0.00000E+00
    0.00000E+00         0.00000E+00        -0.36758E+08
 
   -0.37303E+08         0.14362E+07         0.00000E+00
    0.14362E+07        -0.50451E+08         0.00000E+00
    0.00000E+00         0.00000E+00        -0.36757E+08
 
   -0.37277E+08         0.15111E+07         0.00000E+00
    0.15111E+07        -0.50473E+08         0.00000E+00
    0.00000E+00         0.00000E+00        -0.36757E+08
 
   -0.37250E+08         0.15878E+07         0.00000E+00
    0.15878E+07        -0.50495E+08         0.00000E+00
    0.00000E+00         0.00000E+00        -0.36755E+08
 
   -0.37222E+08         0.16663E+07         0.00000E+00
    0.16663E+07        -0.50517E+08         0.00000E+00
    0.00000E+00         0.00000E+00        -0.36754E+08
 
   -0.37194E+08         0.17465E+07         0.00000E+00
    0.17465E+07        -0.50539E+08         0.00000E+00
    0.00000E+00         0.00000E+00        -0.36753E+08
 
   -0.37165E+08         0.18283E+07         0.00000E+00
    0.18283E+07        -0.50560E+08         0.00000E+00
    0.00000E+00         0.00000E+00        -0.36751E+08
 
   -0.37137E+08         0.19119E+07         0.00000E+00
    0.19119E+07        -0.50581E+08         0.00000E+00
    0.00000E+00         0.00000E+00        -0.36750E+08
 
   -0.37108E+08         0.19971E+07         0.00000E+00
    0.19971E+07        -0.50601E+08         0.00000E+00
    0.00000E+00         0.00000E+00        -0.36748E+08
 
   -0.37079E+08         0.20838E+07         0.00000E+00
    0.20838E+07        -0.50622E+08         0.00000E+00
    0.00000E+00         0.00000E+00        -0.36746E+08
 
   -0.37050E+08         0.21722E+07         0.00000E+00
    0.21722E+07        -0.50641E+08         0.00000E+00
    0.00000E+00         0.00000E+00        -0.36744E+08
 
   -0.37022E+08         0.22621E+07         0.00000E+00
    0.22621E+07        -0.50660E+08         0.00000E+00
    0.00000E+00         0.00000E+00        -0.36742E+08
 
   -0.36993E+08         0.23536E+07         0.00000E+00
    0.23536E+07        -0.50679E+08         0.00000E+00
    0.00000E+00         0.00000E+00        -0.36740E+08
 
   -0.36965E+08         0.24465E+07         0.00000E+00
    0.24465E+07        -0.50697E+08         0.00000E+00
    0.00000E+00         0.00000E+00        -0.36738E+08
 
   -0.36936E+08         0.25408E+07         0.00000E+00
    0.25408E+07        -0.50714E+08         0.00000E+00
    0.00000E+00         0.00000E+00        -0.36736E+08
 
   -0.36909E+08         0.26365E+07         0.00000E+00
    0.26365E+07        -0.50731E+08         0.00000E+00
    0.00000E+00         0.00000E+00        -0.36734E+08
 
   -0.36881E+08         0.27335E+07         0.00000E+00
    0.27335E+07        -0.50747E+08         0.00000E+00
    0.00000E+00         0.00000E+00        -0.36731E+08
 
   -0.36854E+08         0.28319E+07         0.00000E+00
    0.28319E+07        -0.50762E+08         0.00000E+00
    0.00000E+00         0.00000E+00        -0.36729E+08
 
   -0.36828E+08         0.29315E+07         0.00000E+00
    0.29315E+07        -0.50776E+08         0.00000E+00
    0.00000E+00         0.00000E+00        -0.36726E+08
 
   -0.36802E+08         0.30323E+07         0.00000E+00
    0.30323E+07        -0.50790E+08         0.00000E+00
    0.00000E+00         0.00000E+00        -0.36724E+08
 
   -0.36776E+08         0.31343E+07         0.00000E+00
    0.31343E+07        -0.50803E+08         0.00000E+00
    0.00000E+00         0.00000E+00        -0.36721E+08
 
   -0.36751E+08         0.32374E+07         0.00000E+00
    0.32374E+07        -0.50815E+08         0.00000E+00
    0.00000E+00         0.00000E+00        -0.36719E+08
 
   -0.36727E+08         0.33415E+07         0.00000E+00
    0.33415E+07        -0.50827E+08         0.00000E+00
    0.00000E+00         0.00000E+00        -0.36716E+08
 
   -0.37188E+08         0.11062E+05         0.00000E+00
    0.11062E+05        -0.49999E+08         0.00000E+00
    0.00000E+00         0.00000E+00        -0.36191E+08
 
   -0.37224E+08         0.35097E+05         0.00000E+00
    0.35097E+05        -0.50001E+08         0.00000E+00
    0.00000E+00         0.00000E+00        -0.36199E+08
 
   -0.37255E+08         0.60128E+05         0.00000E+00
    0.60128E+05        -0.50005E+08         0.00000E+00
    0.00000E+00         0.00000E+00        -0.36206E+08
 
   -0.37281E+08         0.86281E+05         0.00000E+00
    0.86281E+05        -0.50011E+08         0.00000E+00
    0.00000E+00         0.00000E+00        -0.36213E+08
 
   -0.37303E+08         0.11367E+06         0.00000E+00
    0.11367E+06        -0.50019E+08         0.00000E+00
    0.00000E+00         0.00000E+00        -0.36218E+08
 
   -0.37321E+08         0.14241E+06         0.00000E+00
    0.14241E+06        -0.50028E+08         0.00000E+00
    0.00000E+00         0.00000E+00        -0.36224E+08
 
   -0.37334E+08         0.17260E+06         0.00000E+00
    0.17260E+06        -0.50040E+08         0.00000E+00
    0.00000E+00         0.00000E+00        -0.36229E+08
 
   -0.37344E+08         0.20433E+06         0.00000E+00
    0.20433E+06        -0.50052E+08         0.00000E+00
    0.00000E+00         0.00000E+00        -0.36233E+08
 
   -0.37350E+08         0.23768E+06         0.00000E+00
    0.23768E+06        -0.50066E+08         0.00000E+00
    0.00000E+00         0.00000E+00        -0.36237E+08
 
   -0.37352E+08         0.27273E+06         0.00000E+00
    0.27273E+06        -0.50082E+08         0.00000E+00
    0.00000E+00         0.00000E+00        -0.36241E+08
 
   -0.37351E+08         0.30954E+06         0.00000E+00
    0.30954E+06        -0.50098E+08         0.00000E+00
    0.00000E+00         0.00000E+00        -0.36244E+08
 
   -0.37346E+08         0.34819E+06         0.00000E+00
    0.34819E+06        -0.50116E+08         0.00000E+00
    0.00000E+00         0.00000E+00        -0.36246E+08
 
   -0.37339E+08         0.38872E+06         0.00000E+00
    0.38872E+06        -0.50135E+08         0.00000E+00
    0.00000E+00         0.00000E+00        -0.36249E+08
 
   -0.37328E+08         0.43118E+06         0.00000E+00
    0.43118E+06        -0.50155E+08         0.00000E+00
    0.00000E+00         0.00000E+00        -0.36250E+08
 
   -0.37315E+08         0.47561E+06         0.00000E+00
    0.47561E+06        -0.50175E+08         0.00000E+00
    0.00000E+00         0.00000E+00        -0.36252E+08
 
   -0.37300E+08         0.52205E+06         0.00000E+00
    0.52205E+06        -0.50197E+08         0.00000E+00
    0.00000E+00         0.00000E+00        -0.36253E+08
 
   -0.37282E+08         0.57054E+06         0.00000E+00
    0.57054E+06        -0.50219E+08         0.00000E+00
    0.00000E+00         0.00000E+00        -0.36254E+08
 
   -0.37261E+08         0.62109E+06         0.00000E+00
    0.62109E+06        -0.50242E+08         0.00000E+00
    0.00000E+00         0.00000E+00        -0.36254E+08
 
   -0.37239E+08         0.67373E+06         0.00000E+00
    0.67373E+06        -0.50266E+08         0.00000E+00
    0.00000E+00         0.00000E+00        -0.36254E+08
 
   -0.37214E+08         0.72847E+06         0.00000E+00
    0.72847E+06        -0.50290E+08         0.00000E+00
    0.00000E+00         0.00000E+00        -0.36254E+08
 
   -0.37188E+08         0.78532E+06         0.00000E+00
    0.78532E+06        -0.50315E+08         0.00000E+00
    0.00000E+00         0.00000E+00        -0.36254E+08
 
   -0.37161E+08         0.84429E+06         0.00000E+00
    0.84429E+06        -0.50340E+08         0.00000E+00
    0.00000E+00         0.00000E+00        -0.36253E+08
 
   -0.37131E+08         0.90538E+06         0.00000E+00
    0.90538E+06        -0.50365E+08         0.00000E+00
    0.00000E+00         0.00000E+00        -0.36252E+08
 
   -0.37101E+08         0.96859E+06         0.00000E+00
    0.96859E+06        -0.50390E+08         0.00000E+00
    0.00000E+00         0.00000E+00        -0.36251E+08
 
   -0.37069E+08         0.10339E+07         0.00000E+00
    0.10339E+07        -0.50416E+08         0.00000E+00
    0.00000E+00         0.00000E+00        -0.36250E+08
 
   -0.37036E+08         0.11014E+07         0.00000E+00
    0.11014E+07        -0.50442E+08         0.00000E+00
    0.00000E+00         0.00000E+00        -0.36248E+08
 
   -0.37002E+08         0.11709E+07         0.00000E+00
    0.11709E+07        -0.50468E+08         0.00000E+00
    0.00000E+00         0.00000E+00        -0.36246E+08
 
   -0.36967E+08         0.12425E+07         0.00000E+00
    0.12425E+07        -0.50493E+08         0.00000E+00
    0.00000E+00         0.00000E+00        -0.36244E+08
 
   -0.36932E+08         0.13162E+07         0.00000E+00
    0.13162E+07        -0.50519E+08         0.00000E+00
    0.00000E+00         0.00000E+00        -0.36242E+08
 
   -0.36896E+08         0.13919E+07         0.00000E+00
    0.13919E+07        -0.50545E+08         0.00000E+00
    0.00000E+00         0.00000E+00        -0.36240E+08
 
   -0.36859E+08         0.14697E+07         0.00000E+00
    0.14697E+07        -0.50570E+08         0.00000E+00
    0.00000E+00         0.00000E+00        -0.36238E+08
 
   -0.36822E+08         0.15494E+07         0.00000E+00
    0.15494E+07        -0.50595E+08         0.00000E+00
    0.00000E+00         0.00000E+00        -0.36235E+08
 
   -0.36785E+08         0.16311E+07         0.00000E+00
    0.16311E+07        -0.50620E+08         0.00000E+00
    0.00000E+00         0.00000E+00        -0.36233E+08
 
   -0.36747E+08         0.17148E+07         0.00000E+00
    0.17148E+07        -0.50645E+08         0.00000E+00
    0.00000E+00         0.00000E+00        -0.36230E+08
 
   -0.36710E+08         0.18003E+07         0.00000E+00
    0.18003E+07        -0.50669E+08         0.00000E+00
    0.00000E+00         0.00000E+00        -0.36227E+08
 
   -0.36672E+08         0.18877E+07         0.00000E+00
    0.18877E+07        -0.50692E+08         0.00000E+00
    0.00000E+00         0.00000E+00        -0.36224E+08
 
   -0.36635E+08         0.19769E+07         0.00000E+00
    0.19769E+07        -0.50716E+08         0.00000E+00
    0.00000E+00         0.00000E+00        -0.36221E+08
 
   -0.36598E+08         0.20680E+07         0.00000E+00
    0.20680E+07        -0.50738E+08         0.00000E+00
    0.00000E+00         0.00000E+00        -0.36218E+08
 
   -0.36561E+08         0.21607E+07         0.00000E+00
    0.21607E+07        -0.50760E+08         0.00000E+00
    0.00000E+00         0.00000E+00        -0.36215E+08
 
   -0.36525E+08         0.22552E+07         0.00000E+00
    0.22552E+07        -0.50782E+08         0.00000E+00
    0.00000E+00         0.00000E+00        -0.36212E+08
 
   -0.36489E+08         0.23513E+07         0.00000E+00
    0.23513E+07        -0.50803E+08         0.00000E+00
    0.00000E+00         0.00000E+00        -0.36209E+08
 
   -0.36453E+08         0.24489E+07         0.00000E+00
    0.24489E+07        -0.50823E+08         0.00000E+00
    0.00000E+00         0.00000E+00        -0.36206E+08
 
   -0.36418E+08         0.25482E+07         0.00000E+00
    0.25482E+07        -0.50842E+08         0.00000E+00
    0.00000E+00         0.00000E+00        -0.36203E+08
 
   -0.36384E+08         0.26489E+07         0.00000E+00
    0.26489E+07        -0.50861E+08         0.00000E+00
    0.00000E+00         0.00000E+00        -0.36200E+08
 
   -0.36350E+08         0.27510E+07         0.00000E+00
    0.27510E+07        -0.50879E+08         0.00000E+00
    0.00000E+00         0.00000E+00        -0.36196E+08
 
   -0.36317E+08         0.28545E+07         0.00000E+00
    0.28545E+07        -0.50896E+08         0.00000E+00
    0.00000E+00         0.00000E+00        -0.36193E+08
 
   -0.36285E+08         0.29594E+07         0.00000E+00
    0.29594E+07        -0.50912E+08         0.00000E+00
    0.00000E+00         0.00000E+00        -0.36190E+08
 
   -0.36254E+08         0.30654E+07         0.00000E+00
    0.30654E+07        -0.50928E+08         0.00000E+00
    0.00000E+00         0.00000E+00        -0.36187E+08
 
   -0.36223E+08         0.31727E+07         0.00000E+00
    0.31727E+07        -0.50942E+08         0.00000E+00
    0.00000E+00         0.00000E+00        -0.36184E+08
 
   -0.36193E+08         0.32810E+07         0.00000E+00
    0.32810E+07        -0.50956E+08         0.00000E+00
    0.00000E+00         0.00000E+00        -0.36180E+08
 
   -0.37097E+08         0.50703E+04         0.00000E+00
    0.50703E+04        -0.49999E+08         0.00000E+00
    0.00000E+00         0.00000E+00        -0.35702E+08
 
   -0.37127E+08         0.18274E+05         0.00000E+00
    0.18274E+05        -0.50001E+08         0.00000E+00
    0.00000E+00         0.00000E+00        -0.35709E+08
 
   -0.37152E+08         0.32973E+05         0.00000E+00
    0.32973E+05        -0.50006E+08         0.00000E+00
    0.00000E+00         0.00000E+00        -0.35715E+08
 
   -0.37171E+08         0.49297E+05         0.00000E+00
    0.49297E+05        -0.50013E+08         0.00000E+00
    0.00000E+00         0.00000E+00        -0.35720E+08
 
   -0.37185E+08         0.67363E+05         0.00000E+00
    0.67363E+05        -0.50022E+08         0.00000E+00
    0.00000E+00         0.00000E+00        -0.35725E+08
 
   -0.37195E+08         0.87280E+05         0.00000E+00
    0.87280E+05        -0.50033E+08         0.00000E+00
    0.00000E+00         0.00000E+00        -0.35729E+08
 
   -0.37199E+08         0.10915E+06         0.00000E+00
    0.10915E+06        -0.50046E+08         0.00000E+00
    0.00000E+00         0.00000E+00        -0.35732E+08
 
   -0.37200E+08         0.13305E+06         0.00000E+00
    0.13305E+06        -0.50060E+08         0.00000E+00
    0.00000E+00         0.00000E+00        -0.35735E+08
 
   -0.37196E+08         0.15906E+06         0.00000E+00
    0.15906E+06        -0.50076E+08         0.00000E+00
    0.00000E+00         0.00000E+00        -0.35737E+08
 
   -0.37189E+08         0.18727E+06         0.00000E+00
    0.18727E+06        -0.50094E+08         0.00000E+00
    0.00000E+00         0.00000E+00        -0.35739E+08
 
   -0.37177E+08         0.21771E+06         0.00000E+00
    0.21771E+06        -0.50113E+08         0.00000E+00
    0.00000E+00         0.00000E+00        -0.35741E+08
 
   -0.37162E+08         0.25046E+06         0.00000E+00
    0.25046E+06        -0.50133E+08         0.00000E+00
    0.00000E+00         0.00000E+00        -0.35742E+08
 
   -0.37144E+08         0.28555E+06         0.00000E+00
    0.28555E+06        -0.50154E+08         0.00000E+00
    0.00000E+00         0.00000E+00        -0.35742E+08
 
   -0.37123E+08         0.32303E+06         0.00000E+00
    0.32303E+06        -0.50177E+08         0.00000E+00
    0.00000E+00         0.00000E+00        -0.35742E+08
 
   -0.37099E+08         0.36292E+06         0.00000E+00
    0.36292E+06        -0.50200E+08         0.00000E+00
    0.00000E+00         0.00000E+00        -0.35742E+08
 
   -0.37072E+08         0.40525E+06         0.00000E+00
    0.40525E+06        -0.50225E+08         0.00000E+00
    0.00000E+00         0.00000E+00        -0.35742E+08
 
   -0.37043E+08         0.45004E+06         0.00000E+00
    0.45004E+06        -0.50250E+08         0.00000E+00
    0.00000E+00         0.00000E+00        -0.35741E+08
 
   -0.37011E+08         0.49730E+06         0.00000E+00
    0.49730E+06        -0.50276E+08         0.00000E+00
    0.00000E+00         0.00000E+00        -0.35739E+08
 
   -0.36977E+08         0.54705E+06         0.00000E+00
    0.54705E+06        -0.50302E+08         0.00000E+00
    0.00000E+00         0.00000E+00        -0.35738E+08
 
   -0.36941E+08         0.59928E+06         0.00000E+00
    0.59928E+06        -0.50329E+08         0.00000E+00
    0.00000E+00         0.00000E+00        -0.35736E+08
 
   -0.36904E+08         0.65400E+06         0.00000E+00
    0.65400E+06        -0.50357E+08         0.00000E+00
    0.00000E+00         0.00000E+00        -0.35734E+08
 
   -0.36864E+08         0.71120E+06         0.00000E+00
    0.71120E+06        -0.50385E+08         0.00000E+00
    0.00000E+00         0.00000E+00        -0.35731E+08
 
   -0.36824E+08         0.77088E+06         0.00000E+00
    0.77088E+06        -0.50413E+08         0.00000E+00
    0.00000E+00         0.00000E+00        -0.35729E+08
 
   -0.36782E+08         0.83302E+06         0.00000E+00
    0.83302E+06        -0.50442E+08         0.00000E+00
    0.00000E+00         0.00000E+00        -0.35726E+08
 
   -0.36738E+08         0.89761E+06         0.00000E+00
    0.89761E+06        -0.50471E+08         0.00000E+00
    0.00000E+00         0.00000E+00        -0.35723E+08
 
   -0.36694E+08         0.96463E+06         0.00000E+00
    0.96463E+06        -0.50500E+08         0.00000E+00
    0.00000E+00         0.00000E+00        -0.35719E+08
 
   -0.36649E+08         0.10341E+07         0.00000E+00
    0.10341E+07        -0.50529E+08         0.00000E+00
    0.00000E+00         0.00000E+00        -0.35716E+08
 
   -0.36603E+08         0.11059E+07         0.00000E+00
    0.11059E+07        -0.50557E+08         0.00000E+00
    0.00000E+00         0.00000E+00        -0.35712E+08
 
   -0.36557E+08         0.11800E+07         0.00000E+00
    0.11800E+07        -0.50586E+08         0.00000E+00
    0.00000E+00         0.00000E+00        -0.35709E+08
 
   -0.36510E+08         0.12566E+07         0.00000E+00
    0.12566E+07        -0.50615E+08         0.00000E+00
    0.00000E+00         0.00000E+00        -0.35705E+08
 
   -0.36462E+08         0.13354E+07         0.00000E+00
    0.13354E+07        -0.50644E+08         0.00000E+00
    0.00000E+00         0.00000E+00        -0.35701E+08
 
   -0.36415E+08         0.14164E+07         0.00000E+00
    0.14164E+07        -0.50672E+08         0.00000E+00
    0.00000E+00         0.00000E+00        -0.35697E+08
 
   -0.36367E+08         0.14997E+07         0.00000E+00
    0.14997E+07        -0.50700E+08         0.00000E+00
    0.00000E+00         0.00000E+00        -0.35693E+08
 
   -0.36320E+08         0.15852E+07         0.00000E+00
    0.15852E+07        -0.50728E+08         0.00000E+00
    0.00000E+00         0.00000E+00        -0.35689E+08
 
   -0.36272E+08         0.16729E+07         0.00000E+00
    0.16729E+07        -0.50755E+08         0.00000E+00
    0.00000E+00         0.00000E+00        -0.35684E+08
 
   -0.36225E+08         0.17626E+07         0.00000E+00
    0.17626E+07        -0.50782E+08         0.00000E+00
    0.00000E+00         0.00000E+00        -0.35680E+08
 
   -0.36178E+08         0.18544E+07         0.00000E+00
    0.18544E+07        -0.50808E+08         0.00000E+00
    0.00000E+00         0.00000E+00        -0.35676E+08
 
   -0.36131E+08         0.19483E+07         0.00000E+00
    0.19483E+07        -0.50834E+08         0.00000E+00
    0.00000E+00         0.00000E+00        -0.35672E+08
 
   -0.36085E+08         0.20441E+07         0.00000E+00
    0.20441E+07        -0.50859E+08         0.00000E+00
    0.00000E+00         0.00000E+00        -0.35667E+08
 
   -0.36040E+08         0.21417E+07         0.00000E+00
    0.21417E+07        -0.50884E+08         0.00000E+00
    0.00000E+00         0.00000E+00        -0.35663E+08
 
   -0.35995E+08         0.22413E+07         0.00000E+00
    0.22413E+07        -0.50908E+08         0.00000E+00
    0.00000E+00         0.00000E+00        -0.35659E+08
 
   -0.35952E+08         0.23426E+07         0.00000E+00
    0.23426E+07        -0.50931E+08         0.00000E+00
    0.00000E+00         0.00000E+00        -0.35655E+08
 
   -0.35909E+08         0.24456E+07         0.00000E+00
    0.24456E+07        -0.50953E+08         0.00000E+00
    0.00000E+00         0.00000E+00        -0.35650E+08
 
   -0.35867E+08         0.25503E+07         0.00000E+00
    0.25503E+07        -0.50975E+08         0.00000E+00
    0.00000E+00         0.00000E+00        -0.35646E+08
 
   -0.35826E+08         0.26566E+07         0.00000E+00
    0.26566E+07        -0.50996E+08         0.00000E+00
    0.00000E+00         0.00000E+00        -0.35642E+08
 
   -0.35786E+08         0.27644E+07         0.00000E+00
    0.27644E+07        -0.51016E+08         0.00000E+00
    0.00000E+00         0.00000E+00        -0.35638E+08
 
   -0.35747E+08         0.28736E+07         0.00000E+00
    0.28736E+07        -0.51034E+08         0.00000E+00
    0.00000E+00         0.00000E+00        -0.35634E+08
 
   -0.35709E+08         0.29841E+07         0.00000E+00
    0.29841E+07        -0.51052E+08         0.00000E+00
    0.00000E+00         0.00000E+00        -0.35630E+08
 
   -0.35673E+08         0.30960E+07         0.00000E+00
    0.30960E+07        -0.51070E+08         0.00000E+00
    0.00000E+00         0.00000E+00        -0.35626E+08
 
   -0.35638E+08         0.32090E+07         0.00000E+00
    0.32090E+07        -0.51086E+08         0.00000E+00
    0.00000E+00         0.00000E+00        -0.35622E+08
 
   -0.37066E+08        -0.18966E+04         0.00000E+00
   -0.18966E+04        -0.49999E+08         0.00000E+00
    0.00000E+00         0.00000E+00        -0.35207E+08
 
   -0.37087E+08        -0.11314E+04         0.00000E+00
   -0.11314E+04        -0.50002E+08         0.00000E+00
    0.00000E+00         0.00000E+00        -0.35212E+08
 
   -0.37102E+08         0.17674E+04         0.00000E+00
    0.17674E+04        -0.50007E+08         0.00000E+00
    0.00000E+00         0.00000E+00        -0.35216E+08
 
   -0.37112E+08         0.69259E+04         0.00000E+00
    0.69259E+04        -0.50015E+08         0.00000E+00
    0.00000E+00         0.00000E+00        -0.35219E+08
 
   -0.37115E+08         0.14458E+05         0.00000E+00
    0.14458E+05        -0.50025E+08         0.00000E+00
    0.00000E+00         0.00000E+00        -0.35222E+08
 
   -0.37114E+08         0.24464E+05         0.00000E+00
    0.24464E+05        -0.50038E+08         0.00000E+00
    0.00000E+00         0.00000E+00        -0.35224E+08
 
   -0.37107E+08         0.37033E+05         0.00000E+00
    0.37033E+05        -0.50052E+08         0.00000E+00
    0.00000E+00         0.00000E+00        -0.35225E+08
 
   -0.37096E+08         0.52242E+05         0.00000E+00
    0.52242E+05        -0.50068E+08         0.00000E+00
    0.00000E+00         0.00000E+00        -0.35226E+08
 
   -0.37080E+08         0.70157E+05         0.00000E+00
    0.70157E+05        -0.50086E+08         0.00000E+00
    0.00000E+00         0.00000E+00        -0.35227E+08
 
   -0.37060E+08         0.90834E+05         0.00000E+00
    0.90834E+05        -0.50106E+08         0.00000E+00
    0.00000E+00         0.00000E+00        -0.35226E+08
 
   -0.37036E+08         0.11432E+06         0.00000E+00
    0.11432E+06        -0.50127E+08         0.00000E+00
    0.00000E+00         0.00000E+00        -0.35226E+08
 
   -0.37008E+08         0.14065E+06         0.00000E+00
    0.14065E+06        -0.50149E+08         0.00000E+00
    0.00000E+00         0.00000E+00        -0.35224E+08
 
   -0.36977E+08         0.16986E+06         0.00000E+00
    0.16986E+06        -0.50173E+08         0.00000E+00
    0.00000E+00         0.00000E+00        -0.35223E+08
 
   -0.36942E+08         0.20196E+06         0.00000E+00
    0.20196E+06        -0.50198E+08         0.00000E+00
    0.00000E+00         0.00000E+00        -0.35221E+08
 
   -0.36905E+08         0.23697E+06         0.00000E+00
    0.23697E+06        -0.50224E+08         0.00000E+00
    0.00000E+00         0.00000E+00        -0.35218E+08
 
   -0.36865E+08         0.27491E+06         0.00000E+00
    0.27491E+06        -0.50251E+08         0.00000E+00
    0.00000E+00         0.00000E+00        -0.35215E+08
 
   -0.36822E+08         0.31576E+06         0.00000E+00
    0.31576E+06        -0.50279E+08         0.00000E+00
    0.00000E+00         0.00000E+00        -0.35212E+08
 
   -0.36777E+08         0.35952E+06         0.00000E+00
    0.35952E+06        -0.50307E+08         0.00000E+00
    0.00000E+00         0.00000E+00        -0.35209E+08
 
   -0.36729E+08         0.40620E+06         0.00000E+00
    0.40620E+06        -0.50336E+08         0.00000E+00
    0.00000E+00         0.00000E+00        -0.35205E+08
 
   -0.36680E+08         0.45577E+06         0.00000E+00
    0.45577E+06        -0.50366E+08         0.00000E+00
    0.00000E+00         0.00000E+00        -0.35201E+08
 
   -0.36629E+08         0.50822E+06         0.00000E+00
    0.50822E+06        -0.50396E+08         0.00000E+00
    0.00000E+00         0.00000E+00        -0.35196E+08
 
   -0.36577E+08         0.56353E+06         0.00000E+00
    0.56353E+06        -0.50427E+08         0.00000E+00
    0.00000E+00         0.00000E+00        -0.35192E+08
 
   -0.36523E+08         0.62168E+06         0.00000E+00
    0.62168E+06        -0.50458E+08         0.00000E+00
    0.00000E+00         0.00000E+00        -0.35187E+08
 
   -0.36467E+08         0.68264E+06         0.00000E+00
    0.68264E+06        -0.50489E+08         0.00000E+00
    0.00000E+00         0.00000E+00        -0.35182E+08
 
   -0.36411E+08         0.74639E+06         0.00000E+00
    0.74639E+06        -0.50521E+08         0.00000E+00
    0.00000E+00         0.00000E+00        -0.35177E+08
 
   -0.36354E+08         0.81290E+06         0.00000E+00
    0.81290E+06        -0.50553E+08         0.00000E+00
    0.00000E+00         0.00000E+00        -0.35171E+08
 
   -0.36296E+08         0.88213E+06         0.00000E+00
    0.88213E+06        -0.50584E+08         0.00000E+00
    0.00000E+00         0.00000E+00        -0.35166E+08
 
   -0.36238E+08         0.95405E+06         0.00000E+00
    0.95405E+06        -0.50616E+08         0.00000E+00
    0.00000E+00         0.00000E+00        -0.35160E+08
 
   -0.36179E+08         0.10286E+07         0.00000E+00
    0.10286E+07        -0.50648E+08         0.00000E+00
    0.00000E+00         0.00000E+00        -0.35155E+08
 
   -0.36119E+08         0.11059E+07         0.00000E+00
    0.11059E+07        -0.50680E+08         0.00000E+00
    0.00000E+00         0.00000E+00        -0.35149E+08
 
   -0.36060E+08         0.11856E+07         0.00000E+00
    0.11856E+07        -0.50711E+08         0.00000E+00
    0.00000E+00         0.00000E+00        -0.35143E+08
 
   -0.36000E+08         0.12680E+07         0.00000E+00
    0.12680E+07        -0.50742E+08         0.00000E+00
    0.00000E+00         0.00000E+00        -0.35137E+08
 
   -0.35941E+08         0.13528E+07         0.00000E+00
    0.13528E+07        -0.50773E+08         0.00000E+00
    0.00000E+00         0.00000E+00        -0.35131E+08
 
   -0.35882E+08         0.14401E+07         0.00000E+00
    0.14401E+07        -0.50804E+08         0.00000E+00
    0.00000E+00         0.00000E+00        -0.35125E+08
 
   -0.35823E+08         0.15299E+07         0.00000E+00
    0.15299E+07        -0.50835E+08         0.00000E+00
    0.00000E+00         0.00000E+00        -0.35119E+08
 
   -0.35765E+08         0.16220E+07         0.00000E+00
    0.16220E+07        -0.50864E+08         0.00000E+00
    0.00000E+00         0.00000E+00        -0.35113E+08
 
   -0.35707E+08         0.17164E+07         0.00000E+00
    0.17164E+07        -0.50894E+08         0.00000E+00
    0.00000E+00         0.00000E+00        -0.35108E+08
 
   -0.35650E+08         0.18131E+07         0.00000E+00
    0.18131E+07        -0.50923E+08         0.00000E+00
    0.00000E+00         0.00000E+00        -0.35102E+08
 
   -0.35594E+08         0.19119E+07         0.00000E+00
    0.19119E+07        -0.50951E+08         0.00000E+00
    0.00000E+00         0.00000E+00        -0.35096E+08
 
   -0.35539E+08         0.20130E+07         0.00000E+00
    0.20130E+07        -0.50979E+08         0.00000E+00
    0.00000E+00         0.00000E+00        -0.35090E+08
 
   -0.35484E+08         0.21161E+07         0.00000E+00
    0.21161E+07        -0.51006E+08         0.00000E+00
    0.00000E+00         0.00000E+00        -0.35085E+08
 
   -0.35431E+08         0.22212E+07         0.00000E+00
    0.22212E+07        -0.51032E+08         0.00000E+00
    0.00000E+00         0.00000E+00        -0.35079E+08
 
   -0.35379E+08         0.23283E+07         0.00000E+00
    0.23283E+07        -0.51057E+08         0.00000E+00
    0.00000E+00         0.00000E+00        -0.35074E+08
 
   -0.35329E+08         0.24372E+07         0.00000E+00
    0.24372E+07        -0.51082E+08         0.00000E+00
    0.00000E+00         0.00000E+00        -0.35068E+08
 
   -0.35279E+08         0.25479E+07         0.00000E+00
    0.25479E+07        -0.51106E+08         0.00000E+00
    0.00000E+00         0.00000E+00        -0.35063E+08
 
   -0.35232E+08         0.26603E+07         0.00000E+00
    0.26603E+07        -0.51128E+08         0.00000E+00
    0.00000E+00         0.00000E+00        -0.35058E+08
 
   -0.35186E+08         0.27743E+07         0.00000E+00
    0.27743E+07        -0.51150E+08         0.00000E+00
    0.00000E+00         0.00000E+00        -0.35053E+08
 
   -0.35141E+08         0.28898E+07         0.00000E+00
    0.28898E+07        -0.51171E+08         0.00000E+00
    0.00000E+00         0.00000E+00        -0.35048E+08
 
   -0.35098E+08         0.30067E+07         0.00000E+00
    0.30067E+07        -0.51191E+08         0.00000E+00
    0.00000E+00         0.00000E+00        -0.35044E+08
 
   -0.35057E+08         0.31249E+07         0.00000E+00
    0.31249E+07        -0.51209E+08         0.00000E+00
    0.00000E+00         0.00000E+00        -0.35039E+08
 
   -0.37103E+08        -0.98639E+04         0.00000E+00
   -0.98639E+04        -0.49999E+08         0.00000E+00
    0.00000E+00         0.00000E+00        -0.34705E+08
 
   -0.37112E+08        -0.23122E+05         0.00000E+00
   -0.23122E+05        -0.50002E+08         0.00000E+00
    0.00000E+00         0.00000E+00        -0.34708E+08
 
   -0.37114E+08        -0.33440E+05         0.00000E+00
   -0.33440E+05        -0.50008E+08         0.00000E+00
    0.00000E+00         0.00000E+00        -0.34709E+08
 
   -0.37110E+08        -0.40702E+05         0.00000E+00
   -0.40702E+05        -0.50017E+08         0.00000E+00
    0.00000E+00         0.00000E+00        -0.34710E+08
 
   -0.37099E+08        -0.44809E+05         0.00000E+00
   -0.44809E+05        -0.50028E+08         0.00000E+00
    0.00000E+00         0.00000E+00        -0.34710E+08
 
   -0.37083E+08        -0.45677E+05         0.00000E+00
   -0.45677E+05        -0.50042E+08         0.00000E+00
    0.00000E+00         0.00000E+00        -0.34710E+08
 
   -0.37062E+08        -0.43235E+05         0.00000E+00
   -0.43235E+05        -0.50058E+08         0.00000E+00
    0.00000E+00         0.00000E+00        -0.34708E+08
 
   -0.37035E+08        -0.37429E+05         0.00000E+00
   -0.37429E+05        -0.50076E+08         0.00000E+00
    0.00000E+00         0.00000E+00        -0.34707E+08
 
   -0.37004E+08        -0.28213E+05         0.00000E+00
   -0.28213E+05        -0.50095E+08         0.00000E+00
    0.00000E+00         0.00000E+00        -0.34704E+08
 
   -0.36969E+08        -0.15558E+05         0.00000E+00
   -0.15558E+05        -0.50117E+08         0.00000E+00
    0.00000E+00         0.00000E+00        -0.34701E+08
 
   -0.36929E+08         0.55785E+03         0.00000E+00
    0.55785E+03        -0.50140E+08         0.00000E+00
    0.00000E+00         0.00000E+00        -0.34698E+08
 
   -0.36885E+08         0.20144E+05         0.00000E+00
    0.20144E+05        -0.50164E+08         0.00000E+00
    0.00000E+00         0.00000E+00        -0.34693E+08
 
   -0.36838E+08         0.43202E+05         0.00000E+00
    0.43202E+05        -0.50190E+08         0.00000E+00
    0.00000E+00         0.00000E+00        -0.34689E+08
 
   -0.36788E+08         0.69726E+05         0.00000E+00
    0.69726E+05        -0.50217E+08         0.00000E+00
    0.00000E+00         0.00000E+00        -0.34684E+08
 
   -0.36734E+08         0.99700E+05         0.00000E+00
    0.99700E+05        -0.50245E+08         0.00000E+00
    0.00000E+00         0.00000E+00        -0.34679E+08
 
   -0.36678E+08         0.13311E+06         0.00000E+00
    0.13311E+06        -0.50273E+08         0.00000E+00
    0.00000E+00         0.00000E+00        -0.34673E+08
 
   -0.36620E+08         0.16992E+06         0.00000E+00
    0.16992E+06        -0.50303E+08         0.00000E+00
    0.00000E+00         0.00000E+00        -0.34667E+08
 
   -0.36559E+08         0.21010E+06         0.00000E+00
    0.21010E+06        -0.50334E+08         0.00000E+00
    0.00000E+00         0.00000E+00        -0.34661E+08
 
   -0.36496E+08         0.25363E+06         0.00000E+00
    0.25363E+06        -0.50365E+08         0.00000E+00
    0.00000E+00         0.00000E+00        -0.34654E+08
 
   -0.36431E+08         0.30047E+06         0.00000E+00
    0.30047E+06        -0.50397E+08         0.00000E+00
    0.00000E+00         0.00000E+00        -0.34647E+08
 
   -0.36365E+08         0.35057E+06         0.00000E+00
    0.35057E+06        -0.50429E+08         0.00000E+00
    0.00000E+00         0.00000E+00        -0.34640E+08
 
   -0.36297E+08         0.40390E+06         0.00000E+00
    0.40390E+06        -0.50461E+08         0.00000E+00
    0.00000E+00         0.00000E+00        -0.34633E+08
 
   -0.36229E+08         0.46042E+06         0.00000E+00
    0.46042E+06        -0.50494E+08         0.00000E+00
    0.00000E+00         0.00000E+00        -0.34625E+08
 
   -0.36159E+08         0.52009E+06         0.00000E+00
    0.52009E+06        -0.50528E+08         0.00000E+00
    0.00000E+00         0.00000E+00        -0.34618E+08
 
   -0.36088E+08         0.58286E+06         0.00000E+00
    0.58286E+06        -0.50561E+08         0.00000E+00
    0.00000E+00         0.00000E+00        -0.34610E+08
 
   -0.36016E+08         0.64869E+06         0.00000E+00
    0.64869E+06        -0.50595E+08         0.00000E+00
    0.00000E+00         0.00000E+00        -0.34602E+08
 
   -0.35944E+08         0.71754E+06         0.00000E+00
    0.71754E+06        -0.50629E+08         0.00000E+00
    0.00000E+00         0.00000E+00        -0.34594E+08
 
   -0.35871E+08         0.78938E+06         0.00000E+00
    0.78938E+06        -0.50663E+08         0.00000E+00
    0.00000E+00         0.00000E+00        -0.34586E+08
 
   -0.35798E+08         0.86415E+06         0.00000E+00
    0.86415E+06        -0.50697E+08         0.00000E+00
    0.00000E+00         0.00000E+00        -0.34578E+08
 
   -0.35725E+08         0.94182E+06         0.00000E+00
    0.94182E+06        -0.50731E+08         0.00000E+00
    0.00000E+00         0.00000E+00        -0.34570E+08
 
   -0.35653E+08         0.10224E+07         0.00000E+00
    0.10224E+07        -0.50765E+08         0.00000E+00
    0.00000E+00         0.00000E+00        -0.34562E+08
 
   -0.35580E+08         0.11057E+07         0.00000E+00
    0.11057E+07        -0.50799E+08         0.00000E+00
    0.00000E+00         0.00000E+00        -0.34553E+08
 
   -0.35507E+08         0.11918E+07         0.00000E+00
    0.11918E+07        -0.50832E+08         0.00000E+00
    0.00000E+00         0.00000E+00        -0.34545E+08
 
   -0.35435E+08         0.12807E+07         0.00000E+00
    0.12807E+07        -0.50866E+08         0.00000E+00
    0.00000E+00         0.00000E+00        -0.34537E+08
 
   -0.35364E+08         0.13722E+07         0.00000E+00
    0.13722E+07        -0.50899E+08         0.00000E+00
    0.00000E+00         0.00000E+00        -0.34529E+08
 
   -0.35293E+08         0.14664E+07         0.00000E+00
    0.14664E+07        -0.50931E+08         0.00000E+00
    0.00000E+00         0.00000E+00        -0.34522E+08
 
   -0.35223E+08         0.15632E+07         0.00000E+00
    0.15632E+07        -0.50964E+08         0.00000E+00
    0.00000E+00         0.00000E+00        -0.34514E+08
 
   -0.35154E+08         0.16625E+07         0.00000E+00
    0.16625E+07        -0.50996E+08         0.00000E+00
    0.00000E+00         0.00000E+00        -0.34506E+08
 
   -0.35087E+08         0.17644E+07         0.00000E+00
    0.17644E+07        -0.51027E+08         0.00000E+00
    0.00000E+00         0.00000E+00        -0.34499E+08
 
   -0.35020E+08         0.18686E+07         0.00000E+00
    0.18686E+07        -0.51058E+08         0.00000E+00
    0.00000E+00         0.00000E+00        -0.34491E+08
 
   -0.34955E+08         0.19753E+07         0.00000E+00
    0.19753E+07        -0.51088E+08         0.00000E+00
    0.00000E+00         0.00000E+00        -0.34484E+08
 
   -0.34891E+08         0.20842E+07         0.00000E+00
    0.20842E+07        -0.51117E+08         0.00000E+00
    0.00000E+00         0.00000E+00        -0.34477E+08
 
   -0.34829E+08         0.21953E+07         0.00000E+00
    0.21953E+07        -0.51146E+08         0.00000E+00
    0.00000E+00         0.00000E+00        -0.34470E+08
 
   -0.34769E+08         0.23086E+07         0.00000E+00
    0.23086E+07        -0.51174E+08         0.00000E+00
    0.00000E+00         0.00000E+00        -0.34463E+08
 
   -0.34710E+08         0.24240E+07         0.00000E+00
    0.24240E+07        -0.51201E+08         0.00000E+00
    0.00000E+00         0.00000E+00        -0.34457E+08
 
   -0.34654E+08         0.25413E+07         0.00000E+00
    0.25413E+07        -0.51227E+08         0.00000E+00
    0.00000E+00         0.00000E+00        -0.34451E+08
 
   -0.34599E+08         0.26604E+07         0.00000E+00
    0.26604E+07        -0.51252E+08         0.00000E+00
    0.00000E+00         0.00000E+00        -0.34445E+08
 
   -0.34547E+08         0.27813E+07         0.00000E+00
    0.27813E+07        -0.51275E+08         0.00000E+00
    0.00000E+00         0.00000E+00        -0.34439E+08
 
   -0.34497E+08         0.29038E+07         0.00000E+00
    0.29038E+07        -0.51298E+08         0.00000E+00
    0.00000E+00         0.00000E+00        -0.34433E+08
 
   -0.34449E+08         0.30278E+07         0.00000E+00
    0.30278E+07        -0.51320E+08         0.00000E+00
    0.00000E+00         0.00000E+00        -0.34428E+08
 
   -0.37216E+08        -0.18819E+05         0.00000E+00
   -0.18819E+05        -0.49998E+08         0.00000E+00
    0.00000E+00         0.00000E+00        -0.34198E+08
 
   -0.37208E+08        -0.47566E+05         0.00000E+00
   -0.47566E+05        -0.50002E+08         0.00000E+00
    0.00000E+00         0.00000E+00        -0.34197E+08
 
   -0.37192E+08        -0.72360E+05         0.00000E+00
   -0.72360E+05        -0.50009E+08         0.00000E+00
    0.00000E+00         0.00000E+00        -0.34196E+08
 
   -0.37170E+08        -0.93109E+05         0.00000E+00
   -0.93109E+05        -0.50018E+08         0.00000E+00
    0.00000E+00         0.00000E+00        -0.34193E+08
 
   -0.37142E+08        -0.10974E+06         0.00000E+00
   -0.10974E+06        -0.50031E+08         0.00000E+00
    0.00000E+00         0.00000E+00        -0.34190E+08
 
   -0.37107E+08        -0.12219E+06         0.00000E+00
   -0.12219E+06        -0.50046E+08         0.00000E+00
    0.00000E+00         0.00000E+00        -0.34186E+08
 
   -0.37067E+08        -0.13043E+06         0.00000E+00
   -0.13043E+06        -0.50063E+08         0.00000E+00
    0.00000E+00         0.00000E+00        -0.34181E+08
 
   -0.37021E+08        -0.13444E+06         0.00000E+00
   -0.13444E+06        -0.50082E+08         0.00000E+00
    0.00000E+00         0.00000E+00        -0.34175E+08
 
   -0.36971E+08        -0.13421E+06         0.00000E+00
   -0.13421E+06        -0.50103E+08         0.00000E+00
    0.00000E+00         0.00000E+00        -0.34169E+08
 
   -0.36916E+08        -0.12975E+06         0.00000E+00
   -0.12975E+06        -0.50125E+08         0.00000E+00
    0.00000E+00         0.00000E+00        -0.34163E+08
 
   -0.36857E+08        -0.12109E+06         0.00000E+00
   -0.12109E+06        -0.50150E+08         0.00000E+00
    0.00000E+00         0.00000E+00        -0.34155E+08
 
   -0.36795E+08        -0.10826E+06         0.00000E+00
   -0.10826E+06        -0.50175E+08         0.00000E+00
    0.00000E+00         0.00000E+00        -0.34148E+08
 
   -0.36729E+08        -0.91299E+05         0.00000E+00
   -0.91299E+05        -0.50202E+08         0.00000E+00
    0.00000E+00         0.00000E+00        -0.34140E+08
 
   -0.36660E+08        -0.70261E+05         0.00000E+00
   -0.70261E+05        -0.50230E+08         0.00000E+00
    0.00000E+00         0.00000E+00        -0.34131E+08
 
   -0.36588E+08        -0.45205E+05         0.00000E+00
   -0.45205E+05        -0.50259E+08         0.00000E+00
    0.00000E+00         0.00000E+00        -0.34122E+08
 
   -0.36513E+08        -0.16191E+05         0.00000E+00
   -0.16191E+05        -0.50289E+08         0.00000E+00
    0.00000E+00         0.00000E+00        -0.34113E+08
 
   -0.36437E+08         0.16711E+05         0.00000E+00
    0.16711E+05        -0.50319E+08         0.00000E+00
    0.00000E+00         0.00000E+00        -0.34103E+08
 
   -0.36358E+08         0.53435E+05         0.00000E+00
    0.53435E+05        -0.50351E+08         0.00000E+00
    0.00000E+00         0.00000E+00        -0.34094E+08
 
   -0.36278E+08         0.93909E+05         0.00000E+00
    0.93909E+05        -0.50383E+08         0.00000E+00
    0.00000E+00         0.00000E+00        -0.34084E+08
 
   -0.36196E+08         0.13806E+06         0.00000E+00
    0.13806E+06        -0.50415E+08         0.00000E+00
    0.00000E+00         0.00000E+00        -0.34073E+08
 
   -0.36112E+08         0.18583E+06         0.00000E+00
    0.18583E+06        -0.50448E+08         0.00000E+00
    0.00000E+00         0.00000E+00        -0.34063E+08
 
   -0.36028E+08         0.23714E+06         0.00000E+00
    0.23714E+06        -0.50482E+08         0.00000E+00
    0.00000E+00         0.00000E+00        -0.34052E+08
 
   -0.35942E+08         0.29192E+06         0.00000E+00
    0.29192E+06        -0.50515E+08         0.00000E+00
    0.00000E+00         0.00000E+00        -0.34041E+08
 
   -0.35856E+08         0.35012E+06         0.00000E+00
    0.35012E+06        -0.50550E+08         0.00000E+00
    0.00000E+00         0.00000E+00        -0.34031E+08
 
   -0.35769E+08         0.41168E+06         0.00000E+00
    0.41168E+06        -0.50584E+08         0.00000E+00
    0.00000E+00         0.00000E+00        -0.34020E+08
 
   -0.35682E+08         0.47655E+06         0.00000E+00
    0.47655E+06        -0.50619E+08         0.00000E+00
    0.00000E+00         0.00000E+00        -0.34009E+08
 
   -0.35594E+08         0.54466E+06         0.00000E+00
    0.54466E+06        -0.50654E+08         0.00000E+00
    0.00000E+00         0.00000E+00        -0.33998E+08
 
   -0.35506E+08         0.61599E+06         0.00000E+00
    0.61599E+06        -0.50689E+08         0.00000E+00
    0.00000E+00         0.00000E+00        -0.33987E+08
 
   -0.35418E+08         0.69047E+06         0.00000E+00
    0.69047E+06        -0.50724E+08         0.00000E+00
    0.00000E+00         0.00000E+00        -0.33976E+08
 
   -0.35330E+08         0.76808E+06         0.00000E+00
    0.76808E+06        -0.50759E+08         0.00000E+00
    0.00000E+00         0.00000E+00        -0.33965E+08
 
   -0.35242E+08         0.84878E+06         0.00000E+00
    0.84878E+06        -0.50795E+08         0.00000E+00
    0.00000E+00         0.00000E+00        -0.33954E+08
 
   -0.35155E+08         0.93253E+06         0.00000E+00
    0.93253E+06        -0.50830E+08         0.00000E+00
    0.00000E+00         0.00000E+00        -0.33943E+08
 
   -0.35068E+08         0.10193E+07         0.00000E+00
    0.10193E+07        -0.50866E+08         0.00000E+00
    0.00000E+00         0.00000E+00        -0.33933E+08
 
   -0.34982E+08         0.11091E+07         0.00000E+00
    0.11091E+07        -0.50901E+08         0.00000E+00
    0.00000E+00         0.00000E+00        -0.33922E+08
 
   -0.34896E+08         0.12018E+07         0.00000E+00
    0.12018E+07        -0.50936E+08         0.00000E+00
    0.00000E+00         0.00000E+00        -0.33912E+08
 
   -0.34812E+08         0.12974E+07         0.00000E+00
    0.12974E+07        -0.50971E+08         0.00000E+00
    0.00000E+00         0.00000E+00        -0.33902E+08
 
   -0.34728E+08         0.13960E+07         0.00000E+00
    0.13960E+07        -0.51006E+08         0.00000E+00
    0.00000E+00         0.00000E+00        -0.33892E+08
 
   -0.34646E+08         0.14974E+07         0.00000E+00
    0.14974E+07        -0.51041E+08         0.00000E+00
    0.00000E+00         0.00000E+00        -0.33882E+08
 
   -0.34565E+08         0.16016E+07         0.00000E+00
    0.16016E+07        -0.51075E+08         0.00000E+00
    0.00000E+00         0.00000E+00        -0.33872E+08
 
   -0.34486E+08         0.17086E+07         0.00000E+00
    0.17086E+07        -0.51109E+08         0.00000E+00
    0.00000E+00         0.00000E+00        -0.33863E+08
 
   -0.34408E+08         0.18183E+07         0.00000E+00
    0.18183E+07        -0.51142E+08         0.00000E+00
    0.00000E+00         0.00000E+00        -0.33854E+08
 
   -0.34332E+08         0.19307E+07         0.00000E+00
    0.19307E+07        -0.51175E+08         0.00000E+00
    0.00000E+00         0.00000E+00        -0.33845E+08
 
   -0.34258E+08         0.20457E+07         0.00000E+00
    0.20457E+07        -0.51207E+08         0.00000E+00
    0.00000E+00         0.00000E+00        -0.33836E+08
 
   -0.34186E+08         0.21632E+07         0.00000E+00
    0.21632E+07        -0.51239E+08         0.00000E+00
    0.00000E+00         0.00000E+00        -0.33828E+08
 
   -0.34117E+08         0.22832E+07         0.00000E+00
    0.22832E+07        -0.51269E+08         0.00000E+00
    0.00000E+00         0.00000E+00        -0.33820E+08
 
   -0.34050E+08         0.24055E+07         0.00000E+00
    0.24055E+07        -0.51299E+08         0.00000E+00
    0.00000E+00         0.00000E+00        -0.33812E+08
 
   -0.33985E+08         0.25300E+07         0.00000E+00
    0.25300E+07        -0.51327E+08         0.00000E+00
    0.00000E+00         0.00000E+00        -0.33805E+08
 
   -0.33924E+08         0.26567E+07         0.00000E+00
    0.26567E+07        -0.51355E+08         0.00000E+00
    0.00000E+00         0.00000E+00        -0.33798E+08
 
   -0.33865E+08         0.27853E+07         0.00000E+00
    0.27853E+07        -0.51381E+08         0.00000E+00
    0.00000E+00         0.00000E+00        -0.33792E+08
 
   -0.33809E+08         0.29158E+07         0.00000E+00
    0.29158E+07        -0.51406E+08         0.00000E+00
    0.00000E+00         0.00000E+00        -0.33785E+08
 
   -0.37412E+08        -0.28710E+05         0.00000E+00
   -0.28710E+05        -0.49998E+08         0.00000E+00
    0.00000E+00         0.00000E+00        -0.33686E+08
 
   -0.37381E+08        -0.74178E+05         0.00000E+00
   -0.74178E+05        -0.50002E+08         0.00000E+00
    0.00000E+00         0.00000E+00        -0.33681E+08
 
   -0.37343E+08        -0.11442E+06         0.00000E+00
   -0.11442E+06        -0.50010E+08         0.00000E+00
    0.00000E+00         0.00000E+00        -0.33675E+08
 
   -0.37298E+08        -0.14938E+06         0.00000E+00
   -0.14938E+06        -0.50020E+08         0.00000E+00
    0.00000E+00         0.00000E+00        -0.33668E+08
 
   -0.37245E+08        -0.17901E+06         0.00000E+00
   -0.17901E+06        -0.50033E+08         0.00000E+00
    0.00000E+00         0.00000E+00        -0.33660E+08
 
   -0.37187E+08        -0.20332E+06         0.00000E+00
   -0.20332E+06        -0.50048E+08         0.00000E+00
    0.00000E+00         0.00000E+00        -0.33651E+08
 
   -0.37123E+08        -0.22233E+06         0.00000E+00
   -0.22233E+06        -0.50066E+08         0.00000E+00
    0.00000E+00         0.00000E+00        -0.33641E+08
 
   -0.37054E+08        -0.23607E+06         0.00000E+00
   -0.23607E+06        -0.50086E+08         0.00000E+00
    0.00000E+00         0.00000E+00        -0.33631E+08
 
   -0.36980E+08        -0.24459E+06         0.00000E+00
   -0.24459E+06        -0.50107E+08         0.00000E+00
    0.00000E+00         0.00000E+00        -0.33621E+08
 
   -0.36902E+08        -0.24798E+06         0.00000E+00
   -0.24798E+06        -0.50130E+08         0.00000E+00
    0.00000E+00         0.00000E+00        -0.33609E+08
 
   -0.36820E+08        -0.24633E+06         0.00000E+00
   -0.24633E+06        -0.50155E+08         0.00000E+00
    0.00000E+00         0.00000E+00        -0.33598E+08
 
   -0.36735E+08        -0.23974E+06         0.00000E+00
   -0.23974E+06        -0.50180E+08         0.00000E+00
    0.00000E+00         0.00000E+00        -0.33585E+08
 
   -0.36647E+08        -0.22833E+06         0.00000E+00
   -0.22833E+06        -0.50207E+08         0.00000E+00
    0.00000E+00         0.00000E+00        -0.33573E+08
 
   -0.36556E+08        -0.21221E+06         0.00000E+00
   -0.21221E+06        -0.50235E+08         0.00000E+00
    0.00000E+00         0.00000E+00        -0.33560E+08
 
   -0.36463E+08        -0.19151E+06         0.00000E+00
   -0.19151E+06        -0.50263E+08         0.00000E+00
    0.00000E+00         0.00000E+00        -0.33546E+08
 
   -0.36368E+08        -0.16636E+06         0.00000E+00
   -0.16636E+06        -0.50292E+08         0.00000E+00
    0.00000E+00         0.00000E+00        -0.33533E+08
 
   -0.36271E+08        -0.13689E+06         0.00000E+00
   -0.13689E+06        -0.50322E+08         0.00000E+00
    0.00000E+00         0.00000E+00        -0.33519E+08
 
   -0.36173E+08        -0.10323E+06         0.00000E+00
   -0.10323E+06        -0.50353E+08         0.00000E+00
    0.00000E+00         0.00000E+00        -0.33505E+08
 
   -0.36073E+08        -0.65492E+05         0.00000E+00
   -0.65492E+05        -0.50384E+08         0.00000E+00
    0.00000E+00         0.00000E+00        -0.33491E+08
 
   -0.35972E+08        -0.23801E+05         0.00000E+00
   -0.23801E+05        -0.50415E+08         0.00000E+00
    0.00000E+00         0.00000E+00        -0.33476E+08
 
   -0.35870E+08         0.21732E+05         0.00000E+00
    0.21732E+05        -0.50447E+08         0.00000E+00
    0.00000E+00         0.00000E+00        -0.33462E+08
 
   -0.35768E+08         0.71005E+05         0.00000E+00
    0.71005E+05        -0.50479E+08         0.00000E+00
    0.00000E+00         0.00000E+00        -0.33447E+08
 
   -0.35664E+08         0.12392E+06         0.00000E+00
    0.12392E+06        -0.50512E+08         0.00000E+00
    0.00000E+00         0.00000E+00        -0.33433E+08
 
   -0.35561E+08         0.18040E+06         0.00000E+00
    0.18040E+06        -0.50545E+08         0.00000E+00
    0.00000E+00         0.00000E+00        -0.33418E+08
 
   -0.35457E+08         0.24035E+06         0.00000E+00
    0.24035E+06        -0.50578E+08         0.00000E+00
    0.00000E+00         0.00000E+00        -0.33404E+08
 
   -0.35353E+08         0.30373E+06         0.00000E+00
    0.30373E+06        -0.50612E+08         0.00000E+00
    0.00000E+00         0.00000E+00        -0.33389E+08
 
   -0.35249E+08         0.37046E+06         0.00000E+00
    0.37046E+06        -0.50646E+08         0.00000E+00
    0.00000E+00         0.00000E+00        -0.33375E+08
 
   -0.35144E+08         0.44050E+06         0.00000E+00
    0.44050E+06        -0.50681E+08         0.00000E+00
    0.00000E+00         0.00000E+00        -0.33360E+08
 
   -0.35040E+08         0.51382E+06         0.00000E+00
    0.51382E+06        -0.50715E+08         0.00000E+00
    0.00000E+00         0.00000E+00        -0.33346E+08
 
   -0.34937E+08         0.59039E+06         0.00000E+00
    0.59039E+06        -0.50751E+08         0.00000E+00
    0.00000E+00         0.00000E+00        -0.33332E+08
 
   -0.34833E+08         0.67018E+06         0.00000E+00
    0.67018E+06        -0.50786E+08         0.00000E+00
    0.00000E+00         0.00000E+00        -0.33318E+08
 
   -0.34730E+08         0.75318E+06         0.00000E+00
    0.75318E+06        -0.50822E+08         0.00000E+00
    0.00000E+00         0.00000E+00        -0.33304E+08
 
   -0.34628E+08         0.83938E+06         0.00000E+00
    0.83938E+06        -0.50858E+08         0.00000E+00
    0.00000E+00         0.00000E+00        -0.33290E+08
 
   -0.34526E+08         0.92879E+06         0.00000E+00
    0.92879E+06        -0.50895E+08         0.00000E+00
    0.00000E+00         0.00000E+00        -0.33277E+08
 
   -0.34425E+08         0.10214E+07         0.00000E+00
    0.10214E+07        -0.50932E+08         0.00000E+00
    0.00000E+00         0.00000E+00        -0.33263E+08
 
   -0.34326E+08         0.11172E+07         0.00000E+00
    0.11172E+07        -0.50969E+08         0.00000E+00
    0.00000E+00         0.00000E+00        -0.33250E+08
 
   -0.34227E+08         0.12162E+07         0.00000E+00
    0.12162E+07        -0.51006E+08         0.00000E+00
    0.00000E+00         0.00000E+00        -0.33238E+08
 
   -0.34129E+08         0.13184E+07         0.00000E+00
    0.13184E+07        -0.51043E+08         0.00000E+00
    0.00000E+00         0.00000E+00        -0.33225E+08
 
   -0.34034E+08         0.14239E+07         0.00000E+00
    0.14239E+07        -0.51080E+08         0.00000E+00
    0.00000E+00         0.00000E+00        -0.33213E+08
 
   -0.33939E+08         0.15325E+07         0.00000E+00
    0.15325E+07        -0.51117E+08         0.00000E+00
    0.00000E+00         0.00000E+00        -0.33202E+08
 
   -0.33847E+08         0.16443E+07         0.00000E+00
    0.16443E+07        -0.51154E+08         0.00000E+00
    0.00000E+00         0.00000E+00        -0.33190E+08
 
   -0.33757E+08         0.17592E+07         0.00000E+00
    0.17592E+07        -0.51190E+08         0.00000E+00
    0.00000E+00         0.00000E+00        -0.33179E+08
 
   -0.33669E+08         0.18773E+07         0.00000E+00
    0.18773E+07        -0.51226E+08         0.00000E+00
    0.00000E+00         0.00000E+00        -0.33168E+08
 
   -0.33583E+08         0.19985E+07         0.00000E+00
    0.19985E+07        -0.51262E+08         0.00000E+00
    0.00000E+00         0.00000E+00        -0.33158E+08
 
   -0.33500E+08         0.21226E+07         0.00000E+00
    0.21226E+07        -0.51297E+08         0.00000E+00
    0.00000E+00         0.00000E+00        -0.33148E+08
 
   -0.33420E+08         0.22497E+07         0.00000E+00
    0.22497E+07        -0.51331E+08         0.00000E+00
    0.00000E+00         0.00000E+00        -0.33139E+08
 
   -0.33344E+08         0.23797E+07         0.00000E+00
    0.23797E+07        -0.51364E+08         0.00000E+00
    0.00000E+00         0.00000E+00        -0.33130E+08
 
   -0.33270E+08         0.25123E+07         0.00000E+00
    0.25123E+07        -0.51395E+08         0.00000E+00
    0.00000E+00         0.00000E+00        -0.33122E+08
 
   -0.33201E+08         0.26475E+07         0.00000E+00
    0.26475E+07        -0.51426E+08         0.00000E+00
    0.00000E+00         0.00000E+00        -0.33114E+08
 
   -0.33135E+08         0.27851E+07         0.00000E+00
    0.27851E+07        -0.51455E+08         0.00000E+00
    0.00000E+00         0.00000E+00        -0.33107E+08
 
   -0.37698E+08        -0.39472E+05         0.00000E+00
   -0.39472E+05        -0.49998E+08         0.00000E+00
    0.00000E+00         0.00000E+00        -0.33169E+08
 
   -0.37637E+08        -0.10253E+06         0.00000E+00
   -0.10253E+06        -0.50003E+08         0.00000E+00
    0.00000E+00         0.00000E+00        -0.33158E+08
 
   -0.37569E+08        -0.15871E+06         0.00000E+00
   -0.15871E+06        -0.50010E+08         0.00000E+00
    0.00000E+00         0.00000E+00        -0.33146E+08
 
   -0.37493E+08        -0.20804E+06         0.00000E+00
   -0.20804E+06        -0.50021E+08         0.00000E+00
    0.00000E+00         0.00000E+00        -0.33133E+08
 
   -0.37411E+08        -0.25054E+06         0.00000E+00
   -0.25054E+06        -0.50034E+08         0.00000E+00
    0.00000E+00         0.00000E+00        -0.33119E+08
 
   -0.37323E+08        -0.28627E+06         0.00000E+00
   -0.28627E+06        -0.50050E+08         0.00000E+00
    0.00000E+00         0.00000E+00        -0.33104E+08
 
   -0.37229E+08        -0.31534E+06         0.00000E+00
   -0.31534E+06        -0.50067E+08         0.00000E+00
    0.00000E+00         0.00000E+00        -0.33089E+08
 
   -0.37131E+08        -0.33790E+06         0.00000E+00
   -0.33790E+06        -0.50087E+08         0.00000E+00
    0.00000E+00         0.00000E+00        -0.33072E+08
 
   -0.37028E+08        -0.35410E+06         0.00000E+00
   -0.35410E+06        -0.50107E+08         0.00000E+00
    0.00000E+00         0.00000E+00        -0.33056E+08
 
   -0.36923E+08        -0.36414E+06         0.00000E+00
   -0.36414E+06        -0.50129E+08         0.00000E+00
    0.00000E+00         0.00000E+00        -0.33039E+08
 
   -0.36814E+08        -0.36822E+06         0.00000E+00
   -0.36822E+06        -0.50152E+08         0.00000E+00
    0.00000E+00         0.00000E+00        -0.33021E+08
 
   -0.36702E+08        -0.36656E+06         0.00000E+00
   -0.36656E+06        -0.50176E+08         0.00000E+00
    0.00000E+00         0.00000E+00        -0.33003E+08
 
   -0.36589E+08        -0.35937E+06         0.00000E+00
   -0.35937E+06        -0.50201E+08         0.00000E+00
    0.00000E+00         0.00000E+00        -0.32985E+08
 
   -0.36474E+08        -0.34690E+06         0.00000E+00
   -0.34690E+06        -0.50226E+08         0.00000E+00
    0.00000E+00         0.00000E+00        -0.32967E+08
 
   -0.36357E+08        -0.32937E+06         0.00000E+00
   -0.32937E+06        -0.50252E+08         0.00000E+00
    0.00000E+00         0.00000E+00        -0.32948E+08
 
   -0.36239E+08        -0.30701E+06         0.00000E+00
   -0.30701E+06        -0.50278E+08         0.00000E+00
    0.00000E+00         0.00000E+00        -0.32929E+08
 
   -0.36120E+08        -0.28004E+06         0.00000E+00
   -0.28004E+06        -0.50304E+08         0.00000E+00
    0.00000E+00         0.00000E+00        -0.32910E+08
 
   -0.36000E+08        -0.24867E+06         0.00000E+00
   -0.24867E+06        -0.50331E+08         0.00000E+00
    0.00000E+00         0.00000E+00        -0.32891E+08
 
   -0.35880E+08        -0.21308E+06         0.00000E+00
   -0.21308E+06        -0.50358E+08         0.00000E+00
    0.00000E+00         0.00000E+00        -0.32872E+08
 
   -0.35760E+08        -0.17347E+06         0.00000E+00
   -0.17347E+06        -0.50385E+08         0.00000E+00
    0.00000E+00         0.00000E+00        -0.32853E+08
 
   -0.35639E+08        -0.12999E+06         0.00000E+00
   -0.12999E+06        -0.50413E+08         0.00000E+00
    0.00000E+00         0.00000E+00        -0.32834E+08
 
   -0.35518E+08        -0.82800E+05         0.00000E+00
   -0.82800E+05        -0.50441E+08         0.00000E+00
    0.00000E+00         0.00000E+00        -0.32815E+08
 
   -0.35397E+08        -0.32017E+05         0.00000E+00
   -0.32017E+05        -0.50470E+08         0.00000E+00
    0.00000E+00         0.00000E+00        -0.32796E+08
 
   -0.35276E+08         0.22247E+05         0.00000E+00
    0.22247E+05        -0.50499E+08         0.00000E+00
    0.00000E+00         0.00000E+00        -0.32777E+08
 
   -0.35155E+08         0.79900E+05         0.00000E+00
    0.79900E+05        -0.50529E+08         0.00000E+00
    0.00000E+00         0.00000E+00        -0.32758E+08
 
   -0.35034E+08         0.14087E+06         0.00000E+00
    0.14087E+06        -0.50559E+08         0.00000E+00
    0.00000E+00         0.00000E+00        -0.32739E+08
 
   -0.34913E+08         0.20510E+06         0.00000E+00
    0.20510E+06        -0.50590E+08         0.00000E+00
    0.00000E+00         0.00000E+00        -0.32721E+08
 
   -0.34793E+08         0.27256E+06         0.00000E+00
    0.27256E+06        -0.50622E+08         0.00000E+00
    0.00000E+00         0.00000E+00        -0.32702E+08
 
   -0.34672E+08         0.34322E+06         0.00000E+00
    0.34322E+06        -0.50654E+08         0.00000E+00
    0.00000E+00         0.00000E+00        -0.32684E+08
 
   -0.34552E+08         0.41708E+06         0.00000E+00
    0.41708E+06        -0.50687E+08         0.00000E+00
    0.00000E+00         0.00000E+00        -0.32666E+08
 
   -0.34433E+08         0.49416E+06         0.00000E+00
    0.49416E+06        -0.50721E+08         0.00000E+00
    0.00000E+00         0.00000E+00        -0.32649E+08
 
   -0.34314E+08         0.57446E+06         0.00000E+00
    0.57446E+06        -0.50756E+08         0.00000E+00
    0.00000E+00         0.00000E+00        -0.32631E+08
 
   -0.34195E+08         0.65804E+06         0.00000E+00
    0.65804E+06        -0.50792E+08         0.00000E+00
    0.00000E+00         0.00000E+00        -0.32614E+08
 
   -0.34077E+08         0.74494E+06         0.00000E+00
    0.74494E+06        -0.50828E+08         0.00000E+00
    0.00000E+00         0.00000E+00        -0.32597E+08
 
   -0.33960E+08         0.83521E+06         0.00000E+00
    0.83521E+06        -0.50865E+08         0.00000E+00
    0.00000E+00         0.00000E+00        -0.32581E+08
 
   -0.33843E+08         0.92893E+06         0.00000E+00
    0.92893E+06        -0.50903E+08         0.00000E+00
    0.00000E+00         0.00000E+00        -0.32565E+08
 
   -0.33728E+08         0.10261E+07         0.00000E+00
    0.10261E+07        -0.50941E+08         0.00000E+00
    0.00000E+00         0.00000E+00        -0.32549E+08
 
   -0.33613E+08         0.11269E+07         0.00000E+00
    0.11269E+07        -0.50981E+08         0.00000E+00
    0.00000E+00         0.00000E+00        -0.32534E+08
 
   -0.33500E+08         0.12314E+07         0.00000E+00
    0.12314E+07        -0.51020E+08         0.00000E+00
    0.00000E+00         0.00000E+00        -0.32518E+08
 
   -0.33389E+08         0.13395E+07         0.00000E+00
    0.13395E+07        -0.51061E+08         0.00000E+00
    0.00000E+00         0.00000E+00        -0.32504E+08
 
   -0.33279E+08         0.14515E+07         0.00000E+00
    0.14515E+07        -0.51101E+08         0.00000E+00
    0.00000E+00         0.00000E+00        -0.32490E+08
 
   -0.33171E+08         0.15672E+07         0.00000E+00
    0.15672E+07        -0.51142E+08         0.00000E+00
    0.00000E+00         0.00000E+00        -0.32476E+08
 
   -0.33066E+08         0.16868E+07         0.00000E+00
    0.16868E+07        -0.51183E+08         0.00000E+00
    0.00000E+00         0.00000E+00        -0.32463E+08
 
   -0.32963E+08         0.18102E+07         0.00000E+00
    0.18102E+07        -0.51223E+08         0.00000E+00
    0.00000E+00         0.00000E+00        -0.32450E+08
 
   -0.32863E+08         0.19375E+07         0.00000E+00
    0.19375E+07        -0.51264E+08         0.00000E+00
    0.00000E+00         0.00000E+00        -0.32438E+08
 
   -0.32767E+08         0.20685E+07         0.00000E+00
    0.20685E+07        -0.51304E+08         0.00000E+00
    0.00000E+00         0.00000E+00        -0.32427E+08
 
   -0.32674E+08         0.22034E+07         0.00000E+00
    0.22034E+07        -0.51343E+08         0.00000E+00
    0.00000E+00         0.00000E+00        -0.32416E+08
 
   -0.32585E+08         0.23419E+07         0.00000E+00
    0.23419E+07        -0.51381E+08         0.00000E+00
    0.00000E+00         0.00000E+00        -0.32405E+08
 
   -0.32501E+08         0.24840E+07         0.00000E+00
    0.24840E+07        -0.51417E+08         0.00000E+00
    0.00000E+00         0.00000E+00        -0.32396E+08
 
   -0.32421E+08         0.26294E+07         0.00000E+00
    0.26294E+07        -0.51453E+08         0.00000E+00
    0.00000E+00         0.00000E+00        -0.32387E+08
 
   -0.38078E+08        -0.51060E+05         0.00000E+00
   -0.51060E+05        -0.49998E+08         0.00000E+00
    0.00000E+00         0.00000E+00        -0.32647E+08
 
   -0.37978E+08        -0.13200E+06         0.00000E+00
   -0.13200E+06        -0.50003E+08         0.00000E+00
    0.00000E+00         0.00000E+00        -0.32628E+08
 
   -0.37870E+08        -0.20401E+06         0.00000E+00
   -0.20401E+06        -0.50011E+08         0.00000E+00
    0.00000E+00         0.00000E+00        -0.32608E+08
 
   -0.37755E+08        -0.26695E+06         0.00000E+00
   -0.26695E+06        -0.50021E+08         0.00000E+00
    0.00000E+00         0.00000E+00        -0.32587E+08
 
   -0.37634E+08        -0.32104E+06         0.00000E+00
   -0.32104E+06        -0.50034E+08         0.00000E+00
    0.00000E+00         0.00000E+00        -0.32565E+08
 
   -0.37508E+08        -0.36653E+06         0.00000E+00
   -0.36653E+06        -0.50049E+08         0.00000E+00
    0.00000E+00         0.00000E+00        -0.32542E+08
 
   -0.37377E+08        -0.40369E+06         0.00000E+00
   -0.40369E+06        -0.50065E+08         0.00000E+00
    0.00000E+00         0.00000E+00        -0.32519E+08
 
   -0.37243E+08        -0.43283E+06         0.00000E+00
   -0.43283E+06        -0.50082E+08         0.00000E+00
    0.00000E+00         0.00000E+00        -0.32496E+08
 
   -0.37107E+08        -0.45429E+06         0.00000E+00
   -0.45429E+06        -0.50100E+08         0.00000E+00
    0.00000E+00         0.00000E+00        -0.32472E+08
 
   -0.36968E+08        -0.46844E+06         0.00000E+00
   -0.46844E+06        -0.50119E+08         0.00000E+00
    0.00000E+00         0.00000E+00        -0.32447E+08
 
   -0.36828E+08        -0.47567E+06         0.00000E+00
   -0.47567E+06        -0.50138E+08         0.00000E+00
    0.00000E+00         0.00000E+00        -0.32423E+08
 
   -0.36687E+08        -0.47640E+06         0.00000E+00
   -0.47640E+06        -0.50157E+08         0.00000E+00
    0.00000E+00         0.00000E+00        -0.32398E+08
 
   -0.36545E+08        -0.47104E+06         0.00000E+00
   -0.47104E+06        -0.50176E+08         0.00000E+00
    0.00000E+00         0.00000E+00        -0.32373E+08
 
   -0.36403E+08        -0.45999E+06         0.00000E+00
   -0.45999E+06        -0.50195E+08         0.00000E+00
    0.00000E+00         0.00000E+00        -0.32348E+08
 
   -0.36261E+08        -0.44365E+06         0.00000E+00
   -0.44365E+06        -0.50214E+08         0.00000E+00
    0.00000E+00         0.00000E+00        -0.32322E+08
 
   -0.36119E+08        -0.42238E+06         0.00000E+00
   -0.42238E+06        -0.50234E+08         0.00000E+00
    0.00000E+00         0.00000E+00        -0.32297E+08
 
   -0.35978E+08        -0.39652E+06         0.00000E+00
   -0.39652E+06        -0.50253E+08         0.00000E+00
    0.00000E+00         0.00000E+00        -0.32272E+08
 
   -0.35837E+08        -0.36637E+06         0.00000E+00
   -0.36637E+06        -0.50272E+08         0.00000E+00
    0.00000E+00         0.00000E+00        -0.32248E+08
 
   -0.35697E+08        -0.33222E+06         0.00000E+00
   -0.33222E+06        -0.50291E+08         0.00000E+00
    0.00000E+00         0.00000E+00        -0.32223E+08
 
   -0.35557E+08        -0.29431E+06         0.00000E+00
   -0.29431E+06        -0.50311E+08         0.00000E+00
    0.00000E+00         0.00000E+00        -0.32198E+08
 
   -0.35418E+08        -0.25286E+06         0.00000E+00
   -0.25286E+06        -0.50331E+08         0.00000E+00
    0.00000E+00         0.00000E+00        -0.32174E+08
 
   -0.35280E+08        -0.20804E+06         0.00000E+00
   -0.20804E+06        -0.50351E+08         0.00000E+00
    0.00000E+00         0.00000E+00        -0.32150E+08
 
   -0.35142E+08        -0.16001E+06         0.00000E+00
   -0.16001E+06        -0.50373E+08         0.00000E+00
    0.00000E+00         0.00000E+00        -0.32126E+08
 
   -0.35004E+08        -0.10889E+06         0.00000E+00
   -0.10889E+06        -0.50394E+08         0.00000E+00
    0.00000E+00         0.00000E+00        -0.32102E+08
 
   -0.34868E+08        -0.54777E+05         0.00000E+00
   -0.54777E+05        -0.50417E+08         0.00000E+00
    0.00000E+00         0.00000E+00        -0.32079E+08
 
   -0.34731E+08         0.22645E+04         0.00000E+00
    0.22645E+04        -0.50441E+08         0.00000E+00
    0.00000E+00         0.00000E+00        -0.32055E+08
 
   -0.34595E+08         0.62194E+05         0.00000E+00
    0.62194E+05        -0.50465E+08         0.00000E+00
    0.00000E+00         0.00000E+00        -0.32033E+08
 
   -0.34459E+08         0.12500E+06         0.00000E+00
    0.12500E+06        -0.50491E+08         0.00000E+00
    0.00000E+00         0.00000E+00        -0.32010E+08
 
   -0.34324E+08         0.19068E+06         0.00000E+00
    0.19068E+06        -0.50518E+08         0.00000E+00
    0.00000E+00         0.00000E+00        -0.31988E+08
 
   -0.34188E+08         0.25928E+06         0.00000E+00
    0.25928E+06        -0.50547E+08         0.00000E+00
    0.00000E+00         0.00000E+00        -0.31966E+08
 
   -0.34053E+08         0.33086E+06         0.00000E+00
    0.33086E+06        -0.50576E+08         0.00000E+00
    0.00000E+00         0.00000E+00        -0.31944E+08
 
   -0.33918E+08         0.40548E+06         0.00000E+00
    0.40548E+06        -0.50608E+08         0.00000E+00
    0.00000E+00         0.00000E+00        -0.31923E+08
 
   -0.33783E+08         0.48326E+06         0.00000E+00
    0.48326E+06        -0.50641E+08         0.00000E+00
    0.00000E+00         0.00000E+00        -0.31902E+08
 
   -0.33648E+08         0.56431E+06         0.00000E+00
    0.56431E+06        -0.50675E+08         0.00000E+00
    0.00000E+00         0.00000E+00        -0.31881E+08
 
   -0.33513E+08         0.64878E+06         0.00000E+00
    0.64878E+06        -0.50711E+08         0.00000E+00
    0.00000E+00         0.00000E+00        -0.31861E+08
 
   -0.33379E+08         0.73681E+06         0.00000E+00
    0.73681E+06        -0.50749E+08         0.00000E+00
    0.00000E+00         0.00000E+00        -0.31841E+08
 
   -0.33245E+08         0.82858E+06         0.00000E+00
    0.82858E+06        -0.50788E+08         0.00000E+00
    0.00000E+00         0.00000E+00        -0.31822E+08
 
   -0.33112E+08         0.92427E+06         0.00000E+00
    0.92427E+06        -0.50829E+08         0.00000E+00
    0.00000E+00         0.00000E+00        -0.31803E+08
 
   -0.32979E+08         0.10241E+07         0.00000E+00
    0.10241E+07        -0.50871E+08         0.00000E+00
    0.00000E+00         0.00000E+00        -0.31784E+08
 
   -0.32847E+08         0.11282E+07         0.00000E+00
    0.11282E+07        -0.50915E+08         0.00000E+00
    0.00000E+00         0.00000E+00        -0.31766E+08
 
   -0.32716E+08         0.12368E+07         0.00000E+00
    0.12368E+07        -0.50960E+08         0.00000E+00
    0.00000E+00         0.00000E+00        -0.31749E+08
 
   -0.32587E+08         0.13501E+07         0.00000E+00
    0.13501E+07        -0.51006E+08         0.00000E+00
    0.00000E+00         0.00000E+00        -0.31732E+08
 
   -0.32460E+08         0.14682E+07         0.00000E+00
    0.14682E+07        -0.51053E+08         0.00000E+00
    0.00000E+00         0.00000E+00        -0.31716E+08
 
   -0.32335E+08         0.15913E+07         0.00000E+00
    0.15913E+07        -0.51100E+08         0.00000E+00
    0.00000E+00         0.00000E+00        -0.31700E+08
 
   -0.32213E+08         0.17194E+07         0.00000E+00
    0.17194E+07        -0.51148E+08         0.00000E+00
    0.00000E+00         0.00000E+00        -0.31685E+08
 
   -0.32095E+08         0.18527E+07         0.00000E+00
    0.18527E+07        -0.51196E+08         0.00000E+00
    0.00000E+00         0.00000E+00        -0.31670E+08
 
   -0.31980E+08         0.19912E+07         0.00000E+00
    0.19912E+07        -0.51243E+08         0.00000E+00
    0.00000E+00         0.00000E+00        -0.31657E+08
 
   -0.31869E+08         0.21349E+07         0.00000E+00
    0.21349E+07        -0.51290E+08         0.00000E+00
    0.00000E+00         0.00000E+00        -0.31644E+08
 
   -0.31764E+08         0.22837E+07         0.00000E+00
    0.22837E+07        -0.51336E+08         0.00000E+00
    0.00000E+00         0.00000E+00        -0.31632E+08
 
   -0.31664E+08         0.24374E+07         0.00000E+00
    0.24374E+07        -0.51380E+08         0.00000E+00
    0.00000E+00         0.00000E+00        -0.31621E+08
 
   -0.38553E+08        -0.63643E+05         0.00000E+00
   -0.63643E+05        -0.49998E+08         0.00000E+00
    0.00000E+00         0.00000E+00        -0.32118E+08
 
   -0.38400E+08        -0.16229E+06         0.00000E+00
   -0.16229E+06        -0.50004E+08         0.00000E+00
    0.00000E+00         0.00000E+00        -0.32089E+08
 
   -0.38240E+08        -0.24817E+06         0.00000E+00
   -0.24817E+06        -0.50011E+08         0.00000E+00
    0.00000E+00         0.00000E+00        -0.32058E+08
 
   -0.38073E+08        -0.32230E+06         0.00000E+00
   -0.32230E+06        -0.50021E+08         0.00000E+00
    0.00000E+00         0.00000E+00        -0.32026E+08
 
   -0.37903E+08        -0.38502E+06         0.00000E+00
   -0.38502E+06        -0.50032E+08         0.00000E+00
    0.00000E+00         0.00000E+00        -0.31994E+08
 
   -0.37729E+08        -0.43666E+06         0.00000E+00
   -0.43666E+06        -0.50044E+08         0.00000E+00
    0.00000E+00         0.00000E+00        -0.31962E+08
 
   -0.37552E+08        -0.47771E+06         0.00000E+00
   -0.47771E+06        -0.50057E+08         0.00000E+00
    0.00000E+00         0.00000E+00        -0.31928E+08
 
   -0.37375E+08        -0.50880E+06         0.00000E+00
   -0.50880E+06        -0.50069E+08         0.00000E+00
    0.00000E+00         0.00000E+00        -0.31895E+08
 
   -0.37198E+08        -0.53069E+06         0.00000E+00
   -0.53069E+06        -0.50081E+08         0.00000E+00
    0.00000E+00         0.00000E+00        -0.31862E+08
 
   -0.37021E+08        -0.54417E+06         0.00000E+00
   -0.54417E+06        -0.50092E+08         0.00000E+00
    0.00000E+00         0.00000E+00        -0.31828E+08
 
   -0.36846E+08        -0.55003E+06         0.00000E+00
   -0.55003E+06        -0.50102E+08         0.00000E+00
    0.00000E+00         0.00000E+00        -0.31795E+08
 
   -0.36673E+08        -0.54902E+06         0.00000E+00
   -0.54902E+06        -0.50111E+08         0.00000E+00
    0.00000E+00         0.00000E+00        -0.31761E+08
 
   -0.36501E+08        -0.54185E+06         0.00000E+00
   -0.54185E+06        -0.50120E+08         0.00000E+00
    0.00000E+00         0.00000E+00        -0.31728E+08
 
   -0.36332E+08        -0.52916E+06         0.00000E+00
   -0.52916E+06        -0.50127E+08         0.00000E+00
    0.00000E+00         0.00000E+00        -0.31695E+08
 
   -0.36166E+08        -0.51152E+06         0.00000E+00
   -0.51152E+06        -0.50134E+08         0.00000E+00
    0.00000E+00         0.00000E+00        -0.31663E+08
 
   -0.36001E+08        -0.48944E+06         0.00000E+00
   -0.48944E+06        -0.50141E+08         0.00000E+00
    0.00000E+00         0.00000E+00        -0.31631E+08
 
   -0.35839E+08        -0.46336E+06         0.00000E+00
   -0.46336E+06        -0.50147E+08         0.00000E+00
    0.00000E+00         0.00000E+00        -0.31599E+08
 
   -0.35679E+08        -0.43367E+06         0.00000E+00
   -0.43367E+06        -0.50154E+08         0.00000E+00
    0.00000E+00         0.00000E+00        -0.31568E+08
 
   -0.35521E+08        -0.40070E+06         0.00000E+00
   -0.40070E+06        -0.50160E+08         0.00000E+00
    0.00000E+00         0.00000E+00        -0.31537E+08
 
   -0.35365E+08        -0.36471E+06         0.00000E+00
   -0.36471E+06        -0.50167E+08         0.00000E+00
    0.00000E+00         0.00000E+00        -0.31507E+08
 
   -0.35210E+08        -0.32593E+06         0.00000E+00
   -0.32593E+06        -0.50175E+08         0.00000E+00
    0.00000E+00         0.00000E+00        -0.31477E+08
 
   -0.35057E+08        -0.28455E+06         0.00000E+00
   -0.28455E+06        -0.50184E+08         0.00000E+00
    0.00000E+00         0.00000E+00        -0.31447E+08
 
   -0.34906E+08        -0.24071E+06         0.00000E+00
   -0.24071E+06        -0.50193E+08         0.00000E+00
    0.00000E+00         0.00000E+00        -0.31418E+08
 
   -0.34755E+08        -0.19452E+06         0.00000E+00
   -0.19452E+06        -0.50203E+08         0.00000E+00
    0.00000E+00         0.00000E+00        -0.31389E+08
 
   -0.34605E+08        -0.14606E+06         0.00000E+00
   -0.14606E+06        -0.50215E+08         0.00000E+00
    0.00000E+00         0.00000E+00        -0.31361E+08
 
   -0.34455E+08        -0.95352E+05         0.00000E+00
   -0.95352E+05        -0.50229E+08         0.00000E+00
    0.00000E+00         0.00000E+00        -0.31333E+08
 
   -0.34306E+08        -0.42423E+05         0.00000E+00
   -0.42423E+05        -0.50244E+08         0.00000E+00
    0.00000E+00         0.00000E+00        -0.31306E+08
 
   -0.34157E+08         0.12748E+05         0.00000E+00
    0.12748E+05        -0.50261E+08         0.00000E+00
    0.00000E+00         0.00000E+00        -0.31279E+08
 
   -0.34009E+08         0.70210E+05         0.00000E+00
    0.70210E+05        -0.50280E+08         0.00000E+00
    0.00000E+00         0.00000E+00        -0.31252E+08
 
   -0.33860E+08         0.13004E+06         0.00000E+00
    0.13004E+06        -0.50301E+08         0.00000E+00
    0.00000E+00         0.00000E+00        -0.31226E+08
 
   -0.33711E+08         0.19233E+06         0.00000E+00
    0.19233E+06        -0.50324E+08         0.00000E+00
    0.00000E+00         0.00000E+00        -0.31201E+08
 
   -0.33561E+08         0.25723E+06         0.00000E+00
    0.25723E+06        -0.50349E+08         0.00000E+00
    0.00000E+00         0.00000E+00        -0.31175E+08
 
   -0.33411E+08         0.32489E+06         0.00000E+00
    0.32489E+06        -0.50377E+08         0.00000E+00
    0.00000E+00         0.00000E+00        -0.31150E+08
 
   -0.33260E+08         0.39552E+06         0.00000E+00
    0.39552E+06        -0.50408E+08         0.00000E+00
    0.00000E+00         0.00000E+00        -0.31126E+08
 
   -0.33108E+08         0.46933E+06         0.00000E+00
    0.46933E+06        -0.50441E+08         0.00000E+00
    0.00000E+00         0.00000E+00        -0.31101E+08
 
   -0.32955E+08         0.54658E+06         0.00000E+00
    0.54658E+06        -0.50477E+08         0.00000E+00
    0.00000E+00         0.00000E+00        -0.31078E+08
 
   -0.32802E+08         0.62758E+06         0.00000E+00
    0.62758E+06        -0.50516E+08         0.00000E+00
    0.00000E+00         0.00000E+00        -0.31054E+08
 
   -0.32648E+08         0.71265E+06         0.00000E+00
    0.71265E+06        -0.50557E+08         0.00000E+00
    0.00000E+00         0.00000E+00        -0.31031E+08
 
   -0.32493E+08         0.80215E+06         0.00000E+00
    0.80215E+06        -0.50602E+08         0.00000E+00
    0.00000E+00         0.00000E+00        -0.31009E+08
 
   -0.32337E+08         0.89648E+06         0.00000E+00
    0.89648E+06        -0.50649E+08         0.00000E+00
    0.00000E+00         0.00000E+00        -0.30987E+08
 
   -0.32182E+08         0.99606E+06         0.00000E+00
    0.99606E+06        -0.50699E+08         0.00000E+00
    0.00000E+00         0.00000E+00        -0.30965E+08
 
   -0.32026E+08         0.11013E+07         0.00000E+00
    0.11013E+07        -0.50751E+08         0.00000E+00
    0.00000E+00         0.00000E+00        -0.30944E+08
 
   -0.31871E+08         0.12127E+07         0.00000E+00
    0.12127E+07        -0.50806E+08         0.00000E+00
    0.00000E+00         0.00000E+00        -0.30924E+08
 
   -0.31717E+08         0.13306E+07         0.00000E+00
    0.13306E+07        -0.50862E+08         0.00000E+00
    0.00000E+00         0.00000E+00        -0.30904E+08
 
   -0.31565E+08         0.14555E+07         0.00000E+00
    0.14555E+07        -0.50921E+08         0.00000E+00
    0.00000E+00         0.00000E+00        -0.30885E+08
 
   -0.31415E+08         0.15874E+07         0.00000E+00
    0.15874E+07        -0.50980E+08         0.00000E+00
    0.00000E+00         0.00000E+00        -0.30867E+08
 
   -0.31269E+08         0.17268E+07         0.00000E+00
    0.17268E+07        -0.51040E+08         0.00000E+00
    0.00000E+00         0.00000E+00        -0.30849E+08
 
   -0.31127E+08         0.18735E+07         0.00000E+00
    0.18735E+07        -0.51099E+08         0.00000E+00
    0.00000E+00         0.00000E+00        -0.30833E+08
 
   -0.30990E+08         0.20278E+07         0.00000E+00
    0.20278E+07        -0.51159E+08         0.00000E+00
    0.00000E+00         0.00000E+00        -0.30817E+08
 
   -0.30859E+08         0.21903E+07         0.00000E+00
    0.21903E+07        -0.51217E+08         0.00000E+00
    0.00000E+00         0.00000E+00        -0.30803E+08
 
   -0.39122E+08        -0.77717E+05         0.00000E+00
   -0.77717E+05        -0.49999E+08         0.00000E+00
    0.00000E+00         0.00000E+00        -0.31581E+08
 
   -0.38895E+08        -0.19057E+06         0.00000E+00
   -0.19057E+06        -0.50002E+08         0.00000E+00
    0.00000E+00         0.00000E+00        -0.31536E+08
 
   -0.38664E+08        -0.28839E+06         0.00000E+00
   -0.28839E+06        -0.50010E+08         0.00000E+00
    0.00000E+00         0.00000E+00        -0.31491E+08
 
   -0.38428E+08        -0.36902E+06         0.00000E+00
   -0.36902E+06        -0.50019E+08         0.00000E+00
    0.00000E+00         0.00000E+00        -0.31445E+08
 
   -0.38190E+08        -0.43287E+06         0.00000E+00
   -0.43287E+06        -0.50028E+08         0.00000E+00
    0.00000E+00         0.00000E+00        -0.31399E+08
 
   -0.37953E+08        -0.48141E+06         0.00000E+00
   -0.48141E+06        -0.50033E+08         0.00000E+00
    0.00000E+00         0.00000E+00        -0.31353E+08
 
   -0.37720E+08        -0.51653E+06         0.00000E+00
   -0.51653E+06        -0.50036E+08         0.00000E+00
    0.00000E+00         0.00000E+00        -0.31307E+08
 
   -0.37492E+08        -0.54009E+06         0.00000E+00
   -0.54009E+06        -0.50036E+08         0.00000E+00
    0.00000E+00         0.00000E+00        -0.31261E+08
 
   -0.37270E+08        -0.55384E+06         0.00000E+00
   -0.55384E+06        -0.50033E+08         0.00000E+00
    0.00000E+00         0.00000E+00        -0.31215E+08
 
   -0.37054E+08        -0.55930E+06         0.00000E+00
   -0.55930E+06        -0.50027E+08         0.00000E+00
    0.00000E+00         0.00000E+00        -0.31170E+08
 
   -0.36844E+08        -0.55777E+06         0.00000E+00
   -0.55777E+06        -0.50020E+08         0.00000E+00
    0.00000E+00         0.00000E+00        -0.31126E+08
 
   -0.36640E+08        -0.55035E+06         0.00000E+00
   -0.55035E+06        -0.50010E+08         0.00000E+00
    0.00000E+00         0.00000E+00        -0.31083E+08
 
   -0.36443E+08        -0.53797E+06         0.00000E+00
   -0.53797E+06        -0.49999E+08         0.00000E+00
    0.00000E+00         0.00000E+00        -0.31041E+08
 
   -0.36250E+08        -0.52137E+06         0.00000E+00
   -0.52137E+06        -0.49987E+08         0.00000E+00
    0.00000E+00         0.00000E+00        -0.31000E+08
 
   -0.36063E+08        -0.50119E+06         0.00000E+00
   -0.50119E+06        -0.49975E+08         0.00000E+00
    0.00000E+00         0.00000E+00        -0.30959E+08
 
   -0.35881E+08        -0.47794E+06         0.00000E+00
   -0.47794E+06        -0.49962E+08         0.00000E+00
    0.00000E+00         0.00000E+00        -0.30920E+08
 
   -0.35703E+08        -0.45202E+06         0.00000E+00
   -0.45202E+06        -0.49950E+08         0.00000E+00
    0.00000E+00         0.00000E+00        -0.30881E+08
 
   -0.35529E+08        -0.42379E+06         0.00000E+00
   -0.42379E+06        -0.49938E+08         0.00000E+00
    0.00000E+00         0.00000E+00        -0.30843E+08
 
   -0.35358E+08        -0.39351E+06         0.00000E+00
   -0.39351E+06        -0.49927E+08         0.00000E+00
    0.00000E+00         0.00000E+00        -0.30806E+08
 
   -0.35190E+08        -0.36139E+06         0.00000E+00
   -0.36139E+06        -0.49917E+08         0.00000E+00
    0.00000E+00         0.00000E+00        -0.30770E+08
 
   -0.35024E+08        -0.32760E+06         0.00000E+00
   -0.32760E+06        -0.49908E+08         0.00000E+00
    0.00000E+00         0.00000E+00        -0.30735E+08
 
   -0.34861E+08        -0.29227E+06         0.00000E+00
   -0.29227E+06        -0.49901E+08         0.00000E+00
    0.00000E+00         0.00000E+00        -0.30700E+08
 
   -0.34699E+08        -0.25548E+06         0.00000E+00
   -0.25548E+06        -0.49895E+08         0.00000E+00
    0.00000E+00         0.00000E+00        -0.30666E+08
 
   -0.34539E+08        -0.21728E+06         0.00000E+00
   -0.21728E+06        -0.49892E+08         0.00000E+00
    0.00000E+00         0.00000E+00        -0.30633E+08
 
   -0.34380E+08        -0.17772E+06         0.00000E+00
   -0.17772E+06        -0.49890E+08         0.00000E+00
    0.00000E+00         0.00000E+00        -0.30600E+08
 
   -0.34221E+08        -0.13679E+06         0.00000E+00
   -0.13679E+06        -0.49891E+08         0.00000E+00
    0.00000E+00         0.00000E+00        -0.30568E+08
 
   -0.34063E+08        -0.94461E+05         0.00000E+00
   -0.94461E+05        -0.49894E+08         0.00000E+00
    0.00000E+00         0.00000E+00        -0.30537E+08
 
   -0.33905E+08        -0.50689E+05         0.00000E+00
   -0.50689E+05        -0.49900E+08         0.00000E+00
    0.00000E+00         0.00000E+00        -0.30506E+08
 
   -0.33746E+08        -0.53983E+04         0.00000E+00
   -0.53983E+04        -0.49908E+08         0.00000E+00
    0.00000E+00         0.00000E+00        -0.30475E+08
 
   -0.33587E+08         0.41510E+05         0.00000E+00
    0.41510E+05        -0.49920E+08         0.00000E+00
    0.00000E+00         0.00000E+00        -0.30445E+08
 
   -0.33427E+08         0.90161E+05         0.00000E+00
    0.90161E+05        -0.49934E+08         0.00000E+00
    0.00000E+00         0.00000E+00        -0.30415E+08
 
   -0.33265E+08         0.14071E+06         0.00000E+00
    0.14071E+06        -0.49952E+08         0.00000E+00
    0.00000E+00         0.00000E+00        -0.30386E+08
 
   -0.33102E+08         0.19335E+06         0.00000E+00
    0.19335E+06        -0.49973E+08         0.00000E+00
    0.00000E+00         0.00000E+00        -0.30357E+08
 
   -0.32937E+08         0.24831E+06         0.00000E+00
    0.24831E+06        -0.49998E+08         0.00000E+00
    0.00000E+00         0.00000E+00        -0.30329E+08
 
   -0.32770E+08         0.30584E+06         0.00000E+00
    0.30584E+06        -0.50027E+08         0.00000E+00
    0.00000E+00         0.00000E+00        -0.30301E+08
 
   -0.32601E+08         0.36626E+06         0.00000E+00
    0.36626E+06        -0.50059E+08         0.00000E+00
    0.00000E+00         0.00000E+00        -0.30273E+08
 
   -0.32429E+08         0.42993E+06         0.00000E+00
    0.42993E+06        -0.50095E+08         0.00000E+00
    0.00000E+00         0.00000E+00        -0.30245E+08
 
   -0.32254E+08         0.49729E+06         0.00000E+00
    0.49729E+06        -0.50136E+08         0.00000E+00
    0.00000E+00         0.00000E+00        -0.30218E+08
 
   -0.32076E+08         0.56884E+06         0.00000E+00
    0.56884E+06        -0.50181E+08         0.00000E+00
    0.00000E+00         0.00000E+00        -0.30191E+08
 
   -0.31895E+08         0.64516E+06         0.00000E+00
    0.64516E+06        -0.50230E+08         0.00000E+00
    0.00000E+00         0.00000E+00        -0.30164E+08
 
   -0.31711E+08         0.72692E+06         0.00000E+00
    0.72692E+06        -0.50284E+08         0.00000E+00
    0.00000E+00         0.00000E+00        -0.30138E+08
 
   -0.31524E+08         0.81492E+06         0.00000E+00
    0.81492E+06        -0.50343E+08         0.00000E+00
    0.00000E+00         0.00000E+00        -0.30112E+08
 
   -0.31333E+08         0.91004E+06         0.00000E+00
    0.91004E+06        -0.50406E+08         0.00000E+00
    0.00000E+00         0.00000E+00        -0.30086E+08
 
   -0.31141E+08         0.10133E+07         0.00000E+00
    0.10133E+07        -0.50475E+08         0.00000E+00
    0.00000E+00         0.00000E+00        -0.30061E+08
 
   -0.30947E+08         0.11258E+07         0.00000E+00
    0.11258E+07        -0.50547E+08         0.00000E+00
    0.00000E+00         0.00000E+00        -0.30037E+08
 
   -0.30753E+08         0.12486E+07         0.00000E+00
    0.12486E+07        -0.50623E+08         0.00000E+00
    0.00000E+00         0.00000E+00        -0.30013E+08
 
   -0.30560E+08         0.13828E+07         0.00000E+00
    0.13828E+07        -0.50703E+08         0.00000E+00
    0.00000E+00         0.00000E+00        -0.29990E+08
 
   -0.30371E+08         0.15290E+07         0.00000E+00
    0.15290E+07        -0.50784E+08         0.00000E+00
    0.00000E+00         0.00000E+00        -0.29968E+08
 
   -0.30186E+08         0.16870E+07         0.00000E+00
    0.16870E+07        -0.50865E+08         0.00000E+00
    0.00000E+00         0.00000E+00        -0.29947E+08
 
   -0.30006E+08         0.18547E+07         0.00000E+00
    0.18547E+07        -0.50942E+08         0.00000E+00
    0.00000E+00         0.00000E+00        -0.29927E+08
 
   -0.39780E+08        -0.96005E+05         0.00000E+00
   -0.96005E+05        -0.49998E+08         0.00000E+00
    0.00000E+00         0.00000E+00        -0.31032E+08
 
   -0.39439E+08        -0.22731E+06         0.00000E+00
   -0.22731E+06        -0.50017E+08         0.00000E+00
    0.00000E+00         0.00000E+00        -0.30967E+08
 
   -0.39090E+08        -0.31881E+06         0.00000E+00
   -0.31881E+06        -0.50024E+08         0.00000E+00
    0.00000E+00         0.00000E+00        -0.30899E+08
 
   -0.38750E+08        -0.38104E+06         0.00000E+00
   -0.38104E+06        -0.50020E+08         0.00000E+00
    0.00000E+00         0.00000E+00        -0.30830E+08
 
   -0.38424E+08        -0.42183E+06         0.00000E+00
   -0.42183E+06        -0.50006E+08         0.00000E+00
    0.00000E+00         0.00000E+00        -0.30762E+08
 
   -0.38116E+08        -0.44688E+06         0.00000E+00
   -0.44688E+06        -0.49986E+08         0.00000E+00
    0.00000E+00         0.00000E+00        -0.30695E+08
 
   -0.37824E+08        -0.46030E+06         0.00000E+00
   -0.46030E+06        -0.49959E+08         0.00000E+00
    0.00000E+00         0.00000E+00        -0.30631E+08
 
   -0.37549E+08        -0.46505E+06         0.00000E+00
   -0.46505E+06        -0.49927E+08         0.00000E+00
    0.00000E+00         0.00000E+00        -0.30570E+08
 
   -0.37288E+08        -0.46327E+06         0.00000E+00
   -0.46327E+06        -0.49893E+08         0.00000E+00
    0.00000E+00         0.00000E+00        -0.30510E+08
 
   -0.37041E+08        -0.45654E+06         0.00000E+00
   -0.45654E+06        -0.49856E+08         0.00000E+00
    0.00000E+00         0.00000E+00        -0.30453E+08
 
   -0.36806E+08        -0.44600E+06         0.00000E+00
   -0.44600E+06        -0.49818E+08         0.00000E+00
    0.00000E+00         0.00000E+00        -0.30398E+08
 
   -0.36581E+08        -0.43251E+06         0.00000E+00
   -0.43251E+06        -0.49779E+08         0.00000E+00
    0.00000E+00         0.00000E+00        -0.30345E+08
 
   -0.36366E+08        -0.41671E+06         0.00000E+00
   -0.41671E+06        -0.49741E+08         0.00000E+00
    0.00000E+00         0.00000E+00        -0.30294E+08
 
   -0.36160E+08        -0.39907E+06         0.00000E+00
   -0.39907E+06        -0.49702E+08         0.00000E+00
    0.00000E+00         0.00000E+00        -0.30245E+08
 
   -0.35961E+08        -0.37996E+06         0.00000E+00
   -0.37996E+06        -0.49665E+08         0.00000E+00
    0.00000E+00         0.00000E+00        -0.30197E+08
 
   -0.35768E+08        -0.35963E+06         0.00000E+00
   -0.35963E+06        -0.49629E+08         0.00000E+00
    0.00000E+00         0.00000E+00        -0.30151E+08
 
   -0.35581E+08        -0.33831E+06         0.00000E+00
   -0.33831E+06        -0.49595E+08         0.00000E+00
    0.00000E+00         0.00000E+00        -0.30106E+08
 
   -0.35399E+08        -0.31613E+06         0.00000E+00
   -0.31613E+06        -0.49562E+08         0.00000E+00
    0.00000E+00         0.00000E+00        -0.30063E+08
 
   -0.35222E+08        -0.29321E+06         0.00000E+00
   -0.29321E+06        -0.49531E+08         0.00000E+00
    0.00000E+00         0.00000E+00        -0.30021E+08
 
   -0.35048E+08        -0.26964E+06         0.00000E+00
   -0.26964E+06        -0.49503E+08         0.00000E+00
    0.00000E+00         0.00000E+00        -0.29980E+08
 
   -0.34877E+08        -0.24546E+06         0.00000E+00
   -0.24546E+06        -0.49477E+08         0.00000E+00
    0.00000E+00         0.00000E+00        -0.29940E+08
 
   -0.34708E+08        -0.22071E+06         0.00000E+00
   -0.22071E+06        -0.49454E+08         0.00000E+00
    0.00000E+00         0.00000E+00        -0.29901E+08
 
   -0.34541E+08        -0.19540E+06         0.00000E+00
   -0.19540E+06        -0.49433E+08         0.00000E+00
    0.00000E+00         0.00000E+00        -0.29864E+08
 
   -0.34376E+08        -0.16953E+06         0.00000E+00
   -0.16953E+06        -0.49416E+08         0.00000E+00
    0.00000E+00         0.00000E+00        -0.29827E+08
 
   -0.34212E+08        -0.14309E+06         0.00000E+00
   -0.14309E+06        -0.49401E+08         0.00000E+00
    0.00000E+00         0.00000E+00        -0.29790E+08
 
   -0.34049E+08        -0.11605E+06         0.00000E+00
   -0.11605E+06        -0.49389E+08         0.00000E+00
    0.00000E+00         0.00000E+00        -0.29755E+08
 
   -0.33885E+08        -0.88356E+05         0.00000E+00
   -0.88356E+05        -0.49381E+08         0.00000E+00
    0.00000E+00         0.00000E+00        -0.29720E+08
 
   -0.33721E+08        -0.59964E+05         0.00000E+00
   -0.59964E+05        -0.49376E+08         0.00000E+00
    0.00000E+00         0.00000E+00        -0.29686E+08
 
   -0.33557E+08        -0.30800E+05         0.00000E+00
   -0.30800E+05        -0.49375E+08         0.00000E+00
    0.00000E+00         0.00000E+00        -0.29653E+08
 
   -0.33391E+08        -0.77765E+03         0.00000E+00
   -0.77765E+03        -0.49377E+08         0.00000E+00
    0.00000E+00         0.00000E+00        -0.29619E+08
 
   -0.33223E+08         0.30207E+05         0.00000E+00
    0.30207E+05        -0.49383E+08         0.00000E+00
    0.00000E+00         0.00000E+00        -0.29587E+08
 
   -0.33054E+08         0.62278E+05         0.00000E+00
    0.62278E+05        -0.49393E+08         0.00000E+00
    0.00000E+00         0.00000E+00        -0.29555E+08
 
   -0.32882E+08         0.95582E+05         0.00000E+00
    0.95582E+05        -0.49407E+08         0.00000E+00
    0.00000E+00         0.00000E+00        -0.29523E+08
 
   -0.32707E+08         0.13030E+06         0.00000E+00
    0.13030E+06        -0.49425E+08         0.00000E+00
    0.00000E+00         0.00000E+00        -0.29491E+08
 
   -0.32529E+08         0.16663E+06         0.00000E+00
    0.16663E+06        -0.49448E+08         0.00000E+00
    0.00000E+00         0.00000E+00        -0.29459E+08
 
   -0.32346E+08         0.20483E+06         0.00000E+00
    0.20483E+06        -0.49475E+08         0.00000E+00
    0.00000E+00         0.00000E+00        -0.29428E+08
 
   -0.32159E+08         0.24521E+06         0.00000E+00
    0.24521E+06        -0.49508E+08         0.00000E+00
    0.00000E+00         0.00000E+00        -0.29397E+08
 
   -0.31967E+08         0.28812E+06         0.00000E+00
    0.28812E+06        -0.49545E+08         0.00000E+00
    0.00000E+00         0.00000E+00        -0.29366E+08
 
   -0.31770E+08         0.33402E+06         0.00000E+00
    0.33402E+06        -0.49588E+08         0.00000E+00
    0.00000E+00         0.00000E+00        -0.29334E+08
 
   -0.31566E+08         0.38345E+06         0.00000E+00
    0.38345E+06        -0.49637E+08         0.00000E+00
    0.00000E+00         0.00000E+00        -0.29303E+08
 
   -0.31355E+08         0.43711E+06         0.00000E+00
    0.43711E+06        -0.49692E+08         0.00000E+00
    0.00000E+00         0.00000E+00        -0.29272E+08
 
   -0.31136E+08         0.49583E+06         0.00000E+00
    0.49583E+06        -0.49754E+08         0.00000E+00
    0.00000E+00         0.00000E+00        -0.29240E+08
 
   -0.30909E+08         0.56072E+06         0.00000E+00
    0.56072E+06        -0.49823E+08         0.00000E+00
    0.00000E+00         0.00000E+00        -0.29208E+08
 
   -0.30672E+08         0.63315E+06         0.00000E+00
    0.63315E+06        -0.49900E+08         0.00000E+00
    0.00000E+00         0.00000E+00        -0.29176E+08
 
   -0.30427E+08         0.71492E+06         0.00000E+00
    0.71492E+06        -0.49985E+08         0.00000E+00
    0.00000E+00         0.00000E+00        -0.29144E+08
 
   -0.30171E+08         0.80837E+06         0.00000E+00
    0.80837E+06        -0.50079E+08         0.00000E+00
    0.00000E+00         0.00000E+00        -0.29111E+08
 
   -0.29907E+08         0.91659E+06         0.00000E+00
    0.91659E+06        -0.50182E+08         0.00000E+00
    0.00000E+00         0.00000E+00        -0.29079E+08
 
   -0.29636E+08         0.10436E+07         0.00000E+00
    0.10436E+07        -0.50294E+08         0.00000E+00
    0.00000E+00         0.00000E+00        -0.29047E+08
 
   -0.29364E+08         0.11949E+07         0.00000E+00
    0.11949E+07        -0.50416E+08         0.00000E+00
    0.00000E+00         0.00000E+00        -0.29017E+08
 
   -0.29105E+08         0.13770E+07         0.00000E+00
    0.13770E+07        -0.50547E+08         0.00000E+00
    0.00000E+00         0.00000E+00        -0.28991E+08
 
   -0.40444E+08        -0.14334E+06         0.00000E+00
   -0.14334E+06        -0.50026E+08         0.00000E+00
    0.00000E+00         0.00000E+00        -0.30458E+08
 
   -0.39855E+08        -0.18418E+06         0.00000E+00
   -0.18418E+06        -0.49977E+08         0.00000E+00
    0.00000E+00         0.00000E+00        -0.30330E+08
 
   -0.39352E+08        -0.20341E+06         0.00000E+00
   -0.20341E+06        -0.49916E+08         0.00000E+00
    0.00000E+00         0.00000E+00        -0.30218E+08
 
   -0.38911E+08        -0.21110E+06         0.00000E+00
   -0.21110E+06        -0.49848E+08         0.00000E+00
    0.00000E+00         0.00000E+00        -0.30116E+08
 
   -0.38518E+08        -0.21239E+06         0.00000E+00
   -0.21239E+06        -0.49776E+08         0.00000E+00
    0.00000E+00         0.00000E+00        -0.30023E+08
 
   -0.38163E+08        -0.20999E+06         0.00000E+00
   -0.20999E+06        -0.49701E+08         0.00000E+00
    0.00000E+00         0.00000E+00        -0.29937E+08
 
   -0.37839E+08        -0.20538E+06         0.00000E+00
   -0.20538E+06        -0.49627E+08         0.00000E+00
    0.00000E+00         0.00000E+00        -0.29857E+08
 
   -0.37540E+08        -0.19941E+06         0.00000E+00
   -0.19941E+06        -0.49553E+08         0.00000E+00
    0.00000E+00         0.00000E+00        -0.29782E+08
 
   -0.37262E+08        -0.19256E+06         0.00000E+00
   -0.19256E+06        -0.49481E+08         0.00000E+00
    0.00000E+00         0.00000E+00        -0.29712E+08
 
   -0.37002E+08        -0.18515E+06         0.00000E+00
   -0.18515E+06        -0.49410E+08         0.00000E+00
    0.00000E+00         0.00000E+00        -0.29646E+08
 
   -0.36757E+08        -0.17734E+06         0.00000E+00
   -0.17734E+06        -0.49342E+08         0.00000E+00
    0.00000E+00         0.00000E+00        -0.29583E+08
 
   -0.36525E+08        -0.16927E+06         0.00000E+00
   -0.16927E+06        -0.49276E+08         0.00000E+00
    0.00000E+00         0.00000E+00        -0.29523E+08
 
   -0.36304E+08        -0.16100E+06         0.00000E+00
   -0.16100E+06        -0.49213E+08         0.00000E+00
    0.00000E+00         0.00000E+00        -0.29466E+08
 
   -0.36093E+08        -0.15259E+06         0.00000E+00
   -0.15259E+06        -0.49153E+08         0.00000E+00
    0.00000E+00         0.00000E+00        -0.29412E+08
 
   -0.35890E+08        -0.14407E+06         0.00000E+00
   -0.14407E+06        -0.49096E+08         0.00000E+00
    0.00000E+00         0.00000E+00        -0.29360E+08
 
   -0.35694E+08        -0.13546E+06         0.00000E+00
   -0.13546E+06        -0.49042E+08         0.00000E+00
    0.00000E+00         0.00000E+00        -0.29310E+08
 
   -0.35505E+08        -0.12677E+06         0.00000E+00
   -0.12677E+06        -0.48991E+08         0.00000E+00
    0.00000E+00         0.00000E+00        -0.29261E+08
 
   -0.35321E+08        -0.11801E+06         0.00000E+00
   -0.11801E+06        -0.48944E+08         0.00000E+00
    0.00000E+00         0.00000E+00        -0.29215E+08
 
   -0.35141E+08        -0.10919E+06         0.00000E+00
   -0.10919E+06        -0.48900E+08         0.00000E+00
    0.00000E+00         0.00000E+00        -0.29170E+08
 
   -0.34965E+08        -0.10030E+06         0.00000E+00
   -0.10030E+06        -0.48859E+08         0.00000E+00
    0.00000E+00         0.00000E+00        -0.29127E+08
 
   -0.34793E+08        -0.91329E+05         0.00000E+00
   -0.91329E+05        -0.48822E+08         0.00000E+00
    0.00000E+00         0.00000E+00        -0.29084E+08
 
   -0.34623E+08        -0.82279E+05         0.00000E+00
   -0.82279E+05        -0.48789E+08         0.00000E+00
    0.00000E+00         0.00000E+00        -0.29043E+08
 
   -0.34454E+08        -0.73135E+05         0.00000E+00
   -0.73135E+05        -0.48758E+08         0.00000E+00
    0.00000E+00         0.00000E+00        -0.29004E+08
 
   -0.34287E+08        -0.63886E+05         0.00000E+00
   -0.63886E+05        -0.48732E+08         0.00000E+00
    0.00000E+00         0.00000E+00        -0.28965E+08
 
   -0.34121E+08        -0.54513E+05         0.00000E+00
   -0.54513E+05        -0.48709E+08         0.00000E+00
    0.00000E+00         0.00000E+00        -0.28927E+08
 
   -0.33956E+08        -0.45000E+05         0.00000E+00
   -0.45000E+05        -0.48690E+08         0.00000E+00
    0.00000E+00         0.00000E+00        -0.28890E+08
 
   -0.33790E+08        -0.35324E+05         0.00000E+00
   -0.35324E+05        -0.48674E+08         0.00000E+00
    0.00000E+00         0.00000E+00        -0.28853E+08
 
   -0.33624E+08        -0.25458E+05         0.00000E+00
   -0.25458E+05        -0.48663E+08         0.00000E+00
    0.00000E+00         0.00000E+00        -0.28818E+08
 
   -0.33457E+08        -0.15375E+05         0.00000E+00
   -0.15375E+05        -0.48655E+08         0.00000E+00
    0.00000E+00         0.00000E+00        -0.28783E+08
 
   -0.33288E+08        -0.50392E+04         0.00000E+00
   -0.50392E+04        -0.48651E+08         0.00000E+00
    0.00000E+00         0.00000E+00        -0.28748E+08
 
   -0.33117E+08         0.55886E+04         0.00000E+00
    0.55886E+04        -0.48652E+08         0.00000E+00
    0.00000E+00         0.00000E+00        -0.28714E+08
 
   -0.32944E+08         0.16555E+05         0.00000E+00
    0.16555E+05        -0.48657E+08         0.00000E+00
    0.00000E+00         0.00000E+00        -0.28680E+08
 
   -0.32767E+08         0.27915E+05         0.00000E+00
    0.27915E+05        -0.48666E+08         0.00000E+00
    0.00000E+00         0.00000E+00        -0.28646E+08
 
   -0.32587E+08         0.39733E+05         0.00000E+00
    0.39733E+05        -0.48680E+08         0.00000E+00
    0.00000E+00         0.00000E+00        -0.28613E+08
 
   -0.32403E+08         0.52087E+05         0.00000E+00
    0.52087E+05        -0.48699E+08         0.00000E+00
    0.00000E+00         0.00000E+00        -0.28580E+08
 
   -0.32214E+08         0.65071E+05         0.00000E+00
    0.65071E+05        -0.48722E+08         0.00000E+00
    0.00000E+00         0.00000E+00        -0.28546E+08
 
   -0.32019E+08         0.78798E+05         0.00000E+00
    0.78798E+05        -0.48751E+08         0.00000E+00
    0.00000E+00         0.00000E+00        -0.28513E+08
 
   -0.31817E+08         0.93409E+05         0.00000E+00
    0.93409E+05        -0.48786E+08         0.00000E+00
    0.00000E+00         0.00000E+00        -0.28480E+08
 
   -0.31608E+08         0.10908E+06         0.00000E+00
    0.10908E+06        -0.48826E+08         0.00000E+00
    0.00000E+00         0.00000E+00        -0.28446E+08
 
   -0.31390E+08         0.12604E+06         0.00000E+00
    0.12604E+06        -0.48873E+08         0.00000E+00
    0.00000E+00         0.00000E+00        -0.28412E+08
 
   -0.31163E+08         0.14456E+06         0.00000E+00
    0.14456E+06        -0.48927E+08         0.00000E+00
    0.00000E+00         0.00000E+00        -0.28377E+08
 
   -0.30923E+08         0.16503E+06         0.00000E+00
    0.16503E+06        -0.48989E+08         0.00000E+00
    0.00000E+00         0.00000E+00        -0.28341E+08
 
   -0.30671E+08         0.18796E+06         0.00000E+00
    0.18796E+06        -0.49059E+08         0.00000E+00
    0.00000E+00         0.00000E+00        -0.28304E+08
 
   -0.30403E+08         0.21403E+06         0.00000E+00
    0.21403E+06        -0.49138E+08         0.00000E+00
    0.00000E+00         0.00000E+00        -0.28267E+08
 
   -0.30116E+08         0.24422E+06         0.00000E+00
    0.24422E+06        -0.49229E+08         0.00000E+00
    0.00000E+00         0.00000E+00        -0.28227E+08
 
   -0.29807E+08         0.27996E+06         0.00000E+00
    0.27996E+06        -0.49331E+08         0.00000E+00
    0.00000E+00         0.00000E+00        -0.28186E+08
 
   -0.29470E+08         0.32341E+06         0.00000E+00
    0.32341E+06        -0.49448E+08         0.00000E+00
    0.00000E+00         0.00000E+00        -0.28142E+08
 
   -0.29099E+08         0.37797E+06         0.00000E+00
    0.37797E+06        -0.49583E+08         0.00000E+00
    0.00000E+00         0.00000E+00        -0.28095E+08
 
   -0.28683E+08         0.44929E+06         0.00000E+00
    0.44929E+06        -0.49738E+08         0.00000E+00
    0.00000E+00         0.00000E+00        -0.28042E+08
 
   -0.28208E+08         0.54736E+06         0.00000E+00
    0.54736E+06        -0.49920E+08         0.00000E+00
    0.00000E+00         0.00000E+00        -0.27984E+08
 
SCALARS stresss double 
LOOKUP_TABLE default
  -56248179.7971013     
  -56425967.8085254     
  -56583453.4585863     
  -56725566.3091788     
  -56855491.3631847     
  -56975426.1940746     
  -57086969.4622015     
  -57191333.5976464     
  -57289468.6576007     
  -57382138.6457252     
  -57469970.9345357     
  -57553489.6644437     
  -57633139.1452140     
  -57709300.7613636     
  -57782305.5062692     
  -57852443.4853046     
  -57919971.2630256     
  -57985117.6432099     
  -58048088.2887101     
  -58109069.4691977     
  -58168231.1452030     
  -58225729.5423139     
  -58281709.3313996     
  -58336305.5038912     
  -58389645.0120598     
  -58441848.2306288     
  -58493030.2865053     
  -58543302.2969459     
  -58592772.5525051     
  -58641547.6793282     
  -58689733.8156445     
  -58737437.8398194     
  -58784768.6924149     
  -58831838.8430959     
  -58878765.9660825     
  -58925674.9071290     
  -58972700.0538099     
  -59019988.2643633     
  -59067702.5770902     
  -59116027.0272397     
  -59165173.0679514     
  -59215388.3751053     
  -59266969.3064527     
  -59320279.1693202     
  -59375776.1137754     
  -59434057.7394442     
  -59495936.2440557     
  -59562572.4777111     
  -59635730.0285840     
  -59718287.4146059     
  -56274897.6767179     
  -56364949.3811465     
  -56460702.5418318     
  -56557211.2766399     
  -56652166.2153250     
  -56744502.9386182     
  -56833768.2415732     
  -56919818.5439572     
  -57002670.1096911     
  -57082421.6994028     
  -57159213.2825733     
  -57233203.4395832     
  -57304556.8125878     
  -57373437.1340982     
  -57440003.4335918     
  -57504408.0910483     
  -57566795.9775014     
  -57627304.2382076     
  -57686062.4535150     
  -57743193.0173437     
  -57798811.6357798     
  -57853027.8864053     
  -57905945.8025334     
  -57957664.4612515     
  -58008278.5634439     
  -58057878.9997949     
  -58106553.4003863     
  -58154386.6676385     
  -58201461.4934325     
  -58247858.8615011     
  -58293658.5356493     
  -58338939.5329182     
  -58383780.5781283     
  -58428260.5316926     
  -58472458.7750583     
  -58516455.5256845     
  -58560332.0326634     
  -58604170.5688490     
  -58648054.0744884     
  -58692065.1998951     
  -58736284.3001505     
  -58780785.5724811     
  -58825629.8308062     
  -58870851.0287464     
  -58916430.7946123     
  -58962249.1596688     
  -59007986.1813528     
  -59052918.1853664     
  -59095478.6449377     
  -59132272.5631722     
  -56298553.0164149     
  -56361556.0765634     
  -56424401.6258624     
  -56488182.6941779     
  -56552755.2248689     
  -56617661.5919924     
  -56682439.7896979     
  -56746711.2930655     
  -56810192.4771031     
  -56872682.5409395     
  -56934046.6818061     
  -56994200.6082488     
  -57053097.9105120     
  -57110720.2588885     
  -57167069.9647990     
  -57222164.3914011     
  -57276031.7711072     
  -57328708.0799546     
  -57380234.7020775     
  -57430656.6842369     
  -57480021.4311665     
  -57528377.7302900     
  -57575775.0221569     
  -57622262.8532310     
  -57667890.4623840     
  -57712706.4629971     
  -57756758.5899602     
  -57800093.4857675     
  -57842756.5027760     
  -57884791.4997587     
  -57926240.6102045     
  -57967143.9572808     
  -58007539.2856794     
  -58047461.4731888     
  -58086941.8739877     
  -58126007.4302102     
  -58164679.4668376     
  -58202972.0556994     
  -58240889.7958769     
  -58278424.8104768     
  -58315552.7103088     
  -58352227.2483811     
  -58388373.4595855     
  -58423879.4518875     
  -58458588.2344532     
  -58492294.4773476     
  -58524760.7178634     
  -58555793.4551081     
  -58585489.2962848     
  -58614949.8522029     
  -56304129.9932327     
  -56345927.0308642     
  -56389301.3358963     
  -56433632.9283146     
  -56478753.5383021     
  -56524544.9367392     
  -56570861.5981842     
  -56617536.4302024     
  -56664399.1045021     
  -56711289.8761721     
  -56758067.0618595     
  -56804609.8423409     
  -56850818.2435439     
  -56896611.6353501     
  -56941926.5816226     
  -56986714.5163157     
  -57030939.4951232     
  -57074576.1393942     
  -57117607.8146219     
  -57160025.0461140     
  -57201824.1547491     
  -57243006.0871283     
  -57283575.4117960     
  -57323539.4535511     
  -57362907.5395562     
  -57401690.3330440     
  -57439899.2324439     
  -57477545.8154556     
  -57514641.3088639     
  -57551196.0657041     
  -57587219.0317719     
  -57622717.1835270     
  -57657694.9193522     
  -57692153.3862497     
  -57726089.7250099     
  -57759496.2197936     
  -57792359.3448881     
  -57824658.7155447     
  -57856365.9770670     
  -57887443.7162451     
  -57917844.5667401     
  -57947510.8259478     
  -57976375.1264278     
  -58004363.0034626     
  -58031398.4338171     
  -58057412.9847310     
  -58082355.9992995     
  -58106190.5250099     
  -58128816.8326652     
  -58149730.3551586     
  -56289223.3254510     
  -56316574.7557552     
  -56345181.1547014     
  -56375017.2453423     
  -56405920.2183714     
  -56437737.7720755     
  -56470339.6099847     
  -56503607.9885324     
  -56537431.2602873     
  -56571702.0132858     
  -56606317.6736274     
  -56641181.8483480     
  -56676205.5320188     
  -56711307.8653846     
  -56746416.4179065     
  -56781467.0781244     
  -56816403.6619946     
  -56851177.3393723     
  -56885745.9573510     
  -56920073.3171616     
  -56954128.4427595     
  -56987884.8649404     
  -57021319.9344256     
  -57054414.1700969     
  -57087150.6436494     
  -57119514.3987535     
  -57151491.9008669     
  -57183070.5127902     
  -57214237.9906904     
  -57244981.9955156     
  -57275289.6154723     
  -57305146.8966116     
  -57334538.3807213     
  -57363446.6529104     
  -57391851.9058436     
  -57419731.5339214     
  -57447059.7791550     
  -57473807.4610397     
  -57499941.8344022     
  -57525426.6286641     
  -57550222.3209393     
  -57574286.6659815     
  -57597575.4138720     
  -57620042.9355713     
  -57641642.0868489     
  -57662322.1293515     
  -57682023.5782112     
  -57700672.6191899     
  -57718197.1038168     
  -57734661.9036984     
  -56253100.1886446     
  -56269519.6434752     
  -56287270.1589891     
  -56306220.2410805     
  -56326281.0562265     
  -56347358.5486631     
  -56369355.7592405     
  -56392177.9173037     
  -56415734.4427673     
  -56439939.1637453     
  -56464710.0654471     
  -56489969.1192339     
  -56515642.2879129     
  -56541659.6394374     
  -56567955.4789553     
  -56594468.4349401     
  -56621141.4670233     
  -56647921.7872783     
  -56674760.7012448     
  -56701613.3819635     
  -56728438.5923835     
  -56755198.3708260     
  -56781857.6922135     
  -56808384.1153883     
  -56834747.4245378     
  -56860919.2707719     
  -56886872.8183544     
  -56912582.3990050     
  -56938023.1770536     
  -56963170.8280159     
  -56988001.2333435     
  -57012490.1946418     
  -57036613.1714887     
  -57060345.0480151     
  -57083659.9344219     
  -57106531.0102595     
  -57128930.4159677     
  -57150829.1969434     
  -57172197.2989717     
  -57193003.6038039     
  -57213215.9783847     
  -57232801.2935258     
  -57251725.3598364     
  -57269952.7631164     
  -57287446.7254164     
  -57304169.4627450     
  -57320084.0021839     
  -57335158.0039271     
  -57349363.2844431     
  -57362628.7829738     
  -56195890.8270420     
  -56204097.0072327     
  -56213564.1408029     
  -56224220.5310479     
  -56235984.1982278     
  -56248777.8710695     
  -56262527.0624501     
  -56277158.7415145     
  -56292601.3520940     
  -56308785.2203940     
  -56325642.8923147     
  -56343109.3228421     
  -56361121.9648496     
  -56379620.8101641     
  -56398548.4114437     
  -56417849.8927536     
  -56437472.9461105     
  -56457367.8083004     
  -56477487.2133406     
  -56497786.3184444     
  -56518222.6038498     
  -56538755.7487867     
  -56559347.4870923     
  -56579961.4466126     
  -56600562.9767315     
  -56621118.9682971     
  -56641597.6700017     
  -56661968.5050127     
  -56682201.8913930     
  -56702269.0696258     
  -56722141.9403550     
  -56741792.9152474     
  -56761194.7836142     
  -56780320.5970237     
  -56799143.5735009     
  -56817637.0219715     
  -56835774.2863433     
  -56853528.7071904     
  -56870873.5978914     
  -56887782.2323170     
  -56904227.8444914     
  -56920183.6491605     
  -56935622.9062731     
  -56950519.0647122     
  -56964846.0027168     
  -56978578.2666484     
  -56991690.9121718     
  -57004158.2819300     
  -57015952.9560859     
  -57027061.2529236     
  -56118469.5128702     
  -56120496.4453612     
  -56123714.2273896     
  -56128058.3297365     
  -56133467.9919927     
  -56139882.0274074     
  -56147239.9752732     
  -56155482.5972330     
  -56164551.9186745     
  -56174391.2230511     
  -56184945.1019076     
  -56196159.5387658     
  -56207981.9930445     
  -56220361.4667808     
  -56233248.5505304     
  -56246595.4506814     
  -56260356.0013559     
  -56274485.6631218     
  -56288941.5096357     
  -56303682.2026776     
  -56318667.9558868     
  -56333860.4876990     
  -56349222.9643390     
  -56364719.9341060     
  -56380317.2545199     
  -56395982.0141393     
  -56411682.4510110     
  -56427387.8697700     
  -56443068.5593873     
  -56458695.7134753     
  -56474241.3549118     
  -56489678.2663337     
  -56504979.9278059     
  -56520120.4626798     
  -56535074.5923804     
  -56549817.6006382     
  -56564325.3076129     
  -56578574.0545385     
  -56592540.7000068     
  -56606202.6296835     
  -56619537.7815387     
  -56632524.6872937     
  -56645142.5257159     
  -56657371.1735703     
  -56669191.2314578     
  -56680584.0220082     
  -56691531.6703130     
  -56702017.6006756     
  -56712027.4200437     
  -56721544.3215006     
  -56022235.2990508     
  -56019692.6856593     
  -56018248.3976863     
  -56017853.1536758     
  -56018457.2180104     
  -56020011.7054306     
  -56022468.2637548     
  -56025779.0795545     
  -56029896.9988240     
  -56034775.6250475     
  -56040369.3845047     
  -56046633.5765563     
  -56053524.4193420     
  -56060999.0926187     
  -56069015.7759519     
  -56077533.6803204     
  -56086513.0721178     
  -56095915.2893890     
  -56105702.7506293     
  -56115838.9566722     
  -56126288.4862401     
  -56137016.9857408     
  -56147991.1539192     
  -56159178.7220218     
  -56170548.4302036     
  -56182070.0009818     
  -56193714.1106048     
  -56205452.3592477     
  -56217257.2409625     
  -56229102.1142995     
  -56240961.1744812     
  -56252809.4279553     
  -56264622.6700917     
  -56276377.4667292     
  -56288051.1402279     
  -56299621.7606535     
  -56311068.1426794     
  -56322369.8487202     
  -56333507.1986082     
  -56344461.2857337     
  -56355213.9989840     
  -56365748.0493543     
  -56376047.0007009     
  -56386095.3073267     
  -56395878.3674500     
  -56405382.6038694     
  -56414595.5525114     
  -56423505.8327997     
  -56432102.8759048     
  -56440378.3900909     
  -55908972.9502048     
  -55903133.8706324     
  -55898293.1228072     
  -55894411.3726360     
  -55891449.5991899     
  -55889368.8276841     
  -55888130.3323543     
  -55887695.7050607     
  -55888026.8956155     
  -55889086.2616734     
  -55890836.6229208     
  -55893241.3118990     
  -55896264.2191157     
  -55899869.8329005     
  -55904023.2748617     
  -55908690.3313906     
  -55913837.4812963     
  -55919431.9195248     
  -55925441.5769561     
  -55931835.1363748     
  -55938582.0448153     
  -55945652.5225627     
  -55953017.5691426     
  -55960648.9666792     
  -55968519.2810198     
  -55976601.8610548     
  -55984870.8366732     
  -55993301.1158125     
  -56001868.3810658     
  -56010549.0863140     
  -56019320.4538443     
  -56028160.4724091     
  -56037047.8966595     
  -56045962.2483668     
  -56054883.8198065     
  -56063793.6796344     
  -56072673.6815155     
  -56081506.4756890     
  -56090275.5235839     
  -56098965.1155953     
  -56107560.3922382     
  -56116047.3691544     
  -56124412.9666045     
  -56132645.0434568     
  -56140732.4331980     
  -56148664.9759066     
  -56156433.5452763     
  -56164030.1096871     
  -56171447.9079994     
  -56178681.1021073     
  -55780692.2873335     
  -55772561.4568884     
  -55765325.8117623     
  -55758954.8808375     
  -55753418.0499467     
  -55748684.7112789     
  -55744724.2758870     
  -55741506.2305218     
  -55739000.1949639     
  -55737175.9712725     
  -55736003.5887010     
  -55735453.3464971     
  -55735495.8546688     
  -55736102.0722540     
  -55737243.3428202     
  -55738891.4271721     
  -55741018.5333669     
  -55743597.3441618     
  -55746601.0420122     
  -55750003.3317352     
  -55753778.4609653     
  -55757901.2385481     
  -55762347.0510425     
  -55767091.8775266     
  -55772112.3029165     
  -55777385.5300303     
  -55782889.3906300     
  -55788602.3556920     
  -55794503.5451506     
  -55800572.7373672     
  -55806790.3785690     
  -55813137.5924984     
  -55819596.1905001     
  -55826148.6822597     
  -55832778.2873871     
  -55839468.9480189     
  -55846205.3425961     
  -55852972.9009570     
  -55859757.8208826     
  -55866547.0862161     
  -55873328.4866325     
  -55880090.6390129     
  -55886823.0101837     
  -55893515.9407091     
  -55900160.6700266     
  -55906749.3649259     
  -55913275.1536454     
  -55919732.1551819     
  -55926115.4663436     
  -55932421.3042913     
  -55639490.0635495     
  -55629850.5436420     
  -55621005.0130820     
  -55612930.1654299     
  -55605602.4882111     
  -55598998.2908497     
  -55593093.7680190     
  -55587865.0454637     
  -55583288.2243845     
  -55579339.4256556     
  -55575994.8322382     
  -55573230.7292936     
  -55571023.5421623     
  -55569349.8724040     
  -55568186.5319790     
  -55567510.5755895     
  -55567299.3312019     
  -55567530.4287922     
  -55568181.8273825     
  -55569231.8404456     
  -55570659.1597729     
  -55572442.8778992     
  -55574562.5091906     
  -55576998.0097066     
  -55579729.7959547     
  -55582738.7626610     
  -55586006.2996874     
  -55589514.3082254     
  -55593245.2164013     
  -55597181.9944239     
  -55601308.1694070     
  -55605607.8399891     
  -55610065.6908724     
  -55614667.0073911     
  -55619397.6902152     
  -55624244.2702808     
  -55629193.9240326     
  -55634234.4890456     
  -55639354.4800760     
  -55644543.1055640     
  -55649790.2845919     
  -55655086.6642938     
  -55660423.6377628     
  -55665793.3625558     
  -55671188.7797968     
  -55676603.6332401     
  -55682032.4869138     
  -55687470.7433598     
  -55692914.6770902     
  -55698361.4235061     
  -55487436.3513679     
  -55476888.7859134     
  -55467039.1693032     
  -55457870.0822492     
  -55449363.8005068     
  -55441502.3468758     
  -55434267.5314128     
  -55427640.9949887     
  -55421604.2507093     
  -55416138.7232895     
  -55411225.7869670     
  -55406846.8020411     
  -55402983.1499658     
  -55399616.2669790     
  -55396727.6762930     
  -55394299.0188928     
  -55392312.0829872     
  -55390748.8321503     
  -55389591.4322024     
  -55388822.2768720     
  -55388424.0122979     
  -55388379.5604242     
  -55388672.1413532     
  -55389285.2947195     
  -55390202.9001541     
  -55391409.1969051     
  -55392888.8026891     
  -55394626.7318408     
  -55396608.4128326     
  -55398819.7052344     
  -55401246.9161794     
  -55403876.8164004     
  -55406696.6558991     
  -55409694.1793002     
  -55412857.6409443     
  -55416175.8197587     
  -55419638.0339439     
  -55423234.1554992     
  -55426954.6246068     
  -55430790.4638849     
  -55434733.2925130     
  -55438775.3402304     
  -55442909.4611741     
  -55447129.1474820     
  -55451428.5425568     
  -55455802.4540468     
  -55460246.3669867     
  -55464756.4567797     
  -55469329.5966145     
  -55473963.3767264     
  -55326491.7031529     
  -55315487.8920695     
  -55305093.2696321     
  -55295295.1381326     
  -55286080.4570461     
  -55277435.8808280     
  -55269347.7983400     
  -55261802.3696635     
  -55254785.5620766     
  -55248283.1850294     
  -55242280.9239548     
  -55236764.3729284     
  -55231719.0662275     
  -55227130.5088066     
  -55222984.2057047     
  -55219265.6903967     
  -55215960.5521122     
  -55213054.4621440     
  -55210533.1991756     
  -55208382.6736553     
  -55206588.9512485     
  -55205138.2753998     
  -55204017.0890391     
  -55203212.0554663     
  -55202710.0784517     
  -55202498.3215862     
  -55202564.2269216     
  -55202895.5329336     
  -55203480.2918456     
  -55204306.8863461     
  -55205364.0457331     
  -55206640.8615145     
  -55208126.8024939     
  -55209811.7293631     
  -55211685.9088242     
  -55213740.0272564     
  -55215965.2039383     
  -55218353.0038336     
  -55220895.4499415     
  -55223585.0352067     
  -55226414.7339771     
  -55229378.0129886     
  -55232468.8418505     
  -55235681.7030122     
  -55239011.6012004     
  -55242454.0722749     
  -55246005.1912826     
  -55249661.5795855     
  -55253420.4128016     
  -55257279.4244535     
  -55158453.0446473     
  -55147325.1895356     
  -55136726.1533227     
  -55126646.9677439     
  -55117078.3074858     
  -55108010.5239614     
  -55099433.6775678     
  -55091337.5695871     
  -55083711.7731664     
  -55076545.6634624     
  -55069828.4469906     
  -55063549.1901673     
  -55057696.8470316     
  -55052260.2861541     
  -55047228.3167348     
  -55042589.7139012     
  -55038333.2432121     
  -55034447.6843788     
  -55030921.8542127     
  -55027744.6288139     
  -55024904.9650135     
  -55022391.9210852     
  -55020194.6767411     
  -55018302.5524283     
  -55016705.0279429     
  -55015391.7603764     
  -55014352.6014136     
  -55013577.6139945     
  -55013057.0883581     
  -55012781.5574808     
  -55012741.8119221     
  -55012928.9140902     
  -55013334.2119353     
  -55013949.3520789     
  -55014766.2923838     
  -55015777.3139670     
  -55016975.0326552     
  -55018352.4098787     
  -55019902.7629970     
  -55021619.7750453     
  -55023497.5038881     
  -55025530.3907622     
  -55027713.2681911     
  -55030041.3672424     
  -55032510.3240906     
  -55035116.1858473     
  -55037855.4156704     
  -55040724.8971781     
  -55043721.9375392     
  -55046844.2706184     
  -54984924.0255656     
  -54973909.8716048     
  -54963352.9309697     
  -54953247.1234299     
  -54943586.0191572     
  -54934362.8662126     
  -54925570.6177300     
  -54917201.9584582     
  -54909249.3308071     
  -54901704.9603472     
  -54894560.8807347     
  -54887808.9580616     
  -54881440.9146190     
  -54875448.3520701     
  -54869822.7740247     
  -54864555.6080105     
  -54859638.2268419     
  -54855061.9693821     
  -54850818.1607021     
  -54846898.1316339     
  -54843293.2377245     
  -54839994.8775895     
  -54836994.5106711     
  -54834283.6744064     
  -54831854.0008056     
  -54829697.2324481     
  -54827805.2378987     
  -54826170.0265472     
  -54824783.7628758     
  -54823638.7801555     
  -54822727.5935752     
  -54822042.9128017     
  -54821577.6539728     
  -54821324.9511207     
  -54821278.1670225     
  -54821430.9034744     
  -54821777.0109823     
  -54822310.5978611     
  -54823026.0387334     
  -54823917.9824151     
  -54824981.3591748     
  -54826211.3873502     
  -54827603.5793048     
  -54829153.7467013     
  -54830858.0050764     
  -54832712.7776934     
  -54834714.7986370     
  -54836861.1150887     
  -54839149.0889369     
  -54841576.3972945     
  -54807304.2483012     
  -54796568.3206360     
  -54786226.6124944     
  -54776275.2360778     
  -54766709.9741451     
  -54757526.3024075     
  -54748719.4115880     
  -54740284.2292090     
  -54732215.4410335     
  -54724507.5121540     
  -54717154.7077113     
  -54710151.1132244     
  -54703490.6545162     
  -54697167.1172197     
  -54691174.1658550     
  -54685505.3624654     
  -54680154.1848020     
  -54675114.0440503     
  -54670378.3020898     
  -54665940.2882819     
  -54661793.3157780     
  -54657930.6973456     
  -54654345.7607061     
  -54651031.8633806     
  -54647982.4070407     
  -54645190.8513601     
  -54642650.7273633     
  -54640355.6502691     
  -54638299.3318235     
  -54636475.5921201     
  -54634878.3709015     
  -54633501.7383389     
  -54632339.9052833     
  -54631387.2329830     
  -54630638.2422603     
  -54630087.6221403     
  -54629730.2379228     
  -54629561.1386890     
  -54629575.5642318     
  -54629768.9513989     
  -54630136.9398364     
  -54630675.3771201     
  -54631380.3232590     
  -54632248.0545583     
  -54633275.0668227     
  -54634458.0778832     
  -54635794.0294313     
  -54637280.0881550     
  -54638913.6461023     
  -54640692.3203624     
  -54626791.9801559     
  -54616443.1525721     
  -54606433.6702022     
  -54596761.2736022     
  -54587423.4016246     
  -54578417.2091825     
  -54569739.5848980     
  -54561387.1685871     
  -54553356.3685689     
  -54545643.3787700     
  -54538244.1956028     
  -54531154.6345992     
  -54524370.3467794     
  -54517886.8347381     
  -54511699.4684336     
  -54505803.5006645     
  -54500194.0822179     
  -54494866.2766808     
  -54489815.0748977     
  -54485035.4090686     
  -54480522.1664721     
  -54476270.2028084     
  -54472274.3551500     
  -54468529.4544933     
  -54465030.3379019     
  -54461771.8602348     
  -54458748.9054508     
  -54455956.3974820     
  -54453389.3106697     
  -54451042.6797544     
  -54448911.6094123     
  -54446991.2833326     
  -54445276.9728254     
  -54443764.0449541     
  -54442447.9701837     
  -54441324.3295359     
  -54440388.8212432     
  -54439637.2668922     
  -54439065.6170470     
  -54438669.9563417     
  -54438446.5080340     
  -54438391.6380070     
  -54438501.8582090     
  -54438773.8295207     
  -54439204.3640369     
  -54439790.4267526     
  -54440529.1366399     
  -54441417.7671008     
  -54442453.7457976     
  -54443634.6538209     
  -54444395.6930000     
  -54434501.4267489     
  -54424899.0615777     
  -54415587.5182086     
  -54406565.4468162     
  -54397831.2408788     
  -54389383.0510062     
  -54381218.7987216     
  -54373336.1901714     
  -54365732.7297372     
  -54358405.7335313     
  -54351352.3427517     
  -54344569.5368780     
  -54338054.1466901     
  -54331802.8670894     
  -54325812.2697099     
  -54320078.8152994     
  -54314598.8658593     
  -54309368.6965261     
  -54304384.5071845     
  -54299642.4337962     
  -54295138.5594353     
  -54290868.9250167     
  -54286829.5397087     
  -54283016.3910177     
  -54279425.4545354     
  -54276052.7033400     
  -54272894.1170405     
  -54269945.6904553     
  -54267203.4419175     
  -54264663.4211963     
  -54262321.7170270     
  -54260174.4642410     
  -54258217.8504874     
  -54256448.1225367     
  -54254861.5921607     
  -54253454.6415768     
  -54252223.7284519     
  -54251165.3904545     
  -54250276.2493493     
  -54249553.0146231     
  -54248992.4866368     
  -54248591.5592918     
  -54248347.2222056     
  -54248256.5623869     
  -54248316.7654014     
  -54248525.1160225     
  -54248878.9983587     
  -54249375.8954461     
  -54250013.3883088     
  -54260950.7465437     
  -54251548.4010156     
  -54242397.1618970     
  -54233496.7807885     
  -54224846.7705373     
  -54216446.4158270     
  -54208294.7838154     
  -54200390.7347962     
  -54192732.9328609     
  -54185319.8565394     
  -54178149.8093975     
  -54171220.9305717     
  -54164531.2052203     
  -54158078.4748751     
  -54151860.4476728     
  -54145874.7084528     
  -54140118.7287026     
  -54134589.8763369     
  -54129285.4252962     
  -54124202.5649498     
  -54119338.4092909     
  -54114690.0059111     
  -54110254.3447418     
  -54106028.3665510     
  -54102008.9711844     
  -54098193.0255404     
  -54094577.3712677     
  -54091158.8321775     
  -54087934.2213580     
  -54084900.3479847     
  -54082054.0238153     
  -54079392.0693620     
  -54076911.3197322     
  -54074608.6301291     
  -54072480.8810044     
  -54070524.9828561     
  -54068737.8806621     
  -54067116.5579447     
  -54065658.0404559     
  -54064359.3994795     
  -54063217.7547408     
  -54062230.2769199     
  -54061394.1897595     
  -54060706.7717639     
  -54060165.3574820     
  -54059767.3383697     
  -54059510.1632258     
  -54059391.3381983     
  -54059408.4263552     
  -54059559.0468176     
  -54077138.4833437     
  -54068244.1264815     
  -54059565.9319614     
  -54051104.2152893     
  -54042859.0838239     
  -54034830.4447164     
  -54027018.0129390     
  -54019421.3193813     
  -54012039.7189941     
  -54004872.3989601     
  -53997918.3868718     
  -53991176.5589000     
  -53984645.6479324     
  -53978324.2516678     
  -53972210.8406477     
  -53966303.7662097     
  -53960601.2683492     
  -53955101.4834719     
  -53949802.4520266     
  -53944702.1260014     
  -53939798.3762734     
  -53935088.9997980     
  -53930571.7266259     
  -53926244.2267369     
  -53922104.1166806     
  -53918148.9660102     
  -53914376.3035039     
  -53910783.6231603     
  -53907368.3899608     
  -53904128.0453889     
  -53901060.0126991     
  -53898161.7019253     
  -53895430.5146227     
  -53892863.8483344     
  -53890459.1007764     
  -53888213.6737325     
  -53886124.9766545     
  -53884190.4299603     
  -53882407.4680232     
  -53880773.5418486     
  -53879286.1214313     
  -53877942.6977884     
  -53876740.7846648     
  -53875677.9199052     
  -53874751.6664891     
  -53873959.6132267     
  -53873299.3751114     
  -53872768.5933263     
  -53872364.9349034     
  -53872086.0920341     
  -53893505.8307179     
  -53885120.9690647     
  -53876922.4069800     
  -53868910.8238462     
  -53861086.7192331     
  -53853450.4187281     
  -53846002.0798747     
  -53838741.6982052     
  -53831669.1133459     
  -53824784.0151797     
  -53818085.9500480     
  -53811574.3269771     
  -53805248.4239122     
  -53799107.3939442     
  -53793150.2715139     
  -53787375.9785815     
  -53781783.3307448     
  -53776371.0432950     
  -53771137.7371966     
  -53766081.9449789     
  -53761202.1165279     
  -53756496.6247667     
  -53751963.7712134     
  -53747601.7914065     
  -53743408.8601876     
  -53739383.0968305     
  -53735522.5700096     
  -53731825.3025967     
  -53728289.2762783     
  -53724912.4359861     
  -53721692.6941310     
  -53718627.9346355     
  -53715716.0167551     
  -53712954.7786837     
  -53710342.0409359     
  -53707875.6095002     
  -53705553.2787572     
  -53703372.8341587     
  -53701332.0546606     
  -53699428.7149073     
  -53697660.5871623     
  -53696025.4429805     
  -53694521.0546210     
  -53693145.1961945     
  -53691895.6445455     
  -53690770.1798653     
  -53689766.5860350     
  -53688882.6506968     
  -53688116.1650533     
  -53687464.9233950     
  -53710484.1684166     
  -53702600.7857472     
  -53694878.2097997     
  -53687317.3371217     
  -53679918.9099578     
  -53672683.5204319     
  -53665611.6148456     
  -53658703.4980811     
  -53651959.3380888     
  -53645379.1704497     
  -53638962.9029944     
  -53632710.3204681     
  -53626621.0892258     
  -53620694.7619461     
  -53614930.7823500     
  -53609328.4899127     
  -53603887.1245564     
  -53598605.8313128     
  -53593483.6649434     
  -53588519.5945073     
  -53583712.5078657     
  -53579061.2161139     
  -53574564.4579297     
  -53570220.9038294     
  -53566029.1603235     
  -53561987.7739611     
  -53558095.2352576     
  -53554349.9824949     
  -53550750.4053886     
  -53547294.8486148     
  -53543981.6151874     
  -53540808.9696832     
  -53537775.1413048     
  -53534878.3267779     
  -53532116.6930772     
  -53529488.3799740     
  -53526991.5024041     
  -53524624.1526476     
  -53522384.4023201     
  -53520270.3041694     
  -53518279.8936756     
  -53516411.1904504     
  -53514662.1994356     
  -53513030.9118952     
  -53511515.3062027     
  -53510113.3484205     
  -53508822.9926711     
  -53507642.1812993     
  -53506568.8448267     
  -53505600.9016977     
  -53528406.7239946     
  -53521010.9734653     
  -53513754.2678050     
  -53506637.6156523     
  -53499661.8938367     
  -53492827.8502989     
  -53486136.1071255     
  -53479587.1636885     
  -53473181.3998739     
  -53466919.0793911     
  -53460800.3531477     
  -53454825.2626823     
  -53448993.7436392     
  -53443305.6292793     
  -53437760.6540119     
  -53432358.4569400     
  -53427098.5854072     
  -53421980.4985377     
  -53417003.5707586     
  -53412167.0952960     
  -53407470.2876358     
  -53402912.2889401     
  -53398492.1694112     
  -53394208.9315956     
  -53390061.5136184     
  -53386048.7923438     
  -53382169.5864508     
  -53378422.6594202     
  -53374806.7224252     
  -53371320.4371193     
  -53367962.4183153     
  -53364731.2365518     
  -53361625.4205384     
  -53358643.4594786     
  -53355783.8052627     
  -53353044.8745281     
  -53350425.0505827     
  -53347922.6851870     
  -53345536.1001936     
  -53343263.5890386     
  -53341103.4180843     
  -53339053.8278108     
  -53337113.0338534     
  -53335279.2278857     
  -53333550.5783470     
  -53331925.2310127     
  -53330401.3094085     
  -53328976.9150672     
  -53327650.1276303     
  -53326419.0047933     
  -53347524.1207632     
  -53340598.9662327     
  -53333794.2641499     
  -53327111.0620668     
  -53320550.2952525     
  -53314112.7886646     
  -53307799.2590287     
  -53301610.3170160     
  -53295546.4695102     
  -53289608.1219527     
  -53283795.5807582     
  -53278109.0557891     
  -53272548.6628825     
  -53267114.4264186     
  -53261806.2819220     
  -53256624.0786877     
  -53251567.5824244     
  -53246636.4779043     
  -53241830.3716139     
  -53237148.7943970     
  -53232591.2040822     
  -53228156.9880882     
  -53223845.4659993     
  -53219655.8921050     
  -53215587.4578960     
  -53211639.2945120     
  -53207810.4751334     
  -53204100.0173125     
  -53200506.8852385     
  -53197029.9919298     
  -53193668.2013513     
  -53190420.3304485     
  -53187285.1510976     
  -53184261.3919645     
  -53181347.7402714     
  -53178542.8434647     
  -53175845.3107845     
  -53173253.7147289     
  -53170766.5924138     
  -53168382.4468241     
  -53166099.7479544     
  -53163916.9338384     
  -53161832.4114650     
  -53159844.5575801     
  -53157951.7193738     
  -53156152.2150526     
  -53154444.3342961     
  -53152826.3385996     
  -53151296.4615023     
  -53149852.9087028     
  -53168017.9525051     
  -53161545.0054637     
  -53155176.6024103     
  -53148913.7805988     
  -53142757.4817491     
  -53136708.5533198     
  -53130767.7498788     
  -53124935.7345639     
  -53119213.0806266     
  -53113600.2730504     
  -53108097.7102373     
  -53102705.7057540     
  -53097424.4901308     
  -53092254.2127069     
  -53087194.9435130     
  -53082246.6751861     
  -53077409.3249094     
  -53072682.7363696     
  -53068066.6817255     
  -53063560.8635829     
  -53059164.9169676     
  -53054878.4112914     
  -53050700.8523063     
  -53046631.6840393     
  -53042670.2907040     
  -53038815.9985832     
  -53035068.0778774     
  -53031425.7445152     
  -53027888.1619196     
  -53024454.4427277     
  -53021123.6504578     
  -53017894.8011223     
  -53014766.8647803     
  -53011738.7670284     
  -53008809.3904265     
  -53005977.5758540     
  -53003242.1237957     
  -53000601.7955549     
  -52998055.3143900     
  -52995601.3665749     
  -52993238.6023798     
  -52990965.6369731     
  -52988781.0512414     
  -52986683.3925281     
  -52984671.1752905     
  -52982742.8816742     
  -52980896.9620058     
  -52979131.8352044     
  -52977445.8891117     
  -52975837.4807436     
  -52990012.4209274     
  -52983973.1736135     
  -52978024.8313813     
  -52972168.3896166     
  -52966404.7624107     
  -52960734.7833302     
  -52955159.2062723     
  -52949678.7064014     
  -52944293.8811600     
  -52939005.2513496     
  -52933813.2622728     
  -52928718.2849347     
  -52923720.6172938     
  -52918820.4855608     
  -52914018.0455355     
  -52909313.3839799     
  -52904706.5200195     
  -52900197.4065696     
  -52895785.9317792     
  -52891471.9204889     
  -52887255.1356978     
  -52883135.2800340     
  -52879111.9972236     
  -52875184.8735557     
  -52871353.4393361     
  -52867617.1703283     
  -52863975.4891758     
  -52860427.7668025     
  -52856973.3237882     
  -52853611.4317142     
  -52850341.3144774     
  -52847162.1495680     
  -52844073.0693098     
  -52841073.1620586     
  -52838161.4733576     
  -52835337.0070465     
  -52832598.7263225     
  -52829945.5547523     
  -52827376.3772320     
  -52824890.0408938     
  -52822485.3559594     
  -52820161.0965385     
  -52817916.0013705     
  -52815748.7745110     
  -52813658.0859622     
  -52811642.5722456     
  -52809700.8369197     
  -52807831.4510420     
  -52806032.9535753     
  -52804303.8517413     
  -52813584.1690291     
  -52807960.7835691     
  -52802416.5834575     
  -52796952.5033375     
  -52791569.4085883     
  -52786268.0957409     
  -52781049.2929686     
  -52775913.6606484     
  -52770861.7919889     
  -52765894.2137194     
  -52761011.3868362     
  -52756213.7074015     
  -52751501.5073915     
  -52746875.0555868     
  -52742334.5585040     
  -52737880.1613612     
  -52733511.9490751     
  -52729229.9472847     
  -52725034.1233978     
  -52720924.3876563     
  -52716900.5942152     
  -52712962.5422345     
  -52709109.9769763     
  -52705342.5909064     
  -52701660.0247966     
  -52698061.8688226     
  -52694547.6636559     
  -52691116.9015468     
  -52687769.0273938     
  -52684503.4397988     
  -52681319.4921035     
  -52678216.4934061     
  -52675193.7095546     
  -52672250.3641160     
  -52669385.6393178     
  -52666598.6769614     
  -52663888.5793050     
  -52661254.4099143     
  -52658695.1944812     
  -52656209.9216065     
  -52653797.5435498     
  -52651456.9769414     
  -52649187.1034593     
  -52646986.7704694     
  -52644854.7916279     
  -52642789.9474485     
  -52640790.9858318     
  -52638856.6225594     
  -52636985.5417528     
  -52635176.3962972     
  -52638770.4949258     
  -52633546.2733903     
  -52628391.1424479     
  -52623305.9660259     
  -52618291.5489095     
  -52613348.6369171     
  -52608477.9171399     
  -52603680.0182421     
  -52598955.5108185     
  -52594304.9078066     
  -52589728.6649491     
  -52585227.1813043     
  -52580800.7997997     
  -52576449.8078275     
  -52572174.4378764     
  -52567974.8681979     
  -52563851.2235039     
  -52559803.5756906     
  -52555831.9445882     
  -52551936.2987309     
  -52548116.5561457     
  -52544372.5851561     
  -52540704.2051984     
  -52537111.1876473     
  -52533593.2566486     
  -52530150.0899557     
  -52526781.3197679     
  -52523486.5335683     
  -52520265.2749580     
  -52517117.0444851     
  -52514041.3004666     
  -52511037.4598010     
  -52508104.8987691     
  -52505242.9538227     
  -52502450.9223581     
  -52499728.0634745     
  -52497073.5987148     
  -52494486.7127876     
  -52491966.5542712     
  -52489512.2362961     
  -52487122.8372074     
  -52484797.4012057     
  -52482534.9389660     
  -52480334.4282346     
  -52478194.8144040     
  -52476115.0110659     
  -52474093.9005422     
  -52472130.3343943     
  -52470223.1339125     
  -52468371.0905841     
  -52465576.1508279     
  -52460735.7819645     
  -52455955.7880363     
  -52451236.9583226     
  -52446580.0314603     
  -52441985.6954623     
  -52437454.5877901     
  -52432987.2954780     
  -52428584.3553064     
  -52424246.2540224     
  -52419973.4286041     
  -52415766.2665685     
  -52411625.1063161     
  -52407550.2375147     
  -52403541.9015170     
  -52399600.2918090     
  -52395725.5544897     
  -52391917.7887760     
  -52388177.0475333     
  -52384503.3378280     
  -52380896.6214994     
  -52377356.8157502     
  -52373883.7937509     
  -52370477.3852586     
  -52367137.3772463     
  -52363863.5145409     
  -52360655.5004694     
  -52357512.9975085     
  -52354435.6279395     
  -52351422.9745030     
  -52348474.5810553     
  -52345589.9532221     
  -52342768.5590498     
  -52340009.8296526     
  -52337313.1598537     
  -52334677.9088205     
  -52332103.4006921     
  -52329588.9251977     
  -52327133.7382666     
  -52324737.0626276     
  -52322398.0883988     
  -52320115.9736653     
  -52317889.8450470     
  -52315718.7982545     
  -52313601.8986332     
  -52311538.1816966     
  -52309526.6536487     
  -52307566.2918947     
  -52305656.0455423     
  -52303794.8358924     
  -52293978.9317987     
  -52289508.5864817     
  -52285091.0745424     
  -52280727.1106116     
  -52276417.3658146     
  -52272162.4676932     
  -52267963.0001724     
  -52263819.5035709     
  -52259732.4746535     
  -52255702.3667243     
  -52251729.5897563     
  -52247814.5105602     
  -52243957.4529856     
  -52240158.6981559     
  -52236418.4847355     
  -52232737.0092234     
  -52229114.4262769     
  -52225550.8490589     
  -52222046.3496102     
  -52218600.9592426     
  -52215214.6689531     
  -52211887.4298561     
  -52208619.1536319     
  -52205409.7129913     
  -52202258.9421526     
  -52199166.6373316     
  -52196132.5572406     
  -52193156.4235981     
  -52190237.9216447     
  -52187376.7006658     
  -52184572.3745198     
  -52181824.5221691     
  -52179132.6882147     
  -52176496.3834330     
  -52173915.0853113     
  -52171388.2385860     
  -52168915.2557781     
  -52166495.5177273     
  -52164128.3741255     
  -52161813.1440453     
  -52159549.1164674     
  -52157335.5508038     
  -52155171.6774172     
  -52153056.6981377     
  -52150989.7867737     
  -52148970.0896212     
  -52146996.7259686     
  -52145068.7885972     
  -52143185.3442805     
  -52141345.4342791     
  -52123934.2466184     
  -52119821.5751381     
  -52115755.1987389     
  -52111735.7598091     
  -52107763.8632345     
  -52103840.0762663     
  -52099964.9284259     
  -52096138.9114466     
  -52092362.4792507     
  -52088636.0479604     
  -52084959.9959414     
  -52081334.6638781     
  -52077760.3548797     
  -52074237.3346138     
  -52070765.8314689     
  -52067346.0367424     
  -52063978.1048537     
  -52060662.1535806     
  -52057398.2643183     
  -52054186.4823589     
  -52051026.8171909     
  -52047919.2428164     
  -52044863.6980860     
  -52041860.0870488     
  -52038908.2793177     
  -52036008.1104476     
  -52033159.3823261     
  -52030361.8635753     
  -52027615.2899637     
  -52024919.3648279     
  -52022273.7595013     
  -52019678.1137513     
  -52017132.0362222     
  -52014635.1048843     
  -52012186.8674876     
  -52009786.8420199     
  -52007434.5171690     
  -52005129.3527873     
  -52002870.7803602     
  -52000658.2034755     
  -51998490.9982960     
  -51996368.5140331     
  -51994290.0734223     
  -51992254.9731999     
  -51990262.4845808     
  -51988311.8537390     
  -51986402.3022877     
  -51984533.0277623     
  -51982703.2041050     
  -51980911.9821518     
  -51955378.8441541     
  -51951612.9136750     
  -51947887.6006478     
  -51944203.4789559     
  -51940561.0900464     
  -51936960.9427732     
  -51933403.5132706     
  -51929889.2448572     
  -51926418.5479694     
  -51922991.8001238     
  -51919609.3459071     
  -51916271.4969935     
  -51912978.5321874     
  -51909730.6974923     
  -51906528.2062030     
  -51903371.2390211     
  -51900259.9441936     
  -51897194.4376720     
  -51894174.8032917     
  -51891201.0929717     
  -51888273.3269320     
  -51885391.4939283     
  -51882555.5515040     
  -51879765.4262576     
  -51877021.0141246     
  -51874322.1806737     
  -51871668.7614156     
  -51869060.5621248     
  -51866497.3591720     
  -51863978.8998680     
  -51861504.9028171     
  -51859075.0582799     
  -51856689.0285454     
  -51854346.4483100     
  -51852046.9250657     
  -51849790.0394938     
  -51847575.3458660     
  -51845402.3724517     
  -51843270.6219311     
  -51841179.5718134     
  -51839128.6748608     
  -51837117.3595169     
  -51835145.0303411     
  -51833211.0684466     
  -51831314.8319433     
  -51829455.6563866     
  -51827632.8552291     
  -51825845.7202790     
  -51824093.5221620     
  -51822375.5107895     
  -51788233.8469120     
  -51784805.0460669     
  -51781411.9262877     
  -51778054.9972856     
  -51774734.7406334     
  -51771451.6096019     
  -51768206.0290225     
  -51764998.3951750     
  -51761829.0756995     
  -51758698.4095327     
  -51755606.7068675     
  -51752554.2491364     
  -51749541.2890162     
  -51746568.0504546     
  -51743634.7287188     
  -51740741.4904630     
  -51737888.4738168     
  -51735075.7884923     
  -51732303.5159094     
  -51729571.7093387     
  -51726880.3940619     
  -51724229.5675480     
  -51721619.1996453     
  -51719049.2327889     
  -51716519.5822216     
  -51714030.1362292     
  -51711580.7563886     
  -51709171.2778289     
  -51706801.5095035     
  -51704471.2344744     
  -51702180.2102071     
  -51699928.1688753     
  -51697714.8176764     
  -51695539.8391558     
  -51693402.8915399     
  -51691303.6090786     
  -51689241.6023955     
  -51687216.4588457     
  -51685227.7428818     
  -51683274.9964276     
  -51681357.7392579     
  -51679475.4693860     
  -51677627.6634588     
  -51675813.7771570     
  -51674033.2456033     
  -51672285.4837773     
  -51670569.8869360     
  -51668885.8310426     
  -51667232.6732009     
  -51665609.7520972     
  -51622407.2213817     
  -51619307.1504080     
  -51616238.4648177     
  -51613201.6145945     
  -51610197.0252525     
  -51607225.0976776     
  -51604286.2079930     
  -51601380.7074429     
  -51598508.9222988     
  -51595671.1537843     
  -51592867.6780210     
  -51590098.7459929     
  -51587364.5835305     
  -51584665.3913128     
  -51582001.3448885     
  -51579372.5947140     
  -51576779.2662089     
  -51574221.4598290     
  -51571699.2511548     
  -51569212.6909958     
  -51566761.8055113     
  -51564346.5963453     
  -51561967.0407753     
  -51559623.0918766     
  -51557314.6786985     
  -51555041.7064548     
  -51552804.0567264     
  -51550601.5876755     
  -51548434.1342731     
  -51546301.5085358     
  -51544203.4997756     
  -51542139.8748586     
  -51540110.3784748     
  -51538114.7334181     
  -51536152.6408747     
  -51534223.7807217     
  -51532327.8118349     
  -51530464.3724042     
  -51528633.0802589     
  -51526833.5332004     
  -51525065.3093434     
  -51523327.9674656     
  -51521621.0473640     
  -51519944.0702206     
  -51518296.5389746     
  -51516677.9387032     
  -51515087.7370090     
  -51513525.3844167     
  -51511990.3147757     
  -51510481.9456718     
  -51457795.7938883     
  -51455017.1523825     
  -51452266.1560634     
  -51449543.1994421     
  -51446848.6557141     
  -51444182.8766152     
  -51441546.1922951     
  -51438938.9112079     
  -51436361.3200203     
  -51433813.6835353     
  -51431296.2446340     
  -51428809.2242330     
  -51426352.8212577     
  -51423927.2126322     
  -51421532.5532846     
  -51419168.9761672     
  -51416836.5922923     
  -51414535.4907823     
  -51412265.7389343     
  -51410027.3822993     
  -51407820.4447741     
  -51405644.9287077     
  -51403500.8150201     
  -51401388.0633341     
  -51399306.6121196     
  -51397256.3788501     
  -51395237.2601703     
  -51393249.1320766     
  -51391291.8501073     
  -51389365.2495442     
  -51387469.1456257     
  -51385603.3337686     
  -51383767.5898009     
  -51381961.6702050     
  -51380185.3123689     
  -51378438.2348481     
  -51376720.1376362     
  -51375030.7024442     
  -51373369.5929889     
  -51371736.4552895     
  -51370130.9179737     
  -51368552.5925908     
  -51367001.0739336     
  -51365475.9403688     
  -51363976.7541754     
  -51362503.0618901     
  -51361054.3946622     
  -51359630.2686153     
  -51358230.1852177     
  -51356853.6316602     
  -51294286.9017756     
  -51291823.3815632     
  -51289384.2490024     
  -51286969.8470214     
  -51284580.4999687     
  -51282216.5134866     
  -51279878.1743972     
  -51277565.7506040     
  -51275279.4910075     
  -51273019.6254341     
  -51270786.3645794     
  -51268579.8999655     
  -51266400.4039112     
  -51264248.0295166     
  -51262122.9106608     
  -51260025.1620116     
  -51257954.8790506     
  -51255912.1381086     
  -51253896.9964148     
  -51251909.4921585     
  -51249949.6445626     
  -51248017.4539687     
  -51246112.9019346     
  -51244235.9513428     
  -51242386.5465207     
  -51240564.6133708     
  -51238770.0595134     
  -51237002.7744379     
  -51235262.6296665     
  -51233549.4789261     
  -51231863.1583318     
  -51230203.4865787     
  -51228570.2651447     
  -51226963.2785012     
  -51225382.2943344     
  -51223827.0637744     
  -51222297.3216337     
  -51220792.7866545     
  -51219313.1617645     
  -51217858.1343407     
  -51216427.3764821     
  -51215020.5452903     
  -51213637.2831582     
  -51212277.2180665     
  -51210939.9638891     
  -51209625.1207046     
  -51208332.2751175     
  -51207061.0005860     
  -51205810.8577581     
  -51204581.3948148     
  -51131759.7532203     
  -51129605.9406076     
  -51127473.6779513     
  -51125363.2600377     
  -51123274.9654689     
  -51121209.0565534     
  -51119165.7792081     
  -51117145.3628727     
  -51115148.0204349     
  -51113173.9481675     
  -51111223.3256778     
  -51109296.3158676     
  -51107393.0649054     
  -51105513.7022099     
  -51103658.3404442     
  -51101827.0755224     
  -51100019.9866265     
  -51098237.1362344     
  -51096478.5701593     
  -51094744.3175988     
  -51093034.3911960     
  -51091348.7871100     
  -51089687.4850972     
  -51088050.4486028     
  -51086437.6248617     
  -51084848.9450107     
  -51083284.3242085     
  -51081743.6617669     
  -51080226.8412907     
  -51078733.7308268     
  -51077264.1830222     
  -51075818.0352919     
  -51074395.1099949     
  -51072995.2146185     
  -51071618.1419721     
  -51070263.6703886     
  -51068931.5639350     
  -51067621.5726295     
  -51066333.4326690     
  -51065066.8666622     
  -51063821.5838724     
  -51062597.2804666     
  -51061393.6397733     
  -51060210.3325475     
  -51059047.0172427     
  -51057903.3402915     
  -51056778.9363923     
  -51055673.4288040     
  -51054586.4296477     
  -51053517.5402161     
  -50970086.5549073     
  -50968237.8443588     
  -50966408.2111590     
  -50964597.9049176     
  -50962807.1611777     
  -50961036.2013242     
  -50959285.2325008     
  -50957554.4475377     
  -50955844.0248881     
  -50954154.1285747     
  -50952484.9081462     
  -50950836.4986431     
  -50949209.0205727     
  -50947602.5798954     
  -50946017.2680183     
  -50944453.1618003     
  -50942910.3235656     
  -50941388.8011273     
  -50939888.6278195     
  -50938409.8225396     
  -50936952.3897991     
  -50935516.3197840     
  -50934101.5884241     
  -50932708.1574708     
  -50931335.9745842     
  -50929984.9734288     
  -50928655.0737776     
  -50927346.1816252     
  -50926058.1893084     
  -50924790.9756360     
  -50923544.4060265     
  -50922318.3326534     
  -50921112.5945992     
  -50919927.0180166     
  -50918761.4162981     
  -50917615.5902524     
  -50916489.3282897     
  -50915382.4066126     
  -50914294.5894160     
  -50913225.6290937     
  -50912175.2664521     
  -50911143.2309306     
  -50910129.2408301     
  -50909133.0035476     
  -50908154.2158179     
  -50907192.5639619     
  -50906247.7241420     
  -50905319.3626242     
  -50904407.1360460     
  -50903510.6916922     
  -50809133.4550493     
  -50807585.9748754     
  -50806055.4162836     
  -50804541.9862073     
  -50803045.8794046     
  -50801567.2783835     
  -50800106.3533332     
  -50798663.2620646     
  -50797238.1499579     
  -50795831.1499185     
  -50794442.3823412     
  -50793071.9550821     
  -50791719.9634388     
  -50790386.4901388     
  -50789071.6053351     
  -50787775.3666116     
  -50786497.8189945     
  -50785238.9949733     
  -50783998.9145290     
  -50782777.5851702     
  -50781575.0019777     
  -50780391.1476560     
  -50779225.9925934     
  -50778079.4949298     
  -50776951.6006310     
  -50775842.2435724     
  -50774751.3456285     
  -50773678.8167711     
  -50772624.5551742     
  -50771588.4473262     
  -50770570.3681498     
  -50769570.1811284     
  -50768587.7384401     
  -50767622.8810982     
  -50766675.4390991     
  -50765745.2315767     
  -50764832.0669637     
  -50763935.7431590     
  -50763056.0477030     
  -50762192.7579578     
  -50761345.6412950     
  -50760514.4552896     
  -50759698.9479198     
  -50758898.8577734     
  -50758113.9142602     
  -50757343.8378308     
  -50756588.3402007     
  -50755847.1245810     
  -50755119.8859146     
  -50754406.3111185     
  -50648761.3396239     
  -50647511.8893438     
  -50646277.4787201     
  -50645058.2740764     
  -50643854.4312693     
  -50642666.0956271     
  -50641493.4018952     
  -50640336.4741877     
  -50639195.4259456     
  -50638070.3599012     
  -50636961.3680504     
  -50635868.5316303     
  -50634791.9211042     
  -50633731.5961532     
  -50632687.6056745     
  -50631659.9877865     
  -50630648.7698409     
  -50629653.9684409     
  -50628675.5894664     
  -50627713.6281067     
  -50626768.0688986     
  -50625838.8857718     
  -50624926.0421012     
  -50624029.4907654     
  -50623149.1742115     
  -50622285.0245273     
  -50621436.9635190     
  -50620604.9027961     
  -50619788.7438618     
  -50618988.3782108     
  -50618203.6874325     
  -50617434.5433205     
  -50616680.8079889     
  -50615942.3339940     
  -50615218.9644618     
  -50614510.5332230     
  -50613816.8649514     
  -50613137.7753108     
  -50612473.0711057     
  -50611822.5504386     
  -50611186.0028729     
  -50610563.2096010     
  -50609953.9436186     
  -50609357.9699035     
  -50608775.0456006     
  -50608204.9202120     
  -50607647.3357921     
  -50607102.0271480     
  -50606568.7220455     
  -50606047.1414190     
  -50488826.5119502     
  -50487872.5104653     
  -50486931.9017785     
  -50486004.8132803     
  -50485091.3634528     
  -50484191.6618210     
  -50483305.8089101     
  -50482433.8962067     
  -50481576.0061272     
  -50480732.2119896     
  -50479902.5779928     
  -50479087.1591994     
  -50478286.0015256     
  -50477499.1417358     
  -50476726.6074430     
  -50475968.4171144     
  -50475224.5800840     
  -50474495.0965685     
  -50473779.9576911     
  -50473079.1455093     
  -50472392.6330493     
  -50471720.3843454     
  -50471062.3544852     
  -50470418.4896601     
  -50469788.7272221     
  -50469172.9957449     
  -50468571.2150916     
  -50467983.2964874     
  -50467409.1425971     
  -50466848.6476094     
  -50466301.6973250     
  -50465768.1692510     
  -50465247.9327006     
  -50464740.8488967     
  -50464246.7710826     
  -50463765.5446363     
  -50463297.0071901     
  -50462840.9887567     
  -50462397.3118575     
  -50461965.7916583     
  -50461546.2361087     
  -50461138.4460866     
  -50460742.2155470     
  -50460357.3316761     
  -50459983.5750496     
  -50459620.7197959     
  -50459268.5337632     
  -50458926.7786917     
  -50458595.2103899     
  -50458273.5789150     
  -50329181.2795627     
  -50328520.7230150     
  -50327872.1121000     
  -50327235.5366075     
  -50326611.0788569     
  -50325998.8136597     
  -50325398.8082863     
  -50324811.1224372     
  -50324235.8082181     
  -50323672.9101201     
  -50323122.4650033     
  -50322584.5020856     
  -50322059.0429361     
  -50321546.1014720     
  -50321045.6839612     
  -50320557.7890287     
  -50320082.4076681     
  -50319619.5232570     
  -50319169.1115780     
  -50318731.1408434     
  -50318305.5717248     
  -50317892.3573877     
  -50317491.4435298     
  -50317102.7684250     
  -50316726.2629712     
  -50316361.8507427     
  -50316009.4480480     
  -50315668.9639905     
  -50315340.3005357     
  -50315023.3525811     
  -50314718.0080317     
  -50314424.1478794     
  -50314141.6462872     
  -50313870.3706769     
  -50313610.1818225     
  -50313360.9339465     
  -50313122.4748213     
  -50312894.6458744     
  -50312677.2822983     
  -50312470.2131635     
  -50312273.2615367     
  -50312086.2446024     
  -50311908.9737886     
  -50311741.2548964     
  -50311582.8882333     
  -50311433.6687509     
  -50311293.3861858     
  -50311161.8252044     
  -50311038.7655512     
  -50310923.9822010     
  -50169674.4675143     
  -50169305.8956234     
  -50168947.9892362     
  -50168600.8015752     
  -50168264.3797341     
  -50167938.7646503     
  -50167623.9910803     
  -50167320.0875778     
  -50167027.0764768     
  -50166744.9738762     
  -50166473.7896294     
  -50166213.5273371     
  -50165964.1843428     
  -50165725.7517327     
  -50165498.2143396     
  -50165281.5507491     
  -50165075.7333107     
  -50164880.7281519     
  -50164696.4951963     
  -50164522.9881853     
  -50164360.1547032     
  -50164207.9362066     
  -50164066.2680573     
  -50163935.0795584     
  -50163814.2939947     
  -50163703.8286765     
  -50163603.5949875     
  -50163513.4984357     
  -50163433.4387083     
  -50163363.3097305     
  -50163302.9997275     
  -50163252.3912901     
  -50163211.3614444     
  -50163179.7817242     
  -50163157.5182481     
  -50163144.4317985     
  -50163140.3779060     
  -50163145.2069351     
  -50163158.7641753     
  -50163180.8899340     
  -50163211.4196341     
  -50163250.1839133     
  -50163297.0087283     
  -50163351.7154608     
  -50163414.1210277     
  -50163484.0379937     
  -50163561.2746875     
  -50163645.6353206     
  -50163736.9201092     
  -50163834.9253991     
  -50010151.8735068     
  -50010074.3432099     
  -50010006.3348185     
  -50009947.8657635     
  -50009898.9486139     
  -50009859.5910573     
  -50009829.7958821     
  -50009809.5609629     
  -50009798.8792485     
  -50009797.7387519     
  -50009806.1225440     
  -50009824.0087484     
  -50009851.3705411     
  -50009888.1761506     
  -50009934.3888630     
  -50009989.9670279     
  -50010054.8640687     
  -50010129.0284946     
  -50010212.4039164     
  -50010304.9290643     
  -50010406.5378090     
  -50010517.1591858     
  -50010636.7174215     
  -50010765.1319636     
  -50010902.3175131     
  -50011048.1840602     
  -50011202.6369224     
  -50011365.5767854     
  -50011536.8997477     
  -50011716.4973666     
  -50011904.2567092     
  -50012100.0604034     
  -50012303.7866945     
  -50012515.3095025     
  -50012734.4984835     
  -50012961.2190927     
  -50013195.3326514     
  -50013436.6964155     
  -50013685.1636475     
  -50013940.5836907     
  -50014202.8020462     
  -50014471.6604521     
  -50014746.9969667     
  -50015028.6460512     
  -50015316.4386587     
  -50015610.2023225     
  -50015909.7612485     
  -50016214.9364092     
  -50016525.5456408     
  -50016841.4037414     
  -49850456.6773869     
  -49850669.7427083     
  -49850891.2940332     
  -49851121.3135554     
  -49851359.7798168     
  -49851606.6676951     
  -49851861.9483912     
  -49852125.5894211     
  -49852397.5546080     
  -49852677.8040767     
  -49852966.2942499     
  -49853262.9778465     
  -49853567.8038819     
  -49853880.7176703     
  -49854201.6608282     
  -49854530.5712817     
  -49854867.3832741     
  -49855212.0273763     
  -49855564.4304993     
  -49855924.5159089     
  -49856292.2032419     
  -49856667.4085248     
  -49857050.0441948     
  -49857440.0191228     
  -49857837.2386380     
  -49858241.6045550     
  -49858653.0152033     
  -49859071.3654586     
  -49859496.5467756     
  -49859928.4472246     
  -49860366.9515280     
  -49860811.9411004     
  -49861263.2940904     
  -49861720.8854245     
  -49862184.5868522     
  -49862654.2669948     
  -49863129.7913945     
  -49863611.0225668     
  -49864097.8200539     
  -49864590.0404807     
  -49865087.5376125     
  -49865590.1624143     
  -49866097.7631131     
  -49866610.1852603     
  -49867127.2717976     
  -49867648.8631238     
  -49868174.7971635     
  -49868704.9094379     
  -49869239.0331369     
  -49869776.9991928     
  -49690429.8153998     
  -49690933.5126191     
  -49691444.7400557     
  -49691963.4450297     
  -49692489.5723790     
  -49693023.0644524     
  -49693563.8611032     
  -49694111.8996849     
  -49694667.1150481     
  -49695229.4395375     
  -49695798.8029911     
  -49696375.1327404     
  -49696958.3536118     
  -49697548.3879291     
  -49698145.1555176     
  -49698748.5737092     
  -49699358.5573491     
  -49699975.0188037     
  -49700597.8679696     
  -49701227.0122847     
  -49701862.3567393     
  -49702503.8038902     
  -49703151.2538749     
  -49703804.6044278     
  -49704463.7508976     
  -49705128.5862659     
  -49705799.0011676     
  -49706474.8839123     
  -49707156.1205074     
  -49707842.5946823     
  -49708534.1879135     
  -49709230.7794530     
  -49709932.2463553     
  -49710638.4635079     
  -49711349.3036620     
  -49712064.6374654     
  -49712784.3334959     
  -49713508.2582966     
  -49714236.2764122     
  -49714968.2504266     
  -49715704.0410022     
  -49716443.5069198     
  -49717186.5051202     
  -49717932.8907473     
  -49718682.5171914     
  -49719435.2361351     
  -49720190.8975993     
  -49720949.3499905     
  -49721710.4401500     
  -49722474.0134033     
  -49529910.3280044     
  -49530705.1653482     
  -49531506.6305440     
  -49532314.6362341     
  -49533129.0937223     
  -49533949.9129731     
  -49534777.0026098     
  -49535610.2699145     
  -49536449.6208277     
  -49537294.9599489     
  -49538146.1905373     
  -49539003.2145138     
  -49539865.9324629     
  -49540734.2436353     
  -49541608.0459513     
  -49542487.2360054     
  -49543371.7090693     
  -49544261.3590990     
  -49545156.0787390     
  -49546055.7593297     
  -49546960.2909144     
  -49547869.5622466     
  -49548783.4607991     
  -49549701.8727726     
  -49550624.6831057     
  -49551551.7754852     
  -49552483.0323576     
  -49553418.3349404     
  -49554357.5632349     
  -49555300.5960392     
  -49556247.3109622     
  -49557197.5844384     
  -49558151.2917422     
  -49559108.3070050     
  -49560068.5032306     
  -49561031.7523134     
  -49561997.9250557     
  -49562966.8911869     
  -49563938.5193818     
  -49564912.6772817     
  -49565889.2315138     
  -49566868.0477134     
  -49567848.9905452     
  -49568831.9237260     
  -49569816.7100476     
  -49570803.2114011     
  -49571791.2888006     
  -49572780.8024087     
  -49573771.6115618     
  -49574763.5747964     
  -49368735.6888923     
  -49369822.6401418     
  -49370915.3441533     
  -49372013.6789359     
  -49373117.5222936     
  -49374226.7518292     
  -49375341.2449470     
  -49376460.8788559     
  -49377585.5305727     
  -49378715.0769243     
  -49379849.3945514     
  -49380988.3599101     
  -49382131.8492756     
  -49383279.7387436     
  -49384431.9042336     
  -49385588.2214912     
  -49386748.5660899     
  -49387912.8134341     
  -49389080.8387606     
  -49390252.5171415     
  -49391427.7234860     
  -49392606.3325425     
  -49393788.2189007     
  -49394973.2569941     
  -49396161.3211016     
  -49397352.2853493     
  -49398546.0237136     
  -49399742.4100222     
  -49400941.3179565     
  -49402142.6210536     
  -49403346.1927085     
  -49404551.9061761     
  -49405759.6345730     
  -49406969.2508798     
  -49408180.6279432     
  -49409393.6384781     
  -49410608.1550698     
  -49411824.0501759     
  -49413041.1961288     
  -49414259.4651379     
  -49415478.7292920     
  -49416698.8605610     
  -49417919.7307992     
  -49419141.2117469     
  -49420363.1750337     
  -49421585.4921799     
  -49422808.0346002     
  -49424030.6736057     
  -49425253.2804067     
  -49426475.7261156     
  -49206742.1220499     
  -49208122.6236213     
  -49209508.0042279     
  -49210898.1071513     
  -49212292.7766040     
  -49213691.8577379     
  -49215095.1966513     
  -49216502.6403956     
  -49217914.0369809     
  -49219329.2353815     
  -49220748.0855399     
  -49222170.4383706     
  -49223596.1457630     
  -49225025.0605836     
  -49226457.0366774     
  -49227891.9288687     
  -49229329.5929611     
  -49230769.8857367     
  -49232212.6649546     
  -49233657.7893490     
  -49235105.1186258     
  -49236554.5134596     
  -49238005.8354888     
  -49239458.9473109     
  -49240913.7124768     
  -49242369.9954840     
  -49243827.6617701     
  -49245286.5777040     
  -49246746.6105785     
  -49248207.6286003     
  -49249669.5008805     
  -49251132.0974240     
  -49252595.2891183     
  -49254058.9477216     
  -49255522.9458508     
  -49256987.1569677     
  -49258451.4553658     
  -49259915.7161560     
  -49261379.8152512     
  -49262843.6293514     
  -49264307.0359273     
  -49265769.9132036     
  -49267232.1401419     
  -49268693.5964233     
  -49270154.1624294     
  -49271613.7192242     
  -49273072.1485344     
  -49274529.3327296     
  -49275985.1548029     
  -49277439.4983487     
  -49043764.9131678     
  -49045440.8643828     
  -49047120.7962905     
  -49048804.5172154     
  -49050491.8375652     
  -49052182.5698445     
  -49053876.5286651     
  -49055573.5307571     
  -49057273.3949768     
  -49058975.9423148     
  -49060680.9959015     
  -49062388.3810119     
  -49064097.9250688     
  -49065809.4576449     
  -49067522.8104629     
  -49069237.8173946     
  -49070954.3144588     
  -49072672.1398169     
  -49074391.1337685     
  -49076111.1387443     
  -49077831.9992981     
  -49079553.5620972     
  -49081275.6759122     
  -49082998.1916040     
  -49084720.9621107     
  -49086443.8424320     
  -49088166.6896135     
  -49089889.3627280     
  -49091611.7228571     
  -49093333.6330701     
  -49095054.9584023     
  -49096775.5658317     
  -49098495.3242545     
  -49100214.1044588     
  -49101931.7790980     
  -49103648.2226617     
  -49105363.3114463     
  -49107076.9235239     
  -49108788.9387095     
  -49110499.2385285     
  -49112207.7061810     
  -49113914.2265065     
  -49115618.6859465     
  -49117320.9725068     
  -49119020.9757174     
  -49120718.5865929     
  -49122413.6975906     
  -49124106.2025681     
  -49125795.9967397     
  -49127482.9766320     
  -48879638.7213822     
  -48881612.4878110     
  -48883589.2856295     
  -48885568.8878392     
  -48887551.0707074     
  -48889535.6137851     
  -48891522.2999232     
  -48893510.9152859     
  -48895501.2493630     
  -48897493.0949796     
  -48899486.2483042     
  -48901480.5088541     
  -48903475.6794995     
  -48905471.5664648     
  -48907467.9793284     
  -48909464.7310201     
  -48911461.6378162     
  -48913458.5193331     
  -48915455.1985179     
  -48917451.5016378     
  -48919447.2582666     
  -48921442.3012695     
  -48923436.4667859     
  -48925429.5942093     
  -48927421.5261663     
  -48929412.1084920     
  -48931401.1902050     
  -48933388.6234786     
  -48935374.2636111     
  -48937357.9689936     
  -48939339.6010757     
  -48941319.0243293     
  -48943296.1062101     
  -48945270.7171174     
  -48947242.7303519     
  -48949212.0220710     
  -48951178.4712431     
  -48953141.9595989     
  -48955102.3715816     
  -48957059.5942948     
  -48959013.5174489     
  -48960964.0333052     
  -48962911.0366186     
  -48964854.4245784     
  -48966794.0967475     
  -48968729.9549996     
  -48970661.9034550     
  -48972589.8484150     
  -48974513.6982941     
  -48976433.3635512     
  -48714197.8972191     
  -48716472.3171364     
  -48718748.7411703     
  -48721026.9064881     
  -48723306.5547501     
  -48725587.4321320     
  -48727869.2893469     
  -48730151.8816629     
  -48732434.9689188     
  -48734718.3155368     
  -48737001.6905328     
  -48739284.8675237     
  -48741567.6247316     
  -48743849.7449859     
  -48746131.0157222     
  -48748411.2289777     
  -48750690.1813854     
  -48752967.6741635     
  -48755243.5131035     
  -48757517.5085545     
  -48759789.4754049     
  -48762059.2330611     
  -48764326.6054237     
  -48766591.4208605     
  -48768853.5121765     
  -48771112.7165810     
  -48773368.8756528     
  -48775621.8353008     
  -48777871.4457235     
  -48780117.5613646     
  -48782360.0408660     
  -48784598.7470184     
  -48786833.5467086     
  -48789064.3108647     
  -48791290.9143974     
  -48793513.2361405     
  -48795731.1587866     
  -48797944.5688220     
  -48800153.3564577     
  -48802357.4155585     
  -48804556.6435694     
  -48806750.9414396     
  -48808940.2135437     
  -48811124.3676012     
  -48813303.3145928     
  -48815476.9686749     
  -48817645.2470918     
  -48819808.0700854     
  -48821965.3608030     
  -48824117.0452028     
  -48547276.8126634     
  -48549855.2068278     
  -48552434.4718783     
  -48555014.3084776     
  -48557594.4230669     
  -48560174.5278959     
  -48562754.3410493     
  -48565333.5864701     
  -48567911.9939797     
  -48570489.2992940     
  -48573065.2440366     
  -48575639.5757477     
  -48578212.0478907     
  -48580782.4198533     
  -48583350.4569475     
  -48585915.9304032     
  -48588478.6173605     
  -48591038.3008570     
  -48593594.7698116     
  -48596147.8190054     
  -48598697.2490579     
  -48601242.8663998     
  -48603784.4832426     
  -48606321.9175441     
  -48608854.9929701     
  -48611383.5388527     
  -48613907.3901449     
  -48616426.3873710     
  -48618940.3765749     
  -48621449.2092624     
  -48623952.7423423     
  -48626450.8380623     
  -48628943.3639420     
  -48631430.1927024     
  -48633911.2021915     
  -48636386.2753073     
  -48638855.2999162     
  -48641318.1687689     
  -48643774.7794131     
  -48646225.0341016     
  -48648668.8396989     
  -48651106.1075834     
  -48653536.7535466     
  -48655960.6976899     
  -48658377.8643172     
  -48660788.1818255     
  -48663191.5825926     
  -48665588.0028604     
  -48667977.3826180     
  -48670359.6654791     
  -48378710.2095099     
  -48381596.3946481     
  -48384482.1821900     
  -48387367.2354412     
  -48390251.2248471     
  -48393133.8280304     
  -48396014.7298247     
  -48398893.6223039     
  -48401770.2048074     
  -48404644.1839608     
  -48407515.2736923     
  -48410383.1952452     
  -48413247.6771853     
  -48416108.4554044     
  -48418965.2731191     
  -48421817.8808649     
  -48424666.0364866     
  -48427509.5051230     
  -48430348.0591882     
  -48433181.4783474     
  -48436009.5494885     
  -48438832.0666898     
  -48441648.8311817     
  -48444459.6513055     
  -48447264.3424659     
  -48450062.7270808     
  -48452854.6345247     
  -48455639.9010693     
  -48458418.3698184     
  -48461189.8906390     
  -48463954.3200874     
  -48466711.5213311     
  -48469461.3640673     
  -48472203.7244350     
  -48474938.4849245     
  -48477665.5342821     
  -48480384.7674104     
  -48483096.0852644     
  -48485799.3947442     
  -48488494.6085823     
  -48491181.6452278     
  -48493860.4287271     
  -48496530.8885989     
  -48499192.9597073     
  -48501846.5821299     
  -48504491.7010228     
  -48507128.2664815     
  -48509756.2333984     
  -48512375.5613169     
  -48514986.2142824     
  -48208333.5725846     
  -48211531.8791464     
  -48214728.3534178     
  -48217922.6202827     
  -48221114.3132197     
  -48224303.0743485     
  -48227488.5544717     
  -48230670.4131117     
  -48233848.3185419     
  -48237021.9478135     
  -48240190.9867761     
  -48243355.1300940     
  -48246514.0812563     
  -48249667.5525821     
  -48252815.2652203     
  -48255956.9491437     
  -48259092.3431378     
  -48262221.1947844     
  -48265343.2604385     
  -48268458.3052020     
  -48271566.1028890     
  -48274666.4359881     
  -48277759.0956175     
  -48280843.8814757     
  -48283920.6017857     
  -48286989.0732347     
  -48290049.1209076     
  -48293100.5782154     
  -48296143.2868178     
  -48299177.0965413     
  -48302201.8652907     
  -48305217.4589561     
  -48308223.7513146     
  -48311220.6239263     
  -48314207.9660253     
  -48317185.6744060     
  -48320153.6533033     
  -48323111.8142690     
  -48326060.0760420     
  -48328998.3644143     
  -48331926.6120919     
  -48334844.7585514     
  -48337752.7498905     
  -48340650.5386757     
  -48343538.0837839     
  -48346415.3502401     
  -48349282.3090510     
  -48352138.9370335     
  -48354985.2166394     
  -48357821.1357761     
  -48035983.5350801     
  -48039498.8300312     
  -48043010.6587599     
  -48046518.6064148     
  -48050022.2683073     
  -48053521.2499688     
  -48057015.1672030     
  -48060503.6461313     
  -48063986.3232317     
  -48067462.8453727     
  -48070932.8698394     
  -48074396.0643546     
  -48077852.1070925     
  -48081300.6866869     
  -48084741.5022319     
  -48088174.2632768     
  -48091598.6898145     
  -48095014.5122629     
  -48098421.4714400     
  -48101819.3185326     
  -48105207.8150578     
  -48108586.7328192     
  -48111955.8538545     
  -48115314.9703790     
  -48118663.8847204     
  -48122002.4092482     
  -48125330.3662966     
  -48128647.5880805     
  -48131953.9166055     
  -48135249.2035709     
  -48138533.3102670     
  -48141806.1074658     
  -48145067.4753051     
  -48148317.3031674     
  -48151555.4895510     
  -48154781.9419369     
  -48157996.5766479     
  -48161199.3187030     
  -48164390.1016652     
  -48167568.8674838     
  -48170735.5663305     
  -48173890.1564303     
  -48177032.6038865     
  -48180162.8825005     
  -48183280.9735852     
  -48186386.8657743     
  -48189480.5548259     
  -48192562.0434201     
  -48195631.3409527     
  -48198688.4633233     
  -47861498.3242152     
  -47865336.0398383     
  -47869168.4205231     
  -47872995.0100728     
  -47876815.3641584     
  -47880629.0503895     
  -47884435.6483775     
  -47888234.7497920     
  -47892025.9584094     
  -47895808.8901548     
  -47899583.1731352     
  -47903348.4476663     
  -47907104.3662912     
  -47910850.5937918     
  -47914586.8071920     
  -47918312.6957533     
  -47922027.9609633     
  -47925732.3165159     
  -47929425.4882836     
  -47933107.2142824     
  -47936777.2446291     
  -47940435.3414905     
  -47944081.2790247     
  -47947714.8433153     
  -47951335.8322976     
  -47954944.0556770     
  -47958539.3348398     
  -47962121.5027570     
  -47965690.4038797     
  -47969245.8940274     
  -47972787.8402692     
  -47976316.1207971     
  -47979830.6247919     
  -47983331.2522828     
  -47986817.9139982     
  -47990290.5312112     
  -47993749.0355764     
  -47997193.3689609     
  -48000623.4832676     
  -48004039.3402521     
  -48007440.9113331     
  -48010828.1773952     
  -48014201.1285864     
  -48017559.7641078     
  -48020904.0919980     
  -48024234.1289112     
  -48027549.8998878     
  -48030851.4381204     
  -48034138.7847132     
  -48037411.9884360     
  -47684718.2567440     
  -47688884.4266379     
  -47693043.1194968     
  -47697193.8358183     
  -47701336.0898373     
  -47705469.4096116     
  -47709593.3370995     
  -47713707.4282288     
  -47717811.2529560     
  -47721904.3953187     
  -47725986.4534768     
  -47730057.0397468     
  -47734115.7806256     
  -47738162.3168066     
  -47742196.3031852     
  -47746217.4088572     
  -47750225.3171059     
  -47754219.7253822     
  -47758200.3452740     
  -47762166.9024677     
  -47766119.1366995     
  -47770056.8016989     
  -47773979.6651221     
  -47777887.5084770     
  -47781780.1270396     
  -47785657.3297603     
  -47789518.9391626     
  -47793364.7912323     
  -47797194.7352985     
  -47801008.6339052     
  -47804806.3626751     
  -47808587.8101641     
  -47812352.8777083     
  -47816101.4792614     
  -47819833.5412251     
  -47823549.0022701     
  -47827247.8131500     
  -47830929.9365061     
  -47834595.3466655     
  -47838244.0294300     
  -47841875.9818582     
  -47845491.2120399     
  -47849089.7388620     
  -47852671.5917680     
  -47856236.8105098     
  -47859785.4448918     
  -47863317.5545083     
  -47866833.2084740     
  -47870332.4851470     
  -47873815.4718453     
  -47505486.2956458     
  -47509987.5993226     
  -47514478.9682108     
  -47518959.8571304     
  -47523429.7367046     
  -47527888.0934633     
  -47532334.4299368     
  -47536768.2647393     
  -47541189.1326419     
  -47545596.5846349     
  -47549990.1879801     
  -47554369.5262524     
  -47558734.1993706     
  -47563083.8236178     
  -47567418.0316508     
  -47571736.4724999     
  -47576038.8115565     
  -47580324.7305513     
  -47584593.9275220     
  -47588846.1167692     
  -47593081.0288027     
  -47597298.4102776     
  -47601498.0239191     
  -47605679.6484375     
  -47609843.0784327     
  -47613988.1242889     
  -47618114.6120578     
  -47622222.3833335     
  -47626311.2951162     
  -47630381.2196664     
  -47634432.0443489     
  -47638463.6714677     
  -47642476.0180907     
  -47646469.0158649     
  -47650442.6108226     
  -47654396.7631775     
  -47658331.4471123     
  -47662246.6505567     
  -47666142.3749562     
  -47670018.6350331     
  -47673875.4585365     
  -47677712.8859860     
  -47681530.9704052     
  -47685329.7770471     
  -47689109.3831112     
  -47692869.8774526     
  -47696611.3602822     
  -47700333.9428594     
  -47704037.7471769     
  -47707722.9056370     
  -47323648.6817499     
  -47328492.4994207     
  -47333323.5621776     
  -47338141.2763125     
  -47342945.0662221     
  -47347734.3745316     
  -47352508.6622077     
  -47357267.4086578     
  -47362010.1118183     
  -47366736.2882290     
  -47371445.4730965     
  -47376137.2203444     
  -47380811.1026513     
  -47385466.7114759     
  -47390103.6570702     
  -47394721.5684804     
  -47399320.0935342     
  -47403898.8988175     
  -47408457.6696376     
  -47412996.1099741     
  -47417513.9424186     
  -47422010.9081016     
  -47426486.7666074     
  -47430941.2958771     
  -47435374.2921007     
  -47439785.5695958     
  -47444174.9606765     
  -47448542.3155093     
  -47452887.5019589     
  -47457210.4054221     
  -47461510.9286500     
  -47465788.9915609     
  -47470044.5310406     
  -47474277.5007327     
  -47478487.8708184     
  -47482675.6277852     
  -47486840.7741860     
  -47490983.3283874     
  -47495103.3243077     
  -47499200.8111456     
  -47503275.8530985     
  -47507328.5290703     
  -47511358.9323718     
  -47515367.1704087     
  -47519353.3643623     
  -47523317.6488599     
  -47527260.1716362     
  -47531181.0931861     
  -47535080.5864074     
  -47538958.8362360     
  -47139055.6572598     
  -47144250.1365358     
  -47149428.6263196     
  -47154590.4809775     
  -47159735.0755659     
  -47164861.8059779     
  -47169970.0890768     
  -47175059.3628135     
  -47180129.0863298     
  -47185178.7400471     
  -47190207.8257406     
  -47195215.8665983     
  -47200202.4072658     
  -47205167.0138758     
  -47210109.2740643     
  -47215028.7969706     
  -47219925.2132247     
  -47224798.1749188     
  -47229647.3555657     
  -47234472.4500426     
  -47239273.1745211     
  -47244049.2663831     
  -47248800.4841236     
  -47253526.6072390     
  -47258227.4361037     
  -47262902.7918306     
  -47267552.5161221     
  -47272176.4711051     
  -47276774.5391550     
  -47281346.6227064     
  -47285892.6440518     
  -47290412.5451272     
  -47294906.2872870     
  -47299373.8510654     
  -47303815.2359270     
  -47308230.4600056     
  -47312619.5598312     
  -47316982.5900457     
  -47321319.6231081     
  -47325630.7489878     
  -47329916.0748469     
  -47334175.7247130     
  -47338409.8391398     
  -47342618.5748579     
  -47346802.1044156     
  -47350960.6158083     
  -47355094.3120987     
  -47359203.4110268     
  -47363288.1446092     
  -47367348.7587296     
  -46951562.3023548     
  -46957116.4386337     
  -46962650.8777930     
  -46968164.9182672     
  -46973657.8821085     
  -46979129.1151583     
  -46984577.9872021     
  -46990003.8921054     
  -46995406.2479340     
  -47000784.4970547     
  -47006138.1062210     
  -47011466.5666390     
  -47016769.3940177     
  -47022046.1286019     
  -47027296.3351877     
  -47032519.6031210     
  -47037715.5462804     
  -47042883.8030420     
  -47048024.0362292     
  -47053135.9330458     
  -47058219.2049928     
  -47063273.5877704     
  -47068298.8411635     
  -47073294.7489126     
  -47078261.1185695     
  -47083197.7813377     
  -47088104.5918988     
  -47092981.4282241     
  -47097828.1913722     
  -47102644.8052731     
  -47107431.2164975     
  -47112187.3940137     
  -47116913.3289306     
  -47121609.0342280     
  -47126274.5444738     
  -47130909.9155289     
  -47135515.2242389     
  -47140090.5681141     
  -47144636.0649974     
  -47149151.8527203     
  -47153638.0887463     
  -47158094.9498038     
  -47162522.6315068     
  -47166921.3479641     
  -47171291.3313783     
  -47175632.8316318     
  -47179946.1158639     
  -47184231.4680353     
  -47188489.1884824     
  -47192719.5934609     
  -46761029.5115393     
  -46766953.2437189     
  -46772853.0315679     
  -46778728.1129263     
  -46784577.7525949     
  -46790401.2425311     
  -46796197.9020259     
  -46801967.0778576     
  -46807708.1444265     
  -46813420.5038674     
  -46819103.5861428     
  -46824756.8491139     
  -46830379.7785930     
  -46835971.8883751     
  -46841532.7202492     
  -46847061.8439913     
  -46852558.8573370     
  -46858023.3859353     
  -46863455.0832845     
  -46868853.6306486     
  -46874218.7369561     
  -46879550.1386817     
  -46884847.5997093     
  -46890110.9111787     
  -46895339.8913157     
  -46900534.3852449     
  -46905694.2647874     
  -46910819.4282423     
  -46915909.8001520     
  -46920965.3310537     
  -46925985.9972150     
  -46930971.8003554     
  -46935922.7673538     
  -46940838.9499408     
  -46945720.4243792     
  -46950567.2911290     
  -46955379.6745009     
  -46960157.7222954     
  -46964901.6054304     
  -46969611.5175549     
  -46974287.6746513     
  -46978930.3146252     
  -46983539.6968826     
  -46988116.1018957     
  -46992659.8307571     
  -46997171.2047212     
  -47001650.5647350     
  -47006098.2709568     
  -47010514.7022636     
  -47014900.2557467     
  -46567325.1434461     
  -46573629.4662326     
  -46579904.9816417     
  -46586150.8615852     
  -46592366.3087821     
  -46598550.5569795     
  -46604702.8711470     
  -46610822.5476468     
  -46616908.9143781     
  -46622961.3308970     
  -46628979.1885119     
  -46634961.9103547     
  -46640908.9514276     
  -46646819.7986283     
  -46652693.9707498     
  -46658531.0184589     
  -46664330.5242530     
  -46670092.1023937     
  -46675815.3988205     
  -46681500.0910426     
  -46687145.8880112     
  -46692752.5299718     
  -46698319.7882966     
  -46703847.4652985     
  -46709335.3940265     
  -46714783.4380432     
  -46720191.4911848     
  -46725559.4773042     
  -46730887.3499967     
  -46736175.0923111     
  -46741422.7164435     
  -46746630.2634168     
  -46751797.8027445     
  -46756925.4320807     
  -46762013.2768552     
  -46767061.4898949     
  -46772070.2510318     
  -46777039.7666972     
  -46781970.2695037     
  -46786862.0178135     
  -46791715.2952944     
  -46796530.4104635     
  -46801307.6962188     
  -46806047.5093580     
  -46810750.2300863     
  -46815416.2615115     
  -46820046.0291276     
  -46824639.9802863     
  -46829198.5836571     
  -46833722.3286757     
  -46370325.3867725     
  -46377022.4800788     
  -46383685.1989408     
  -46390312.6433727     
  -46396903.9486583     
  -46403458.2855902     
  -46409974.8606772     
  -46416452.9163224     
  -46422891.7309714     
  -46429290.6192297     
  -46435648.9319519     
  -46441966.0563031     
  -46448241.4157906     
  -46454474.4702703     
  -46460664.7159251     
  -46466811.6852172     
  -46472914.9468164     
  -46478974.1055018     
  -46484988.8020410     
  -46490958.7130452     
  -46496883.5508020     
  -46502763.0630858     
  -46508597.0329475     
  -46514385.2784831     
  -46520127.6525828     
  -46525824.0426608     
  -46531474.3703657     
  -46537078.5912747     
  -46542636.6945680     
  -46548148.7026886     
  -46553614.6709852     
  -46559034.6873387     
  -46564408.8717745     
  -46569737.3760597     
  -46575020.3832864     
  -46580258.1074408     
  -46585450.7929594     
  -46590598.7142720     
  -46595702.1753318     
  -46600761.5091335     
  -46605777.0772190     
  -46610749.2691716     
  -46615678.5020977     
  -46620565.2200975     
  -46625409.8937242     
  -46630213.0194317     
  -46634975.1190106     
  -46639696.7390135     
  -46644378.4501681     
  -46649020.8467796     
  -46169916.3962613     
  -46177019.7708732     
  -46184082.3970774     
  -46191103.2965095     
  -46198081.5312875     
  -46205016.2042590     
  -46211906.4592115     
  -46218751.4810461     
  -46225550.4959152     
  -46232302.7713246     
  -46239007.6162019     
  -46245664.3809313     
  -46252272.4573550     
  -46258831.2787441     
  -46265340.3197378     
  -46271799.0962534     
  -46278207.1653668     
  -46284564.1251660     
  -46290869.6145764     
  -46297123.3131625     
  -46303324.9409019     
  -46309474.2579371     
  -46315571.0643045     
  -46321615.1996399     
  -46327606.5428650     
  -46333545.0118517     
  -46339430.5630680     
  -46345263.1912071     
  -46351042.9287950     
  -46356769.8457856     
  -46362444.0491377     
  -46368065.6823765     
  -46373634.9251411     
  -46379151.9927186     
  -46384617.1355638     
  -46390030.6388071     
  -46395392.8217493     
  -46400704.0373458     
  -46405964.6716781     
  -46411175.1434151     
  -46416335.9032639     
  -46421447.4334095     
  -46426510.2469446     
  -46431524.8872895     
  -46436491.9276019     
  -46441411.9701767     
  -46446285.6458355     
  -46451113.6133071     
  -46455896.5585968     
  -46460635.1943464     
  -45965996.2665800     
  -45973520.9231506     
  -45980997.5294731     
  -45988425.0220601     
  -45995802.3840354     
  -46003128.6453727     
  -46010402.8830893     
  -46017624.2213960     
  -46024791.8318030     
  -46031904.9331861     
  -46038962.7918092     
  -46045964.7213107     
  -46052910.0826501     
  -46059798.2840184     
  -46066628.7807137     
  -46073401.0749822     
  -46080114.7158271     
  -46086769.2987869     
  -46093364.4656824     
  -46099899.9043375     
  -46106375.3482715     
  -46112790.5763662     
  -46119145.4125092     
  -46125439.7252133     
  -46131673.4272157     
  -46137846.4750553     
  -46143958.8686311     
  -46150010.6507442     
  -46156001.9066205     
  -46161932.7634189     
  -46167803.3897257     
  -46173613.9950326     
  -46179364.8292042     
  -46185056.1819324     
  -46190688.3821798     
  -46196261.7976128     
  -46201776.8340242     
  -46207233.9347476     
  -46212633.5800627     
  -46217976.2865916     
  -46223262.6066884     
  -46228493.1278205     
  -46233668.4719433     
  -46238789.2948664     
  -46243856.2856146     
  -46248870.1657802     
  -46253831.6888693     
  -46258741.6396402     
  -46263600.8334339     
  -46268410.1154992     
  -45758477.4289293     
  -45766440.0241677     
  -45774346.1961580     
  -45782194.7897169     
  -45789984.7035181     
  -45797714.8902953     
  -45805384.3569896     
  -45812992.1648447     
  -45820537.4294503     
  -45828019.3207380     
  -45835437.0629260     
  -45842789.9344221     
  -45850077.2676794     
  -45857298.4490125     
  -45864452.9183723     
  -45871540.1690827     
  -45878559.7475422     
  -45885511.2528899     
  -45892394.3366395     
  -45899208.7022841     
  -45905954.1048707     
  -45912630.3505490     
  -45919237.2960955     
  -45925774.8484134     
  -45932242.9640131     
  -45938641.6484706     
  -45944970.9558702     
  -45951230.9882288     
  -45957421.8949071     
  -45963543.8720057     
  -45969597.1617501     
  -45975582.0518641     
  -45981498.8749346     
  -45987348.0077665     
  -45993129.8707319     
  -45998844.9271110     
  -46004493.6824284     
  -46010076.6837848     
  -46015594.5191840     
  -46021047.8168558     
  -46026437.2445770     
  -46031763.5089888     
  -46037027.3549121     
  -46042229.5646603     
  -46047370.9573497     
  -46052452.3882088     
  -46057474.7478836     
  -46062438.9617413     
  -46067345.9891710     
  -46072196.8228811     
  -45547289.5755539     
  -45555708.5848137     
  -45564061.5559676     
  -45572347.2364335     
  -45580564.4360894     
  -45588712.0273981     
  -45596788.9454653     
  -45604794.1880354     
  -45612726.8154258     
  -45620585.9504042     
  -45628370.7780091     
  -45636080.5453182     
  -45643714.5611662     
  -45651272.1958151     
  -45658752.8805789     
  -45666156.1074068     
  -45673481.4284262     
  -45680728.4554489     
  -45687896.8594423     
  -45694986.3699695     
  -45701996.7745994     
  -45708927.9182906     
  -45715779.7027501     
  -45722552.0857711     
  -45729245.0805496     
  -45735858.7549851     
  -45742393.2309651     
  -45748848.6836363     
  -45755225.3406652     
  -45761523.4814887     
  -45767743.4365578     
  -45773885.5865750     
  -45779950.3617278     
  -45785938.2409189     
  -45791849.7509957     
  -45797685.4659794     
  -45803446.0062945     
  -45809132.0380010     
  -45814744.2720293     
  -45820283.4634182     
  -45825750.4105578     
  -45831145.9544363     
  -45836470.9778922     
  -45841726.4048722     
  -45846913.1996931     
  -45852032.3663102     
  -45857084.9475902     
  -45862072.0245884     
  -45866994.7158310     
  -45871854.1766001     
  -45332383.2412037     
  -45341279.1000712     
  -45350097.8598524     
  -45358838.1667918     
  -45367498.7398384     
  -45376078.3706307     
  -45384575.9234025     
  -45392990.3348140     
  -45401320.6137123     
  -45409565.8408233     
  -45417725.1683794     
  -45425797.8196872     
  -45433783.0886374     
  -45441680.3391617     
  -45449489.0046396     
  -45457208.5872591     
  -45464838.6573350     
  -45472378.8525873     
  -45479828.8773848     
  -45487188.5019558     
  -45494457.5615704     
  -45501635.9556968     
  -45508723.6471357     
  -45515720.6611355     
  -45522627.0844905     
  -45529443.0646272     
  -45536168.8086790     
  -45542804.5825539     
  -45549350.7099969     
  -45555807.5716498     
  -45562175.6041109     
  -45568455.2989960     
  -45574647.2020043     
  -45580751.9119894     
  -45586770.0800387     
  -45592702.4085611     
  -45598549.6503863     
  -45604312.6078759     
  -45609992.1320471     
  -45615589.1217112     
  -45621104.5226263     
  -45626539.3266663     
  -45631894.5710047     
  -45637171.3373155     
  -45642370.7509901     
  -45647493.9803699     
  -45652542.2359957     
  -45657516.7698712     
  -45662418.8747427     
  -45667249.8833918     
  -45113734.1978672     
  -45123129.3962331     
  -45132434.7432756     
  -45141648.7837697     
  -45150770.1474100     
  -45159797.5485679     
  -45168729.7859570     
  -45177565.7422107     
  -45186304.3833759     
  -45194944.7583294     
  -45203485.9981202     
  -45211927.3152433     
  -45220268.0028504     
  -45228507.4339002     
  -45236645.0602570     
  -45244680.4117371     
  -45252613.0951131     
  -45260442.7930764     
  -45268169.2631655     
  -45275792.3366629     
  -45283311.9174653     
  -45290727.9809321     
  -45298040.5727153     
  -45305249.8075761     
  -45312355.8681910     
  -45319359.0039513     
  -45326259.5297614     
  -45333057.8248365     
  -45339754.3315051     
  -45346349.5540196     
  -45352844.0573762     
  -45359238.4661491     
  -45365533.4633399     
  -45371729.7892457     
  -45377828.2403479     
  -45383829.6682231     
  -45389734.9784797     
  -45395545.1297195     
  -45401261.1325277     
  -45406884.0484915     
  -45412414.9892484     
  -45417855.1155658     
  -45423205.6364513     
  -45428467.8082946     
  -45433642.9340415     
  -45438732.3623989     
  -45443737.4870720     
  -45448659.7460309     
  -45453500.6208083     
  -45458261.6358254     
  -44891348.8492652     
  -44901267.9390141     
  -44911082.4394409     
  -44920790.7992313     
  -44930391.5665480     
  -44939883.3884421     
  -44949265.0101553     
  -44958535.2743212     
  -44967693.1200693     
  -44976737.5820426     
  -44985667.7893292     
  -44994482.9643208     
  -45003182.4214994     
  -45011765.5661617     
  -45020231.8930852     
  -45028580.9851452     
  -45036812.5118841     
  -45044926.2280448     
  -45052921.9720701     
  -45060799.6645740     
  -45068559.3067930     
  -45076200.9790208     
  -45083724.8390325     
  -45091131.1205037     
  -45098420.1314282     
  -45105592.2525419     
  -45112647.9357538     
  -45119587.7025925     
  -45126412.1426692     
  -45133121.9121624     
  -45139717.7323296     
  -45146200.3880469     
  -45152570.7263817     
  -45158829.6552009     
  -45164978.1418184     
  -45171017.2116827     
  -45176947.9471086     
  -45182771.4860546     
  -45188489.0209481     
  -45194101.7975592     
  -45199611.1139247     
  -45205018.3193245     
  -45210324.8133097     
  -45215532.0447830     
  -45220641.5111322     
  -45225654.7574177     
  -45230573.3756095     
  -45235399.0038799     
  -45240133.3259432     
  -45244778.0704473     
  -44665270.8434322     
  -44675740.3045151     
  -44686088.0989581     
  -44696312.5934538     
  -44706412.2714852     
  -44716385.7322263     
  -44726231.6893189     
  -44735948.9695325     
  -44745536.5113158     
  -44754993.3632495     
  -44764318.6824074     
  -44773511.7326348     
  -44782571.8827535     
  -44791498.6046988     
  -44800291.4716002     
  -44808950.1558108     
  -44817474.4268951     
  -44825864.1495814     
  -44834119.2816879     
  -44842239.8720285     
  -44850226.0583058     
  -44858078.0649993     
  -44865796.2012532     
  -44873380.8587736     
  -44880832.5097378     
  -44888151.7047248     
  -44895339.0706712     
  -44902395.3088580     
  -44909321.1929349     
  -44916117.5669856     
  -44922785.3436398     
  -44929325.5022365     
  -44935739.0870415     
  -44942027.2055253     
  -44948191.0267030     
  -44954231.7795394     
  -44960150.7514249     
  -44965949.2867216     
  -44971628.7853834     
  -44977190.7016537     
  -44982636.5428388     
  -44987967.8681623     
  -44993186.2876980     
  -44998293.4613846     
  -45003291.0981217     
  -45008180.9549465     
  -45012964.8362904     
  -45017644.5933185     
  -45022222.1233447     
  -45026699.3693263     
  -44435589.1530742     
  -44446637.0413982     
  -44457543.4231381     
  -44468306.6099277     
  -44478925.0506931     
  -44489397.3298274     
  -44499722.1652252     
  -44509898.4061865     
  -44519925.0312007     
  -44529801.1456227     
  -44539525.9792516     
  -44549098.8838216     
  -44558519.3304185     
  -44567786.9068278     
  -44576901.3148293     
  -44585862.3674449     
  -44594669.9861516     
  -44603324.1980667     
  -44611825.1331182     
  -44620173.0212060     
  -44628368.1893653     
  -44636411.0589389     
  -44644302.1427689     
  -44652042.0424135     
  -44659631.4453992     
  -44667071.1225128     
  -44674361.9251440     
  -44681504.7826819     
  -44688500.6999749     
  -44695350.7548585     
  -44702056.0957573     
  -44708617.9393664     
  -44715037.5684187     
  -44721316.3295412     
  -44727455.6312059     
  -44733456.9417791     
  -44739321.7876736     
  -44745051.7516045     
  -44750648.4709555     
  -44756113.6362559     
  -44761448.9897700     
  -44766656.3242033     
  -44771737.4815228     
  -44776694.3518971     
  -44781528.8727548     
  -44786243.0279582     
  -44790838.8470980     
  -44795318.4049044     
  -44799683.8207736     
  -44803937.2584099     
  -44202447.9007017     
  -44214103.1740045     
  -44225593.8337614     
  -44236918.1817893     
  -44248074.6813194     
  -44259061.9541648     
  -44269878.7777330     
  -44280524.0818957     
  -44290996.9457310     
  -44301296.5941508     
  -44311422.3944294     
  -44321373.8526435     
  -44331150.6100394     
  -44340752.4393393     
  -44350179.2409993     
  -44359431.0394320     
  -44368507.9792057     
  -44377410.3212314     
  -44386138.4389498     
  -44394692.8145295     
  -44403074.0350865     
  -44411282.7889364     
  -44419319.8618889     
  -44427186.1335943     
  -44434882.5739521     
  -44442410.2395899     
  -44449770.2704220     
  -44456963.8862958     
  -44463992.3837331     
  -44470857.1327763     
  -44477559.5739426     
  -44484101.2152974     
  -44490483.6296499     
  -44496708.4518782     
  -44502777.3763895     
  -44508692.1547201     
  -44514454.5932797     
  -44520066.5512448     
  -44525529.9386039     
  -44530846.7143598     
  -44536018.8848890     
  -44541048.5024638     
  -44545937.6639354     
  -44550688.5095830     
  -44555303.2221285     
  -44559784.0259150     
  -44564133.1862530     
  -44568353.0089311     
  -44572445.8398909     
  -44576414.0650647     
  -43966058.2232957     
  -43978349.6069823     
  -43990449.4063755     
  -44002355.9841523     
  -44014067.8925328     
  -44025583.8690801     
  -44036902.8323347     
  -44048023.8772988     
  -44058946.2707910     
  -44069669.4466848     
  -44080193.0010529     
  -44090516.6872277     
  -44100640.4108003     
  -44110564.2245692     
  -44120288.3234567     
  -44129813.0394072     
  -44139138.8362819     
  -44148266.3047643     
  -44157196.1572905     
  -44165929.2230170     
  -44174466.4428406     
  -44182808.8644798     
  -44190957.6376337     
  -44198914.0092268     
  -44206679.3187524     
  -44214254.9937255     
  -44221642.5452547     
  -44228843.5637437     
  -44235859.7147309     
  -44242692.7348776     
  -44249344.4281116     
  -44255816.6619352     
  -44262111.3639051     
  -44268230.5182912     
  -44274176.1629206     
  -44279950.3862141     
  -44285555.3244188     
  -44290993.1590446     
  -44296266.1145074     
  -44301376.4559833     
  -44306326.4874787     
  -44311118.5501184     
  -44315755.0206548     
  -44320238.3101993     
  -44324570.8631796     
  -44328755.1565215     
  -44332793.6990566     
  -44336689.0311570     
  -44340443.7245934     
  -44344060.3826172     
  -43726712.4714040     
  -43739666.6843296     
  -43752397.7791515     
  -43764904.2846361     
  -43777184.9515026     
  -43789238.7464029     
  -43801064.8457347     
  -43812662.6293043     
  -43824031.6738660     
  -43835171.7465555     
  -43846082.7982390     
  -43856764.9567986     
  -43867218.5203718     
  -43877443.9505655     
  -43887441.8656621     
  -43897213.0338356     
  -43906758.3663950     
  -43916078.9110716     
  -43925175.8453666     
  -43934050.4699743     
  -43942704.2022963     
  -43951138.5700608     
  -43959355.2050618     
  -43967355.8370305     
  -43975142.2876536     
  -43982716.4647487     
  -43990080.3566109     
  -43997236.0265409     
  -44004185.6075654     
  -44010931.2973606     
  -44017475.3533893     
  -44023820.0882595     
  -44029967.8653146     
  -44035921.0944634     
  -44041682.2282576     
  -44047253.7582238     
  -44052638.2114579     
  -44057838.1474875     
  -44062856.1554075     
  -44067694.8512961     
  -44072356.8759140     
  -44076844.8926912     
  -44081161.5860071     
  -44085309.6597634     
  -44089291.8362557     
  -44093110.8553427     
  -44096769.4739167     
  -44100270.4656741     
  -44103616.6211858     
  -44106810.7482687     
  -43484801.0085422     
  -43498440.1183540     
  -43511819.2041604     
  -43524937.1120297     
  -43537792.9467415     
  -43550386.0633920     
  -43562716.0588415     
  -43574782.7630284     
  -43586586.2301773     
  -43598126.7299247     
  -43609404.7383866     
  -43620420.9291933     
  -43631176.1645105     
  -43641671.4860730     
  -43651908.1062479     
  -43661887.3991514     
  -43671610.8918362     
  -43681080.2555707     
  -43690297.2972270     
  -43699263.9507958     
  -43707982.2690447     
  -43716454.4153389     
  -43724682.6556353     
  -43732669.3506700     
  -43740416.9483509     
  -43747927.9763704     
  -43755205.0350515     
  -43762250.7904393     
  -43769067.9676527     
  -43775659.3445043     
  -43782027.7454035     
  -43788176.0355511     
  -43794107.1154366     
  -43799823.9156475     
  -43805329.3920001     
  -43810626.5210006     
  -43815718.2956439     
  -43820607.7215586     
  -43825297.8135051     
  -43829791.5922329     
  -43834092.0817037     
  -43838202.3066856     
  -43842125.2907235     
  -43845864.0544889     
  -43849421.6145150     
  -43852800.9823176     
  -43856005.1639066     
  -43859037.1596876     
  -43861899.9647565     
  -43864596.5695866     
  -43240831.8027630     
  -43255169.4216861     
  -43269203.8179922     
  -43282934.3662869     
  -43296360.7407203     
  -43309482.9035508     
  -43322301.0935809     
  -43334815.8144957     
  -43347027.8231317     
  -43358938.1177091     
  -43370547.9260501     
  -43381858.6938148     
  -43392872.0727760     
  -43403589.9091609     
  -43414014.2320819     
  -43424147.2420794     
  -43433991.2997980     
  -43443548.9148188     
  -43452822.7346650     
  -43461815.5340040     
  -43470530.2040598     
  -43478969.7422587     
  -43487137.2421205     
  -43495035.8834153     
  -43502668.9225994     
  -43510039.6835465     
  -43517151.5485879     
  -43524007.9498769     
  -43530612.3610895     
  -43536968.2894742     
  -43543079.2682654     
  -43548948.8494688     
  -43554580.5970336     
  -43559978.0804196     
  -43565144.8685722     
  -43570084.5243128     
  -43574800.5991561     
  -43579296.6285624     
  -43583576.1276337     
  -43587642.5872622     
  -43591499.4707375     
  -43595150.2108222     
  -43598598.2072990     
  -43601846.8249997     
  -43604899.3923172     
  -43607759.2002091     
  -43610429.5016950     
  -43612913.5118520     
  -43615214.4083118     
  -43617335.3322594     
  -42995452.8621791     
  -43010488.8280253     
  -43025171.0548476     
  -43039499.7338840     
  -43053475.4000253     
  -43067098.9165609     
  -43080371.4598519     
  -43093294.5039730     
  -43105869.8053506     
  -43118099.3874342     
  -43129985.5254278     
  -43141530.7311148     
  -43152737.7377985     
  -43163609.4853907     
  -43174149.1056701     
  -43184359.9077353     
  -43194245.3636771     
  -43203809.0944885     
  -43213054.8562379     
  -43221986.5265218     
  -43230608.0912175     
  -43238923.6315546     
  -43246937.3115218     
  -43254653.3656263     
  -43262076.0870212     
  -43269209.8160176     
  -43276058.9289948     
  -43282627.8277239     
  -43288920.9291182     
  -43294942.6554239     
  -43300697.4248640     
  -43306189.6427480     
  -43311423.6930594     
  -43316403.9305329     
  -43321134.6732334     
  -43325620.1956466     
  -43329864.7222939     
  -43333872.4218805     
  -43337647.4019884     
  -43341193.7043231     
  -43344515.3005255     
  -43347616.0885540     
  -43350499.8896536     
  -43353170.4459111     
  -43355631.4184126     
  -43357886.3860056     
  -43359938.8446761     
  -43361792.2075460     
  -43363449.8054960     
  -43364914.8884218     
  -42749477.3330332     
  -42765190.4492722     
  -42780490.8836240     
  -42795380.0285536     
  -42809859.6660039     
  -42823931.9474384     
  -42837599.3739167     
  -42850864.7762381     
  -42863731.2951873     
  -42876202.3619215     
  -42888281.6785251     
  -42899973.1987680     
  -42911281.1090906     
  -42922209.8098481     
  -42932763.8968350     
  -42942948.1431158     
  -42952767.4811851     
  -42962226.9854764     
  -42971331.8552424     
  -42980087.3978235     
  -42988499.0123244     
  -42996572.1737147     
  -43004312.4173710     
  -43011725.3240756     
  -43018816.5054860     
  -43025591.5900920     
  -43032056.2096708     
  -43038215.9862577     
  -43044076.5196419     
  -43049643.3754022     
  -43054922.0734948     
  -43059918.0774062     
  -43064636.7838807     
  -43069083.5132401     
  -43073263.5003015     
  -43077181.8859089     
  -43080843.7090920     
  -43084253.8998584     
  -43087417.2726391     
  -43090338.5203918     
  -43093022.2093811     
  -43095472.7746396     
  -43097694.5161321     
  -43099691.5956240     
  -43101468.0342736     
  -43103027.7109568     
  -43104374.3613352     
  -43105511.5776789     
  -43106442.8094578     
  -43107171.3647038     
  -42503910.7195901     
  -42520249.0572783     
  -42536106.1924475     
  -42551485.2220432     
  -42566389.6773941     
  -42580823.4986156     
  -42594791.0091778     
  -42608296.8907102     
  -42621346.1580604     
  -42633944.1346460     
  -42646096.4281331     
  -42657808.9064684     
  -42669087.6742914     
  -42679939.0497556     
  -42690369.5417750     
  -42700385.8277252     
  -42709994.7316133     
  -42719203.2027370     
  -42728018.2948506     
  -42736447.1458519     
  -42744496.9580073     
  -42752174.9787259     
  -42759488.4818986     
  -42766444.7498131     
  -42773051.0556554     
  -42779314.6466123     
  -42785242.7275832     
  -42790842.4455122     
  -42796120.8743526     
  -42801085.0006739     
  -42805741.7099203     
  -42810097.7733340     
  -42814159.8355530     
  -42817934.4028954     
  -42821427.8323407     
  -42824646.3212221     
  -42827595.8976415     
  -42830282.4116205     
  -42832711.5270005     
  -42834888.7141075     
  -42836819.2431953     
  -42838508.1786828     
  -42839960.3742015     
  -42841180.4684685     
  -42842172.8820040     
  -42842941.8147063     
  -42843491.2443052     
  -42843824.9257157     
  -42843946.3912883     
  -42843858.9520139     
  -42259979.1619758     
  -42276847.3628900     
  -42293155.1376836     
  -42308907.9335987     
  -42324111.6722444     
  -42338772.7173240     
  -42352897.8428433     
  -42366494.2017154     
  -42379569.2948609     
  -42392130.9408173     
  -42404187.2458819     
  -42415746.5748149     
  -42426817.5221250     
  -42437408.8839601     
  -42447529.6306156     
  -42457188.8796798     
  -42466395.8698278     
  -42475159.9352775     
  -42483490.4809177     
  -42491396.9581165     
  -42498888.8412208     
  -42505975.6047503     
  -42512666.7012965     
  -42518971.5401289     
  -42524899.4665170     
  -42530459.7417694     
  -42535661.5239998     
  -42540513.8496194     
  -42545025.6155667     
  -42549205.5622751     
  -42553062.2573887     
  -42556604.0802306     
  -42559839.2070327     
  -42562775.5969330     
  -42565420.9787566     
  -42567782.8385820     
  -42569868.4081120     
  -42571684.6538600     
  -42573238.2671659     
  -42574535.6550586     
  -42575582.9319833     
  -42576385.9124108     
  -42576950.1043517     
  -42577280.7037945     
  -42577382.5900933     
  -42577260.3223329     
  -42576918.1366896     
  -42576359.9448000     
  -42575589.3332433     
  -42574609.5640066     
  -42019156.9829146     
  -42036399.9586334     
  -42052991.5881502     
  -42068940.4818748     
  -42084255.7536360     
  -42098946.9810689     
  -42113024.1664373     
  -42126497.6983851     
  -42139378.3143976     
  -42151677.0640544     
  -42163405.2731075     
  -42174574.5083921     
  -42185196.5435766     
  -42195283.3257704     
  -42204846.9429906     
  -42213899.5924981     
  -42222453.5500033     
  -42230521.1397449     
  -42238114.7054401     
  -42245246.5821051     
  -42251929.0687417     
  -42258174.4018884     
  -42263994.7300281     
  -42269402.0888499     
  -42274408.3773569     
  -42279025.3348159     
  -42283264.5185423     
  -42287137.2825151     
  -42290654.7568179     
  -42293827.8279019     
  -42296667.1196675     
  -42299182.9753655     
  -42301385.4403156     
  -42303284.2454456     
  -42304888.7916574     
  -42306208.1350236     
  -42307250.9728233     
  -42308025.6304332     
  -42308540.0490827     
  -42308801.7744920     
  -42308817.9464153     
  -42308595.2891080     
  -42308140.1027480     
  -42307458.2558387     
  -42306555.1786210     
  -42305435.8575266     
  -42304104.8307221     
  -42302566.1848353     
  -42300823.5526408     
  -42298880.1123194     
  -41783190.7576187     
  -41800573.1677641     
  -41817200.9056172     
  -41833086.7472158     
  -41848243.9827568     
  -41862686.3679208     
  -41876428.0773808     
  -41889483.6588272     
  -41901867.9883194     
  -41913596.2268416     
  -41924683.7780043     
  -41935146.2469120     
  -41944999.4002086     
  -41954259.1272989     
  -41962941.4027366     
  -41971062.2497652     
  -41978637.7050046     
  -41985683.7842655     
  -41992216.4494780     
  -41998251.5767142     
  -42003804.9252879     
  -42008892.1079058     
  -42013528.5618511     
  -42017729.5211742     
  -42021509.9898695     
  -42024884.7160098     
  -42027868.1668212     
  -42030474.5046693     
  -42032717.5639400     
  -42034610.8287912     
  -42036167.4117589     
  -42037400.0331996     
  -42038321.0015581     
  -42038942.1944472     
  -42039275.0405341     
  -42039330.5022305     
  -42039119.0591846     
  -42038650.6925843     
  -42037934.8702781     
  -42036980.5327318     
  -42035796.0798401     
  -42034389.3586170     
  -42032767.6517934     
  -42030937.6673622     
  -42028905.5291231     
  -42026676.7682860     
  -42024256.3161101     
  -42021648.4975497     
  -42018857.0268043     
  -42015885.0027910     
  -41554115.9688264     
  -41571296.8994542     
  -41587607.2060441     
  -41603065.0428956     
  -41617689.0579551     
  -41631498.3383410     
  -41644512.3535221     
  -41656750.9022597     
  -41668234.0607584     
  -41678982.1322565     
  -41689015.5983002     
  -41698355.0716714     
  -41707021.2509063     
  -41715034.8763733     
  -41722416.6878924     
  -41729187.3838738     
  -41735367.5819481     
  -41740977.7810499     
  -41746038.3249170     
  -41750569.3669626     
  -41754590.8364770     
  -41758122.4061109     
  -41761183.4605940     
  -41763793.0666367     
  -41765969.9439620     
  -41767732.4374184     
  -41769098.4901166     
  -41770085.6175421     
  -41770710.8825885     
  -41770990.8714654     
  -41770941.6704323     
  -41770578.8433154     
  -41769917.4097679     
  -41768971.8242391     
  -41767755.9556239     
  -41766283.0675666     
  -41764565.7994071     
  -41762616.1477545     
  -41760445.4486904     
  -41758064.3606054     
  -41755482.8476887     
  -41752710.1640988     
  -41749754.8388546     
  -41746624.6614746     
  -41743326.6683781     
  -41739867.1301266     
  -41736251.5398200     
  -41732484.6028271     
  -41728570.2253461     
  -41724511.5091520     
  -41334260.9366009     
  -41350763.2917884     
  -41366266.9842698     
  -41380796.9765037     
  -41394378.6700195     
  -41407037.8304747     
  -41418800.5296956     
  -41429693.0829025     
  -41439741.9890112     
  -41448973.8738874     
  -41457415.4357034     
  -41465093.3922791     
  -41472034.4305044     
  -41478265.1578737     
  -41483812.0560931     
  -41488701.4366918     
  -41492959.3985815     
  -41496611.7874953     
  -41499684.1572499     
  -41502201.7327604     
  -41504189.3747283     
  -41505671.5459258     
  -41506672.2789799     
  -41507215.1455684     
  -41507323.2269275     
  -41507019.0855736     
  -41506324.7381348     
  -41505261.6291938     
  -41503850.6060372     
  -41502111.8942135     
  -41500065.0738020     
  -41497729.0562997     
  -41495122.0620397     
  -41492261.5980605     
  -41489164.4363554     
  -41485846.5924383     
  -41482323.3041791     
  -41478609.0108671     
  -41474717.3324818     
  -41470661.0491514     
  -41466452.0807946     
  -41462101.4669478     
  -41457619.3468219     
  -41453014.9396990     
  -41448296.5258173     
  -41443471.4276661     
  -41438545.9910489     
  -41433525.5663763     
  -41428414.4979806     
  -41423216.0963592     
  -41126231.3106103     
  -41141405.5746360     
  -41155442.6506607     
  -41168375.9891702     
  -41180239.3371368     
  -41191066.6977536     
  -41200892.2391353     
  -41209750.2282772     
  -41217674.9670864     
  -41224700.7286564     
  -41230861.6961408     
  -41236191.9049421     
  -41240725.1879780     
  -41244495.1237398     
  -41247534.9870337     
  -41249877.7023689     
  -41251555.7999718     
  -41252601.3743576     
  -41253046.0453678     
  -41252920.9215560     
  -41252256.5657905     
  -41251082.9629372     
  -41249429.4894653     
  -41247324.8848235     
  -41244797.2244096     
  -41241873.8939578     
  -41238581.5651575     
  -41234946.1723127     
  -41230992.8898498     
  -41226746.1104840     
  -41222229.4238561     
  -41217465.5954586     
  -41212476.5456802     
  -41207283.3288061     
  -41201906.1118249     
  -41196364.1529070     
  -41190675.7794346     
  -41184858.3654843     
  -41178928.3086925     
  -41172901.0064679     
  -41166790.8315494     
  -41160611.1069126     
  -41154374.0799620     
  -41148090.8958573     
  -41141771.5699837     
  -41135424.9604756     
  -41129058.7427904     
  -41122679.3834221     
  -41116292.0916797     
  -41109900.8356710     
  -40932867.3474260     
  -40945849.4321506     
  -40957548.3799799     
  -40968007.9706480     
  -40977272.1895437     
  -40985385.0124051     
  -40992390.3872860     
  -40998332.1526483     
  -41003253.9547380     
  -41007199.1766122     
  -41010210.8734083     
  -41012331.7106648     
  -41013603.9055713     
  -41014069.1718203     
  -41013768.6684474     
  -41012742.9526963     
  -41011031.9367653     
  -41008674.8482512     
  -41005710.1941254     
  -41002175.7280738     
  -40998108.4210156     
  -40993544.4345970     
  -40988519.0974065     
  -40983066.8836387     
  -40977221.3938949     
  -40971015.3377977     
  -40964480.5180716     
  -40957647.8157407     
  -40950547.1760805     
  -40943207.5949671     
  -40935657.1052687     
  -40927922.7629336     
  -40920030.6324456     
  -40912005.7713422     
  -40903872.2135129     
  -40895652.9510297     
  -40887369.9142835     
  -40879043.9502255     
  -40870694.7985141     
  -40862341.0653941     
  -40854000.1951986     
  -40845688.4395364     
  -40837420.8245167     
  -40829211.1164515     
  -40821071.7856275     
  -40813013.9652569     
  -40805047.4023327     
  -40797180.4153849     
  -40789419.9131546     
  -40781771.1891212     
  -40757165.9286051     
  -40766828.7839625     
  -40775059.7502825     
  -40781915.3840671     
  -40787451.7899636     
  -40791725.0055305     
  -40794790.7088855     
  -40796704.1198436     
  -40797519.9418025     
  -40797292.2898475     
  -40796074.6126641     
  -40793919.6193020     
  -40790879.2141707     
  -40787004.4396084     
  -40782345.4247908     
  -40776951.3403357     
  -40770870.3584833     
  -40764149.6189184     
  -40756835.2002458     
  -40748972.0969776     
  -40740604.2017449     
  -40731774.2923281     
  -40722524.0230250     
  -40712893.9198120     
  -40702923.3787204     
  -40692650.6668142     
  -40682112.9251311     
  -40671346.1729299     
  -40660385.3125717     
  -40649264.1343672     
  -40638015.3207182     
  -40626670.4489063     
  -40615259.9918964     
  -40603813.3165662     
  -40592358.6788141     
  -40580923.2150790     
  -40569532.9298893     
  -40558212.6791828     
  -40546986.1492271     
  -40535875.8309877     
  -40524902.9896275     
  -40514087.6284527     
  -40503448.4463971     
  -40493002.7890237     
  -40482766.5966147     
  -40472754.3580842     
  -40462979.0720289     
  -40453452.1586972     
  -40444183.2065810     
  -40435180.4733022     
  -40602161.1518018     
  -40607058.2169082     
  -40610379.1942770     
  -40612194.9799531     
  -40612577.1236739     
  -40611595.9490748     
  -40609321.0108851     
  -40605821.0867559     
  -40601164.0033825     
  -40595416.4951957     
  -40588644.1102667     
  -40580911.1378543     
  -40572280.5425651     
  -40562813.9026343     
  -40552571.3549022     
  -40541611.5492831     
  -40529991.6141903     
  -40517767.1331491     
  -40504992.1321269     
  -40491719.0768227     
  -40477998.8790863     
  -40463880.9116274     
  -40449413.0301395     
  -40434641.6018855     
  -40419611.5396990     
  -40404366.3402361     
  -40388948.1252326     
  -40373397.6844484     
  -40357754.5189630     
  -40342056.8835021     
  -40326341.8265248     
  -40310645.2268802     
  -40295001.8259304     
  -40279445.2541255     
  -40264008.0510815     
  -40248721.6782640     
  -40233616.5234272     
  -40218721.8960743     
  -40204066.0134865     
  -40189675.9774355     
  -40175577.7425413     
  -40161796.0778956     
  -40148354.5227200     
  -40135275.3321755     
  -40122579.4002796     
  -40110286.1436222     
  -40098413.3737219     
  -40086977.3397495     
  -40075993.1202932     
  -40065472.5109508     
  -40470760.5484460     
  -40469058.4355896     
  -40465646.8145205     
  -40460618.5585886     
  -40454061.1093684     
  -40446062.5218451     
  -40436709.8038508     
  -40426088.2009136     
  -40414281.1366292     
  -40401370.2208670     
  -40387435.1777076     
  -40372553.7245870     
  -40356801.4513944     
  -40340251.7243515     
  -40322975.6198964     
  -40305041.8853471     
  -40286516.9217787     
  -40267464.7858998     
  -40247947.2093234     
  -40228023.6345625     
  -40207751.2673056     
  -40187185.1442512     
  -40166378.2152713     
  -40145381.4381173     
  -40124243.8834142     
  -40103012.8473265     
  -40081733.9690778     
  -40060451.3504098     
  -40039207.6741046     
  -40018044.3188185     
  -39997001.4676881     
  -39976118.2084728     
  -39955432.6233564     
  -39934981.8669407     
  -39914802.2313702     
  -39894929.1978440     
  -39875397.4738690     
  -39856241.0153498     
  -39837493.0319028     
  -39819185.9728113     
  -39801351.4906190     
  -39784020.3813514     
  -39767222.5076616     
  -39750986.7253610     
  -39735340.8461572     
  -39720311.6402521     
  -39705924.7203884     
  -39692203.8257468     
  -39679169.5484179     
  -39666845.9596867     
  -40365545.9440127     
  -40354926.0795470     
  -40342495.6142741     
  -40328357.7548131     
  -40312630.5242870     
  -40295425.1597558     
  -40276848.8851936     
  -40257006.8249973     
  -40236001.9774878     
  -40213934.6274777     
  -40190901.8602437     
  -40166997.2886620     
  -40142310.9252923     
  -40116929.1232494     
  -40090934.5447223     
  -40064406.1457773     
  -40037419.1813820     
  -40010045.2388504     
  -39982352.3063858     
  -39954404.8798001     
  -39926264.1068973     
  -39897987.9662347     
  -39869631.4752116     
  -39841246.9215161     
  -39812884.1116785     
  -39784590.6305770     
  -39756412.1060494     
  -39728392.4731379     
  -39700574.2328704     
  -39672998.7007978     
  -39645706.2408040     
  -39618736.4800027     
  -39592128.5009149     
  -39565921.0077153     
  -39540152.4642432     
  -39514861.2028353     
  -39490085.5048524     
  -39465863.6558353     
  -39442233.9798290     
  -39419234.8570641     
  -39396904.7243813     
  -39375282.0455259     
  -39354405.2181426     
  -39334312.3665338     
  -39315040.9950391     
  -39296627.6438106     
  -39279108.1177529     
  -39262519.2486046     
  -39246900.4078142     
  -39232271.1611082     
  -40288541.8082405     
  -40266074.0637511     
  -40241694.6490002     
  -40215592.9418635     
  -40187896.8451804     
  -40158741.7855360     
  -40128267.3718438     
  -40096610.0580598     
  -40063900.2583002     
  -40030262.0333253     
  -39995813.4524616     
  -39960666.8400076     
  -39924928.7676823     
  -39888699.8908572     
  -39852074.7583488     
  -39815141.6883736     
  -39777982.7573295     
  -39740673.9132896     
  -39703285.2051438     
  -39665881.1082702     
  -39628520.9245965     
  -39591259.2358926     
  -39554146.3919820     
  -39517229.0189956     
  -39480550.5361138     
  -39444151.6720875     
  -39408070.9750504     
  -39372345.3106975     
  -39337010.3448241     
  -39302101.0065197     
  -39267651.9280507     
  -39233697.8566830     
  -39200274.0324858     
  -39167416.5246803     
  -39135162.5176259     
  -39103550.5366111     
  -39072620.6040763     
  -39042414.3201192     
  -39012974.8689632     
  -38984346.9675572     
  -38956576.7945073     
  -38929711.9630629     
  -38903801.6133927     
  -38878896.6498027     
  -38855049.9409607     
  -38832315.8041694     
  -38810747.3857935     
  -38790391.1514473     
  -38771287.5734261     
  -38753538.9335113     
  -40241014.6605314     
  -40202782.2212679     
  -40162747.7513078     
  -40120947.5725147     
  -40077616.1875780     
  -40032972.9558275     
  -39987205.5254987     
  -39940483.4546698     
  -39892967.5155483     
  -39844812.3757905     
  -39796165.7302845     
  -39747166.3661973     
  -39697942.4244027     
  -39648610.3064085     
  -39599274.2673311     
  -39550026.5739895     
  -39500948.0693826     
  -39452108.9992093     
  -39403569.9870068     
  -39355383.0761990     
  -39307592.7841147     
  -39260237.1336241     
  -39213348.6430230     
  -39166955.2652674     
  -39121081.2747257     
  -39075748.1042059     
  -39030975.1378177     
  -38986780.4667406     
  -38943181.6155042     
  -38900196.2460940     
  -38857842.8461223     
  -38816141.4053196     
  -38775114.0815026     
  -38734785.8525748     
  -38695185.1445311     
  -38656344.4162956     
  -38618300.6700400     
  -38581095.8404139     
  -38544776.9992903     
  -38509396.2989912     
  -38475010.5784244     
  -38441680.5989605     
  -38409470.0096790     
  -38378444.4454529     
  -38348671.7229948     
  -38320224.8377149     
  -38293189.3912260     
  -38267671.6393596     
  -38243775.4336329     
  -38221407.0965531     
  -40223156.8773965     
  -40164097.4189497     
  -40102771.5426409     
  -40040072.5290122     
  -39976242.7456800     
  -39911452.4504118     
  -39845911.2330550     
  -39779859.7595969     
  -39713543.3572788     
  -39647192.1014194     
  -39581010.0396910     
  -39515171.1539039     
  -39449819.3875902     
  -39385070.8094205     
  -39321016.7114584     
  -39257726.9579966     
  -39195253.2255116     
  -39133631.9655359     
  -39072887.0294920     
  -39013031.9517334     
  -38954071.9154312     
  -38896005.4383309     
  -38838825.8191994     
  -38782522.3852839     
  -38727081.5786709     
  -38672487.9164252     
  -38618724.8564638     
  -38565775.5986744     
  -38513623.8489565     
  -38462254.5726882     
  -38411654.7635721     
  -38361814.2537332     
  -38312726.5910655     
  -38264390.0096555     
  -38216808.5177341     
  -38169993.1234210     
  -38123963.2086932     
  -38078748.0416176     
  -38034388.3775861     
  -37990938.0283213     
  -37948465.1512680     
  -37907052.8016309     
  -37866797.9641539     
  -37827807.8514735     
  -37790191.9192603     
  -37754048.6769715     
  -37719451.0046743     
  -37686452.0224604     
  -37655195.3444434     
  -37626408.1882401     
  -40233914.8010518     
  -40144287.5142068     
  -40054893.7112940     
  -39964158.2316954     
  -39872288.5446852     
  -39779943.9664457     
  -39687790.1211388     
  -39596372.3352473     
  -39506099.1839391     
  -39417259.8930371     
  -39330048.5857659     
  -39244586.5994946     
  -39160940.6851657     
  -39079137.1315415     
  -38999172.4846973     
  -38921021.6023057     
  -38844643.6805322     
  -38769986.7579958     
  -38696991.0811744     
  -38625591.6195375     
  -38555719.9454546     
  -38487305.6394808     
  -38420277.3415654     
  -38354563.5394914     
  -38290093.1646532     
  -38226796.0500694     
  -38164603.2948883     
  -38103447.5725671     
  -38043263.4157775     
  -37983987.5095530     
  -37925559.0251765     
  -37867920.0309652     
  -37811016.0228732     
  -37754796.6284782     
  -37699216.5535446     
  -37644236.8626292     
  -37589826.7161807     
  -37535965.7287766     
  -37482647.1686319     
  -37429882.2867350     
  -37377706.1352207     
  -37326185.2729691     
  -37275427.6548424     
  -37225594.4647808     
  -37176911.8955173     
  -37129675.8188840     
  -37084228.4220718     
  -37040848.5100429     
  -36999396.6648623     
  -36958284.6661288     
  -40269821.9106176     
  -40141208.8309381     
  -40004386.7166244     
  -39866482.4052595     
  -39730823.5268431     
  -39598943.7431117     
  -39471495.9620479     
  -39348686.9283093     
  -39230493.0566670     
  -39116771.8892478     
  -39007321.5908722     
  -38901913.5122453     
  -38800310.2728049     
  -38702275.8061243     
  -38607580.8258011     
  -38516005.6299616     
  -38427341.3393976     
  -38341390.2097241     
  -38257965.3992875     
  -38176890.4235214     
  -38097998.4362295     
  -38021131.4233647     
  -37946139.3609304     
  -37872879.3674017     
  -37801214.8677107     
  -37731014.7774377     
  -37662152.7106444     
  -37594506.2117078     
  -37527956.0099494     
  -37462385.2954855     
  -37397679.0154966     
  -37333723.1921877     
  -37270404.2675789     
  -37207608.4868181     
  -37145221.3425585     
  -37083127.1209030     
  -37021208.6193913     
  -36959347.1583167     
  -36897423.0944055     
  -36835317.2007936     
  -36772913.5576973     
  -36710105.1205077     
  -36646804.1355938     
  -36582961.5680848     
  -36518603.8111609     
  -36453903.7143645     
  -36389322.4002938     
  -36325902.9958121     
  -36265903.6561363     
  -36214218.4051361     
  -40309236.2647075     
  -40054189.4429850     
  -39828405.1376275     
  -39624779.6034411     
  -39438723.0323111     
  -39267068.5234624     
  -39107512.2270007     
  -38958306.8645747     
  -38818083.2483375     
  -38685740.3027820     
  -38560373.8455396     
  -38441228.4581281     
  -38327663.7634536     
  -38219130.0643055     
  -38115150.2810209     
  -38015306.2568812     
  -37919228.1703173     
  -37826586.2054372     
  -37737083.8944332     
  -37650452.7167340     
  -37566447.6545891     
  -37484843.4833550     
  -37405431.6295136     
  -37328017.4681242     
  -37252417.9589169     
  -37178459.5398393     
  -37105976.2106367     
  -37034807.7483600     
  -36964798.0024180     
  -36895793.2193619     
  -36827640.3471615     
  -36760185.2651260     
  -36693270.8782803     
  -36626735.0029198     
  -36560407.9515127     
  -36494109.6973416     
  -36427646.4577387     
  -36360806.4721217     
  -36293354.6548038     
  -36225025.6512913     
  -36155514.5822297     
  -36084464.3507942     
  -36011447.6821992     
  -35935940.7897631     
  -35857283.1652222     
  -35774613.2751594     
  -35686760.2293764     
  -35592050.5324202     
  -35487941.8010028     
  -35370284.4024405     
SCALARS 2waySource double 
LOOKUP_TABLE default
  5.883933988267184E-005
  6.055572335685790E-005
  6.205950117717113E-005
  6.341049725605409E-005
  6.464425418120751E-005
  6.578363384394326E-005
  6.684441318422605E-005
  6.783813631355312E-005
  6.877365315496565E-005
  6.965799812757015E-005
  7.049692056536092E-005
  7.129522213720132E-005
  7.205698205718750E-005
  7.278571397313023E-005
  7.348447940362403E-005
  7.415597240898899E-005
  7.480258451842248E-005
  7.542645567061777E-005
  7.602951497544297E-005
  7.661351390040601E-005
  7.718005371840200E-005
  7.773060854973873E-005
  7.826654499258514E-005
  7.878913910299077E-005
  7.929959132313281E-005
  7.979903984255842E-005
  8.028857279841141E-005
  8.076923966834931E-005
  8.124206217929315E-005
  8.170804504391258E-005
  8.216818684451084E-005
  8.262349141299356E-005
  8.307498011033423E-005
  8.352370549795036E-005
  8.397076703050370E-005
  8.441732960762639E-005
  8.486464613854495E-005
  8.531408576116744E-005
  8.576717012355762E-005
  8.622562137006418E-005
  8.669142752020769E-005
  8.716693443037520E-005
  8.765497973945585E-005
  8.815909564837413E-005
  8.868382937133888E-005
  8.923527417392535E-005
  8.982199621425868E-005
  9.045674424087297E-005
  9.115978937623282E-005
  9.196583327688340E-005
  5.925102744862052E-005
  6.015308481077238E-005
  6.109704153532314E-005
  6.203634059428394E-005
  6.295168689068714E-005
  6.383566041874935E-005
  6.468611738834599E-005
  6.550327569842496E-005
  6.628839240285510E-005
  6.704314999265513E-005
  6.776936746320057E-005
  6.846886417649371E-005
  6.914339726473798E-005
  6.979463506368467E-005
  7.042414838269704E-005
  7.103341059732587E-005
  7.162380201898043E-005
  7.219661622112558E-005
  7.275306713148936E-005
  7.329429628429962E-005
  7.382137993364990E-005
  7.433533589269549E-005
  7.483713005156541E-005
  7.532768257500932E-005
  7.580787380733267E-005
  7.627854992727550E-005
  7.674052840443428E-005
  7.719460331475955E-005
  7.764155057722220E-005
  7.808213317787125E-005
  7.851710645157955E-005
  7.894722349578069E-005
  7.937324079356446E-005
  7.979592412395354E-005
  8.021605483100305E-005
  8.063443650279872E-005
  8.105190206087696E-005
  8.146932114894124E-005
  8.188760747449773E-005
  8.230772527044193E-005
  8.273069304014836E-005
  8.315758066488779E-005
  8.358949155772103E-005
  8.402751209824360E-005
  8.447258977617252E-005
  8.492525444237506E-005
  8.538498777807679E-005
  8.584878488605578E-005
  8.630781011137765E-005
  8.673943006661414E-005
  5.959622936069944E-005
  6.020683783002825E-005
  6.082108117133229E-005
  6.144522308037089E-005
  6.207538701692668E-005
  6.270605053519427E-005
  6.333249211032666E-005
  6.395124248199459E-005
  6.455994764901411E-005
  6.515711242386282E-005
  6.574186553971577E-005
  6.631377704251070E-005
  6.687272498535137E-005
  6.741880068106568E-005
  6.795224206137968E-005
  6.847338692114326E-005
  6.898264006943385E-005
  6.948045018617227E-005
  6.996729347281291E-005
  7.044366208664990E-005
  7.091005596687153E-005
  7.136697708230708E-005
  7.181492541830445E-005
  7.225439621639188E-005
  7.268587811446471E-005
  7.310985192682336E-005
  7.352678986502141E-005
  7.393715504066674E-005
  7.434140111499473E-005
  7.473997196999013E-005
  7.513330127299704E-005
  7.552181179001479E-005
  7.590591426949076E-005
  7.628600566277532E-005
  7.666246636059721E-005
  7.703565599297836E-005
  7.740590714161425E-005
  7.777351601759899E-005
  7.813872871897454E-005
  7.850172104434665E-005
  7.886256894152678E-005
  7.922120550260924E-005
  7.957735917791916E-005
  7.993046746250794E-005
  8.027956367450312E-005
  8.062315050990791E-005
  8.095912853730569E-005
  8.128501358160340E-005
  8.159915962359980E-005
  8.190508404299257E-005
  5.973698981924566E-005
  6.014337689899198E-005
  6.056427130446187E-005
  6.099465522716349E-005
  6.143286342665685E-005
  6.187735605359392E-005
  6.232630792281658E-005
  6.277779404956284E-005
  6.322999243443940E-005
  6.368129988699009E-005
  6.413037401768020E-005
  6.457613092150955E-005
  6.501772116520589E-005
  6.545449777554339E-005
  6.588598350410382E-005
  6.631184075779093E-005
  6.673184544884695E-005
  6.714586493620431E-005
  6.755383973617829E-005
  6.795576849638795E-005
  6.835169569552603E-005
  6.874170156885584E-005
  6.912589382144187E-005
  6.950440075676841E-005
  6.987736550792976E-005
  7.024494110826859E-005
  7.060728617732084E-005
  7.096456102654807E-005
  7.131692400823668E-005
  7.166452794084486E-005
  7.200751644537119E-005
  7.234602002037415E-005
  7.268015166827304E-005
  7.301000186308062E-005
  7.333563262144387E-005
  7.365707040882537E-005
  7.397429759014021E-005
  7.428724213854594E-005
  7.459576538580782E-005
  7.489964780569199E-005
  7.519857330059699E-005
  7.549211343690238E-005
  7.577971489172028E-005
  7.606069643523465E-005
  7.633426609017130E-005
  7.659957248474104E-005
  7.685579612498798E-005
  7.710222663496363E-005
  7.733802809751017E-005
  7.756054327173373E-005
  5.966821591054639E-005
  5.993213847361202E-005
  6.020899363900318E-005
  6.049795729946400E-005
  6.079728590372505E-005
  6.110542118370074E-005
  6.142100688204602E-005
  6.174279260774787E-005
  6.206958953089227E-005
  6.240026882062758E-005
  6.273377631780118E-005
  6.306914759803442E-005
  6.340551735195904E-005
  6.374212224347309E-005
  6.407829848251821E-005
  6.441347581558147E-005
  6.474716944511657E-005
  6.507897100961499E-005
  6.540853938710736E-005
  6.573559179064246E-005
  6.605989541197605E-005
  6.638125972613387E-005
  6.669952947745974E-005
  6.701457831161492E-005
  6.732630298587753E-005
  6.763461807312494E-005
  6.793945106743182E-005
  6.824073779709422E-005
  6.853841805202387E-005
  6.883243133546074E-005
  6.912271265457735E-005
  6.940918827132315E-005
  6.969177134522660E-005
  6.997035741630297E-005
  7.024481970268378E-005
  7.051500422963959E-005
  7.078072487171358E-005
  7.104175848634823E-005
  7.129784045272095E-005
  7.154866110174992E-005
  7.179386370418189E-005
  7.203304478189303E-005
  7.226575729927181E-005
  7.249151631824102E-005
  7.270980420709966E-005
  7.292006781643335E-005
  7.312169508645760E-005
  7.331396830771687E-005
  7.349608233190788E-005
  7.366773918836008E-005
  5.938528228476235E-005
  5.954275399489365E-005
  5.971346593950713E-005
  5.989616597799760E-005
  6.008988133649878E-005
  6.029358931138641E-005
  6.050626159341329E-005
  6.072690806779077E-005
  6.095458986662857E-005
  6.118841912991976E-005
  6.142755699287667E-005
  6.167121325985421E-005
  6.191864753499665E-005
  6.216917069633914E-005
  6.242214581622736E-005
  6.267698807514637E-005
  6.293316357386954E-005
  6.319018716042100E-005
  6.344761948113077E-005
  6.370506348245676E-005
  6.396216056778046E-005
  6.421858657452157E-005
  6.447404769525449E-005
  6.472827642859755E-005
  6.498102761437957E-005
  6.523207458335994E-005
  6.548120543424114E-005
  6.572821943892835E-005
  6.597292357034748E-005
  6.621512914483849E-005
  6.645464857298533E-005
  6.669129221850798E-005
  6.692486537458481E-005
  6.715516538064743E-005
  6.738197892002150E-005
  6.760507955845549E-005
  6.782422560265621E-005
  6.803915837032851E-005
  6.824960095815076E-005
  6.845525755511361E-005
  6.865581325526013E-005
  6.885093416312090E-005
  6.904026738595062E-005
  6.922344042212330E-005
  6.940005991077098E-005
  6.956971153617660E-005
  6.973196679794415E-005
  6.988640484104133E-005
  7.003263151072645E-005
  7.017009599596312E-005
  5.889190159240349E-005
  5.896938474495292E-005
  5.905952456459419E-005
  5.916153225328322E-005
  5.927456209992480E-005
  5.939781189644999E-005
  5.953050395418442E-005
  5.967187742287217E-005
  5.982119133733535E-005
  5.997772937422080E-005
  6.014080310411604E-005
  6.030975369436975E-005
  6.048395272608356E-005
  6.066280260368024E-005
  6.084573674235807E-005
  6.103221954078739E-005
  6.122174608481074E-005
  6.141384153317456E-005
  6.160806016665792E-005
  6.180398411369980E-005
  6.200122178887007E-005
  6.219940609357861E-005
  6.239819243277873E-005
  6.259725659993451E-005
  6.279629257760019E-005
  6.299501029468418E-005
  6.319313337517984E-005
  6.339039690769007E-005
  6.358654526095069E-005
  6.378132996793945E-005
  6.397450769996453E-005
  6.416583835218825E-005
  6.435508326283282E-005
  6.454200358921151E-005
  6.472635886370313E-005
  6.490790575064412E-005
  6.508639701954713E-005
  6.526158074022067E-005
  6.543319969205752E-005
  6.560099096750323E-005
  6.576468574949171E-005
  6.592400927417095E-005
  6.607868107630692E-005
  6.622841575272479E-005
  6.637292455569636E-005
  6.651191775199140E-005
  6.664510608894618E-005
  6.677219693141057E-005
  6.689288576156534E-005
  6.700691419756819E-005
  5.819755868103648E-005
  5.821505187486252E-005
  5.824449494689114E-005
  5.828522608083578E-005
  5.833660930712938E-005
  5.839800887935619E-005
  5.846879968946494E-005
  5.854837090054142E-005
  5.863612637078862E-005
  5.873148510968297E-005
  5.883388224118846E-005
  5.894277011268129E-005
  5.905761924490288E-005
  5.917791901285843E-005
  5.930317806184335E-005
  5.943292449673026E-005
  5.956670587792353E-005
  5.970408904377310E-005
  5.984465976958383E-005
  5.998802227006027E-005
  6.013379855349351E-005
  6.028162763965943E-005
  6.043116465744641E-005
  6.058207984151785E-005
  6.073405744950093E-005
  6.088679462219722E-005
  6.104000020948132E-005
  6.119339358401702E-005
  6.134670346402446E-005
  6.149966676520001E-005
  6.165202750057626E-005
  6.180353574565843E-005
  6.195394668450291E-005
  6.210301975043955E-005
  6.225051787292526E-005
  6.239620683967771E-005
  6.253985478129947E-005
  6.268123178487846E-005
  6.282010964464285E-005
  6.295626176237307E-005
  6.308946321661467E-005
  6.321949102155614E-005
  6.334612457944705E-005
  6.346914627510818E-005
  6.358834207011784E-005
  6.370350194092361E-005
  6.381442044862668E-005
  6.392089911199707E-005
  6.402275212264957E-005
  6.411979161563935E-005
  5.731654578262882E-005
  5.728977614275518E-005
  5.727405617393368E-005
  5.726887185141122E-005
  5.727370914892608E-005
  5.728806248480927E-005
  5.731143263338451E-005
  5.734332742183544E-005
  5.738326306868180E-005
  5.743076519374481E-005
  5.748536953764054E-005
  5.754662255822003E-005
  5.761408197037027E-005
  5.768731722322211E-005
  5.776590989036837E-005
  5.784945395596254E-005
  5.793755599118714E-005
  5.802983522354381E-005
  5.812592350512725E-005
  5.822546518728081E-005
  5.832811690933185E-005
  5.843354730936402E-005
  5.854143666560804E-005
  5.865147647785104E-005
  5.876336899918243E-005
  5.887682672922755E-005
  5.899157188064089E-005
  5.910733583096171E-005
  5.922385857200474E-005
  5.934088816870652E-005
  5.945818023888732E-005
  5.957549746470917E-005
  5.969260914581782E-005
  5.980929080332022E-005
  5.992532384296207E-005
  6.004049528525800E-005
  6.015459756985683E-005
  6.026742844101304E-005
  6.037879092020551E-005
  6.048849336998582E-005
  6.059634964920208E-005
  6.070217935431370E-005
  6.080580813846242E-005
  6.090706810976074E-005
  6.100579834582913E-005
  6.110184560749933E-005
  6.119506525628296E-005
  6.128532185728896E-005
  6.137248843805771E-005
  6.145645196600420E-005
  5.626667364677335E-005
  5.620807196536567E-005
  5.615953051948886E-005
  5.612064166866347E-005
  5.609100076171544E-005
  5.607020493264708E-005
  5.605785483221384E-005
  5.605355529214418E-005
  5.605691584457026E-005
  5.606755132232851E-005
  5.608508246224371E-005
  5.610913644937238E-005
  5.613934739015403E-005
  5.617535672138791E-005
  5.621681356141868E-005
  5.626337500541162E-005
  5.631470636412612E-005
  5.637048134559313E-005
  5.643038218032530E-005
  5.649409969217479E-005
  5.656133331817641E-005
  5.663179108161777E-005
  5.670518952323267E-005
  5.678125359590235E-005
  5.685971652864441E-005
  5.694031966602361E-005
  5.702281228935619E-005
  5.710695142629645E-005
  5.719250165547996E-005
  5.727923491288178E-005
  5.736693030648332E-005
  5.745537394561104E-005
  5.754435879109986E-005
  5.763368453206473E-005
  5.772315749469830E-005
  5.781259058801383E-005
  5.790180329084139E-005
  5.799062168360095E-005
  5.807887852751642E-005
  5.816641339316403E-005
  5.825307284009556E-005
  5.833871065027299E-005
  5.842318811990041E-005
  5.850637441383755E-005
  5.858814697661324E-005
  5.866839196941962E-005
  5.874700469898158E-005
  5.882389016751530E-005
  5.889896420971267E-005
  5.897215289474996E-005
  5.506785209082447E-005
  5.498720907786649E-005
  5.491559954822537E-005
  5.485270666254350E-005
  5.479821301708346E-005
  5.475180179794757E-005
  5.471315709066569E-005
  5.468196450705110E-005
  5.465791177842020E-005
  5.464068927353024E-005
  5.462999047608446E-005
  5.462551243505269E-005
  5.462695618468415E-005
  5.463402712913790E-005
  5.464643538951226E-005
  5.466389611332753E-005
  5.468612974743844E-005
  5.471286227555861E-005
  5.474382542163114E-005
  5.477875682050222E-005
  5.481740015769576E-005
  5.485950528046207E-005
  5.490482828269289E-005
  5.495313156662408E-005
  5.500418388453031E-005
  5.505776036384884E-005
  5.511364251931866E-005
  5.517161825585061E-005
  5.523148186589448E-005
  5.529303402508738E-005
  5.535608178995204E-005
  5.542043860129165E-005
  5.548592429683555E-005
  5.555236513647065E-005
  5.561959384316829E-005
  5.568744966242617E-005
  5.575577844274565E-005
  5.582443273936380E-005
  5.589327194321143E-005
  5.596216243686293E-005
  5.603097777893221E-005
  5.609959891771285E-005
  5.616791443351293E-005
  5.623582080762871E-005
  5.630322271689995E-005
  5.637003336088529E-005
  5.643617483800695E-005
  5.650157854318158E-005
  5.656618540239722E-005
  5.662994663158964E-005
  5.374078047920517E-005
  5.364571460456884E-005
  5.355866783976303E-005
  5.347939750942004E-005
  5.340765920896750E-005
  5.334320722426630E-005
  5.328579515018714E-005
  5.323517637712735E-005
  5.319110456558876E-005
  5.315333410966570E-005
  5.312162057569505E-005
  5.309572111333115E-005
  5.307539484076276E-005
  5.306040320525764E-005
  5.305051031931533E-005
  5.304548327238496E-005
  5.304509241837153E-005
  5.304911163948945E-005
  5.305731858730866E-005
  5.306949490205874E-005
  5.308542641142081E-005
  5.310490331020461E-005
  5.312772032245024E-005
  5.315367684764119E-005
  5.318257709287225E-005
  5.321423019291065E-005
  5.324845032018596E-005
  5.328505678682045E-005
  5.332387414083882E-005
  5.336473225868932E-005
  5.340746643622974E-005
  5.345191748021713E-005
  5.349793180232185E-005
  5.354536151754416E-005
  5.359406454880570E-005
  5.364390473933165E-005
  5.369475197429624E-005
  5.374648231299838E-005
  5.379897813263491E-005
  5.385212828446511E-005
  5.390582826283958E-005
  5.395998038733048E-005
  5.401449399816182E-005
  5.406928566542862E-005
  5.412427941252948E-005
  5.417940695164445E-005
  5.423460792352929E-005
  5.428983014284189E-005
  5.434502991237063E-005
  5.440017220418100E-005
  5.230586298209097E-005
  5.220220653016976E-005
  5.210560167143783E-005
  5.201586652446937E-005
  5.193281638873278E-005
  5.185626426456452E-005
  5.178602129558547E-005
  5.172189722556104E-005
  5.166370083042784E-005
  5.161124032847835E-005
  5.156432377286844E-005
  5.152275942647648E-005
  5.148635611843001E-005
  5.145492358220685E-005
  5.142827277562224E-005
  5.140621618314873E-005
  5.138856810101018E-005
  5.137514490555922E-005
  5.136576530550071E-005
  5.136025057863184E-005
  5.135842479387722E-005
  5.136011501949752E-005
  5.136515151839675E-005
  5.137336793156884E-005
  5.138460145075984E-005
  5.139869298147199E-005
  5.141548729749093E-005
  5.143483318812746E-005
  5.145658359938808E-005
  5.148059577027968E-005
  5.150673136544432E-005
  5.153485660526522E-005
  5.156484239456858E-005
  5.159656445095197E-005
  5.162990343371024E-005
  5.166474507422563E-005
  5.170098030859184E-005
  5.173850541310351E-005
  5.177722214312653E-005
  5.181703787572297E-005
  5.185786575628850E-005
  5.189962484932983E-005
  5.194224029334358E-005
  5.198564345938983E-005
  5.202977211257578E-005
  5.207457057594937E-005
  5.211998989825203E-005
  5.216598802566488E-005
  5.221252995482934E-005
  5.225958792291078E-005
  5.078240831045168E-005
  5.067453842424832E-005
  5.057282247860973E-005
  5.047712749732066E-005
  5.038731714021715E-005
  5.030325211560413E-005
  5.022479059426452E-005
  5.015178859979404E-005
  5.008410038748736E-005
  5.002157880988656E-005
  4.996407566796064E-005
  4.991144204819296E-005
  4.986352864596960E-005
  4.982018607544782E-005
  4.978126516607299E-005
  4.974661724594702E-005
  4.971609441236638E-005
  4.968954978987595E-005
  4.966683777624267E-005
  4.964781427678837E-005
  4.963233692758013E-005
  4.962026530798502E-005
  4.961146114317871E-005
  4.960578849718629E-005
  4.960311395710650E-005
  4.960330680915057E-005
  4.960623920718195E-005
  4.961178633441748E-005
  4.961982655897140E-005
  4.963024158390612E-005
  4.964291659244332E-005
  4.965774038894933E-005
  4.967460553629511E-005
  4.969340849012652E-005
  4.971404973054910E-005
  4.973643389164797E-005
  4.976046988922428E-005
  4.978607104702840E-005
  4.981315522171218E-005
  4.984164492662881E-005
  4.987146745450569E-005
  4.990255499891224E-005
  4.993484477433809E-005
  4.996827913462391E-005
  5.000280568950475E-005
  5.003837741886936E-005
  5.007495278352809E-005
  5.011249583094319E-005
  5.015097630201611E-005
  5.019036972206745E-005
  4.918810566650981E-005
  4.907923187547114E-005
  4.897569698090597E-005
  4.887740671163837E-005
  4.878426319318395E-005
  4.869616530848996E-005
  4.861300904453043E-005
  4.853468783149940E-005
  4.846109287083957E-005
  4.839211345291482E-005
  4.832763726457012E-005
  4.826755068649133E-005
  4.821173908033658E-005
  4.816008706574586E-005
  4.811247878735382E-005
  4.806879817194247E-005
  4.802892917591582E-005
  4.799275602327082E-005
  4.796016343431771E-005
  4.793103684535925E-005
  4.790526261965424E-005
  4.788272824991895E-005
  4.786332255271655E-005
  4.784693585504180E-005
  4.783346017346987E-005
  4.782278938619952E-005
  4.781481939837969E-005
  4.780944830104706E-005
  4.780657652405920E-005
  4.780610698335274E-005
  4.780794522286630E-005
  4.781199955143973E-005
  4.781818117498103E-005
  4.782640432415924E-005
  4.783658637785251E-005
  4.784864798253604E-005
  4.786251316775980E-005
  4.787810945780672E-005
  4.789536797958520E-005
  4.791422356674224E-005
  4.793461485992967E-005
  4.795648440310481E-005
  4.797977873568439E-005
  4.800444848030917E-005
  4.803044842586655E-005
  4.805773760534062E-005
  4.808627936819759E-005
  4.811604144721187E-005
  4.814699601704268E-005
  4.817911974835152E-005
  4.753873748721746E-005
  4.743114859834173E-005
  4.732817109723237E-005
  4.722974076165140E-005
  4.713578977304845E-005
  4.704624701483729E-005
  4.696103836500854E-005
  4.688008698104788E-005
  4.680331357810727E-005
  4.673063669999194E-005
  4.666197298282126E-005
  4.659723741135041E-005
  4.653634356792120E-005
  4.647920387401625E-005
  4.642572982442869E-005
  4.637583221406705E-005
  4.632942135744780E-005
  4.628640730096391E-005
  4.624670002799409E-005
  4.621020965697870E-005
  4.617684663257631E-005
  4.614652191004063E-005
  4.611914713295584E-005
  4.609463480449801E-005
  4.607289845237980E-005
  4.605385278764305E-005
  4.603741385747472E-005
  4.602349919220862E-005
  4.601202794667958E-005
  4.600292103608033E-005
  4.599610126648163E-005
  4.599149346012843E-005
  4.598902457565044E-005
  4.598862382326930E-005
  4.599022277509114E-005
  4.599375547052698E-005
  4.599915851687532E-005
  4.600637118505789E-005
  4.601533550047130E-005
  4.602599632889650E-005
  4.603830145735038E-005
  4.605220166975333E-005
  4.606765081722366E-005
  4.608460588279044E-005
  4.610302704027522E-005
  4.612287770708188E-005
  4.614412459053451E-005
  4.616673772724396E-005
  4.619069051574372E-005
  4.621595974075642E-005
  4.584807620043065E-005
  4.574334851260548E-005
  4.564259151781927E-005
  4.554576386133509E-005
  4.545282075705605E-005
  4.536371423161838E-005
  4.527839336411034E-005
  4.519680452163306E-005
  4.511889159019985E-005
  4.504459620090091E-005
  4.497385795115766E-005
  4.490661462092985E-005
  4.484280238375430E-005
  4.478235601251891E-005
  4.472520907990356E-005
  4.467129415343315E-005
  4.462054298508617E-005
  4.457288669546534E-005
  4.452825595248697E-005
  4.448658114461578E-005
  4.444779254865214E-005
  4.441182049209884E-005
  4.437859551013657E-005
  4.434804849725142E-005
  4.432011085356318E-005
  4.429471462589346E-005
  4.427179264363193E-005
  4.425127864944665E-005
  4.423310742488487E-005
  4.421721491090624E-005
  4.420353832339729E-005
  4.419201626366936E-005
  4.418258882399608E-005
  4.417519768816552E-005
  4.416978622706328E-005
  4.416629958926038E-005
  4.416468478656902E-005
  4.416489077451920E-005
  4.416686852768174E-005
  4.417057110974993E-005
  4.417595373827005E-005
  4.418297384388866E-005
  4.419159112396711E-005
  4.420176759039374E-005
  4.421346761139753E-005
  4.422665794714192E-005
  4.424130777887044E-005
  4.425738873140969E-005
  4.427487488856983E-005
  4.429374280148771E-005
  4.412791270001778E-005
  4.402708201397654E-005
  4.392966368521667E-005
  4.383563338700508E-005
  4.374496362303143E-005
  4.365762392254812E-005
  4.357358103341767E-005
  4.349279911268489E-005
  4.341523991449511E-005
  4.334086297511424E-005
  4.326962579484632E-005
  4.320148401666430E-005
  4.313639160139206E-005
  4.307430099929678E-005
  4.301516331794841E-005
  4.295892848624289E-005
  4.290554541447893E-005
  4.285496215040796E-005
  4.280712603118009E-005
  4.276198383111791E-005
  4.271948190526414E-005
  4.267956632866036E-005
  4.264218303131420E-005
  4.260727792881506E-005
  4.257479704858955E-005
  4.254468665174558E-005
  4.251689335050263E-005
  4.249136422117771E-005
  4.246804691270492E-005
  4.244688975067135E-005
  4.242784183683643E-005
  4.241085314410829E-005
  4.239587460694820E-005
  4.238285820715367E-005
  4.237175705497946E-005
  4.236252546554745E-005
  4.235511903046803E-005
  4.234949468461723E-005
  4.234561076797792E-005
  4.234342708245831E-005
  4.234290494358309E-005
  4.234400722694730E-005
  4.234669840930662E-005
  4.235094460417048E-005
  4.235671359175413E-005
  4.236397484313685E-005
  4.237269953846174E-005
  4.238286057898662E-005
  4.239443259285795E-005
  4.240739193433354E-005
  4.238817113989816E-005
  4.229187195971419E-005
  4.219850248400794E-005
  4.210805076122550E-005
  4.202050198104968E-005
  4.193583862752940E-005
  4.185404063143335E-005
  4.177508552157298E-005
  4.169894857481487E-005
  4.162560296456591E-005
  4.155501990750113E-005
  4.148716880833187E-005
  4.142201740242528E-005
  4.135953189609963E-005
  4.129967710444132E-005
  4.124241658648595E-005
  4.118771277763325E-005
  4.113552711917187E-005
  4.108582018480089E-005
  4.103855180402747E-005
  4.099368118237384E-005
  4.095116701827223E-005
  4.091096761658780E-005
  4.087304099867985E-005
  4.083734500894311E-005
  4.080383741773942E-005
  4.077247602068360E-005
  4.074321873419849E-005
  4.071602368729003E-005
  4.069084930948002E-005
  4.066765441483802E-005
  4.064639828205083E-005
  4.062704073047250E-005
  4.060954219208288E-005
  4.059386377929897E-005
  4.057996734856545E-005
  4.056781555964799E-005
  4.055737193056505E-005
  4.054860088806250E-005
  4.054146781356164E-005
  4.053593908448047E-005
  4.053198211084002E-005
  4.052956536705901E-005
  4.052865841882895E-005
  4.052923194497096E-005
  4.053125775415834E-005
  4.053470879639581E-005
  4.053955916914079E-005
  4.054578411794208E-005
  4.055336003149187E-005
  4.063707397674692E-005
  4.054564991573677E-005
  4.045674082367490E-005
  4.037034348876515E-005
  4.028645216697678E-005
  4.020505869988421E-005
  4.012615263268146E-005
  4.004972133209235E-005
  3.997575010393767E-005
  3.990422231013306E-005
  3.983511948489464E-005
  3.976842144993829E-005
  3.970410642850167E-005
  3.964215115797825E-005
  3.958253100101681E-005
  3.952522005491290E-005
  3.947019125914201E-005
  3.941741650090202E-005
  3.936686671852218E-005
  3.931851200261596E-005
  3.927232169486822E-005
  3.922826448433733E-005
  3.918630850116978E-005
  3.914642140763151E-005
  3.910857048636302E-005
  3.907272272576280E-005
  3.903884490242073E-005
  3.900690366051546E-005
  3.897686558809944E-005
  3.894869729018714E-005
  3.892236545858678E-005
  3.889783693838056E-005
  3.887507879100362E-005
  3.885405835382700E-005
  3.883474329619136E-005
  3.881710167180797E-005
  3.880110196746036E-005
  3.878671314792851E-005
  3.877390469706730E-005
  3.876264665496510E-005
  3.875290965110269E-005
  3.874466493343993E-005
  3.873788439335914E-005
  3.873254058637840E-005
  3.872860674856796E-005
  3.872605680858782E-005
  3.872486539527327E-005
  3.872500784069156E-005
  3.872646017859872E-005
  3.872919913822216E-005
  3.888133047255864E-005
  3.879492011286960E-005
  3.871066984394756E-005
  3.862858240822368E-005
  3.854865833584356E-005
  3.847089603360176E-005
  3.839529187461879E-005
  3.832184028853418E-005
  3.825053385198011E-005
  3.818136337913107E-005
  3.811431801212111E-005
  3.804938531113313E-005
  3.798655134398064E-005
  3.792580077500152E-005
  3.786711695309944E-005
  3.781048199876934E-005
  3.775587688996579E-005
  3.770328154665757E-005
  3.765267491394602E-005
  3.760403504360669E-005
  3.755733917393904E-005
  3.751256380780179E-005
  3.746968478872769E-005
  3.742867737500313E-005
  3.738951631162653E-005
  3.735217590002870E-005
  3.731663006548018E-005
  3.728285242208357E-005
  3.725081633527796E-005
  3.722049498175570E-005
  3.719186140673341E-005
  3.716488857847920E-005
  3.713954944003531E-005
  3.711581695805862E-005
  3.709366416870622E-005
  3.707306422050165E-005
  3.705399041411096E-005
  3.703641623896098E-005
  3.702031540664283E-005
  3.700566188102642E-005
  3.699242990503652E-005
  3.698059402402030E-005
  3.697012910565406E-005
  3.696101035633177E-005
  3.695321333397880E-005
  3.694671395724147E-005
  3.694148851100121E-005
  3.693751364816675E-005
  3.693476638770255E-005
  3.693322410885109E-005
  3.712632996792458E-005
  3.704493232917500E-005
  3.696539193111321E-005
  3.688771537834435E-005
  3.681190736283444E-005
  3.673797072965514E-005
  3.666590654380358E-005
  3.659571415788514E-005
  3.652739128046276E-005
  3.646093404489443E-005
  3.639633707845820E-005
  3.633359357160932E-005
  3.627269534718492E-005
  3.621363292940515E-005
  3.615639561251749E-005
  3.610097152892333E-005
  3.604734771666121E-005
  3.599551018609903E-005
  3.594544398571565E-005
  3.589713326683074E-005
  3.585056134718842E-005
  3.580571077325409E-005
  3.576256338113973E-005
  3.572110035603553E-005
  3.568130229005446E-005
  3.564314923840095E-005
  3.560662077375853E-005
  3.557169603882079E-005
  3.553835379687420E-005
  3.550657248035486E-005
  3.547633023730306E-005
  3.544760497563713E-005
  3.542037440518053E-005
  3.539461607736932E-005
  3.537030742257559E-005
  3.534742578498569E-005
  3.532594845497063E-005
  3.530585269889187E-005
  3.528711578628674E-005
  3.526971501438161E-005
  3.525362772988333E-005
  3.523883134800060E-005
  3.522530336865166E-005
  3.521302138981691E-005
  3.520196311799958E-005
  3.519210637575845E-005
  3.518342910627995E-005
  3.517590937496510E-005
  3.516952536800663E-005
  3.516425538793625E-005
  3.537632775389070E-005
  3.529985120924513E-005
  3.522497380309972E-005
  3.515170446411134E-005
  3.508005048015485E-005
  3.501001754583844E-005
  3.494160981124060E-005
  3.487482993167942E-005
  3.480967911836536E-005
  3.474615718976603E-005
  3.468426262351935E-005
  3.462399260876109E-005
  3.456534309870077E-005
  3.450830886331243E-005
  3.445288354200940E-005
  3.439905969615638E-005
  3.434682886130132E-005
  3.429618159900518E-005
  3.424710754814382E-005
  3.419959547557700E-005
  3.415363332606852E-005
  3.410920827135530E-005
  3.406630675826768E-005
  3.402491455579799E-005
  3.398501680103029E-005
  3.394659804383856E-005
  3.390964229027011E-005
  3.387413304453337E-005
  3.384005334950819E-005
  3.380738582570923E-005
  3.377611270862866E-005
  3.374621588438600E-005
  3.371767692362848E-005
  3.369047711361550E-005
  3.366459748842550E-005
  3.364001885723714E-005
  3.361672183062583E-005
  3.359468684482954E-005
  3.357389418393765E-005
  3.355432399995710E-005
  3.353595633071882E-005
  3.351877111558684E-005
  3.350274820893470E-005
  3.348786739136303E-005
  3.347410837862837E-005
  3.346145082826294E-005
  3.344987434386480E-005
  3.343935847704643E-005
  3.342988272702655E-005
  3.342142653786447E-005
  3.363461631484127E-005
  3.356291435086340E-005
  3.349259160808625E-005
  3.342365823482669E-005
  3.335612297956412E-005
  3.328999322439914E-005
  3.322527501974945E-005
  3.316197312014358E-005
  3.310009102097489E-005
  3.303963099607456E-005
  3.298059413597365E-005
  3.292298038673734E-005
  3.286678858922469E-005
  3.281201651866867E-005
  3.275866092445782E-005
  3.270671756999520E-005
  3.265618127253430E-005
  3.260704594287871E-005
  3.255930462484812E-005
  3.251294953439853E-005
  3.246797209831833E-005
  3.242436299238964E-005
  3.238211217893680E-005
  3.234120894367148E-005
  3.230164193175426E-005
  3.226339918298613E-005
  3.222646816606672E-005
  3.219083581183266E-005
  3.215648854541722E-005
  3.212341231725655E-005
  3.209159263288571E-005
  3.206101458146078E-005
  3.203166286295155E-005
  3.200352181394760E-005
  3.197657543203241E-005
  3.195080739867510E-005
  3.192620110059068E-005
  3.190273964953827E-005
  3.188040590050541E-005
  3.185918246825582E-005
  3.183905174220092E-005
  3.181999589956915E-005
  3.180199691684964E-005
  3.178503657948437E-005
  3.176909648979715E-005
  3.175415807313745E-005
  3.174020258223836E-005
  3.172721109977050E-005
  3.171516453909905E-005
  3.170404364324158E-005
  3.190367828276468E-005
  3.183657500840181E-005
  3.177066344106335E-005
  3.170595417744385E-005
  3.164245662420488E-005
  3.158017902080077E-005
  3.151912846348163E-005
  3.145931093037411E-005
  3.140073130752271E-005
  3.134339341577688E-005
  3.128730003841934E-005
  3.123245294943145E-005
  3.117885294229070E-005
  3.112649985919304E-005
  3.107539262061372E-005
  3.102552925509923E-005
  3.097690692920095E-005
  3.092952197746143E-005
  3.088336993236390E-005
  3.083844555415767E-005
  3.079474286047816E-005
  3.075225515568412E-005
  3.071097505983135E-005
  3.067089453720722E-005
  3.063200492436392E-005
  3.059429695756777E-005
  3.055776079961009E-005
  3.052238606591241E-005
  3.048816184986443E-005
  3.045507674733780E-005
  3.042311888032643E-005
  3.039227591965166E-005
  3.036253510669416E-005
  3.033388327409588E-005
  3.030630686540057E-005
  3.027979195358167E-005
  3.025432425842789E-005
  3.022988916274843E-005
  3.020647172736787E-005
  3.018405670488309E-005
  3.016262855215569E-005
  3.014217144151885E-005
  3.012266927067994E-005
  3.010410567130343E-005
  3.008646401626221E-005
  3.006972742554703E-005
  3.005387877083287E-005
  3.003890067869607E-005
  3.002477553248608E-005
  3.001148547286100E-005
  3.018531989294957E-005
  3.012262771507403E-005
  3.006096712821583E-005
  3.000034865706142E-005
  2.994078181650757E-005
  2.988227512659910E-005
  2.982483612854680E-005
  2.976847140175436E-005
  2.971318658174638E-005
  2.965898637892569E-005
  2.960587459806377E-005
  2.955385415844115E-005
  2.950292711455096E-005
  2.945309467729201E-005
  2.940435723555679E-005
  2.935671437814880E-005
  2.931016491594312E-005
  2.926470690421749E-005
  2.922033766508400E-005
  2.917705380994485E-005
  2.913485126190502E-005
  2.909372527807748E-005
  2.905367047171285E-005
  2.901468083408933E-005
  2.897674975611318E-005
  2.893987004955296E-005
  2.890403396787361E-005
  2.886923322659856E-005
  2.883545902316056E-005
  2.880270205618880E-005
  2.877095254418601E-005
  2.874020024355209E-005
  2.871043446591537E-005
  2.868164409472891E-005
  2.865381760110130E-005
  2.862694305882464E-005
  2.860100815857038E-005
  2.857600022122417E-005
  2.855190621033594E-005
  2.852871274366440E-005
  2.850640610378891E-005
  2.848497224778203E-005
  2.846439681592118E-005
  2.844466513943127E-005
  2.842576224725022E-005
  2.840767287181244E-005
  2.839038145384845E-005
  2.837387214620018E-005
  2.835812881666085E-005
  2.834313504984245E-005
  2.848078531943928E-005
  2.842231674925907E-005
  2.836474277776643E-005
  2.830807352240349E-005
  2.825231824409716E-005
  2.819748535647535E-005
  2.814358243603763E-005
  2.809061623324392E-005
  2.803859268442406E-005
  2.798751692445844E-005
  2.793739330014901E-005
  2.788822538422428E-005
  2.784001598989363E-005
  2.779276718591165E-005
  2.774648031205664E-005
  2.770115599498675E-005
  2.765679416439335E-005
  2.761339406939869E-005
  2.757095429513787E-005
  2.752947277946414E-005
  2.748894682972201E-005
  2.744937313953220E-005
  2.741074780554239E-005
  2.737306634407743E-005
  2.733632370765637E-005
  2.730051430131390E-005
  2.726563199869043E-005
  2.723167015784034E-005
  2.719862163672066E-005
  2.716647880831506E-005
  2.713523357536364E-005
  2.710487738465043E-005
  2.707540124082695E-005
  2.704679571973232E-005
  2.701905098118260E-005
  2.699215678120559E-005
  2.696610248368973E-005
  2.694087707143026E-005
  2.691646915654916E-005
  2.689286699027468E-005
  2.687005847205823E-005
  2.684803115802459E-005
  2.682677226873858E-005
  2.680626869628241E-005
  2.678650701063877E-005
  2.676747346537726E-005
  2.674915400264293E-005
  2.673153425745052E-005
  2.671459956129092E-005
  2.669833494505507E-005
  2.679085322107039E-005
  2.673642837418216E-005
  2.668278064400154E-005
  2.662991953908870E-005
  2.657785384086447E-005
  2.652659160876511E-005
  2.647614018623891E-005
  2.642650620754771E-005
  2.637769560529877E-005
  2.632971361867763E-005
  2.628256480230314E-005
  2.623625303568031E-005
  2.619078153316966E-005
  2.614615285444612E-005
  2.610236891538066E-005
  2.605943099930201E-005
  2.601733976858149E-005
  2.597609527650408E-005
  2.593569697936671E-005
  2.589614374876026E-005
  2.585743388399465E-005
  2.581956512461822E-005
  2.578253466298656E-005
  2.574633915684498E-005
  2.571097474188005E-005
  2.567643704420113E-005
  2.564272119271788E-005
  2.560982183137533E-005
  2.557773313121157E-005
  2.554644880220870E-005
  2.551596210490259E-005
  2.548626586172572E-005
  2.545735246805170E-005
  2.542921390291951E-005
  2.540184173941242E-005
  2.537522715466925E-005
  2.534936093950800E-005
  2.532423350764447E-005
  2.529983490448997E-005
  2.527615481551385E-005
  2.525318257415782E-005
  2.523090716929459E-005
  2.520931725222098E-005
  2.518840114318091E-005
  2.516814683741414E-005
  2.514854201073132E-005
  2.512957402461298E-005
  2.511122993083967E-005
  2.509349647565593E-005
  2.507636010347782E-005
  2.511591733038635E-005
  2.506536833963896E-005
  2.501549546260668E-005
  2.496630749127662E-005
  2.491781259913622E-005
  2.487001834354029E-005
  2.482293166879926E-005
  2.477655890996418E-005
  2.473090579725368E-005
  2.468597746108985E-005
  2.464177843770111E-005
  2.459831267525518E-005
  2.455558354047546E-005
  2.451359382570480E-005
  2.447234575638086E-005
  2.443184099887588E-005
  2.439208066866513E-005
  2.435306533879173E-005
  2.431479504858289E-005
  2.427726931258160E-005
  2.424048712966410E-005
  2.420444699230030E-005
  2.416914689592755E-005
  2.413458434840452E-005
  2.410075637951063E-005
  2.406765955046285E-005
  2.403528996341676E-005
  2.400364327092760E-005
  2.397271468534008E-005
  2.394249898808259E-005
  2.391299053884022E-005
  2.388418328458541E-005
  2.385607076844206E-005
  2.382864613836113E-005
  2.380190215559482E-005
  2.377583120294624E-005
  2.375042529278015E-005
  2.372567607478112E-005
  2.370157484344824E-005
  2.367811254531051E-005
  2.365527978585966E-005
  2.363306683618878E-005
  2.361146363933121E-005
  2.359045981629853E-005
  2.357004467181135E-005
  2.355020719972659E-005
  2.353093608815936E-005
  2.351221972430279E-005
  2.349404619895505E-005
  2.347640331075339E-005
  2.345605311236376E-005
  2.340922638675714E-005
  2.336298872093731E-005
  2.331734814662642E-005
  2.327231216800603E-005
  2.322788776224017E-005
  2.318408138060891E-005
  2.314089895023047E-005
  2.309834587634252E-005
  2.305642704510897E-005
  2.301514682692267E-005
  2.297450908017973E-005
  2.293451715548481E-005
  2.289517390026946E-005
  2.285648166378163E-005
  2.281844230242514E-005
  2.278105718541368E-005
  2.274432720071513E-005
  2.270825276125260E-005
  2.267283381133552E-005
  2.263806983329416E-005
  2.260395985428745E-005
  2.257050245326312E-005
  2.253769576803374E-005
  2.250553750245502E-005
  2.247402493367675E-005
  2.244315491943908E-005
  2.241292390540094E-005
  2.238332793246919E-005
  2.235436264411536E-005
  2.232602329365639E-005
  2.229830475148235E-005
  2.227120151221389E-005
  2.224470770177159E-005
  2.221881708434611E-005
  2.219352306925081E-005
  2.216881871764869E-005
  2.214469674913785E-005
  2.212114954818996E-005
  2.209816917043115E-005
  2.207574734875853E-005
  2.205387549928539E-005
  2.203254472711268E-005
  2.201174583192322E-005
  2.199146931339624E-005
  2.197170537644197E-005
  2.195244393625879E-005
  2.193367462321673E-005
  2.191538678756771E-005
  2.189756950399135E-005
  2.181107251595706E-005
  2.176782954639790E-005
  2.172510042667672E-005
  2.168289242639374E-005
  2.164121236369695E-005
  2.160006660464115E-005
  2.155946106306821E-005
  2.151940120097493E-005
  2.147989202936167E-005
  2.144093810952764E-005
  2.140254355479813E-005
  2.136471203266104E-005
  2.132744676728335E-005
  2.129075054239820E-005
  2.125462570452497E-005
  2.121907416651186E-005
  2.118409741137215E-005
  2.114969649639309E-005
  2.111587205749795E-005
  2.108262431383454E-005
  2.104995307257586E-005
  2.101785773390392E-005
  2.098633729616401E-005
  2.095539036116219E-005
  2.092501513959312E-005
  2.089520945657243E-005
  2.086597075726542E-005
  2.083729611258246E-005
  2.080918222493328E-005
  2.078162543402020E-005
  2.075462172265753E-005
  2.072816672260056E-005
  2.070225572037057E-005
  2.067688366306409E-005
  2.065204516413837E-005
  2.062773450915220E-005
  2.060394566146611E-005
  2.058067226788072E-005
  2.055790766421304E-005
  2.053564488080310E-005
  2.051387664794128E-005
  2.049259540121886E-005
  2.047179328678982E-005
  2.045146216654972E-005
  2.043159362322589E-005
  2.041217896538040E-005
  2.039320923232476E-005
  2.037467519895381E-005
  2.035656738049639E-005
  2.033887603719018E-005
  2.018056871766796E-005
  2.014078594536291E-005
  2.010145190697147E-005
  2.006257313389506E-005
  2.002415576978814E-005
  1.998620556924566E-005
  1.994872789692664E-005
  1.991172772708298E-005
  1.987520964349597E-005
  1.983917783978574E-005
  1.980363612009754E-005
  1.976858790013490E-005
  1.973403620852985E-005
  1.969998368853102E-005
  1.966643259999435E-005
  1.963338482166327E-005
  1.960084185371003E-005
  1.956880482053955E-005
  1.953727447382195E-005
  1.950625119574926E-005
  1.947573500249538E-005
  1.944572554786127E-005
  1.941622212709893E-005
  1.938722368088502E-005
  1.935872879944528E-005
  1.933073572679946E-005
  1.930324236512759E-005
  1.927624627923168E-005
  1.924974470108848E-005
  1.922373453447752E-005
  1.919821235967259E-005
  1.917317443818735E-005
  1.914861671756272E-005
  1.912453483618633E-005
  1.910092412813747E-005
  1.907777962804715E-005
  1.905509607596464E-005
  1.903286792222837E-005
  1.901108933232868E-005
  1.898975419176343E-005
  1.896885611087817E-005
  1.894838842968886E-005
  1.892834422268507E-005
  1.890871630360988E-005
  1.888949723021820E-005
  1.887067930901080E-005
  1.885225459994847E-005
  1.883421492114252E-005
  1.881655185352937E-005
  1.879925674553229E-005
  1.856395256790431E-005
  1.852752068668563E-005
  1.849148106118688E-005
  1.845583952295599E-005
  1.842060156927826E-005
  1.838577236153210E-005
  1.835135672390554E-005
  1.831735914244856E-005
  1.828378376446300E-005
  1.825063439821478E-005
  1.821791451295662E-005
  1.818562723925366E-005
  1.815377536959454E-005
  1.812236135928469E-005
  1.809138732760068E-005
  1.806085505920038E-005
  1.803076600577347E-005
  1.800112128792289E-005
  1.797192169726077E-005
  1.794316769871274E-005
  1.791485943301267E-005
  1.788699671938183E-005
  1.785957905837505E-005
  1.783260563488845E-005
  1.780607532131267E-005
  1.777998668082368E-005
  1.775433797080001E-005
  1.772912714635553E-005
  1.770435186397932E-005
  1.768000948527160E-005
  1.765609708076848E-005
  1.763261143384639E-005
  1.760954904469805E-005
  1.758690613437281E-005
  1.756467864887340E-005
  1.754286226330548E-005
  1.752145238607105E-005
  1.750044416310203E-005
  1.747983248212970E-005
  1.745961197698460E-005
  1.743977703192490E-005
  1.742032178599119E-005
  1.740124013738167E-005
  1.738252574785147E-005
  1.736417204713211E-005
  1.734617223737091E-005
  1.732851929759196E-005
  1.731120598818155E-005
  1.729422485539390E-005
  1.727756823588726E-005
  1.696048223530437E-005
  1.692730518841048E-005
  1.689447134121945E-005
  1.686198587039518E-005
  1.682985366344055E-005
  1.679807931695156E-005
  1.676666713515764E-005
  1.673562112874964E-005
  1.670494501398330E-005
  1.667464221205207E-005
  1.664471584872523E-005
  1.661516875424052E-005
  1.658600346344168E-005
  1.655722221615793E-005
  1.652882695781235E-005
  1.650081934025476E-005
  1.647320072280371E-005
  1.644597217349884E-005
  1.641913447054634E-005
  1.639268810395218E-005
  1.636663327733408E-005
  1.634096990990644E-005
  1.631569763862276E-005
  1.629081582047624E-005
  1.626632353494075E-005
  1.624221958655416E-005
  1.621850250762711E-005
  1.619517056107472E-005
  1.617222174336515E-005
  1.614965378757132E-005
  1.612746416652822E-005
  1.610565009608217E-005
  1.608420853842784E-005
  1.606313620552971E-005
  1.604242956262179E-005
  1.602208483177621E-005
  1.600209799554514E-005
  1.598246480066279E-005
  1.596318076180994E-005
  1.594424116543629E-005
  1.592564107363624E-005
  1.590737532807781E-005
  1.588943855398398E-005
  1.587182516416124E-005
  1.585452936307910E-005
  1.583754515099632E-005
  1.582086632813809E-005
  1.580448649892076E-005
  1.578839907622882E-005
  1.577259728574322E-005
  1.536928732571958E-005
  1.533928117421614E-005
  1.530957556904583E-005
  1.528017507842340E-005
  1.525108401966458E-005
  1.522230645747641E-005
  1.519384620248430E-005
  1.516570680999293E-005
  1.513789157897841E-005
  1.511040355130530E-005
  1.508324551116176E-005
  1.505641998471431E-005
  1.502992923996996E-005
  1.500377528684376E-005
  1.497795987742516E-005
  1.495248450643774E-005
  1.492735041188587E-005
  1.490255857588208E-005
  1.487810972565019E-005
  1.485400433469706E-005
  1.483024262414547E-005
  1.480682456422587E-005
  1.478374987591658E-005
  1.476101803272833E-005
  1.473862826262880E-005
  1.471657955009705E-005
  1.469487063830688E-005
  1.467350003142912E-005
  1.465246599705239E-005
  1.463176656871214E-005
  1.461139954852464E-005
  1.459136250992530E-005
  1.457165280049964E-005
  1.455226754490650E-005
  1.453320364789271E-005
  1.451445779738695E-005
  1.449602646767849E-005
  1.447790592267207E-005
  1.446009221921704E-005
  1.444258121051003E-005
  1.442536854956889E-005
  1.440844969277311E-005
  1.439181990347318E-005
  1.437547425566378E-005
  1.435940763772527E-005
  1.434361475622740E-005
  1.432809013979923E-005
  1.431282814306390E-005
  1.429782295063919E-005
  1.428306858120428E-005
  1.378938854593021E-005
  1.376248032447091E-005
  1.373583553790214E-005
  1.370945819064984E-005
  1.368335206893479E-005
  1.365752073918614E-005
  1.363196754665017E-005
  1.360669561418709E-005
  1.358170784126421E-005
  1.355700690313029E-005
  1.353259525017876E-005
  1.350847510748926E-005
  1.348464847454988E-005
  1.346111712515063E-005
  1.343788260744996E-005
  1.341494624420703E-005
  1.339230913317439E-005
  1.336997214765389E-005
  1.334793593720219E-005
  1.332620092848920E-005
  1.330476732629945E-005
  1.328363511467860E-005
  1.326280405821281E-005
  1.324227370344365E-005
  1.322204338041013E-005
  1.320211220431539E-005
  1.318247907731299E-005
  1.316314269040953E-005
  1.314410152547894E-005
  1.312535385738569E-005
  1.310689775621181E-005
  1.308873108958508E-005
  1.307085152510550E-005
  1.305325653286455E-005
  1.303594338805718E-005
  1.301890917368262E-005
  1.300215078333112E-005
  1.298566492405254E-005
  1.296944811930826E-005
  1.295349671200156E-005
  1.293780686758667E-005
  1.292237457725355E-005
  1.290719566118657E-005
  1.289226577189963E-005
  1.287758039764122E-005
  1.286313486587610E-005
  1.284892434683618E-005
  1.283494385714521E-005
  1.282118826351646E-005
  1.280765228652182E-005
  1.221971379552518E-005
  1.219584042676130E-005
  1.217219819085655E-005
  1.214879056944863E-005
  1.212562085414525E-005
  1.210269214510379E-005
  1.208000734977255E-005
  1.205756918178810E-005
  1.203538016003015E-005
  1.201344260783390E-005
  1.199175865235189E-005
  1.197033022407176E-005
  1.194915905648221E-005
  1.192824668588757E-005
  1.190759445136684E-005
  1.188720349487651E-005
  1.186707476149281E-005
  1.184720899979299E-005
  1.182760676236961E-005
  1.180826840647821E-005
  1.178919409481227E-005
  1.177038379640645E-005
  1.175183728766045E-005
  1.173355415348444E-005
  1.171553378856057E-005
  1.169777539871855E-005
  1.168027800242309E-005
  1.166304043236764E-005
  1.164606133717630E-005
  1.162933918320411E-005
  1.161287225644121E-005
  1.159665866451172E-005
  1.158069633876810E-005
  1.156498303647755E-005
  1.154951634309827E-005
  1.153429367464477E-005
  1.151931228013750E-005
  1.150456924413751E-005
  1.149006148936240E-005
  1.147578577938467E-005
  1.146173872140777E-005
  1.144791676912036E-005
  1.143431622562967E-005
  1.142093324646764E-005
  1.140776384267466E-005
  1.139480388395766E-005
  1.138204910192179E-005
  1.136949509337591E-005
  1.135713732371374E-005
  1.134497113036637E-005
  1.065911140728310E-005
  1.063821871496732E-005
  1.061752903363728E-005
  1.059704535854657E-005
  1.057677051942321E-005
  1.055670717923561E-005
  1.053685783309162E-005
  1.051722480726417E-005
  1.049781025834756E-005
  1.047861617254369E-005
  1.045964436507402E-005
  1.044089647972137E-005
  1.042237398849589E-005
  1.040407819142595E-005
  1.038601021647391E-005
  1.036817101957288E-005
  1.035056138478327E-005
  1.033318192456907E-005
  1.031603308019148E-005
  1.029911512221448E-005
  1.028242815112719E-005
  1.026597209807539E-005
  1.024974672570183E-005
  1.023375162909342E-005
  1.021798623683486E-005
  1.020244981216323E-005
  1.018714145422448E-005
  1.017206009942748E-005
  1.015720452289642E-005
  1.014257334001518E-005
  1.012816500806757E-005
  1.011397782796567E-005
  1.010000994606918E-005
  1.008625935608968E-005
  1.007272390108255E-005
  1.005940127552163E-005
  1.004628902745608E-005
  1.003338456074750E-005
  1.002068513738843E-005
  1.000818787989754E-005
  9.995889773791823E-006
  9.983787670134240E-006
  9.971878288158893E-006
  9.960158217966932E-006
  9.948623923298064E-006
  9.937271744374385E-006
  9.926097900815323E-006
  9.915098494625945E-006
  9.904269513255126E-006
  9.893606832725130E-006
  9.106361117567839E-006
  9.088402957016565E-006
  9.070623319575989E-006
  9.053024745600754E-006
  9.035609631447885E-006
  9.018380228429238E-006
  9.001338641873785E-006
  8.984486830291343E-006
  8.967826604647095E-006
  8.951359627741589E-006
  8.935087413695804E-006
  8.919011327544580E-006
  8.903132584933737E-006
  8.887452251924532E-006
  8.871971244899446E-006
  8.856690330575227E-006
  8.841610126114858E-006
  8.826731099344238E-006
  8.812053569067742E-006
  8.797577705484037E-006
  8.783303530698531E-006
  8.769230919335306E-006
  8.755359599242209E-006
  8.741689152291040E-006
  8.728219015270275E-006
  8.714948480870394E-006
  8.701876698756989E-006
  8.689002676734025E-006
  8.676325281993716E-006
  8.663843242451751E-006
  8.651555148166964E-006
  8.639459452844388E-006
  8.627554475418139E-006
  8.615838401716875E-006
  8.604309286206202E-006
  8.592965053809367E-006
  8.581803501804427E-006
  8.570822301797019E-006
  8.560019001766128E-006
  8.549391028184552E-006
  8.538935688211010E-006
  8.528650171951783E-006
  8.518531554796097E-006
  8.508576799818392E-006
  8.498782760250131E-006
  8.489146182020254E-006
  8.479663706362548E-006
  8.470331872490501E-006
  8.461147120338668E-006
  8.452105793369263E-006
  7.560183232521183E-006
  7.545120743055629E-006
  7.530215443503667E-006
  7.515469445967046E-006
  7.500884737662380E-006
  7.486463180049352E-006
  7.472206508049894E-006
  7.458116329349393E-006
  7.444194123790735E-006
  7.430441242852814E-006
  7.416858909220683E-006
  7.403448216439663E-006
  7.390210128662638E-006
  7.377145480481585E-006
  7.364254976849683E-006
  7.351539193088651E-006
  7.338998574985013E-006
  7.326633438971881E-006
  7.314443972396964E-006
  7.302430233875521E-006
  7.290592153728203E-006
  7.278929534502852E-006
  7.267442051577745E-006
  7.256129253848702E-006
  7.244990564496172E-006
  7.234025281832551E-006
  7.223232580229043E-006
  7.212611511120478E-006
  7.202161004086748E-006
  7.191879868011718E-006
  7.181766792315853E-006
  7.171820348263848E-006
  7.162038990345878E-006
  7.152421057729351E-006
  7.142964775782922E-006
  7.133668257671863E-006
  7.124529506020368E-006
  7.115546414644093E-006
  7.106716770348954E-006
  7.098038254797332E-006
  7.089508446440448E-006
  7.081124822514489E-006
  7.072884761101723E-006
  7.064785543254817E-006
  7.056824355185600E-006
  7.048998290512595E-006
  7.041304352572936E-006
  7.033739456794301E-006
  7.026300433126237E-006
  7.018984028532603E-006
  6.019246361112698E-006
  6.007047336347874E-006
  5.994986897427873E-006
  5.983066750321232E-006
  5.971288493260992E-006
  5.959653616036839E-006
  5.948163499355684E-006
  5.936819414274330E-006
  5.925622521703894E-006
  5.914573871986819E-006
  5.903674404547994E-006
  5.892924947617515E-006
  5.882326218027955E-006
  5.871878821084627E-006
  5.861583250509937E-006
  5.851439888460092E-006
  5.841449005616979E-006
  5.831610761350837E-006
  5.821925203957767E-006
  5.812392270968526E-006
  5.803011789529531E-006
  5.793783476855842E-006
  5.784706940755387E-006
  5.775781680222603E-006
  5.767007086103339E-006
  5.758382441828863E-006
  5.749906924217578E-006
  5.741579604346513E-006
  5.733399448489142E-006
  5.725365319118810E-006
  5.717475975980838E-006
  5.709730077226949E-006
  5.702126180616229E-006
  5.694662744779292E-006
  5.687338130543955E-006
  5.680150602325885E-006
  5.673098329578834E-006
  5.666179388305675E-006
  5.659391762630490E-006
  5.652733346429007E-006
  5.646201945018738E-006
  5.639795276905798E-006
  5.633510975590599E-006
  5.627346591427900E-006
  5.621299593545347E-006
  5.615367371815211E-006
  5.609547238881614E-006
  5.603836432242050E-006
  5.598232116381844E-006
  5.592731384960696E-006
  4.482174009778826E-006
  4.472812376637001E-006
  4.463573072101528E-006
  4.454457414026252E-006
  4.445466628094592E-006
  4.436601847250851E-006
  4.427864111190781E-006
  4.419254365909505E-006
  4.410773463308685E-006
  4.402422160863338E-006
  4.394201121348059E-006
  4.386110912624281E-006
  4.378152007487689E-006
  4.370324783577076E-006
  4.362629523343515E-006
  4.355066414081669E-006
  4.347635548020660E-006
  4.340336922477919E-006
  4.333170440073402E-006
  4.326135909004478E-006
  4.319233043382124E-006
  4.312461463627105E-006
  4.305820696927117E-006
  4.299310177753037E-006
  4.292929248434857E-006
  4.286677159798734E-006
  4.280553071859621E-006
  4.274556054574452E-006
  4.268685088653292E-006
  4.262939066426303E-006
  4.257316792769596E-006
  4.251816986085582E-006
  4.246438279340134E-006
  4.241179221155570E-006
  4.236038276956083E-006
  4.231013830170612E-006
  4.226104183486274E-006
  4.221307560155872E-006
  4.216622105358525E-006
  4.212045887611102E-006
  4.207576900230463E-006
  4.203213062847751E-006
  4.198952222970605E-006
  4.194792157597220E-006
  4.190730574876334E-006
  4.186765115818225E-006
  4.182893356050075E-006
  4.179112807621880E-006
  4.175420920855165E-006
  4.171815086239437E-006
  2.947550272777467E-006
  2.941005667699726E-006
  2.934569133253398E-006
  2.928241613576694E-006
  2.922023974916862E-006
  2.915917005187020E-006
  2.909921413568525E-006
  2.904037830160444E-006
  2.898266805676928E-006
  2.892608811193149E-006
  2.887064237939662E-006
  2.881633397145840E-006
  2.876316519934279E-006
  2.871113757262870E-006
  2.866025179918481E-006
  2.861050778560895E-006
  2.856190463817017E-006
  2.851444066425361E-006
  2.846811337432063E-006
  2.842291948436518E-006
  2.837885491887049E-006
  2.833591481429874E-006
  2.829409352304103E-006
  2.825338461791531E-006
  2.821378089712296E-006
  2.817527438972938E-006
  2.813785636162995E-006
  2.810151732200598E-006
  2.806624703027560E-006
  2.803203450352504E-006
  2.799886802442450E-006
  2.796673514961308E-006
  2.793562271857509E-006
  2.790551686297422E-006
  2.787640301644943E-006
  2.784826592488048E-006
  2.782108965710903E-006
  2.779485761610647E-006
  2.776955255058675E-006
  2.774515656707628E-006
  2.772165114240018E-006
  2.769901713660958E-006
  2.767723480634260E-006
  2.765628381858998E-006
  2.763614326489274E-006
  2.761679167593832E-006
  2.759820703656727E-006
  2.758036680117346E-006
  2.756324790950276E-006
  2.754682680283219E-006
  1.413924804894794E-006
  1.410182235032326E-006
  1.406535157313161E-006
  1.402984153399839E-006
  1.399529740318019E-006
  1.396172370120035E-006
  1.392912429582992E-006
  1.389750239945952E-006
  1.386686056686105E-006
  1.383720069330728E-006
  1.380852401312261E-006
  1.378083109859364E-006
  1.375412185929859E-006
  1.372839554183644E-006
  1.370365072994757E-006
  1.367988534507070E-006
  1.365709664726953E-006
  1.363528123661363E-006
  1.361443505493060E-006
  1.359455338800365E-006
  1.357563086815365E-006
  1.355766147725854E-006
  1.354063855016634E-006
  1.352455477853417E-006
  1.350940221506363E-006
  1.349517227815364E-006
  1.348185575696196E-006
  1.346944281687330E-006
  1.345792300536041E-006
  1.344728525826061E-006
  1.343751790644107E-006
  1.342860868286825E-006
  1.342054473006401E-006
  1.341331260795101E-006
  1.340689830209671E-006
  1.340128723232099E-006
  1.339646426170827E-006
  1.339241370596837E-006
  1.338911934319197E-006
  1.338656442396101E-006
  1.338473168183161E-006
  1.338360334416447E-006
  1.338316114332373E-006
  1.338338632821891E-006
  1.338425967619304E-006
  1.338576150525466E-006
  1.338787168663232E-006
  1.339056965768539E-006
  1.339383443511452E-006
  1.339764462850739E-006
 -1.201827736033185E-007
 -1.211331960112881E-007
 -1.219993230165069E-007
 -1.227809269134949E-007
 -1.234778321900926E-007
 -1.240899157745043E-007
 -1.246171072520692E-007
 -1.250593890548664E-007
 -1.254167966199264E-007
 -1.256894185170808E-007
 -1.258773965482389E-007
 -1.259809258136196E-007
 -1.260002547474310E-007
 -1.259356851211981E-007
 -1.257875720173813E-007
 -1.255563237677661E-007
 -1.252424018625119E-007
 -1.248463208238415E-007
 -1.243686480499761E-007
 -1.238100036241768E-007
 -1.231710600922829E-007
 -1.224525422066219E-007
 -1.216552266375646E-007
 -1.207799416527237E-007
 -1.198275667613825E-007
 -1.187990323292133E-007
 -1.176953191576518E-007
 -1.165174580322825E-007
 -1.152665292383507E-007
 -1.139436620444741E-007
 -1.125500341531821E-007
 -1.110868711211131E-007
 -1.095554457461275E-007
 -1.079570774242157E-007
 -1.062931314741077E-007
 -1.045650184322345E-007
 -1.027741933162788E-007
 -1.009221548578038E-007
 -9.901044470626815E-008
 -9.704064660208042E-008
 -9.501438552155927E-008
 -9.293332679125918E-008
 -9.079917517521516E-008
 -8.861367393243585E-008
 -8.637860384877804E-008
 -8.409578223901258E-008
 -8.176706192260872E-008
 -7.939433017374891E-008
 -7.697950764500704E-008
 -7.452454726378828E-008
 -1.656278917902395E-006
 -1.654442178702573E-006
 -1.652531239618515E-006
 -1.650546220728562E-006
 -1.648487282483805E-006
 -1.646354625878779E-006
 -1.644148492596322E-006
 -1.641869165134178E-006
 -1.639516966907699E-006
 -1.637092262328987E-006
 -1.634595456865265E-006
 -1.632026997072989E-006
 -1.629387370606865E-006
 -1.626677106207935E-006
 -1.623896773665686E-006
 -1.621046983755923E-006
 -1.618128388154370E-006
 -1.615141679326421E-006
 -1.612087590390719E-006
 -1.608966894959337E-006
 -1.605780406952420E-006
 -1.602528980386592E-006
 -1.599213509141015E-006
 -1.595834926694886E-006
 -1.592394205843770E-006
 -1.588892358387318E-006
 -1.585330434794793E-006
 -1.581709523843501E-006
 -1.578030752233137E-006
 -1.574295284176896E-006
 -1.570504320964736E-006
 -1.566659100505424E-006
 -1.562760896841845E-006
 -1.558811019643457E-006
 -1.554810813674250E-006
 -1.550761658236302E-006
 -1.546664966591554E-006
 -1.542522185357602E-006
 -1.538334793882445E-006
 -1.534104303595274E-006
 -1.529832257335682E-006
 -1.525520228657842E-006
 -1.521169821117014E-006
 -1.516782667529379E-006
 -1.512360429214278E-006
 -1.507904795212921E-006
 -1.503417481488029E-006
 -1.498900230101602E-006
 -1.494354808373327E-006
 -1.489783008019648E-006
 -3.195892544710355E-006
 -3.191268877858922E-006
 -3.186580272881855E-006
 -3.181827193492971E-006
 -3.177010132418283E-006
 -3.172129611496878E-006
 -3.167186181767066E-006
 -3.162180423538224E-006
 -3.157112946443875E-006
 -3.151984389484202E-006
 -3.146795421048137E-006
 -3.141546738922337E-006
 -3.136239070280391E-006
 -3.130873171659175E-006
 -3.125449828915257E-006
 -3.119969857165806E-006
 -3.114434100711826E-006
 -3.108843432944291E-006
 -3.103198756232726E-006
 -3.097501001795373E-006
 -3.091751129553217E-006
 -3.085950127965819E-006
 -3.080099013848433E-006
 -3.074198832172510E-006
 -3.068250655847355E-006
 -3.062255585486129E-006
 -3.056214749150140E-006
 -3.050129302079548E-006
 -3.044000426403703E-006
 -3.037829330835054E-006
 -3.031617250344704E-006
 -3.025365445821030E-006
 -3.019075203710474E-006
 -3.012747835640727E-006
 -3.006384678028567E-006
 -2.999987091668117E-006
 -2.993556461303443E-006
 -2.987094195184544E-006
 -2.980601724606785E-006
 -2.974080503433150E-006
 -2.967532007600867E-006
 -2.960957734612481E-006
 -2.954359203009271E-006
 -2.947737951832242E-006
 -2.941095540063973E-006
 -2.934433546058474E-006
 -2.927753566954411E-006
 -2.921057218074874E-006
 -2.914346132311493E-006
 -2.907621959495949E-006
 -4.740571678348093E-006
 -4.733156670493870E-006
 -4.725685410555327E-006
 -4.718158703506503E-006
 -4.710577372280738E-006
 -4.702942257812069E-006
 -4.695254219066972E-006
 -4.687514133069166E-006
 -4.679722894913944E-006
 -4.671881417773275E-006
 -4.663990632892933E-006
 -4.656051489577920E-006
 -4.648064955169605E-006
 -4.640032015011619E-006
 -4.631953672407190E-006
 -4.623830948565047E-006
 -4.615664882535210E-006
 -4.607456531134209E-006
 -4.599206968861402E-006
 -4.590917287800564E-006
 -4.582588597515572E-006
 -4.574222024932125E-006
 -4.565818714209716E-006
 -4.557379826603096E-006
 -4.548906540312085E-006
 -4.540400050320054E-006
 -4.531861568224025E-006
 -4.523292322050142E-006
 -4.514693556061607E-006
 -4.506066530554052E-006
 -4.497412521639628E-006
 -4.488732821021938E-006
 -4.480028735759616E-006
 -4.471301588017737E-006
 -4.462552714811129E-006
 -4.453783467735085E-006
 -4.444995212686878E-006
 -4.436189329576932E-006
 -4.427367212028160E-006
 -4.418530267067125E-006
 -4.409679914804805E-006
 -4.400817588105396E-006
 -4.391944732248837E-006
 -4.383062804580801E-006
 -4.374173274154488E-006
 -4.365277621362813E-006
 -4.356377337561059E-006
 -4.347473924681650E-006
 -4.338568894838983E-006
 -4.329663769925984E-006
 -6.291880283083550E-006
 -6.281664938777881E-006
 -6.271401704624394E-006
 -6.261091726065105E-006
 -6.250736155617379E-006
 -6.240336152861485E-006
 -6.229892884423295E-006
 -6.219407523957962E-006
 -6.208881252127489E-006
 -6.198315256576093E-006
 -6.187710731903401E-006
 -6.177068879631768E-006
 -6.166390908174073E-006
 -6.155678032792883E-006
 -6.144931475561542E-006
 -6.134152465316183E-006
 -6.123342237608535E-006
 -6.112502034651392E-006
 -6.101633105262402E-006
 -6.090736704802524E-006
 -6.079814095110699E-006
 -6.068866544435339E-006
 -6.057895327360509E-006
 -6.046901724728423E-006
 -6.035887023558653E-006
 -6.024852516960488E-006
 -6.013799504044687E-006
 -6.002729289827853E-006
 -5.991643185134147E-006
 -5.980542506492831E-006
 -5.969428576030706E-006
 -5.958302721360997E-006
 -5.947166275468356E-006
 -5.936020576587822E-006
 -5.924866968082129E-006
 -5.913706798313293E-006
 -5.902541420509870E-006
 -5.891372192631626E-006
 -5.880200477227878E-006
 -5.869027641294446E-006
 -5.857855056124072E-006
 -5.846684097155188E-006
 -5.835516143814501E-006
 -5.824352579357668E-006
 -5.813194790705650E-006
 -5.802044168276678E-006
 -5.790902105815101E-006
 -5.779770000216892E-006
 -5.768649251351332E-006
 -5.757541261878998E-006
 -7.851395215913400E-006
 -7.838365987875953E-006
 -7.825297157252340E-006
 -7.812190210617767E-006
 -7.799046630775082E-006
 -7.785867896691449E-006
 -7.772655483436802E-006
 -7.759410862126960E-006
 -7.746135499868528E-006
 -7.732830859706580E-006
 -7.719498400575505E-006
 -7.706139577252778E-006
 -7.692755840315277E-006
 -7.679348636098149E-006
 -7.665919406656943E-006
 -7.652469589731873E-006
 -7.639000618714230E-006
 -7.625513922616435E-006
 -7.612010926044860E-006
 -7.598493049173454E-006
 -7.584961707720868E-006
 -7.571418312931366E-006
 -7.557864271555638E-006
 -7.544300985835941E-006
 -7.530729853492759E-006
 -7.517152267714509E-006
 -7.503569617148824E-006
 -7.489983285896721E-006
 -7.476394653509414E-006
 -7.462805094985846E-006
 -7.449215980774826E-006
 -7.435628676777538E-006
 -7.422044544353103E-006
 -7.408464940325300E-006
 -7.394891216994057E-006
 -7.381324722145208E-006
 -7.367766799066453E-006
 -7.354218786562127E-006
 -7.340682018971222E-006
 -7.327157826188739E-006
 -7.313647533686415E-006
 -7.300152462537685E-006
 -7.286673929443814E-006
 -7.273213246761246E-006
 -7.259771722531781E-006
 -7.246350660513598E-006
 -7.232951360216259E-006
 -7.219575116933636E-006
 -7.206223221782984E-006
 -7.192896961742128E-006
 -9.420703239285033E-006
 -9.404842026549257E-006
 -9.388949672165629E-006
 -9.373028005900174E-006
 -9.357078842806270E-006
 -9.341103983112291E-006
 -9.325105212115536E-006
 -9.309084300084913E-006
 -9.293043002174630E-006
 -9.276983058344371E-006
 -9.260906193288629E-006
 -9.244814116376493E-006
 -9.228708521598288E-006
 -9.212591087522733E-006
 -9.196463477263107E-006
 -9.180327338451284E-006
 -9.164184303220952E-006
 -9.148035988200712E-006
 -9.131883994517008E-006
 -9.115729907802188E-006
 -9.099575298217351E-006
 -9.083421720479831E-006
 -9.067270713900932E-006
 -9.051123802433418E-006
 -9.034982494727536E-006
 -9.018848284196176E-006
 -9.002722649088305E-006
 -8.986607052572759E-006
 -8.970502942829472E-006
 -8.954411753150242E-006
 -8.938334902048739E-006
 -8.922273793377923E-006
 -8.906229816457818E-006
 -8.890204346210991E-006
 -8.874198743306378E-006
 -8.858214354311950E-006
 -8.842252511856701E-006
 -8.826314534798082E-006
 -8.810401728402172E-006
 -8.794515384526803E-006
 -8.778656781817095E-006
 -8.762827185906511E-006
 -8.747027849626135E-006
 -8.731260013221970E-006
 -8.715524904580078E-006
 -8.699823739457412E-006
 -8.684157721722356E-006
 -8.668528043600733E-006
 -8.652935885929197E-006
 -8.637382418415792E-006
 -1.100139803640619E-005
 -1.098268215159015E-005
 -1.096394401104483E-005
 -1.094518579117648E-005
 -1.092640964251873E-005
 -1.090761768956839E-005
 -1.088881203063054E-005
 -1.086999473768501E-005
 -1.085116785626145E-005
 -1.083233340533297E-005
 -1.081349337722318E-005
 -1.079464973752978E-005
 -1.077580442506090E-005
 -1.075695935178954E-005
 -1.073811640282186E-005
 -1.071927743638077E-005
 -1.070044428380587E-005
 -1.068161874956985E-005
 -1.066280261130687E-005
 -1.064399761986243E-005
 -1.062520549935249E-005
 -1.060642794724450E-005
 -1.058766663444968E-005
 -1.056892320543343E-005
 -1.055019927834085E-005
 -1.053149644513765E-005
 -1.051281627176780E-005
 -1.049416029832644E-005
 -1.047553003924694E-005
 -1.045692698350654E-005
 -1.043835259484492E-005
 -1.041980831199865E-005
 -1.040129554895291E-005
 -1.038281569520616E-005
 -1.036437011604976E-005
 -1.034596015286504E-005
 -1.032758712343319E-005
 -1.030925232226053E-005
 -1.029095702091711E-005
 -1.027270246839253E-005
 -1.025448989146274E-005
 -1.023632049507318E-005
 -1.021819546273369E-005
 -1.020011595692999E-005
 -1.018208311954487E-005
 -1.016409807229524E-005
 -1.014616191718114E-005
 -1.012827573694730E-005
 -1.011044059555726E-005
 -1.009265753867976E-005
 -1.259507717306163E-005
 -1.257347927840533E-005
 -1.255186869571518E-005
 -1.253024795294354E-005
 -1.250861954065845E-005
 -1.248698591182005E-005
 -1.246534948157966E-005
 -1.244371262709754E-005
 -1.242207768738158E-005
 -1.240044696314935E-005
 -1.237882271670822E-005
 -1.235720717186088E-005
 -1.233560251382885E-005
 -1.231401088919986E-005
 -1.229243440589819E-005
 -1.227087513317576E-005
 -1.224933510162406E-005
 -1.222781630321290E-005
 -1.220632069134860E-005
 -1.218485018095466E-005
 -1.216340664857672E-005
 -1.214199193250948E-005
 -1.212060783294676E-005
 -1.209925611215277E-005
 -1.207793849465966E-005
 -1.205665666748349E-005
 -1.203541228036701E-005
 -1.201420694604232E-005
 -1.199304224051783E-005
 -1.197191970338679E-005
 -1.195084083815946E-005
 -1.192980711261572E-005
 -1.190881995918288E-005
 -1.188788077533220E-005
 -1.186699092399993E-005
 -1.184615173402942E-005
 -1.182536450063325E-005
 -1.180463048587944E-005
 -1.178395091919710E-005
 -1.176332699790263E-005
 -1.174275988774800E-005
 -1.172225072348828E-005
 -1.170180060946934E-005
 -1.168141062023598E-005
 -1.166108180115866E-005
 -1.164081516908088E-005
 -1.162061171298240E-005
 -1.160047239466432E-005
 -1.158039814945026E-005
 -1.156038988690503E-005
 -1.420333894946764E-005
 -1.417882695965773E-005
 -1.415431279649302E-005
 -1.412979934596349E-005
 -1.410528944467278E-005
 -1.408078587955099E-005
 -1.405629138759653E-005
 -1.403180865564260E-005
 -1.400734032015297E-005
 -1.398288896704383E-005
 -1.395845713153524E-005
 -1.393404729803161E-005
 -1.390966190002641E-005
 -1.388530332004212E-005
 -1.386097388959545E-005
 -1.383667588919181E-005
 -1.381241154835173E-005
 -1.378818304566448E-005
 -1.376399250887336E-005
 -1.373984201498832E-005
 -1.371573359043377E-005
 -1.369166921122188E-005
 -1.366765080315621E-005
 -1.364368024206830E-005
 -1.361975935408486E-005
 -1.359588991591976E-005
 -1.357207365520391E-005
 -1.354831225083891E-005
 -1.352460733338397E-005
 -1.350096048547321E-005
 -1.347737324226026E-005
 -1.345384709189581E-005
 -1.343038347603120E-005
 -1.340698379035459E-005
 -1.338364938515564E-005
 -1.336038156591537E-005
 -1.333718159393155E-005
 -1.331405068696657E-005
 -1.329099001992522E-005
 -1.326800072556192E-005
 -1.324508389521378E-005
 -1.322224057956036E-005
 -1.319947178941206E-005
 -1.317677849652219E-005
 -1.315416163442860E-005
 -1.313162209931608E-005
 -1.310916075090890E-005
 -1.308677841338329E-005
 -1.306447587630797E-005
 -1.304225389560437E-005
 -1.582777908357912E-005
 -1.580031603166845E-005
 -1.577286254475160E-005
 -1.574542187513302E-005
 -1.571799721309312E-005
 -1.569059168652992E-005
 -1.566320836062938E-005
 -1.563585023757618E-005
 -1.560852025629261E-005
 -1.558122129221777E-005
 -1.555395615711930E-005
 -1.552672759894026E-005
 -1.549953830168555E-005
 -1.547239088534058E-005
 -1.544528790582972E-005
 -1.541823185501135E-005
 -1.539122516070820E-005
 -1.536427018677806E-005
 -1.533736923322088E-005
 -1.531052453632329E-005
 -1.528373826884172E-005
 -1.525701254022348E-005
 -1.523034939686678E-005
 -1.520375082241809E-005
 -1.517721873810757E-005
 -1.515075500312434E-005
 -1.512436141502779E-005
 -1.509803971019906E-005
 -1.507179156432865E-005
 -1.504561859294364E-005
 -1.501952235197309E-005
 -1.499350433834780E-005
 -1.496756599064149E-005
 -1.494170868974647E-005
 -1.491593375958711E-005
 -1.489024246787051E-005
 -1.486463602687284E-005
 -1.483911559426049E-005
 -1.481368227394912E-005
 -1.478833711699674E-005
 -1.476308112253153E-005
 -1.473791523871313E-005
 -1.471284036373044E-005
 -1.468785734683046E-005
 -1.466296698937938E-005
 -1.463817004595936E-005
 -1.461346722549410E-005
 -1.458885919240536E-005
 -1.456434656780300E-005
 -1.453992993070127E-005
 -1.746998716330731E-005
 -1.743953102421723E-005
 -1.740909770361046E-005
 -1.737869083044807E-005
 -1.734831395823458E-005
 -1.731797056457313E-005
 -1.728766405075633E-005
 -1.725739774140409E-005
 -1.722717488414014E-005
 -1.719699864931236E-005
 -1.716687212975697E-005
 -1.713679834060648E-005
 -1.710678021914183E-005
 -1.707682062468841E-005
 -1.704692233855948E-005
 -1.701708806404340E-005
 -1.698732042643492E-005
 -1.695762197311781E-005
 -1.692799517368906E-005
 -1.689844242013095E-005
 -1.686896602702969E-005
 -1.683956823184361E-005
 -1.681025119521276E-005
 -1.678101700132120E-005
 -1.675186765830157E-005
 -1.672280509869056E-005
 -1.669383117992802E-005
 -1.666494768490559E-005
 -1.663615632255977E-005
 -1.660745872851240E-005
 -1.657885646575981E-005
 -1.655035102540297E-005
 -1.652194382742882E-005
 -1.649363622153352E-005
 -1.646542948799262E-005
 -1.643732483857686E-005
 -1.640932341751015E-005
 -1.638142630247361E-005
 -1.635363450565313E-005
 -1.632594897482906E-005
 -1.629837059450959E-005
 -1.627090018710609E-005
 -1.624353851414987E-005
 -1.621628627754940E-005
 -1.618914412088944E-005
 -1.616211263076905E-005
 -1.613519233817668E-005
 -1.610838371990797E-005
 -1.608168720001720E-005
 -1.605510315130732E-005
 -1.913154279891279E-005
 -1.909804626304621E-005
 -1.906458762421188E-005
 -1.903117090079084E-005
 -1.899780002130522E-005
 -1.896447882386703E-005
 -1.893121105567410E-005
 -1.889800037256073E-005
 -1.886485033859548E-005
 -1.883176442573215E-005
 -1.879874601351458E-005
 -1.876579838883023E-005
 -1.873292474572377E-005
 -1.870012818525555E-005
 -1.866741171542570E-005
 -1.863477825114385E-005
 -1.860223061425734E-005
 -1.856977153363658E-005
 -1.853740364531534E-005
 -1.850512949268428E-005
 -1.847295152674581E-005
 -1.844087210642100E-005
 -1.840889349891537E-005
 -1.837701788014002E-005
 -1.834524733519031E-005
 -1.831358385888031E-005
 -1.828202935633401E-005
 -1.825058564363257E-005
 -1.821925444851836E-005
 -1.818803741115297E-005
 -1.815693608493490E-005
 -1.812595193736844E-005
 -1.809508635098940E-005
 -1.806434062434723E-005
 -1.803371597303749E-005
 -1.800321353079305E-005
 -1.797283435062554E-005
 -1.794257940601951E-005
 -1.791244959218144E-005
 -1.788244572733977E-005
 -1.785256855409486E-005
 -1.782281874082063E-005
 -1.779319688311654E-005
 -1.776370350530794E-005
 -1.773433906199684E-005
 -1.770510393965670E-005
 -1.767599845827857E-005
 -1.764702287306063E-005
 -1.761817737614488E-005
 -1.758946209839494E-005
 -2.081401139788792E-005
 -2.077742158530983E-005
 -2.074088690586911E-005
 -2.070441178300376E-005
 -2.066800053471411E-005
 -2.063165737288724E-005
 -2.059538640267807E-005
 -2.055919162195308E-005
 -2.052307692079729E-005
 -2.048704608107549E-005
 -2.045110277606330E-005
 -2.041525057013890E-005
 -2.037949291853694E-005
 -2.034383316717113E-005
 -2.030827455251548E-005
 -2.027282020155997E-005
 -2.023747313182098E-005
 -2.020223625142968E-005
 -2.016711235927600E-005
 -2.013210414522881E-005
 -2.009721419041506E-005
 -2.006244496757235E-005
 -2.002779884146502E-005
 -1.999327806936718E-005
 -1.995888480161589E-005
 -1.992462108222725E-005
 -1.989048884958316E-005
 -1.985648993718356E-005
 -1.982262607446350E-005
 -1.978889888767788E-005
 -1.975530990085410E-005
 -1.972186053680448E-005
 -1.968855211821246E-005
 -1.965538586877359E-005
 -1.962236291441068E-005
 -1.958948428454295E-005
 -1.955675091342819E-005
 -1.952416364156040E-005
 -1.949172321712971E-005
 -1.945943029754985E-005
 -1.942728545103740E-005
 -1.939528915825896E-005
 -1.936344181403156E-005
 -1.933174372908489E-005
 -1.930019513187902E-005
 -1.926879617047877E-005
 -1.923754691448625E-005
 -1.920644735702431E-005
 -1.917549741677530E-005
 -1.914469694007571E-005
 -2.251893947217498E-005
 -2.247919757562903E-005
 -2.243953056575129E-005
 -2.239994329008165E-005
 -2.236044047372994E-005
 -2.232102671855665E-005
 -2.228170650241613E-005
 -2.224248417847347E-005
 -2.220336397459574E-005
 -2.216434999281223E-005
 -2.212544620885313E-005
 -2.208665647176327E-005
 -2.204798450358869E-005
 -2.200943389914074E-005
 -2.197100812584084E-005
 -2.193271052363654E-005
 -2.189454430499989E-005
 -2.185651255500413E-005
 -2.181861823147598E-005
 -2.178086416522951E-005
 -2.174325306037630E-005
 -2.170578749471847E-005
 -2.166846992021634E-005
 -2.163130266353749E-005
 -2.159428792668461E-005
 -2.155742778770132E-005
 -2.152072420145690E-005
 -2.148417900050861E-005
 -2.144779389604289E-005
 -2.141157047889275E-005
 -2.137551022063450E-005
 -2.133961447475801E-005
 -2.130388447791683E-005
 -2.126832135124817E-005
 -2.123292610177541E-005
 -2.119769962387992E-005
 -2.116264270084568E-005
 -2.112775600648114E-005
 -2.109304010681062E-005
 -2.105849546183618E-005
 -2.102412242737430E-005
 -2.098992125695640E-005
 -2.095589210380335E-005
 -2.092203502286467E-005
 -2.088834997292751E-005
 -2.085483681878978E-005
 -2.082149533349709E-005
 -2.078832520064686E-005
 -2.075532601675338E-005
 -2.072249729367433E-005
 -2.424784937053841E-005
 -2.420489021338887E-005
 -2.416202860677445E-005
 -2.411926984540288E-005
 -2.407661908287816E-005
 -2.403408133070090E-005
 -2.399166145734810E-005
 -2.394936418744449E-005
 -2.390719410101197E-005
 -2.386515563281424E-005
 -2.382325307178397E-005
 -2.378149056054023E-005
 -2.373987209499862E-005
 -2.369840152406558E-005
 -2.365708254943190E-005
 -2.361591872544978E-005
 -2.357491345910503E-005
 -2.353407001008207E-005
 -2.349339149092054E-005
 -2.345288086726089E-005
 -2.341254095818881E-005
 -2.337237443666691E-005
 -2.333238383005950E-005
 -2.329257152075111E-005
 -2.325293974685667E-005
 -2.321349060301924E-005
 -2.317422604130694E-005
 -2.313514787219115E-005
 -2.309625776562393E-005
 -2.305755725219826E-005
 -2.301904772440019E-005
 -2.298073043795249E-005
 -2.294260651324107E-005
 -2.290467693683139E-005
 -2.286694256307259E-005
 -2.282940411578360E-005
 -2.279206219002813E-005
 -2.275491725397206E-005
 -2.271796965082173E-005
 -2.268121960085001E-005
 -2.264466720349719E-005
 -2.260831243955554E-005
 -2.257215517343614E-005
 -2.253619515550694E-005
 -2.250043202451353E-005
 -2.246486531007374E-005
 -2.242949443524733E-005
 -2.239431871918124E-005
 -2.235933737982531E-005
 -2.232454953671872E-005
 -2.600223330597577E-005
 -2.595598479916183E-005
 -2.590985984984317E-005
 -2.586386422768953E-005
 -2.581800354056774E-005
 -2.577228323333300E-005
 -2.572670858671981E-005
 -2.568128471634008E-005
 -2.563601657177297E-005
 -2.559090893576915E-005
 -2.554596642355202E-005
 -2.550119348222904E-005
 -2.545659439030391E-005
 -2.541217325730181E-005
 -2.536793402349492E-005
 -2.532388045973967E-005
 -2.528001616742074E-005
 -2.523634457849980E-005
 -2.519286895567867E-005
 -2.514959239266177E-005
 -2.510651781453153E-005
 -2.506364797823201E-005
 -2.502098547315507E-005
 -2.497853272183604E-005
 -2.493629198075659E-005
 -2.489426534125141E-005
 -2.485245473051953E-005
 -2.481086191274188E-005
 -2.476948849030323E-005
 -2.472833590511349E-005
 -2.468740544003625E-005
 -2.464669822041526E-005
 -2.460621521570155E-005
 -2.456595724118226E-005
 -2.452592495980703E-005
 -2.448611888411108E-005
 -2.444653937823798E-005
 -2.440718666005364E-005
 -2.436806080335960E-005
 -2.432916174019543E-005
 -2.429048926323745E-005
 -2.425204302828677E-005
 -2.421382255684594E-005
 -2.417582723878836E-005
 -2.413805633511209E-005
 -2.410050898078173E-005
 -2.406318418765527E-005
 -2.402608084749538E-005
 -2.398919773506300E-005
 -2.395253351129227E-005
 -2.778354651757544E-005
 -2.773392899806346E-005
 -2.768446486704652E-005
 -2.763516040241112E-005
 -2.758602169710731E-005
 -2.753705465770449E-005
 -2.748826500306191E-005
 -2.743965826312872E-005
 -2.739123977785887E-005
 -2.734301469625435E-005
 -2.729498797552598E-005
 -2.724716438038510E-005
 -2.719954848245653E-005
 -2.715214465981885E-005
 -2.710495709666910E-005
 -2.705798978311619E-005
 -2.701124651509319E-005
 -2.696473089440512E-005
 -2.691844632889474E-005
 -2.687239603273537E-005
 -2.682658302685136E-005
 -2.678101013945726E-005
 -2.673568000672578E-005
 -2.669059507357619E-005
 -2.664575759458242E-005
 -2.660116963500897E-005
 -2.655683307195825E-005
 -2.651274959564637E-005
 -2.646892071078922E-005
 -2.642534773810972E-005
 -2.638203181596215E-005
 -2.633897390206919E-005
 -2.629617477537232E-005
 -2.625363503799647E-005
 -2.621135511732595E-005
 -2.616933526818758E-005
 -2.612757557514694E-005
 -2.608607595490896E-005
 -2.604483615882498E-005
 -2.600385577550592E-005
 -2.596313423353925E-005
 -2.592267080430575E-005
 -2.588246460490079E-005
 -2.584251460115081E-005
 -2.580281961073302E-005
 -2.576337830639162E-005
 -2.572418921924291E-005
 -2.568525074218444E-005
 -2.564656113339110E-005
 -2.560811851990537E-005
 -2.959319936608342E-005
 -2.954012479859447E-005
 -2.948723781406630E-005
 -2.943454523805186E-005
 -2.938205368510069E-005
 -2.932976955704183E-005
 -2.927769904142330E-005
 -2.922584811008299E-005
 -2.917422251787455E-005
 -2.912282780153424E-005
 -2.907166927870189E-005
 -2.902075204708131E-005
 -2.897008098375440E-005
 -2.891966074463887E-005
 -2.886949576409837E-005
 -2.881959025469687E-005
 -2.876994820709900E-005
 -2.872057339011964E-005
 -2.867146935091802E-005
 -2.862263941533476E-005
 -2.857408668837561E-005
 -2.852581405483744E-005
 -2.847782418007275E-005
 -2.843011951089953E-005
 -2.838270227664721E-005
 -2.833557449034087E-005
 -2.828873795002215E-005
 -2.824219424020476E-005
 -2.819594473346356E-005
 -2.814999059215672E-005
 -2.810433277027528E-005
 -2.805897201542373E-005
 -2.801390887092729E-005
 -2.796914367806479E-005
 -2.792467657842202E-005
 -2.788050751637478E-005
 -2.783663624168436E-005
 -2.779306231221687E-005
 -2.774978509677868E-005
 -2.770680377806697E-005
 -2.766411735573700E-005
 -2.762172464957903E-005
 -2.757962430280792E-005
 -2.753781478546377E-005
 -2.749629439791976E-005
 -2.745506127449551E-005
 -2.741411338718087E-005
 -2.737344854945774E-005
 -2.733306442022889E-005
 -2.729295850784940E-005
 -3.143254811015760E-005
 -3.137591913468436E-005
 -3.131951691082828E-005
 -3.126334885810435E-005
 -3.120742215539850E-005
 -3.115174373896058E-005
 -3.109632030057913E-005
 -3.104115828592805E-005
 -3.098626389308667E-005
 -3.093164307123607E-005
 -3.087730151953050E-005
 -3.082324468614634E-005
 -3.076947776749958E-005
 -3.071600570764696E-005
 -3.066283319784833E-005
 -3.060996467631474E-005
 -3.055740432811526E-005
 -3.050515608526103E-005
 -3.045322362695921E-005
 -3.040161038002608E-005
 -3.035031951947224E-005
 -3.029935396925029E-005
 -3.024871640315800E-005
 -3.019840924591043E-005
 -3.014843467436175E-005
 -3.009879461888554E-005
 -3.004949076490909E-005
 -3.000052455459725E-005
 -2.995189718868413E-005
 -2.990360962845329E-005
 -2.985566259786342E-005
 -2.980805658581163E-005
 -2.976079184854125E-005
 -2.971386841218434E-005
 -2.966728607544245E-005
 -2.962104441239742E-005
 -2.957514277545775E-005
 -2.952958029843003E-005
 -2.948435589972169E-005
 -2.943946828566535E-005
 -2.939491595397125E-005
 -2.935069719729777E-005
 -2.930681010694393E-005
 -2.926325257666125E-005
 -2.922002230657893E-005
 -2.917711680724957E-005
 -2.913453340380643E-005
 -2.909226924023233E-005
 -2.905032128374234E-005
 -2.900868632927495E-005
 -3.330288404291898E-005
 -3.324259285362602E-005
 -3.318257325685421E-005
 -3.312283331966489E-005
 -3.306338083452918E-005
 -3.300422331702316E-005
 -3.294536800373924E-005
 -3.288682185040075E-005
 -3.282859153019312E-005
 -3.277068343230233E-005
 -3.271310366066276E-005
 -3.265585803291102E-005
 -3.259895207955316E-005
 -3.254239104332514E-005
 -3.248617987877041E-005
 -3.243032325200755E-005
 -3.237482554070131E-005
 -3.231969083423367E-005
 -3.226492293406042E-005
 -3.221052535426890E-005
 -3.215650132231589E-005
 -3.210285377995674E-005
 -3.204958538435559E-005
 -3.199669850937302E-005
 -3.194419524703373E-005
 -3.189207740916363E-005
 -3.184034652920276E-005
 -3.178900386417733E-005
 -3.173805039684253E-005
 -3.168748683798152E-005
 -3.163731362886510E-005
 -3.158753094386127E-005
 -3.153813869320281E-005
 -3.148913652589471E-005
 -3.144052383277576E-005
 -3.139229974971655E-005
 -3.134446316096008E-005
 -3.129701270259970E-005
 -3.124994676619128E-005
 -3.120326350249968E-005
 -3.115696082537357E-005
 -3.111103641574949E-005
 -3.106548772578188E-005
 -3.102031198309945E-005
 -3.097550619518072E-005
 -3.093106715385479E-005
 -3.088699143991803E-005
 -3.084327542787355E-005
 -3.079991529078616E-005
 -3.075690700525137E-005
 -3.520542058256803E-005
 -3.514134763031847E-005
 -3.507759758920646E-005
 -3.501417923475594E-005
 -3.495110102864328E-005
 -3.488837111610967E-005
 -3.482599732362076E-005
 -3.476398715678556E-005
 -3.470234779853325E-005
 -3.464108610753036E-005
 -3.458020861685705E-005
 -3.451972153293308E-005
 -3.445963073467616E-005
 -3.439994177290929E-005
 -3.434065987000895E-005
 -3.428178991978114E-005
 -3.422333648757158E-005
 -3.416530381060104E-005
 -3.410769579852771E-005
 -3.405051603421661E-005
 -3.399376777473775E-005
 -3.393745395256053E-005
 -3.388157717696278E-005
 -3.382613973563166E-005
 -3.377114359646656E-005
 -3.371659040956861E-005
 -3.366248150941869E-005
 -3.360881791723616E-005
 -3.355560034351611E-005
 -3.350282919073552E-005
 -3.345050455623391E-005
 -3.339862623524988E-005
 -3.334719372412634E-005
 -3.329620622366434E-005
 -3.324566264263349E-005
 -3.319556160142766E-005
 -3.314590143586898E-005
 -3.309668020114938E-005
 -3.304789567591301E-005
 -3.299954536647343E-005
 -3.295162651116519E-005
 -3.290413608482067E-005
 -3.285707080338187E-005
 -3.281042712863059E-005
 -3.276420127305093E-005
 -3.271838920480512E-005
 -3.267298665283799E-005
 -3.262798911209750E-005
 -3.258339184887339E-005
 -3.253918990625734E-005
 -3.714127780285276E-005
 -3.707329032541897E-005
 -3.700568449342353E-005
 -3.693846985848756E-005
 -3.687165561264270E-005
 -3.680525058549801E-005
 -3.673926324171122E-005
 -3.667370167877864E-005
 -3.660857362512122E-005
 -3.654388643848467E-005
 -3.647964710462500E-005
 -3.641586223629910E-005
 -3.635253807253663E-005
 -3.628968047819903E-005
 -3.622729494381270E-005
 -3.616538658568318E-005
 -3.610396014626051E-005
 -3.604301999478027E-005
 -3.598257012814851E-005
 -3.592261417207403E-005
 -3.586315538244598E-005
 -3.580419664694115E-005
 -3.574574048685792E-005
 -3.568778905917346E-005
 -3.563034415881163E-005
 -3.557340722111722E-005
 -3.551697932453407E-005
 -3.546106119347279E-005
 -3.540565320136876E-005
 -3.535075537391823E-005
 -3.529636739249397E-005
 -3.524248859772379E-005
 -3.518911799323967E-005
 -3.513625424957929E-005
 -3.508389570824534E-005
 -3.503204038590728E-005
 -3.498068597875389E-005
 -3.492982986697737E-005
 -3.487946911939917E-005
 -3.482960049822387E-005
 -3.478022046392041E-005
 -3.473132518023180E-005
 -3.468291051930467E-005
 -3.463497206693952E-005
 -3.458750512795879E-005
 -3.454050473169419E-005
 -3.449396563758249E-005
 -3.444788234088348E-005
 -3.440224907850532E-005
 -3.435705983494804E-005
 -3.911146375511067E-005
 -3.903941415832304E-005
 -3.896781345869272E-005
 -3.889667205665223E-005
 -3.882599993934558E-005
 -3.875580667763776E-005
 -3.868610142351560E-005
 -3.861689290786743E-005
 -3.854818943862910E-005
 -3.847999889928304E-005
 -3.841232874773305E-005
 -3.834518601551517E-005
 -3.827857730734454E-005
 -3.821250880100664E-005
 -3.814698624756458E-005
 -3.808201497188271E-005
 -3.801759987345114E-005
 -3.795374542751391E-005
 -3.789045568648117E-005
 -3.782773428161181E-005
 -3.776558442497315E-005
 -3.770400891164908E-005
 -3.764301012220337E-005
 -3.758259002537825E-005
 -3.752275018101729E-005
 -3.746349174321507E-005
 -3.740481546367559E-005
 -3.734672169526325E-005
 -3.728921039575866E-005
 -3.723228113178742E-005
 -3.717593308292916E-005
 -3.712016504599611E-005
 -3.706497543946419E-005
 -3.701036230806594E-005
 -3.695632332751863E-005
 -3.690285580940072E-005
 -3.684995670615854E-005
 -3.679762261623534E-005
 -3.674584978932918E-005
 -3.669463413176650E-005
 -3.664397121198882E-005
 -3.659385626614995E-005
 -3.654428420381446E-005
 -3.649524961377139E-005
 -3.644674676993910E-005
 -3.639876963737117E-005
 -3.635131187836792E-005
 -3.630436685868061E-005
 -3.625792765381332E-005
 -3.621198705542210E-005
 -4.111685176970990E-005
 -4.104057591221087E-005
 -4.096482602517684E-005
 -4.088961343248337E-005
 -4.081494898122855E-005
 -4.074084303879000E-005
 -4.066730549033825E-005
 -4.059434573681073E-005
 -4.052197269332976E-005
 -4.045019478805170E-005
 -4.037901996145113E-005
 -4.030845566600306E-005
 -4.023850886627793E-005
 -4.016918603941295E-005
 -4.010049317596575E-005
 -4.003243578112883E-005
 -3.996501887628214E-005
 -3.989824700089225E-005
 -3.983212421472635E-005
 -3.976665410036924E-005
 -3.970183976603971E-005
 -3.963768384868199E-005
 -3.957418851732471E-005
 -3.951135547668921E-005
 -3.944918597104153E-005
 -3.938768078826501E-005
 -3.932684026414567E-005
 -3.926666428686721E-005
 -3.920715230168014E-005
 -3.914830331576032E-005
 -3.909011590322829E-005
 -3.903258821032088E-005
 -3.897571796071314E-005
 -3.891950246097074E-005
 -3.886393860613053E-005
 -3.880902288539891E-005
 -3.875475138795610E-005
 -3.870111980887033E-005
 -3.864812345509477E-005
 -3.859575725157028E-005
 -3.854401574739841E-005
 -3.849289312209967E-005
 -3.844238319195130E-005
 -3.839247941638996E-005
 -3.834317490449152E-005
 -3.829446242151519E-005
 -3.824633439551688E-005
 -3.819878292402837E-005
 -3.815179978080798E-005
 -3.810537642265547E-005
 -4.315815272787152E-005
 -4.307746820536748E-005
 -4.299739810231382E-005
 -4.291795473715984E-005
 -4.283914987613333E-005
 -4.276099473061274E-005
 -4.268349995505984E-005
 -4.260667564551476E-005
 -4.253053133862002E-005
 -4.245507601116726E-005
 -4.238031808014292E-005
 -4.230626540327168E-005
 -4.223292528000555E-005
 -4.216030445298546E-005
 -4.208840910991460E-005
 -4.201724488585510E-005
 -4.194681686590604E-005
 -4.187712958826650E-005
 -4.180818704764402E-005
 -4.173999269899363E-005
 -4.167254946158072E-005
 -4.160585972333922E-005
 -4.153992534549754E-005
 -4.147474766747344E-005
 -4.141032751200491E-005
 -4.134666519050303E-005
 -4.128376050861267E-005
 -4.122161277195911E-005
 -4.116022079207256E-005
 -4.109958289245998E-005
 -4.103969691483012E-005
 -4.098056022543271E-005
 -4.092216972152675E-005
 -4.086452183793613E-005
 -4.080761255370193E-005
 -4.075143739881140E-005
 -4.069599146099068E-005
 -4.064126939256141E-005
 -4.058726541734259E-005
 -4.053397333759456E-005
 -4.048138654099852E-005
 -4.042949800766832E-005
 -4.037830031718144E-005
 -4.032778565563789E-005
 -4.027794582272858E-005
 -4.022877223882856E-005
 -4.018025595210164E-005
 -4.013238764561968E-005
 -4.008515764450122E-005
 -4.003855592307107E-005
 -4.523588106306584E-005
 -4.515058564967631E-005
 -4.506600634199653E-005
 -4.498215651222553E-005
 -4.489904889027655E-005
 -4.481669556190801E-005
 -4.473510796754815E-005
 -4.465429690178217E-005
 -4.457427251348038E-005
 -4.449504430654196E-005
 -4.441662114123898E-005
 -4.433901123612054E-005
 -4.426222217046292E-005
 -4.418626088723625E-005
 -4.411113369655931E-005
 -4.403684627961486E-005
 -4.396340369300380E-005
 -4.389081037351303E-005
 -4.381907014325540E-005
 -4.374818621517806E-005
 -4.367816119888970E-005
 -4.360899710680475E-005
 -4.354069536055255E-005
 -4.347325679764986E-005
 -4.340668167840372E-005
 -4.334096969300856E-005
 -4.327611996884228E-005
 -4.321213107790610E-005
 -4.314900104441460E-005
 -4.308672735249513E-005
 -4.302530695399352E-005
 -4.296473627634734E-005
 -4.290501123053252E-005
 -4.284612721904434E-005
 -4.278807914391161E-005
 -4.273086141472315E-005
 -4.267446795665680E-005
 -4.261889221849421E-005
 -4.256412718061095E-005
 -4.251016536294155E-005
 -4.245699883289537E-005
 -4.240461921323002E-005
 -4.235301768986593E-005
 -4.230218501964736E-005
 -4.225211153803840E-005
 -4.220278716675609E-005
 -4.215420142133834E-005
 -4.210634341865307E-005
 -4.205920188434129E-005
 -4.201276516020119E-005
 -4.735031298529930E-005
 -4.726018347528267E-005
 -4.717088723268435E-005
 -4.708243871790100E-005
 -4.699485164122942E-005
 -4.690813896242749E-005
 -4.682231289107954E-005
 -4.673738488777852E-005
 -4.665336566605597E-005
 -4.657026519505509E-005
 -4.648809270288002E-005
 -4.640685668062815E-005
 -4.632656488701935E-005
 -4.624722435362713E-005
 -4.616884139065581E-005
 -4.609142159323361E-005
 -4.601496984817137E-005
 -4.593949034117906E-005
 -4.586498656447574E-005
 -4.579146132476797E-005
 -4.571891675156633E-005
 -4.564735430580502E-005
 -4.557677478871384E-005
 -4.550717835093549E-005
 -4.543856450183225E-005
 -4.537093211896970E-005
 -4.530427945772811E-005
 -4.523860416103171E-005
 -4.517390326914807E-005
 -4.511017322954629E-005
 -4.504740990678085E-005
 -4.498560859237252E-005
 -4.492476401467532E-005
 -4.486487034869062E-005
 -4.480592122582997E-005
 -4.474790974358197E-005
 -4.469082847508891E-005
 -4.463466947860482E-005
 -4.457942430682266E-005
 -4.452508401606163E-005
 -4.447163917530084E-005
 -4.441907987504904E-005
 -4.436739573605389E-005
 -4.431657591782164E-005
 -4.426660912697187E-005
 -4.421748362540818E-005
 -4.416918723830340E-005
 -4.412170736191169E-005
 -4.407503097119775E-005
 -4.402914462730458E-005
 -4.950143512600718E-005
 -4.940622693579691E-005
 -4.931198734625628E-005
 -4.921873189723487E-005
 -4.912647524930156E-005
 -4.903523118562982E-005
 -4.894501261487890E-005
 -4.885583157502136E-005
 -4.876769923808187E-005
 -4.868062591569951E-005
 -4.859462106552570E-005
 -4.850969329835733E-005
 -4.842585038597749E-005
 -4.834309926965767E-005
 -4.826144606926517E-005
 -4.818089609292597E-005
 -4.810145384720056E-005
 -4.802312304771926E-005
 -4.794590663022454E-005
 -4.786980676199574E-005
 -4.779482485357044E-005
 -4.772096157075691E-005
 -4.764821684687080E-005
 -4.757658989515137E-005
 -4.750607922133055E-005
 -4.743668263629762E-005
 -4.736839726882648E-005
 -4.730121957832936E-005
 -4.723514536759855E-005
 -4.717016979549647E-005
 -4.710628738956809E-005
 -4.704349205853629E-005
 -4.698177710466178E-005
 -4.692113523592370E-005
 -4.686155857800504E-005
 -4.680303868606385E-005
 -4.674556655625276E-005
 -4.668913263697948E-005
 -4.663372683988400E-005
 -4.657933855052157E-005
 -4.652595663873380E-005
 -4.647356946869746E-005
 -4.642216490863876E-005
 -4.637173034022000E-005
 -4.632225266757493E-005
 -4.627371832599383E-005
 -4.622611329028266E-005
 -4.617942308275566E-005
 -4.613363278090905E-005
 -4.608872702474908E-005
 -5.168888148698988E-005
 -5.158832953288046E-005
 -5.148890293221338E-005
 -5.139061822638023E-005
 -5.129349092276534E-005
 -5.119753550027973E-005
 -5.110276541604627E-005
 -5.100919311322310E-005
 -5.091683002985787E-005
 -5.082568660872767E-005
 -5.073577230809786E-005
 -5.064709561333601E-005
 -5.055966404930309E-005
 -5.047348419346930E-005
 -5.038856168968670E-005
 -5.030490126255157E-005
 -5.022250673228637E-005
 -5.014138103009093E-005
 -5.006152621389527E-005
 -4.998294348443985E-005
 -4.990563320164565E-005
 -4.982959490119547E-005
 -4.975482731128298E-005
 -4.968132836945915E-005
 -4.960909523953506E-005
 -4.953812432847979E-005
 -4.946841130326776E-005
 -4.939995110762176E-005
 -4.933273797860814E-005
 -4.926676546303797E-005
 -4.920202643363379E-005
 -4.913851310491568E-005
 -4.907621704877859E-005
 -4.901512920971293E-005
 -4.895523991964953E-005
 -4.889653891238335E-005
 -4.883901533756097E-005
 -4.878265777419918E-005
 -4.872745424371467E-005
 -4.867339222244126E-005
 -4.862045865362565E-005
 -4.856863995887688E-005
 -4.851792204906632E-005
 -4.846829033466551E-005
 -4.841972973551682E-005
 -4.837222469003176E-005
 -4.832575916382335E-005
 -4.828031665776451E-005
 -4.823588021549134E-005
 -4.819243243034948E-005
 -5.391185626381024E-005
 -5.380567783403074E-005
 -5.370080683560953E-005
 -5.359726062862283E-005
 -5.349505535431841E-005
 -5.339420594604622E-005
 -5.329472614153375E-005
 -5.319662849647136E-005
 -5.309992439928921E-005
 -5.300462408704866E-005
 -5.291073666236589E-005
 -5.281827011127223E-005
 -5.272723132192786E-005
 -5.263762610412012E-005
 -5.254945920941395E-005
 -5.246273435193903E-005
 -5.237745422966362E-005
 -5.229362054612353E-005
 -5.221123403249510E-005
 -5.213029446994354E-005
 -5.205080071217653E-005
 -5.197275070811574E-005
 -5.189614152462080E-005
 -5.182096936918827E-005
 -5.174722961256535E-005
 -5.167491681120615E-005
 -5.160402472949787E-005
 -5.153454636172455E-005
 -5.146647395366452E-005
 -5.139979902380575E-005
 -5.133451238410866E-005
 -5.127060416026023E-005
 -5.120806381138476E-005
 -5.114688014915659E-005
 -5.108704135628193E-005
 -5.102853500430136E-005
 -5.097134807068715E-005
 -5.091546695520155E-005
 -5.086087749548004E-005
 -5.080756498182863E-005
 -5.075551417120057E-005
 -5.070470930033775E-005
 -5.065513409807488E-005
 -5.060677179676903E-005
 -5.055960514286917E-005
 -5.051361640662276E-005
 -5.046878739089565E-005
 -5.042509943913425E-005
 -5.038253344246389E-005
 -5.034106984593040E-005
 -5.616903983558319E-005
 -5.605694043674674E-005
 -5.594636055048199E-005
 -5.583731801962446E-005
 -5.572982924843218E-005
 -5.562390922123078E-005
 -5.551957152264966E-005
 -5.541682835931284E-005
 -5.531569058288187E-005
 -5.521616771433688E-005
 -5.511826796938228E-005
 -5.502199828486099E-005
 -5.492736434607264E-005
 -5.483437061487552E-005
 -5.474302035847900E-005
 -5.465331567880124E-005
 -5.456525754229006E-005
 -5.447884581012684E-005
 -5.439407926867461E-005
 -5.431095566009654E-005
 -5.422947171304240E-005
 -5.414962317330627E-005
 -5.407140483436485E-005
 -5.399481056770283E-005
 -5.391983335285819E-005
 -5.384646530707081E-005
 -5.377469771449121E-005
 -5.370452105485184E-005
 -5.363592503152601E-005
 -5.356889859891759E-005
 -5.350342998911291E-005
 -5.343950673771613E-005
 -5.337711570883476E-005
 -5.331624311913958E-005
 -5.325687456095807E-005
 -5.319899502435082E-005
 -5.314258891813199E-005
 -5.308764008978474E-005
 -5.303413184424537E-005
 -5.298204696152462E-005
 -5.293136771313239E-005
 -5.288207587729060E-005
 -5.283415275290978E-005
 -5.278757917232120E-005
 -5.274233551274552E-005
 -5.269840170650137E-005
 -5.265575724995014E-005
 -5.261438121117735E-005
 -5.257425223641524E-005
 -5.253534855522757E-005
 -5.845847502082835E-005
 -5.834015850790133E-005
 -5.822360916158781E-005
 -5.810884475495923E-005
 -5.799588136298770E-005
 -5.788473339200587E-005
 -5.777541361092408E-005
 -5.766793318408686E-005
 -5.756230170559221E-005
 -5.745852723496400E-005
 -5.735661633398543E-005
 -5.725657410460753E-005
 -5.715840422773021E-005
 -5.706210900277391E-005
 -5.696768938785739E-005
 -5.687514504048739E-005
 -5.678447435858905E-005
 -5.669567452179049E-005
 -5.660874153279831E-005
 -5.652367025876089E-005
 -5.644045447249495E-005
 -5.635908689347072E-005
 -5.627955922841394E-005
 -5.620186221145161E-005
 -5.612598564367438E-005
 -5.605191843201385E-005
 -5.597964862735455E-005
 -5.590916346176989E-005
 -5.584044938479962E-005
 -5.577349209868770E-005
 -5.570827659249719E-005
 -5.564478717502157E-005
 -5.558300750643234E-005
 -5.552292062858271E-005
 -5.546450899391639E-005
 -5.540775449291733E-005
 -5.535263848004690E-005
 -5.529914179812713E-005
 -5.524724480111736E-005
 -5.519692737525542E-005
 -5.514816895851951E-005
 -5.510094855839224E-005
 -5.505524476789627E-005
 -5.501103577988593E-005
 -5.496829939957830E-005
 -5.492701305532754E-005
 -5.488715380761730E-005
 -5.484869835629300E-005
 -5.481162304603009E-005
 -5.477590387006503E-005
 -6.077743066949826E-005
 -6.065261537477570E-005
 -6.052985704819317E-005
 -6.040917254160529E-005
 -6.029057670517875E-005
 -6.017408243157969E-005
 -6.005970070209140E-005
 -5.994744063448415E-005
 -5.983730953244282E-005
 -5.972931293635445E-005
 -5.962345467531904E-005
 -5.951973692015083E-005
 -5.941816023722458E-005
 -5.931872364299855E-005
 -5.922142465902765E-005
 -5.912625936731077E-005
 -5.903322246581872E-005
 -5.894230732402757E-005
 -5.885350603832522E-005
 -5.876680948712259E-005
 -5.868220738554202E-005
 -5.859968833953516E-005
 -5.851923989929078E-005
 -5.844084861181427E-005
 -5.836450007253868E-005
 -5.829017897585664E-005
 -5.821786916445767E-005
 -5.814755367734827E-005
 -5.807921479645900E-005
 -5.801283409173796E-005
 -5.794839246463048E-005
 -5.788587018984738E-005
 -5.782524695535960E-005
 -5.776650190050792E-005
 -5.770961365218077E-005
 -5.765456035897284E-005
 -5.760131972326908E-005
 -5.754986903119210E-005
 -5.750018518036580E-005
 -5.745224470543864E-005
 -5.740602380133133E-005
 -5.736149834418127E-005
 -5.731864390993138E-005
 -5.727743579056218E-005
 -5.723784900794117E-005
 -5.719985832526928E-005
 -5.716343825612958E-005
 -5.712856307113015E-005
 -5.709520680216070E-005
 -5.706334324424662E-005
 -6.312223990387197E-005
 -6.299068297067384E-005
 -6.286152262864551E-005
 -6.273477355344515E-005
 -6.261044806829397E-005
 -6.248855620785419E-005
 -6.236910578411698E-005
 -6.225210245409757E-005
 -6.213754978907407E-005
 -6.202544934515961E-005
 -6.191580073497561E-005
 -6.180860170022961E-005
 -6.170384818494742E-005
 -6.160153440919259E-005
 -6.150165294303031E-005
 -6.140419478057701E-005
 -6.130914941390778E-005
 -6.121650490665509E-005
 -6.112624796712051E-005
 -6.103836402070222E-005
 -6.095283728149236E-005
 -6.086965082285912E-005
 -6.078878664687248E-005
 -6.071022575240685E-005
 -6.063394820178116E-005
 -6.055993318578623E-005
 -6.048815908698021E-005
 -6.041860354110052E-005
 -6.035124349648719E-005
 -6.028605527138514E-005
 -6.022301460902774E-005
 -6.016209673037939E-005
 -6.010327638445057E-005
 -6.004652789608439E-005
 -5.999182521112724E-005
 -5.993914193890302E-005
 -5.988845139191565E-005
 -5.983972662270684E-005
 -5.979294045780790E-005
 -5.974806552873471E-005
 -5.970507429996367E-005
 -5.966393909384395E-005
 -5.962463211243370E-005
 -5.958712545618849E-005
 -5.955139113950968E-005
 -5.951740110311924E-005
 -5.948512722325728E-005
 -5.945454131769589E-005
 -5.942561514855585E-005
 -5.939832042197117E-005
 -6.548811098671573E-005
 -6.534964368894579E-005
 -6.521397125341076E-005
 -6.508110439077881E-005
 -6.495105106061613E-005
 -6.482381656105147E-005
 -6.469940362042895E-005
 -6.457781249065704E-005
 -6.445904104197589E-005
 -6.434308485888374E-005
 -6.422993733692461E-005
 -6.411958978011106E-005
 -6.401203149869963E-005
 -6.390724990710125E-005
 -6.380523062165490E-005
 -6.370595755807644E-005
 -6.360941302831253E-005
 -6.351557783661352E-005
 -6.342443137461398E-005
 -6.333595171519651E-005
 -6.325011570496849E-005
 -6.316689905515504E-005
 -6.308627643071148E-005
 -6.300822153750831E-005
 -6.293270720739604E-005
 -6.285970548099673E-005
 -6.278918768808462E-005
 -6.272112452537307E-005
 -6.265548613160118E-005
 -6.259224215976247E-005
 -6.253136184636326E-005
 -6.247281407757328E-005
 -6.241656745217210E-005
 -6.236259034116446E-005
 -6.231085094397955E-005
 -6.226131734114499E-005
 -6.221395754335858E-005
 -6.216873953686978E-005
 -6.212563132509003E-005
 -6.208460096638264E-005
 -6.204561660794663E-005
 -6.200864651576091E-005
 -6.197365910052277E-005
 -6.194062293955979E-005
 -6.190950679465876E-005
 -6.188027962580282E-005
 -6.185291060079583E-005
 -6.182736910074841E-005
 -6.180362472144128E-005
 -6.178164727054964E-005
 -6.786891008598572E-005
 -6.772348756768469E-005
 -6.758132679074493E-005
 -6.744243201955924E-005
 -6.730680432392057E-005
 -6.717444170181216E-005
 -6.704533920395421E-005
 -6.691948905976138E-005
 -6.679688080437761E-005
 -6.667750140646977E-005
 -6.656133539647597E-005
 -6.644836499498835E-005
 -6.633857024100223E-005
 -6.623192911974278E-005
 -6.612841768979577E-005
 -6.602801020926845E-005
 -6.593067926075877E-005
 -6.583639587487404E-005
 -6.574512965204905E-005
 -6.565684888246489E-005
 -6.557152066384137E-005
 -6.548911101688574E-005
 -6.540958499821222E-005
 -6.533290681052312E-005
 -6.525903990989054E-005
 -6.518794710992626E-005
 -6.511959068271014E-005
 -6.505393245627585E-005
 -6.499093390852838E-005
 -6.493055625742333E-005
 -6.487276054728342E-005
 -6.481750773109653E-005
 -6.476475874869188E-005
 -6.471447460065193E-005
 -6.466661641785072E-005
 -6.462114552652126E-005
 -6.457802350873615E-005
 -6.453721225821304E-005
 -6.449867403135988E-005
 -6.446237149347268E-005
 -6.442826776001239E-005
 -6.439632643290765E-005
 -6.436651163179420E-005
 -6.433878802017043E-005
 -6.431312082639658E-005
 -6.428947585952101E-005
 -6.426781951988030E-005
 -6.424811880446985E-005
 -6.423034130705898E-005
 -6.421445521304082E-005
 -7.025691738126706E-005
 -7.010468695861946E-005
 -6.995626472392246E-005
 -6.981164513313230E-005
 -6.967081896823747E-005
 -6.953377350181311E-005
 -6.940049266269832E-005
 -6.927095720256437E-005
 -6.914514486291193E-005
 -6.902303054213575E-005
 -6.890458646234944E-005
 -6.878978233559161E-005
 -6.867858552912963E-005
 -6.857096122951260E-005
 -6.846687260511756E-005
 -6.836628096689262E-005
 -6.826914592699689E-005
 -6.817542555513363E-005
 -6.808507653227022E-005
 -6.799805430154152E-005
 -6.791431321609352E-005
 -6.783380668363970E-005
 -6.775648730754279E-005
 -6.768230702418770E-005
 -6.761121723647494E-005
 -6.754316894322668E-005
 -6.747811286435344E-005
 -6.741599956157520E-005
 -6.735677955456251E-005
 -6.730040343231328E-005
 -6.724682195963855E-005
 -6.719598617858772E-005
 -6.714784750470049E-005
 -6.710235781791422E-005
 -6.705946954806109E-005
 -6.701913575476799E-005
 -6.698131020169175E-005
 -6.694594742497259E-005
 -6.691300279578128E-005
 -6.688243257691258E-005
 -6.685419397327757E-005
 -6.682824517627306E-005
 -6.680454540189013E-005
 -6.678305492255527E-005
 -6.676373509259556E-005
 -6.674654836729150E-005
 -6.673145831546706E-005
 -6.671842962558549E-005
 -6.670742810527177E-005
 -6.669842067433452E-005
 -7.264256133782784E-005
 -7.248395422617561E-005
 -7.232979296900095E-005
 -7.218005775381143E-005
 -7.203472459666561E-005
 -7.189376555790945E-005
 -7.175714895846352E-005
 -7.162483959573196E-005
 -7.149679895899447E-005
 -7.137298544383788E-005
 -7.125335456518474E-005
 -7.113785916866001E-005
 -7.102644963988063E-005
 -7.091907411140621E-005
 -7.081567866702341E-005
 -7.071620754306038E-005
 -7.062060332648762E-005
 -7.052880714951610E-005
 -7.044075888046737E-005
 -7.035639731063758E-005
 -7.027566033697880E-005
 -7.019848514032203E-005
 -7.012480835898903E-005
 -7.005456625753273E-005
 -6.998769489047049E-005
 -6.992413026077080E-005
 -6.986380847296038E-005
 -6.980666588064532E-005
 -6.975263922830139E-005
 -6.970166578715952E-005
 -6.965368348504794E-005
 -6.960863103002224E-005
 -6.956644802766445E-005
 -6.952707509188579E-005
 -6.949045394912760E-005
 -6.945652753580973E-005
 -6.942524008892034E-005
 -6.939653722961260E-005
 -6.937036603971367E-005
 -6.934667513101842E-005
 -6.932541470727632E-005
 -6.930653661876981E-005
 -6.928999440938725E-005
 -6.927574335610022E-005
 -6.926374050076650E-005
 -6.925394467418661E-005
 -6.924631651233316E-005
 -6.924081846460776E-005
 -6.923741479436155E-005
 -6.923607157105350E-005
 -7.501414092609681E-005
 -7.484999291390758E-005
 -7.469103143687588E-005
 -7.453721661632931E-005
 -7.438850391545244E-005
 -7.424484441768691E-005
 -7.410618510259453E-005
 -7.397246912083532E-005
 -7.384363606664509E-005
 -7.371962224778149E-005
 -7.360036095257040E-005
 -7.348578271371740E-005
 -7.337581556850063E-005
 -7.327038531506879E-005
 -7.316941576457208E-005
 -7.307282898883223E-005
 -7.298054556332447E-005
 -7.289248480519434E-005
 -7.280856500613262E-005
 -7.272870365982537E-005
 -7.265281768383340E-005
 -7.258082363567797E-005
 -7.251263792291709E-005
 -7.244817700709347E-005
 -7.238735760131356E-005
 -7.233009686134224E-005
 -7.227631257000037E-005
 -7.222592331476585E-005
 -7.217884865836392E-005
 -7.213500930224986E-005
 -7.209432724280504E-005
 -7.205672592012623E-005
 -7.202213035925092E-005
 -7.199046730372059E-005
 -7.196166534128383E-005
 -7.193565502169839E-005
 -7.191236896642394E-005
 -7.189174197013508E-005
 -7.187371109389965E-005
 -7.185821574992606E-005
 -7.184519777774146E-005
 -7.183460151169476E-005
 -7.182637383966612E-005
 -7.182046425287892E-005
 -7.181682488669219E-005
 -7.181541055222185E-005
 -7.181617875876524E-005
 -7.181908972712638E-005
 -7.182410639270944E-005
 -7.183119440042903E-005
 -7.735755246486780E-005
 -7.718925954584462E-005
 -7.702700791054138E-005
 -7.687073022430702E-005
 -7.672035406652652E-005
 -7.657580227806297E-005
 -7.643699330967370E-005
 -7.630384156354273E-005
 -7.617625773130693E-005
 -7.605414912746984E-005
 -7.593742001758498E-005
 -7.582597194104024E-005
 -7.571970402823534E-005
 -7.561851331188808E-005
 -7.552229503222485E-005
 -7.543094293584058E-005
 -7.534434956801313E-005
 -7.526240655832841E-005
 -7.518500489938612E-005
 -7.511203521847284E-005
 -7.504338804202163E-005
 -7.497895405269870E-005
 -7.491862433899477E-005
 -7.486229063717560E-005
 -7.480984556545631E-005
 -7.476118285026887E-005
 -7.471619754451127E-005
 -7.467478623764828E-005
 -7.463684725753427E-005
 -7.460228086386191E-005
 -7.457098943310442E-005
 -7.454287763484986E-005
 -7.451785259939219E-005
 -7.449582407649071E-005
 -7.447670458516632E-005
 -7.446040955441992E-005
 -7.444685745476805E-005
 -7.443596992044943E-005
 -7.442767186221582E-005
 -7.442189157055791E-005
 -7.441856080924730E-005
 -7.441761489905479E-005
 -7.441899279152215E-005
 -7.442263713260164E-005
 -7.442849431612160E-005
 -7.443651452694564E-005
 -7.444665177345277E-005
 -7.445886390867987E-005
 -7.447311264328779E-005
 -7.448936354254684E-005
 -7.965604691227499E-005
 -7.948576206492150E-005
 -7.932249631662358E-005
 -7.916614565365494E-005
 -7.901660066234936E-005
 -7.887374697100155E-005
 -7.873746566758329E-005
 -7.860763372032614E-005
 -7.848412438833292E-005
 -7.836680762384203E-005
 -7.825555046700539E-005
 -7.815021743275995E-005
 -7.805067088944667E-005
 -7.795677142899578E-005
 -7.786837822856591E-005
 -7.778534940362093E-005
 -7.770754235225427E-005
 -7.763481409074892E-005
 -7.756702158019927E-005
 -7.750402204418674E-005
 -7.744567327736790E-005
 -7.739183394497467E-005
 -7.734236387310623E-005
 -7.729712432977770E-005
 -7.725597829665213E-005
 -7.721879073141737E-005
 -7.718542882072576E-005
 -7.715576222365140E-005
 -7.712966330561885E-005
 -7.710700736274083E-005
 -7.708767283650853E-005
 -7.707154151877774E-005
 -7.705849874699576E-005
 -7.704843358961324E-005
 -7.704123902158896E-005
 -7.703681208994123E-005
 -7.703505406925921E-005
 -7.703587060707578E-005
 -7.703917185900689E-005
 -7.704487261355532E-005
 -7.705289240643513E-005
 -7.706315562434024E-005
 -7.707559159799291E-005
 -7.709013468431152E-005
 -7.710672433732150E-005
 -7.712530516760781E-005
 -7.714582699102183E-005
 -7.716824486720380E-005
 -7.719251911733965E-005
 -7.721861534803722E-005
 -8.189005488379270E-005
 -8.172093187794021E-005
 -8.155993398220569E-005
 -8.140690920546725E-005
 -8.126170008680836E-005
 -8.112414417712647E-005
 -8.099407457460191E-005
 -8.087132041517367E-005
 -8.075570735779005E-005
 -8.064705806150617E-005
 -8.054519265040242E-005
 -8.044992916637262E-005
 -8.036108401048374E-005
 -8.027847237316195E-005
 -8.020190865312866E-005
 -8.013120686505102E-005
 -8.006618103584243E-005
 -8.000664558972895E-005
 -7.995241572208021E-005
 -7.990330776204818E-005
 -7.985913952412046E-005
 -7.981973064851523E-005
 -7.978490293056233E-005
 -7.975448063903585E-005
 -7.972829082354509E-005
 -7.970616361097304E-005
 -7.968793249109011E-005
 -7.967343459133237E-005
 -7.966251094085345E-005
 -7.965500672389284E-005
 -7.965077152252126E-005
 -7.964965954882270E-005
 -7.965152986659109E-005
 -7.965624660254848E-005
 -7.966367914717133E-005
 -7.967370234512956E-005
 -7.968619667534540E-005
 -7.970104842071915E-005
 -7.971814982746124E-005
 -7.973739925401596E-005
 -7.975870130947437E-005
 -7.978196698128475E-005
 -7.980711375216963E-005
 -7.983406570624471E-005
 -7.986275362461177E-005
 -7.989311506979057E-005
 -7.992509445576654E-005
 -7.995864310321332E-005
 -7.999371931102843E-005
 -8.003028834863070E-005
 -8.403712992007242E-005
 -8.387361917371186E-005
 -8.371946654632108E-005
 -8.357445863868948E-005
 -8.343837670441264E-005
 -8.331099741201734E-005
 -8.319209335068154E-005
 -8.308143363048906E-005
 -8.297878445580225E-005
 -8.288390967070924E-005
 -8.279657128951458E-005
 -8.271653001457749E-005
 -8.264354573993355E-005
 -8.257737803979716E-005
 -8.251778664208477E-005
 -8.246453188731078E-005
 -8.241737517326647E-005
 -8.237607938566799E-005
 -8.234040931487182E-005
 -8.231013205879122E-005
 -8.228501741215408E-005
 -8.226483824224918E-005
 -8.224937085135321E-005
 -8.223839532602622E-005
 -8.223169587350425E-005
 -8.222906114535732E-005
 -8.223028454873029E-005
 -8.223516454534083E-005
 -8.224350493853854E-005
 -8.225511514868904E-005
 -8.226981047719045E-005
 -8.228741235939902E-005
 -8.230774860675831E-005
 -8.233065363844177E-005
 -8.235596870277467E-005
 -8.238354208869640E-005
 -8.241322932745333E-005
 -8.244489338475036E-005
 -8.247840484347453E-005
 -8.251364207718237E-005
 -8.255049141450833E-005
 -8.258884729463833E-005
 -8.262861241355923E-005
 -8.266969786020162E-005
 -8.271202324151928E-005
 -8.275551679873419E-005
 -8.280011552282100E-005
 -8.284576526129785E-005
 -8.289242072516138E-005
 -8.294004572262938E-005
 -8.607207417592450E-005
 -8.592027415096916E-005
 -8.577918201242886E-005
 -8.564850689863338E-005
 -8.552795370063738E-005
 -8.541722319522376E-005
 -8.531601303027604E-005
 -8.522401834207391E-005
 -8.514093235520692E-005
 -8.506644700335408E-005
 -8.500025353675879E-005
 -8.494204310392599E-005
 -8.489150731016405E-005
 -8.484833875712505E-005
 -8.481223156488952E-005
 -8.478288187665870E-005
 -8.475998834562909E-005
 -8.474325260391687E-005
 -8.473237971363278E-005
 -8.472707860043363E-005
 -8.472706246984515E-005
 -8.473204920669731E-005
 -8.474176175803208E-005
 -8.475592849981321E-005
 -8.477428358790315E-005
 -8.479656729377285E-005
 -8.482252632548775E-005
 -8.485191413461787E-005
 -8.488449120972439E-005
 -8.492002535713422E-005
 -8.495829196977322E-005
 -8.499907428478402E-005
 -8.504216363074721E-005
 -8.508735966524555E-005
 -8.513447060357091E-005
 -8.518331343930762E-005
 -8.523371415757214E-005
 -8.528550794146311E-005
 -8.533853937225071E-005
 -8.539266262350093E-005
 -8.544774164925760E-005
 -8.550365036662459E-005
 -8.556027283406105E-005
 -8.561750342756956E-005
 -8.567524701439544E-005
 -8.573341911318962E-005
 -8.579194602080110E-005
 -8.585076495165745E-005
 -8.590982443189839E-005
 -8.596908384713925E-005
 -8.796732100761825E-005
 -8.783538801354808E-005
 -8.771560595116150E-005
 -8.760758944247618E-005
 -8.751094851408667E-005
 -8.742529151594318E-005
 -8.735022488950560E-005
 -8.728535393729019E-005
 -8.723028366723166E-005
 -8.718461949637808E-005
 -8.714796788717623E-005
 -8.711993696891977E-005
 -8.710013715053469E-005
 -8.708818171589362E-005
 -8.708368739501720E-005
 -8.708627490928213E-005
 -8.709556949133861E-005
 -8.711120138084946E-005
 -8.713280629677654E-005
 -8.716002588639012E-005
 -8.719250815117414E-005
 -8.722990784966385E-005
 -8.727188687764279E-005
 -8.731811462631687E-005
 -8.736826831931258E-005
 -8.742203332963384E-005
 -8.747910347784815E-005
 -8.753918131290340E-005
 -8.760197837718916E-005
 -8.766721545744308E-005
 -8.773462282329965E-005
 -8.780394045520667E-005
 -8.787491826352685E-005
 -8.794731630052259E-005
 -8.802090496687465E-005
 -8.809546521433938E-005
 -8.817078874605861E-005
 -8.824667821616905E-005
 -8.832294743042532E-005
 -8.839942154950561E-005
 -8.847593729585606E-005
 -8.855234316308686E-005
 -8.862849962425324E-005
 -8.870427933600203E-005
 -8.877956734764460E-005
 -8.885426135118559E-005
 -8.892827199955496E-005
 -8.900152309201728E-005
 -8.907395104295650E-005
 -8.914550723468152E-005
 -8.969365201562626E-005
 -8.959227000727585E-005
 -8.950453923422173E-005
 -8.942995486327764E-005
 -8.936801578663944E-005
 -8.931821762389692E-005
 -8.928005660671577E-005
 -8.925303063884955E-005
 -8.923663968192139E-005
 -8.923038636675295E-005
 -8.923377676457071E-005
 -8.924632115575976E-005
 -8.926753473649835E-005
 -8.929693826754633E-005
 -8.933405868258908E-005
 -8.937842966626211E-005
 -8.942959220339822E-005
 -8.948709509661913E-005
 -8.955049544879684E-005
 -8.961935910806847E-005
 -8.969326107464656E-005
 -8.977178586984201E-005
 -8.985452786864777E-005
 -8.994109159773886E-005
 -9.003109200114409E-005
 -9.012415467609712E-005
 -9.021991608202079E-005
 -9.031802372572468E-005
 -9.041813632638422E-005
 -9.051992396396304E-005
 -9.062306821509095E-005
 -9.072726228042240E-005
 -9.083221110766271E-005
 -9.093763151425555E-005
 -9.104325231351650E-005
 -9.114881444742851E-005
 -9.125407112862920E-005
 -9.135878799324771E-005
 -9.146274326585982E-005
 -9.156572793854773E-005
 -9.166754596861872E-005
 -9.176801450358814E-005
 -9.186696414265161E-005
 -9.196423922980997E-005
 -9.205969813173013E-005
 -9.215321340849328E-005
 -9.224467191111857E-005
 -9.233397551557386E-005
 -9.242104363604457E-005
 -9.250580610147536E-005
 -9.122130558659287E-005
 -9.116423556367555E-005
 -9.112230780734763E-005
 -9.109489174014961E-005
 -9.108133889475852E-005
 -9.108101230203093E-005
 -9.109327885186710E-005
 -9.111750828761855E-005
 -9.115307504056506E-005
 -9.119935982274818E-005
 -9.125575060671889E-005
 -9.132164333472934E-005
 -9.139644260076806E-005
 -9.147956236694157E-005
 -9.157042668741929E-005
 -9.166847039775972E-005
 -9.177313974109214E-005
 -9.188389291881606E-005
 -9.200020056389371E-005
 -9.212154613934211E-005
 -9.224742626538681E-005
 -9.237735097847237E-005
 -9.251084392514916E-005
 -9.264744249420704E-005
 -9.278669789143819E-005
 -9.292817516269315E-005
 -9.307145317219979E-005
 -9.321612454428620E-005
 -9.336179557739821E-005
 -9.350808613961612E-005
 -9.365462955490618E-005
 -9.380107248901695E-005
 -9.394707484347857E-005
 -9.409230966577766E-005
 -9.423646308353645E-005
 -9.437923427024165E-005
 -9.452033544964889E-005
 -9.465949194431185E-005
 -9.479644227017680E-005
 -9.493093827263555E-005
 -9.506274529162874E-005
 -9.519164234072234E-005
 -9.531742230301998E-005
 -9.543989220572383E-005
 -9.555887372687929E-005
 -9.567420406841992E-005
 -9.578573673792929E-005
 -9.589334011091511E-005
 -9.599689253053027E-005
 -9.609630869730239E-005
 -9.252150706775709E-005
 -9.252622335848839E-005
 -9.254753338630665E-005
 -9.258458081572899E-005
 -9.263658669783006E-005
 -9.270275096775366E-005
 -9.278227487878585E-005
 -9.287437156284040E-005
 -9.297826647281502E-005
 -9.309319637291165E-005
 -9.321840951580393E-005
 -9.335316679006196E-005
 -9.349674316099200E-005
 -9.364842899612018E-005
 -9.380753114778247E-005
 -9.397337380724852E-005
 -9.414529918096612E-005
 -9.432266802741757E-005
 -9.450486007015975E-005
 -9.469127428557012E-005
 -9.488132905671120E-005
 -9.507446218539104E-005
 -9.527013076027617E-005
 -9.546781088643397E-005
 -9.566699728919082E-005
 -9.586720281144233E-005
 -9.606795782793395E-005
 -9.626880960264821E-005
 -9.646932161600722E-005
 -9.666907288768145E-005
 -9.686765731843476E-005
 -9.706468307077101E-005
 -9.725977200396631E-005
 -9.745255917442222E-005
 -9.764269240826654E-005
 -9.782983195078790E-005
 -9.801365019782119E-005
 -9.819383151888825E-005
 -9.837007219005181E-005
 -9.854208046253925E-005
 -9.870957678985083E-005
 -9.887229420137259E-005
 -9.902997871949408E-005
 -9.918238957511749E-005
 -9.932929891761947E-005
 -9.947049120438336E-005
 -9.960576437856868E-005
 -9.973493800194675E-005
 -9.985786514193521E-005
 -9.997434739757093E-005
 -9.356830009223785E-005
 -9.365695850220281E-005
 -9.376335210309823E-005
 -9.388663840534671E-005
 -9.402571618099628E-005
 -9.417956437093710E-005
 -9.434720503251608E-005
 -9.452767071496668E-005
 -9.472000060171027E-005
 -9.492324695074321E-005
 -9.513648146009600E-005
 -9.535879912520113E-005
 -9.558932019783409E-005
 -9.582719128533442E-005
 -9.607158624651179E-005
 -9.632170711781226E-005
 -9.657678504467638E-005
 -9.683608108962799E-005
 -9.709888678113114E-005
 -9.736452430446035E-005
 -9.763234628481781E-005
 -9.790173515765536E-005
 -9.817210215520612E-005
 -9.844288596093827E-005
 -9.871355109675210E-005
 -9.898358611360705E-005
 -9.925250165723824E-005
 -9.951982847836346E-005
 -9.978511545270983E-005
 -1.000479276707724E-004
 -1.003078446508521E-004
 -1.005644587210649E-004
 -1.008173736064652E-004
 -1.010662032449762E-004
 -1.013105708402258E-004
 -1.015501081402349E-004
 -1.017844549099995E-004
 -1.020132585478122E-004
 -1.022361737895410E-004
 -1.024528624689417E-004
 -1.026629933785191E-004
 -1.028662424227705E-004
 -1.030622934485870E-004
 -1.032508402120333E-004
 -1.034315894117292E-004
 -1.036042626191368E-004
 -1.037685904932791E-004
 -1.039242907086978E-004
 -1.040710575736516E-004
 -1.042088362461016E-004
 -9.434069731326968E-005
 -9.454113487890372E-005
 -9.476082295098022E-005
 -9.499775720498547E-005
 -9.525088976910152E-005
 -9.551905063461611E-005
 -9.580096225439338E-005
 -9.609534273642562E-005
 -9.640095191323819E-005
 -9.671659851829601E-005
 -9.704113500301633E-005
 -9.737345289446815E-005
 -9.771248207843220E-005
 -9.805719332104824E-005
 -9.840660232459170E-005
 -9.875977383310918E-005
 -9.911582484187094E-005
 -9.947392645630901E-005
 -9.983330429219564E-005
 -1.001932375152597E-004
 -1.005530567211107E-004
 -1.009121408916621E-004
 -1.012699136608142E-004
 -1.016258390992107E-004
 -1.019794171977521E-004
 -1.023301791992696E-004
 -1.026776829012322E-004
 -1.030215080312903E-004
 -1.033612517825234E-004
 -1.036965245862245E-004
 -1.040269461962968E-004
 -1.043521421597388E-004
 -1.046717407505647E-004
 -1.049853704467264E-004
 -1.052926580274555E-004
 -1.055932273548728E-004
 -1.058866988695471E-004
 -1.061726897624874E-004
 -1.064508146719557E-004
 -1.067206865847121E-004
 -1.069819174137729E-004
 -1.072341175620740E-004
 -1.074768938982076E-004
 -1.077098464872487E-004
 -1.079325670422776E-004
 -1.081446472360607E-004
 -1.083457104036987E-004
 -1.085354666403048E-004
 -1.087136717964994E-004
 -1.088793120858994E-004
 -9.482411488214964E-005
 -9.517413967998669E-005
 -9.554191905068146E-005
 -9.592839190765841E-005
 -9.633132691507334E-005
 -9.674854281898585E-005
 -9.717824928600788E-005
 -9.761887310382760E-005
 -9.806891095111137E-005
 -9.852687222227560E-005
 -9.899127953960789E-005
 -9.946069311848264E-005
 -9.993373895513622E-005
 -1.004091318130862E-004
 -1.008856902894934E-004
 -1.013623442394400E-004
 -1.018381359708357E-004
 -1.023122168424708E-004
 -1.027838407292523E-004
 -1.032523555256643E-004
 -1.037171935608818E-004
 -1.041778615429100E-004
 -1.046339304462813E-004
 -1.050850256052707E-004
 -1.055308171643755E-004
 -1.059710109610777E-004
 -1.064053398654249E-004
 -1.068335555705991E-004
 -1.072554208143554E-004
 -1.076707020103354E-004
 -1.080791622796831E-004
 -1.084805548970730E-004
 -1.088746172021249E-004
 -1.092610650794054E-004
 -1.096395881791597E-004
 -1.100098461377241E-004
 -1.103714661578391E-004
 -1.107240424121619E-004
 -1.110671378052619E-004
 -1.114002885973446E-004
 -1.117230121094929E-004
 -1.120348169217472E-004
 -1.123352131878759E-004
 -1.126237173235234E-004
 -1.128998401204970E-004
 -1.131630425947305E-004
 -1.134126525034041E-004
 -1.136478069537150E-004
 -1.138677971424446E-004
 -1.140743073643717E-004
 -9.501351495117677E-005
 -9.555851370855869E-005
 -9.613061178953801E-005
 -9.671775216464267E-005
 -9.731767337136452E-005
 -9.792945793500108E-005
 -9.855161437930031E-005
 -9.918200869911818E-005
 -9.981817924280846E-005
 -1.004576276719772E-004
 -1.010980083294803E-004
 -1.017372283917376E-004
 -1.023734869898741E-004
 -1.030052773490802E-004
 -1.036313686516031E-004
 -1.042507781937441E-004
 -1.048627401265966E-004
 -1.054666743096025E-004
 -1.060621571044392E-004
 -1.066488949230314E-004
 -1.072267007593199E-004
 -1.077954736120597E-004
 -1.083551805396993E-004
 -1.089058410130680E-004
 -1.094475132073905E-004
 -1.099802818782438E-004
 -1.105042474823963E-004
 -1.110195162258858E-004
 -1.115261907441505E-004
 -1.120243611408788E-004
 -1.125140961336049E-004
 -1.129954340774803E-004
 -1.134683736682049E-004
 -1.139328641685177E-004
 -1.143887950722753E-004
 -1.148359852358665E-004
 -1.152741717003003E-004
 -1.157029987484537E-004
 -1.161220082671031E-004
 -1.165306333237991E-004
 -1.169281981714227E-004
 -1.173139298035804E-004
 -1.176869886803948E-004
 -1.180465285832598E-004
 -1.183917945688527E-004
 -1.187222530724727E-004
 -1.190376868707245E-004
 -1.193379840921644E-004
 -1.196217272442618E-004
 -1.198808458406532E-004
 -9.490891983247101E-005
 -9.575326211026778E-005
 -9.658704603639193E-005
 -9.743823546422227E-005
 -9.830878224955367E-005
 -9.919258481192855E-005
 -1.000820770778953E-004
 -1.009704617355651E-004
 -1.018522960968554E-004
 -1.027234839607467E-004
 -1.035810814581594E-004
 -1.044230705395732E-004
 -1.052481533760041E-004
 -1.060555819015425E-004
 -1.068450222812258E-004
 -1.076164494466140E-004
 -1.083700659915095E-004
 -1.091062402199111E-004
 -1.098254590112870E-004
 -1.105282920443103E-004
 -1.112153646761578E-004
 -1.118873373857331E-004
 -1.125448901670361E-004
 -1.131887106247558E-004
 -1.138194848001825E-004
 -1.144378899602114E-004
 -1.150445887309076E-004
 -1.156402240605105E-004
 -1.162254145633968E-004
 -1.168007498311483E-004
 -1.173667853025750E-004
 -1.179240362617631E-004
 -1.184729704808466E-004
 -1.190139989388975E-004
 -1.195474639258884E-004
 -1.200736236761563E-004
 -1.205926324668235E-004
 -1.211045148701425E-004
 -1.216091325956911E-004
 -1.221061421916931E-004
 -1.225949420327042E-004
 -1.230746080868659E-004
 -1.235438213298148E-004
 -1.240007987102932E-004
 -1.244432623880224E-004
 -1.248685384563305E-004
 -1.252740161957391E-004
 -1.256585484248413E-004
 -1.260262604346598E-004
 -1.263965256077627E-004
 -9.453986398714101E-005
 -9.569714457371940E-005
 -9.699037295875813E-005
 -9.832675844207234E-005
 -9.965969328240226E-005
 -1.009656108882811E-004
 -1.022329270108271E-004
 -1.034564975927588E-004
 -1.046347163752756E-004
 -1.057679355929012E-004
 -1.068575794410715E-004
 -1.079056348320369E-004
 -1.089143547020834E-004
 -1.098860844508469E-004
 -1.108231612864399E-004
 -1.117278574270454E-004
 -1.126023499449105E-004
 -1.134487068514629E-004
 -1.142688830443078E-004
 -1.150647221620775E-004
 -1.158379618811047E-004
 -1.165902411133118E-004
 -1.173231081461130E-004
 -1.180380291325381E-004
 -1.187363965719844E-004
 -1.194195375675109E-004
 -1.200887217341873E-004
 -1.207451686831625E-004
 -1.213900550286460E-004
 -1.220245208655241E-004
 -1.226496756456245E-004
 -1.232666033384682E-004
 -1.238763666919179E-004
 -1.244800102971737E-004
 -1.250785619917932E-004
 -1.256730318698248E-004
 -1.262644077543944E-004
 -1.268536453303103E-004
 -1.274416500680159E-004
 -1.280292463026424E-004
 -1.286171258257915E-004
 -1.292057630855449E-004
 -1.297952745781668E-004
 -1.303851822022263E-004
 -1.309740056915473E-004
 -1.315585390543101E-004
 -1.321325177783752E-004
 -1.326840575883332E-004
 -1.331904990548018E-004
 -1.336075170564338E-004
 -9.389058388486169E-005
 -9.650813772135722E-005
 -9.881997906448517E-005
 -1.008943906315021E-004
 -1.027786958952911E-004
 -1.045071023328075E-004
 -1.061051760519102E-004
 -1.075925507747967E-004
 -1.089846512676572E-004
 -1.102938349009331E-004
 -1.115301729062268E-004
 -1.127019995864128E-004
 -1.138163072130789E-004
 -1.148790355727425E-004
 -1.158952879961658E-004
 -1.168694951205730E-004
 -1.178055408853731E-004
 -1.187068608455294E-004
 -1.195765199334895E-004
 -1.204172747894864E-004
 -1.212316243892700E-004
 -1.220218517234868E-004
 -1.227900585921583E-004
 -1.235381950834619E-004
 -1.242680849504474E-004
 -1.249814478425907E-004
 -1.256799191647073E-004
 -1.263650682051984E-004
 -1.270384150868332E-004
 -1.277014470379901E-004
 -1.283556344562617E-004
 -1.290024472370783E-004
 -1.296433718687286E-004
 -1.302799298545179E-004
 -1.309136981198504E-004
 -1.315463322070763E-004
 -1.321795932715449E-004
 -1.328153801942892E-004
 -1.334557685620338E-004
 -1.341030588990907E-004
 -1.347598374758565E-004
 -1.354290544458587E-004
 -1.361141262934131E-004
 -1.368190731809925E-004
 -1.375487078575195E-004
 -1.383089034845598E-004
 -1.391069875362452E-004
 -1.399523475511150E-004
 -1.408574139710868E-004
 -1.418393574549665E-004
SCALARS elementIsPlast double 
LOOKUP_TABLE default
  0.000000000000000E+000
  0.000000000000000E+000
  0.000000000000000E+000
  0.000000000000000E+000
  0.000000000000000E+000
  0.000000000000000E+000
  0.000000000000000E+000
  0.000000000000000E+000
  0.000000000000000E+000
  0.000000000000000E+000
  0.000000000000000E+000
  0.000000000000000E+000
  0.000000000000000E+000
  0.000000000000000E+000
  0.000000000000000E+000
  0.000000000000000E+000
  0.000000000000000E+000
  0.000000000000000E+000
  0.000000000000000E+000
  0.000000000000000E+000
  0.000000000000000E+000
  0.000000000000000E+000
  0.000000000000000E+000
  0.000000000000000E+000
  0.000000000000000E+000
  0.000000000000000E+000
  0.000000000000000E+000
  0.000000000000000E+000
  0.000000000000000E+000
  0.000000000000000E+000
  0.000000000000000E+000
  0.000000000000000E+000
  0.000000000000000E+000
  0.000000000000000E+000
  0.000000000000000E+000
  0.000000000000000E+000
  0.000000000000000E+000
  0.000000000000000E+000
  0.000000000000000E+000
  0.000000000000000E+000
  0.000000000000000E+000
  0.000000000000000E+000
  0.000000000000000E+000
  0.000000000000000E+000
  0.000000000000000E+000
  0.000000000000000E+000
  0.000000000000000E+000
  0.000000000000000E+000
  0.000000000000000E+000
  0.000000000000000E+000
  0.000000000000000E+000
  0.000000000000000E+000
  0.000000000000000E+000
  0.000000000000000E+000
  0.000000000000000E+000
  0.000000000000000E+000
  0.000000000000000E+000
  0.000000000000000E+000
  0.000000000000000E+000
  0.000000000000000E+000
  0.000000000000000E+000
  0.000000000000000E+000
  0.000000000000000E+000
  0.000000000000000E+000
  0.000000000000000E+000
  0.000000000000000E+000
  0.000000000000000E+000
  0.000000000000000E+000
  0.000000000000000E+000
  0.000000000000000E+000
  0.000000000000000E+000
  0.000000000000000E+000
  0.000000000000000E+000
  0.000000000000000E+000
  0.000000000000000E+000
  0.000000000000000E+000
  0.000000000000000E+000
  0.000000000000000E+000
  0.000000000000000E+000
  0.000000000000000E+000
  0.000000000000000E+000
  0.000000000000000E+000
  0.000000000000000E+000
  0.000000000000000E+000
  0.000000000000000E+000
  0.000000000000000E+000
  0.000000000000000E+000
  0.000000000000000E+000
  0.000000000000000E+000
  0.000000000000000E+000
  0.000000000000000E+000
  0.000000000000000E+000
  0.000000000000000E+000
  0.000000000000000E+000
  0.000000000000000E+000
  0.000000000000000E+000
  0.000000000000000E+000
  0.000000000000000E+000
  0.000000000000000E+000
  0.000000000000000E+000
  0.000000000000000E+000
  0.000000000000000E+000
  0.000000000000000E+000
  0.000000000000000E+000
  0.000000000000000E+000
  0.000000000000000E+000
  0.000000000000000E+000
  0.000000000000000E+000
  0.000000000000000E+000
  0.000000000000000E+000
  0.000000000000000E+000
  0.000000000000000E+000
  0.000000000000000E+000
  0.000000000000000E+000
  0.000000000000000E+000
  0.000000000000000E+000
  0.000000000000000E+000
  0.000000000000000E+000
  0.000000000000000E+000
  0.000000000000000E+000
  0.000000000000000E+000
  0.000000000000000E+000
  0.000000000000000E+000
  0.000000000000000E+000
  0.000000000000000E+000
  0.000000000000000E+000
  0.000000000000000E+000
  0.000000000000000E+000
  0.000000000000000E+000
  0.000000000000000E+000
  0.000000000000000E+000
  0.000000000000000E+000
  0.000000000000000E+000
  0.000000000000000E+000
  0.000000000000000E+000
  0.000000000000000E+000
  0.000000000000000E+000
  0.000000000000000E+000
  0.000000000000000E+000
  0.000000000000000E+000
  0.000000000000000E+000
  0.000000000000000E+000
  0.000000000000000E+000
  0.000000000000000E+000
  0.000000000000000E+000
  0.000000000000000E+000
  0.000000000000000E+000
  0.000000000000000E+000
  0.000000000000000E+000
  0.000000000000000E+000
  0.000000000000000E+000
  0.000000000000000E+000
  0.000000000000000E+000
  0.000000000000000E+000
  0.000000000000000E+000
  0.000000000000000E+000
  0.000000000000000E+000
  0.000000000000000E+000
  0.000000000000000E+000
  0.000000000000000E+000
  0.000000000000000E+000
  0.000000000000000E+000
  0.000000000000000E+000
  0.000000000000000E+000
  0.000000000000000E+000
  0.000000000000000E+000
  0.000000000000000E+000
  0.000000000000000E+000
  0.000000000000000E+000
  0.000000000000000E+000
  0.000000000000000E+000
  0.000000000000000E+000
  0.000000000000000E+000
  0.000000000000000E+000
  0.000000000000000E+000
  0.000000000000000E+000
  0.000000000000000E+000
  0.000000000000000E+000
  0.000000000000000E+000
  0.000000000000000E+000
  0.000000000000000E+000
  0.000000000000000E+000
  0.000000000000000E+000
  0.000000000000000E+000
  0.000000000000000E+000
  0.000000000000000E+000
  0.000000000000000E+000
  0.000000000000000E+000
  0.000000000000000E+000
  0.000000000000000E+000
  0.000000000000000E+000
  0.000000000000000E+000
  0.000000000000000E+000
  0.000000000000000E+000
  0.000000000000000E+000
  0.000000000000000E+000
  0.000000000000000E+000
  0.000000000000000E+000
  0.000000000000000E+000
  0.000000000000000E+000
  0.000000000000000E+000
  0.000000000000000E+000
  0.000000000000000E+000
  0.000000000000000E+000
  0.000000000000000E+000
  0.000000000000000E+000
  0.000000000000000E+000
  0.000000000000000E+000
  0.000000000000000E+000
  0.000000000000000E+000
  0.000000000000000E+000
  0.000000000000000E+000
  0.000000000000000E+000
  0.000000000000000E+000
  0.000000000000000E+000
  0.000000000000000E+000
  0.000000000000000E+000
  0.000000000000000E+000
  0.000000000000000E+000
  0.000000000000000E+000
  0.000000000000000E+000
  0.000000000000000E+000
  0.000000000000000E+000
  0.000000000000000E+000
  0.000000000000000E+000
  0.000000000000000E+000
  0.000000000000000E+000
  0.000000000000000E+000
  0.000000000000000E+000
  0.000000000000000E+000
  0.000000000000000E+000
  0.000000000000000E+000
  0.000000000000000E+000
  0.000000000000000E+000
  0.000000000000000E+000
  0.000000000000000E+000
  0.000000000000000E+000
  0.000000000000000E+000
  0.000000000000000E+000
  0.000000000000000E+000
  0.000000000000000E+000
  0.000000000000000E+000
  0.000000000000000E+000
  0.000000000000000E+000
  0.000000000000000E+000
  0.000000000000000E+000
  0.000000000000000E+000
  0.000000000000000E+000
  0.000000000000000E+000
  0.000000000000000E+000
  0.000000000000000E+000
  0.000000000000000E+000
  0.000000000000000E+000
  0.000000000000000E+000
  0.000000000000000E+000
  0.000000000000000E+000
  0.000000000000000E+000
  0.000000000000000E+000
  0.000000000000000E+000
  0.000000000000000E+000
  0.000000000000000E+000
  0.000000000000000E+000
  0.000000000000000E+000
  0.000000000000000E+000
  0.000000000000000E+000
  0.000000000000000E+000
  0.000000000000000E+000
  0.000000000000000E+000
  0.000000000000000E+000
  0.000000000000000E+000
  0.000000000000000E+000
  0.000000000000000E+000
  0.000000000000000E+000
  0.000000000000000E+000
  0.000000000000000E+000
  0.000000000000000E+000
  0.000000000000000E+000
  0.000000000000000E+000
  0.000000000000000E+000
  0.000000000000000E+000
  0.000000000000000E+000
  0.000000000000000E+000
  0.000000000000000E+000
  0.000000000000000E+000
  0.000000000000000E+000
  0.000000000000000E+000
  0.000000000000000E+000
  0.000000000000000E+000
  0.000000000000000E+000
  0.000000000000000E+000
  0.000000000000000E+000
  0.000000000000000E+000
  0.000000000000000E+000
  0.000000000000000E+000
  0.000000000000000E+000
  0.000000000000000E+000
  0.000000000000000E+000
  0.000000000000000E+000
  0.000000000000000E+000
  0.000000000000000E+000
  0.000000000000000E+000
  0.000000000000000E+000
  0.000000000000000E+000
  0.000000000000000E+000
  0.000000000000000E+000
  0.000000000000000E+000
  0.000000000000000E+000
  0.000000000000000E+000
  0.000000000000000E+000
  0.000000000000000E+000
  0.000000000000000E+000
  0.000000000000000E+000
  0.000000000000000E+000
  0.000000000000000E+000
  0.000000000000000E+000
  0.000000000000000E+000
  0.000000000000000E+000
  0.000000000000000E+000
  0.000000000000000E+000
  0.000000000000000E+000
  0.000000000000000E+000
  0.000000000000000E+000
  0.000000000000000E+000
  0.000000000000000E+000
  0.000000000000000E+000
  0.000000000000000E+000
  0.000000000000000E+000
  0.000000000000000E+000
  0.000000000000000E+000
  0.000000000000000E+000
  0.000000000000000E+000
  0.000000000000000E+000
  0.000000000000000E+000
  0.000000000000000E+000
  0.000000000000000E+000
  0.000000000000000E+000
  0.000000000000000E+000
  0.000000000000000E+000
  0.000000000000000E+000
  0.000000000000000E+000
  0.000000000000000E+000
  0.000000000000000E+000
  0.000000000000000E+000
  0.000000000000000E+000
  0.000000000000000E+000
  0.000000000000000E+000
  0.000000000000000E+000
  0.000000000000000E+000
  0.000000000000000E+000
  0.000000000000000E+000
  0.000000000000000E+000
  0.000000000000000E+000
  0.000000000000000E+000
  0.000000000000000E+000
  0.000000000000000E+000
  0.000000000000000E+000
  0.000000000000000E+000
  0.000000000000000E+000
  0.000000000000000E+000
  0.000000000000000E+000
  0.000000000000000E+000
  0.000000000000000E+000
  0.000000000000000E+000
  0.000000000000000E+000
  0.000000000000000E+000
  0.000000000000000E+000
  0.000000000000000E+000
  0.000000000000000E+000
  0.000000000000000E+000
  0.000000000000000E+000
  0.000000000000000E+000
  0.000000000000000E+000
  0.000000000000000E+000
  0.000000000000000E+000
  0.000000000000000E+000
  0.000000000000000E+000
  0.000000000000000E+000
  0.000000000000000E+000
  0.000000000000000E+000
  0.000000000000000E+000
  0.000000000000000E+000
  0.000000000000000E+000
  0.000000000000000E+000
  0.000000000000000E+000
  0.000000000000000E+000
  0.000000000000000E+000
  0.000000000000000E+000
  0.000000000000000E+000
  0.000000000000000E+000
  0.000000000000000E+000
  0.000000000000000E+000
  0.000000000000000E+000
  0.000000000000000E+000
  0.000000000000000E+000
  0.000000000000000E+000
  0.000000000000000E+000
  0.000000000000000E+000
  0.000000000000000E+000
  0.000000000000000E+000
  0.000000000000000E+000
  0.000000000000000E+000
  0.000000000000000E+000
  0.000000000000000E+000
  0.000000000000000E+000
  0.000000000000000E+000
  0.000000000000000E+000
  0.000000000000000E+000
  0.000000000000000E+000
  0.000000000000000E+000
  0.000000000000000E+000
  0.000000000000000E+000
  0.000000000000000E+000
  0.000000000000000E+000
  0.000000000000000E+000
  0.000000000000000E+000
  0.000000000000000E+000
  0.000000000000000E+000
  0.000000000000000E+000
  0.000000000000000E+000
  0.000000000000000E+000
  0.000000000000000E+000
  0.000000000000000E+000
  0.000000000000000E+000
  0.000000000000000E+000
  0.000000000000000E+000
  0.000000000000000E+000
  0.000000000000000E+000
  0.000000000000000E+000
  0.000000000000000E+000
  0.000000000000000E+000
  0.000000000000000E+000
  0.000000000000000E+000
  0.000000000000000E+000
  0.000000000000000E+000
  0.000000000000000E+000
  0.000000000000000E+000
  0.000000000000000E+000
  0.000000000000000E+000
  0.000000000000000E+000
  0.000000000000000E+000
  0.000000000000000E+000
  0.000000000000000E+000
  0.000000000000000E+000
  0.000000000000000E+000
  0.000000000000000E+000
  0.000000000000000E+000
  0.000000000000000E+000
  0.000000000000000E+000
  0.000000000000000E+000
  0.000000000000000E+000
  0.000000000000000E+000
  0.000000000000000E+000
  0.000000000000000E+000
  0.000000000000000E+000
  0.000000000000000E+000
  0.000000000000000E+000
  0.000000000000000E+000
  0.000000000000000E+000
  0.000000000000000E+000
  0.000000000000000E+000
  0.000000000000000E+000
  0.000000000000000E+000
  0.000000000000000E+000
  0.000000000000000E+000
  0.000000000000000E+000
  0.000000000000000E+000
  0.000000000000000E+000
  0.000000000000000E+000
  0.000000000000000E+000
  0.000000000000000E+000
  0.000000000000000E+000
  0.000000000000000E+000
  0.000000000000000E+000
  0.000000000000000E+000
  0.000000000000000E+000
  0.000000000000000E+000
  0.000000000000000E+000
  0.000000000000000E+000
  0.000000000000000E+000
  0.000000000000000E+000
  0.000000000000000E+000
  0.000000000000000E+000
  0.000000000000000E+000
  0.000000000000000E+000
  0.000000000000000E+000
  0.000000000000000E+000
  0.000000000000000E+000
  0.000000000000000E+000
  0.000000000000000E+000
  0.000000000000000E+000
  0.000000000000000E+000
  0.000000000000000E+000
  0.000000000000000E+000
  0.000000000000000E+000
  0.000000000000000E+000
  0.000000000000000E+000
  0.000000000000000E+000
  0.000000000000000E+000
  0.000000000000000E+000
  0.000000000000000E+000
  0.000000000000000E+000
  0.000000000000000E+000
  0.000000000000000E+000
  0.000000000000000E+000
  0.000000000000000E+000
  0.000000000000000E+000
  0.000000000000000E+000
  0.000000000000000E+000
  0.000000000000000E+000
  0.000000000000000E+000
  0.000000000000000E+000
  0.000000000000000E+000
  0.000000000000000E+000
  0.000000000000000E+000
  0.000000000000000E+000
  0.000000000000000E+000
  0.000000000000000E+000
  0.000000000000000E+000
  0.000000000000000E+000
  0.000000000000000E+000
  0.000000000000000E+000
  0.000000000000000E+000
  0.000000000000000E+000
  0.000000000000000E+000
  0.000000000000000E+000
  0.000000000000000E+000
  0.000000000000000E+000
  0.000000000000000E+000
  0.000000000000000E+000
  0.000000000000000E+000
  0.000000000000000E+000
  0.000000000000000E+000
  0.000000000000000E+000
  0.000000000000000E+000
  0.000000000000000E+000
  0.000000000000000E+000
  0.000000000000000E+000
  0.000000000000000E+000
  0.000000000000000E+000
  0.000000000000000E+000
  0.000000000000000E+000
  0.000000000000000E+000
  0.000000000000000E+000
  0.000000000000000E+000
  0.000000000000000E+000
  0.000000000000000E+000
  0.000000000000000E+000
  0.000000000000000E+000
  0.000000000000000E+000
  0.000000000000000E+000
  0.000000000000000E+000
  0.000000000000000E+000
  0.000000000000000E+000
  0.000000000000000E+000
  0.000000000000000E+000
  0.000000000000000E+000
  0.000000000000000E+000
  0.000000000000000E+000
  0.000000000000000E+000
  0.000000000000000E+000
  0.000000000000000E+000
  0.000000000000000E+000
  0.000000000000000E+000
  0.000000000000000E+000
  0.000000000000000E+000
  0.000000000000000E+000
  0.000000000000000E+000
  0.000000000000000E+000
  0.000000000000000E+000
  0.000000000000000E+000
  0.000000000000000E+000
  0.000000000000000E+000
  0.000000000000000E+000
  0.000000000000000E+000
  0.000000000000000E+000
  0.000000000000000E+000
  0.000000000000000E+000
  0.000000000000000E+000
  0.000000000000000E+000
  0.000000000000000E+000
  0.000000000000000E+000
  0.000000000000000E+000
  0.000000000000000E+000
  0.000000000000000E+000
  0.000000000000000E+000
  0.000000000000000E+000
  0.000000000000000E+000
  0.000000000000000E+000
  0.000000000000000E+000
  0.000000000000000E+000
  0.000000000000000E+000
  0.000000000000000E+000
  0.000000000000000E+000
  0.000000000000000E+000
  0.000000000000000E+000
  0.000000000000000E+000
  0.000000000000000E+000
  0.000000000000000E+000
  0.000000000000000E+000
  0.000000000000000E+000
  0.000000000000000E+000
  0.000000000000000E+000
  0.000000000000000E+000
  0.000000000000000E+000
  0.000000000000000E+000
  0.000000000000000E+000
  0.000000000000000E+000
  0.000000000000000E+000
  0.000000000000000E+000
  0.000000000000000E+000
  0.000000000000000E+000
  0.000000000000000E+000
  0.000000000000000E+000
  0.000000000000000E+000
  0.000000000000000E+000
  0.000000000000000E+000
  0.000000000000000E+000
  0.000000000000000E+000
  0.000000000000000E+000
  0.000000000000000E+000
  0.000000000000000E+000
  0.000000000000000E+000
  0.000000000000000E+000
  0.000000000000000E+000
  0.000000000000000E+000
  0.000000000000000E+000
  0.000000000000000E+000
  0.000000000000000E+000
  0.000000000000000E+000
  0.000000000000000E+000
  0.000000000000000E+000
  0.000000000000000E+000
  0.000000000000000E+000
  0.000000000000000E+000
  0.000000000000000E+000
  0.000000000000000E+000
  0.000000000000000E+000
  0.000000000000000E+000
  0.000000000000000E+000
  0.000000000000000E+000
  0.000000000000000E+000
  0.000000000000000E+000
  0.000000000000000E+000
  0.000000000000000E+000
  0.000000000000000E+000
  0.000000000000000E+000
  0.000000000000000E+000
  0.000000000000000E+000
  0.000000000000000E+000
  0.000000000000000E+000
  0.000000000000000E+000
  0.000000000000000E+000
  0.000000000000000E+000
  0.000000000000000E+000
  0.000000000000000E+000
  0.000000000000000E+000
  0.000000000000000E+000
  0.000000000000000E+000
  0.000000000000000E+000
  0.000000000000000E+000
  0.000000000000000E+000
  0.000000000000000E+000
  0.000000000000000E+000
  0.000000000000000E+000
  0.000000000000000E+000
  0.000000000000000E+000
  0.000000000000000E+000
  0.000000000000000E+000
  0.000000000000000E+000
  0.000000000000000E+000
  0.000000000000000E+000
  0.000000000000000E+000
  0.000000000000000E+000
  0.000000000000000E+000
  0.000000000000000E+000
  0.000000000000000E+000
  0.000000000000000E+000
  0.000000000000000E+000
  0.000000000000000E+000
  0.000000000000000E+000
  0.000000000000000E+000
  0.000000000000000E+000
  0.000000000000000E+000
  0.000000000000000E+000
  0.000000000000000E+000
  0.000000000000000E+000
  0.000000000000000E+000
  0.000000000000000E+000
  0.000000000000000E+000
  0.000000000000000E+000
  0.000000000000000E+000
  0.000000000000000E+000
  0.000000000000000E+000
  0.000000000000000E+000
  0.000000000000000E+000
  0.000000000000000E+000
  0.000000000000000E+000
  0.000000000000000E+000
  0.000000000000000E+000
  0.000000000000000E+000
  0.000000000000000E+000
  0.000000000000000E+000
  0.000000000000000E+000
  0.000000000000000E+000
  0.000000000000000E+000
  0.000000000000000E+000
  0.000000000000000E+000
  0.000000000000000E+000
  0.000000000000000E+000
  0.000000000000000E+000
  0.000000000000000E+000
  0.000000000000000E+000
  0.000000000000000E+000
  0.000000000000000E+000
  0.000000000000000E+000
  0.000000000000000E+000
  0.000000000000000E+000
  0.000000000000000E+000
  0.000000000000000E+000
  0.000000000000000E+000
  0.000000000000000E+000
  0.000000000000000E+000
  0.000000000000000E+000
  0.000000000000000E+000
  0.000000000000000E+000
  0.000000000000000E+000
  0.000000000000000E+000
  0.000000000000000E+000
  0.000000000000000E+000
  0.000000000000000E+000
  0.000000000000000E+000
  0.000000000000000E+000
  0.000000000000000E+000
  0.000000000000000E+000
  0.000000000000000E+000
  0.000000000000000E+000
  0.000000000000000E+000
  0.000000000000000E+000
  0.000000000000000E+000
  0.000000000000000E+000
  0.000000000000000E+000
  0.000000000000000E+000
  0.000000000000000E+000
  0.000000000000000E+000
  0.000000000000000E+000
  0.000000000000000E+000
  0.000000000000000E+000
  0.000000000000000E+000
  0.000000000000000E+000
  0.000000000000000E+000
  0.000000000000000E+000
  0.000000000000000E+000
  0.000000000000000E+000
  0.000000000000000E+000
  0.000000000000000E+000
  0.000000000000000E+000
  0.000000000000000E+000
  0.000000000000000E+000
  0.000000000000000E+000
  0.000000000000000E+000
  0.000000000000000E+000
  0.000000000000000E+000
  0.000000000000000E+000
  0.000000000000000E+000
  0.000000000000000E+000
  0.000000000000000E+000
  0.000000000000000E+000
  0.000000000000000E+000
  0.000000000000000E+000
  0.000000000000000E+000
  0.000000000000000E+000
  0.000000000000000E+000
  0.000000000000000E+000
  0.000000000000000E+000
  0.000000000000000E+000
  0.000000000000000E+000
  0.000000000000000E+000
  0.000000000000000E+000
  0.000000000000000E+000
  0.000000000000000E+000
  0.000000000000000E+000
  0.000000000000000E+000
  0.000000000000000E+000
  0.000000000000000E+000
  0.000000000000000E+000
  0.000000000000000E+000
  0.000000000000000E+000
  0.000000000000000E+000
  0.000000000000000E+000
  0.000000000000000E+000
  0.000000000000000E+000
  0.000000000000000E+000
  0.000000000000000E+000
  0.000000000000000E+000
  0.000000000000000E+000
  0.000000000000000E+000
  0.000000000000000E+000
  0.000000000000000E+000
  0.000000000000000E+000
  0.000000000000000E+000
  0.000000000000000E+000
  0.000000000000000E+000
  0.000000000000000E+000
  0.000000000000000E+000
  0.000000000000000E+000
  0.000000000000000E+000
  0.000000000000000E+000
  0.000000000000000E+000
  0.000000000000000E+000
  0.000000000000000E+000
  0.000000000000000E+000
  0.000000000000000E+000
  0.000000000000000E+000
  0.000000000000000E+000
  0.000000000000000E+000
  0.000000000000000E+000
  0.000000000000000E+000
  0.000000000000000E+000
  0.000000000000000E+000
  0.000000000000000E+000
  0.000000000000000E+000
  0.000000000000000E+000
  0.000000000000000E+000
  0.000000000000000E+000
  0.000000000000000E+000
  0.000000000000000E+000
  0.000000000000000E+000
  0.000000000000000E+000
  0.000000000000000E+000
  0.000000000000000E+000
  0.000000000000000E+000
  0.000000000000000E+000
  0.000000000000000E+000
  0.000000000000000E+000
  0.000000000000000E+000
  0.000000000000000E+000
  0.000000000000000E+000
  0.000000000000000E+000
  0.000000000000000E+000
  0.000000000000000E+000
  0.000000000000000E+000
  0.000000000000000E+000
  0.000000000000000E+000
  0.000000000000000E+000
  0.000000000000000E+000
  0.000000000000000E+000
  0.000000000000000E+000
  0.000000000000000E+000
  0.000000000000000E+000
  0.000000000000000E+000
  0.000000000000000E+000
  0.000000000000000E+000
  0.000000000000000E+000
  0.000000000000000E+000
  0.000000000000000E+000
  0.000000000000000E+000
  0.000000000000000E+000
  0.000000000000000E+000
  0.000000000000000E+000
  0.000000000000000E+000
  0.000000000000000E+000
  0.000000000000000E+000
  0.000000000000000E+000
  0.000000000000000E+000
  0.000000000000000E+000
  0.000000000000000E+000
  0.000000000000000E+000
  0.000000000000000E+000
  0.000000000000000E+000
  0.000000000000000E+000
  0.000000000000000E+000
  0.000000000000000E+000
  0.000000000000000E+000
  0.000000000000000E+000
  0.000000000000000E+000
  0.000000000000000E+000
  0.000000000000000E+000
  0.000000000000000E+000
  0.000000000000000E+000
  0.000000000000000E+000
  0.000000000000000E+000
  0.000000000000000E+000
  0.000000000000000E+000
  0.000000000000000E+000
  0.000000000000000E+000
  0.000000000000000E+000
  0.000000000000000E+000
  0.000000000000000E+000
  0.000000000000000E+000
  0.000000000000000E+000
  0.000000000000000E+000
  0.000000000000000E+000
  0.000000000000000E+000
  0.000000000000000E+000
  0.000000000000000E+000
  0.000000000000000E+000
  0.000000000000000E+000
  0.000000000000000E+000
  0.000000000000000E+000
  0.000000000000000E+000
  0.000000000000000E+000
  0.000000000000000E+000
  0.000000000000000E+000
  0.000000000000000E+000
  0.000000000000000E+000
  0.000000000000000E+000
  0.000000000000000E+000
  0.000000000000000E+000
  0.000000000000000E+000
  0.000000000000000E+000
  0.000000000000000E+000
  0.000000000000000E+000
  0.000000000000000E+000
  0.000000000000000E+000
  0.000000000000000E+000
  0.000000000000000E+000
  0.000000000000000E+000
  0.000000000000000E+000
  0.000000000000000E+000
  0.000000000000000E+000
  0.000000000000000E+000
  0.000000000000000E+000
  0.000000000000000E+000
  0.000000000000000E+000
  0.000000000000000E+000
  0.000000000000000E+000
  0.000000000000000E+000
  0.000000000000000E+000
  0.000000000000000E+000
  0.000000000000000E+000
  0.000000000000000E+000
  0.000000000000000E+000
  0.000000000000000E+000
  0.000000000000000E+000
  0.000000000000000E+000
  0.000000000000000E+000
  0.000000000000000E+000
  0.000000000000000E+000
  0.000000000000000E+000
  0.000000000000000E+000
  0.000000000000000E+000
  0.000000000000000E+000
  0.000000000000000E+000
  0.000000000000000E+000
  0.000000000000000E+000
  0.000000000000000E+000
  0.000000000000000E+000
  0.000000000000000E+000
  0.000000000000000E+000
  0.000000000000000E+000
  0.000000000000000E+000
  0.000000000000000E+000
  0.000000000000000E+000
  0.000000000000000E+000
  0.000000000000000E+000
  0.000000000000000E+000
  0.000000000000000E+000
  0.000000000000000E+000
  0.000000000000000E+000
  0.000000000000000E+000
  0.000000000000000E+000
  0.000000000000000E+000
  0.000000000000000E+000
  0.000000000000000E+000
  0.000000000000000E+000
  0.000000000000000E+000
  0.000000000000000E+000
  0.000000000000000E+000
  0.000000000000000E+000
  0.000000000000000E+000
  0.000000000000000E+000
  0.000000000000000E+000
  0.000000000000000E+000
  0.000000000000000E+000
  0.000000000000000E+000
  0.000000000000000E+000
  0.000000000000000E+000
  0.000000000000000E+000
  0.000000000000000E+000
  0.000000000000000E+000
  0.000000000000000E+000
  0.000000000000000E+000
  0.000000000000000E+000
  0.000000000000000E+000
  0.000000000000000E+000
  0.000000000000000E+000
  0.000000000000000E+000
  0.000000000000000E+000
  0.000000000000000E+000
  0.000000000000000E+000
  0.000000000000000E+000
  0.000000000000000E+000
  0.000000000000000E+000
  0.000000000000000E+000
  0.000000000000000E+000
  0.000000000000000E+000
  0.000000000000000E+000
  0.000000000000000E+000
  0.000000000000000E+000
  0.000000000000000E+000
  0.000000000000000E+000
  0.000000000000000E+000
  0.000000000000000E+000
  0.000000000000000E+000
  0.000000000000000E+000
  0.000000000000000E+000
  0.000000000000000E+000
  0.000000000000000E+000
  0.000000000000000E+000
  0.000000000000000E+000
  0.000000000000000E+000
  0.000000000000000E+000
  0.000000000000000E+000
  0.000000000000000E+000
  0.000000000000000E+000
  0.000000000000000E+000
  0.000000000000000E+000
  0.000000000000000E+000
  0.000000000000000E+000
  0.000000000000000E+000
  0.000000000000000E+000
  0.000000000000000E+000
  0.000000000000000E+000
  0.000000000000000E+000
  0.000000000000000E+000
  0.000000000000000E+000
  0.000000000000000E+000
  0.000000000000000E+000
  0.000000000000000E+000
  0.000000000000000E+000
  0.000000000000000E+000
  0.000000000000000E+000
  0.000000000000000E+000
  0.000000000000000E+000
  0.000000000000000E+000
  0.000000000000000E+000
  0.000000000000000E+000
  0.000000000000000E+000
  0.000000000000000E+000
  0.000000000000000E+000
  0.000000000000000E+000
  0.000000000000000E+000
  0.000000000000000E+000
  0.000000000000000E+000
  0.000000000000000E+000
  0.000000000000000E+000
  0.000000000000000E+000
  0.000000000000000E+000
  0.000000000000000E+000
  0.000000000000000E+000
  0.000000000000000E+000
  0.000000000000000E+000
  0.000000000000000E+000
  0.000000000000000E+000
  0.000000000000000E+000
  0.000000000000000E+000
  0.000000000000000E+000
  0.000000000000000E+000
  0.000000000000000E+000
  0.000000000000000E+000
  0.000000000000000E+000
  0.000000000000000E+000
  0.000000000000000E+000
  0.000000000000000E+000
  0.000000000000000E+000
  0.000000000000000E+000
  0.000000000000000E+000
  0.000000000000000E+000
  0.000000000000000E+000
  0.000000000000000E+000
  0.000000000000000E+000
  0.000000000000000E+000
  0.000000000000000E+000
  0.000000000000000E+000
  0.000000000000000E+000
  0.000000000000000E+000
  0.000000000000000E+000
  0.000000000000000E+000
  0.000000000000000E+000
  0.000000000000000E+000
  0.000000000000000E+000
  0.000000000000000E+000
  0.000000000000000E+000
  0.000000000000000E+000
  0.000000000000000E+000
  0.000000000000000E+000
  0.000000000000000E+000
  0.000000000000000E+000
  0.000000000000000E+000
  0.000000000000000E+000
  0.000000000000000E+000
  0.000000000000000E+000
  0.000000000000000E+000
  0.000000000000000E+000
  0.000000000000000E+000
  0.000000000000000E+000
  0.000000000000000E+000
  0.000000000000000E+000
  0.000000000000000E+000
  0.000000000000000E+000
  0.000000000000000E+000
  0.000000000000000E+000
  0.000000000000000E+000
  0.000000000000000E+000
  0.000000000000000E+000
  0.000000000000000E+000
  0.000000000000000E+000
  0.000000000000000E+000
  0.000000000000000E+000
  0.000000000000000E+000
  0.000000000000000E+000
  0.000000000000000E+000
  0.000000000000000E+000
  0.000000000000000E+000
  0.000000000000000E+000
  0.000000000000000E+000
  0.000000000000000E+000
  0.000000000000000E+000
  0.000000000000000E+000
  0.000000000000000E+000
  0.000000000000000E+000
  0.000000000000000E+000
  0.000000000000000E+000
  0.000000000000000E+000
  0.000000000000000E+000
  0.000000000000000E+000
  0.000000000000000E+000
  0.000000000000000E+000
  0.000000000000000E+000
  0.000000000000000E+000
  0.000000000000000E+000
  0.000000000000000E+000
  0.000000000000000E+000
  0.000000000000000E+000
  0.000000000000000E+000
  0.000000000000000E+000
  0.000000000000000E+000
  0.000000000000000E+000
  0.000000000000000E+000
  0.000000000000000E+000
  0.000000000000000E+000
  0.000000000000000E+000
  0.000000000000000E+000
  0.000000000000000E+000
  0.000000000000000E+000
  0.000000000000000E+000
  0.000000000000000E+000
  0.000000000000000E+000
  0.000000000000000E+000
  0.000000000000000E+000
  0.000000000000000E+000
  0.000000000000000E+000
  0.000000000000000E+000
  0.000000000000000E+000
  0.000000000000000E+000
  0.000000000000000E+000
  0.000000000000000E+000
  0.000000000000000E+000
  0.000000000000000E+000
  0.000000000000000E+000
  0.000000000000000E+000
  0.000000000000000E+000
  0.000000000000000E+000
  0.000000000000000E+000
  0.000000000000000E+000
  0.000000000000000E+000
  0.000000000000000E+000
  0.000000000000000E+000
  0.000000000000000E+000
  0.000000000000000E+000
  0.000000000000000E+000
  0.000000000000000E+000
  0.000000000000000E+000
  0.000000000000000E+000
  0.000000000000000E+000
  0.000000000000000E+000
  0.000000000000000E+000
  0.000000000000000E+000
  0.000000000000000E+000
  0.000000000000000E+000
  0.000000000000000E+000
  0.000000000000000E+000
  0.000000000000000E+000
  0.000000000000000E+000
  0.000000000000000E+000
  0.000000000000000E+000
  0.000000000000000E+000
  0.000000000000000E+000
  0.000000000000000E+000
  0.000000000000000E+000
  0.000000000000000E+000
  0.000000000000000E+000
  0.000000000000000E+000
  0.000000000000000E+000
  0.000000000000000E+000
  0.000000000000000E+000
  0.000000000000000E+000
  0.000000000000000E+000
  0.000000000000000E+000
  0.000000000000000E+000
  0.000000000000000E+000
  0.000000000000000E+000
  0.000000000000000E+000
  0.000000000000000E+000
  0.000000000000000E+000
  0.000000000000000E+000
  0.000000000000000E+000
  0.000000000000000E+000
  0.000000000000000E+000
  0.000000000000000E+000
  0.000000000000000E+000
  0.000000000000000E+000
  0.000000000000000E+000
  0.000000000000000E+000
  0.000000000000000E+000
  0.000000000000000E+000
  0.000000000000000E+000
  0.000000000000000E+000
  0.000000000000000E+000
  0.000000000000000E+000
  0.000000000000000E+000
  0.000000000000000E+000
  0.000000000000000E+000
  0.000000000000000E+000
  0.000000000000000E+000
  0.000000000000000E+000
  0.000000000000000E+000
  0.000000000000000E+000
  0.000000000000000E+000
  0.000000000000000E+000
  0.000000000000000E+000
  0.000000000000000E+000
  0.000000000000000E+000
  0.000000000000000E+000
  0.000000000000000E+000
  0.000000000000000E+000
  0.000000000000000E+000
  0.000000000000000E+000
  0.000000000000000E+000
  0.000000000000000E+000
  0.000000000000000E+000
  0.000000000000000E+000
  0.000000000000000E+000
  0.000000000000000E+000
  0.000000000000000E+000
  0.000000000000000E+000
  0.000000000000000E+000
  0.000000000000000E+000
  0.000000000000000E+000
  0.000000000000000E+000
  0.000000000000000E+000
  0.000000000000000E+000
  0.000000000000000E+000
  0.000000000000000E+000
  0.000000000000000E+000
  0.000000000000000E+000
  0.000000000000000E+000
  0.000000000000000E+000
  0.000000000000000E+000
  0.000000000000000E+000
  0.000000000000000E+000
  0.000000000000000E+000
  0.000000000000000E+000
  0.000000000000000E+000
  0.000000000000000E+000
  0.000000000000000E+000
  0.000000000000000E+000
  0.000000000000000E+000
  0.000000000000000E+000
  0.000000000000000E+000
  0.000000000000000E+000
  0.000000000000000E+000
  0.000000000000000E+000
  0.000000000000000E+000
  0.000000000000000E+000
  0.000000000000000E+000
  0.000000000000000E+000
  0.000000000000000E+000
  0.000000000000000E+000
  0.000000000000000E+000
  0.000000000000000E+000
  0.000000000000000E+000
  0.000000000000000E+000
  0.000000000000000E+000
  0.000000000000000E+000
  0.000000000000000E+000
  0.000000000000000E+000
  0.000000000000000E+000
  0.000000000000000E+000
  0.000000000000000E+000
  0.000000000000000E+000
  0.000000000000000E+000
  0.000000000000000E+000
  0.000000000000000E+000
  0.000000000000000E+000
  0.000000000000000E+000
  0.000000000000000E+000
  0.000000000000000E+000
  0.000000000000000E+000
  0.000000000000000E+000
  0.000000000000000E+000
  0.000000000000000E+000
  0.000000000000000E+000
  0.000000000000000E+000
  0.000000000000000E+000
  0.000000000000000E+000
  0.000000000000000E+000
  0.000000000000000E+000
  0.000000000000000E+000
  0.000000000000000E+000
  0.000000000000000E+000
  0.000000000000000E+000
  0.000000000000000E+000
  0.000000000000000E+000
  0.000000000000000E+000
  0.000000000000000E+000
  0.000000000000000E+000
  0.000000000000000E+000
  0.000000000000000E+000
  0.000000000000000E+000
  0.000000000000000E+000
  0.000000000000000E+000
  0.000000000000000E+000
  0.000000000000000E+000
  0.000000000000000E+000
  0.000000000000000E+000
  0.000000000000000E+000
  0.000000000000000E+000
  0.000000000000000E+000
  0.000000000000000E+000
  0.000000000000000E+000
  0.000000000000000E+000
  0.000000000000000E+000
  0.000000000000000E+000
  0.000000000000000E+000
  0.000000000000000E+000
  0.000000000000000E+000
  0.000000000000000E+000
  0.000000000000000E+000
  0.000000000000000E+000
  0.000000000000000E+000
  0.000000000000000E+000
  0.000000000000000E+000
  0.000000000000000E+000
  0.000000000000000E+000
  0.000000000000000E+000
  0.000000000000000E+000
  0.000000000000000E+000
  0.000000000000000E+000
  0.000000000000000E+000
  0.000000000000000E+000
  0.000000000000000E+000
  0.000000000000000E+000
  0.000000000000000E+000
  0.000000000000000E+000
  0.000000000000000E+000
  0.000000000000000E+000
  0.000000000000000E+000
  0.000000000000000E+000
  0.000000000000000E+000
  0.000000000000000E+000
  0.000000000000000E+000
  0.000000000000000E+000
  0.000000000000000E+000
  0.000000000000000E+000
  0.000000000000000E+000
  0.000000000000000E+000
  0.000000000000000E+000
  0.000000000000000E+000
  0.000000000000000E+000
  0.000000000000000E+000
  0.000000000000000E+000
  0.000000000000000E+000
  0.000000000000000E+000
  0.000000000000000E+000
  0.000000000000000E+000
  0.000000000000000E+000
  0.000000000000000E+000
  0.000000000000000E+000
  0.000000000000000E+000
  0.000000000000000E+000
  0.000000000000000E+000
  0.000000000000000E+000
  0.000000000000000E+000
  0.000000000000000E+000
  0.000000000000000E+000
  0.000000000000000E+000
  0.000000000000000E+000
  0.000000000000000E+000
  0.000000000000000E+000
  0.000000000000000E+000
  0.000000000000000E+000
  0.000000000000000E+000
  0.000000000000000E+000
  0.000000000000000E+000
  0.000000000000000E+000
  0.000000000000000E+000
  0.000000000000000E+000
  0.000000000000000E+000
  0.000000000000000E+000
  0.000000000000000E+000
  0.000000000000000E+000
  0.000000000000000E+000
  0.000000000000000E+000
  0.000000000000000E+000
  0.000000000000000E+000
  0.000000000000000E+000
  0.000000000000000E+000
  0.000000000000000E+000
  0.000000000000000E+000
  0.000000000000000E+000
  0.000000000000000E+000
  0.000000000000000E+000
  0.000000000000000E+000
  0.000000000000000E+000
  0.000000000000000E+000
  0.000000000000000E+000
  0.000000000000000E+000
  0.000000000000000E+000
  0.000000000000000E+000
  0.000000000000000E+000
  0.000000000000000E+000
  0.000000000000000E+000
  0.000000000000000E+000
  0.000000000000000E+000
  0.000000000000000E+000
  0.000000000000000E+000
  0.000000000000000E+000
  0.000000000000000E+000
  0.000000000000000E+000
  0.000000000000000E+000
  0.000000000000000E+000
  0.000000000000000E+000
  0.000000000000000E+000
  0.000000000000000E+000
  0.000000000000000E+000
  0.000000000000000E+000
  0.000000000000000E+000
  0.000000000000000E+000
  0.000000000000000E+000
  0.000000000000000E+000
  0.000000000000000E+000
  0.000000000000000E+000
  0.000000000000000E+000
  0.000000000000000E+000
  0.000000000000000E+000
  0.000000000000000E+000
  0.000000000000000E+000
  0.000000000000000E+000
  0.000000000000000E+000
  0.000000000000000E+000
  0.000000000000000E+000
  0.000000000000000E+000
  0.000000000000000E+000
  0.000000000000000E+000
  0.000000000000000E+000
  0.000000000000000E+000
  0.000000000000000E+000
  0.000000000000000E+000
  0.000000000000000E+000
  0.000000000000000E+000
  0.000000000000000E+000
  0.000000000000000E+000
  0.000000000000000E+000
  0.000000000000000E+000
  0.000000000000000E+000
  0.000000000000000E+000
  0.000000000000000E+000
  0.000000000000000E+000
  0.000000000000000E+000
  0.000000000000000E+000
  0.000000000000000E+000
  0.000000000000000E+000
  0.000000000000000E+000
  0.000000000000000E+000
  0.000000000000000E+000
  0.000000000000000E+000
  0.000000000000000E+000
  0.000000000000000E+000
  0.000000000000000E+000
  0.000000000000000E+000
  0.000000000000000E+000
  0.000000000000000E+000
  0.000000000000000E+000
  0.000000000000000E+000
  0.000000000000000E+000
  0.000000000000000E+000
  0.000000000000000E+000
  0.000000000000000E+000
  0.000000000000000E+000
  0.000000000000000E+000
  0.000000000000000E+000
  0.000000000000000E+000
  0.000000000000000E+000
  0.000000000000000E+000
  0.000000000000000E+000
  0.000000000000000E+000
  0.000000000000000E+000
  0.000000000000000E+000
  0.000000000000000E+000
  0.000000000000000E+000
  0.000000000000000E+000
  0.000000000000000E+000
  0.000000000000000E+000
  0.000000000000000E+000
  0.000000000000000E+000
  0.000000000000000E+000
  0.000000000000000E+000
  0.000000000000000E+000
  0.000000000000000E+000
  0.000000000000000E+000
  0.000000000000000E+000
  0.000000000000000E+000
  0.000000000000000E+000
  0.000000000000000E+000
  0.000000000000000E+000
  0.000000000000000E+000
  0.000000000000000E+000
  0.000000000000000E+000
  0.000000000000000E+000
  0.000000000000000E+000
  0.000000000000000E+000
  0.000000000000000E+000
  0.000000000000000E+000
  0.000000000000000E+000
  0.000000000000000E+000
  0.000000000000000E+000
  0.000000000000000E+000
  0.000000000000000E+000
  0.000000000000000E+000
  0.000000000000000E+000
  0.000000000000000E+000
  0.000000000000000E+000
  0.000000000000000E+000
  0.000000000000000E+000
  0.000000000000000E+000
  0.000000000000000E+000
  0.000000000000000E+000
  0.000000000000000E+000
  0.000000000000000E+000
  0.000000000000000E+000
  0.000000000000000E+000
  0.000000000000000E+000
  0.000000000000000E+000
  0.000000000000000E+000
  0.000000000000000E+000
  0.000000000000000E+000
  0.000000000000000E+000
  0.000000000000000E+000
  0.000000000000000E+000
  0.000000000000000E+000
  0.000000000000000E+000
  0.000000000000000E+000
  0.000000000000000E+000
  0.000000000000000E+000
  0.000000000000000E+000
  0.000000000000000E+000
  0.000000000000000E+000
  0.000000000000000E+000
  0.000000000000000E+000
  0.000000000000000E+000
  0.000000000000000E+000
  0.000000000000000E+000
  0.000000000000000E+000
  0.000000000000000E+000
  0.000000000000000E+000
  0.000000000000000E+000
  0.000000000000000E+000
  0.000000000000000E+000
  0.000000000000000E+000
  0.000000000000000E+000
  0.000000000000000E+000
  0.000000000000000E+000
  0.000000000000000E+000
  0.000000000000000E+000
  0.000000000000000E+000
  0.000000000000000E+000
  0.000000000000000E+000
  0.000000000000000E+000
  0.000000000000000E+000
  0.000000000000000E+000
  0.000000000000000E+000
  0.000000000000000E+000
  0.000000000000000E+000
  0.000000000000000E+000
  0.000000000000000E+000
  0.000000000000000E+000
  0.000000000000000E+000
  0.000000000000000E+000
  0.000000000000000E+000
  0.000000000000000E+000
  0.000000000000000E+000
  0.000000000000000E+000
  0.000000000000000E+000
  0.000000000000000E+000
  0.000000000000000E+000
  0.000000000000000E+000
  0.000000000000000E+000
  0.000000000000000E+000
  0.000000000000000E+000
  0.000000000000000E+000
  0.000000000000000E+000
  0.000000000000000E+000
  0.000000000000000E+000
  0.000000000000000E+000
  0.000000000000000E+000
  0.000000000000000E+000
  0.000000000000000E+000
  0.000000000000000E+000
  0.000000000000000E+000
  0.000000000000000E+000
  0.000000000000000E+000
  0.000000000000000E+000
  0.000000000000000E+000
  0.000000000000000E+000
  0.000000000000000E+000
  0.000000000000000E+000
  0.000000000000000E+000
  0.000000000000000E+000
  0.000000000000000E+000
  0.000000000000000E+000
  0.000000000000000E+000
  0.000000000000000E+000
  0.000000000000000E+000
  0.000000000000000E+000
  0.000000000000000E+000
  0.000000000000000E+000
  0.000000000000000E+000
  0.000000000000000E+000
  0.000000000000000E+000
  0.000000000000000E+000
  0.000000000000000E+000
  0.000000000000000E+000
  0.000000000000000E+000
  0.000000000000000E+000
  0.000000000000000E+000
  0.000000000000000E+000
  0.000000000000000E+000
  0.000000000000000E+000
  0.000000000000000E+000
  0.000000000000000E+000
  0.000000000000000E+000
  0.000000000000000E+000
  0.000000000000000E+000
  0.000000000000000E+000
  0.000000000000000E+000
  0.000000000000000E+000
  0.000000000000000E+000
  0.000000000000000E+000
  0.000000000000000E+000
  0.000000000000000E+000
  0.000000000000000E+000
  0.000000000000000E+000
  0.000000000000000E+000
  0.000000000000000E+000
  0.000000000000000E+000
  0.000000000000000E+000
  0.000000000000000E+000
  0.000000000000000E+000
  0.000000000000000E+000
  0.000000000000000E+000
  0.000000000000000E+000
  0.000000000000000E+000
  0.000000000000000E+000
  0.000000000000000E+000
  0.000000000000000E+000
  0.000000000000000E+000
  0.000000000000000E+000
  0.000000000000000E+000
  0.000000000000000E+000
  0.000000000000000E+000
  0.000000000000000E+000
  0.000000000000000E+000
  0.000000000000000E+000
  0.000000000000000E+000
  0.000000000000000E+000
  0.000000000000000E+000
  0.000000000000000E+000
  0.000000000000000E+000
  0.000000000000000E+000
  0.000000000000000E+000
  0.000000000000000E+000
  0.000000000000000E+000
  0.000000000000000E+000
  0.000000000000000E+000
  0.000000000000000E+000
  0.000000000000000E+000
  0.000000000000000E+000
  0.000000000000000E+000
  0.000000000000000E+000
  0.000000000000000E+000
  0.000000000000000E+000
  0.000000000000000E+000
  0.000000000000000E+000
  0.000000000000000E+000
  0.000000000000000E+000
  0.000000000000000E+000
  0.000000000000000E+000
  0.000000000000000E+000
  0.000000000000000E+000
  0.000000000000000E+000
  0.000000000000000E+000
  0.000000000000000E+000
  0.000000000000000E+000
  0.000000000000000E+000
  0.000000000000000E+000
  0.000000000000000E+000
  0.000000000000000E+000
  0.000000000000000E+000
  0.000000000000000E+000
  0.000000000000000E+000
  0.000000000000000E+000
  0.000000000000000E+000
  0.000000000000000E+000
  0.000000000000000E+000
  0.000000000000000E+000
  0.000000000000000E+000
  0.000000000000000E+000
  0.000000000000000E+000
  0.000000000000000E+000
  0.000000000000000E+000
  0.000000000000000E+000
  0.000000000000000E+000
  0.000000000000000E+000
  0.000000000000000E+000
  0.000000000000000E+000
  0.000000000000000E+000
  0.000000000000000E+000
  0.000000000000000E+000
  0.000000000000000E+000
  0.000000000000000E+000
  0.000000000000000E+000
  0.000000000000000E+000
  0.000000000000000E+000
  0.000000000000000E+000
  0.000000000000000E+000
  0.000000000000000E+000
  0.000000000000000E+000
  0.000000000000000E+000
  0.000000000000000E+000
  0.000000000000000E+000
  0.000000000000000E+000
  0.000000000000000E+000
  0.000000000000000E+000
  0.000000000000000E+000
  0.000000000000000E+000
  0.000000000000000E+000
  0.000000000000000E+000
  0.000000000000000E+000
  0.000000000000000E+000
  0.000000000000000E+000
  0.000000000000000E+000
  0.000000000000000E+000
  0.000000000000000E+000
  0.000000000000000E+000
  0.000000000000000E+000
  0.000000000000000E+000
  0.000000000000000E+000
  0.000000000000000E+000
  0.000000000000000E+000
  0.000000000000000E+000
  0.000000000000000E+000
  0.000000000000000E+000
  0.000000000000000E+000
  0.000000000000000E+000
  0.000000000000000E+000
  0.000000000000000E+000
  0.000000000000000E+000
  0.000000000000000E+000
  0.000000000000000E+000
  0.000000000000000E+000
  0.000000000000000E+000
  0.000000000000000E+000
  0.000000000000000E+000
  0.000000000000000E+000
  0.000000000000000E+000
  0.000000000000000E+000
  0.000000000000000E+000
  0.000000000000000E+000
  0.000000000000000E+000
  0.000000000000000E+000
  0.000000000000000E+000
  0.000000000000000E+000
  0.000000000000000E+000
  0.000000000000000E+000
  0.000000000000000E+000
  0.000000000000000E+000
  0.000000000000000E+000
  0.000000000000000E+000
  0.000000000000000E+000
  0.000000000000000E+000
  0.000000000000000E+000
  0.000000000000000E+000
  0.000000000000000E+000
  0.000000000000000E+000
  0.000000000000000E+000
  0.000000000000000E+000
  0.000000000000000E+000
  0.000000000000000E+000
  0.000000000000000E+000
  0.000000000000000E+000
  0.000000000000000E+000
  0.000000000000000E+000
  0.000000000000000E+000
  0.000000000000000E+000
  0.000000000000000E+000
  0.000000000000000E+000
  0.000000000000000E+000
  0.000000000000000E+000
  0.000000000000000E+000
  0.000000000000000E+000
  0.000000000000000E+000
  0.000000000000000E+000
  0.000000000000000E+000
  0.000000000000000E+000
  0.000000000000000E+000
  0.000000000000000E+000
  0.000000000000000E+000
  0.000000000000000E+000
  0.000000000000000E+000
  0.000000000000000E+000
  0.000000000000000E+000
  0.000000000000000E+000
  0.000000000000000E+000
  0.000000000000000E+000
  0.000000000000000E+000
  0.000000000000000E+000
  0.000000000000000E+000
  0.000000000000000E+000
  0.000000000000000E+000
  0.000000000000000E+000
  0.000000000000000E+000
  0.000000000000000E+000
  0.000000000000000E+000
  0.000000000000000E+000
  0.000000000000000E+000
  0.000000000000000E+000
  0.000000000000000E+000
  0.000000000000000E+000
  0.000000000000000E+000
  0.000000000000000E+000
  0.000000000000000E+000
  0.000000000000000E+000
  0.000000000000000E+000
  0.000000000000000E+000
  0.000000000000000E+000
  0.000000000000000E+000
  0.000000000000000E+000
  0.000000000000000E+000
  0.000000000000000E+000
  0.000000000000000E+000
  0.000000000000000E+000
  0.000000000000000E+000
  0.000000000000000E+000
  0.000000000000000E+000
  0.000000000000000E+000
  0.000000000000000E+000
  0.000000000000000E+000
  0.000000000000000E+000
  0.000000000000000E+000
  0.000000000000000E+000
  0.000000000000000E+000
  0.000000000000000E+000
  0.000000000000000E+000
  0.000000000000000E+000
  0.000000000000000E+000
  0.000000000000000E+000
  0.000000000000000E+000
  0.000000000000000E+000
  0.000000000000000E+000
  0.000000000000000E+000
  0.000000000000000E+000
  0.000000000000000E+000
  0.000000000000000E+000
  0.000000000000000E+000
  0.000000000000000E+000
  0.000000000000000E+000
  0.000000000000000E+000
  0.000000000000000E+000
  0.000000000000000E+000
  0.000000000000000E+000
  0.000000000000000E+000
  0.000000000000000E+000
  0.000000000000000E+000
  0.000000000000000E+000
  0.000000000000000E+000
  0.000000000000000E+000
  0.000000000000000E+000
  0.000000000000000E+000
  0.000000000000000E+000
  0.000000000000000E+000
  0.000000000000000E+000
  0.000000000000000E+000
  0.000000000000000E+000
  0.000000000000000E+000
  0.000000000000000E+000
  0.000000000000000E+000
  0.000000000000000E+000
  0.000000000000000E+000
  0.000000000000000E+000
  0.000000000000000E+000
  0.000000000000000E+000
  0.000000000000000E+000
  0.000000000000000E+000
  0.000000000000000E+000
  0.000000000000000E+000
  0.000000000000000E+000
  0.000000000000000E+000
  0.000000000000000E+000
  0.000000000000000E+000
  0.000000000000000E+000
  0.000000000000000E+000
  0.000000000000000E+000
  0.000000000000000E+000
  0.000000000000000E+000
  0.000000000000000E+000
  0.000000000000000E+000
  0.000000000000000E+000
  0.000000000000000E+000
  0.000000000000000E+000
  0.000000000000000E+000
  0.000000000000000E+000
  0.000000000000000E+000
  0.000000000000000E+000
  0.000000000000000E+000
  0.000000000000000E+000
  0.000000000000000E+000
  0.000000000000000E+000
  0.000000000000000E+000
  0.000000000000000E+000
  0.000000000000000E+000
  0.000000000000000E+000
  0.000000000000000E+000
  0.000000000000000E+000
  0.000000000000000E+000
  0.000000000000000E+000
  0.000000000000000E+000
  0.000000000000000E+000
  0.000000000000000E+000
  0.000000000000000E+000
  0.000000000000000E+000
  0.000000000000000E+000
  0.000000000000000E+000
  0.000000000000000E+000
  0.000000000000000E+000
  0.000000000000000E+000
  0.000000000000000E+000
  0.000000000000000E+000
  0.000000000000000E+000
  0.000000000000000E+000
  0.000000000000000E+000
  0.000000000000000E+000
  0.000000000000000E+000
  0.000000000000000E+000
  0.000000000000000E+000
  0.000000000000000E+000
  0.000000000000000E+000
  0.000000000000000E+000
  0.000000000000000E+000
  0.000000000000000E+000
  0.000000000000000E+000
  0.000000000000000E+000
  0.000000000000000E+000
  0.000000000000000E+000
  0.000000000000000E+000
  0.000000000000000E+000
  0.000000000000000E+000
  0.000000000000000E+000
  0.000000000000000E+000
  0.000000000000000E+000
  0.000000000000000E+000
  0.000000000000000E+000
  0.000000000000000E+000
  0.000000000000000E+000
  0.000000000000000E+000
  0.000000000000000E+000
  0.000000000000000E+000
  0.000000000000000E+000
  0.000000000000000E+000
  0.000000000000000E+000
  0.000000000000000E+000
  0.000000000000000E+000
  0.000000000000000E+000
  0.000000000000000E+000
  0.000000000000000E+000
  0.000000000000000E+000
  0.000000000000000E+000
  0.000000000000000E+000
  0.000000000000000E+000
  0.000000000000000E+000
  0.000000000000000E+000
  0.000000000000000E+000
  0.000000000000000E+000
  0.000000000000000E+000
  0.000000000000000E+000
  0.000000000000000E+000
  0.000000000000000E+000
  0.000000000000000E+000
  0.000000000000000E+000
  0.000000000000000E+000
  0.000000000000000E+000
  0.000000000000000E+000
  0.000000000000000E+000
  0.000000000000000E+000
  0.000000000000000E+000
  0.000000000000000E+000
  0.000000000000000E+000
  0.000000000000000E+000
  0.000000000000000E+000
  0.000000000000000E+000
  0.000000000000000E+000
  0.000000000000000E+000
  0.000000000000000E+000
  0.000000000000000E+000
  0.000000000000000E+000
  0.000000000000000E+000
  0.000000000000000E+000
  0.000000000000000E+000
  0.000000000000000E+000
  0.000000000000000E+000
  0.000000000000000E+000
  0.000000000000000E+000
  0.000000000000000E+000
  0.000000000000000E+000
  0.000000000000000E+000
  0.000000000000000E+000
  0.000000000000000E+000
  0.000000000000000E+000
  0.000000000000000E+000
  0.000000000000000E+000
  0.000000000000000E+000
  0.000000000000000E+000
  0.000000000000000E+000
  0.000000000000000E+000
  0.000000000000000E+000
  0.000000000000000E+000
  0.000000000000000E+000
  0.000000000000000E+000
  0.000000000000000E+000
  0.000000000000000E+000
  0.000000000000000E+000
  0.000000000000000E+000
  0.000000000000000E+000
  0.000000000000000E+000
  0.000000000000000E+000
  0.000000000000000E+000
  0.000000000000000E+000
  0.000000000000000E+000
  0.000000000000000E+000
  0.000000000000000E+000
  0.000000000000000E+000
  0.000000000000000E+000
  0.000000000000000E+000
  0.000000000000000E+000
  0.000000000000000E+000
  0.000000000000000E+000
  0.000000000000000E+000
  0.000000000000000E+000
  0.000000000000000E+000
  0.000000000000000E+000
  0.000000000000000E+000
  0.000000000000000E+000
  0.000000000000000E+000
  0.000000000000000E+000
  0.000000000000000E+000
  0.000000000000000E+000
  0.000000000000000E+000
  0.000000000000000E+000
  0.000000000000000E+000
  0.000000000000000E+000
  0.000000000000000E+000
  0.000000000000000E+000
  0.000000000000000E+000
  0.000000000000000E+000
  0.000000000000000E+000
  0.000000000000000E+000
  0.000000000000000E+000
  0.000000000000000E+000
  0.000000000000000E+000
  0.000000000000000E+000
  0.000000000000000E+000
  0.000000000000000E+000
  0.000000000000000E+000
  0.000000000000000E+000
  0.000000000000000E+000
  0.000000000000000E+000
  0.000000000000000E+000
  0.000000000000000E+000
  0.000000000000000E+000
  0.000000000000000E+000
  0.000000000000000E+000
  0.000000000000000E+000
  0.000000000000000E+000
  0.000000000000000E+000
  0.000000000000000E+000
  0.000000000000000E+000
  0.000000000000000E+000
  0.000000000000000E+000
  0.000000000000000E+000
  0.000000000000000E+000
  0.000000000000000E+000
  0.000000000000000E+000
  0.000000000000000E+000
  0.000000000000000E+000
  0.000000000000000E+000
  0.000000000000000E+000
  0.000000000000000E+000
  0.000000000000000E+000
  0.000000000000000E+000
  0.000000000000000E+000
  0.000000000000000E+000
  0.000000000000000E+000
  0.000000000000000E+000
  0.000000000000000E+000
  0.000000000000000E+000
  0.000000000000000E+000
  0.000000000000000E+000
  0.000000000000000E+000
  0.000000000000000E+000
  0.000000000000000E+000
  0.000000000000000E+000
  0.000000000000000E+000
  0.000000000000000E+000
  0.000000000000000E+000
  0.000000000000000E+000
  0.000000000000000E+000
  0.000000000000000E+000
  0.000000000000000E+000
  0.000000000000000E+000
  0.000000000000000E+000
  0.000000000000000E+000
  0.000000000000000E+000
  0.000000000000000E+000
  0.000000000000000E+000
  0.000000000000000E+000
  0.000000000000000E+000
  0.000000000000000E+000
  0.000000000000000E+000
  0.000000000000000E+000
  0.000000000000000E+000
  0.000000000000000E+000
  0.000000000000000E+000
  0.000000000000000E+000
  0.000000000000000E+000
  0.000000000000000E+000
  0.000000000000000E+000
  0.000000000000000E+000
  0.000000000000000E+000
  0.000000000000000E+000
  0.000000000000000E+000
  0.000000000000000E+000
  0.000000000000000E+000
  0.000000000000000E+000
  0.000000000000000E+000
  0.000000000000000E+000
  0.000000000000000E+000
  0.000000000000000E+000
  0.000000000000000E+000
  0.000000000000000E+000
  0.000000000000000E+000
  0.000000000000000E+000
  0.000000000000000E+000
  0.000000000000000E+000
  0.000000000000000E+000
  0.000000000000000E+000
  0.000000000000000E+000
  0.000000000000000E+000
  0.000000000000000E+000
  0.000000000000000E+000
  0.000000000000000E+000
  0.000000000000000E+000
  0.000000000000000E+000
  0.000000000000000E+000
  0.000000000000000E+000
  0.000000000000000E+000
  0.000000000000000E+000
  0.000000000000000E+000
  0.000000000000000E+000
  0.000000000000000E+000
  0.000000000000000E+000
  0.000000000000000E+000
  0.000000000000000E+000
  0.000000000000000E+000
  0.000000000000000E+000
  0.000000000000000E+000
  0.000000000000000E+000
  0.000000000000000E+000
  0.000000000000000E+000
  0.000000000000000E+000
  0.000000000000000E+000
  0.000000000000000E+000
  0.000000000000000E+000
  0.000000000000000E+000
  0.000000000000000E+000
  0.000000000000000E+000
  0.000000000000000E+000
  0.000000000000000E+000
  0.000000000000000E+000
  0.000000000000000E+000
  0.000000000000000E+000
  0.000000000000000E+000
  0.000000000000000E+000
  0.000000000000000E+000
  0.000000000000000E+000
  0.000000000000000E+000
  0.000000000000000E+000
  0.000000000000000E+000
  0.000000000000000E+000
  0.000000000000000E+000
  0.000000000000000E+000
  0.000000000000000E+000
  0.000000000000000E+000
  0.000000000000000E+000
  0.000000000000000E+000
  0.000000000000000E+000
  0.000000000000000E+000
  0.000000000000000E+000
  0.000000000000000E+000
  0.000000000000000E+000
  0.000000000000000E+000
  0.000000000000000E+000
  0.000000000000000E+000
  0.000000000000000E+000
  0.000000000000000E+000
  0.000000000000000E+000
  0.000000000000000E+000
  0.000000000000000E+000
  0.000000000000000E+000
  0.000000000000000E+000
  0.000000000000000E+000
  0.000000000000000E+000
  0.000000000000000E+000
  0.000000000000000E+000
  0.000000000000000E+000
  0.000000000000000E+000
  0.000000000000000E+000
  0.000000000000000E+000
  0.000000000000000E+000
  0.000000000000000E+000
  0.000000000000000E+000
  0.000000000000000E+000
  0.000000000000000E+000
  0.000000000000000E+000
  0.000000000000000E+000
  0.000000000000000E+000
  0.000000000000000E+000
  0.000000000000000E+000
  0.000000000000000E+000
  0.000000000000000E+000
  0.000000000000000E+000
  0.000000000000000E+000
  0.000000000000000E+000
  0.000000000000000E+000
  0.000000000000000E+000
  0.000000000000000E+000
  0.000000000000000E+000
  0.000000000000000E+000
  0.000000000000000E+000
  0.000000000000000E+000
  0.000000000000000E+000
  0.000000000000000E+000
  0.000000000000000E+000
  0.000000000000000E+000
  0.000000000000000E+000
  0.000000000000000E+000
  0.000000000000000E+000
  0.000000000000000E+000
  0.000000000000000E+000
  0.000000000000000E+000
  0.000000000000000E+000
  0.000000000000000E+000
  0.000000000000000E+000
  0.000000000000000E+000
  0.000000000000000E+000
  0.000000000000000E+000
  0.000000000000000E+000
  0.000000000000000E+000
  0.000000000000000E+000
  0.000000000000000E+000
  0.000000000000000E+000
  0.000000000000000E+000
  0.000000000000000E+000
  0.000000000000000E+000
  0.000000000000000E+000
  0.000000000000000E+000
  0.000000000000000E+000
  0.000000000000000E+000
  0.000000000000000E+000
  0.000000000000000E+000
  0.000000000000000E+000
  0.000000000000000E+000
  0.000000000000000E+000
  0.000000000000000E+000
  0.000000000000000E+000
  0.000000000000000E+000
  0.000000000000000E+000
  0.000000000000000E+000
  0.000000000000000E+000
  0.000000000000000E+000
  0.000000000000000E+000
  0.000000000000000E+000
  0.000000000000000E+000
  0.000000000000000E+000
  0.000000000000000E+000
  0.000000000000000E+000
  0.000000000000000E+000
  0.000000000000000E+000
  0.000000000000000E+000
  0.000000000000000E+000
  0.000000000000000E+000
  0.000000000000000E+000
  0.000000000000000E+000
  0.000000000000000E+000
  0.000000000000000E+000
  0.000000000000000E+000
  0.000000000000000E+000
  0.000000000000000E+000
  0.000000000000000E+000
  0.000000000000000E+000
  0.000000000000000E+000
  0.000000000000000E+000
  0.000000000000000E+000
  0.000000000000000E+000
  0.000000000000000E+000
  0.000000000000000E+000
  0.000000000000000E+000
  0.000000000000000E+000
  0.000000000000000E+000
  0.000000000000000E+000
  0.000000000000000E+000
  0.000000000000000E+000
  0.000000000000000E+000
  0.000000000000000E+000
  0.000000000000000E+000
  0.000000000000000E+000
  0.000000000000000E+000
  0.000000000000000E+000
  0.000000000000000E+000
  0.000000000000000E+000
  0.000000000000000E+000
  0.000000000000000E+000
  0.000000000000000E+000
  0.000000000000000E+000
  0.000000000000000E+000
  0.000000000000000E+000
  0.000000000000000E+000
  0.000000000000000E+000
  0.000000000000000E+000
  0.000000000000000E+000
  0.000000000000000E+000
  0.000000000000000E+000
  0.000000000000000E+000
  0.000000000000000E+000
  0.000000000000000E+000
  0.000000000000000E+000
  0.000000000000000E+000
  0.000000000000000E+000
  0.000000000000000E+000
  0.000000000000000E+000
  0.000000000000000E+000
  0.000000000000000E+000
  0.000000000000000E+000
  0.000000000000000E+000
  0.000000000000000E+000
  0.000000000000000E+000
  0.000000000000000E+000
  0.000000000000000E+000
  0.000000000000000E+000
  0.000000000000000E+000
  0.000000000000000E+000
  0.000000000000000E+000
  0.000000000000000E+000
  0.000000000000000E+000
  0.000000000000000E+000
  0.000000000000000E+000
  0.000000000000000E+000
  0.000000000000000E+000
  0.000000000000000E+000
  0.000000000000000E+000
  0.000000000000000E+000
  0.000000000000000E+000
  0.000000000000000E+000
  0.000000000000000E+000
  0.000000000000000E+000
  0.000000000000000E+000
  0.000000000000000E+000
  0.000000000000000E+000
  0.000000000000000E+000
  0.000000000000000E+000
  0.000000000000000E+000
  0.000000000000000E+000
  0.000000000000000E+000
  0.000000000000000E+000
  0.000000000000000E+000
  0.000000000000000E+000
  0.000000000000000E+000
  0.000000000000000E+000
  0.000000000000000E+000
  0.000000000000000E+000
  0.000000000000000E+000
  0.000000000000000E+000
  0.000000000000000E+000
  0.000000000000000E+000
  0.000000000000000E+000
  0.000000000000000E+000
  0.000000000000000E+000
  0.000000000000000E+000
  0.000000000000000E+000
  0.000000000000000E+000
  0.000000000000000E+000
  0.000000000000000E+000
  0.000000000000000E+000
  0.000000000000000E+000
  0.000000000000000E+000
  0.000000000000000E+000
  0.000000000000000E+000
  0.000000000000000E+000
  0.000000000000000E+000
  0.000000000000000E+000
  0.000000000000000E+000
  0.000000000000000E+000
  0.000000000000000E+000
  0.000000000000000E+000
  0.000000000000000E+000
  0.000000000000000E+000
  0.000000000000000E+000
  0.000000000000000E+000
  0.000000000000000E+000
  0.000000000000000E+000
  0.000000000000000E+000
  0.000000000000000E+000
  0.000000000000000E+000
  0.000000000000000E+000
  0.000000000000000E+000
  0.000000000000000E+000
  0.000000000000000E+000
  0.000000000000000E+000
  0.000000000000000E+000
  0.000000000000000E+000
  0.000000000000000E+000
  0.000000000000000E+000
  0.000000000000000E+000
  0.000000000000000E+000
  0.000000000000000E+000
  0.000000000000000E+000
  0.000000000000000E+000
  0.000000000000000E+000
  0.000000000000000E+000
  0.000000000000000E+000
  0.000000000000000E+000
  0.000000000000000E+000
  0.000000000000000E+000
  0.000000000000000E+000
  0.000000000000000E+000
  0.000000000000000E+000
  0.000000000000000E+000
  0.000000000000000E+000
  0.000000000000000E+000
  0.000000000000000E+000
  0.000000000000000E+000
  0.000000000000000E+000
  0.000000000000000E+000
  0.000000000000000E+000
  0.000000000000000E+000
  0.000000000000000E+000
  0.000000000000000E+000
  0.000000000000000E+000
  0.000000000000000E+000
  0.000000000000000E+000
  0.000000000000000E+000
  0.000000000000000E+000
  0.000000000000000E+000
  0.000000000000000E+000
  0.000000000000000E+000
  0.000000000000000E+000
  0.000000000000000E+000
  0.000000000000000E+000
  0.000000000000000E+000
  0.000000000000000E+000
  0.000000000000000E+000
  0.000000000000000E+000
  0.000000000000000E+000
  0.000000000000000E+000
  0.000000000000000E+000
  0.000000000000000E+000
  0.000000000000000E+000
  0.000000000000000E+000
  0.000000000000000E+000
  0.000000000000000E+000
  0.000000000000000E+000
  0.000000000000000E+000
  0.000000000000000E+000
  0.000000000000000E+000
  0.000000000000000E+000
  0.000000000000000E+000
  0.000000000000000E+000
  0.000000000000000E+000
  0.000000000000000E+000
  0.000000000000000E+000
  0.000000000000000E+000
  0.000000000000000E+000
  0.000000000000000E+000
  0.000000000000000E+000
  0.000000000000000E+000
  0.000000000000000E+000
  0.000000000000000E+000
  0.000000000000000E+000
  0.000000000000000E+000
  0.000000000000000E+000
  0.000000000000000E+000
  0.000000000000000E+000
  0.000000000000000E+000
  0.000000000000000E+000
  0.000000000000000E+000
  0.000000000000000E+000
  0.000000000000000E+000
  0.000000000000000E+000
  0.000000000000000E+000
  0.000000000000000E+000
  0.000000000000000E+000
  0.000000000000000E+000
  0.000000000000000E+000
  0.000000000000000E+000
  0.000000000000000E+000
  0.000000000000000E+000
  0.000000000000000E+000
  0.000000000000000E+000
  0.000000000000000E+000
  0.000000000000000E+000
  0.000000000000000E+000
  0.000000000000000E+000
  0.000000000000000E+000
  0.000000000000000E+000
  0.000000000000000E+000
  0.000000000000000E+000
  0.000000000000000E+000
  0.000000000000000E+000
  0.000000000000000E+000
  0.000000000000000E+000
  0.000000000000000E+000
  0.000000000000000E+000
  0.000000000000000E+000
  0.000000000000000E+000
  0.000000000000000E+000
  0.000000000000000E+000
  0.000000000000000E+000
  0.000000000000000E+000
  0.000000000000000E+000
  0.000000000000000E+000
  0.000000000000000E+000
  0.000000000000000E+000
  0.000000000000000E+000
  0.000000000000000E+000
  0.000000000000000E+000
  0.000000000000000E+000
  0.000000000000000E+000
  0.000000000000000E+000
  0.000000000000000E+000
  0.000000000000000E+000
  0.000000000000000E+000
  0.000000000000000E+000
  0.000000000000000E+000
  0.000000000000000E+000
  0.000000000000000E+000
  0.000000000000000E+000
  0.000000000000000E+000
  0.000000000000000E+000
  0.000000000000000E+000
  0.000000000000000E+000
  0.000000000000000E+000
  0.000000000000000E+000
  0.000000000000000E+000
  0.000000000000000E+000
  0.000000000000000E+000
  0.000000000000000E+000
  0.000000000000000E+000
  0.000000000000000E+000
  0.000000000000000E+000
  0.000000000000000E+000
  0.000000000000000E+000
  0.000000000000000E+000
  0.000000000000000E+000
  0.000000000000000E+000
  0.000000000000000E+000
  0.000000000000000E+000
  0.000000000000000E+000
  0.000000000000000E+000
  0.000000000000000E+000
  0.000000000000000E+000
  0.000000000000000E+000
  0.000000000000000E+000
  0.000000000000000E+000
  0.000000000000000E+000
  0.000000000000000E+000
  0.000000000000000E+000
  0.000000000000000E+000
  0.000000000000000E+000
  0.000000000000000E+000
  0.000000000000000E+000
  0.000000000000000E+000
  0.000000000000000E+000
  0.000000000000000E+000
  0.000000000000000E+000
  0.000000000000000E+000
  0.000000000000000E+000
  0.000000000000000E+000
  0.000000000000000E+000
  0.000000000000000E+000
  0.000000000000000E+000
  0.000000000000000E+000
  0.000000000000000E+000
  0.000000000000000E+000
  0.000000000000000E+000
  0.000000000000000E+000
  0.000000000000000E+000
  0.000000000000000E+000
  0.000000000000000E+000
  0.000000000000000E+000
  0.000000000000000E+000
  0.000000000000000E+000
  0.000000000000000E+000
  0.000000000000000E+000
  0.000000000000000E+000
  0.000000000000000E+000
  0.000000000000000E+000
  0.000000000000000E+000
  0.000000000000000E+000
  0.000000000000000E+000
  0.000000000000000E+000
  0.000000000000000E+000
  0.000000000000000E+000
  0.000000000000000E+000
  0.000000000000000E+000
  0.000000000000000E+000
  0.000000000000000E+000
  0.000000000000000E+000
  0.000000000000000E+000
  0.000000000000000E+000
  0.000000000000000E+000
  0.000000000000000E+000
  0.000000000000000E+000
  0.000000000000000E+000
  0.000000000000000E+000
  0.000000000000000E+000
  0.000000000000000E+000
  0.000000000000000E+000
  0.000000000000000E+000
  0.000000000000000E+000
  0.000000000000000E+000
  0.000000000000000E+000
  0.000000000000000E+000
  0.000000000000000E+000
  0.000000000000000E+000
  0.000000000000000E+000
  0.000000000000000E+000
  0.000000000000000E+000
  0.000000000000000E+000
  0.000000000000000E+000
  0.000000000000000E+000
  0.000000000000000E+000
  0.000000000000000E+000
  0.000000000000000E+000
  0.000000000000000E+000
  0.000000000000000E+000
  0.000000000000000E+000
  0.000000000000000E+000
  0.000000000000000E+000
  0.000000000000000E+000
  0.000000000000000E+000
  0.000000000000000E+000
  0.000000000000000E+000
  0.000000000000000E+000
  0.000000000000000E+000
  0.000000000000000E+000
  0.000000000000000E+000
  0.000000000000000E+000
  0.000000000000000E+000
  0.000000000000000E+000
  0.000000000000000E+000
  0.000000000000000E+000
  0.000000000000000E+000
  0.000000000000000E+000
  0.000000000000000E+000
  0.000000000000000E+000
  0.000000000000000E+000
  0.000000000000000E+000
  0.000000000000000E+000
  0.000000000000000E+000
  0.000000000000000E+000
  0.000000000000000E+000
  0.000000000000000E+000
  0.000000000000000E+000
  0.000000000000000E+000
  0.000000000000000E+000
  0.000000000000000E+000
  0.000000000000000E+000
  0.000000000000000E+000
  0.000000000000000E+000
  0.000000000000000E+000
  0.000000000000000E+000
  0.000000000000000E+000
  0.000000000000000E+000
  0.000000000000000E+000
  0.000000000000000E+000
  0.000000000000000E+000
  0.000000000000000E+000
  0.000000000000000E+000
  0.000000000000000E+000
  0.000000000000000E+000
  0.000000000000000E+000
  0.000000000000000E+000
  0.000000000000000E+000
  0.000000000000000E+000
  0.000000000000000E+000
  0.000000000000000E+000
  0.000000000000000E+000
  0.000000000000000E+000
  0.000000000000000E+000
  0.000000000000000E+000
  0.000000000000000E+000
  0.000000000000000E+000
  0.000000000000000E+000
  0.000000000000000E+000
  0.000000000000000E+000
  0.000000000000000E+000
  0.000000000000000E+000
  0.000000000000000E+000
  0.000000000000000E+000
  0.000000000000000E+000
  0.000000000000000E+000
  0.000000000000000E+000
  0.000000000000000E+000
  0.000000000000000E+000
  0.000000000000000E+000
  0.000000000000000E+000
  0.000000000000000E+000
  0.000000000000000E+000
  0.000000000000000E+000
  0.000000000000000E+000
  0.000000000000000E+000
  0.000000000000000E+000
  0.000000000000000E+000
  0.000000000000000E+000
  0.000000000000000E+000
  0.000000000000000E+000
  0.000000000000000E+000
  0.000000000000000E+000
  0.000000000000000E+000
  0.000000000000000E+000
  0.000000000000000E+000
  0.000000000000000E+000
  0.000000000000000E+000
  0.000000000000000E+000
  0.000000000000000E+000
  0.000000000000000E+000
  0.000000000000000E+000
  0.000000000000000E+000
  0.000000000000000E+000
  0.000000000000000E+000
  0.000000000000000E+000
  0.000000000000000E+000
  0.000000000000000E+000
  0.000000000000000E+000
  0.000000000000000E+000
  0.000000000000000E+000
  0.000000000000000E+000
  0.000000000000000E+000
  0.000000000000000E+000
  0.000000000000000E+000
  0.000000000000000E+000
  0.000000000000000E+000
  0.000000000000000E+000
  0.000000000000000E+000
  0.000000000000000E+000
  0.000000000000000E+000
  0.000000000000000E+000
  0.000000000000000E+000
  0.000000000000000E+000
  0.000000000000000E+000
  0.000000000000000E+000
  0.000000000000000E+000
  0.000000000000000E+000
  0.000000000000000E+000
  0.000000000000000E+000
  0.000000000000000E+000
  0.000000000000000E+000
  0.000000000000000E+000
  0.000000000000000E+000
  0.000000000000000E+000
  0.000000000000000E+000
  0.000000000000000E+000
  0.000000000000000E+000
  0.000000000000000E+000
  0.000000000000000E+000
  0.000000000000000E+000
  0.000000000000000E+000
  0.000000000000000E+000
  0.000000000000000E+000
  0.000000000000000E+000
  0.000000000000000E+000
  0.000000000000000E+000
  0.000000000000000E+000
  0.000000000000000E+000
  0.000000000000000E+000
  0.000000000000000E+000
  0.000000000000000E+000
  0.000000000000000E+000
  0.000000000000000E+000
  0.000000000000000E+000
  0.000000000000000E+000
  0.000000000000000E+000
  0.000000000000000E+000
  0.000000000000000E+000
  0.000000000000000E+000
  0.000000000000000E+000
  0.000000000000000E+000
  0.000000000000000E+000
  0.000000000000000E+000
  0.000000000000000E+000
  0.000000000000000E+000
  0.000000000000000E+000
  0.000000000000000E+000
  0.000000000000000E+000
  0.000000000000000E+000
  0.000000000000000E+000
  0.000000000000000E+000
  0.000000000000000E+000
  0.000000000000000E+000
  0.000000000000000E+000
  0.000000000000000E+000
  0.000000000000000E+000
  0.000000000000000E+000
  0.000000000000000E+000
  0.000000000000000E+000
  0.000000000000000E+000
  0.000000000000000E+000
  0.000000000000000E+000
  0.000000000000000E+000
  0.000000000000000E+000
  0.000000000000000E+000
  0.000000000000000E+000
  0.000000000000000E+000
  0.000000000000000E+000
  0.000000000000000E+000
  0.000000000000000E+000
  0.000000000000000E+000
  0.000000000000000E+000
  0.000000000000000E+000
  0.000000000000000E+000
  0.000000000000000E+000
  0.000000000000000E+000
  0.000000000000000E+000
  0.000000000000000E+000
  0.000000000000000E+000
  0.000000000000000E+000
  0.000000000000000E+000
  0.000000000000000E+000
  0.000000000000000E+000
  0.000000000000000E+000
  0.000000000000000E+000
  0.000000000000000E+000
  0.000000000000000E+000
  0.000000000000000E+000
  0.000000000000000E+000
  0.000000000000000E+000
  0.000000000000000E+000
  0.000000000000000E+000
  0.000000000000000E+000
  0.000000000000000E+000
  0.000000000000000E+000
  0.000000000000000E+000
  0.000000000000000E+000
  0.000000000000000E+000
  0.000000000000000E+000
  0.000000000000000E+000
  0.000000000000000E+000
  0.000000000000000E+000
  0.000000000000000E+000
  0.000000000000000E+000
  0.000000000000000E+000
  0.000000000000000E+000
  0.000000000000000E+000
  0.000000000000000E+000
  0.000000000000000E+000
  0.000000000000000E+000
  0.000000000000000E+000
  0.000000000000000E+000
  0.000000000000000E+000
  0.000000000000000E+000
  0.000000000000000E+000
  0.000000000000000E+000
  0.000000000000000E+000
  0.000000000000000E+000
  0.000000000000000E+000
  0.000000000000000E+000
  0.000000000000000E+000
  0.000000000000000E+000
  0.000000000000000E+000
  0.000000000000000E+000
  0.000000000000000E+000
  0.000000000000000E+000
  0.000000000000000E+000
  0.000000000000000E+000
  0.000000000000000E+000
  0.000000000000000E+000
  0.000000000000000E+000
  0.000000000000000E+000
  0.000000000000000E+000
  0.000000000000000E+000
  0.000000000000000E+000
  0.000000000000000E+000
  0.000000000000000E+000
  0.000000000000000E+000
  0.000000000000000E+000
  0.000000000000000E+000
  0.000000000000000E+000
  0.000000000000000E+000
  0.000000000000000E+000
  0.000000000000000E+000
  0.000000000000000E+000
  0.000000000000000E+000
  0.000000000000000E+000
  0.000000000000000E+000
  0.000000000000000E+000
  0.000000000000000E+000
  0.000000000000000E+000
  0.000000000000000E+000
  0.000000000000000E+000
  0.000000000000000E+000
  0.000000000000000E+000
  0.000000000000000E+000
  0.000000000000000E+000
  0.000000000000000E+000
  0.000000000000000E+000
  0.000000000000000E+000
  0.000000000000000E+000
  0.000000000000000E+000
  0.000000000000000E+000
  0.000000000000000E+000
  0.000000000000000E+000
  0.000000000000000E+000
  0.000000000000000E+000
  0.000000000000000E+000
  0.000000000000000E+000
  0.000000000000000E+000
  0.000000000000000E+000
  0.000000000000000E+000
  0.000000000000000E+000
  0.000000000000000E+000
  0.000000000000000E+000
  0.000000000000000E+000
  0.000000000000000E+000
  0.000000000000000E+000
  0.000000000000000E+000
  0.000000000000000E+000
  0.000000000000000E+000
  0.000000000000000E+000
  0.000000000000000E+000
  0.000000000000000E+000
  0.000000000000000E+000
  0.000000000000000E+000
  0.000000000000000E+000
  0.000000000000000E+000
  0.000000000000000E+000
  0.000000000000000E+000
  0.000000000000000E+000
  0.000000000000000E+000
  0.000000000000000E+000
  0.000000000000000E+000
  0.000000000000000E+000
  0.000000000000000E+000
  0.000000000000000E+000
  0.000000000000000E+000
  0.000000000000000E+000
  0.000000000000000E+000
  0.000000000000000E+000
  0.000000000000000E+000
  0.000000000000000E+000
  0.000000000000000E+000
  0.000000000000000E+000
  0.000000000000000E+000
  0.000000000000000E+000
  0.000000000000000E+000
  0.000000000000000E+000
  0.000000000000000E+000
  0.000000000000000E+000
  0.000000000000000E+000
  0.000000000000000E+000
  0.000000000000000E+000
  0.000000000000000E+000
  0.000000000000000E+000
  0.000000000000000E+000
  0.000000000000000E+000
  0.000000000000000E+000
  0.000000000000000E+000
  0.000000000000000E+000
  0.000000000000000E+000
  0.000000000000000E+000
  0.000000000000000E+000
  0.000000000000000E+000
  0.000000000000000E+000
  0.000000000000000E+000
  0.000000000000000E+000
  0.000000000000000E+000
  0.000000000000000E+000
  0.000000000000000E+000
  0.000000000000000E+000
  0.000000000000000E+000
  0.000000000000000E+000
  0.000000000000000E+000
  0.000000000000000E+000
  0.000000000000000E+000
  0.000000000000000E+000
  0.000000000000000E+000
  0.000000000000000E+000
  0.000000000000000E+000
  0.000000000000000E+000
  0.000000000000000E+000
  0.000000000000000E+000
  0.000000000000000E+000
  0.000000000000000E+000
  0.000000000000000E+000
  0.000000000000000E+000
  0.000000000000000E+000
  0.000000000000000E+000
  0.000000000000000E+000
  0.000000000000000E+000
  0.000000000000000E+000
  0.000000000000000E+000
  0.000000000000000E+000
  0.000000000000000E+000
  0.000000000000000E+000
  0.000000000000000E+000
  0.000000000000000E+000
  0.000000000000000E+000
  0.000000000000000E+000
  0.000000000000000E+000
  0.000000000000000E+000
  0.000000000000000E+000
  0.000000000000000E+000
  0.000000000000000E+000
  0.000000000000000E+000
  0.000000000000000E+000
  0.000000000000000E+000
  0.000000000000000E+000
  0.000000000000000E+000
  0.000000000000000E+000
  0.000000000000000E+000
  0.000000000000000E+000
  0.000000000000000E+000
  0.000000000000000E+000
  0.000000000000000E+000
  0.000000000000000E+000
  0.000000000000000E+000
  0.000000000000000E+000
  0.000000000000000E+000
  0.000000000000000E+000
  0.000000000000000E+000
  0.000000000000000E+000
  0.000000000000000E+000
  0.000000000000000E+000
  0.000000000000000E+000
  0.000000000000000E+000
  0.000000000000000E+000
  0.000000000000000E+000
  0.000000000000000E+000
  0.000000000000000E+000
  0.000000000000000E+000
  0.000000000000000E+000
  0.000000000000000E+000
  0.000000000000000E+000
  0.000000000000000E+000
  0.000000000000000E+000
  0.000000000000000E+000
  0.000000000000000E+000
  0.000000000000000E+000
  0.000000000000000E+000
  0.000000000000000E+000
  0.000000000000000E+000
  0.000000000000000E+000
  0.000000000000000E+000
  0.000000000000000E+000
  0.000000000000000E+000
  0.000000000000000E+000
  0.000000000000000E+000
  0.000000000000000E+000
  0.000000000000000E+000
  0.000000000000000E+000
  0.000000000000000E+000
  0.000000000000000E+000
  0.000000000000000E+000
  0.000000000000000E+000
  0.000000000000000E+000
  0.000000000000000E+000
  0.000000000000000E+000
  0.000000000000000E+000
  0.000000000000000E+000
  0.000000000000000E+000
  0.000000000000000E+000
  0.000000000000000E+000
  0.000000000000000E+000
  0.000000000000000E+000
  0.000000000000000E+000
  0.000000000000000E+000
  0.000000000000000E+000
  0.000000000000000E+000
  0.000000000000000E+000
  0.000000000000000E+000
  0.000000000000000E+000
  0.000000000000000E+000
  0.000000000000000E+000
  0.000000000000000E+000
  0.000000000000000E+000
  0.000000000000000E+000
  0.000000000000000E+000
  0.000000000000000E+000
  0.000000000000000E+000
  0.000000000000000E+000
  0.000000000000000E+000
  0.000000000000000E+000
  0.000000000000000E+000
  0.000000000000000E+000
  0.000000000000000E+000
  0.000000000000000E+000
  0.000000000000000E+000
  0.000000000000000E+000
  0.000000000000000E+000
  0.000000000000000E+000
  0.000000000000000E+000
  0.000000000000000E+000
  0.000000000000000E+000
  0.000000000000000E+000
  0.000000000000000E+000
  0.000000000000000E+000
  0.000000000000000E+000
  0.000000000000000E+000
  0.000000000000000E+000
  0.000000000000000E+000
  0.000000000000000E+000
  0.000000000000000E+000
  0.000000000000000E+000
  0.000000000000000E+000
  0.000000000000000E+000
  0.000000000000000E+000
  0.000000000000000E+000
  0.000000000000000E+000
  0.000000000000000E+000
  0.000000000000000E+000
  0.000000000000000E+000
  0.000000000000000E+000
  0.000000000000000E+000
  0.000000000000000E+000
  0.000000000000000E+000
  0.000000000000000E+000
  0.000000000000000E+000
  0.000000000000000E+000
  0.000000000000000E+000
  0.000000000000000E+000
  0.000000000000000E+000
  0.000000000000000E+000
  0.000000000000000E+000
  0.000000000000000E+000
  0.000000000000000E+000
  0.000000000000000E+000
  0.000000000000000E+000
  0.000000000000000E+000
  0.000000000000000E+000
  0.000000000000000E+000
  0.000000000000000E+000
  0.000000000000000E+000
  0.000000000000000E+000
  0.000000000000000E+000
  0.000000000000000E+000
  0.000000000000000E+000
  0.000000000000000E+000
  0.000000000000000E+000
  0.000000000000000E+000
  0.000000000000000E+000
  0.000000000000000E+000
  0.000000000000000E+000
  0.000000000000000E+000
  0.000000000000000E+000
  0.000000000000000E+000
  0.000000000000000E+000
  0.000000000000000E+000
  0.000000000000000E+000
  0.000000000000000E+000
  0.000000000000000E+000
  0.000000000000000E+000
  0.000000000000000E+000
  0.000000000000000E+000
  0.000000000000000E+000
  0.000000000000000E+000
  0.000000000000000E+000
  0.000000000000000E+000
  0.000000000000000E+000
  0.000000000000000E+000
  0.000000000000000E+000
  0.000000000000000E+000
  0.000000000000000E+000
  0.000000000000000E+000
  0.000000000000000E+000
  0.000000000000000E+000
  0.000000000000000E+000
  0.000000000000000E+000
  0.000000000000000E+000
  0.000000000000000E+000
  0.000000000000000E+000
  0.000000000000000E+000
  0.000000000000000E+000
  0.000000000000000E+000
  0.000000000000000E+000
  0.000000000000000E+000
  0.000000000000000E+000
  0.000000000000000E+000
  0.000000000000000E+000
  0.000000000000000E+000
  0.000000000000000E+000
  0.000000000000000E+000
  0.000000000000000E+000
  0.000000000000000E+000
  0.000000000000000E+000
  0.000000000000000E+000
  0.000000000000000E+000
  0.000000000000000E+000
  0.000000000000000E+000
  0.000000000000000E+000
  0.000000000000000E+000
  0.000000000000000E+000
  0.000000000000000E+000
  0.000000000000000E+000
  0.000000000000000E+000
  0.000000000000000E+000
  0.000000000000000E+000
  0.000000000000000E+000
  0.000000000000000E+000
  0.000000000000000E+000
  0.000000000000000E+000
  0.000000000000000E+000
  0.000000000000000E+000
  0.000000000000000E+000
  0.000000000000000E+000
  0.000000000000000E+000
  0.000000000000000E+000
  0.000000000000000E+000
  0.000000000000000E+000
  0.000000000000000E+000
  0.000000000000000E+000
  0.000000000000000E+000
  0.000000000000000E+000
  0.000000000000000E+000
  0.000000000000000E+000
  0.000000000000000E+000
  0.000000000000000E+000
  0.000000000000000E+000
  0.000000000000000E+000
  0.000000000000000E+000
  0.000000000000000E+000
  0.000000000000000E+000
  0.000000000000000E+000
  0.000000000000000E+000
  0.000000000000000E+000
  0.000000000000000E+000
  0.000000000000000E+000
  0.000000000000000E+000
  0.000000000000000E+000
  0.000000000000000E+000
  0.000000000000000E+000
  0.000000000000000E+000
  0.000000000000000E+000
  0.000000000000000E+000
  0.000000000000000E+000
  0.000000000000000E+000
  0.000000000000000E+000
  0.000000000000000E+000
  0.000000000000000E+000
  0.000000000000000E+000
  0.000000000000000E+000
  0.000000000000000E+000
  0.000000000000000E+000
  0.000000000000000E+000
  0.000000000000000E+000
  0.000000000000000E+000
  0.000000000000000E+000
  0.000000000000000E+000
  0.000000000000000E+000
  0.000000000000000E+000
  0.000000000000000E+000
  0.000000000000000E+000
  0.000000000000000E+000
  0.000000000000000E+000
  0.000000000000000E+000
  0.000000000000000E+000
  0.000000000000000E+000
  0.000000000000000E+000
  0.000000000000000E+000
  0.000000000000000E+000
  0.000000000000000E+000
  0.000000000000000E+000
  0.000000000000000E+000
  0.000000000000000E+000
  0.000000000000000E+000
  0.000000000000000E+000
  0.000000000000000E+000
  0.000000000000000E+000
  0.000000000000000E+000
  0.000000000000000E+000
  0.000000000000000E+000
  0.000000000000000E+000
  0.000000000000000E+000
  0.000000000000000E+000
  0.000000000000000E+000
  0.000000000000000E+000
  0.000000000000000E+000
  0.000000000000000E+000
  0.000000000000000E+000
  0.000000000000000E+000
  0.000000000000000E+000
  0.000000000000000E+000
  0.000000000000000E+000
  0.000000000000000E+000
  0.000000000000000E+000
  0.000000000000000E+000
  0.000000000000000E+000
  0.000000000000000E+000
  0.000000000000000E+000
  0.000000000000000E+000
  0.000000000000000E+000
  0.000000000000000E+000
  0.000000000000000E+000
  0.000000000000000E+000
  0.000000000000000E+000
  0.000000000000000E+000
  0.000000000000000E+000
  0.000000000000000E+000
  0.000000000000000E+000
  0.000000000000000E+000
  0.000000000000000E+000
  0.000000000000000E+000
  0.000000000000000E+000
  0.000000000000000E+000
  0.000000000000000E+000
  0.000000000000000E+000
  0.000000000000000E+000
  0.000000000000000E+000
  0.000000000000000E+000
  0.000000000000000E+000
  0.000000000000000E+000
  0.000000000000000E+000
  0.000000000000000E+000
  0.000000000000000E+000
  0.000000000000000E+000
  0.000000000000000E+000
  0.000000000000000E+000
  0.000000000000000E+000
  0.000000000000000E+000
  0.000000000000000E+000
  0.000000000000000E+000
  0.000000000000000E+000
  0.000000000000000E+000
  0.000000000000000E+000
  0.000000000000000E+000
  0.000000000000000E+000
  0.000000000000000E+000
  0.000000000000000E+000
  0.000000000000000E+000
  0.000000000000000E+000
  0.000000000000000E+000
  0.000000000000000E+000
  0.000000000000000E+000
  0.000000000000000E+000
  0.000000000000000E+000
  0.000000000000000E+000
  0.000000000000000E+000
  0.000000000000000E+000
  0.000000000000000E+000
  0.000000000000000E+000
  0.000000000000000E+000
  0.000000000000000E+000
  0.000000000000000E+000
  0.000000000000000E+000
  0.000000000000000E+000
  0.000000000000000E+000
  0.000000000000000E+000
  0.000000000000000E+000
  0.000000000000000E+000
  0.000000000000000E+000
  0.000000000000000E+000
  0.000000000000000E+000
  0.000000000000000E+000
  0.000000000000000E+000
  0.000000000000000E+000
  0.000000000000000E+000
  0.000000000000000E+000
  0.000000000000000E+000
  0.000000000000000E+000
  0.000000000000000E+000
  0.000000000000000E+000
  0.000000000000000E+000
  0.000000000000000E+000
  0.000000000000000E+000
  0.000000000000000E+000
  0.000000000000000E+000
  0.000000000000000E+000
  0.000000000000000E+000
  0.000000000000000E+000
  0.000000000000000E+000
  0.000000000000000E+000
  0.000000000000000E+000
  0.000000000000000E+000
  0.000000000000000E+000
  0.000000000000000E+000
  0.000000000000000E+000
  0.000000000000000E+000
  0.000000000000000E+000
  0.000000000000000E+000
  0.000000000000000E+000
  0.000000000000000E+000
  0.000000000000000E+000
  0.000000000000000E+000
  0.000000000000000E+000
  0.000000000000000E+000
  0.000000000000000E+000
  0.000000000000000E+000
  0.000000000000000E+000
  0.000000000000000E+000
  0.000000000000000E+000
  0.000000000000000E+000
  0.000000000000000E+000
  0.000000000000000E+000
  0.000000000000000E+000
  0.000000000000000E+000
  0.000000000000000E+000
  0.000000000000000E+000
  0.000000000000000E+000
  0.000000000000000E+000
  0.000000000000000E+000
  0.000000000000000E+000
  0.000000000000000E+000
  0.000000000000000E+000
  0.000000000000000E+000
  0.000000000000000E+000
  0.000000000000000E+000
  0.000000000000000E+000
  0.000000000000000E+000
  0.000000000000000E+000
  0.000000000000000E+000
  0.000000000000000E+000
  0.000000000000000E+000
  0.000000000000000E+000
  0.000000000000000E+000
  0.000000000000000E+000
  0.000000000000000E+000
  0.000000000000000E+000
  0.000000000000000E+000
  0.000000000000000E+000
  0.000000000000000E+000
  0.000000000000000E+000
  0.000000000000000E+000
  0.000000000000000E+000
  0.000000000000000E+000
  0.000000000000000E+000
  0.000000000000000E+000
  0.000000000000000E+000
  0.000000000000000E+000
  0.000000000000000E+000
  0.000000000000000E+000
  0.000000000000000E+000
  0.000000000000000E+000
  0.000000000000000E+000
  0.000000000000000E+000
  0.000000000000000E+000
  0.000000000000000E+000
  0.000000000000000E+000
  0.000000000000000E+000
  0.000000000000000E+000
  0.000000000000000E+000
  0.000000000000000E+000
  0.000000000000000E+000
  0.000000000000000E+000
  0.000000000000000E+000
  0.000000000000000E+000
  0.000000000000000E+000
  0.000000000000000E+000
  0.000000000000000E+000
  0.000000000000000E+000
  0.000000000000000E+000
  0.000000000000000E+000
  0.000000000000000E+000
  0.000000000000000E+000
  0.000000000000000E+000
  0.000000000000000E+000
  0.000000000000000E+000
  0.000000000000000E+000
  0.000000000000000E+000
  0.000000000000000E+000
  0.000000000000000E+000
  0.000000000000000E+000
  0.000000000000000E+000
  0.000000000000000E+000
  0.000000000000000E+000
  0.000000000000000E+000
  0.000000000000000E+000
  0.000000000000000E+000
  0.000000000000000E+000
  0.000000000000000E+000
  0.000000000000000E+000
  0.000000000000000E+000
  0.000000000000000E+000
  0.000000000000000E+000
  0.000000000000000E+000
  0.000000000000000E+000
  0.000000000000000E+000
  0.000000000000000E+000
  0.000000000000000E+000
  0.000000000000000E+000
  0.000000000000000E+000
  0.000000000000000E+000
  0.000000000000000E+000
  0.000000000000000E+000
  0.000000000000000E+000
  0.000000000000000E+000
  0.000000000000000E+000
  0.000000000000000E+000
  0.000000000000000E+000
  0.000000000000000E+000
  0.000000000000000E+000
  0.000000000000000E+000
  0.000000000000000E+000
  0.000000000000000E+000
  0.000000000000000E+000
  0.000000000000000E+000
  0.000000000000000E+000
  0.000000000000000E+000
  0.000000000000000E+000
  0.000000000000000E+000
  0.000000000000000E+000
  0.000000000000000E+000
  0.000000000000000E+000
  0.000000000000000E+000
  0.000000000000000E+000
  0.000000000000000E+000
  0.000000000000000E+000
  0.000000000000000E+000
  0.000000000000000E+000
  0.000000000000000E+000
  0.000000000000000E+000
  0.000000000000000E+000
  0.000000000000000E+000
  0.000000000000000E+000
  0.000000000000000E+000
  0.000000000000000E+000
  0.000000000000000E+000
  0.000000000000000E+000
  0.000000000000000E+000
  0.000000000000000E+000
  0.000000000000000E+000
  0.000000000000000E+000
  0.000000000000000E+000
  0.000000000000000E+000
  0.000000000000000E+000
  0.000000000000000E+000
  0.000000000000000E+000
  0.000000000000000E+000
  0.000000000000000E+000
  0.000000000000000E+000
  0.000000000000000E+000
  0.000000000000000E+000
  0.000000000000000E+000
  0.000000000000000E+000
  0.000000000000000E+000
  0.000000000000000E+000
  0.000000000000000E+000
  0.000000000000000E+000
  0.000000000000000E+000
  0.000000000000000E+000
  0.000000000000000E+000
  0.000000000000000E+000
  0.000000000000000E+000
  0.000000000000000E+000
  0.000000000000000E+000
  0.000000000000000E+000
  0.000000000000000E+000
  0.000000000000000E+000
  0.000000000000000E+000
  0.000000000000000E+000
  0.000000000000000E+000
  0.000000000000000E+000
  0.000000000000000E+000
  0.000000000000000E+000
  0.000000000000000E+000
  0.000000000000000E+000
  0.000000000000000E+000
  0.000000000000000E+000
  0.000000000000000E+000
  0.000000000000000E+000
  0.000000000000000E+000
  0.000000000000000E+000
  0.000000000000000E+000
  0.000000000000000E+000
  0.000000000000000E+000
  0.000000000000000E+000
  0.000000000000000E+000
  0.000000000000000E+000
  0.000000000000000E+000
  0.000000000000000E+000
  0.000000000000000E+000
  0.000000000000000E+000
  0.000000000000000E+000
  0.000000000000000E+000
  0.000000000000000E+000
  0.000000000000000E+000
  0.000000000000000E+000
  0.000000000000000E+000
  0.000000000000000E+000
  0.000000000000000E+000
  0.000000000000000E+000
  0.000000000000000E+000
  0.000000000000000E+000
  0.000000000000000E+000
  0.000000000000000E+000
  0.000000000000000E+000
  0.000000000000000E+000
  0.000000000000000E+000
  0.000000000000000E+000
  0.000000000000000E+000
  0.000000000000000E+000
  0.000000000000000E+000
  0.000000000000000E+000
  0.000000000000000E+000
  0.000000000000000E+000
  0.000000000000000E+000
  0.000000000000000E+000
  0.000000000000000E+000
  0.000000000000000E+000
  0.000000000000000E+000
  0.000000000000000E+000
  0.000000000000000E+000
  0.000000000000000E+000
  0.000000000000000E+000
  0.000000000000000E+000
  0.000000000000000E+000
  0.000000000000000E+000
  0.000000000000000E+000
  0.000000000000000E+000
  0.000000000000000E+000
  0.000000000000000E+000
  0.000000000000000E+000
  0.000000000000000E+000
  0.000000000000000E+000
  0.000000000000000E+000
  0.000000000000000E+000
  0.000000000000000E+000
  0.000000000000000E+000
  0.000000000000000E+000
  0.000000000000000E+000
  0.000000000000000E+000
  0.000000000000000E+000
  0.000000000000000E+000
  0.000000000000000E+000
  0.000000000000000E+000
  0.000000000000000E+000
  0.000000000000000E+000
  0.000000000000000E+000
  0.000000000000000E+000
  0.000000000000000E+000
  0.000000000000000E+000
  0.000000000000000E+000
  0.000000000000000E+000
  0.000000000000000E+000
  0.000000000000000E+000
  0.000000000000000E+000
  0.000000000000000E+000
  0.000000000000000E+000
  0.000000000000000E+000
  0.000000000000000E+000
  0.000000000000000E+000
  0.000000000000000E+000
  0.000000000000000E+000
  0.000000000000000E+000
  0.000000000000000E+000
  0.000000000000000E+000
  0.000000000000000E+000
  0.000000000000000E+000
  0.000000000000000E+000
  0.000000000000000E+000
  0.000000000000000E+000
  0.000000000000000E+000
  0.000000000000000E+000
  0.000000000000000E+000
  0.000000000000000E+000
  0.000000000000000E+000
  0.000000000000000E+000
  0.000000000000000E+000
  0.000000000000000E+000
  0.000000000000000E+000
  0.000000000000000E+000
  0.000000000000000E+000
  0.000000000000000E+000
  0.000000000000000E+000
  0.000000000000000E+000
  0.000000000000000E+000
  0.000000000000000E+000
  0.000000000000000E+000
  0.000000000000000E+000
  0.000000000000000E+000
  0.000000000000000E+000
  0.000000000000000E+000
  0.000000000000000E+000
  0.000000000000000E+000
  0.000000000000000E+000
  0.000000000000000E+000
  0.000000000000000E+000
  0.000000000000000E+000
  0.000000000000000E+000
  0.000000000000000E+000
  0.000000000000000E+000
  0.000000000000000E+000
  0.000000000000000E+000
  0.000000000000000E+000
  0.000000000000000E+000
  0.000000000000000E+000
  0.000000000000000E+000
  0.000000000000000E+000
  0.000000000000000E+000
  0.000000000000000E+000
  0.000000000000000E+000
  0.000000000000000E+000
  0.000000000000000E+000
  0.000000000000000E+000
  0.000000000000000E+000
  0.000000000000000E+000
  0.000000000000000E+000
  0.000000000000000E+000
  0.000000000000000E+000
  0.000000000000000E+000
  0.000000000000000E+000
  0.000000000000000E+000
  0.000000000000000E+000
  0.000000000000000E+000
  0.000000000000000E+000
  0.000000000000000E+000
  0.000000000000000E+000
  0.000000000000000E+000
  0.000000000000000E+000
  0.000000000000000E+000
  0.000000000000000E+000
  0.000000000000000E+000
  0.000000000000000E+000
  0.000000000000000E+000
  0.000000000000000E+000
  0.000000000000000E+000
  0.000000000000000E+000
  0.000000000000000E+000
  0.000000000000000E+000
  0.000000000000000E+000
  0.000000000000000E+000
  0.000000000000000E+000
  0.000000000000000E+000
  0.000000000000000E+000
  0.000000000000000E+000
  0.000000000000000E+000
  0.000000000000000E+000
  0.000000000000000E+000
  0.000000000000000E+000
  0.000000000000000E+000
  0.000000000000000E+000
  0.000000000000000E+000
  0.000000000000000E+000
  0.000000000000000E+000
  0.000000000000000E+000
  0.000000000000000E+000
  0.000000000000000E+000
  0.000000000000000E+000
  0.000000000000000E+000
  0.000000000000000E+000
  0.000000000000000E+000
  0.000000000000000E+000
  0.000000000000000E+000
  0.000000000000000E+000
  0.000000000000000E+000
  0.000000000000000E+000
  0.000000000000000E+000
  0.000000000000000E+000
  0.000000000000000E+000
  0.000000000000000E+000
  0.000000000000000E+000
  0.000000000000000E+000
  0.000000000000000E+000
  0.000000000000000E+000
  0.000000000000000E+000
  0.000000000000000E+000
  0.000000000000000E+000
  0.000000000000000E+000
  0.000000000000000E+000
  0.000000000000000E+000
  0.000000000000000E+000
  0.000000000000000E+000
  0.000000000000000E+000
  0.000000000000000E+000
  0.000000000000000E+000
  0.000000000000000E+000
  0.000000000000000E+000
  0.000000000000000E+000
  0.000000000000000E+000
  0.000000000000000E+000
  0.000000000000000E+000
  0.000000000000000E+000
  0.000000000000000E+000
  0.000000000000000E+000
  0.000000000000000E+000
  0.000000000000000E+000
  0.000000000000000E+000
  0.000000000000000E+000
  0.000000000000000E+000
  0.000000000000000E+000
  0.000000000000000E+000
  0.000000000000000E+000
  0.000000000000000E+000
  0.000000000000000E+000
  0.000000000000000E+000
  0.000000000000000E+000
  0.000000000000000E+000
  0.000000000000000E+000
  0.000000000000000E+000
  0.000000000000000E+000
  0.000000000000000E+000
  0.000000000000000E+000
  0.000000000000000E+000
  0.000000000000000E+000
  0.000000000000000E+000
  0.000000000000000E+000
  0.000000000000000E+000
  0.000000000000000E+000
  0.000000000000000E+000
  0.000000000000000E+000
  0.000000000000000E+000
  0.000000000000000E+000
  0.000000000000000E+000
  0.000000000000000E+000
  0.000000000000000E+000
  0.000000000000000E+000
  0.000000000000000E+000
  0.000000000000000E+000
  0.000000000000000E+000
  0.000000000000000E+000
  0.000000000000000E+000
  0.000000000000000E+000
  0.000000000000000E+000
  0.000000000000000E+000
  0.000000000000000E+000
  0.000000000000000E+000
  0.000000000000000E+000
  0.000000000000000E+000
  0.000000000000000E+000
  0.000000000000000E+000
  0.000000000000000E+000
  0.000000000000000E+000
  0.000000000000000E+000
  0.000000000000000E+000
  0.000000000000000E+000
  0.000000000000000E+000
  0.000000000000000E+000
  0.000000000000000E+000
  0.000000000000000E+000
  0.000000000000000E+000
  0.000000000000000E+000
  0.000000000000000E+000
  0.000000000000000E+000
  0.000000000000000E+000
  0.000000000000000E+000
  0.000000000000000E+000
  0.000000000000000E+000
  0.000000000000000E+000
  0.000000000000000E+000
  0.000000000000000E+000
  0.000000000000000E+000
  0.000000000000000E+000
  0.000000000000000E+000
  0.000000000000000E+000
  0.000000000000000E+000
  0.000000000000000E+000
  0.000000000000000E+000
  0.000000000000000E+000
  0.000000000000000E+000
  0.000000000000000E+000
  0.000000000000000E+000
  0.000000000000000E+000
  0.000000000000000E+000
  0.000000000000000E+000
  0.000000000000000E+000
  0.000000000000000E+000
  0.000000000000000E+000
  0.000000000000000E+000
  0.000000000000000E+000
  0.000000000000000E+000
  0.000000000000000E+000
  0.000000000000000E+000
  0.000000000000000E+000
  0.000000000000000E+000
  0.000000000000000E+000
  0.000000000000000E+000
  0.000000000000000E+000
  0.000000000000000E+000
  0.000000000000000E+000
  0.000000000000000E+000
  0.000000000000000E+000
  0.000000000000000E+000
  0.000000000000000E+000
  0.000000000000000E+000
  0.000000000000000E+000
  0.000000000000000E+000
  0.000000000000000E+000
  0.000000000000000E+000
  0.000000000000000E+000
  0.000000000000000E+000
  0.000000000000000E+000
  0.000000000000000E+000
  0.000000000000000E+000
  0.000000000000000E+000
  0.000000000000000E+000
  0.000000000000000E+000
  0.000000000000000E+000
  0.000000000000000E+000
  0.000000000000000E+000
  0.000000000000000E+000
  0.000000000000000E+000
  0.000000000000000E+000
  0.000000000000000E+000
  0.000000000000000E+000
  0.000000000000000E+000
  0.000000000000000E+000
  0.000000000000000E+000
  0.000000000000000E+000
  0.000000000000000E+000
  0.000000000000000E+000
  0.000000000000000E+000
  0.000000000000000E+000
  0.000000000000000E+000
  0.000000000000000E+000
  0.000000000000000E+000
  0.000000000000000E+000
  0.000000000000000E+000
  0.000000000000000E+000
  0.000000000000000E+000
  0.000000000000000E+000
  0.000000000000000E+000
  0.000000000000000E+000
  0.000000000000000E+000
  0.000000000000000E+000
  0.000000000000000E+000
  0.000000000000000E+000
  0.000000000000000E+000
  0.000000000000000E+000
  0.000000000000000E+000
  0.000000000000000E+000
  0.000000000000000E+000
  0.000000000000000E+000
  0.000000000000000E+000
  0.000000000000000E+000
  0.000000000000000E+000
  0.000000000000000E+000
  0.000000000000000E+000
  0.000000000000000E+000
  0.000000000000000E+000
  0.000000000000000E+000
  0.000000000000000E+000
  0.000000000000000E+000
  0.000000000000000E+000
  0.000000000000000E+000
  0.000000000000000E+000
  0.000000000000000E+000
  0.000000000000000E+000
  0.000000000000000E+000
  0.000000000000000E+000
  0.000000000000000E+000
  0.000000000000000E+000
  0.000000000000000E+000
  0.000000000000000E+000
  0.000000000000000E+000
  0.000000000000000E+000
  0.000000000000000E+000
  0.000000000000000E+000
  0.000000000000000E+000
  0.000000000000000E+000
  0.000000000000000E+000
  0.000000000000000E+000
  0.000000000000000E+000
  0.000000000000000E+000
  0.000000000000000E+000
  0.000000000000000E+000
  0.000000000000000E+000
  0.000000000000000E+000
  0.000000000000000E+000
  0.000000000000000E+000
  0.000000000000000E+000
  0.000000000000000E+000
  0.000000000000000E+000
  0.000000000000000E+000
  0.000000000000000E+000
  0.000000000000000E+000
  0.000000000000000E+000
  0.000000000000000E+000
  0.000000000000000E+000
  0.000000000000000E+000
  0.000000000000000E+000
  0.000000000000000E+000
  0.000000000000000E+000
  0.000000000000000E+000
  0.000000000000000E+000
  0.000000000000000E+000
  0.000000000000000E+000
  0.000000000000000E+000
  0.000000000000000E+000
  0.000000000000000E+000
  0.000000000000000E+000
  0.000000000000000E+000
  0.000000000000000E+000
  0.000000000000000E+000
  0.000000000000000E+000
  0.000000000000000E+000
  0.000000000000000E+000
  0.000000000000000E+000
  0.000000000000000E+000
  0.000000000000000E+000
  0.000000000000000E+000
  0.000000000000000E+000
  0.000000000000000E+000
  0.000000000000000E+000
  0.000000000000000E+000
  0.000000000000000E+000
  0.000000000000000E+000
  0.000000000000000E+000
  0.000000000000000E+000
  0.000000000000000E+000
  0.000000000000000E+000
  0.000000000000000E+000
  0.000000000000000E+000
  0.000000000000000E+000
  0.000000000000000E+000
  0.000000000000000E+000
  0.000000000000000E+000
  0.000000000000000E+000
  0.000000000000000E+000
  0.000000000000000E+000
  0.000000000000000E+000
  0.000000000000000E+000
  0.000000000000000E+000
  0.000000000000000E+000
  0.000000000000000E+000
  0.000000000000000E+000
  0.000000000000000E+000
  0.000000000000000E+000
  0.000000000000000E+000
  0.000000000000000E+000
  0.000000000000000E+000
  0.000000000000000E+000
  0.000000000000000E+000
  0.000000000000000E+000
  0.000000000000000E+000
  0.000000000000000E+000
  0.000000000000000E+000
  0.000000000000000E+000
  0.000000000000000E+000
  0.000000000000000E+000
  0.000000000000000E+000
  0.000000000000000E+000
  0.000000000000000E+000
  0.000000000000000E+000
  0.000000000000000E+000
  0.000000000000000E+000
  0.000000000000000E+000
  0.000000000000000E+000
  0.000000000000000E+000
  0.000000000000000E+000
  0.000000000000000E+000
  0.000000000000000E+000
  0.000000000000000E+000
  0.000000000000000E+000
  0.000000000000000E+000
  0.000000000000000E+000
  0.000000000000000E+000
  0.000000000000000E+000
  0.000000000000000E+000
  0.000000000000000E+000
  0.000000000000000E+000
  0.000000000000000E+000
  0.000000000000000E+000
  0.000000000000000E+000
  0.000000000000000E+000
  0.000000000000000E+000
  0.000000000000000E+000
  0.000000000000000E+000
  0.000000000000000E+000
  0.000000000000000E+000
  0.000000000000000E+000
  0.000000000000000E+000
  0.000000000000000E+000
  0.000000000000000E+000
  0.000000000000000E+000
  0.000000000000000E+000
  0.000000000000000E+000
  0.000000000000000E+000
  0.000000000000000E+000
  0.000000000000000E+000
  0.000000000000000E+000
  0.000000000000000E+000
  0.000000000000000E+000
  0.000000000000000E+000
  0.000000000000000E+000
  0.000000000000000E+000
  0.000000000000000E+000
  0.000000000000000E+000
  0.000000000000000E+000
  0.000000000000000E+000
  0.000000000000000E+000
  0.000000000000000E+000
  0.000000000000000E+000
  0.000000000000000E+000
  0.000000000000000E+000
  0.000000000000000E+000
  0.000000000000000E+000
  0.000000000000000E+000
  0.000000000000000E+000
  0.000000000000000E+000
  0.000000000000000E+000
  0.000000000000000E+000
  0.000000000000000E+000
  0.000000000000000E+000
  0.000000000000000E+000
  0.000000000000000E+000
  0.000000000000000E+000
  0.000000000000000E+000
  0.000000000000000E+000
  0.000000000000000E+000
  0.000000000000000E+000
  0.000000000000000E+000
  0.000000000000000E+000
  0.000000000000000E+000
  0.000000000000000E+000
  0.000000000000000E+000
  0.000000000000000E+000
  0.000000000000000E+000
  0.000000000000000E+000
  0.000000000000000E+000
  0.000000000000000E+000
  0.000000000000000E+000
  0.000000000000000E+000
  0.000000000000000E+000
  0.000000000000000E+000
  0.000000000000000E+000
  0.000000000000000E+000
  0.000000000000000E+000
  0.000000000000000E+000
  0.000000000000000E+000
  0.000000000000000E+000
  0.000000000000000E+000
  0.000000000000000E+000
  0.000000000000000E+000
  0.000000000000000E+000
  0.000000000000000E+000
  0.000000000000000E+000
  0.000000000000000E+000
  0.000000000000000E+000
  0.000000000000000E+000
  0.000000000000000E+000
  0.000000000000000E+000
  0.000000000000000E+000
  0.000000000000000E+000
  0.000000000000000E+000
  0.000000000000000E+000
  0.000000000000000E+000
  0.000000000000000E+000
  0.000000000000000E+000
  0.000000000000000E+000
  0.000000000000000E+000
  0.000000000000000E+000
  0.000000000000000E+000
  0.000000000000000E+000
  0.000000000000000E+000
  0.000000000000000E+000
  0.000000000000000E+000
  0.000000000000000E+000
  0.000000000000000E+000
  0.000000000000000E+000
  0.000000000000000E+000
  0.000000000000000E+000
  0.000000000000000E+000
  0.000000000000000E+000
  0.000000000000000E+000
  0.000000000000000E+000
  0.000000000000000E+000
  0.000000000000000E+000
  0.000000000000000E+000
  0.000000000000000E+000
  0.000000000000000E+000
  0.000000000000000E+000
  0.000000000000000E+000
  0.000000000000000E+000
  0.000000000000000E+000
  0.000000000000000E+000
  0.000000000000000E+000
  0.000000000000000E+000
  0.000000000000000E+000
  0.000000000000000E+000
  0.000000000000000E+000
  0.000000000000000E+000
  0.000000000000000E+000
  0.000000000000000E+000
  0.000000000000000E+000
  0.000000000000000E+000
  0.000000000000000E+000
  0.000000000000000E+000
  0.000000000000000E+000
  0.000000000000000E+000
  0.000000000000000E+000
  0.000000000000000E+000
  0.000000000000000E+000
  0.000000000000000E+000
  0.000000000000000E+000
  0.000000000000000E+000
  0.000000000000000E+000
  0.000000000000000E+000
  0.000000000000000E+000
  0.000000000000000E+000
  0.000000000000000E+000
  0.000000000000000E+000
  0.000000000000000E+000
  0.000000000000000E+000
  0.000000000000000E+000
  0.000000000000000E+000
  0.000000000000000E+000
  0.000000000000000E+000
  0.000000000000000E+000
  0.000000000000000E+000
  0.000000000000000E+000
  0.000000000000000E+000
  0.000000000000000E+000
  0.000000000000000E+000
  0.000000000000000E+000
  0.000000000000000E+000
  0.000000000000000E+000
  0.000000000000000E+000
  0.000000000000000E+000
  0.000000000000000E+000
  0.000000000000000E+000
  0.000000000000000E+000
  0.000000000000000E+000
  0.000000000000000E+000
  0.000000000000000E+000
  0.000000000000000E+000
  0.000000000000000E+000
  0.000000000000000E+000
  0.000000000000000E+000
  0.000000000000000E+000
  0.000000000000000E+000
  0.000000000000000E+000
  0.000000000000000E+000
  0.000000000000000E+000
  0.000000000000000E+000
  0.000000000000000E+000
  0.000000000000000E+000
  0.000000000000000E+000
  0.000000000000000E+000
  0.000000000000000E+000
  0.000000000000000E+000
  0.000000000000000E+000
  0.000000000000000E+000
  0.000000000000000E+000
  0.000000000000000E+000
  0.000000000000000E+000
  0.000000000000000E+000
  0.000000000000000E+000
  0.000000000000000E+000
  0.000000000000000E+000
  0.000000000000000E+000
  0.000000000000000E+000
  0.000000000000000E+000
  0.000000000000000E+000
  0.000000000000000E+000
  0.000000000000000E+000
  0.000000000000000E+000
  0.000000000000000E+000
  0.000000000000000E+000
  0.000000000000000E+000
  0.000000000000000E+000
  0.000000000000000E+000
  0.000000000000000E+000
  0.000000000000000E+000
  0.000000000000000E+000
  0.000000000000000E+000
  0.000000000000000E+000
  0.000000000000000E+000
  0.000000000000000E+000
  0.000000000000000E+000
  0.000000000000000E+000
  0.000000000000000E+000
  0.000000000000000E+000
  0.000000000000000E+000
  0.000000000000000E+000
  0.000000000000000E+000
  0.000000000000000E+000
  0.000000000000000E+000
  0.000000000000000E+000
  0.000000000000000E+000
  0.000000000000000E+000
  0.000000000000000E+000
  0.000000000000000E+000
  0.000000000000000E+000
  0.000000000000000E+000
  0.000000000000000E+000
  0.000000000000000E+000
  0.000000000000000E+000
  0.000000000000000E+000
  0.000000000000000E+000
  0.000000000000000E+000
  0.000000000000000E+000
  0.000000000000000E+000
  0.000000000000000E+000
  0.000000000000000E+000
  0.000000000000000E+000
  0.000000000000000E+000
  0.000000000000000E+000
  0.000000000000000E+000
  0.000000000000000E+000
  0.000000000000000E+000
  0.000000000000000E+000
  0.000000000000000E+000
  0.000000000000000E+000
  0.000000000000000E+000
  0.000000000000000E+000
  0.000000000000000E+000
  0.000000000000000E+000
  0.000000000000000E+000
  0.000000000000000E+000
  0.000000000000000E+000
  0.000000000000000E+000
  0.000000000000000E+000
  0.000000000000000E+000
  0.000000000000000E+000
  0.000000000000000E+000
  0.000000000000000E+000
  0.000000000000000E+000
  0.000000000000000E+000
  0.000000000000000E+000
  0.000000000000000E+000
  0.000000000000000E+000
  0.000000000000000E+000
  0.000000000000000E+000
  0.000000000000000E+000
  0.000000000000000E+000
  0.000000000000000E+000
  0.000000000000000E+000
  0.000000000000000E+000
  0.000000000000000E+000
  0.000000000000000E+000
  0.000000000000000E+000
  0.000000000000000E+000
  0.000000000000000E+000
  0.000000000000000E+000
  0.000000000000000E+000
  0.000000000000000E+000
  0.000000000000000E+000
  0.000000000000000E+000
  0.000000000000000E+000
  0.000000000000000E+000
  0.000000000000000E+000
  0.000000000000000E+000
  0.000000000000000E+000
  0.000000000000000E+000
  0.000000000000000E+000
  0.000000000000000E+000
  0.000000000000000E+000
  0.000000000000000E+000
  0.000000000000000E+000
  0.000000000000000E+000
  0.000000000000000E+000
  0.000000000000000E+000
  0.000000000000000E+000
  0.000000000000000E+000
  0.000000000000000E+000
  0.000000000000000E+000
  0.000000000000000E+000
  0.000000000000000E+000
  0.000000000000000E+000
  0.000000000000000E+000
  0.000000000000000E+000
  0.000000000000000E+000
  0.000000000000000E+000
  0.000000000000000E+000
  0.000000000000000E+000
  0.000000000000000E+000
  0.000000000000000E+000
  0.000000000000000E+000
  0.000000000000000E+000
  0.000000000000000E+000
  0.000000000000000E+000
  0.000000000000000E+000
  0.000000000000000E+000
  0.000000000000000E+000
  0.000000000000000E+000
  0.000000000000000E+000
  0.000000000000000E+000
  0.000000000000000E+000
  0.000000000000000E+000
  0.000000000000000E+000
  0.000000000000000E+000
  0.000000000000000E+000
  0.000000000000000E+000
  0.000000000000000E+000
  0.000000000000000E+000
  0.000000000000000E+000
  0.000000000000000E+000
  0.000000000000000E+000
  0.000000000000000E+000
  0.000000000000000E+000
  0.000000000000000E+000
  0.000000000000000E+000
  0.000000000000000E+000
  0.000000000000000E+000
  0.000000000000000E+000
  0.000000000000000E+000
  0.000000000000000E+000
  0.000000000000000E+000
  0.000000000000000E+000
  0.000000000000000E+000
  0.000000000000000E+000
  0.000000000000000E+000
  0.000000000000000E+000
  0.000000000000000E+000
  0.000000000000000E+000
  0.000000000000000E+000
  0.000000000000000E+000
  0.000000000000000E+000
  0.000000000000000E+000
  0.000000000000000E+000
  0.000000000000000E+000
  0.000000000000000E+000
  0.000000000000000E+000
  0.000000000000000E+000
  0.000000000000000E+000
  0.000000000000000E+000
  0.000000000000000E+000
  0.000000000000000E+000
  0.000000000000000E+000
  0.000000000000000E+000
  0.000000000000000E+000
  0.000000000000000E+000
  0.000000000000000E+000
  0.000000000000000E+000
  0.000000000000000E+000
  0.000000000000000E+000
  0.000000000000000E+000
  0.000000000000000E+000
  0.000000000000000E+000
  0.000000000000000E+000
  0.000000000000000E+000
  0.000000000000000E+000
  0.000000000000000E+000
  0.000000000000000E+000
  0.000000000000000E+000
  0.000000000000000E+000
  0.000000000000000E+000
  0.000000000000000E+000
  0.000000000000000E+000
  0.000000000000000E+000
  0.000000000000000E+000
  0.000000000000000E+000
  0.000000000000000E+000
  0.000000000000000E+000
  0.000000000000000E+000
  0.000000000000000E+000
  0.000000000000000E+000
  0.000000000000000E+000
  0.000000000000000E+000
  0.000000000000000E+000
  0.000000000000000E+000
  0.000000000000000E+000
  0.000000000000000E+000
  0.000000000000000E+000
  0.000000000000000E+000
  0.000000000000000E+000
  0.000000000000000E+000
  0.000000000000000E+000
  0.000000000000000E+000
  0.000000000000000E+000
  0.000000000000000E+000
  0.000000000000000E+000
  0.000000000000000E+000
  0.000000000000000E+000
  0.000000000000000E+000
  0.000000000000000E+000
  0.000000000000000E+000
  0.000000000000000E+000
  0.000000000000000E+000
  0.000000000000000E+000
  0.000000000000000E+000
  0.000000000000000E+000
  0.000000000000000E+000
  0.000000000000000E+000
  0.000000000000000E+000
  0.000000000000000E+000
  0.000000000000000E+000
  0.000000000000000E+000
  0.000000000000000E+000
  0.000000000000000E+000
  0.000000000000000E+000
  0.000000000000000E+000
  0.000000000000000E+000
  0.000000000000000E+000
  0.000000000000000E+000
  0.000000000000000E+000
  0.000000000000000E+000
  0.000000000000000E+000
  0.000000000000000E+000
  0.000000000000000E+000
  0.000000000000000E+000
  0.000000000000000E+000
  0.000000000000000E+000
  0.000000000000000E+000
  0.000000000000000E+000
  0.000000000000000E+000
  0.000000000000000E+000
  0.000000000000000E+000
  0.000000000000000E+000
  0.000000000000000E+000
  0.000000000000000E+000
  0.000000000000000E+000
  0.000000000000000E+000
  0.000000000000000E+000
  0.000000000000000E+000
  0.000000000000000E+000
  0.000000000000000E+000
  0.000000000000000E+000
  0.000000000000000E+000
  0.000000000000000E+000
  0.000000000000000E+000
  0.000000000000000E+000
  0.000000000000000E+000
  0.000000000000000E+000
  0.000000000000000E+000
  0.000000000000000E+000
  0.000000000000000E+000
  0.000000000000000E+000
  0.000000000000000E+000
  0.000000000000000E+000
  0.000000000000000E+000
  0.000000000000000E+000
  0.000000000000000E+000
  0.000000000000000E+000
  0.000000000000000E+000
  0.000000000000000E+000
  0.000000000000000E+000
  0.000000000000000E+000
  0.000000000000000E+000
  0.000000000000000E+000
  0.000000000000000E+000
  0.000000000000000E+000
  0.000000000000000E+000
  0.000000000000000E+000
  0.000000000000000E+000
  0.000000000000000E+000
  0.000000000000000E+000
  0.000000000000000E+000
  0.000000000000000E+000
  0.000000000000000E+000
  0.000000000000000E+000
  0.000000000000000E+000
  0.000000000000000E+000
  0.000000000000000E+000
  0.000000000000000E+000
  0.000000000000000E+000
  0.000000000000000E+000
  0.000000000000000E+000
  0.000000000000000E+000
  0.000000000000000E+000
  0.000000000000000E+000
  0.000000000000000E+000
  0.000000000000000E+000
  0.000000000000000E+000
  0.000000000000000E+000
  0.000000000000000E+000
  0.000000000000000E+000
  0.000000000000000E+000
  0.000000000000000E+000
  0.000000000000000E+000
  0.000000000000000E+000
  0.000000000000000E+000
  0.000000000000000E+000
  0.000000000000000E+000
  0.000000000000000E+000
  0.000000000000000E+000
  0.000000000000000E+000
  0.000000000000000E+000
  0.000000000000000E+000
  0.000000000000000E+000
  0.000000000000000E+000
  0.000000000000000E+000
  0.000000000000000E+000
  0.000000000000000E+000
  0.000000000000000E+000
  0.000000000000000E+000
  0.000000000000000E+000
  0.000000000000000E+000
  0.000000000000000E+000
  0.000000000000000E+000
  0.000000000000000E+000
  0.000000000000000E+000
  0.000000000000000E+000
  0.000000000000000E+000
  0.000000000000000E+000
  0.000000000000000E+000
  0.000000000000000E+000
  0.000000000000000E+000
  0.000000000000000E+000
  0.000000000000000E+000
  0.000000000000000E+000
  0.000000000000000E+000
  0.000000000000000E+000
  0.000000000000000E+000
  0.000000000000000E+000
  0.000000000000000E+000
  0.000000000000000E+000
  0.000000000000000E+000
  0.000000000000000E+000
  0.000000000000000E+000
  0.000000000000000E+000
  0.000000000000000E+000
  0.000000000000000E+000
  0.000000000000000E+000
  0.000000000000000E+000
  0.000000000000000E+000
  0.000000000000000E+000
  0.000000000000000E+000
  0.000000000000000E+000
  0.000000000000000E+000
  0.000000000000000E+000
  0.000000000000000E+000
  0.000000000000000E+000
  0.000000000000000E+000
  0.000000000000000E+000
  0.000000000000000E+000
  0.000000000000000E+000
  0.000000000000000E+000
  0.000000000000000E+000
  0.000000000000000E+000
  0.000000000000000E+000
  0.000000000000000E+000
  0.000000000000000E+000
  0.000000000000000E+000
  0.000000000000000E+000
  0.000000000000000E+000
  0.000000000000000E+000
  0.000000000000000E+000
  0.000000000000000E+000
  0.000000000000000E+000
  0.000000000000000E+000
  0.000000000000000E+000
  0.000000000000000E+000
  0.000000000000000E+000
  0.000000000000000E+000
  0.000000000000000E+000
  0.000000000000000E+000
  0.000000000000000E+000
  0.000000000000000E+000
  0.000000000000000E+000
  0.000000000000000E+000
  0.000000000000000E+000
  0.000000000000000E+000
  0.000000000000000E+000
  0.000000000000000E+000
  0.000000000000000E+000
  0.000000000000000E+000
  0.000000000000000E+000
  0.000000000000000E+000
  0.000000000000000E+000
  0.000000000000000E+000
  0.000000000000000E+000
  0.000000000000000E+000
  0.000000000000000E+000
  0.000000000000000E+000
  0.000000000000000E+000
  0.000000000000000E+000
  0.000000000000000E+000
  0.000000000000000E+000
  0.000000000000000E+000
  0.000000000000000E+000
  0.000000000000000E+000
  0.000000000000000E+000
  0.000000000000000E+000
  0.000000000000000E+000
  0.000000000000000E+000
  0.000000000000000E+000
  0.000000000000000E+000
  0.000000000000000E+000
  0.000000000000000E+000
  0.000000000000000E+000
  0.000000000000000E+000
  0.000000000000000E+000
  0.000000000000000E+000
  0.000000000000000E+000
  0.000000000000000E+000
  0.000000000000000E+000
  0.000000000000000E+000
  0.000000000000000E+000
  0.000000000000000E+000
  0.000000000000000E+000
  0.000000000000000E+000
  0.000000000000000E+000
  0.000000000000000E+000
  0.000000000000000E+000
  0.000000000000000E+000
  0.000000000000000E+000
  0.000000000000000E+000
  0.000000000000000E+000
  0.000000000000000E+000
  0.000000000000000E+000
  0.000000000000000E+000
  0.000000000000000E+000
  0.000000000000000E+000
  0.000000000000000E+000
  0.000000000000000E+000
  0.000000000000000E+000
  0.000000000000000E+000
  0.000000000000000E+000
  0.000000000000000E+000
  0.000000000000000E+000
  0.000000000000000E+000
  0.000000000000000E+000
  0.000000000000000E+000
  0.000000000000000E+000
  0.000000000000000E+000
  0.000000000000000E+000
  0.000000000000000E+000
  0.000000000000000E+000
  0.000000000000000E+000
  0.000000000000000E+000
  0.000000000000000E+000
  0.000000000000000E+000
  0.000000000000000E+000
  0.000000000000000E+000
  0.000000000000000E+000
  0.000000000000000E+000
  0.000000000000000E+000
  0.000000000000000E+000
  0.000000000000000E+000
  0.000000000000000E+000
  0.000000000000000E+000
  0.000000000000000E+000
  0.000000000000000E+000
  0.000000000000000E+000
  0.000000000000000E+000
  0.000000000000000E+000
  0.000000000000000E+000
  0.000000000000000E+000
  0.000000000000000E+000
  0.000000000000000E+000
  0.000000000000000E+000
  0.000000000000000E+000
  0.000000000000000E+000
  0.000000000000000E+000
  0.000000000000000E+000
  0.000000000000000E+000
  0.000000000000000E+000
  0.000000000000000E+000
  0.000000000000000E+000
  0.000000000000000E+000
  0.000000000000000E+000
  0.000000000000000E+000
  0.000000000000000E+000
  0.000000000000000E+000
  0.000000000000000E+000
  0.000000000000000E+000
  0.000000000000000E+000
  0.000000000000000E+000
  0.000000000000000E+000
  0.000000000000000E+000
  0.000000000000000E+000
  0.000000000000000E+000
  0.000000000000000E+000
  0.000000000000000E+000
  0.000000000000000E+000
  0.000000000000000E+000
  0.000000000000000E+000
  0.000000000000000E+000
  0.000000000000000E+000
  0.000000000000000E+000
  0.000000000000000E+000
  0.000000000000000E+000
  0.000000000000000E+000
  0.000000000000000E+000
  0.000000000000000E+000
  0.000000000000000E+000
  0.000000000000000E+000
  0.000000000000000E+000
  0.000000000000000E+000
  0.000000000000000E+000
  0.000000000000000E+000
  0.000000000000000E+000
  0.000000000000000E+000
  0.000000000000000E+000
  0.000000000000000E+000
  0.000000000000000E+000
  0.000000000000000E+000
  0.000000000000000E+000
  0.000000000000000E+000
  0.000000000000000E+000
  0.000000000000000E+000
  0.000000000000000E+000
  0.000000000000000E+000
  0.000000000000000E+000
  0.000000000000000E+000
  0.000000000000000E+000
  0.000000000000000E+000
  0.000000000000000E+000
  0.000000000000000E+000
  0.000000000000000E+000
  0.000000000000000E+000
  0.000000000000000E+000
  0.000000000000000E+000
  0.000000000000000E+000
  0.000000000000000E+000
  0.000000000000000E+000
  0.000000000000000E+000
  0.000000000000000E+000
  0.000000000000000E+000
  0.000000000000000E+000
  0.000000000000000E+000
  0.000000000000000E+000
  0.000000000000000E+000
  0.000000000000000E+000
  0.000000000000000E+000
  0.000000000000000E+000
  0.000000000000000E+000
  0.000000000000000E+000
  0.000000000000000E+000
  0.000000000000000E+000
  0.000000000000000E+000
  0.000000000000000E+000
  0.000000000000000E+000
  0.000000000000000E+000
  0.000000000000000E+000
  0.000000000000000E+000
  0.000000000000000E+000
  0.000000000000000E+000
  0.000000000000000E+000
  0.000000000000000E+000
  0.000000000000000E+000
  0.000000000000000E+000
  0.000000000000000E+000
  0.000000000000000E+000
  0.000000000000000E+000
  0.000000000000000E+000
  0.000000000000000E+000
  0.000000000000000E+000
  0.000000000000000E+000
  0.000000000000000E+000
  0.000000000000000E+000
  0.000000000000000E+000
  0.000000000000000E+000
  0.000000000000000E+000
  0.000000000000000E+000
  0.000000000000000E+000
  0.000000000000000E+000
  0.000000000000000E+000
  0.000000000000000E+000
  0.000000000000000E+000
  0.000000000000000E+000
  0.000000000000000E+000
  0.000000000000000E+000
  0.000000000000000E+000
  0.000000000000000E+000
  0.000000000000000E+000
  0.000000000000000E+000
  0.000000000000000E+000
  0.000000000000000E+000
  0.000000000000000E+000
  0.000000000000000E+000
  0.000000000000000E+000
  0.000000000000000E+000
  0.000000000000000E+000
  0.000000000000000E+000
  0.000000000000000E+000
  0.000000000000000E+000
  0.000000000000000E+000
  0.000000000000000E+000
  0.000000000000000E+000
  0.000000000000000E+000
  0.000000000000000E+000
  0.000000000000000E+000
  0.000000000000000E+000
  0.000000000000000E+000
  0.000000000000000E+000
  0.000000000000000E+000
  0.000000000000000E+000
  0.000000000000000E+000
  0.000000000000000E+000
  0.000000000000000E+000
  0.000000000000000E+000
  0.000000000000000E+000
  0.000000000000000E+000
  0.000000000000000E+000
  0.000000000000000E+000
  0.000000000000000E+000
  0.000000000000000E+000
  0.000000000000000E+000
  0.000000000000000E+000
  0.000000000000000E+000
  0.000000000000000E+000
  0.000000000000000E+000
  0.000000000000000E+000
  0.000000000000000E+000
  0.000000000000000E+000
  0.000000000000000E+000
  0.000000000000000E+000
  0.000000000000000E+000
  0.000000000000000E+000
  0.000000000000000E+000
  0.000000000000000E+000
  0.000000000000000E+000
  0.000000000000000E+000
  0.000000000000000E+000
  0.000000000000000E+000
  0.000000000000000E+000
  0.000000000000000E+000
  0.000000000000000E+000
  0.000000000000000E+000
  0.000000000000000E+000
  0.000000000000000E+000
  0.000000000000000E+000
  0.000000000000000E+000
  0.000000000000000E+000
  0.000000000000000E+000
  0.000000000000000E+000
  0.000000000000000E+000
  0.000000000000000E+000
  0.000000000000000E+000
  0.000000000000000E+000
  0.000000000000000E+000
  0.000000000000000E+000
  0.000000000000000E+000
  0.000000000000000E+000
  0.000000000000000E+000
  0.000000000000000E+000
  0.000000000000000E+000
  0.000000000000000E+000
  0.000000000000000E+000
  0.000000000000000E+000
  0.000000000000000E+000
  0.000000000000000E+000
  0.000000000000000E+000
  0.000000000000000E+000
  0.000000000000000E+000
  0.000000000000000E+000
  0.000000000000000E+000
  0.000000000000000E+000
  0.000000000000000E+000
  0.000000000000000E+000
  0.000000000000000E+000
  0.000000000000000E+000
  0.000000000000000E+000
  0.000000000000000E+000
  0.000000000000000E+000
  0.000000000000000E+000
  0.000000000000000E+000
  0.000000000000000E+000
  0.000000000000000E+000
  0.000000000000000E+000
  0.000000000000000E+000
  0.000000000000000E+000
  0.000000000000000E+000
  0.000000000000000E+000
  0.000000000000000E+000
  0.000000000000000E+000
  0.000000000000000E+000
  0.000000000000000E+000
  0.000000000000000E+000
  0.000000000000000E+000
  0.000000000000000E+000
  0.000000000000000E+000
  0.000000000000000E+000
  0.000000000000000E+000
  0.000000000000000E+000
  0.000000000000000E+000
  0.000000000000000E+000
  0.000000000000000E+000
  0.000000000000000E+000
  0.000000000000000E+000
  0.000000000000000E+000
  0.000000000000000E+000
  0.000000000000000E+000
  0.000000000000000E+000
  0.000000000000000E+000
  0.000000000000000E+000
  0.000000000000000E+000
  0.000000000000000E+000
  0.000000000000000E+000
  0.000000000000000E+000
  0.000000000000000E+000
  0.000000000000000E+000
