# vtk DataFile Version 3.0
vtk output
ASCII
DATASET UNSTRUCTURED_GRID
POINTS      5151 double 
  0.00000000E+00  1.00000000E+02  0.00000000E+00
  0.00000000E+00  9.80000000E+01  0.00000000E+00
  0.00000000E+00  9.60000000E+01  0.00000000E+00
  0.00000000E+00  9.40000000E+01  0.00000000E+00
  0.00000000E+00  9.20000000E+01  0.00000000E+00
  0.00000000E+00  9.00000000E+01  0.00000000E+00
  0.00000000E+00  8.80000000E+01  0.00000000E+00
  0.00000000E+00  8.60000000E+01  0.00000000E+00
  0.00000000E+00  8.40000000E+01  0.00000000E+00
  0.00000000E+00  8.20000000E+01  0.00000000E+00
  0.00000000E+00  8.00000000E+01  0.00000000E+00
  0.00000000E+00  7.80000000E+01  0.00000000E+00
  0.00000000E+00  7.60000000E+01  0.00000000E+00
  0.00000000E+00  7.40000000E+01  0.00000000E+00
  0.00000000E+00  7.20000000E+01  0.00000000E+00
  0.00000000E+00  7.00000000E+01  0.00000000E+00
  0.00000000E+00  6.80000000E+01  0.00000000E+00
  0.00000000E+00  6.60000000E+01  0.00000000E+00
  0.00000000E+00  6.40000000E+01  0.00000000E+00
  0.00000000E+00  6.20000000E+01  0.00000000E+00
  0.00000000E+00  6.00000000E+01  0.00000000E+00
  0.00000000E+00  5.80000000E+01  0.00000000E+00
  0.00000000E+00  5.60000000E+01  0.00000000E+00
  0.00000000E+00  5.40000000E+01  0.00000000E+00
  0.00000000E+00  5.20000000E+01  0.00000000E+00
  0.00000000E+00  5.00000000E+01  0.00000000E+00
  0.00000000E+00  4.80000000E+01  0.00000000E+00
  0.00000000E+00  4.60000000E+01  0.00000000E+00
  0.00000000E+00  4.40000000E+01  0.00000000E+00
  0.00000000E+00  4.20000000E+01  0.00000000E+00
  0.00000000E+00  4.00000000E+01  0.00000000E+00
  0.00000000E+00  3.80000000E+01  0.00000000E+00
  0.00000000E+00  3.60000000E+01  0.00000000E+00
  0.00000000E+00  3.40000000E+01  0.00000000E+00
  0.00000000E+00  3.20000000E+01  0.00000000E+00
  0.00000000E+00  3.00000000E+01  0.00000000E+00
  0.00000000E+00  2.80000000E+01  0.00000000E+00
  0.00000000E+00  2.60000000E+01  0.00000000E+00
  0.00000000E+00  2.40000000E+01  0.00000000E+00
  0.00000000E+00  2.20000000E+01  0.00000000E+00
  0.00000000E+00  2.00000000E+01  0.00000000E+00
  0.00000000E+00  1.80000000E+01  0.00000000E+00
  0.00000000E+00  1.60000000E+01  0.00000000E+00
  0.00000000E+00  1.40000000E+01  0.00000000E+00
  0.00000000E+00  1.20000000E+01  0.00000000E+00
  0.00000000E+00  1.00000000E+01  0.00000000E+00
  0.00000000E+00  8.00000000E+00  0.00000000E+00
  0.00000000E+00  6.00000000E+00  0.00000000E+00
  0.00000000E+00  4.00000000E+00  0.00000000E+00
  0.00000000E+00  2.00000000E+00  0.00000000E+00
  0.00000000E+00 -3.33066907E-14  0.00000000E+00
  1.00000000E+01  1.00000000E+02  0.00000000E+00
  1.00000000E+01  9.80000000E+01  0.00000000E+00
  1.00000000E+01  9.60000000E+01  0.00000000E+00
  1.00000000E+01  9.40000000E+01  0.00000000E+00
  1.00000000E+01  9.20000000E+01  0.00000000E+00
  1.00000000E+01  9.00000000E+01  0.00000000E+00
  1.00000000E+01  8.80000000E+01  0.00000000E+00
  1.00000000E+01  8.60000000E+01  0.00000000E+00
  1.00000000E+01  8.40000000E+01  0.00000000E+00
  1.00000000E+01  8.20000000E+01  0.00000000E+00
  1.00000000E+01  8.00000000E+01  0.00000000E+00
  1.00000000E+01  7.80000000E+01  0.00000000E+00
  1.00000000E+01  7.60000000E+01  0.00000000E+00
  1.00000000E+01  7.40000000E+01  0.00000000E+00
  1.00000000E+01  7.20000000E+01  0.00000000E+00
  1.00000000E+01  7.00000000E+01  0.00000000E+00
  1.00000000E+01  6.80000000E+01  0.00000000E+00
  1.00000000E+01  6.60000000E+01  0.00000000E+00
  1.00000000E+01  6.40000000E+01  0.00000000E+00
  1.00000000E+01  6.20000000E+01  0.00000000E+00
  1.00000000E+01  6.00000000E+01  0.00000000E+00
  1.00000000E+01  5.80000000E+01  0.00000000E+00
  1.00000000E+01  5.60000000E+01  0.00000000E+00
  1.00000000E+01  5.40000000E+01  0.00000000E+00
  1.00000000E+01  5.20000000E+01  0.00000000E+00
  1.00000000E+01  5.00000000E+01  0.00000000E+00
  1.00000000E+01  4.80000000E+01  0.00000000E+00
  1.00000000E+01  4.60000000E+01  0.00000000E+00
  1.00000000E+01  4.40000000E+01  0.00000000E+00
  1.00000000E+01  4.20000000E+01  0.00000000E+00
  1.00000000E+01  4.00000000E+01  0.00000000E+00
  1.00000000E+01  3.80000000E+01  0.00000000E+00
  1.00000000E+01  3.60000000E+01  0.00000000E+00
  1.00000000E+01  3.40000000E+01  0.00000000E+00
  1.00000000E+01  3.20000000E+01  0.00000000E+00
  1.00000000E+01  3.00000000E+01  0.00000000E+00
  1.00000000E+01  2.80000000E+01  0.00000000E+00
  1.00000000E+01  2.60000000E+01  0.00000000E+00
  1.00000000E+01  2.40000000E+01  0.00000000E+00
  1.00000000E+01  2.20000000E+01  0.00000000E+00
  1.00000000E+01  2.00000000E+01  0.00000000E+00
  1.00000000E+01  1.80000000E+01  0.00000000E+00
  1.00000000E+01  1.60000000E+01  0.00000000E+00
  1.00000000E+01  1.40000000E+01  0.00000000E+00
  1.00000000E+01  1.20000000E+01  0.00000000E+00
  1.00000000E+01  1.00000000E+01  0.00000000E+00
  1.00000000E+01  8.00000000E+00  0.00000000E+00
  1.00000000E+01  6.00000000E+00  0.00000000E+00
  1.00000000E+01  4.00000000E+00  0.00000000E+00
  1.00000000E+01  2.00000000E+00  0.00000000E+00
  1.00000000E+01 -3.33066907E-14  0.00000000E+00
  2.00000000E+01  1.00000000E+02  0.00000000E+00
  2.00000000E+01  9.80000000E+01  0.00000000E+00
  2.00000000E+01  9.60000000E+01  0.00000000E+00
  2.00000000E+01  9.40000000E+01  0.00000000E+00
  2.00000000E+01  9.20000000E+01  0.00000000E+00
  2.00000000E+01  9.00000000E+01  0.00000000E+00
  2.00000000E+01  8.80000000E+01  0.00000000E+00
  2.00000000E+01  8.60000000E+01  0.00000000E+00
  2.00000000E+01  8.40000000E+01  0.00000000E+00
  2.00000000E+01  8.20000000E+01  0.00000000E+00
  2.00000000E+01  8.00000000E+01  0.00000000E+00
  2.00000000E+01  7.80000000E+01  0.00000000E+00
  2.00000000E+01  7.60000000E+01  0.00000000E+00
  2.00000000E+01  7.40000000E+01  0.00000000E+00
  2.00000000E+01  7.20000000E+01  0.00000000E+00
  2.00000000E+01  7.00000000E+01  0.00000000E+00
  2.00000000E+01  6.80000000E+01  0.00000000E+00
  2.00000000E+01  6.60000000E+01  0.00000000E+00
  2.00000000E+01  6.40000000E+01  0.00000000E+00
  2.00000000E+01  6.20000000E+01  0.00000000E+00
  2.00000000E+01  6.00000000E+01  0.00000000E+00
  2.00000000E+01  5.80000000E+01  0.00000000E+00
  2.00000000E+01  5.60000000E+01  0.00000000E+00
  2.00000000E+01  5.40000000E+01  0.00000000E+00
  2.00000000E+01  5.20000000E+01  0.00000000E+00
  2.00000000E+01  5.00000000E+01  0.00000000E+00
  2.00000000E+01  4.80000000E+01  0.00000000E+00
  2.00000000E+01  4.60000000E+01  0.00000000E+00
  2.00000000E+01  4.40000000E+01  0.00000000E+00
  2.00000000E+01  4.20000000E+01  0.00000000E+00
  2.00000000E+01  4.00000000E+01  0.00000000E+00
  2.00000000E+01  3.80000000E+01  0.00000000E+00
  2.00000000E+01  3.60000000E+01  0.00000000E+00
  2.00000000E+01  3.40000000E+01  0.00000000E+00
  2.00000000E+01  3.20000000E+01  0.00000000E+00
  2.00000000E+01  3.00000000E+01  0.00000000E+00
  2.00000000E+01  2.80000000E+01  0.00000000E+00
  2.00000000E+01  2.60000000E+01  0.00000000E+00
  2.00000000E+01  2.40000000E+01  0.00000000E+00
  2.00000000E+01  2.20000000E+01  0.00000000E+00
  2.00000000E+01  2.00000000E+01  0.00000000E+00
  2.00000000E+01  1.80000000E+01  0.00000000E+00
  2.00000000E+01  1.60000000E+01  0.00000000E+00
  2.00000000E+01  1.40000000E+01  0.00000000E+00
  2.00000000E+01  1.20000000E+01  0.00000000E+00
  2.00000000E+01  1.00000000E+01  0.00000000E+00
  2.00000000E+01  8.00000000E+00  0.00000000E+00
  2.00000000E+01  6.00000000E+00  0.00000000E+00
  2.00000000E+01  4.00000000E+00  0.00000000E+00
  2.00000000E+01  2.00000000E+00  0.00000000E+00
  2.00000000E+01 -3.33066907E-14  0.00000000E+00
  3.00000000E+01  1.00000000E+02  0.00000000E+00
  3.00000000E+01  9.80000000E+01  0.00000000E+00
  3.00000000E+01  9.60000000E+01  0.00000000E+00
  3.00000000E+01  9.40000000E+01  0.00000000E+00
  3.00000000E+01  9.20000000E+01  0.00000000E+00
  3.00000000E+01  9.00000000E+01  0.00000000E+00
  3.00000000E+01  8.80000000E+01  0.00000000E+00
  3.00000000E+01  8.60000000E+01  0.00000000E+00
  3.00000000E+01  8.40000000E+01  0.00000000E+00
  3.00000000E+01  8.20000000E+01  0.00000000E+00
  3.00000000E+01  8.00000000E+01  0.00000000E+00
  3.00000000E+01  7.80000000E+01  0.00000000E+00
  3.00000000E+01  7.60000000E+01  0.00000000E+00
  3.00000000E+01  7.40000000E+01  0.00000000E+00
  3.00000000E+01  7.20000000E+01  0.00000000E+00
  3.00000000E+01  7.00000000E+01  0.00000000E+00
  3.00000000E+01  6.80000000E+01  0.00000000E+00
  3.00000000E+01  6.60000000E+01  0.00000000E+00
  3.00000000E+01  6.40000000E+01  0.00000000E+00
  3.00000000E+01  6.20000000E+01  0.00000000E+00
  3.00000000E+01  6.00000000E+01  0.00000000E+00
  3.00000000E+01  5.80000000E+01  0.00000000E+00
  3.00000000E+01  5.60000000E+01  0.00000000E+00
  3.00000000E+01  5.40000000E+01  0.00000000E+00
  3.00000000E+01  5.20000000E+01  0.00000000E+00
  3.00000000E+01  5.00000000E+01  0.00000000E+00
  3.00000000E+01  4.80000000E+01  0.00000000E+00
  3.00000000E+01  4.60000000E+01  0.00000000E+00
  3.00000000E+01  4.40000000E+01  0.00000000E+00
  3.00000000E+01  4.20000000E+01  0.00000000E+00
  3.00000000E+01  4.00000000E+01  0.00000000E+00
  3.00000000E+01  3.80000000E+01  0.00000000E+00
  3.00000000E+01  3.60000000E+01  0.00000000E+00
  3.00000000E+01  3.40000000E+01  0.00000000E+00
  3.00000000E+01  3.20000000E+01  0.00000000E+00
  3.00000000E+01  3.00000000E+01  0.00000000E+00
  3.00000000E+01  2.80000000E+01  0.00000000E+00
  3.00000000E+01  2.60000000E+01  0.00000000E+00
  3.00000000E+01  2.40000000E+01  0.00000000E+00
  3.00000000E+01  2.20000000E+01  0.00000000E+00
  3.00000000E+01  2.00000000E+01  0.00000000E+00
  3.00000000E+01  1.80000000E+01  0.00000000E+00
  3.00000000E+01  1.60000000E+01  0.00000000E+00
  3.00000000E+01  1.40000000E+01  0.00000000E+00
  3.00000000E+01  1.20000000E+01  0.00000000E+00
  3.00000000E+01  1.00000000E+01  0.00000000E+00
  3.00000000E+01  8.00000000E+00  0.00000000E+00
  3.00000000E+01  6.00000000E+00  0.00000000E+00
  3.00000000E+01  4.00000000E+00  0.00000000E+00
  3.00000000E+01  2.00000000E+00  0.00000000E+00
  3.00000000E+01 -3.33066907E-14  0.00000000E+00
  4.00000000E+01  1.00000000E+02  0.00000000E+00
  4.00000000E+01  9.80000000E+01  0.00000000E+00
  4.00000000E+01  9.60000000E+01  0.00000000E+00
  4.00000000E+01  9.40000000E+01  0.00000000E+00
  4.00000000E+01  9.20000000E+01  0.00000000E+00
  4.00000000E+01  9.00000000E+01  0.00000000E+00
  4.00000000E+01  8.80000000E+01  0.00000000E+00
  4.00000000E+01  8.60000000E+01  0.00000000E+00
  4.00000000E+01  8.40000000E+01  0.00000000E+00
  4.00000000E+01  8.20000000E+01  0.00000000E+00
  4.00000000E+01  8.00000000E+01  0.00000000E+00
  4.00000000E+01  7.80000000E+01  0.00000000E+00
  4.00000000E+01  7.60000000E+01  0.00000000E+00
  4.00000000E+01  7.40000000E+01  0.00000000E+00
  4.00000000E+01  7.20000000E+01  0.00000000E+00
  4.00000000E+01  7.00000000E+01  0.00000000E+00
  4.00000000E+01  6.80000000E+01  0.00000000E+00
  4.00000000E+01  6.60000000E+01  0.00000000E+00
  4.00000000E+01  6.40000000E+01  0.00000000E+00
  4.00000000E+01  6.20000000E+01  0.00000000E+00
  4.00000000E+01  6.00000000E+01  0.00000000E+00
  4.00000000E+01  5.80000000E+01  0.00000000E+00
  4.00000000E+01  5.60000000E+01  0.00000000E+00
  4.00000000E+01  5.40000000E+01  0.00000000E+00
  4.00000000E+01  5.20000000E+01  0.00000000E+00
  4.00000000E+01  5.00000000E+01  0.00000000E+00
  4.00000000E+01  4.80000000E+01  0.00000000E+00
  4.00000000E+01  4.60000000E+01  0.00000000E+00
  4.00000000E+01  4.40000000E+01  0.00000000E+00
  4.00000000E+01  4.20000000E+01  0.00000000E+00
  4.00000000E+01  4.00000000E+01  0.00000000E+00
  4.00000000E+01  3.80000000E+01  0.00000000E+00
  4.00000000E+01  3.60000000E+01  0.00000000E+00
  4.00000000E+01  3.40000000E+01  0.00000000E+00
  4.00000000E+01  3.20000000E+01  0.00000000E+00
  4.00000000E+01  3.00000000E+01  0.00000000E+00
  4.00000000E+01  2.80000000E+01  0.00000000E+00
  4.00000000E+01  2.60000000E+01  0.00000000E+00
  4.00000000E+01  2.40000000E+01  0.00000000E+00
  4.00000000E+01  2.20000000E+01  0.00000000E+00
  4.00000000E+01  2.00000000E+01  0.00000000E+00
  4.00000000E+01  1.80000000E+01  0.00000000E+00
  4.00000000E+01  1.60000000E+01  0.00000000E+00
  4.00000000E+01  1.40000000E+01  0.00000000E+00
  4.00000000E+01  1.20000000E+01  0.00000000E+00
  4.00000000E+01  1.00000000E+01  0.00000000E+00
  4.00000000E+01  8.00000000E+00  0.00000000E+00
  4.00000000E+01  6.00000000E+00  0.00000000E+00
  4.00000000E+01  4.00000000E+00  0.00000000E+00
  4.00000000E+01  2.00000000E+00  0.00000000E+00
  4.00000000E+01 -3.33066907E-14  0.00000000E+00
  5.00000000E+01  1.00000000E+02  0.00000000E+00
  5.00000000E+01  9.80000000E+01  0.00000000E+00
  5.00000000E+01  9.60000000E+01  0.00000000E+00
  5.00000000E+01  9.40000000E+01  0.00000000E+00
  5.00000000E+01  9.20000000E+01  0.00000000E+00
  5.00000000E+01  9.00000000E+01  0.00000000E+00
  5.00000000E+01  8.80000000E+01  0.00000000E+00
  5.00000000E+01  8.60000000E+01  0.00000000E+00
  5.00000000E+01  8.40000000E+01  0.00000000E+00
  5.00000000E+01  8.20000000E+01  0.00000000E+00
  5.00000000E+01  8.00000000E+01  0.00000000E+00
  5.00000000E+01  7.80000000E+01  0.00000000E+00
  5.00000000E+01  7.60000000E+01  0.00000000E+00
  5.00000000E+01  7.40000000E+01  0.00000000E+00
  5.00000000E+01  7.20000000E+01  0.00000000E+00
  5.00000000E+01  7.00000000E+01  0.00000000E+00
  5.00000000E+01  6.80000000E+01  0.00000000E+00
  5.00000000E+01  6.60000000E+01  0.00000000E+00
  5.00000000E+01  6.40000000E+01  0.00000000E+00
  5.00000000E+01  6.20000000E+01  0.00000000E+00
  5.00000000E+01  6.00000000E+01  0.00000000E+00
  5.00000000E+01  5.80000000E+01  0.00000000E+00
  5.00000000E+01  5.60000000E+01  0.00000000E+00
  5.00000000E+01  5.40000000E+01  0.00000000E+00
  5.00000000E+01  5.20000000E+01  0.00000000E+00
  5.00000000E+01  5.00000000E+01  0.00000000E+00
  5.00000000E+01  4.80000000E+01  0.00000000E+00
  5.00000000E+01  4.60000000E+01  0.00000000E+00
  5.00000000E+01  4.40000000E+01  0.00000000E+00
  5.00000000E+01  4.20000000E+01  0.00000000E+00
  5.00000000E+01  4.00000000E+01  0.00000000E+00
  5.00000000E+01  3.80000000E+01  0.00000000E+00
  5.00000000E+01  3.60000000E+01  0.00000000E+00
  5.00000000E+01  3.40000000E+01  0.00000000E+00
  5.00000000E+01  3.20000000E+01  0.00000000E+00
  5.00000000E+01  3.00000000E+01  0.00000000E+00
  5.00000000E+01  2.80000000E+01  0.00000000E+00
  5.00000000E+01  2.60000000E+01  0.00000000E+00
  5.00000000E+01  2.40000000E+01  0.00000000E+00
  5.00000000E+01  2.20000000E+01  0.00000000E+00
  5.00000000E+01  2.00000000E+01  0.00000000E+00
  5.00000000E+01  1.80000000E+01  0.00000000E+00
  5.00000000E+01  1.60000000E+01  0.00000000E+00
  5.00000000E+01  1.40000000E+01  0.00000000E+00
  5.00000000E+01  1.20000000E+01  0.00000000E+00
  5.00000000E+01  1.00000000E+01  0.00000000E+00
  5.00000000E+01  8.00000000E+00  0.00000000E+00
  5.00000000E+01  6.00000000E+00  0.00000000E+00
  5.00000000E+01  4.00000000E+00  0.00000000E+00
  5.00000000E+01  2.00000000E+00  0.00000000E+00
  5.00000000E+01 -3.33066907E-14  0.00000000E+00
  6.00000000E+01  1.00000000E+02  0.00000000E+00
  6.00000000E+01  9.80000000E+01  0.00000000E+00
  6.00000000E+01  9.60000000E+01  0.00000000E+00
  6.00000000E+01  9.40000000E+01  0.00000000E+00
  6.00000000E+01  9.20000000E+01  0.00000000E+00
  6.00000000E+01  9.00000000E+01  0.00000000E+00
  6.00000000E+01  8.80000000E+01  0.00000000E+00
  6.00000000E+01  8.60000000E+01  0.00000000E+00
  6.00000000E+01  8.40000000E+01  0.00000000E+00
  6.00000000E+01  8.20000000E+01  0.00000000E+00
  6.00000000E+01  8.00000000E+01  0.00000000E+00
  6.00000000E+01  7.80000000E+01  0.00000000E+00
  6.00000000E+01  7.60000000E+01  0.00000000E+00
  6.00000000E+01  7.40000000E+01  0.00000000E+00
  6.00000000E+01  7.20000000E+01  0.00000000E+00
  6.00000000E+01  7.00000000E+01  0.00000000E+00
  6.00000000E+01  6.80000000E+01  0.00000000E+00
  6.00000000E+01  6.60000000E+01  0.00000000E+00
  6.00000000E+01  6.40000000E+01  0.00000000E+00
  6.00000000E+01  6.20000000E+01  0.00000000E+00
  6.00000000E+01  6.00000000E+01  0.00000000E+00
  6.00000000E+01  5.80000000E+01  0.00000000E+00
  6.00000000E+01  5.60000000E+01  0.00000000E+00
  6.00000000E+01  5.40000000E+01  0.00000000E+00
  6.00000000E+01  5.20000000E+01  0.00000000E+00
  6.00000000E+01  5.00000000E+01  0.00000000E+00
  6.00000000E+01  4.80000000E+01  0.00000000E+00
  6.00000000E+01  4.60000000E+01  0.00000000E+00
  6.00000000E+01  4.40000000E+01  0.00000000E+00
  6.00000000E+01  4.20000000E+01  0.00000000E+00
  6.00000000E+01  4.00000000E+01  0.00000000E+00
  6.00000000E+01  3.80000000E+01  0.00000000E+00
  6.00000000E+01  3.60000000E+01  0.00000000E+00
  6.00000000E+01  3.40000000E+01  0.00000000E+00
  6.00000000E+01  3.20000000E+01  0.00000000E+00
  6.00000000E+01  3.00000000E+01  0.00000000E+00
  6.00000000E+01  2.80000000E+01  0.00000000E+00
  6.00000000E+01  2.60000000E+01  0.00000000E+00
  6.00000000E+01  2.40000000E+01  0.00000000E+00
  6.00000000E+01  2.20000000E+01  0.00000000E+00
  6.00000000E+01  2.00000000E+01  0.00000000E+00
  6.00000000E+01  1.80000000E+01  0.00000000E+00
  6.00000000E+01  1.60000000E+01  0.00000000E+00
  6.00000000E+01  1.40000000E+01  0.00000000E+00
  6.00000000E+01  1.20000000E+01  0.00000000E+00
  6.00000000E+01  1.00000000E+01  0.00000000E+00
  6.00000000E+01  8.00000000E+00  0.00000000E+00
  6.00000000E+01  6.00000000E+00  0.00000000E+00
  6.00000000E+01  4.00000000E+00  0.00000000E+00
  6.00000000E+01  2.00000000E+00  0.00000000E+00
  6.00000000E+01 -3.33066907E-14  0.00000000E+00
  7.00000000E+01  1.00000000E+02  0.00000000E+00
  7.00000000E+01  9.80000000E+01  0.00000000E+00
  7.00000000E+01  9.60000000E+01  0.00000000E+00
  7.00000000E+01  9.40000000E+01  0.00000000E+00
  7.00000000E+01  9.20000000E+01  0.00000000E+00
  7.00000000E+01  9.00000000E+01  0.00000000E+00
  7.00000000E+01  8.80000000E+01  0.00000000E+00
  7.00000000E+01  8.60000000E+01  0.00000000E+00
  7.00000000E+01  8.40000000E+01  0.00000000E+00
  7.00000000E+01  8.20000000E+01  0.00000000E+00
  7.00000000E+01  8.00000000E+01  0.00000000E+00
  7.00000000E+01  7.80000000E+01  0.00000000E+00
  7.00000000E+01  7.60000000E+01  0.00000000E+00
  7.00000000E+01  7.40000000E+01  0.00000000E+00
  7.00000000E+01  7.20000000E+01  0.00000000E+00
  7.00000000E+01  7.00000000E+01  0.00000000E+00
  7.00000000E+01  6.80000000E+01  0.00000000E+00
  7.00000000E+01  6.60000000E+01  0.00000000E+00
  7.00000000E+01  6.40000000E+01  0.00000000E+00
  7.00000000E+01  6.20000000E+01  0.00000000E+00
  7.00000000E+01  6.00000000E+01  0.00000000E+00
  7.00000000E+01  5.80000000E+01  0.00000000E+00
  7.00000000E+01  5.60000000E+01  0.00000000E+00
  7.00000000E+01  5.40000000E+01  0.00000000E+00
  7.00000000E+01  5.20000000E+01  0.00000000E+00
  7.00000000E+01  5.00000000E+01  0.00000000E+00
  7.00000000E+01  4.80000000E+01  0.00000000E+00
  7.00000000E+01  4.60000000E+01  0.00000000E+00
  7.00000000E+01  4.40000000E+01  0.00000000E+00
  7.00000000E+01  4.20000000E+01  0.00000000E+00
  7.00000000E+01  4.00000000E+01  0.00000000E+00
  7.00000000E+01  3.80000000E+01  0.00000000E+00
  7.00000000E+01  3.60000000E+01  0.00000000E+00
  7.00000000E+01  3.40000000E+01  0.00000000E+00
  7.00000000E+01  3.20000000E+01  0.00000000E+00
  7.00000000E+01  3.00000000E+01  0.00000000E+00
  7.00000000E+01  2.80000000E+01  0.00000000E+00
  7.00000000E+01  2.60000000E+01  0.00000000E+00
  7.00000000E+01  2.40000000E+01  0.00000000E+00
  7.00000000E+01  2.20000000E+01  0.00000000E+00
  7.00000000E+01  2.00000000E+01  0.00000000E+00
  7.00000000E+01  1.80000000E+01  0.00000000E+00
  7.00000000E+01  1.60000000E+01  0.00000000E+00
  7.00000000E+01  1.40000000E+01  0.00000000E+00
  7.00000000E+01  1.20000000E+01  0.00000000E+00
  7.00000000E+01  1.00000000E+01  0.00000000E+00
  7.00000000E+01  8.00000000E+00  0.00000000E+00
  7.00000000E+01  6.00000000E+00  0.00000000E+00
  7.00000000E+01  4.00000000E+00  0.00000000E+00
  7.00000000E+01  2.00000000E+00  0.00000000E+00
  7.00000000E+01 -3.33066907E-14  0.00000000E+00
  8.00000000E+01  1.00000000E+02  0.00000000E+00
  8.00000000E+01  9.80000000E+01  0.00000000E+00
  8.00000000E+01  9.60000000E+01  0.00000000E+00
  8.00000000E+01  9.40000000E+01  0.00000000E+00
  8.00000000E+01  9.20000000E+01  0.00000000E+00
  8.00000000E+01  9.00000000E+01  0.00000000E+00
  8.00000000E+01  8.80000000E+01  0.00000000E+00
  8.00000000E+01  8.60000000E+01  0.00000000E+00
  8.00000000E+01  8.40000000E+01  0.00000000E+00
  8.00000000E+01  8.20000000E+01  0.00000000E+00
  8.00000000E+01  8.00000000E+01  0.00000000E+00
  8.00000000E+01  7.80000000E+01  0.00000000E+00
  8.00000000E+01  7.60000000E+01  0.00000000E+00
  8.00000000E+01  7.40000000E+01  0.00000000E+00
  8.00000000E+01  7.20000000E+01  0.00000000E+00
  8.00000000E+01  7.00000000E+01  0.00000000E+00
  8.00000000E+01  6.80000000E+01  0.00000000E+00
  8.00000000E+01  6.60000000E+01  0.00000000E+00
  8.00000000E+01  6.40000000E+01  0.00000000E+00
  8.00000000E+01  6.20000000E+01  0.00000000E+00
  8.00000000E+01  6.00000000E+01  0.00000000E+00
  8.00000000E+01  5.80000000E+01  0.00000000E+00
  8.00000000E+01  5.60000000E+01  0.00000000E+00
  8.00000000E+01  5.40000000E+01  0.00000000E+00
  8.00000000E+01  5.20000000E+01  0.00000000E+00
  8.00000000E+01  5.00000000E+01  0.00000000E+00
  8.00000000E+01  4.80000000E+01  0.00000000E+00
  8.00000000E+01  4.60000000E+01  0.00000000E+00
  8.00000000E+01  4.40000000E+01  0.00000000E+00
  8.00000000E+01  4.20000000E+01  0.00000000E+00
  8.00000000E+01  4.00000000E+01  0.00000000E+00
  8.00000000E+01  3.80000000E+01  0.00000000E+00
  8.00000000E+01  3.60000000E+01  0.00000000E+00
  8.00000000E+01  3.40000000E+01  0.00000000E+00
  8.00000000E+01  3.20000000E+01  0.00000000E+00
  8.00000000E+01  3.00000000E+01  0.00000000E+00
  8.00000000E+01  2.80000000E+01  0.00000000E+00
  8.00000000E+01  2.60000000E+01  0.00000000E+00
  8.00000000E+01  2.40000000E+01  0.00000000E+00
  8.00000000E+01  2.20000000E+01  0.00000000E+00
  8.00000000E+01  2.00000000E+01  0.00000000E+00
  8.00000000E+01  1.80000000E+01  0.00000000E+00
  8.00000000E+01  1.60000000E+01  0.00000000E+00
  8.00000000E+01  1.40000000E+01  0.00000000E+00
  8.00000000E+01  1.20000000E+01  0.00000000E+00
  8.00000000E+01  1.00000000E+01  0.00000000E+00
  8.00000000E+01  8.00000000E+00  0.00000000E+00
  8.00000000E+01  6.00000000E+00  0.00000000E+00
  8.00000000E+01  4.00000000E+00  0.00000000E+00
  8.00000000E+01  2.00000000E+00  0.00000000E+00
  8.00000000E+01 -3.33066907E-14  0.00000000E+00
  9.00000000E+01  1.00000000E+02  0.00000000E+00
  9.00000000E+01  9.80000000E+01  0.00000000E+00
  9.00000000E+01  9.60000000E+01  0.00000000E+00
  9.00000000E+01  9.40000000E+01  0.00000000E+00
  9.00000000E+01  9.20000000E+01  0.00000000E+00
  9.00000000E+01  9.00000000E+01  0.00000000E+00
  9.00000000E+01  8.80000000E+01  0.00000000E+00
  9.00000000E+01  8.60000000E+01  0.00000000E+00
  9.00000000E+01  8.40000000E+01  0.00000000E+00
  9.00000000E+01  8.20000000E+01  0.00000000E+00
  9.00000000E+01  8.00000000E+01  0.00000000E+00
  9.00000000E+01  7.80000000E+01  0.00000000E+00
  9.00000000E+01  7.60000000E+01  0.00000000E+00
  9.00000000E+01  7.40000000E+01  0.00000000E+00
  9.00000000E+01  7.20000000E+01  0.00000000E+00
  9.00000000E+01  7.00000000E+01  0.00000000E+00
  9.00000000E+01  6.80000000E+01  0.00000000E+00
  9.00000000E+01  6.60000000E+01  0.00000000E+00
  9.00000000E+01  6.40000000E+01  0.00000000E+00
  9.00000000E+01  6.20000000E+01  0.00000000E+00
  9.00000000E+01  6.00000000E+01  0.00000000E+00
  9.00000000E+01  5.80000000E+01  0.00000000E+00
  9.00000000E+01  5.60000000E+01  0.00000000E+00
  9.00000000E+01  5.40000000E+01  0.00000000E+00
  9.00000000E+01  5.20000000E+01  0.00000000E+00
  9.00000000E+01  5.00000000E+01  0.00000000E+00
  9.00000000E+01  4.80000000E+01  0.00000000E+00
  9.00000000E+01  4.60000000E+01  0.00000000E+00
  9.00000000E+01  4.40000000E+01  0.00000000E+00
  9.00000000E+01  4.20000000E+01  0.00000000E+00
  9.00000000E+01  4.00000000E+01  0.00000000E+00
  9.00000000E+01  3.80000000E+01  0.00000000E+00
  9.00000000E+01  3.60000000E+01  0.00000000E+00
  9.00000000E+01  3.40000000E+01  0.00000000E+00
  9.00000000E+01  3.20000000E+01  0.00000000E+00
  9.00000000E+01  3.00000000E+01  0.00000000E+00
  9.00000000E+01  2.80000000E+01  0.00000000E+00
  9.00000000E+01  2.60000000E+01  0.00000000E+00
  9.00000000E+01  2.40000000E+01  0.00000000E+00
  9.00000000E+01  2.20000000E+01  0.00000000E+00
  9.00000000E+01  2.00000000E+01  0.00000000E+00
  9.00000000E+01  1.80000000E+01  0.00000000E+00
  9.00000000E+01  1.60000000E+01  0.00000000E+00
  9.00000000E+01  1.40000000E+01  0.00000000E+00
  9.00000000E+01  1.20000000E+01  0.00000000E+00
  9.00000000E+01  1.00000000E+01  0.00000000E+00
  9.00000000E+01  8.00000000E+00  0.00000000E+00
  9.00000000E+01  6.00000000E+00  0.00000000E+00
  9.00000000E+01  4.00000000E+00  0.00000000E+00
  9.00000000E+01  2.00000000E+00  0.00000000E+00
  9.00000000E+01 -3.33066907E-14  0.00000000E+00
  1.00000000E+02  1.00000000E+02  0.00000000E+00
  1.00000000E+02  9.80000000E+01  0.00000000E+00
  1.00000000E+02  9.60000000E+01  0.00000000E+00
  1.00000000E+02  9.40000000E+01  0.00000000E+00
  1.00000000E+02  9.20000000E+01  0.00000000E+00
  1.00000000E+02  9.00000000E+01  0.00000000E+00
  1.00000000E+02  8.80000000E+01  0.00000000E+00
  1.00000000E+02  8.60000000E+01  0.00000000E+00
  1.00000000E+02  8.40000000E+01  0.00000000E+00
  1.00000000E+02  8.20000000E+01  0.00000000E+00
  1.00000000E+02  8.00000000E+01  0.00000000E+00
  1.00000000E+02  7.80000000E+01  0.00000000E+00
  1.00000000E+02  7.60000000E+01  0.00000000E+00
  1.00000000E+02  7.40000000E+01  0.00000000E+00
  1.00000000E+02  7.20000000E+01  0.00000000E+00
  1.00000000E+02  7.00000000E+01  0.00000000E+00
  1.00000000E+02  6.80000000E+01  0.00000000E+00
  1.00000000E+02  6.60000000E+01  0.00000000E+00
  1.00000000E+02  6.40000000E+01  0.00000000E+00
  1.00000000E+02  6.20000000E+01  0.00000000E+00
  1.00000000E+02  6.00000000E+01  0.00000000E+00
  1.00000000E+02  5.80000000E+01  0.00000000E+00
  1.00000000E+02  5.60000000E+01  0.00000000E+00
  1.00000000E+02  5.40000000E+01  0.00000000E+00
  1.00000000E+02  5.20000000E+01  0.00000000E+00
  1.00000000E+02  5.00000000E+01  0.00000000E+00
  1.00000000E+02  4.80000000E+01  0.00000000E+00
  1.00000000E+02  4.60000000E+01  0.00000000E+00
  1.00000000E+02  4.40000000E+01  0.00000000E+00
  1.00000000E+02  4.20000000E+01  0.00000000E+00
  1.00000000E+02  4.00000000E+01  0.00000000E+00
  1.00000000E+02  3.80000000E+01  0.00000000E+00
  1.00000000E+02  3.60000000E+01  0.00000000E+00
  1.00000000E+02  3.40000000E+01  0.00000000E+00
  1.00000000E+02  3.20000000E+01  0.00000000E+00
  1.00000000E+02  3.00000000E+01  0.00000000E+00
  1.00000000E+02  2.80000000E+01  0.00000000E+00
  1.00000000E+02  2.60000000E+01  0.00000000E+00
  1.00000000E+02  2.40000000E+01  0.00000000E+00
  1.00000000E+02  2.20000000E+01  0.00000000E+00
  1.00000000E+02  2.00000000E+01  0.00000000E+00
  1.00000000E+02  1.80000000E+01  0.00000000E+00
  1.00000000E+02  1.60000000E+01  0.00000000E+00
  1.00000000E+02  1.40000000E+01  0.00000000E+00
  1.00000000E+02  1.20000000E+01  0.00000000E+00
  1.00000000E+02  1.00000000E+01  0.00000000E+00
  1.00000000E+02  8.00000000E+00  0.00000000E+00
  1.00000000E+02  6.00000000E+00  0.00000000E+00
  1.00000000E+02  4.00000000E+00  0.00000000E+00
  1.00000000E+02  2.00000000E+00  0.00000000E+00
  1.00000000E+02 -3.33066907E-14  0.00000000E+00
  1.10000000E+02  1.00000000E+02  0.00000000E+00
  1.10000000E+02  9.80000000E+01  0.00000000E+00
  1.10000000E+02  9.60000000E+01  0.00000000E+00
  1.10000000E+02  9.40000000E+01  0.00000000E+00
  1.10000000E+02  9.20000000E+01  0.00000000E+00
  1.10000000E+02  9.00000000E+01  0.00000000E+00
  1.10000000E+02  8.80000000E+01  0.00000000E+00
  1.10000000E+02  8.60000000E+01  0.00000000E+00
  1.10000000E+02  8.40000000E+01  0.00000000E+00
  1.10000000E+02  8.20000000E+01  0.00000000E+00
  1.10000000E+02  8.00000000E+01  0.00000000E+00
  1.10000000E+02  7.80000000E+01  0.00000000E+00
  1.10000000E+02  7.60000000E+01  0.00000000E+00
  1.10000000E+02  7.40000000E+01  0.00000000E+00
  1.10000000E+02  7.20000000E+01  0.00000000E+00
  1.10000000E+02  7.00000000E+01  0.00000000E+00
  1.10000000E+02  6.80000000E+01  0.00000000E+00
  1.10000000E+02  6.60000000E+01  0.00000000E+00
  1.10000000E+02  6.40000000E+01  0.00000000E+00
  1.10000000E+02  6.20000000E+01  0.00000000E+00
  1.10000000E+02  6.00000000E+01  0.00000000E+00
  1.10000000E+02  5.80000000E+01  0.00000000E+00
  1.10000000E+02  5.60000000E+01  0.00000000E+00
  1.10000000E+02  5.40000000E+01  0.00000000E+00
  1.10000000E+02  5.20000000E+01  0.00000000E+00
  1.10000000E+02  5.00000000E+01  0.00000000E+00
  1.10000000E+02  4.80000000E+01  0.00000000E+00
  1.10000000E+02  4.60000000E+01  0.00000000E+00
  1.10000000E+02  4.40000000E+01  0.00000000E+00
  1.10000000E+02  4.20000000E+01  0.00000000E+00
  1.10000000E+02  4.00000000E+01  0.00000000E+00
  1.10000000E+02  3.80000000E+01  0.00000000E+00
  1.10000000E+02  3.60000000E+01  0.00000000E+00
  1.10000000E+02  3.40000000E+01  0.00000000E+00
  1.10000000E+02  3.20000000E+01  0.00000000E+00
  1.10000000E+02  3.00000000E+01  0.00000000E+00
  1.10000000E+02  2.80000000E+01  0.00000000E+00
  1.10000000E+02  2.60000000E+01  0.00000000E+00
  1.10000000E+02  2.40000000E+01  0.00000000E+00
  1.10000000E+02  2.20000000E+01  0.00000000E+00
  1.10000000E+02  2.00000000E+01  0.00000000E+00
  1.10000000E+02  1.80000000E+01  0.00000000E+00
  1.10000000E+02  1.60000000E+01  0.00000000E+00
  1.10000000E+02  1.40000000E+01  0.00000000E+00
  1.10000000E+02  1.20000000E+01  0.00000000E+00
  1.10000000E+02  1.00000000E+01  0.00000000E+00
  1.10000000E+02  8.00000000E+00  0.00000000E+00
  1.10000000E+02  6.00000000E+00  0.00000000E+00
  1.10000000E+02  4.00000000E+00  0.00000000E+00
  1.10000000E+02  2.00000000E+00  0.00000000E+00
  1.10000000E+02 -3.33066907E-14  0.00000000E+00
  1.20000000E+02  1.00000000E+02  0.00000000E+00
  1.20000000E+02  9.80000000E+01  0.00000000E+00
  1.20000000E+02  9.60000000E+01  0.00000000E+00
  1.20000000E+02  9.40000000E+01  0.00000000E+00
  1.20000000E+02  9.20000000E+01  0.00000000E+00
  1.20000000E+02  9.00000000E+01  0.00000000E+00
  1.20000000E+02  8.80000000E+01  0.00000000E+00
  1.20000000E+02  8.60000000E+01  0.00000000E+00
  1.20000000E+02  8.40000000E+01  0.00000000E+00
  1.20000000E+02  8.20000000E+01  0.00000000E+00
  1.20000000E+02  8.00000000E+01  0.00000000E+00
  1.20000000E+02  7.80000000E+01  0.00000000E+00
  1.20000000E+02  7.60000000E+01  0.00000000E+00
  1.20000000E+02  7.40000000E+01  0.00000000E+00
  1.20000000E+02  7.20000000E+01  0.00000000E+00
  1.20000000E+02  7.00000000E+01  0.00000000E+00
  1.20000000E+02  6.80000000E+01  0.00000000E+00
  1.20000000E+02  6.60000000E+01  0.00000000E+00
  1.20000000E+02  6.40000000E+01  0.00000000E+00
  1.20000000E+02  6.20000000E+01  0.00000000E+00
  1.20000000E+02  6.00000000E+01  0.00000000E+00
  1.20000000E+02  5.80000000E+01  0.00000000E+00
  1.20000000E+02  5.60000000E+01  0.00000000E+00
  1.20000000E+02  5.40000000E+01  0.00000000E+00
  1.20000000E+02  5.20000000E+01  0.00000000E+00
  1.20000000E+02  5.00000000E+01  0.00000000E+00
  1.20000000E+02  4.80000000E+01  0.00000000E+00
  1.20000000E+02  4.60000000E+01  0.00000000E+00
  1.20000000E+02  4.40000000E+01  0.00000000E+00
  1.20000000E+02  4.20000000E+01  0.00000000E+00
  1.20000000E+02  4.00000000E+01  0.00000000E+00
  1.20000000E+02  3.80000000E+01  0.00000000E+00
  1.20000000E+02  3.60000000E+01  0.00000000E+00
  1.20000000E+02  3.40000000E+01  0.00000000E+00
  1.20000000E+02  3.20000000E+01  0.00000000E+00
  1.20000000E+02  3.00000000E+01  0.00000000E+00
  1.20000000E+02  2.80000000E+01  0.00000000E+00
  1.20000000E+02  2.60000000E+01  0.00000000E+00
  1.20000000E+02  2.40000000E+01  0.00000000E+00
  1.20000000E+02  2.20000000E+01  0.00000000E+00
  1.20000000E+02  2.00000000E+01  0.00000000E+00
  1.20000000E+02  1.80000000E+01  0.00000000E+00
  1.20000000E+02  1.60000000E+01  0.00000000E+00
  1.20000000E+02  1.40000000E+01  0.00000000E+00
  1.20000000E+02  1.20000000E+01  0.00000000E+00
  1.20000000E+02  1.00000000E+01  0.00000000E+00
  1.20000000E+02  8.00000000E+00  0.00000000E+00
  1.20000000E+02  6.00000000E+00  0.00000000E+00
  1.20000000E+02  4.00000000E+00  0.00000000E+00
  1.20000000E+02  2.00000000E+00  0.00000000E+00
  1.20000000E+02 -3.33066907E-14  0.00000000E+00
  1.30000000E+02  1.00000000E+02  0.00000000E+00
  1.30000000E+02  9.80000000E+01  0.00000000E+00
  1.30000000E+02  9.60000000E+01  0.00000000E+00
  1.30000000E+02  9.40000000E+01  0.00000000E+00
  1.30000000E+02  9.20000000E+01  0.00000000E+00
  1.30000000E+02  9.00000000E+01  0.00000000E+00
  1.30000000E+02  8.80000000E+01  0.00000000E+00
  1.30000000E+02  8.60000000E+01  0.00000000E+00
  1.30000000E+02  8.40000000E+01  0.00000000E+00
  1.30000000E+02  8.20000000E+01  0.00000000E+00
  1.30000000E+02  8.00000000E+01  0.00000000E+00
  1.30000000E+02  7.80000000E+01  0.00000000E+00
  1.30000000E+02  7.60000000E+01  0.00000000E+00
  1.30000000E+02  7.40000000E+01  0.00000000E+00
  1.30000000E+02  7.20000000E+01  0.00000000E+00
  1.30000000E+02  7.00000000E+01  0.00000000E+00
  1.30000000E+02  6.80000000E+01  0.00000000E+00
  1.30000000E+02  6.60000000E+01  0.00000000E+00
  1.30000000E+02  6.40000000E+01  0.00000000E+00
  1.30000000E+02  6.20000000E+01  0.00000000E+00
  1.30000000E+02  6.00000000E+01  0.00000000E+00
  1.30000000E+02  5.80000000E+01  0.00000000E+00
  1.30000000E+02  5.60000000E+01  0.00000000E+00
  1.30000000E+02  5.40000000E+01  0.00000000E+00
  1.30000000E+02  5.20000000E+01  0.00000000E+00
  1.30000000E+02  5.00000000E+01  0.00000000E+00
  1.30000000E+02  4.80000000E+01  0.00000000E+00
  1.30000000E+02  4.60000000E+01  0.00000000E+00
  1.30000000E+02  4.40000000E+01  0.00000000E+00
  1.30000000E+02  4.20000000E+01  0.00000000E+00
  1.30000000E+02  4.00000000E+01  0.00000000E+00
  1.30000000E+02  3.80000000E+01  0.00000000E+00
  1.30000000E+02  3.60000000E+01  0.00000000E+00
  1.30000000E+02  3.40000000E+01  0.00000000E+00
  1.30000000E+02  3.20000000E+01  0.00000000E+00
  1.30000000E+02  3.00000000E+01  0.00000000E+00
  1.30000000E+02  2.80000000E+01  0.00000000E+00
  1.30000000E+02  2.60000000E+01  0.00000000E+00
  1.30000000E+02  2.40000000E+01  0.00000000E+00
  1.30000000E+02  2.20000000E+01  0.00000000E+00
  1.30000000E+02  2.00000000E+01  0.00000000E+00
  1.30000000E+02  1.80000000E+01  0.00000000E+00
  1.30000000E+02  1.60000000E+01  0.00000000E+00
  1.30000000E+02  1.40000000E+01  0.00000000E+00
  1.30000000E+02  1.20000000E+01  0.00000000E+00
  1.30000000E+02  1.00000000E+01  0.00000000E+00
  1.30000000E+02  8.00000000E+00  0.00000000E+00
  1.30000000E+02  6.00000000E+00  0.00000000E+00
  1.30000000E+02  4.00000000E+00  0.00000000E+00
  1.30000000E+02  2.00000000E+00  0.00000000E+00
  1.30000000E+02 -3.33066907E-14  0.00000000E+00
  1.40000000E+02  1.00000000E+02  0.00000000E+00
  1.40000000E+02  9.80000000E+01  0.00000000E+00
  1.40000000E+02  9.60000000E+01  0.00000000E+00
  1.40000000E+02  9.40000000E+01  0.00000000E+00
  1.40000000E+02  9.20000000E+01  0.00000000E+00
  1.40000000E+02  9.00000000E+01  0.00000000E+00
  1.40000000E+02  8.80000000E+01  0.00000000E+00
  1.40000000E+02  8.60000000E+01  0.00000000E+00
  1.40000000E+02  8.40000000E+01  0.00000000E+00
  1.40000000E+02  8.20000000E+01  0.00000000E+00
  1.40000000E+02  8.00000000E+01  0.00000000E+00
  1.40000000E+02  7.80000000E+01  0.00000000E+00
  1.40000000E+02  7.60000000E+01  0.00000000E+00
  1.40000000E+02  7.40000000E+01  0.00000000E+00
  1.40000000E+02  7.20000000E+01  0.00000000E+00
  1.40000000E+02  7.00000000E+01  0.00000000E+00
  1.40000000E+02  6.80000000E+01  0.00000000E+00
  1.40000000E+02  6.60000000E+01  0.00000000E+00
  1.40000000E+02  6.40000000E+01  0.00000000E+00
  1.40000000E+02  6.20000000E+01  0.00000000E+00
  1.40000000E+02  6.00000000E+01  0.00000000E+00
  1.40000000E+02  5.80000000E+01  0.00000000E+00
  1.40000000E+02  5.60000000E+01  0.00000000E+00
  1.40000000E+02  5.40000000E+01  0.00000000E+00
  1.40000000E+02  5.20000000E+01  0.00000000E+00
  1.40000000E+02  5.00000000E+01  0.00000000E+00
  1.40000000E+02  4.80000000E+01  0.00000000E+00
  1.40000000E+02  4.60000000E+01  0.00000000E+00
  1.40000000E+02  4.40000000E+01  0.00000000E+00
  1.40000000E+02  4.20000000E+01  0.00000000E+00
  1.40000000E+02  4.00000000E+01  0.00000000E+00
  1.40000000E+02  3.80000000E+01  0.00000000E+00
  1.40000000E+02  3.60000000E+01  0.00000000E+00
  1.40000000E+02  3.40000000E+01  0.00000000E+00
  1.40000000E+02  3.20000000E+01  0.00000000E+00
  1.40000000E+02  3.00000000E+01  0.00000000E+00
  1.40000000E+02  2.80000000E+01  0.00000000E+00
  1.40000000E+02  2.60000000E+01  0.00000000E+00
  1.40000000E+02  2.40000000E+01  0.00000000E+00
  1.40000000E+02  2.20000000E+01  0.00000000E+00
  1.40000000E+02  2.00000000E+01  0.00000000E+00
  1.40000000E+02  1.80000000E+01  0.00000000E+00
  1.40000000E+02  1.60000000E+01  0.00000000E+00
  1.40000000E+02  1.40000000E+01  0.00000000E+00
  1.40000000E+02  1.20000000E+01  0.00000000E+00
  1.40000000E+02  1.00000000E+01  0.00000000E+00
  1.40000000E+02  8.00000000E+00  0.00000000E+00
  1.40000000E+02  6.00000000E+00  0.00000000E+00
  1.40000000E+02  4.00000000E+00  0.00000000E+00
  1.40000000E+02  2.00000000E+00  0.00000000E+00
  1.40000000E+02 -3.33066907E-14  0.00000000E+00
  1.50000000E+02  1.00000000E+02  0.00000000E+00
  1.50000000E+02  9.80000000E+01  0.00000000E+00
  1.50000000E+02  9.60000000E+01  0.00000000E+00
  1.50000000E+02  9.40000000E+01  0.00000000E+00
  1.50000000E+02  9.20000000E+01  0.00000000E+00
  1.50000000E+02  9.00000000E+01  0.00000000E+00
  1.50000000E+02  8.80000000E+01  0.00000000E+00
  1.50000000E+02  8.60000000E+01  0.00000000E+00
  1.50000000E+02  8.40000000E+01  0.00000000E+00
  1.50000000E+02  8.20000000E+01  0.00000000E+00
  1.50000000E+02  8.00000000E+01  0.00000000E+00
  1.50000000E+02  7.80000000E+01  0.00000000E+00
  1.50000000E+02  7.60000000E+01  0.00000000E+00
  1.50000000E+02  7.40000000E+01  0.00000000E+00
  1.50000000E+02  7.20000000E+01  0.00000000E+00
  1.50000000E+02  7.00000000E+01  0.00000000E+00
  1.50000000E+02  6.80000000E+01  0.00000000E+00
  1.50000000E+02  6.60000000E+01  0.00000000E+00
  1.50000000E+02  6.40000000E+01  0.00000000E+00
  1.50000000E+02  6.20000000E+01  0.00000000E+00
  1.50000000E+02  6.00000000E+01  0.00000000E+00
  1.50000000E+02  5.80000000E+01  0.00000000E+00
  1.50000000E+02  5.60000000E+01  0.00000000E+00
  1.50000000E+02  5.40000000E+01  0.00000000E+00
  1.50000000E+02  5.20000000E+01  0.00000000E+00
  1.50000000E+02  5.00000000E+01  0.00000000E+00
  1.50000000E+02  4.80000000E+01  0.00000000E+00
  1.50000000E+02  4.60000000E+01  0.00000000E+00
  1.50000000E+02  4.40000000E+01  0.00000000E+00
  1.50000000E+02  4.20000000E+01  0.00000000E+00
  1.50000000E+02  4.00000000E+01  0.00000000E+00
  1.50000000E+02  3.80000000E+01  0.00000000E+00
  1.50000000E+02  3.60000000E+01  0.00000000E+00
  1.50000000E+02  3.40000000E+01  0.00000000E+00
  1.50000000E+02  3.20000000E+01  0.00000000E+00
  1.50000000E+02  3.00000000E+01  0.00000000E+00
  1.50000000E+02  2.80000000E+01  0.00000000E+00
  1.50000000E+02  2.60000000E+01  0.00000000E+00
  1.50000000E+02  2.40000000E+01  0.00000000E+00
  1.50000000E+02  2.20000000E+01  0.00000000E+00
  1.50000000E+02  2.00000000E+01  0.00000000E+00
  1.50000000E+02  1.80000000E+01  0.00000000E+00
  1.50000000E+02  1.60000000E+01  0.00000000E+00
  1.50000000E+02  1.40000000E+01  0.00000000E+00
  1.50000000E+02  1.20000000E+01  0.00000000E+00
  1.50000000E+02  1.00000000E+01  0.00000000E+00
  1.50000000E+02  8.00000000E+00  0.00000000E+00
  1.50000000E+02  6.00000000E+00  0.00000000E+00
  1.50000000E+02  4.00000000E+00  0.00000000E+00
  1.50000000E+02  2.00000000E+00  0.00000000E+00
  1.50000000E+02 -3.33066907E-14  0.00000000E+00
  1.60000000E+02  1.00000000E+02  0.00000000E+00
  1.60000000E+02  9.80000000E+01  0.00000000E+00
  1.60000000E+02  9.60000000E+01  0.00000000E+00
  1.60000000E+02  9.40000000E+01  0.00000000E+00
  1.60000000E+02  9.20000000E+01  0.00000000E+00
  1.60000000E+02  9.00000000E+01  0.00000000E+00
  1.60000000E+02  8.80000000E+01  0.00000000E+00
  1.60000000E+02  8.60000000E+01  0.00000000E+00
  1.60000000E+02  8.40000000E+01  0.00000000E+00
  1.60000000E+02  8.20000000E+01  0.00000000E+00
  1.60000000E+02  8.00000000E+01  0.00000000E+00
  1.60000000E+02  7.80000000E+01  0.00000000E+00
  1.60000000E+02  7.60000000E+01  0.00000000E+00
  1.60000000E+02  7.40000000E+01  0.00000000E+00
  1.60000000E+02  7.20000000E+01  0.00000000E+00
  1.60000000E+02  7.00000000E+01  0.00000000E+00
  1.60000000E+02  6.80000000E+01  0.00000000E+00
  1.60000000E+02  6.60000000E+01  0.00000000E+00
  1.60000000E+02  6.40000000E+01  0.00000000E+00
  1.60000000E+02  6.20000000E+01  0.00000000E+00
  1.60000000E+02  6.00000000E+01  0.00000000E+00
  1.60000000E+02  5.80000000E+01  0.00000000E+00
  1.60000000E+02  5.60000000E+01  0.00000000E+00
  1.60000000E+02  5.40000000E+01  0.00000000E+00
  1.60000000E+02  5.20000000E+01  0.00000000E+00
  1.60000000E+02  5.00000000E+01  0.00000000E+00
  1.60000000E+02  4.80000000E+01  0.00000000E+00
  1.60000000E+02  4.60000000E+01  0.00000000E+00
  1.60000000E+02  4.40000000E+01  0.00000000E+00
  1.60000000E+02  4.20000000E+01  0.00000000E+00
  1.60000000E+02  4.00000000E+01  0.00000000E+00
  1.60000000E+02  3.80000000E+01  0.00000000E+00
  1.60000000E+02  3.60000000E+01  0.00000000E+00
  1.60000000E+02  3.40000000E+01  0.00000000E+00
  1.60000000E+02  3.20000000E+01  0.00000000E+00
  1.60000000E+02  3.00000000E+01  0.00000000E+00
  1.60000000E+02  2.80000000E+01  0.00000000E+00
  1.60000000E+02  2.60000000E+01  0.00000000E+00
  1.60000000E+02  2.40000000E+01  0.00000000E+00
  1.60000000E+02  2.20000000E+01  0.00000000E+00
  1.60000000E+02  2.00000000E+01  0.00000000E+00
  1.60000000E+02  1.80000000E+01  0.00000000E+00
  1.60000000E+02  1.60000000E+01  0.00000000E+00
  1.60000000E+02  1.40000000E+01  0.00000000E+00
  1.60000000E+02  1.20000000E+01  0.00000000E+00
  1.60000000E+02  1.00000000E+01  0.00000000E+00
  1.60000000E+02  8.00000000E+00  0.00000000E+00
  1.60000000E+02  6.00000000E+00  0.00000000E+00
  1.60000000E+02  4.00000000E+00  0.00000000E+00
  1.60000000E+02  2.00000000E+00  0.00000000E+00
  1.60000000E+02 -3.33066907E-14  0.00000000E+00
  1.70000000E+02  1.00000000E+02  0.00000000E+00
  1.70000000E+02  9.80000000E+01  0.00000000E+00
  1.70000000E+02  9.60000000E+01  0.00000000E+00
  1.70000000E+02  9.40000000E+01  0.00000000E+00
  1.70000000E+02  9.20000000E+01  0.00000000E+00
  1.70000000E+02  9.00000000E+01  0.00000000E+00
  1.70000000E+02  8.80000000E+01  0.00000000E+00
  1.70000000E+02  8.60000000E+01  0.00000000E+00
  1.70000000E+02  8.40000000E+01  0.00000000E+00
  1.70000000E+02  8.20000000E+01  0.00000000E+00
  1.70000000E+02  8.00000000E+01  0.00000000E+00
  1.70000000E+02  7.80000000E+01  0.00000000E+00
  1.70000000E+02  7.60000000E+01  0.00000000E+00
  1.70000000E+02  7.40000000E+01  0.00000000E+00
  1.70000000E+02  7.20000000E+01  0.00000000E+00
  1.70000000E+02  7.00000000E+01  0.00000000E+00
  1.70000000E+02  6.80000000E+01  0.00000000E+00
  1.70000000E+02  6.60000000E+01  0.00000000E+00
  1.70000000E+02  6.40000000E+01  0.00000000E+00
  1.70000000E+02  6.20000000E+01  0.00000000E+00
  1.70000000E+02  6.00000000E+01  0.00000000E+00
  1.70000000E+02  5.80000000E+01  0.00000000E+00
  1.70000000E+02  5.60000000E+01  0.00000000E+00
  1.70000000E+02  5.40000000E+01  0.00000000E+00
  1.70000000E+02  5.20000000E+01  0.00000000E+00
  1.70000000E+02  5.00000000E+01  0.00000000E+00
  1.70000000E+02  4.80000000E+01  0.00000000E+00
  1.70000000E+02  4.60000000E+01  0.00000000E+00
  1.70000000E+02  4.40000000E+01  0.00000000E+00
  1.70000000E+02  4.20000000E+01  0.00000000E+00
  1.70000000E+02  4.00000000E+01  0.00000000E+00
  1.70000000E+02  3.80000000E+01  0.00000000E+00
  1.70000000E+02  3.60000000E+01  0.00000000E+00
  1.70000000E+02  3.40000000E+01  0.00000000E+00
  1.70000000E+02  3.20000000E+01  0.00000000E+00
  1.70000000E+02  3.00000000E+01  0.00000000E+00
  1.70000000E+02  2.80000000E+01  0.00000000E+00
  1.70000000E+02  2.60000000E+01  0.00000000E+00
  1.70000000E+02  2.40000000E+01  0.00000000E+00
  1.70000000E+02  2.20000000E+01  0.00000000E+00
  1.70000000E+02  2.00000000E+01  0.00000000E+00
  1.70000000E+02  1.80000000E+01  0.00000000E+00
  1.70000000E+02  1.60000000E+01  0.00000000E+00
  1.70000000E+02  1.40000000E+01  0.00000000E+00
  1.70000000E+02  1.20000000E+01  0.00000000E+00
  1.70000000E+02  1.00000000E+01  0.00000000E+00
  1.70000000E+02  8.00000000E+00  0.00000000E+00
  1.70000000E+02  6.00000000E+00  0.00000000E+00
  1.70000000E+02  4.00000000E+00  0.00000000E+00
  1.70000000E+02  2.00000000E+00  0.00000000E+00
  1.70000000E+02 -3.33066907E-14  0.00000000E+00
  1.80000000E+02  1.00000000E+02  0.00000000E+00
  1.80000000E+02  9.80000000E+01  0.00000000E+00
  1.80000000E+02  9.60000000E+01  0.00000000E+00
  1.80000000E+02  9.40000000E+01  0.00000000E+00
  1.80000000E+02  9.20000000E+01  0.00000000E+00
  1.80000000E+02  9.00000000E+01  0.00000000E+00
  1.80000000E+02  8.80000000E+01  0.00000000E+00
  1.80000000E+02  8.60000000E+01  0.00000000E+00
  1.80000000E+02  8.40000000E+01  0.00000000E+00
  1.80000000E+02  8.20000000E+01  0.00000000E+00
  1.80000000E+02  8.00000000E+01  0.00000000E+00
  1.80000000E+02  7.80000000E+01  0.00000000E+00
  1.80000000E+02  7.60000000E+01  0.00000000E+00
  1.80000000E+02  7.40000000E+01  0.00000000E+00
  1.80000000E+02  7.20000000E+01  0.00000000E+00
  1.80000000E+02  7.00000000E+01  0.00000000E+00
  1.80000000E+02  6.80000000E+01  0.00000000E+00
  1.80000000E+02  6.60000000E+01  0.00000000E+00
  1.80000000E+02  6.40000000E+01  0.00000000E+00
  1.80000000E+02  6.20000000E+01  0.00000000E+00
  1.80000000E+02  6.00000000E+01  0.00000000E+00
  1.80000000E+02  5.80000000E+01  0.00000000E+00
  1.80000000E+02  5.60000000E+01  0.00000000E+00
  1.80000000E+02  5.40000000E+01  0.00000000E+00
  1.80000000E+02  5.20000000E+01  0.00000000E+00
  1.80000000E+02  5.00000000E+01  0.00000000E+00
  1.80000000E+02  4.80000000E+01  0.00000000E+00
  1.80000000E+02  4.60000000E+01  0.00000000E+00
  1.80000000E+02  4.40000000E+01  0.00000000E+00
  1.80000000E+02  4.20000000E+01  0.00000000E+00
  1.80000000E+02  4.00000000E+01  0.00000000E+00
  1.80000000E+02  3.80000000E+01  0.00000000E+00
  1.80000000E+02  3.60000000E+01  0.00000000E+00
  1.80000000E+02  3.40000000E+01  0.00000000E+00
  1.80000000E+02  3.20000000E+01  0.00000000E+00
  1.80000000E+02  3.00000000E+01  0.00000000E+00
  1.80000000E+02  2.80000000E+01  0.00000000E+00
  1.80000000E+02  2.60000000E+01  0.00000000E+00
  1.80000000E+02  2.40000000E+01  0.00000000E+00
  1.80000000E+02  2.20000000E+01  0.00000000E+00
  1.80000000E+02  2.00000000E+01  0.00000000E+00
  1.80000000E+02  1.80000000E+01  0.00000000E+00
  1.80000000E+02  1.60000000E+01  0.00000000E+00
  1.80000000E+02  1.40000000E+01  0.00000000E+00
  1.80000000E+02  1.20000000E+01  0.00000000E+00
  1.80000000E+02  1.00000000E+01  0.00000000E+00
  1.80000000E+02  8.00000000E+00  0.00000000E+00
  1.80000000E+02  6.00000000E+00  0.00000000E+00
  1.80000000E+02  4.00000000E+00  0.00000000E+00
  1.80000000E+02  2.00000000E+00  0.00000000E+00
  1.80000000E+02 -3.33066907E-14  0.00000000E+00
  1.90000000E+02  1.00000000E+02  0.00000000E+00
  1.90000000E+02  9.80000000E+01  0.00000000E+00
  1.90000000E+02  9.60000000E+01  0.00000000E+00
  1.90000000E+02  9.40000000E+01  0.00000000E+00
  1.90000000E+02  9.20000000E+01  0.00000000E+00
  1.90000000E+02  9.00000000E+01  0.00000000E+00
  1.90000000E+02  8.80000000E+01  0.00000000E+00
  1.90000000E+02  8.60000000E+01  0.00000000E+00
  1.90000000E+02  8.40000000E+01  0.00000000E+00
  1.90000000E+02  8.20000000E+01  0.00000000E+00
  1.90000000E+02  8.00000000E+01  0.00000000E+00
  1.90000000E+02  7.80000000E+01  0.00000000E+00
  1.90000000E+02  7.60000000E+01  0.00000000E+00
  1.90000000E+02  7.40000000E+01  0.00000000E+00
  1.90000000E+02  7.20000000E+01  0.00000000E+00
  1.90000000E+02  7.00000000E+01  0.00000000E+00
  1.90000000E+02  6.80000000E+01  0.00000000E+00
  1.90000000E+02  6.60000000E+01  0.00000000E+00
  1.90000000E+02  6.40000000E+01  0.00000000E+00
  1.90000000E+02  6.20000000E+01  0.00000000E+00
  1.90000000E+02  6.00000000E+01  0.00000000E+00
  1.90000000E+02  5.80000000E+01  0.00000000E+00
  1.90000000E+02  5.60000000E+01  0.00000000E+00
  1.90000000E+02  5.40000000E+01  0.00000000E+00
  1.90000000E+02  5.20000000E+01  0.00000000E+00
  1.90000000E+02  5.00000000E+01  0.00000000E+00
  1.90000000E+02  4.80000000E+01  0.00000000E+00
  1.90000000E+02  4.60000000E+01  0.00000000E+00
  1.90000000E+02  4.40000000E+01  0.00000000E+00
  1.90000000E+02  4.20000000E+01  0.00000000E+00
  1.90000000E+02  4.00000000E+01  0.00000000E+00
  1.90000000E+02  3.80000000E+01  0.00000000E+00
  1.90000000E+02  3.60000000E+01  0.00000000E+00
  1.90000000E+02  3.40000000E+01  0.00000000E+00
  1.90000000E+02  3.20000000E+01  0.00000000E+00
  1.90000000E+02  3.00000000E+01  0.00000000E+00
  1.90000000E+02  2.80000000E+01  0.00000000E+00
  1.90000000E+02  2.60000000E+01  0.00000000E+00
  1.90000000E+02  2.40000000E+01  0.00000000E+00
  1.90000000E+02  2.20000000E+01  0.00000000E+00
  1.90000000E+02  2.00000000E+01  0.00000000E+00
  1.90000000E+02  1.80000000E+01  0.00000000E+00
  1.90000000E+02  1.60000000E+01  0.00000000E+00
  1.90000000E+02  1.40000000E+01  0.00000000E+00
  1.90000000E+02  1.20000000E+01  0.00000000E+00
  1.90000000E+02  1.00000000E+01  0.00000000E+00
  1.90000000E+02  8.00000000E+00  0.00000000E+00
  1.90000000E+02  6.00000000E+00  0.00000000E+00
  1.90000000E+02  4.00000000E+00  0.00000000E+00
  1.90000000E+02  2.00000000E+00  0.00000000E+00
  1.90000000E+02 -3.33066907E-14  0.00000000E+00
  2.00000000E+02  1.00000000E+02  0.00000000E+00
  2.00000000E+02  9.80000000E+01  0.00000000E+00
  2.00000000E+02  9.60000000E+01  0.00000000E+00
  2.00000000E+02  9.40000000E+01  0.00000000E+00
  2.00000000E+02  9.20000000E+01  0.00000000E+00
  2.00000000E+02  9.00000000E+01  0.00000000E+00
  2.00000000E+02  8.80000000E+01  0.00000000E+00
  2.00000000E+02  8.60000000E+01  0.00000000E+00
  2.00000000E+02  8.40000000E+01  0.00000000E+00
  2.00000000E+02  8.20000000E+01  0.00000000E+00
  2.00000000E+02  8.00000000E+01  0.00000000E+00
  2.00000000E+02  7.80000000E+01  0.00000000E+00
  2.00000000E+02  7.60000000E+01  0.00000000E+00
  2.00000000E+02  7.40000000E+01  0.00000000E+00
  2.00000000E+02  7.20000000E+01  0.00000000E+00
  2.00000000E+02  7.00000000E+01  0.00000000E+00
  2.00000000E+02  6.80000000E+01  0.00000000E+00
  2.00000000E+02  6.60000000E+01  0.00000000E+00
  2.00000000E+02  6.40000000E+01  0.00000000E+00
  2.00000000E+02  6.20000000E+01  0.00000000E+00
  2.00000000E+02  6.00000000E+01  0.00000000E+00
  2.00000000E+02  5.80000000E+01  0.00000000E+00
  2.00000000E+02  5.60000000E+01  0.00000000E+00
  2.00000000E+02  5.40000000E+01  0.00000000E+00
  2.00000000E+02  5.20000000E+01  0.00000000E+00
  2.00000000E+02  5.00000000E+01  0.00000000E+00
  2.00000000E+02  4.80000000E+01  0.00000000E+00
  2.00000000E+02  4.60000000E+01  0.00000000E+00
  2.00000000E+02  4.40000000E+01  0.00000000E+00
  2.00000000E+02  4.20000000E+01  0.00000000E+00
  2.00000000E+02  4.00000000E+01  0.00000000E+00
  2.00000000E+02  3.80000000E+01  0.00000000E+00
  2.00000000E+02  3.60000000E+01  0.00000000E+00
  2.00000000E+02  3.40000000E+01  0.00000000E+00
  2.00000000E+02  3.20000000E+01  0.00000000E+00
  2.00000000E+02  3.00000000E+01  0.00000000E+00
  2.00000000E+02  2.80000000E+01  0.00000000E+00
  2.00000000E+02  2.60000000E+01  0.00000000E+00
  2.00000000E+02  2.40000000E+01  0.00000000E+00
  2.00000000E+02  2.20000000E+01  0.00000000E+00
  2.00000000E+02  2.00000000E+01  0.00000000E+00
  2.00000000E+02  1.80000000E+01  0.00000000E+00
  2.00000000E+02  1.60000000E+01  0.00000000E+00
  2.00000000E+02  1.40000000E+01  0.00000000E+00
  2.00000000E+02  1.20000000E+01  0.00000000E+00
  2.00000000E+02  1.00000000E+01  0.00000000E+00
  2.00000000E+02  8.00000000E+00  0.00000000E+00
  2.00000000E+02  6.00000000E+00  0.00000000E+00
  2.00000000E+02  4.00000000E+00  0.00000000E+00
  2.00000000E+02  2.00000000E+00  0.00000000E+00
  2.00000000E+02 -3.33066907E-14  0.00000000E+00
  2.10000000E+02  1.00000000E+02  0.00000000E+00
  2.10000000E+02  9.80000000E+01  0.00000000E+00
  2.10000000E+02  9.60000000E+01  0.00000000E+00
  2.10000000E+02  9.40000000E+01  0.00000000E+00
  2.10000000E+02  9.20000000E+01  0.00000000E+00
  2.10000000E+02  9.00000000E+01  0.00000000E+00
  2.10000000E+02  8.80000000E+01  0.00000000E+00
  2.10000000E+02  8.60000000E+01  0.00000000E+00
  2.10000000E+02  8.40000000E+01  0.00000000E+00
  2.10000000E+02  8.20000000E+01  0.00000000E+00
  2.10000000E+02  8.00000000E+01  0.00000000E+00
  2.10000000E+02  7.80000000E+01  0.00000000E+00
  2.10000000E+02  7.60000000E+01  0.00000000E+00
  2.10000000E+02  7.40000000E+01  0.00000000E+00
  2.10000000E+02  7.20000000E+01  0.00000000E+00
  2.10000000E+02  7.00000000E+01  0.00000000E+00
  2.10000000E+02  6.80000000E+01  0.00000000E+00
  2.10000000E+02  6.60000000E+01  0.00000000E+00
  2.10000000E+02  6.40000000E+01  0.00000000E+00
  2.10000000E+02  6.20000000E+01  0.00000000E+00
  2.10000000E+02  6.00000000E+01  0.00000000E+00
  2.10000000E+02  5.80000000E+01  0.00000000E+00
  2.10000000E+02  5.60000000E+01  0.00000000E+00
  2.10000000E+02  5.40000000E+01  0.00000000E+00
  2.10000000E+02  5.20000000E+01  0.00000000E+00
  2.10000000E+02  5.00000000E+01  0.00000000E+00
  2.10000000E+02  4.80000000E+01  0.00000000E+00
  2.10000000E+02  4.60000000E+01  0.00000000E+00
  2.10000000E+02  4.40000000E+01  0.00000000E+00
  2.10000000E+02  4.20000000E+01  0.00000000E+00
  2.10000000E+02  4.00000000E+01  0.00000000E+00
  2.10000000E+02  3.80000000E+01  0.00000000E+00
  2.10000000E+02  3.60000000E+01  0.00000000E+00
  2.10000000E+02  3.40000000E+01  0.00000000E+00
  2.10000000E+02  3.20000000E+01  0.00000000E+00
  2.10000000E+02  3.00000000E+01  0.00000000E+00
  2.10000000E+02  2.80000000E+01  0.00000000E+00
  2.10000000E+02  2.60000000E+01  0.00000000E+00
  2.10000000E+02  2.40000000E+01  0.00000000E+00
  2.10000000E+02  2.20000000E+01  0.00000000E+00
  2.10000000E+02  2.00000000E+01  0.00000000E+00
  2.10000000E+02  1.80000000E+01  0.00000000E+00
  2.10000000E+02  1.60000000E+01  0.00000000E+00
  2.10000000E+02  1.40000000E+01  0.00000000E+00
  2.10000000E+02  1.20000000E+01  0.00000000E+00
  2.10000000E+02  1.00000000E+01  0.00000000E+00
  2.10000000E+02  8.00000000E+00  0.00000000E+00
  2.10000000E+02  6.00000000E+00  0.00000000E+00
  2.10000000E+02  4.00000000E+00  0.00000000E+00
  2.10000000E+02  2.00000000E+00  0.00000000E+00
  2.10000000E+02 -3.33066907E-14  0.00000000E+00
  2.20000000E+02  1.00000000E+02  0.00000000E+00
  2.20000000E+02  9.80000000E+01  0.00000000E+00
  2.20000000E+02  9.60000000E+01  0.00000000E+00
  2.20000000E+02  9.40000000E+01  0.00000000E+00
  2.20000000E+02  9.20000000E+01  0.00000000E+00
  2.20000000E+02  9.00000000E+01  0.00000000E+00
  2.20000000E+02  8.80000000E+01  0.00000000E+00
  2.20000000E+02  8.60000000E+01  0.00000000E+00
  2.20000000E+02  8.40000000E+01  0.00000000E+00
  2.20000000E+02  8.20000000E+01  0.00000000E+00
  2.20000000E+02  8.00000000E+01  0.00000000E+00
  2.20000000E+02  7.80000000E+01  0.00000000E+00
  2.20000000E+02  7.60000000E+01  0.00000000E+00
  2.20000000E+02  7.40000000E+01  0.00000000E+00
  2.20000000E+02  7.20000000E+01  0.00000000E+00
  2.20000000E+02  7.00000000E+01  0.00000000E+00
  2.20000000E+02  6.80000000E+01  0.00000000E+00
  2.20000000E+02  6.60000000E+01  0.00000000E+00
  2.20000000E+02  6.40000000E+01  0.00000000E+00
  2.20000000E+02  6.20000000E+01  0.00000000E+00
  2.20000000E+02  6.00000000E+01  0.00000000E+00
  2.20000000E+02  5.80000000E+01  0.00000000E+00
  2.20000000E+02  5.60000000E+01  0.00000000E+00
  2.20000000E+02  5.40000000E+01  0.00000000E+00
  2.20000000E+02  5.20000000E+01  0.00000000E+00
  2.20000000E+02  5.00000000E+01  0.00000000E+00
  2.20000000E+02  4.80000000E+01  0.00000000E+00
  2.20000000E+02  4.60000000E+01  0.00000000E+00
  2.20000000E+02  4.40000000E+01  0.00000000E+00
  2.20000000E+02  4.20000000E+01  0.00000000E+00
  2.20000000E+02  4.00000000E+01  0.00000000E+00
  2.20000000E+02  3.80000000E+01  0.00000000E+00
  2.20000000E+02  3.60000000E+01  0.00000000E+00
  2.20000000E+02  3.40000000E+01  0.00000000E+00
  2.20000000E+02  3.20000000E+01  0.00000000E+00
  2.20000000E+02  3.00000000E+01  0.00000000E+00
  2.20000000E+02  2.80000000E+01  0.00000000E+00
  2.20000000E+02  2.60000000E+01  0.00000000E+00
  2.20000000E+02  2.40000000E+01  0.00000000E+00
  2.20000000E+02  2.20000000E+01  0.00000000E+00
  2.20000000E+02  2.00000000E+01  0.00000000E+00
  2.20000000E+02  1.80000000E+01  0.00000000E+00
  2.20000000E+02  1.60000000E+01  0.00000000E+00
  2.20000000E+02  1.40000000E+01  0.00000000E+00
  2.20000000E+02  1.20000000E+01  0.00000000E+00
  2.20000000E+02  1.00000000E+01  0.00000000E+00
  2.20000000E+02  8.00000000E+00  0.00000000E+00
  2.20000000E+02  6.00000000E+00  0.00000000E+00
  2.20000000E+02  4.00000000E+00  0.00000000E+00
  2.20000000E+02  2.00000000E+00  0.00000000E+00
  2.20000000E+02 -3.33066907E-14  0.00000000E+00
  2.30000000E+02  1.00000000E+02  0.00000000E+00
  2.30000000E+02  9.80000000E+01  0.00000000E+00
  2.30000000E+02  9.60000000E+01  0.00000000E+00
  2.30000000E+02  9.40000000E+01  0.00000000E+00
  2.30000000E+02  9.20000000E+01  0.00000000E+00
  2.30000000E+02  9.00000000E+01  0.00000000E+00
  2.30000000E+02  8.80000000E+01  0.00000000E+00
  2.30000000E+02  8.60000000E+01  0.00000000E+00
  2.30000000E+02  8.40000000E+01  0.00000000E+00
  2.30000000E+02  8.20000000E+01  0.00000000E+00
  2.30000000E+02  8.00000000E+01  0.00000000E+00
  2.30000000E+02  7.80000000E+01  0.00000000E+00
  2.30000000E+02  7.60000000E+01  0.00000000E+00
  2.30000000E+02  7.40000000E+01  0.00000000E+00
  2.30000000E+02  7.20000000E+01  0.00000000E+00
  2.30000000E+02  7.00000000E+01  0.00000000E+00
  2.30000000E+02  6.80000000E+01  0.00000000E+00
  2.30000000E+02  6.60000000E+01  0.00000000E+00
  2.30000000E+02  6.40000000E+01  0.00000000E+00
  2.30000000E+02  6.20000000E+01  0.00000000E+00
  2.30000000E+02  6.00000000E+01  0.00000000E+00
  2.30000000E+02  5.80000000E+01  0.00000000E+00
  2.30000000E+02  5.60000000E+01  0.00000000E+00
  2.30000000E+02  5.40000000E+01  0.00000000E+00
  2.30000000E+02  5.20000000E+01  0.00000000E+00
  2.30000000E+02  5.00000000E+01  0.00000000E+00
  2.30000000E+02  4.80000000E+01  0.00000000E+00
  2.30000000E+02  4.60000000E+01  0.00000000E+00
  2.30000000E+02  4.40000000E+01  0.00000000E+00
  2.30000000E+02  4.20000000E+01  0.00000000E+00
  2.30000000E+02  4.00000000E+01  0.00000000E+00
  2.30000000E+02  3.80000000E+01  0.00000000E+00
  2.30000000E+02  3.60000000E+01  0.00000000E+00
  2.30000000E+02  3.40000000E+01  0.00000000E+00
  2.30000000E+02  3.20000000E+01  0.00000000E+00
  2.30000000E+02  3.00000000E+01  0.00000000E+00
  2.30000000E+02  2.80000000E+01  0.00000000E+00
  2.30000000E+02  2.60000000E+01  0.00000000E+00
  2.30000000E+02  2.40000000E+01  0.00000000E+00
  2.30000000E+02  2.20000000E+01  0.00000000E+00
  2.30000000E+02  2.00000000E+01  0.00000000E+00
  2.30000000E+02  1.80000000E+01  0.00000000E+00
  2.30000000E+02  1.60000000E+01  0.00000000E+00
  2.30000000E+02  1.40000000E+01  0.00000000E+00
  2.30000000E+02  1.20000000E+01  0.00000000E+00
  2.30000000E+02  1.00000000E+01  0.00000000E+00
  2.30000000E+02  8.00000000E+00  0.00000000E+00
  2.30000000E+02  6.00000000E+00  0.00000000E+00
  2.30000000E+02  4.00000000E+00  0.00000000E+00
  2.30000000E+02  2.00000000E+00  0.00000000E+00
  2.30000000E+02 -3.33066907E-14  0.00000000E+00
  2.40000000E+02  1.00000000E+02  0.00000000E+00
  2.40000000E+02  9.80000000E+01  0.00000000E+00
  2.40000000E+02  9.60000000E+01  0.00000000E+00
  2.40000000E+02  9.40000000E+01  0.00000000E+00
  2.40000000E+02  9.20000000E+01  0.00000000E+00
  2.40000000E+02  9.00000000E+01  0.00000000E+00
  2.40000000E+02  8.80000000E+01  0.00000000E+00
  2.40000000E+02  8.60000000E+01  0.00000000E+00
  2.40000000E+02  8.40000000E+01  0.00000000E+00
  2.40000000E+02  8.20000000E+01  0.00000000E+00
  2.40000000E+02  8.00000000E+01  0.00000000E+00
  2.40000000E+02  7.80000000E+01  0.00000000E+00
  2.40000000E+02  7.60000000E+01  0.00000000E+00
  2.40000000E+02  7.40000000E+01  0.00000000E+00
  2.40000000E+02  7.20000000E+01  0.00000000E+00
  2.40000000E+02  7.00000000E+01  0.00000000E+00
  2.40000000E+02  6.80000000E+01  0.00000000E+00
  2.40000000E+02  6.60000000E+01  0.00000000E+00
  2.40000000E+02  6.40000000E+01  0.00000000E+00
  2.40000000E+02  6.20000000E+01  0.00000000E+00
  2.40000000E+02  6.00000000E+01  0.00000000E+00
  2.40000000E+02  5.80000000E+01  0.00000000E+00
  2.40000000E+02  5.60000000E+01  0.00000000E+00
  2.40000000E+02  5.40000000E+01  0.00000000E+00
  2.40000000E+02  5.20000000E+01  0.00000000E+00
  2.40000000E+02  5.00000000E+01  0.00000000E+00
  2.40000000E+02  4.80000000E+01  0.00000000E+00
  2.40000000E+02  4.60000000E+01  0.00000000E+00
  2.40000000E+02  4.40000000E+01  0.00000000E+00
  2.40000000E+02  4.20000000E+01  0.00000000E+00
  2.40000000E+02  4.00000000E+01  0.00000000E+00
  2.40000000E+02  3.80000000E+01  0.00000000E+00
  2.40000000E+02  3.60000000E+01  0.00000000E+00
  2.40000000E+02  3.40000000E+01  0.00000000E+00
  2.40000000E+02  3.20000000E+01  0.00000000E+00
  2.40000000E+02  3.00000000E+01  0.00000000E+00
  2.40000000E+02  2.80000000E+01  0.00000000E+00
  2.40000000E+02  2.60000000E+01  0.00000000E+00
  2.40000000E+02  2.40000000E+01  0.00000000E+00
  2.40000000E+02  2.20000000E+01  0.00000000E+00
  2.40000000E+02  2.00000000E+01  0.00000000E+00
  2.40000000E+02  1.80000000E+01  0.00000000E+00
  2.40000000E+02  1.60000000E+01  0.00000000E+00
  2.40000000E+02  1.40000000E+01  0.00000000E+00
  2.40000000E+02  1.20000000E+01  0.00000000E+00
  2.40000000E+02  1.00000000E+01  0.00000000E+00
  2.40000000E+02  8.00000000E+00  0.00000000E+00
  2.40000000E+02  6.00000000E+00  0.00000000E+00
  2.40000000E+02  4.00000000E+00  0.00000000E+00
  2.40000000E+02  2.00000000E+00  0.00000000E+00
  2.40000000E+02 -3.33066907E-14  0.00000000E+00
  2.50000000E+02  1.00000000E+02  0.00000000E+00
  2.50000000E+02  9.80000000E+01  0.00000000E+00
  2.50000000E+02  9.60000000E+01  0.00000000E+00
  2.50000000E+02  9.40000000E+01  0.00000000E+00
  2.50000000E+02  9.20000000E+01  0.00000000E+00
  2.50000000E+02  9.00000000E+01  0.00000000E+00
  2.50000000E+02  8.80000000E+01  0.00000000E+00
  2.50000000E+02  8.60000000E+01  0.00000000E+00
  2.50000000E+02  8.40000000E+01  0.00000000E+00
  2.50000000E+02  8.20000000E+01  0.00000000E+00
  2.50000000E+02  8.00000000E+01  0.00000000E+00
  2.50000000E+02  7.80000000E+01  0.00000000E+00
  2.50000000E+02  7.60000000E+01  0.00000000E+00
  2.50000000E+02  7.40000000E+01  0.00000000E+00
  2.50000000E+02  7.20000000E+01  0.00000000E+00
  2.50000000E+02  7.00000000E+01  0.00000000E+00
  2.50000000E+02  6.80000000E+01  0.00000000E+00
  2.50000000E+02  6.60000000E+01  0.00000000E+00
  2.50000000E+02  6.40000000E+01  0.00000000E+00
  2.50000000E+02  6.20000000E+01  0.00000000E+00
  2.50000000E+02  6.00000000E+01  0.00000000E+00
  2.50000000E+02  5.80000000E+01  0.00000000E+00
  2.50000000E+02  5.60000000E+01  0.00000000E+00
  2.50000000E+02  5.40000000E+01  0.00000000E+00
  2.50000000E+02  5.20000000E+01  0.00000000E+00
  2.50000000E+02  5.00000000E+01  0.00000000E+00
  2.50000000E+02  4.80000000E+01  0.00000000E+00
  2.50000000E+02  4.60000000E+01  0.00000000E+00
  2.50000000E+02  4.40000000E+01  0.00000000E+00
  2.50000000E+02  4.20000000E+01  0.00000000E+00
  2.50000000E+02  4.00000000E+01  0.00000000E+00
  2.50000000E+02  3.80000000E+01  0.00000000E+00
  2.50000000E+02  3.60000000E+01  0.00000000E+00
  2.50000000E+02  3.40000000E+01  0.00000000E+00
  2.50000000E+02  3.20000000E+01  0.00000000E+00
  2.50000000E+02  3.00000000E+01  0.00000000E+00
  2.50000000E+02  2.80000000E+01  0.00000000E+00
  2.50000000E+02  2.60000000E+01  0.00000000E+00
  2.50000000E+02  2.40000000E+01  0.00000000E+00
  2.50000000E+02  2.20000000E+01  0.00000000E+00
  2.50000000E+02  2.00000000E+01  0.00000000E+00
  2.50000000E+02  1.80000000E+01  0.00000000E+00
  2.50000000E+02  1.60000000E+01  0.00000000E+00
  2.50000000E+02  1.40000000E+01  0.00000000E+00
  2.50000000E+02  1.20000000E+01  0.00000000E+00
  2.50000000E+02  1.00000000E+01  0.00000000E+00
  2.50000000E+02  8.00000000E+00  0.00000000E+00
  2.50000000E+02  6.00000000E+00  0.00000000E+00
  2.50000000E+02  4.00000000E+00  0.00000000E+00
  2.50000000E+02  2.00000000E+00  0.00000000E+00
  2.50000000E+02 -3.33066907E-14  0.00000000E+00
  2.60000000E+02  1.00000000E+02  0.00000000E+00
  2.60000000E+02  9.80000000E+01  0.00000000E+00
  2.60000000E+02  9.60000000E+01  0.00000000E+00
  2.60000000E+02  9.40000000E+01  0.00000000E+00
  2.60000000E+02  9.20000000E+01  0.00000000E+00
  2.60000000E+02  9.00000000E+01  0.00000000E+00
  2.60000000E+02  8.80000000E+01  0.00000000E+00
  2.60000000E+02  8.60000000E+01  0.00000000E+00
  2.60000000E+02  8.40000000E+01  0.00000000E+00
  2.60000000E+02  8.20000000E+01  0.00000000E+00
  2.60000000E+02  8.00000000E+01  0.00000000E+00
  2.60000000E+02  7.80000000E+01  0.00000000E+00
  2.60000000E+02  7.60000000E+01  0.00000000E+00
  2.60000000E+02  7.40000000E+01  0.00000000E+00
  2.60000000E+02  7.20000000E+01  0.00000000E+00
  2.60000000E+02  7.00000000E+01  0.00000000E+00
  2.60000000E+02  6.80000000E+01  0.00000000E+00
  2.60000000E+02  6.60000000E+01  0.00000000E+00
  2.60000000E+02  6.40000000E+01  0.00000000E+00
  2.60000000E+02  6.20000000E+01  0.00000000E+00
  2.60000000E+02  6.00000000E+01  0.00000000E+00
  2.60000000E+02  5.80000000E+01  0.00000000E+00
  2.60000000E+02  5.60000000E+01  0.00000000E+00
  2.60000000E+02  5.40000000E+01  0.00000000E+00
  2.60000000E+02  5.20000000E+01  0.00000000E+00
  2.60000000E+02  5.00000000E+01  0.00000000E+00
  2.60000000E+02  4.80000000E+01  0.00000000E+00
  2.60000000E+02  4.60000000E+01  0.00000000E+00
  2.60000000E+02  4.40000000E+01  0.00000000E+00
  2.60000000E+02  4.20000000E+01  0.00000000E+00
  2.60000000E+02  4.00000000E+01  0.00000000E+00
  2.60000000E+02  3.80000000E+01  0.00000000E+00
  2.60000000E+02  3.60000000E+01  0.00000000E+00
  2.60000000E+02  3.40000000E+01  0.00000000E+00
  2.60000000E+02  3.20000000E+01  0.00000000E+00
  2.60000000E+02  3.00000000E+01  0.00000000E+00
  2.60000000E+02  2.80000000E+01  0.00000000E+00
  2.60000000E+02  2.60000000E+01  0.00000000E+00
  2.60000000E+02  2.40000000E+01  0.00000000E+00
  2.60000000E+02  2.20000000E+01  0.00000000E+00
  2.60000000E+02  2.00000000E+01  0.00000000E+00
  2.60000000E+02  1.80000000E+01  0.00000000E+00
  2.60000000E+02  1.60000000E+01  0.00000000E+00
  2.60000000E+02  1.40000000E+01  0.00000000E+00
  2.60000000E+02  1.20000000E+01  0.00000000E+00
  2.60000000E+02  1.00000000E+01  0.00000000E+00
  2.60000000E+02  8.00000000E+00  0.00000000E+00
  2.60000000E+02  6.00000000E+00  0.00000000E+00
  2.60000000E+02  4.00000000E+00  0.00000000E+00
  2.60000000E+02  2.00000000E+00  0.00000000E+00
  2.60000000E+02 -3.33066907E-14  0.00000000E+00
  2.70000000E+02  1.00000000E+02  0.00000000E+00
  2.70000000E+02  9.80000000E+01  0.00000000E+00
  2.70000000E+02  9.60000000E+01  0.00000000E+00
  2.70000000E+02  9.40000000E+01  0.00000000E+00
  2.70000000E+02  9.20000000E+01  0.00000000E+00
  2.70000000E+02  9.00000000E+01  0.00000000E+00
  2.70000000E+02  8.80000000E+01  0.00000000E+00
  2.70000000E+02  8.60000000E+01  0.00000000E+00
  2.70000000E+02  8.40000000E+01  0.00000000E+00
  2.70000000E+02  8.20000000E+01  0.00000000E+00
  2.70000000E+02  8.00000000E+01  0.00000000E+00
  2.70000000E+02  7.80000000E+01  0.00000000E+00
  2.70000000E+02  7.60000000E+01  0.00000000E+00
  2.70000000E+02  7.40000000E+01  0.00000000E+00
  2.70000000E+02  7.20000000E+01  0.00000000E+00
  2.70000000E+02  7.00000000E+01  0.00000000E+00
  2.70000000E+02  6.80000000E+01  0.00000000E+00
  2.70000000E+02  6.60000000E+01  0.00000000E+00
  2.70000000E+02  6.40000000E+01  0.00000000E+00
  2.70000000E+02  6.20000000E+01  0.00000000E+00
  2.70000000E+02  6.00000000E+01  0.00000000E+00
  2.70000000E+02  5.80000000E+01  0.00000000E+00
  2.70000000E+02  5.60000000E+01  0.00000000E+00
  2.70000000E+02  5.40000000E+01  0.00000000E+00
  2.70000000E+02  5.20000000E+01  0.00000000E+00
  2.70000000E+02  5.00000000E+01  0.00000000E+00
  2.70000000E+02  4.80000000E+01  0.00000000E+00
  2.70000000E+02  4.60000000E+01  0.00000000E+00
  2.70000000E+02  4.40000000E+01  0.00000000E+00
  2.70000000E+02  4.20000000E+01  0.00000000E+00
  2.70000000E+02  4.00000000E+01  0.00000000E+00
  2.70000000E+02  3.80000000E+01  0.00000000E+00
  2.70000000E+02  3.60000000E+01  0.00000000E+00
  2.70000000E+02  3.40000000E+01  0.00000000E+00
  2.70000000E+02  3.20000000E+01  0.00000000E+00
  2.70000000E+02  3.00000000E+01  0.00000000E+00
  2.70000000E+02  2.80000000E+01  0.00000000E+00
  2.70000000E+02  2.60000000E+01  0.00000000E+00
  2.70000000E+02  2.40000000E+01  0.00000000E+00
  2.70000000E+02  2.20000000E+01  0.00000000E+00
  2.70000000E+02  2.00000000E+01  0.00000000E+00
  2.70000000E+02  1.80000000E+01  0.00000000E+00
  2.70000000E+02  1.60000000E+01  0.00000000E+00
  2.70000000E+02  1.40000000E+01  0.00000000E+00
  2.70000000E+02  1.20000000E+01  0.00000000E+00
  2.70000000E+02  1.00000000E+01  0.00000000E+00
  2.70000000E+02  8.00000000E+00  0.00000000E+00
  2.70000000E+02  6.00000000E+00  0.00000000E+00
  2.70000000E+02  4.00000000E+00  0.00000000E+00
  2.70000000E+02  2.00000000E+00  0.00000000E+00
  2.70000000E+02 -3.33066907E-14  0.00000000E+00
  2.80000000E+02  1.00000000E+02  0.00000000E+00
  2.80000000E+02  9.80000000E+01  0.00000000E+00
  2.80000000E+02  9.60000000E+01  0.00000000E+00
  2.80000000E+02  9.40000000E+01  0.00000000E+00
  2.80000000E+02  9.20000000E+01  0.00000000E+00
  2.80000000E+02  9.00000000E+01  0.00000000E+00
  2.80000000E+02  8.80000000E+01  0.00000000E+00
  2.80000000E+02  8.60000000E+01  0.00000000E+00
  2.80000000E+02  8.40000000E+01  0.00000000E+00
  2.80000000E+02  8.20000000E+01  0.00000000E+00
  2.80000000E+02  8.00000000E+01  0.00000000E+00
  2.80000000E+02  7.80000000E+01  0.00000000E+00
  2.80000000E+02  7.60000000E+01  0.00000000E+00
  2.80000000E+02  7.40000000E+01  0.00000000E+00
  2.80000000E+02  7.20000000E+01  0.00000000E+00
  2.80000000E+02  7.00000000E+01  0.00000000E+00
  2.80000000E+02  6.80000000E+01  0.00000000E+00
  2.80000000E+02  6.60000000E+01  0.00000000E+00
  2.80000000E+02  6.40000000E+01  0.00000000E+00
  2.80000000E+02  6.20000000E+01  0.00000000E+00
  2.80000000E+02  6.00000000E+01  0.00000000E+00
  2.80000000E+02  5.80000000E+01  0.00000000E+00
  2.80000000E+02  5.60000000E+01  0.00000000E+00
  2.80000000E+02  5.40000000E+01  0.00000000E+00
  2.80000000E+02  5.20000000E+01  0.00000000E+00
  2.80000000E+02  5.00000000E+01  0.00000000E+00
  2.80000000E+02  4.80000000E+01  0.00000000E+00
  2.80000000E+02  4.60000000E+01  0.00000000E+00
  2.80000000E+02  4.40000000E+01  0.00000000E+00
  2.80000000E+02  4.20000000E+01  0.00000000E+00
  2.80000000E+02  4.00000000E+01  0.00000000E+00
  2.80000000E+02  3.80000000E+01  0.00000000E+00
  2.80000000E+02  3.60000000E+01  0.00000000E+00
  2.80000000E+02  3.40000000E+01  0.00000000E+00
  2.80000000E+02  3.20000000E+01  0.00000000E+00
  2.80000000E+02  3.00000000E+01  0.00000000E+00
  2.80000000E+02  2.80000000E+01  0.00000000E+00
  2.80000000E+02  2.60000000E+01  0.00000000E+00
  2.80000000E+02  2.40000000E+01  0.00000000E+00
  2.80000000E+02  2.20000000E+01  0.00000000E+00
  2.80000000E+02  2.00000000E+01  0.00000000E+00
  2.80000000E+02  1.80000000E+01  0.00000000E+00
  2.80000000E+02  1.60000000E+01  0.00000000E+00
  2.80000000E+02  1.40000000E+01  0.00000000E+00
  2.80000000E+02  1.20000000E+01  0.00000000E+00
  2.80000000E+02  1.00000000E+01  0.00000000E+00
  2.80000000E+02  8.00000000E+00  0.00000000E+00
  2.80000000E+02  6.00000000E+00  0.00000000E+00
  2.80000000E+02  4.00000000E+00  0.00000000E+00
  2.80000000E+02  2.00000000E+00  0.00000000E+00
  2.80000000E+02 -3.33066907E-14  0.00000000E+00
  2.90000000E+02  1.00000000E+02  0.00000000E+00
  2.90000000E+02  9.80000000E+01  0.00000000E+00
  2.90000000E+02  9.60000000E+01  0.00000000E+00
  2.90000000E+02  9.40000000E+01  0.00000000E+00
  2.90000000E+02  9.20000000E+01  0.00000000E+00
  2.90000000E+02  9.00000000E+01  0.00000000E+00
  2.90000000E+02  8.80000000E+01  0.00000000E+00
  2.90000000E+02  8.60000000E+01  0.00000000E+00
  2.90000000E+02  8.40000000E+01  0.00000000E+00
  2.90000000E+02  8.20000000E+01  0.00000000E+00
  2.90000000E+02  8.00000000E+01  0.00000000E+00
  2.90000000E+02  7.80000000E+01  0.00000000E+00
  2.90000000E+02  7.60000000E+01  0.00000000E+00
  2.90000000E+02  7.40000000E+01  0.00000000E+00
  2.90000000E+02  7.20000000E+01  0.00000000E+00
  2.90000000E+02  7.00000000E+01  0.00000000E+00
  2.90000000E+02  6.80000000E+01  0.00000000E+00
  2.90000000E+02  6.60000000E+01  0.00000000E+00
  2.90000000E+02  6.40000000E+01  0.00000000E+00
  2.90000000E+02  6.20000000E+01  0.00000000E+00
  2.90000000E+02  6.00000000E+01  0.00000000E+00
  2.90000000E+02  5.80000000E+01  0.00000000E+00
  2.90000000E+02  5.60000000E+01  0.00000000E+00
  2.90000000E+02  5.40000000E+01  0.00000000E+00
  2.90000000E+02  5.20000000E+01  0.00000000E+00
  2.90000000E+02  5.00000000E+01  0.00000000E+00
  2.90000000E+02  4.80000000E+01  0.00000000E+00
  2.90000000E+02  4.60000000E+01  0.00000000E+00
  2.90000000E+02  4.40000000E+01  0.00000000E+00
  2.90000000E+02  4.20000000E+01  0.00000000E+00
  2.90000000E+02  4.00000000E+01  0.00000000E+00
  2.90000000E+02  3.80000000E+01  0.00000000E+00
  2.90000000E+02  3.60000000E+01  0.00000000E+00
  2.90000000E+02  3.40000000E+01  0.00000000E+00
  2.90000000E+02  3.20000000E+01  0.00000000E+00
  2.90000000E+02  3.00000000E+01  0.00000000E+00
  2.90000000E+02  2.80000000E+01  0.00000000E+00
  2.90000000E+02  2.60000000E+01  0.00000000E+00
  2.90000000E+02  2.40000000E+01  0.00000000E+00
  2.90000000E+02  2.20000000E+01  0.00000000E+00
  2.90000000E+02  2.00000000E+01  0.00000000E+00
  2.90000000E+02  1.80000000E+01  0.00000000E+00
  2.90000000E+02  1.60000000E+01  0.00000000E+00
  2.90000000E+02  1.40000000E+01  0.00000000E+00
  2.90000000E+02  1.20000000E+01  0.00000000E+00
  2.90000000E+02  1.00000000E+01  0.00000000E+00
  2.90000000E+02  8.00000000E+00  0.00000000E+00
  2.90000000E+02  6.00000000E+00  0.00000000E+00
  2.90000000E+02  4.00000000E+00  0.00000000E+00
  2.90000000E+02  2.00000000E+00  0.00000000E+00
  2.90000000E+02 -3.33066907E-14  0.00000000E+00
  3.00000000E+02  1.00000000E+02  0.00000000E+00
  3.00000000E+02  9.80000000E+01  0.00000000E+00
  3.00000000E+02  9.60000000E+01  0.00000000E+00
  3.00000000E+02  9.40000000E+01  0.00000000E+00
  3.00000000E+02  9.20000000E+01  0.00000000E+00
  3.00000000E+02  9.00000000E+01  0.00000000E+00
  3.00000000E+02  8.80000000E+01  0.00000000E+00
  3.00000000E+02  8.60000000E+01  0.00000000E+00
  3.00000000E+02  8.40000000E+01  0.00000000E+00
  3.00000000E+02  8.20000000E+01  0.00000000E+00
  3.00000000E+02  8.00000000E+01  0.00000000E+00
  3.00000000E+02  7.80000000E+01  0.00000000E+00
  3.00000000E+02  7.60000000E+01  0.00000000E+00
  3.00000000E+02  7.40000000E+01  0.00000000E+00
  3.00000000E+02  7.20000000E+01  0.00000000E+00
  3.00000000E+02  7.00000000E+01  0.00000000E+00
  3.00000000E+02  6.80000000E+01  0.00000000E+00
  3.00000000E+02  6.60000000E+01  0.00000000E+00
  3.00000000E+02  6.40000000E+01  0.00000000E+00
  3.00000000E+02  6.20000000E+01  0.00000000E+00
  3.00000000E+02  6.00000000E+01  0.00000000E+00
  3.00000000E+02  5.80000000E+01  0.00000000E+00
  3.00000000E+02  5.60000000E+01  0.00000000E+00
  3.00000000E+02  5.40000000E+01  0.00000000E+00
  3.00000000E+02  5.20000000E+01  0.00000000E+00
  3.00000000E+02  5.00000000E+01  0.00000000E+00
  3.00000000E+02  4.80000000E+01  0.00000000E+00
  3.00000000E+02  4.60000000E+01  0.00000000E+00
  3.00000000E+02  4.40000000E+01  0.00000000E+00
  3.00000000E+02  4.20000000E+01  0.00000000E+00
  3.00000000E+02  4.00000000E+01  0.00000000E+00
  3.00000000E+02  3.80000000E+01  0.00000000E+00
  3.00000000E+02  3.60000000E+01  0.00000000E+00
  3.00000000E+02  3.40000000E+01  0.00000000E+00
  3.00000000E+02  3.20000000E+01  0.00000000E+00
  3.00000000E+02  3.00000000E+01  0.00000000E+00
  3.00000000E+02  2.80000000E+01  0.00000000E+00
  3.00000000E+02  2.60000000E+01  0.00000000E+00
  3.00000000E+02  2.40000000E+01  0.00000000E+00
  3.00000000E+02  2.20000000E+01  0.00000000E+00
  3.00000000E+02  2.00000000E+01  0.00000000E+00
  3.00000000E+02  1.80000000E+01  0.00000000E+00
  3.00000000E+02  1.60000000E+01  0.00000000E+00
  3.00000000E+02  1.40000000E+01  0.00000000E+00
  3.00000000E+02  1.20000000E+01  0.00000000E+00
  3.00000000E+02  1.00000000E+01  0.00000000E+00
  3.00000000E+02  8.00000000E+00  0.00000000E+00
  3.00000000E+02  6.00000000E+00  0.00000000E+00
  3.00000000E+02  4.00000000E+00  0.00000000E+00
  3.00000000E+02  2.00000000E+00  0.00000000E+00
  3.00000000E+02 -3.33066907E-14  0.00000000E+00
  3.10000000E+02  1.00000000E+02  0.00000000E+00
  3.10000000E+02  9.80000000E+01  0.00000000E+00
  3.10000000E+02  9.60000000E+01  0.00000000E+00
  3.10000000E+02  9.40000000E+01  0.00000000E+00
  3.10000000E+02  9.20000000E+01  0.00000000E+00
  3.10000000E+02  9.00000000E+01  0.00000000E+00
  3.10000000E+02  8.80000000E+01  0.00000000E+00
  3.10000000E+02  8.60000000E+01  0.00000000E+00
  3.10000000E+02  8.40000000E+01  0.00000000E+00
  3.10000000E+02  8.20000000E+01  0.00000000E+00
  3.10000000E+02  8.00000000E+01  0.00000000E+00
  3.10000000E+02  7.80000000E+01  0.00000000E+00
  3.10000000E+02  7.60000000E+01  0.00000000E+00
  3.10000000E+02  7.40000000E+01  0.00000000E+00
  3.10000000E+02  7.20000000E+01  0.00000000E+00
  3.10000000E+02  7.00000000E+01  0.00000000E+00
  3.10000000E+02  6.80000000E+01  0.00000000E+00
  3.10000000E+02  6.60000000E+01  0.00000000E+00
  3.10000000E+02  6.40000000E+01  0.00000000E+00
  3.10000000E+02  6.20000000E+01  0.00000000E+00
  3.10000000E+02  6.00000000E+01  0.00000000E+00
  3.10000000E+02  5.80000000E+01  0.00000000E+00
  3.10000000E+02  5.60000000E+01  0.00000000E+00
  3.10000000E+02  5.40000000E+01  0.00000000E+00
  3.10000000E+02  5.20000000E+01  0.00000000E+00
  3.10000000E+02  5.00000000E+01  0.00000000E+00
  3.10000000E+02  4.80000000E+01  0.00000000E+00
  3.10000000E+02  4.60000000E+01  0.00000000E+00
  3.10000000E+02  4.40000000E+01  0.00000000E+00
  3.10000000E+02  4.20000000E+01  0.00000000E+00
  3.10000000E+02  4.00000000E+01  0.00000000E+00
  3.10000000E+02  3.80000000E+01  0.00000000E+00
  3.10000000E+02  3.60000000E+01  0.00000000E+00
  3.10000000E+02  3.40000000E+01  0.00000000E+00
  3.10000000E+02  3.20000000E+01  0.00000000E+00
  3.10000000E+02  3.00000000E+01  0.00000000E+00
  3.10000000E+02  2.80000000E+01  0.00000000E+00
  3.10000000E+02  2.60000000E+01  0.00000000E+00
  3.10000000E+02  2.40000000E+01  0.00000000E+00
  3.10000000E+02  2.20000000E+01  0.00000000E+00
  3.10000000E+02  2.00000000E+01  0.00000000E+00
  3.10000000E+02  1.80000000E+01  0.00000000E+00
  3.10000000E+02  1.60000000E+01  0.00000000E+00
  3.10000000E+02  1.40000000E+01  0.00000000E+00
  3.10000000E+02  1.20000000E+01  0.00000000E+00
  3.10000000E+02  1.00000000E+01  0.00000000E+00
  3.10000000E+02  8.00000000E+00  0.00000000E+00
  3.10000000E+02  6.00000000E+00  0.00000000E+00
  3.10000000E+02  4.00000000E+00  0.00000000E+00
  3.10000000E+02  2.00000000E+00  0.00000000E+00
  3.10000000E+02 -3.33066907E-14  0.00000000E+00
  3.20000000E+02  1.00000000E+02  0.00000000E+00
  3.20000000E+02  9.80000000E+01  0.00000000E+00
  3.20000000E+02  9.60000000E+01  0.00000000E+00
  3.20000000E+02  9.40000000E+01  0.00000000E+00
  3.20000000E+02  9.20000000E+01  0.00000000E+00
  3.20000000E+02  9.00000000E+01  0.00000000E+00
  3.20000000E+02  8.80000000E+01  0.00000000E+00
  3.20000000E+02  8.60000000E+01  0.00000000E+00
  3.20000000E+02  8.40000000E+01  0.00000000E+00
  3.20000000E+02  8.20000000E+01  0.00000000E+00
  3.20000000E+02  8.00000000E+01  0.00000000E+00
  3.20000000E+02  7.80000000E+01  0.00000000E+00
  3.20000000E+02  7.60000000E+01  0.00000000E+00
  3.20000000E+02  7.40000000E+01  0.00000000E+00
  3.20000000E+02  7.20000000E+01  0.00000000E+00
  3.20000000E+02  7.00000000E+01  0.00000000E+00
  3.20000000E+02  6.80000000E+01  0.00000000E+00
  3.20000000E+02  6.60000000E+01  0.00000000E+00
  3.20000000E+02  6.40000000E+01  0.00000000E+00
  3.20000000E+02  6.20000000E+01  0.00000000E+00
  3.20000000E+02  6.00000000E+01  0.00000000E+00
  3.20000000E+02  5.80000000E+01  0.00000000E+00
  3.20000000E+02  5.60000000E+01  0.00000000E+00
  3.20000000E+02  5.40000000E+01  0.00000000E+00
  3.20000000E+02  5.20000000E+01  0.00000000E+00
  3.20000000E+02  5.00000000E+01  0.00000000E+00
  3.20000000E+02  4.80000000E+01  0.00000000E+00
  3.20000000E+02  4.60000000E+01  0.00000000E+00
  3.20000000E+02  4.40000000E+01  0.00000000E+00
  3.20000000E+02  4.20000000E+01  0.00000000E+00
  3.20000000E+02  4.00000000E+01  0.00000000E+00
  3.20000000E+02  3.80000000E+01  0.00000000E+00
  3.20000000E+02  3.60000000E+01  0.00000000E+00
  3.20000000E+02  3.40000000E+01  0.00000000E+00
  3.20000000E+02  3.20000000E+01  0.00000000E+00
  3.20000000E+02  3.00000000E+01  0.00000000E+00
  3.20000000E+02  2.80000000E+01  0.00000000E+00
  3.20000000E+02  2.60000000E+01  0.00000000E+00
  3.20000000E+02  2.40000000E+01  0.00000000E+00
  3.20000000E+02  2.20000000E+01  0.00000000E+00
  3.20000000E+02  2.00000000E+01  0.00000000E+00
  3.20000000E+02  1.80000000E+01  0.00000000E+00
  3.20000000E+02  1.60000000E+01  0.00000000E+00
  3.20000000E+02  1.40000000E+01  0.00000000E+00
  3.20000000E+02  1.20000000E+01  0.00000000E+00
  3.20000000E+02  1.00000000E+01  0.00000000E+00
  3.20000000E+02  8.00000000E+00  0.00000000E+00
  3.20000000E+02  6.00000000E+00  0.00000000E+00
  3.20000000E+02  4.00000000E+00  0.00000000E+00
  3.20000000E+02  2.00000000E+00  0.00000000E+00
  3.20000000E+02 -3.33066907E-14  0.00000000E+00
  3.30000000E+02  1.00000000E+02  0.00000000E+00
  3.30000000E+02  9.80000000E+01  0.00000000E+00
  3.30000000E+02  9.60000000E+01  0.00000000E+00
  3.30000000E+02  9.40000000E+01  0.00000000E+00
  3.30000000E+02  9.20000000E+01  0.00000000E+00
  3.30000000E+02  9.00000000E+01  0.00000000E+00
  3.30000000E+02  8.80000000E+01  0.00000000E+00
  3.30000000E+02  8.60000000E+01  0.00000000E+00
  3.30000000E+02  8.40000000E+01  0.00000000E+00
  3.30000000E+02  8.20000000E+01  0.00000000E+00
  3.30000000E+02  8.00000000E+01  0.00000000E+00
  3.30000000E+02  7.80000000E+01  0.00000000E+00
  3.30000000E+02  7.60000000E+01  0.00000000E+00
  3.30000000E+02  7.40000000E+01  0.00000000E+00
  3.30000000E+02  7.20000000E+01  0.00000000E+00
  3.30000000E+02  7.00000000E+01  0.00000000E+00
  3.30000000E+02  6.80000000E+01  0.00000000E+00
  3.30000000E+02  6.60000000E+01  0.00000000E+00
  3.30000000E+02  6.40000000E+01  0.00000000E+00
  3.30000000E+02  6.20000000E+01  0.00000000E+00
  3.30000000E+02  6.00000000E+01  0.00000000E+00
  3.30000000E+02  5.80000000E+01  0.00000000E+00
  3.30000000E+02  5.60000000E+01  0.00000000E+00
  3.30000000E+02  5.40000000E+01  0.00000000E+00
  3.30000000E+02  5.20000000E+01  0.00000000E+00
  3.30000000E+02  5.00000000E+01  0.00000000E+00
  3.30000000E+02  4.80000000E+01  0.00000000E+00
  3.30000000E+02  4.60000000E+01  0.00000000E+00
  3.30000000E+02  4.40000000E+01  0.00000000E+00
  3.30000000E+02  4.20000000E+01  0.00000000E+00
  3.30000000E+02  4.00000000E+01  0.00000000E+00
  3.30000000E+02  3.80000000E+01  0.00000000E+00
  3.30000000E+02  3.60000000E+01  0.00000000E+00
  3.30000000E+02  3.40000000E+01  0.00000000E+00
  3.30000000E+02  3.20000000E+01  0.00000000E+00
  3.30000000E+02  3.00000000E+01  0.00000000E+00
  3.30000000E+02  2.80000000E+01  0.00000000E+00
  3.30000000E+02  2.60000000E+01  0.00000000E+00
  3.30000000E+02  2.40000000E+01  0.00000000E+00
  3.30000000E+02  2.20000000E+01  0.00000000E+00
  3.30000000E+02  2.00000000E+01  0.00000000E+00
  3.30000000E+02  1.80000000E+01  0.00000000E+00
  3.30000000E+02  1.60000000E+01  0.00000000E+00
  3.30000000E+02  1.40000000E+01  0.00000000E+00
  3.30000000E+02  1.20000000E+01  0.00000000E+00
  3.30000000E+02  1.00000000E+01  0.00000000E+00
  3.30000000E+02  8.00000000E+00  0.00000000E+00
  3.30000000E+02  6.00000000E+00  0.00000000E+00
  3.30000000E+02  4.00000000E+00  0.00000000E+00
  3.30000000E+02  2.00000000E+00  0.00000000E+00
  3.30000000E+02 -3.33066907E-14  0.00000000E+00
  3.40000000E+02  1.00000000E+02  0.00000000E+00
  3.40000000E+02  9.80000000E+01  0.00000000E+00
  3.40000000E+02  9.60000000E+01  0.00000000E+00
  3.40000000E+02  9.40000000E+01  0.00000000E+00
  3.40000000E+02  9.20000000E+01  0.00000000E+00
  3.40000000E+02  9.00000000E+01  0.00000000E+00
  3.40000000E+02  8.80000000E+01  0.00000000E+00
  3.40000000E+02  8.60000000E+01  0.00000000E+00
  3.40000000E+02  8.40000000E+01  0.00000000E+00
  3.40000000E+02  8.20000000E+01  0.00000000E+00
  3.40000000E+02  8.00000000E+01  0.00000000E+00
  3.40000000E+02  7.80000000E+01  0.00000000E+00
  3.40000000E+02  7.60000000E+01  0.00000000E+00
  3.40000000E+02  7.40000000E+01  0.00000000E+00
  3.40000000E+02  7.20000000E+01  0.00000000E+00
  3.40000000E+02  7.00000000E+01  0.00000000E+00
  3.40000000E+02  6.80000000E+01  0.00000000E+00
  3.40000000E+02  6.60000000E+01  0.00000000E+00
  3.40000000E+02  6.40000000E+01  0.00000000E+00
  3.40000000E+02  6.20000000E+01  0.00000000E+00
  3.40000000E+02  6.00000000E+01  0.00000000E+00
  3.40000000E+02  5.80000000E+01  0.00000000E+00
  3.40000000E+02  5.60000000E+01  0.00000000E+00
  3.40000000E+02  5.40000000E+01  0.00000000E+00
  3.40000000E+02  5.20000000E+01  0.00000000E+00
  3.40000000E+02  5.00000000E+01  0.00000000E+00
  3.40000000E+02  4.80000000E+01  0.00000000E+00
  3.40000000E+02  4.60000000E+01  0.00000000E+00
  3.40000000E+02  4.40000000E+01  0.00000000E+00
  3.40000000E+02  4.20000000E+01  0.00000000E+00
  3.40000000E+02  4.00000000E+01  0.00000000E+00
  3.40000000E+02  3.80000000E+01  0.00000000E+00
  3.40000000E+02  3.60000000E+01  0.00000000E+00
  3.40000000E+02  3.40000000E+01  0.00000000E+00
  3.40000000E+02  3.20000000E+01  0.00000000E+00
  3.40000000E+02  3.00000000E+01  0.00000000E+00
  3.40000000E+02  2.80000000E+01  0.00000000E+00
  3.40000000E+02  2.60000000E+01  0.00000000E+00
  3.40000000E+02  2.40000000E+01  0.00000000E+00
  3.40000000E+02  2.20000000E+01  0.00000000E+00
  3.40000000E+02  2.00000000E+01  0.00000000E+00
  3.40000000E+02  1.80000000E+01  0.00000000E+00
  3.40000000E+02  1.60000000E+01  0.00000000E+00
  3.40000000E+02  1.40000000E+01  0.00000000E+00
  3.40000000E+02  1.20000000E+01  0.00000000E+00
  3.40000000E+02  1.00000000E+01  0.00000000E+00
  3.40000000E+02  8.00000000E+00  0.00000000E+00
  3.40000000E+02  6.00000000E+00  0.00000000E+00
  3.40000000E+02  4.00000000E+00  0.00000000E+00
  3.40000000E+02  2.00000000E+00  0.00000000E+00
  3.40000000E+02 -3.33066907E-14  0.00000000E+00
  3.50000000E+02  1.00000000E+02  0.00000000E+00
  3.50000000E+02  9.80000000E+01  0.00000000E+00
  3.50000000E+02  9.60000000E+01  0.00000000E+00
  3.50000000E+02  9.40000000E+01  0.00000000E+00
  3.50000000E+02  9.20000000E+01  0.00000000E+00
  3.50000000E+02  9.00000000E+01  0.00000000E+00
  3.50000000E+02  8.80000000E+01  0.00000000E+00
  3.50000000E+02  8.60000000E+01  0.00000000E+00
  3.50000000E+02  8.40000000E+01  0.00000000E+00
  3.50000000E+02  8.20000000E+01  0.00000000E+00
  3.50000000E+02  8.00000000E+01  0.00000000E+00
  3.50000000E+02  7.80000000E+01  0.00000000E+00
  3.50000000E+02  7.60000000E+01  0.00000000E+00
  3.50000000E+02  7.40000000E+01  0.00000000E+00
  3.50000000E+02  7.20000000E+01  0.00000000E+00
  3.50000000E+02  7.00000000E+01  0.00000000E+00
  3.50000000E+02  6.80000000E+01  0.00000000E+00
  3.50000000E+02  6.60000000E+01  0.00000000E+00
  3.50000000E+02  6.40000000E+01  0.00000000E+00
  3.50000000E+02  6.20000000E+01  0.00000000E+00
  3.50000000E+02  6.00000000E+01  0.00000000E+00
  3.50000000E+02  5.80000000E+01  0.00000000E+00
  3.50000000E+02  5.60000000E+01  0.00000000E+00
  3.50000000E+02  5.40000000E+01  0.00000000E+00
  3.50000000E+02  5.20000000E+01  0.00000000E+00
  3.50000000E+02  5.00000000E+01  0.00000000E+00
  3.50000000E+02  4.80000000E+01  0.00000000E+00
  3.50000000E+02  4.60000000E+01  0.00000000E+00
  3.50000000E+02  4.40000000E+01  0.00000000E+00
  3.50000000E+02  4.20000000E+01  0.00000000E+00
  3.50000000E+02  4.00000000E+01  0.00000000E+00
  3.50000000E+02  3.80000000E+01  0.00000000E+00
  3.50000000E+02  3.60000000E+01  0.00000000E+00
  3.50000000E+02  3.40000000E+01  0.00000000E+00
  3.50000000E+02  3.20000000E+01  0.00000000E+00
  3.50000000E+02  3.00000000E+01  0.00000000E+00
  3.50000000E+02  2.80000000E+01  0.00000000E+00
  3.50000000E+02  2.60000000E+01  0.00000000E+00
  3.50000000E+02  2.40000000E+01  0.00000000E+00
  3.50000000E+02  2.20000000E+01  0.00000000E+00
  3.50000000E+02  2.00000000E+01  0.00000000E+00
  3.50000000E+02  1.80000000E+01  0.00000000E+00
  3.50000000E+02  1.60000000E+01  0.00000000E+00
  3.50000000E+02  1.40000000E+01  0.00000000E+00
  3.50000000E+02  1.20000000E+01  0.00000000E+00
  3.50000000E+02  1.00000000E+01  0.00000000E+00
  3.50000000E+02  8.00000000E+00  0.00000000E+00
  3.50000000E+02  6.00000000E+00  0.00000000E+00
  3.50000000E+02  4.00000000E+00  0.00000000E+00
  3.50000000E+02  2.00000000E+00  0.00000000E+00
  3.50000000E+02 -3.33066907E-14  0.00000000E+00
  3.60000000E+02  1.00000000E+02  0.00000000E+00
  3.60000000E+02  9.80000000E+01  0.00000000E+00
  3.60000000E+02  9.60000000E+01  0.00000000E+00
  3.60000000E+02  9.40000000E+01  0.00000000E+00
  3.60000000E+02  9.20000000E+01  0.00000000E+00
  3.60000000E+02  9.00000000E+01  0.00000000E+00
  3.60000000E+02  8.80000000E+01  0.00000000E+00
  3.60000000E+02  8.60000000E+01  0.00000000E+00
  3.60000000E+02  8.40000000E+01  0.00000000E+00
  3.60000000E+02  8.20000000E+01  0.00000000E+00
  3.60000000E+02  8.00000000E+01  0.00000000E+00
  3.60000000E+02  7.80000000E+01  0.00000000E+00
  3.60000000E+02  7.60000000E+01  0.00000000E+00
  3.60000000E+02  7.40000000E+01  0.00000000E+00
  3.60000000E+02  7.20000000E+01  0.00000000E+00
  3.60000000E+02  7.00000000E+01  0.00000000E+00
  3.60000000E+02  6.80000000E+01  0.00000000E+00
  3.60000000E+02  6.60000000E+01  0.00000000E+00
  3.60000000E+02  6.40000000E+01  0.00000000E+00
  3.60000000E+02  6.20000000E+01  0.00000000E+00
  3.60000000E+02  6.00000000E+01  0.00000000E+00
  3.60000000E+02  5.80000000E+01  0.00000000E+00
  3.60000000E+02  5.60000000E+01  0.00000000E+00
  3.60000000E+02  5.40000000E+01  0.00000000E+00
  3.60000000E+02  5.20000000E+01  0.00000000E+00
  3.60000000E+02  5.00000000E+01  0.00000000E+00
  3.60000000E+02  4.80000000E+01  0.00000000E+00
  3.60000000E+02  4.60000000E+01  0.00000000E+00
  3.60000000E+02  4.40000000E+01  0.00000000E+00
  3.60000000E+02  4.20000000E+01  0.00000000E+00
  3.60000000E+02  4.00000000E+01  0.00000000E+00
  3.60000000E+02  3.80000000E+01  0.00000000E+00
  3.60000000E+02  3.60000000E+01  0.00000000E+00
  3.60000000E+02  3.40000000E+01  0.00000000E+00
  3.60000000E+02  3.20000000E+01  0.00000000E+00
  3.60000000E+02  3.00000000E+01  0.00000000E+00
  3.60000000E+02  2.80000000E+01  0.00000000E+00
  3.60000000E+02  2.60000000E+01  0.00000000E+00
  3.60000000E+02  2.40000000E+01  0.00000000E+00
  3.60000000E+02  2.20000000E+01  0.00000000E+00
  3.60000000E+02  2.00000000E+01  0.00000000E+00
  3.60000000E+02  1.80000000E+01  0.00000000E+00
  3.60000000E+02  1.60000000E+01  0.00000000E+00
  3.60000000E+02  1.40000000E+01  0.00000000E+00
  3.60000000E+02  1.20000000E+01  0.00000000E+00
  3.60000000E+02  1.00000000E+01  0.00000000E+00
  3.60000000E+02  8.00000000E+00  0.00000000E+00
  3.60000000E+02  6.00000000E+00  0.00000000E+00
  3.60000000E+02  4.00000000E+00  0.00000000E+00
  3.60000000E+02  2.00000000E+00  0.00000000E+00
  3.60000000E+02 -3.33066907E-14  0.00000000E+00
  3.70000000E+02  1.00000000E+02  0.00000000E+00
  3.70000000E+02  9.80000000E+01  0.00000000E+00
  3.70000000E+02  9.60000000E+01  0.00000000E+00
  3.70000000E+02  9.40000000E+01  0.00000000E+00
  3.70000000E+02  9.20000000E+01  0.00000000E+00
  3.70000000E+02  9.00000000E+01  0.00000000E+00
  3.70000000E+02  8.80000000E+01  0.00000000E+00
  3.70000000E+02  8.60000000E+01  0.00000000E+00
  3.70000000E+02  8.40000000E+01  0.00000000E+00
  3.70000000E+02  8.20000000E+01  0.00000000E+00
  3.70000000E+02  8.00000000E+01  0.00000000E+00
  3.70000000E+02  7.80000000E+01  0.00000000E+00
  3.70000000E+02  7.60000000E+01  0.00000000E+00
  3.70000000E+02  7.40000000E+01  0.00000000E+00
  3.70000000E+02  7.20000000E+01  0.00000000E+00
  3.70000000E+02  7.00000000E+01  0.00000000E+00
  3.70000000E+02  6.80000000E+01  0.00000000E+00
  3.70000000E+02  6.60000000E+01  0.00000000E+00
  3.70000000E+02  6.40000000E+01  0.00000000E+00
  3.70000000E+02  6.20000000E+01  0.00000000E+00
  3.70000000E+02  6.00000000E+01  0.00000000E+00
  3.70000000E+02  5.80000000E+01  0.00000000E+00
  3.70000000E+02  5.60000000E+01  0.00000000E+00
  3.70000000E+02  5.40000000E+01  0.00000000E+00
  3.70000000E+02  5.20000000E+01  0.00000000E+00
  3.70000000E+02  5.00000000E+01  0.00000000E+00
  3.70000000E+02  4.80000000E+01  0.00000000E+00
  3.70000000E+02  4.60000000E+01  0.00000000E+00
  3.70000000E+02  4.40000000E+01  0.00000000E+00
  3.70000000E+02  4.20000000E+01  0.00000000E+00
  3.70000000E+02  4.00000000E+01  0.00000000E+00
  3.70000000E+02  3.80000000E+01  0.00000000E+00
  3.70000000E+02  3.60000000E+01  0.00000000E+00
  3.70000000E+02  3.40000000E+01  0.00000000E+00
  3.70000000E+02  3.20000000E+01  0.00000000E+00
  3.70000000E+02  3.00000000E+01  0.00000000E+00
  3.70000000E+02  2.80000000E+01  0.00000000E+00
  3.70000000E+02  2.60000000E+01  0.00000000E+00
  3.70000000E+02  2.40000000E+01  0.00000000E+00
  3.70000000E+02  2.20000000E+01  0.00000000E+00
  3.70000000E+02  2.00000000E+01  0.00000000E+00
  3.70000000E+02  1.80000000E+01  0.00000000E+00
  3.70000000E+02  1.60000000E+01  0.00000000E+00
  3.70000000E+02  1.40000000E+01  0.00000000E+00
  3.70000000E+02  1.20000000E+01  0.00000000E+00
  3.70000000E+02  1.00000000E+01  0.00000000E+00
  3.70000000E+02  8.00000000E+00  0.00000000E+00
  3.70000000E+02  6.00000000E+00  0.00000000E+00
  3.70000000E+02  4.00000000E+00  0.00000000E+00
  3.70000000E+02  2.00000000E+00  0.00000000E+00
  3.70000000E+02 -3.33066907E-14  0.00000000E+00
  3.80000000E+02  1.00000000E+02  0.00000000E+00
  3.80000000E+02  9.80000000E+01  0.00000000E+00
  3.80000000E+02  9.60000000E+01  0.00000000E+00
  3.80000000E+02  9.40000000E+01  0.00000000E+00
  3.80000000E+02  9.20000000E+01  0.00000000E+00
  3.80000000E+02  9.00000000E+01  0.00000000E+00
  3.80000000E+02  8.80000000E+01  0.00000000E+00
  3.80000000E+02  8.60000000E+01  0.00000000E+00
  3.80000000E+02  8.40000000E+01  0.00000000E+00
  3.80000000E+02  8.20000000E+01  0.00000000E+00
  3.80000000E+02  8.00000000E+01  0.00000000E+00
  3.80000000E+02  7.80000000E+01  0.00000000E+00
  3.80000000E+02  7.60000000E+01  0.00000000E+00
  3.80000000E+02  7.40000000E+01  0.00000000E+00
  3.80000000E+02  7.20000000E+01  0.00000000E+00
  3.80000000E+02  7.00000000E+01  0.00000000E+00
  3.80000000E+02  6.80000000E+01  0.00000000E+00
  3.80000000E+02  6.60000000E+01  0.00000000E+00
  3.80000000E+02  6.40000000E+01  0.00000000E+00
  3.80000000E+02  6.20000000E+01  0.00000000E+00
  3.80000000E+02  6.00000000E+01  0.00000000E+00
  3.80000000E+02  5.80000000E+01  0.00000000E+00
  3.80000000E+02  5.60000000E+01  0.00000000E+00
  3.80000000E+02  5.40000000E+01  0.00000000E+00
  3.80000000E+02  5.20000000E+01  0.00000000E+00
  3.80000000E+02  5.00000000E+01  0.00000000E+00
  3.80000000E+02  4.80000000E+01  0.00000000E+00
  3.80000000E+02  4.60000000E+01  0.00000000E+00
  3.80000000E+02  4.40000000E+01  0.00000000E+00
  3.80000000E+02  4.20000000E+01  0.00000000E+00
  3.80000000E+02  4.00000000E+01  0.00000000E+00
  3.80000000E+02  3.80000000E+01  0.00000000E+00
  3.80000000E+02  3.60000000E+01  0.00000000E+00
  3.80000000E+02  3.40000000E+01  0.00000000E+00
  3.80000000E+02  3.20000000E+01  0.00000000E+00
  3.80000000E+02  3.00000000E+01  0.00000000E+00
  3.80000000E+02  2.80000000E+01  0.00000000E+00
  3.80000000E+02  2.60000000E+01  0.00000000E+00
  3.80000000E+02  2.40000000E+01  0.00000000E+00
  3.80000000E+02  2.20000000E+01  0.00000000E+00
  3.80000000E+02  2.00000000E+01  0.00000000E+00
  3.80000000E+02  1.80000000E+01  0.00000000E+00
  3.80000000E+02  1.60000000E+01  0.00000000E+00
  3.80000000E+02  1.40000000E+01  0.00000000E+00
  3.80000000E+02  1.20000000E+01  0.00000000E+00
  3.80000000E+02  1.00000000E+01  0.00000000E+00
  3.80000000E+02  8.00000000E+00  0.00000000E+00
  3.80000000E+02  6.00000000E+00  0.00000000E+00
  3.80000000E+02  4.00000000E+00  0.00000000E+00
  3.80000000E+02  2.00000000E+00  0.00000000E+00
  3.80000000E+02 -3.33066907E-14  0.00000000E+00
  3.90000000E+02  1.00000000E+02  0.00000000E+00
  3.90000000E+02  9.80000000E+01  0.00000000E+00
  3.90000000E+02  9.60000000E+01  0.00000000E+00
  3.90000000E+02  9.40000000E+01  0.00000000E+00
  3.90000000E+02  9.20000000E+01  0.00000000E+00
  3.90000000E+02  9.00000000E+01  0.00000000E+00
  3.90000000E+02  8.80000000E+01  0.00000000E+00
  3.90000000E+02  8.60000000E+01  0.00000000E+00
  3.90000000E+02  8.40000000E+01  0.00000000E+00
  3.90000000E+02  8.20000000E+01  0.00000000E+00
  3.90000000E+02  8.00000000E+01  0.00000000E+00
  3.90000000E+02  7.80000000E+01  0.00000000E+00
  3.90000000E+02  7.60000000E+01  0.00000000E+00
  3.90000000E+02  7.40000000E+01  0.00000000E+00
  3.90000000E+02  7.20000000E+01  0.00000000E+00
  3.90000000E+02  7.00000000E+01  0.00000000E+00
  3.90000000E+02  6.80000000E+01  0.00000000E+00
  3.90000000E+02  6.60000000E+01  0.00000000E+00
  3.90000000E+02  6.40000000E+01  0.00000000E+00
  3.90000000E+02  6.20000000E+01  0.00000000E+00
  3.90000000E+02  6.00000000E+01  0.00000000E+00
  3.90000000E+02  5.80000000E+01  0.00000000E+00
  3.90000000E+02  5.60000000E+01  0.00000000E+00
  3.90000000E+02  5.40000000E+01  0.00000000E+00
  3.90000000E+02  5.20000000E+01  0.00000000E+00
  3.90000000E+02  5.00000000E+01  0.00000000E+00
  3.90000000E+02  4.80000000E+01  0.00000000E+00
  3.90000000E+02  4.60000000E+01  0.00000000E+00
  3.90000000E+02  4.40000000E+01  0.00000000E+00
  3.90000000E+02  4.20000000E+01  0.00000000E+00
  3.90000000E+02  4.00000000E+01  0.00000000E+00
  3.90000000E+02  3.80000000E+01  0.00000000E+00
  3.90000000E+02  3.60000000E+01  0.00000000E+00
  3.90000000E+02  3.40000000E+01  0.00000000E+00
  3.90000000E+02  3.20000000E+01  0.00000000E+00
  3.90000000E+02  3.00000000E+01  0.00000000E+00
  3.90000000E+02  2.80000000E+01  0.00000000E+00
  3.90000000E+02  2.60000000E+01  0.00000000E+00
  3.90000000E+02  2.40000000E+01  0.00000000E+00
  3.90000000E+02  2.20000000E+01  0.00000000E+00
  3.90000000E+02  2.00000000E+01  0.00000000E+00
  3.90000000E+02  1.80000000E+01  0.00000000E+00
  3.90000000E+02  1.60000000E+01  0.00000000E+00
  3.90000000E+02  1.40000000E+01  0.00000000E+00
  3.90000000E+02  1.20000000E+01  0.00000000E+00
  3.90000000E+02  1.00000000E+01  0.00000000E+00
  3.90000000E+02  8.00000000E+00  0.00000000E+00
  3.90000000E+02  6.00000000E+00  0.00000000E+00
  3.90000000E+02  4.00000000E+00  0.00000000E+00
  3.90000000E+02  2.00000000E+00  0.00000000E+00
  3.90000000E+02 -3.33066907E-14  0.00000000E+00
  4.00000000E+02  1.00000000E+02  0.00000000E+00
  4.00000000E+02  9.80000000E+01  0.00000000E+00
  4.00000000E+02  9.60000000E+01  0.00000000E+00
  4.00000000E+02  9.40000000E+01  0.00000000E+00
  4.00000000E+02  9.20000000E+01  0.00000000E+00
  4.00000000E+02  9.00000000E+01  0.00000000E+00
  4.00000000E+02  8.80000000E+01  0.00000000E+00
  4.00000000E+02  8.60000000E+01  0.00000000E+00
  4.00000000E+02  8.40000000E+01  0.00000000E+00
  4.00000000E+02  8.20000000E+01  0.00000000E+00
  4.00000000E+02  8.00000000E+01  0.00000000E+00
  4.00000000E+02  7.80000000E+01  0.00000000E+00
  4.00000000E+02  7.60000000E+01  0.00000000E+00
  4.00000000E+02  7.40000000E+01  0.00000000E+00
  4.00000000E+02  7.20000000E+01  0.00000000E+00
  4.00000000E+02  7.00000000E+01  0.00000000E+00
  4.00000000E+02  6.80000000E+01  0.00000000E+00
  4.00000000E+02  6.60000000E+01  0.00000000E+00
  4.00000000E+02  6.40000000E+01  0.00000000E+00
  4.00000000E+02  6.20000000E+01  0.00000000E+00
  4.00000000E+02  6.00000000E+01  0.00000000E+00
  4.00000000E+02  5.80000000E+01  0.00000000E+00
  4.00000000E+02  5.60000000E+01  0.00000000E+00
  4.00000000E+02  5.40000000E+01  0.00000000E+00
  4.00000000E+02  5.20000000E+01  0.00000000E+00
  4.00000000E+02  5.00000000E+01  0.00000000E+00
  4.00000000E+02  4.80000000E+01  0.00000000E+00
  4.00000000E+02  4.60000000E+01  0.00000000E+00
  4.00000000E+02  4.40000000E+01  0.00000000E+00
  4.00000000E+02  4.20000000E+01  0.00000000E+00
  4.00000000E+02  4.00000000E+01  0.00000000E+00
  4.00000000E+02  3.80000000E+01  0.00000000E+00
  4.00000000E+02  3.60000000E+01  0.00000000E+00
  4.00000000E+02  3.40000000E+01  0.00000000E+00
  4.00000000E+02  3.20000000E+01  0.00000000E+00
  4.00000000E+02  3.00000000E+01  0.00000000E+00
  4.00000000E+02  2.80000000E+01  0.00000000E+00
  4.00000000E+02  2.60000000E+01  0.00000000E+00
  4.00000000E+02  2.40000000E+01  0.00000000E+00
  4.00000000E+02  2.20000000E+01  0.00000000E+00
  4.00000000E+02  2.00000000E+01  0.00000000E+00
  4.00000000E+02  1.80000000E+01  0.00000000E+00
  4.00000000E+02  1.60000000E+01  0.00000000E+00
  4.00000000E+02  1.40000000E+01  0.00000000E+00
  4.00000000E+02  1.20000000E+01  0.00000000E+00
  4.00000000E+02  1.00000000E+01  0.00000000E+00
  4.00000000E+02  8.00000000E+00  0.00000000E+00
  4.00000000E+02  6.00000000E+00  0.00000000E+00
  4.00000000E+02  4.00000000E+00  0.00000000E+00
  4.00000000E+02  2.00000000E+00  0.00000000E+00
  4.00000000E+02 -3.33066907E-14  0.00000000E+00
  4.10000000E+02  1.00000000E+02  0.00000000E+00
  4.10000000E+02  9.80000000E+01  0.00000000E+00
  4.10000000E+02  9.60000000E+01  0.00000000E+00
  4.10000000E+02  9.40000000E+01  0.00000000E+00
  4.10000000E+02  9.20000000E+01  0.00000000E+00
  4.10000000E+02  9.00000000E+01  0.00000000E+00
  4.10000000E+02  8.80000000E+01  0.00000000E+00
  4.10000000E+02  8.60000000E+01  0.00000000E+00
  4.10000000E+02  8.40000000E+01  0.00000000E+00
  4.10000000E+02  8.20000000E+01  0.00000000E+00
  4.10000000E+02  8.00000000E+01  0.00000000E+00
  4.10000000E+02  7.80000000E+01  0.00000000E+00
  4.10000000E+02  7.60000000E+01  0.00000000E+00
  4.10000000E+02  7.40000000E+01  0.00000000E+00
  4.10000000E+02  7.20000000E+01  0.00000000E+00
  4.10000000E+02  7.00000000E+01  0.00000000E+00
  4.10000000E+02  6.80000000E+01  0.00000000E+00
  4.10000000E+02  6.60000000E+01  0.00000000E+00
  4.10000000E+02  6.40000000E+01  0.00000000E+00
  4.10000000E+02  6.20000000E+01  0.00000000E+00
  4.10000000E+02  6.00000000E+01  0.00000000E+00
  4.10000000E+02  5.80000000E+01  0.00000000E+00
  4.10000000E+02  5.60000000E+01  0.00000000E+00
  4.10000000E+02  5.40000000E+01  0.00000000E+00
  4.10000000E+02  5.20000000E+01  0.00000000E+00
  4.10000000E+02  5.00000000E+01  0.00000000E+00
  4.10000000E+02  4.80000000E+01  0.00000000E+00
  4.10000000E+02  4.60000000E+01  0.00000000E+00
  4.10000000E+02  4.40000000E+01  0.00000000E+00
  4.10000000E+02  4.20000000E+01  0.00000000E+00
  4.10000000E+02  4.00000000E+01  0.00000000E+00
  4.10000000E+02  3.80000000E+01  0.00000000E+00
  4.10000000E+02  3.60000000E+01  0.00000000E+00
  4.10000000E+02  3.40000000E+01  0.00000000E+00
  4.10000000E+02  3.20000000E+01  0.00000000E+00
  4.10000000E+02  3.00000000E+01  0.00000000E+00
  4.10000000E+02  2.80000000E+01  0.00000000E+00
  4.10000000E+02  2.60000000E+01  0.00000000E+00
  4.10000000E+02  2.40000000E+01  0.00000000E+00
  4.10000000E+02  2.20000000E+01  0.00000000E+00
  4.10000000E+02  2.00000000E+01  0.00000000E+00
  4.10000000E+02  1.80000000E+01  0.00000000E+00
  4.10000000E+02  1.60000000E+01  0.00000000E+00
  4.10000000E+02  1.40000000E+01  0.00000000E+00
  4.10000000E+02  1.20000000E+01  0.00000000E+00
  4.10000000E+02  1.00000000E+01  0.00000000E+00
  4.10000000E+02  8.00000000E+00  0.00000000E+00
  4.10000000E+02  6.00000000E+00  0.00000000E+00
  4.10000000E+02  4.00000000E+00  0.00000000E+00
  4.10000000E+02  2.00000000E+00  0.00000000E+00
  4.10000000E+02 -3.33066907E-14  0.00000000E+00
  4.20000000E+02  1.00000000E+02  0.00000000E+00
  4.20000000E+02  9.80000000E+01  0.00000000E+00
  4.20000000E+02  9.60000000E+01  0.00000000E+00
  4.20000000E+02  9.40000000E+01  0.00000000E+00
  4.20000000E+02  9.20000000E+01  0.00000000E+00
  4.20000000E+02  9.00000000E+01  0.00000000E+00
  4.20000000E+02  8.80000000E+01  0.00000000E+00
  4.20000000E+02  8.60000000E+01  0.00000000E+00
  4.20000000E+02  8.40000000E+01  0.00000000E+00
  4.20000000E+02  8.20000000E+01  0.00000000E+00
  4.20000000E+02  8.00000000E+01  0.00000000E+00
  4.20000000E+02  7.80000000E+01  0.00000000E+00
  4.20000000E+02  7.60000000E+01  0.00000000E+00
  4.20000000E+02  7.40000000E+01  0.00000000E+00
  4.20000000E+02  7.20000000E+01  0.00000000E+00
  4.20000000E+02  7.00000000E+01  0.00000000E+00
  4.20000000E+02  6.80000000E+01  0.00000000E+00
  4.20000000E+02  6.60000000E+01  0.00000000E+00
  4.20000000E+02  6.40000000E+01  0.00000000E+00
  4.20000000E+02  6.20000000E+01  0.00000000E+00
  4.20000000E+02  6.00000000E+01  0.00000000E+00
  4.20000000E+02  5.80000000E+01  0.00000000E+00
  4.20000000E+02  5.60000000E+01  0.00000000E+00
  4.20000000E+02  5.40000000E+01  0.00000000E+00
  4.20000000E+02  5.20000000E+01  0.00000000E+00
  4.20000000E+02  5.00000000E+01  0.00000000E+00
  4.20000000E+02  4.80000000E+01  0.00000000E+00
  4.20000000E+02  4.60000000E+01  0.00000000E+00
  4.20000000E+02  4.40000000E+01  0.00000000E+00
  4.20000000E+02  4.20000000E+01  0.00000000E+00
  4.20000000E+02  4.00000000E+01  0.00000000E+00
  4.20000000E+02  3.80000000E+01  0.00000000E+00
  4.20000000E+02  3.60000000E+01  0.00000000E+00
  4.20000000E+02  3.40000000E+01  0.00000000E+00
  4.20000000E+02  3.20000000E+01  0.00000000E+00
  4.20000000E+02  3.00000000E+01  0.00000000E+00
  4.20000000E+02  2.80000000E+01  0.00000000E+00
  4.20000000E+02  2.60000000E+01  0.00000000E+00
  4.20000000E+02  2.40000000E+01  0.00000000E+00
  4.20000000E+02  2.20000000E+01  0.00000000E+00
  4.20000000E+02  2.00000000E+01  0.00000000E+00
  4.20000000E+02  1.80000000E+01  0.00000000E+00
  4.20000000E+02  1.60000000E+01  0.00000000E+00
  4.20000000E+02  1.40000000E+01  0.00000000E+00
  4.20000000E+02  1.20000000E+01  0.00000000E+00
  4.20000000E+02  1.00000000E+01  0.00000000E+00
  4.20000000E+02  8.00000000E+00  0.00000000E+00
  4.20000000E+02  6.00000000E+00  0.00000000E+00
  4.20000000E+02  4.00000000E+00  0.00000000E+00
  4.20000000E+02  2.00000000E+00  0.00000000E+00
  4.20000000E+02 -3.33066907E-14  0.00000000E+00
  4.30000000E+02  1.00000000E+02  0.00000000E+00
  4.30000000E+02  9.80000000E+01  0.00000000E+00
  4.30000000E+02  9.60000000E+01  0.00000000E+00
  4.30000000E+02  9.40000000E+01  0.00000000E+00
  4.30000000E+02  9.20000000E+01  0.00000000E+00
  4.30000000E+02  9.00000000E+01  0.00000000E+00
  4.30000000E+02  8.80000000E+01  0.00000000E+00
  4.30000000E+02  8.60000000E+01  0.00000000E+00
  4.30000000E+02  8.40000000E+01  0.00000000E+00
  4.30000000E+02  8.20000000E+01  0.00000000E+00
  4.30000000E+02  8.00000000E+01  0.00000000E+00
  4.30000000E+02  7.80000000E+01  0.00000000E+00
  4.30000000E+02  7.60000000E+01  0.00000000E+00
  4.30000000E+02  7.40000000E+01  0.00000000E+00
  4.30000000E+02  7.20000000E+01  0.00000000E+00
  4.30000000E+02  7.00000000E+01  0.00000000E+00
  4.30000000E+02  6.80000000E+01  0.00000000E+00
  4.30000000E+02  6.60000000E+01  0.00000000E+00
  4.30000000E+02  6.40000000E+01  0.00000000E+00
  4.30000000E+02  6.20000000E+01  0.00000000E+00
  4.30000000E+02  6.00000000E+01  0.00000000E+00
  4.30000000E+02  5.80000000E+01  0.00000000E+00
  4.30000000E+02  5.60000000E+01  0.00000000E+00
  4.30000000E+02  5.40000000E+01  0.00000000E+00
  4.30000000E+02  5.20000000E+01  0.00000000E+00
  4.30000000E+02  5.00000000E+01  0.00000000E+00
  4.30000000E+02  4.80000000E+01  0.00000000E+00
  4.30000000E+02  4.60000000E+01  0.00000000E+00
  4.30000000E+02  4.40000000E+01  0.00000000E+00
  4.30000000E+02  4.20000000E+01  0.00000000E+00
  4.30000000E+02  4.00000000E+01  0.00000000E+00
  4.30000000E+02  3.80000000E+01  0.00000000E+00
  4.30000000E+02  3.60000000E+01  0.00000000E+00
  4.30000000E+02  3.40000000E+01  0.00000000E+00
  4.30000000E+02  3.20000000E+01  0.00000000E+00
  4.30000000E+02  3.00000000E+01  0.00000000E+00
  4.30000000E+02  2.80000000E+01  0.00000000E+00
  4.30000000E+02  2.60000000E+01  0.00000000E+00
  4.30000000E+02  2.40000000E+01  0.00000000E+00
  4.30000000E+02  2.20000000E+01  0.00000000E+00
  4.30000000E+02  2.00000000E+01  0.00000000E+00
  4.30000000E+02  1.80000000E+01  0.00000000E+00
  4.30000000E+02  1.60000000E+01  0.00000000E+00
  4.30000000E+02  1.40000000E+01  0.00000000E+00
  4.30000000E+02  1.20000000E+01  0.00000000E+00
  4.30000000E+02  1.00000000E+01  0.00000000E+00
  4.30000000E+02  8.00000000E+00  0.00000000E+00
  4.30000000E+02  6.00000000E+00  0.00000000E+00
  4.30000000E+02  4.00000000E+00  0.00000000E+00
  4.30000000E+02  2.00000000E+00  0.00000000E+00
  4.30000000E+02 -3.33066907E-14  0.00000000E+00
  4.40000000E+02  1.00000000E+02  0.00000000E+00
  4.40000000E+02  9.80000000E+01  0.00000000E+00
  4.40000000E+02  9.60000000E+01  0.00000000E+00
  4.40000000E+02  9.40000000E+01  0.00000000E+00
  4.40000000E+02  9.20000000E+01  0.00000000E+00
  4.40000000E+02  9.00000000E+01  0.00000000E+00
  4.40000000E+02  8.80000000E+01  0.00000000E+00
  4.40000000E+02  8.60000000E+01  0.00000000E+00
  4.40000000E+02  8.40000000E+01  0.00000000E+00
  4.40000000E+02  8.20000000E+01  0.00000000E+00
  4.40000000E+02  8.00000000E+01  0.00000000E+00
  4.40000000E+02  7.80000000E+01  0.00000000E+00
  4.40000000E+02  7.60000000E+01  0.00000000E+00
  4.40000000E+02  7.40000000E+01  0.00000000E+00
  4.40000000E+02  7.20000000E+01  0.00000000E+00
  4.40000000E+02  7.00000000E+01  0.00000000E+00
  4.40000000E+02  6.80000000E+01  0.00000000E+00
  4.40000000E+02  6.60000000E+01  0.00000000E+00
  4.40000000E+02  6.40000000E+01  0.00000000E+00
  4.40000000E+02  6.20000000E+01  0.00000000E+00
  4.40000000E+02  6.00000000E+01  0.00000000E+00
  4.40000000E+02  5.80000000E+01  0.00000000E+00
  4.40000000E+02  5.60000000E+01  0.00000000E+00
  4.40000000E+02  5.40000000E+01  0.00000000E+00
  4.40000000E+02  5.20000000E+01  0.00000000E+00
  4.40000000E+02  5.00000000E+01  0.00000000E+00
  4.40000000E+02  4.80000000E+01  0.00000000E+00
  4.40000000E+02  4.60000000E+01  0.00000000E+00
  4.40000000E+02  4.40000000E+01  0.00000000E+00
  4.40000000E+02  4.20000000E+01  0.00000000E+00
  4.40000000E+02  4.00000000E+01  0.00000000E+00
  4.40000000E+02  3.80000000E+01  0.00000000E+00
  4.40000000E+02  3.60000000E+01  0.00000000E+00
  4.40000000E+02  3.40000000E+01  0.00000000E+00
  4.40000000E+02  3.20000000E+01  0.00000000E+00
  4.40000000E+02  3.00000000E+01  0.00000000E+00
  4.40000000E+02  2.80000000E+01  0.00000000E+00
  4.40000000E+02  2.60000000E+01  0.00000000E+00
  4.40000000E+02  2.40000000E+01  0.00000000E+00
  4.40000000E+02  2.20000000E+01  0.00000000E+00
  4.40000000E+02  2.00000000E+01  0.00000000E+00
  4.40000000E+02  1.80000000E+01  0.00000000E+00
  4.40000000E+02  1.60000000E+01  0.00000000E+00
  4.40000000E+02  1.40000000E+01  0.00000000E+00
  4.40000000E+02  1.20000000E+01  0.00000000E+00
  4.40000000E+02  1.00000000E+01  0.00000000E+00
  4.40000000E+02  8.00000000E+00  0.00000000E+00
  4.40000000E+02  6.00000000E+00  0.00000000E+00
  4.40000000E+02  4.00000000E+00  0.00000000E+00
  4.40000000E+02  2.00000000E+00  0.00000000E+00
  4.40000000E+02 -3.33066907E-14  0.00000000E+00
  4.50000000E+02  1.00000000E+02  0.00000000E+00
  4.50000000E+02  9.80000000E+01  0.00000000E+00
  4.50000000E+02  9.60000000E+01  0.00000000E+00
  4.50000000E+02  9.40000000E+01  0.00000000E+00
  4.50000000E+02  9.20000000E+01  0.00000000E+00
  4.50000000E+02  9.00000000E+01  0.00000000E+00
  4.50000000E+02  8.80000000E+01  0.00000000E+00
  4.50000000E+02  8.60000000E+01  0.00000000E+00
  4.50000000E+02  8.40000000E+01  0.00000000E+00
  4.50000000E+02  8.20000000E+01  0.00000000E+00
  4.50000000E+02  8.00000000E+01  0.00000000E+00
  4.50000000E+02  7.80000000E+01  0.00000000E+00
  4.50000000E+02  7.60000000E+01  0.00000000E+00
  4.50000000E+02  7.40000000E+01  0.00000000E+00
  4.50000000E+02  7.20000000E+01  0.00000000E+00
  4.50000000E+02  7.00000000E+01  0.00000000E+00
  4.50000000E+02  6.80000000E+01  0.00000000E+00
  4.50000000E+02  6.60000000E+01  0.00000000E+00
  4.50000000E+02  6.40000000E+01  0.00000000E+00
  4.50000000E+02  6.20000000E+01  0.00000000E+00
  4.50000000E+02  6.00000000E+01  0.00000000E+00
  4.50000000E+02  5.80000000E+01  0.00000000E+00
  4.50000000E+02  5.60000000E+01  0.00000000E+00
  4.50000000E+02  5.40000000E+01  0.00000000E+00
  4.50000000E+02  5.20000000E+01  0.00000000E+00
  4.50000000E+02  5.00000000E+01  0.00000000E+00
  4.50000000E+02  4.80000000E+01  0.00000000E+00
  4.50000000E+02  4.60000000E+01  0.00000000E+00
  4.50000000E+02  4.40000000E+01  0.00000000E+00
  4.50000000E+02  4.20000000E+01  0.00000000E+00
  4.50000000E+02  4.00000000E+01  0.00000000E+00
  4.50000000E+02  3.80000000E+01  0.00000000E+00
  4.50000000E+02  3.60000000E+01  0.00000000E+00
  4.50000000E+02  3.40000000E+01  0.00000000E+00
  4.50000000E+02  3.20000000E+01  0.00000000E+00
  4.50000000E+02  3.00000000E+01  0.00000000E+00
  4.50000000E+02  2.80000000E+01  0.00000000E+00
  4.50000000E+02  2.60000000E+01  0.00000000E+00
  4.50000000E+02  2.40000000E+01  0.00000000E+00
  4.50000000E+02  2.20000000E+01  0.00000000E+00
  4.50000000E+02  2.00000000E+01  0.00000000E+00
  4.50000000E+02  1.80000000E+01  0.00000000E+00
  4.50000000E+02  1.60000000E+01  0.00000000E+00
  4.50000000E+02  1.40000000E+01  0.00000000E+00
  4.50000000E+02  1.20000000E+01  0.00000000E+00
  4.50000000E+02  1.00000000E+01  0.00000000E+00
  4.50000000E+02  8.00000000E+00  0.00000000E+00
  4.50000000E+02  6.00000000E+00  0.00000000E+00
  4.50000000E+02  4.00000000E+00  0.00000000E+00
  4.50000000E+02  2.00000000E+00  0.00000000E+00
  4.50000000E+02 -3.33066907E-14  0.00000000E+00
  4.60000000E+02  1.00000000E+02  0.00000000E+00
  4.60000000E+02  9.80000000E+01  0.00000000E+00
  4.60000000E+02  9.60000000E+01  0.00000000E+00
  4.60000000E+02  9.40000000E+01  0.00000000E+00
  4.60000000E+02  9.20000000E+01  0.00000000E+00
  4.60000000E+02  9.00000000E+01  0.00000000E+00
  4.60000000E+02  8.80000000E+01  0.00000000E+00
  4.60000000E+02  8.60000000E+01  0.00000000E+00
  4.60000000E+02  8.40000000E+01  0.00000000E+00
  4.60000000E+02  8.20000000E+01  0.00000000E+00
  4.60000000E+02  8.00000000E+01  0.00000000E+00
  4.60000000E+02  7.80000000E+01  0.00000000E+00
  4.60000000E+02  7.60000000E+01  0.00000000E+00
  4.60000000E+02  7.40000000E+01  0.00000000E+00
  4.60000000E+02  7.20000000E+01  0.00000000E+00
  4.60000000E+02  7.00000000E+01  0.00000000E+00
  4.60000000E+02  6.80000000E+01  0.00000000E+00
  4.60000000E+02  6.60000000E+01  0.00000000E+00
  4.60000000E+02  6.40000000E+01  0.00000000E+00
  4.60000000E+02  6.20000000E+01  0.00000000E+00
  4.60000000E+02  6.00000000E+01  0.00000000E+00
  4.60000000E+02  5.80000000E+01  0.00000000E+00
  4.60000000E+02  5.60000000E+01  0.00000000E+00
  4.60000000E+02  5.40000000E+01  0.00000000E+00
  4.60000000E+02  5.20000000E+01  0.00000000E+00
  4.60000000E+02  5.00000000E+01  0.00000000E+00
  4.60000000E+02  4.80000000E+01  0.00000000E+00
  4.60000000E+02  4.60000000E+01  0.00000000E+00
  4.60000000E+02  4.40000000E+01  0.00000000E+00
  4.60000000E+02  4.20000000E+01  0.00000000E+00
  4.60000000E+02  4.00000000E+01  0.00000000E+00
  4.60000000E+02  3.80000000E+01  0.00000000E+00
  4.60000000E+02  3.60000000E+01  0.00000000E+00
  4.60000000E+02  3.40000000E+01  0.00000000E+00
  4.60000000E+02  3.20000000E+01  0.00000000E+00
  4.60000000E+02  3.00000000E+01  0.00000000E+00
  4.60000000E+02  2.80000000E+01  0.00000000E+00
  4.60000000E+02  2.60000000E+01  0.00000000E+00
  4.60000000E+02  2.40000000E+01  0.00000000E+00
  4.60000000E+02  2.20000000E+01  0.00000000E+00
  4.60000000E+02  2.00000000E+01  0.00000000E+00
  4.60000000E+02  1.80000000E+01  0.00000000E+00
  4.60000000E+02  1.60000000E+01  0.00000000E+00
  4.60000000E+02  1.40000000E+01  0.00000000E+00
  4.60000000E+02  1.20000000E+01  0.00000000E+00
  4.60000000E+02  1.00000000E+01  0.00000000E+00
  4.60000000E+02  8.00000000E+00  0.00000000E+00
  4.60000000E+02  6.00000000E+00  0.00000000E+00
  4.60000000E+02  4.00000000E+00  0.00000000E+00
  4.60000000E+02  2.00000000E+00  0.00000000E+00
  4.60000000E+02 -3.33066907E-14  0.00000000E+00
  4.70000000E+02  1.00000000E+02  0.00000000E+00
  4.70000000E+02  9.80000000E+01  0.00000000E+00
  4.70000000E+02  9.60000000E+01  0.00000000E+00
  4.70000000E+02  9.40000000E+01  0.00000000E+00
  4.70000000E+02  9.20000000E+01  0.00000000E+00
  4.70000000E+02  9.00000000E+01  0.00000000E+00
  4.70000000E+02  8.80000000E+01  0.00000000E+00
  4.70000000E+02  8.60000000E+01  0.00000000E+00
  4.70000000E+02  8.40000000E+01  0.00000000E+00
  4.70000000E+02  8.20000000E+01  0.00000000E+00
  4.70000000E+02  8.00000000E+01  0.00000000E+00
  4.70000000E+02  7.80000000E+01  0.00000000E+00
  4.70000000E+02  7.60000000E+01  0.00000000E+00
  4.70000000E+02  7.40000000E+01  0.00000000E+00
  4.70000000E+02  7.20000000E+01  0.00000000E+00
  4.70000000E+02  7.00000000E+01  0.00000000E+00
  4.70000000E+02  6.80000000E+01  0.00000000E+00
  4.70000000E+02  6.60000000E+01  0.00000000E+00
  4.70000000E+02  6.40000000E+01  0.00000000E+00
  4.70000000E+02  6.20000000E+01  0.00000000E+00
  4.70000000E+02  6.00000000E+01  0.00000000E+00
  4.70000000E+02  5.80000000E+01  0.00000000E+00
  4.70000000E+02  5.60000000E+01  0.00000000E+00
  4.70000000E+02  5.40000000E+01  0.00000000E+00
  4.70000000E+02  5.20000000E+01  0.00000000E+00
  4.70000000E+02  5.00000000E+01  0.00000000E+00
  4.70000000E+02  4.80000000E+01  0.00000000E+00
  4.70000000E+02  4.60000000E+01  0.00000000E+00
  4.70000000E+02  4.40000000E+01  0.00000000E+00
  4.70000000E+02  4.20000000E+01  0.00000000E+00
  4.70000000E+02  4.00000000E+01  0.00000000E+00
  4.70000000E+02  3.80000000E+01  0.00000000E+00
  4.70000000E+02  3.60000000E+01  0.00000000E+00
  4.70000000E+02  3.40000000E+01  0.00000000E+00
  4.70000000E+02  3.20000000E+01  0.00000000E+00
  4.70000000E+02  3.00000000E+01  0.00000000E+00
  4.70000000E+02  2.80000000E+01  0.00000000E+00
  4.70000000E+02  2.60000000E+01  0.00000000E+00
  4.70000000E+02  2.40000000E+01  0.00000000E+00
  4.70000000E+02  2.20000000E+01  0.00000000E+00
  4.70000000E+02  2.00000000E+01  0.00000000E+00
  4.70000000E+02  1.80000000E+01  0.00000000E+00
  4.70000000E+02  1.60000000E+01  0.00000000E+00
  4.70000000E+02  1.40000000E+01  0.00000000E+00
  4.70000000E+02  1.20000000E+01  0.00000000E+00
  4.70000000E+02  1.00000000E+01  0.00000000E+00
  4.70000000E+02  8.00000000E+00  0.00000000E+00
  4.70000000E+02  6.00000000E+00  0.00000000E+00
  4.70000000E+02  4.00000000E+00  0.00000000E+00
  4.70000000E+02  2.00000000E+00  0.00000000E+00
  4.70000000E+02 -3.33066907E-14  0.00000000E+00
  4.80000000E+02  1.00000000E+02  0.00000000E+00
  4.80000000E+02  9.80000000E+01  0.00000000E+00
  4.80000000E+02  9.60000000E+01  0.00000000E+00
  4.80000000E+02  9.40000000E+01  0.00000000E+00
  4.80000000E+02  9.20000000E+01  0.00000000E+00
  4.80000000E+02  9.00000000E+01  0.00000000E+00
  4.80000000E+02  8.80000000E+01  0.00000000E+00
  4.80000000E+02  8.60000000E+01  0.00000000E+00
  4.80000000E+02  8.40000000E+01  0.00000000E+00
  4.80000000E+02  8.20000000E+01  0.00000000E+00
  4.80000000E+02  8.00000000E+01  0.00000000E+00
  4.80000000E+02  7.80000000E+01  0.00000000E+00
  4.80000000E+02  7.60000000E+01  0.00000000E+00
  4.80000000E+02  7.40000000E+01  0.00000000E+00
  4.80000000E+02  7.20000000E+01  0.00000000E+00
  4.80000000E+02  7.00000000E+01  0.00000000E+00
  4.80000000E+02  6.80000000E+01  0.00000000E+00
  4.80000000E+02  6.60000000E+01  0.00000000E+00
  4.80000000E+02  6.40000000E+01  0.00000000E+00
  4.80000000E+02  6.20000000E+01  0.00000000E+00
  4.80000000E+02  6.00000000E+01  0.00000000E+00
  4.80000000E+02  5.80000000E+01  0.00000000E+00
  4.80000000E+02  5.60000000E+01  0.00000000E+00
  4.80000000E+02  5.40000000E+01  0.00000000E+00
  4.80000000E+02  5.20000000E+01  0.00000000E+00
  4.80000000E+02  5.00000000E+01  0.00000000E+00
  4.80000000E+02  4.80000000E+01  0.00000000E+00
  4.80000000E+02  4.60000000E+01  0.00000000E+00
  4.80000000E+02  4.40000000E+01  0.00000000E+00
  4.80000000E+02  4.20000000E+01  0.00000000E+00
  4.80000000E+02  4.00000000E+01  0.00000000E+00
  4.80000000E+02  3.80000000E+01  0.00000000E+00
  4.80000000E+02  3.60000000E+01  0.00000000E+00
  4.80000000E+02  3.40000000E+01  0.00000000E+00
  4.80000000E+02  3.20000000E+01  0.00000000E+00
  4.80000000E+02  3.00000000E+01  0.00000000E+00
  4.80000000E+02  2.80000000E+01  0.00000000E+00
  4.80000000E+02  2.60000000E+01  0.00000000E+00
  4.80000000E+02  2.40000000E+01  0.00000000E+00
  4.80000000E+02  2.20000000E+01  0.00000000E+00
  4.80000000E+02  2.00000000E+01  0.00000000E+00
  4.80000000E+02  1.80000000E+01  0.00000000E+00
  4.80000000E+02  1.60000000E+01  0.00000000E+00
  4.80000000E+02  1.40000000E+01  0.00000000E+00
  4.80000000E+02  1.20000000E+01  0.00000000E+00
  4.80000000E+02  1.00000000E+01  0.00000000E+00
  4.80000000E+02  8.00000000E+00  0.00000000E+00
  4.80000000E+02  6.00000000E+00  0.00000000E+00
  4.80000000E+02  4.00000000E+00  0.00000000E+00
  4.80000000E+02  2.00000000E+00  0.00000000E+00
  4.80000000E+02 -3.33066907E-14  0.00000000E+00
  4.90000000E+02  1.00000000E+02  0.00000000E+00
  4.90000000E+02  9.80000000E+01  0.00000000E+00
  4.90000000E+02  9.60000000E+01  0.00000000E+00
  4.90000000E+02  9.40000000E+01  0.00000000E+00
  4.90000000E+02  9.20000000E+01  0.00000000E+00
  4.90000000E+02  9.00000000E+01  0.00000000E+00
  4.90000000E+02  8.80000000E+01  0.00000000E+00
  4.90000000E+02  8.60000000E+01  0.00000000E+00
  4.90000000E+02  8.40000000E+01  0.00000000E+00
  4.90000000E+02  8.20000000E+01  0.00000000E+00
  4.90000000E+02  8.00000000E+01  0.00000000E+00
  4.90000000E+02  7.80000000E+01  0.00000000E+00
  4.90000000E+02  7.60000000E+01  0.00000000E+00
  4.90000000E+02  7.40000000E+01  0.00000000E+00
  4.90000000E+02  7.20000000E+01  0.00000000E+00
  4.90000000E+02  7.00000000E+01  0.00000000E+00
  4.90000000E+02  6.80000000E+01  0.00000000E+00
  4.90000000E+02  6.60000000E+01  0.00000000E+00
  4.90000000E+02  6.40000000E+01  0.00000000E+00
  4.90000000E+02  6.20000000E+01  0.00000000E+00
  4.90000000E+02  6.00000000E+01  0.00000000E+00
  4.90000000E+02  5.80000000E+01  0.00000000E+00
  4.90000000E+02  5.60000000E+01  0.00000000E+00
  4.90000000E+02  5.40000000E+01  0.00000000E+00
  4.90000000E+02  5.20000000E+01  0.00000000E+00
  4.90000000E+02  5.00000000E+01  0.00000000E+00
  4.90000000E+02  4.80000000E+01  0.00000000E+00
  4.90000000E+02  4.60000000E+01  0.00000000E+00
  4.90000000E+02  4.40000000E+01  0.00000000E+00
  4.90000000E+02  4.20000000E+01  0.00000000E+00
  4.90000000E+02  4.00000000E+01  0.00000000E+00
  4.90000000E+02  3.80000000E+01  0.00000000E+00
  4.90000000E+02  3.60000000E+01  0.00000000E+00
  4.90000000E+02  3.40000000E+01  0.00000000E+00
  4.90000000E+02  3.20000000E+01  0.00000000E+00
  4.90000000E+02  3.00000000E+01  0.00000000E+00
  4.90000000E+02  2.80000000E+01  0.00000000E+00
  4.90000000E+02  2.60000000E+01  0.00000000E+00
  4.90000000E+02  2.40000000E+01  0.00000000E+00
  4.90000000E+02  2.20000000E+01  0.00000000E+00
  4.90000000E+02  2.00000000E+01  0.00000000E+00
  4.90000000E+02  1.80000000E+01  0.00000000E+00
  4.90000000E+02  1.60000000E+01  0.00000000E+00
  4.90000000E+02  1.40000000E+01  0.00000000E+00
  4.90000000E+02  1.20000000E+01  0.00000000E+00
  4.90000000E+02  1.00000000E+01  0.00000000E+00
  4.90000000E+02  8.00000000E+00  0.00000000E+00
  4.90000000E+02  6.00000000E+00  0.00000000E+00
  4.90000000E+02  4.00000000E+00  0.00000000E+00
  4.90000000E+02  2.00000000E+00  0.00000000E+00
  4.90000000E+02 -3.33066907E-14  0.00000000E+00
  5.00000000E+02  1.00000000E+02  0.00000000E+00
  5.00000000E+02  9.80000000E+01  0.00000000E+00
  5.00000000E+02  9.60000000E+01  0.00000000E+00
  5.00000000E+02  9.40000000E+01  0.00000000E+00
  5.00000000E+02  9.20000000E+01  0.00000000E+00
  5.00000000E+02  9.00000000E+01  0.00000000E+00
  5.00000000E+02  8.80000000E+01  0.00000000E+00
  5.00000000E+02  8.60000000E+01  0.00000000E+00
  5.00000000E+02  8.40000000E+01  0.00000000E+00
  5.00000000E+02  8.20000000E+01  0.00000000E+00
  5.00000000E+02  8.00000000E+01  0.00000000E+00
  5.00000000E+02  7.80000000E+01  0.00000000E+00
  5.00000000E+02  7.60000000E+01  0.00000000E+00
  5.00000000E+02  7.40000000E+01  0.00000000E+00
  5.00000000E+02  7.20000000E+01  0.00000000E+00
  5.00000000E+02  7.00000000E+01  0.00000000E+00
  5.00000000E+02  6.80000000E+01  0.00000000E+00
  5.00000000E+02  6.60000000E+01  0.00000000E+00
  5.00000000E+02  6.40000000E+01  0.00000000E+00
  5.00000000E+02  6.20000000E+01  0.00000000E+00
  5.00000000E+02  6.00000000E+01  0.00000000E+00
  5.00000000E+02  5.80000000E+01  0.00000000E+00
  5.00000000E+02  5.60000000E+01  0.00000000E+00
  5.00000000E+02  5.40000000E+01  0.00000000E+00
  5.00000000E+02  5.20000000E+01  0.00000000E+00
  5.00000000E+02  5.00000000E+01  0.00000000E+00
  5.00000000E+02  4.80000000E+01  0.00000000E+00
  5.00000000E+02  4.60000000E+01  0.00000000E+00
  5.00000000E+02  4.40000000E+01  0.00000000E+00
  5.00000000E+02  4.20000000E+01  0.00000000E+00
  5.00000000E+02  4.00000000E+01  0.00000000E+00
  5.00000000E+02  3.80000000E+01  0.00000000E+00
  5.00000000E+02  3.60000000E+01  0.00000000E+00
  5.00000000E+02  3.40000000E+01  0.00000000E+00
  5.00000000E+02  3.20000000E+01  0.00000000E+00
  5.00000000E+02  3.00000000E+01  0.00000000E+00
  5.00000000E+02  2.80000000E+01  0.00000000E+00
  5.00000000E+02  2.60000000E+01  0.00000000E+00
  5.00000000E+02  2.40000000E+01  0.00000000E+00
  5.00000000E+02  2.20000000E+01  0.00000000E+00
  5.00000000E+02  2.00000000E+01  0.00000000E+00
  5.00000000E+02  1.80000000E+01  0.00000000E+00
  5.00000000E+02  1.60000000E+01  0.00000000E+00
  5.00000000E+02  1.40000000E+01  0.00000000E+00
  5.00000000E+02  1.20000000E+01  0.00000000E+00
  5.00000000E+02  1.00000000E+01  0.00000000E+00
  5.00000000E+02  8.00000000E+00  0.00000000E+00
  5.00000000E+02  6.00000000E+00  0.00000000E+00
  5.00000000E+02  4.00000000E+00  0.00000000E+00
  5.00000000E+02  2.00000000E+00  0.00000000E+00
  5.00000000E+02 -3.33066907E-14  0.00000000E+00
  5.10000000E+02  1.00000000E+02  0.00000000E+00
  5.10000000E+02  9.80000000E+01  0.00000000E+00
  5.10000000E+02  9.60000000E+01  0.00000000E+00
  5.10000000E+02  9.40000000E+01  0.00000000E+00
  5.10000000E+02  9.20000000E+01  0.00000000E+00
  5.10000000E+02  9.00000000E+01  0.00000000E+00
  5.10000000E+02  8.80000000E+01  0.00000000E+00
  5.10000000E+02  8.60000000E+01  0.00000000E+00
  5.10000000E+02  8.40000000E+01  0.00000000E+00
  5.10000000E+02  8.20000000E+01  0.00000000E+00
  5.10000000E+02  8.00000000E+01  0.00000000E+00
  5.10000000E+02  7.80000000E+01  0.00000000E+00
  5.10000000E+02  7.60000000E+01  0.00000000E+00
  5.10000000E+02  7.40000000E+01  0.00000000E+00
  5.10000000E+02  7.20000000E+01  0.00000000E+00
  5.10000000E+02  7.00000000E+01  0.00000000E+00
  5.10000000E+02  6.80000000E+01  0.00000000E+00
  5.10000000E+02  6.60000000E+01  0.00000000E+00
  5.10000000E+02  6.40000000E+01  0.00000000E+00
  5.10000000E+02  6.20000000E+01  0.00000000E+00
  5.10000000E+02  6.00000000E+01  0.00000000E+00
  5.10000000E+02  5.80000000E+01  0.00000000E+00
  5.10000000E+02  5.60000000E+01  0.00000000E+00
  5.10000000E+02  5.40000000E+01  0.00000000E+00
  5.10000000E+02  5.20000000E+01  0.00000000E+00
  5.10000000E+02  5.00000000E+01  0.00000000E+00
  5.10000000E+02  4.80000000E+01  0.00000000E+00
  5.10000000E+02  4.60000000E+01  0.00000000E+00
  5.10000000E+02  4.40000000E+01  0.00000000E+00
  5.10000000E+02  4.20000000E+01  0.00000000E+00
  5.10000000E+02  4.00000000E+01  0.00000000E+00
  5.10000000E+02  3.80000000E+01  0.00000000E+00
  5.10000000E+02  3.60000000E+01  0.00000000E+00
  5.10000000E+02  3.40000000E+01  0.00000000E+00
  5.10000000E+02  3.20000000E+01  0.00000000E+00
  5.10000000E+02  3.00000000E+01  0.00000000E+00
  5.10000000E+02  2.80000000E+01  0.00000000E+00
  5.10000000E+02  2.60000000E+01  0.00000000E+00
  5.10000000E+02  2.40000000E+01  0.00000000E+00
  5.10000000E+02  2.20000000E+01  0.00000000E+00
  5.10000000E+02  2.00000000E+01  0.00000000E+00
  5.10000000E+02  1.80000000E+01  0.00000000E+00
  5.10000000E+02  1.60000000E+01  0.00000000E+00
  5.10000000E+02  1.40000000E+01  0.00000000E+00
  5.10000000E+02  1.20000000E+01  0.00000000E+00
  5.10000000E+02  1.00000000E+01  0.00000000E+00
  5.10000000E+02  8.00000000E+00  0.00000000E+00
  5.10000000E+02  6.00000000E+00  0.00000000E+00
  5.10000000E+02  4.00000000E+00  0.00000000E+00
  5.10000000E+02  2.00000000E+00  0.00000000E+00
  5.10000000E+02 -3.33066907E-14  0.00000000E+00
  5.20000000E+02  1.00000000E+02  0.00000000E+00
  5.20000000E+02  9.80000000E+01  0.00000000E+00
  5.20000000E+02  9.60000000E+01  0.00000000E+00
  5.20000000E+02  9.40000000E+01  0.00000000E+00
  5.20000000E+02  9.20000000E+01  0.00000000E+00
  5.20000000E+02  9.00000000E+01  0.00000000E+00
  5.20000000E+02  8.80000000E+01  0.00000000E+00
  5.20000000E+02  8.60000000E+01  0.00000000E+00
  5.20000000E+02  8.40000000E+01  0.00000000E+00
  5.20000000E+02  8.20000000E+01  0.00000000E+00
  5.20000000E+02  8.00000000E+01  0.00000000E+00
  5.20000000E+02  7.80000000E+01  0.00000000E+00
  5.20000000E+02  7.60000000E+01  0.00000000E+00
  5.20000000E+02  7.40000000E+01  0.00000000E+00
  5.20000000E+02  7.20000000E+01  0.00000000E+00
  5.20000000E+02  7.00000000E+01  0.00000000E+00
  5.20000000E+02  6.80000000E+01  0.00000000E+00
  5.20000000E+02  6.60000000E+01  0.00000000E+00
  5.20000000E+02  6.40000000E+01  0.00000000E+00
  5.20000000E+02  6.20000000E+01  0.00000000E+00
  5.20000000E+02  6.00000000E+01  0.00000000E+00
  5.20000000E+02  5.80000000E+01  0.00000000E+00
  5.20000000E+02  5.60000000E+01  0.00000000E+00
  5.20000000E+02  5.40000000E+01  0.00000000E+00
  5.20000000E+02  5.20000000E+01  0.00000000E+00
  5.20000000E+02  5.00000000E+01  0.00000000E+00
  5.20000000E+02  4.80000000E+01  0.00000000E+00
  5.20000000E+02  4.60000000E+01  0.00000000E+00
  5.20000000E+02  4.40000000E+01  0.00000000E+00
  5.20000000E+02  4.20000000E+01  0.00000000E+00
  5.20000000E+02  4.00000000E+01  0.00000000E+00
  5.20000000E+02  3.80000000E+01  0.00000000E+00
  5.20000000E+02  3.60000000E+01  0.00000000E+00
  5.20000000E+02  3.40000000E+01  0.00000000E+00
  5.20000000E+02  3.20000000E+01  0.00000000E+00
  5.20000000E+02  3.00000000E+01  0.00000000E+00
  5.20000000E+02  2.80000000E+01  0.00000000E+00
  5.20000000E+02  2.60000000E+01  0.00000000E+00
  5.20000000E+02  2.40000000E+01  0.00000000E+00
  5.20000000E+02  2.20000000E+01  0.00000000E+00
  5.20000000E+02  2.00000000E+01  0.00000000E+00
  5.20000000E+02  1.80000000E+01  0.00000000E+00
  5.20000000E+02  1.60000000E+01  0.00000000E+00
  5.20000000E+02  1.40000000E+01  0.00000000E+00
  5.20000000E+02  1.20000000E+01  0.00000000E+00
  5.20000000E+02  1.00000000E+01  0.00000000E+00
  5.20000000E+02  8.00000000E+00  0.00000000E+00
  5.20000000E+02  6.00000000E+00  0.00000000E+00
  5.20000000E+02  4.00000000E+00  0.00000000E+00
  5.20000000E+02  2.00000000E+00  0.00000000E+00
  5.20000000E+02 -3.33066907E-14  0.00000000E+00
  5.30000000E+02  1.00000000E+02  0.00000000E+00
  5.30000000E+02  9.80000000E+01  0.00000000E+00
  5.30000000E+02  9.60000000E+01  0.00000000E+00
  5.30000000E+02  9.40000000E+01  0.00000000E+00
  5.30000000E+02  9.20000000E+01  0.00000000E+00
  5.30000000E+02  9.00000000E+01  0.00000000E+00
  5.30000000E+02  8.80000000E+01  0.00000000E+00
  5.30000000E+02  8.60000000E+01  0.00000000E+00
  5.30000000E+02  8.40000000E+01  0.00000000E+00
  5.30000000E+02  8.20000000E+01  0.00000000E+00
  5.30000000E+02  8.00000000E+01  0.00000000E+00
  5.30000000E+02  7.80000000E+01  0.00000000E+00
  5.30000000E+02  7.60000000E+01  0.00000000E+00
  5.30000000E+02  7.40000000E+01  0.00000000E+00
  5.30000000E+02  7.20000000E+01  0.00000000E+00
  5.30000000E+02  7.00000000E+01  0.00000000E+00
  5.30000000E+02  6.80000000E+01  0.00000000E+00
  5.30000000E+02  6.60000000E+01  0.00000000E+00
  5.30000000E+02  6.40000000E+01  0.00000000E+00
  5.30000000E+02  6.20000000E+01  0.00000000E+00
  5.30000000E+02  6.00000000E+01  0.00000000E+00
  5.30000000E+02  5.80000000E+01  0.00000000E+00
  5.30000000E+02  5.60000000E+01  0.00000000E+00
  5.30000000E+02  5.40000000E+01  0.00000000E+00
  5.30000000E+02  5.20000000E+01  0.00000000E+00
  5.30000000E+02  5.00000000E+01  0.00000000E+00
  5.30000000E+02  4.80000000E+01  0.00000000E+00
  5.30000000E+02  4.60000000E+01  0.00000000E+00
  5.30000000E+02  4.40000000E+01  0.00000000E+00
  5.30000000E+02  4.20000000E+01  0.00000000E+00
  5.30000000E+02  4.00000000E+01  0.00000000E+00
  5.30000000E+02  3.80000000E+01  0.00000000E+00
  5.30000000E+02  3.60000000E+01  0.00000000E+00
  5.30000000E+02  3.40000000E+01  0.00000000E+00
  5.30000000E+02  3.20000000E+01  0.00000000E+00
  5.30000000E+02  3.00000000E+01  0.00000000E+00
  5.30000000E+02  2.80000000E+01  0.00000000E+00
  5.30000000E+02  2.60000000E+01  0.00000000E+00
  5.30000000E+02  2.40000000E+01  0.00000000E+00
  5.30000000E+02  2.20000000E+01  0.00000000E+00
  5.30000000E+02  2.00000000E+01  0.00000000E+00
  5.30000000E+02  1.80000000E+01  0.00000000E+00
  5.30000000E+02  1.60000000E+01  0.00000000E+00
  5.30000000E+02  1.40000000E+01  0.00000000E+00
  5.30000000E+02  1.20000000E+01  0.00000000E+00
  5.30000000E+02  1.00000000E+01  0.00000000E+00
  5.30000000E+02  8.00000000E+00  0.00000000E+00
  5.30000000E+02  6.00000000E+00  0.00000000E+00
  5.30000000E+02  4.00000000E+00  0.00000000E+00
  5.30000000E+02  2.00000000E+00  0.00000000E+00
  5.30000000E+02 -3.33066907E-14  0.00000000E+00
  5.40000000E+02  1.00000000E+02  0.00000000E+00
  5.40000000E+02  9.80000000E+01  0.00000000E+00
  5.40000000E+02  9.60000000E+01  0.00000000E+00
  5.40000000E+02  9.40000000E+01  0.00000000E+00
  5.40000000E+02  9.20000000E+01  0.00000000E+00
  5.40000000E+02  9.00000000E+01  0.00000000E+00
  5.40000000E+02  8.80000000E+01  0.00000000E+00
  5.40000000E+02  8.60000000E+01  0.00000000E+00
  5.40000000E+02  8.40000000E+01  0.00000000E+00
  5.40000000E+02  8.20000000E+01  0.00000000E+00
  5.40000000E+02  8.00000000E+01  0.00000000E+00
  5.40000000E+02  7.80000000E+01  0.00000000E+00
  5.40000000E+02  7.60000000E+01  0.00000000E+00
  5.40000000E+02  7.40000000E+01  0.00000000E+00
  5.40000000E+02  7.20000000E+01  0.00000000E+00
  5.40000000E+02  7.00000000E+01  0.00000000E+00
  5.40000000E+02  6.80000000E+01  0.00000000E+00
  5.40000000E+02  6.60000000E+01  0.00000000E+00
  5.40000000E+02  6.40000000E+01  0.00000000E+00
  5.40000000E+02  6.20000000E+01  0.00000000E+00
  5.40000000E+02  6.00000000E+01  0.00000000E+00
  5.40000000E+02  5.80000000E+01  0.00000000E+00
  5.40000000E+02  5.60000000E+01  0.00000000E+00
  5.40000000E+02  5.40000000E+01  0.00000000E+00
  5.40000000E+02  5.20000000E+01  0.00000000E+00
  5.40000000E+02  5.00000000E+01  0.00000000E+00
  5.40000000E+02  4.80000000E+01  0.00000000E+00
  5.40000000E+02  4.60000000E+01  0.00000000E+00
  5.40000000E+02  4.40000000E+01  0.00000000E+00
  5.40000000E+02  4.20000000E+01  0.00000000E+00
  5.40000000E+02  4.00000000E+01  0.00000000E+00
  5.40000000E+02  3.80000000E+01  0.00000000E+00
  5.40000000E+02  3.60000000E+01  0.00000000E+00
  5.40000000E+02  3.40000000E+01  0.00000000E+00
  5.40000000E+02  3.20000000E+01  0.00000000E+00
  5.40000000E+02  3.00000000E+01  0.00000000E+00
  5.40000000E+02  2.80000000E+01  0.00000000E+00
  5.40000000E+02  2.60000000E+01  0.00000000E+00
  5.40000000E+02  2.40000000E+01  0.00000000E+00
  5.40000000E+02  2.20000000E+01  0.00000000E+00
  5.40000000E+02  2.00000000E+01  0.00000000E+00
  5.40000000E+02  1.80000000E+01  0.00000000E+00
  5.40000000E+02  1.60000000E+01  0.00000000E+00
  5.40000000E+02  1.40000000E+01  0.00000000E+00
  5.40000000E+02  1.20000000E+01  0.00000000E+00
  5.40000000E+02  1.00000000E+01  0.00000000E+00
  5.40000000E+02  8.00000000E+00  0.00000000E+00
  5.40000000E+02  6.00000000E+00  0.00000000E+00
  5.40000000E+02  4.00000000E+00  0.00000000E+00
  5.40000000E+02  2.00000000E+00  0.00000000E+00
  5.40000000E+02 -3.33066907E-14  0.00000000E+00
  5.50000000E+02  1.00000000E+02  0.00000000E+00
  5.50000000E+02  9.80000000E+01  0.00000000E+00
  5.50000000E+02  9.60000000E+01  0.00000000E+00
  5.50000000E+02  9.40000000E+01  0.00000000E+00
  5.50000000E+02  9.20000000E+01  0.00000000E+00
  5.50000000E+02  9.00000000E+01  0.00000000E+00
  5.50000000E+02  8.80000000E+01  0.00000000E+00
  5.50000000E+02  8.60000000E+01  0.00000000E+00
  5.50000000E+02  8.40000000E+01  0.00000000E+00
  5.50000000E+02  8.20000000E+01  0.00000000E+00
  5.50000000E+02  8.00000000E+01  0.00000000E+00
  5.50000000E+02  7.80000000E+01  0.00000000E+00
  5.50000000E+02  7.60000000E+01  0.00000000E+00
  5.50000000E+02  7.40000000E+01  0.00000000E+00
  5.50000000E+02  7.20000000E+01  0.00000000E+00
  5.50000000E+02  7.00000000E+01  0.00000000E+00
  5.50000000E+02  6.80000000E+01  0.00000000E+00
  5.50000000E+02  6.60000000E+01  0.00000000E+00
  5.50000000E+02  6.40000000E+01  0.00000000E+00
  5.50000000E+02  6.20000000E+01  0.00000000E+00
  5.50000000E+02  6.00000000E+01  0.00000000E+00
  5.50000000E+02  5.80000000E+01  0.00000000E+00
  5.50000000E+02  5.60000000E+01  0.00000000E+00
  5.50000000E+02  5.40000000E+01  0.00000000E+00
  5.50000000E+02  5.20000000E+01  0.00000000E+00
  5.50000000E+02  5.00000000E+01  0.00000000E+00
  5.50000000E+02  4.80000000E+01  0.00000000E+00
  5.50000000E+02  4.60000000E+01  0.00000000E+00
  5.50000000E+02  4.40000000E+01  0.00000000E+00
  5.50000000E+02  4.20000000E+01  0.00000000E+00
  5.50000000E+02  4.00000000E+01  0.00000000E+00
  5.50000000E+02  3.80000000E+01  0.00000000E+00
  5.50000000E+02  3.60000000E+01  0.00000000E+00
  5.50000000E+02  3.40000000E+01  0.00000000E+00
  5.50000000E+02  3.20000000E+01  0.00000000E+00
  5.50000000E+02  3.00000000E+01  0.00000000E+00
  5.50000000E+02  2.80000000E+01  0.00000000E+00
  5.50000000E+02  2.60000000E+01  0.00000000E+00
  5.50000000E+02  2.40000000E+01  0.00000000E+00
  5.50000000E+02  2.20000000E+01  0.00000000E+00
  5.50000000E+02  2.00000000E+01  0.00000000E+00
  5.50000000E+02  1.80000000E+01  0.00000000E+00
  5.50000000E+02  1.60000000E+01  0.00000000E+00
  5.50000000E+02  1.40000000E+01  0.00000000E+00
  5.50000000E+02  1.20000000E+01  0.00000000E+00
  5.50000000E+02  1.00000000E+01  0.00000000E+00
  5.50000000E+02  8.00000000E+00  0.00000000E+00
  5.50000000E+02  6.00000000E+00  0.00000000E+00
  5.50000000E+02  4.00000000E+00  0.00000000E+00
  5.50000000E+02  2.00000000E+00  0.00000000E+00
  5.50000000E+02 -3.33066907E-14  0.00000000E+00
  5.60000000E+02  1.00000000E+02  0.00000000E+00
  5.60000000E+02  9.80000000E+01  0.00000000E+00
  5.60000000E+02  9.60000000E+01  0.00000000E+00
  5.60000000E+02  9.40000000E+01  0.00000000E+00
  5.60000000E+02  9.20000000E+01  0.00000000E+00
  5.60000000E+02  9.00000000E+01  0.00000000E+00
  5.60000000E+02  8.80000000E+01  0.00000000E+00
  5.60000000E+02  8.60000000E+01  0.00000000E+00
  5.60000000E+02  8.40000000E+01  0.00000000E+00
  5.60000000E+02  8.20000000E+01  0.00000000E+00
  5.60000000E+02  8.00000000E+01  0.00000000E+00
  5.60000000E+02  7.80000000E+01  0.00000000E+00
  5.60000000E+02  7.60000000E+01  0.00000000E+00
  5.60000000E+02  7.40000000E+01  0.00000000E+00
  5.60000000E+02  7.20000000E+01  0.00000000E+00
  5.60000000E+02  7.00000000E+01  0.00000000E+00
  5.60000000E+02  6.80000000E+01  0.00000000E+00
  5.60000000E+02  6.60000000E+01  0.00000000E+00
  5.60000000E+02  6.40000000E+01  0.00000000E+00
  5.60000000E+02  6.20000000E+01  0.00000000E+00
  5.60000000E+02  6.00000000E+01  0.00000000E+00
  5.60000000E+02  5.80000000E+01  0.00000000E+00
  5.60000000E+02  5.60000000E+01  0.00000000E+00
  5.60000000E+02  5.40000000E+01  0.00000000E+00
  5.60000000E+02  5.20000000E+01  0.00000000E+00
  5.60000000E+02  5.00000000E+01  0.00000000E+00
  5.60000000E+02  4.80000000E+01  0.00000000E+00
  5.60000000E+02  4.60000000E+01  0.00000000E+00
  5.60000000E+02  4.40000000E+01  0.00000000E+00
  5.60000000E+02  4.20000000E+01  0.00000000E+00
  5.60000000E+02  4.00000000E+01  0.00000000E+00
  5.60000000E+02  3.80000000E+01  0.00000000E+00
  5.60000000E+02  3.60000000E+01  0.00000000E+00
  5.60000000E+02  3.40000000E+01  0.00000000E+00
  5.60000000E+02  3.20000000E+01  0.00000000E+00
  5.60000000E+02  3.00000000E+01  0.00000000E+00
  5.60000000E+02  2.80000000E+01  0.00000000E+00
  5.60000000E+02  2.60000000E+01  0.00000000E+00
  5.60000000E+02  2.40000000E+01  0.00000000E+00
  5.60000000E+02  2.20000000E+01  0.00000000E+00
  5.60000000E+02  2.00000000E+01  0.00000000E+00
  5.60000000E+02  1.80000000E+01  0.00000000E+00
  5.60000000E+02  1.60000000E+01  0.00000000E+00
  5.60000000E+02  1.40000000E+01  0.00000000E+00
  5.60000000E+02  1.20000000E+01  0.00000000E+00
  5.60000000E+02  1.00000000E+01  0.00000000E+00
  5.60000000E+02  8.00000000E+00  0.00000000E+00
  5.60000000E+02  6.00000000E+00  0.00000000E+00
  5.60000000E+02  4.00000000E+00  0.00000000E+00
  5.60000000E+02  2.00000000E+00  0.00000000E+00
  5.60000000E+02 -3.33066907E-14  0.00000000E+00
  5.70000000E+02  1.00000000E+02  0.00000000E+00
  5.70000000E+02  9.80000000E+01  0.00000000E+00
  5.70000000E+02  9.60000000E+01  0.00000000E+00
  5.70000000E+02  9.40000000E+01  0.00000000E+00
  5.70000000E+02  9.20000000E+01  0.00000000E+00
  5.70000000E+02  9.00000000E+01  0.00000000E+00
  5.70000000E+02  8.80000000E+01  0.00000000E+00
  5.70000000E+02  8.60000000E+01  0.00000000E+00
  5.70000000E+02  8.40000000E+01  0.00000000E+00
  5.70000000E+02  8.20000000E+01  0.00000000E+00
  5.70000000E+02  8.00000000E+01  0.00000000E+00
  5.70000000E+02  7.80000000E+01  0.00000000E+00
  5.70000000E+02  7.60000000E+01  0.00000000E+00
  5.70000000E+02  7.40000000E+01  0.00000000E+00
  5.70000000E+02  7.20000000E+01  0.00000000E+00
  5.70000000E+02  7.00000000E+01  0.00000000E+00
  5.70000000E+02  6.80000000E+01  0.00000000E+00
  5.70000000E+02  6.60000000E+01  0.00000000E+00
  5.70000000E+02  6.40000000E+01  0.00000000E+00
  5.70000000E+02  6.20000000E+01  0.00000000E+00
  5.70000000E+02  6.00000000E+01  0.00000000E+00
  5.70000000E+02  5.80000000E+01  0.00000000E+00
  5.70000000E+02  5.60000000E+01  0.00000000E+00
  5.70000000E+02  5.40000000E+01  0.00000000E+00
  5.70000000E+02  5.20000000E+01  0.00000000E+00
  5.70000000E+02  5.00000000E+01  0.00000000E+00
  5.70000000E+02  4.80000000E+01  0.00000000E+00
  5.70000000E+02  4.60000000E+01  0.00000000E+00
  5.70000000E+02  4.40000000E+01  0.00000000E+00
  5.70000000E+02  4.20000000E+01  0.00000000E+00
  5.70000000E+02  4.00000000E+01  0.00000000E+00
  5.70000000E+02  3.80000000E+01  0.00000000E+00
  5.70000000E+02  3.60000000E+01  0.00000000E+00
  5.70000000E+02  3.40000000E+01  0.00000000E+00
  5.70000000E+02  3.20000000E+01  0.00000000E+00
  5.70000000E+02  3.00000000E+01  0.00000000E+00
  5.70000000E+02  2.80000000E+01  0.00000000E+00
  5.70000000E+02  2.60000000E+01  0.00000000E+00
  5.70000000E+02  2.40000000E+01  0.00000000E+00
  5.70000000E+02  2.20000000E+01  0.00000000E+00
  5.70000000E+02  2.00000000E+01  0.00000000E+00
  5.70000000E+02  1.80000000E+01  0.00000000E+00
  5.70000000E+02  1.60000000E+01  0.00000000E+00
  5.70000000E+02  1.40000000E+01  0.00000000E+00
  5.70000000E+02  1.20000000E+01  0.00000000E+00
  5.70000000E+02  1.00000000E+01  0.00000000E+00
  5.70000000E+02  8.00000000E+00  0.00000000E+00
  5.70000000E+02  6.00000000E+00  0.00000000E+00
  5.70000000E+02  4.00000000E+00  0.00000000E+00
  5.70000000E+02  2.00000000E+00  0.00000000E+00
  5.70000000E+02 -3.33066907E-14  0.00000000E+00
  5.80000000E+02  1.00000000E+02  0.00000000E+00
  5.80000000E+02  9.80000000E+01  0.00000000E+00
  5.80000000E+02  9.60000000E+01  0.00000000E+00
  5.80000000E+02  9.40000000E+01  0.00000000E+00
  5.80000000E+02  9.20000000E+01  0.00000000E+00
  5.80000000E+02  9.00000000E+01  0.00000000E+00
  5.80000000E+02  8.80000000E+01  0.00000000E+00
  5.80000000E+02  8.60000000E+01  0.00000000E+00
  5.80000000E+02  8.40000000E+01  0.00000000E+00
  5.80000000E+02  8.20000000E+01  0.00000000E+00
  5.80000000E+02  8.00000000E+01  0.00000000E+00
  5.80000000E+02  7.80000000E+01  0.00000000E+00
  5.80000000E+02  7.60000000E+01  0.00000000E+00
  5.80000000E+02  7.40000000E+01  0.00000000E+00
  5.80000000E+02  7.20000000E+01  0.00000000E+00
  5.80000000E+02  7.00000000E+01  0.00000000E+00
  5.80000000E+02  6.80000000E+01  0.00000000E+00
  5.80000000E+02  6.60000000E+01  0.00000000E+00
  5.80000000E+02  6.40000000E+01  0.00000000E+00
  5.80000000E+02  6.20000000E+01  0.00000000E+00
  5.80000000E+02  6.00000000E+01  0.00000000E+00
  5.80000000E+02  5.80000000E+01  0.00000000E+00
  5.80000000E+02  5.60000000E+01  0.00000000E+00
  5.80000000E+02  5.40000000E+01  0.00000000E+00
  5.80000000E+02  5.20000000E+01  0.00000000E+00
  5.80000000E+02  5.00000000E+01  0.00000000E+00
  5.80000000E+02  4.80000000E+01  0.00000000E+00
  5.80000000E+02  4.60000000E+01  0.00000000E+00
  5.80000000E+02  4.40000000E+01  0.00000000E+00
  5.80000000E+02  4.20000000E+01  0.00000000E+00
  5.80000000E+02  4.00000000E+01  0.00000000E+00
  5.80000000E+02  3.80000000E+01  0.00000000E+00
  5.80000000E+02  3.60000000E+01  0.00000000E+00
  5.80000000E+02  3.40000000E+01  0.00000000E+00
  5.80000000E+02  3.20000000E+01  0.00000000E+00
  5.80000000E+02  3.00000000E+01  0.00000000E+00
  5.80000000E+02  2.80000000E+01  0.00000000E+00
  5.80000000E+02  2.60000000E+01  0.00000000E+00
  5.80000000E+02  2.40000000E+01  0.00000000E+00
  5.80000000E+02  2.20000000E+01  0.00000000E+00
  5.80000000E+02  2.00000000E+01  0.00000000E+00
  5.80000000E+02  1.80000000E+01  0.00000000E+00
  5.80000000E+02  1.60000000E+01  0.00000000E+00
  5.80000000E+02  1.40000000E+01  0.00000000E+00
  5.80000000E+02  1.20000000E+01  0.00000000E+00
  5.80000000E+02  1.00000000E+01  0.00000000E+00
  5.80000000E+02  8.00000000E+00  0.00000000E+00
  5.80000000E+02  6.00000000E+00  0.00000000E+00
  5.80000000E+02  4.00000000E+00  0.00000000E+00
  5.80000000E+02  2.00000000E+00  0.00000000E+00
  5.80000000E+02 -3.33066907E-14  0.00000000E+00
  5.90000000E+02  1.00000000E+02  0.00000000E+00
  5.90000000E+02  9.80000000E+01  0.00000000E+00
  5.90000000E+02  9.60000000E+01  0.00000000E+00
  5.90000000E+02  9.40000000E+01  0.00000000E+00
  5.90000000E+02  9.20000000E+01  0.00000000E+00
  5.90000000E+02  9.00000000E+01  0.00000000E+00
  5.90000000E+02  8.80000000E+01  0.00000000E+00
  5.90000000E+02  8.60000000E+01  0.00000000E+00
  5.90000000E+02  8.40000000E+01  0.00000000E+00
  5.90000000E+02  8.20000000E+01  0.00000000E+00
  5.90000000E+02  8.00000000E+01  0.00000000E+00
  5.90000000E+02  7.80000000E+01  0.00000000E+00
  5.90000000E+02  7.60000000E+01  0.00000000E+00
  5.90000000E+02  7.40000000E+01  0.00000000E+00
  5.90000000E+02  7.20000000E+01  0.00000000E+00
  5.90000000E+02  7.00000000E+01  0.00000000E+00
  5.90000000E+02  6.80000000E+01  0.00000000E+00
  5.90000000E+02  6.60000000E+01  0.00000000E+00
  5.90000000E+02  6.40000000E+01  0.00000000E+00
  5.90000000E+02  6.20000000E+01  0.00000000E+00
  5.90000000E+02  6.00000000E+01  0.00000000E+00
  5.90000000E+02  5.80000000E+01  0.00000000E+00
  5.90000000E+02  5.60000000E+01  0.00000000E+00
  5.90000000E+02  5.40000000E+01  0.00000000E+00
  5.90000000E+02  5.20000000E+01  0.00000000E+00
  5.90000000E+02  5.00000000E+01  0.00000000E+00
  5.90000000E+02  4.80000000E+01  0.00000000E+00
  5.90000000E+02  4.60000000E+01  0.00000000E+00
  5.90000000E+02  4.40000000E+01  0.00000000E+00
  5.90000000E+02  4.20000000E+01  0.00000000E+00
  5.90000000E+02  4.00000000E+01  0.00000000E+00
  5.90000000E+02  3.80000000E+01  0.00000000E+00
  5.90000000E+02  3.60000000E+01  0.00000000E+00
  5.90000000E+02  3.40000000E+01  0.00000000E+00
  5.90000000E+02  3.20000000E+01  0.00000000E+00
  5.90000000E+02  3.00000000E+01  0.00000000E+00
  5.90000000E+02  2.80000000E+01  0.00000000E+00
  5.90000000E+02  2.60000000E+01  0.00000000E+00
  5.90000000E+02  2.40000000E+01  0.00000000E+00
  5.90000000E+02  2.20000000E+01  0.00000000E+00
  5.90000000E+02  2.00000000E+01  0.00000000E+00
  5.90000000E+02  1.80000000E+01  0.00000000E+00
  5.90000000E+02  1.60000000E+01  0.00000000E+00
  5.90000000E+02  1.40000000E+01  0.00000000E+00
  5.90000000E+02  1.20000000E+01  0.00000000E+00
  5.90000000E+02  1.00000000E+01  0.00000000E+00
  5.90000000E+02  8.00000000E+00  0.00000000E+00
  5.90000000E+02  6.00000000E+00  0.00000000E+00
  5.90000000E+02  4.00000000E+00  0.00000000E+00
  5.90000000E+02  2.00000000E+00  0.00000000E+00
  5.90000000E+02 -3.33066907E-14  0.00000000E+00
  6.00000000E+02  1.00000000E+02  0.00000000E+00
  6.00000000E+02  9.80000000E+01  0.00000000E+00
  6.00000000E+02  9.60000000E+01  0.00000000E+00
  6.00000000E+02  9.40000000E+01  0.00000000E+00
  6.00000000E+02  9.20000000E+01  0.00000000E+00
  6.00000000E+02  9.00000000E+01  0.00000000E+00
  6.00000000E+02  8.80000000E+01  0.00000000E+00
  6.00000000E+02  8.60000000E+01  0.00000000E+00
  6.00000000E+02  8.40000000E+01  0.00000000E+00
  6.00000000E+02  8.20000000E+01  0.00000000E+00
  6.00000000E+02  8.00000000E+01  0.00000000E+00
  6.00000000E+02  7.80000000E+01  0.00000000E+00
  6.00000000E+02  7.60000000E+01  0.00000000E+00
  6.00000000E+02  7.40000000E+01  0.00000000E+00
  6.00000000E+02  7.20000000E+01  0.00000000E+00
  6.00000000E+02  7.00000000E+01  0.00000000E+00
  6.00000000E+02  6.80000000E+01  0.00000000E+00
  6.00000000E+02  6.60000000E+01  0.00000000E+00
  6.00000000E+02  6.40000000E+01  0.00000000E+00
  6.00000000E+02  6.20000000E+01  0.00000000E+00
  6.00000000E+02  6.00000000E+01  0.00000000E+00
  6.00000000E+02  5.80000000E+01  0.00000000E+00
  6.00000000E+02  5.60000000E+01  0.00000000E+00
  6.00000000E+02  5.40000000E+01  0.00000000E+00
  6.00000000E+02  5.20000000E+01  0.00000000E+00
  6.00000000E+02  5.00000000E+01  0.00000000E+00
  6.00000000E+02  4.80000000E+01  0.00000000E+00
  6.00000000E+02  4.60000000E+01  0.00000000E+00
  6.00000000E+02  4.40000000E+01  0.00000000E+00
  6.00000000E+02  4.20000000E+01  0.00000000E+00
  6.00000000E+02  4.00000000E+01  0.00000000E+00
  6.00000000E+02  3.80000000E+01  0.00000000E+00
  6.00000000E+02  3.60000000E+01  0.00000000E+00
  6.00000000E+02  3.40000000E+01  0.00000000E+00
  6.00000000E+02  3.20000000E+01  0.00000000E+00
  6.00000000E+02  3.00000000E+01  0.00000000E+00
  6.00000000E+02  2.80000000E+01  0.00000000E+00
  6.00000000E+02  2.60000000E+01  0.00000000E+00
  6.00000000E+02  2.40000000E+01  0.00000000E+00
  6.00000000E+02  2.20000000E+01  0.00000000E+00
  6.00000000E+02  2.00000000E+01  0.00000000E+00
  6.00000000E+02  1.80000000E+01  0.00000000E+00
  6.00000000E+02  1.60000000E+01  0.00000000E+00
  6.00000000E+02  1.40000000E+01  0.00000000E+00
  6.00000000E+02  1.20000000E+01  0.00000000E+00
  6.00000000E+02  1.00000000E+01  0.00000000E+00
  6.00000000E+02  8.00000000E+00  0.00000000E+00
  6.00000000E+02  6.00000000E+00  0.00000000E+00
  6.00000000E+02  4.00000000E+00  0.00000000E+00
  6.00000000E+02  2.00000000E+00  0.00000000E+00
  6.00000000E+02 -3.33066907E-14  0.00000000E+00
  6.10000000E+02  1.00000000E+02  0.00000000E+00
  6.10000000E+02  9.80000000E+01  0.00000000E+00
  6.10000000E+02  9.60000000E+01  0.00000000E+00
  6.10000000E+02  9.40000000E+01  0.00000000E+00
  6.10000000E+02  9.20000000E+01  0.00000000E+00
  6.10000000E+02  9.00000000E+01  0.00000000E+00
  6.10000000E+02  8.80000000E+01  0.00000000E+00
  6.10000000E+02  8.60000000E+01  0.00000000E+00
  6.10000000E+02  8.40000000E+01  0.00000000E+00
  6.10000000E+02  8.20000000E+01  0.00000000E+00
  6.10000000E+02  8.00000000E+01  0.00000000E+00
  6.10000000E+02  7.80000000E+01  0.00000000E+00
  6.10000000E+02  7.60000000E+01  0.00000000E+00
  6.10000000E+02  7.40000000E+01  0.00000000E+00
  6.10000000E+02  7.20000000E+01  0.00000000E+00
  6.10000000E+02  7.00000000E+01  0.00000000E+00
  6.10000000E+02  6.80000000E+01  0.00000000E+00
  6.10000000E+02  6.60000000E+01  0.00000000E+00
  6.10000000E+02  6.40000000E+01  0.00000000E+00
  6.10000000E+02  6.20000000E+01  0.00000000E+00
  6.10000000E+02  6.00000000E+01  0.00000000E+00
  6.10000000E+02  5.80000000E+01  0.00000000E+00
  6.10000000E+02  5.60000000E+01  0.00000000E+00
  6.10000000E+02  5.40000000E+01  0.00000000E+00
  6.10000000E+02  5.20000000E+01  0.00000000E+00
  6.10000000E+02  5.00000000E+01  0.00000000E+00
  6.10000000E+02  4.80000000E+01  0.00000000E+00
  6.10000000E+02  4.60000000E+01  0.00000000E+00
  6.10000000E+02  4.40000000E+01  0.00000000E+00
  6.10000000E+02  4.20000000E+01  0.00000000E+00
  6.10000000E+02  4.00000000E+01  0.00000000E+00
  6.10000000E+02  3.80000000E+01  0.00000000E+00
  6.10000000E+02  3.60000000E+01  0.00000000E+00
  6.10000000E+02  3.40000000E+01  0.00000000E+00
  6.10000000E+02  3.20000000E+01  0.00000000E+00
  6.10000000E+02  3.00000000E+01  0.00000000E+00
  6.10000000E+02  2.80000000E+01  0.00000000E+00
  6.10000000E+02  2.60000000E+01  0.00000000E+00
  6.10000000E+02  2.40000000E+01  0.00000000E+00
  6.10000000E+02  2.20000000E+01  0.00000000E+00
  6.10000000E+02  2.00000000E+01  0.00000000E+00
  6.10000000E+02  1.80000000E+01  0.00000000E+00
  6.10000000E+02  1.60000000E+01  0.00000000E+00
  6.10000000E+02  1.40000000E+01  0.00000000E+00
  6.10000000E+02  1.20000000E+01  0.00000000E+00
  6.10000000E+02  1.00000000E+01  0.00000000E+00
  6.10000000E+02  8.00000000E+00  0.00000000E+00
  6.10000000E+02  6.00000000E+00  0.00000000E+00
  6.10000000E+02  4.00000000E+00  0.00000000E+00
  6.10000000E+02  2.00000000E+00  0.00000000E+00
  6.10000000E+02 -3.33066907E-14  0.00000000E+00
  6.20000000E+02  1.00000000E+02  0.00000000E+00
  6.20000000E+02  9.80000000E+01  0.00000000E+00
  6.20000000E+02  9.60000000E+01  0.00000000E+00
  6.20000000E+02  9.40000000E+01  0.00000000E+00
  6.20000000E+02  9.20000000E+01  0.00000000E+00
  6.20000000E+02  9.00000000E+01  0.00000000E+00
  6.20000000E+02  8.80000000E+01  0.00000000E+00
  6.20000000E+02  8.60000000E+01  0.00000000E+00
  6.20000000E+02  8.40000000E+01  0.00000000E+00
  6.20000000E+02  8.20000000E+01  0.00000000E+00
  6.20000000E+02  8.00000000E+01  0.00000000E+00
  6.20000000E+02  7.80000000E+01  0.00000000E+00
  6.20000000E+02  7.60000000E+01  0.00000000E+00
  6.20000000E+02  7.40000000E+01  0.00000000E+00
  6.20000000E+02  7.20000000E+01  0.00000000E+00
  6.20000000E+02  7.00000000E+01  0.00000000E+00
  6.20000000E+02  6.80000000E+01  0.00000000E+00
  6.20000000E+02  6.60000000E+01  0.00000000E+00
  6.20000000E+02  6.40000000E+01  0.00000000E+00
  6.20000000E+02  6.20000000E+01  0.00000000E+00
  6.20000000E+02  6.00000000E+01  0.00000000E+00
  6.20000000E+02  5.80000000E+01  0.00000000E+00
  6.20000000E+02  5.60000000E+01  0.00000000E+00
  6.20000000E+02  5.40000000E+01  0.00000000E+00
  6.20000000E+02  5.20000000E+01  0.00000000E+00
  6.20000000E+02  5.00000000E+01  0.00000000E+00
  6.20000000E+02  4.80000000E+01  0.00000000E+00
  6.20000000E+02  4.60000000E+01  0.00000000E+00
  6.20000000E+02  4.40000000E+01  0.00000000E+00
  6.20000000E+02  4.20000000E+01  0.00000000E+00
  6.20000000E+02  4.00000000E+01  0.00000000E+00
  6.20000000E+02  3.80000000E+01  0.00000000E+00
  6.20000000E+02  3.60000000E+01  0.00000000E+00
  6.20000000E+02  3.40000000E+01  0.00000000E+00
  6.20000000E+02  3.20000000E+01  0.00000000E+00
  6.20000000E+02  3.00000000E+01  0.00000000E+00
  6.20000000E+02  2.80000000E+01  0.00000000E+00
  6.20000000E+02  2.60000000E+01  0.00000000E+00
  6.20000000E+02  2.40000000E+01  0.00000000E+00
  6.20000000E+02  2.20000000E+01  0.00000000E+00
  6.20000000E+02  2.00000000E+01  0.00000000E+00
  6.20000000E+02  1.80000000E+01  0.00000000E+00
  6.20000000E+02  1.60000000E+01  0.00000000E+00
  6.20000000E+02  1.40000000E+01  0.00000000E+00
  6.20000000E+02  1.20000000E+01  0.00000000E+00
  6.20000000E+02  1.00000000E+01  0.00000000E+00
  6.20000000E+02  8.00000000E+00  0.00000000E+00
  6.20000000E+02  6.00000000E+00  0.00000000E+00
  6.20000000E+02  4.00000000E+00  0.00000000E+00
  6.20000000E+02  2.00000000E+00  0.00000000E+00
  6.20000000E+02 -3.33066907E-14  0.00000000E+00
  6.30000000E+02  1.00000000E+02  0.00000000E+00
  6.30000000E+02  9.80000000E+01  0.00000000E+00
  6.30000000E+02  9.60000000E+01  0.00000000E+00
  6.30000000E+02  9.40000000E+01  0.00000000E+00
  6.30000000E+02  9.20000000E+01  0.00000000E+00
  6.30000000E+02  9.00000000E+01  0.00000000E+00
  6.30000000E+02  8.80000000E+01  0.00000000E+00
  6.30000000E+02  8.60000000E+01  0.00000000E+00
  6.30000000E+02  8.40000000E+01  0.00000000E+00
  6.30000000E+02  8.20000000E+01  0.00000000E+00
  6.30000000E+02  8.00000000E+01  0.00000000E+00
  6.30000000E+02  7.80000000E+01  0.00000000E+00
  6.30000000E+02  7.60000000E+01  0.00000000E+00
  6.30000000E+02  7.40000000E+01  0.00000000E+00
  6.30000000E+02  7.20000000E+01  0.00000000E+00
  6.30000000E+02  7.00000000E+01  0.00000000E+00
  6.30000000E+02  6.80000000E+01  0.00000000E+00
  6.30000000E+02  6.60000000E+01  0.00000000E+00
  6.30000000E+02  6.40000000E+01  0.00000000E+00
  6.30000000E+02  6.20000000E+01  0.00000000E+00
  6.30000000E+02  6.00000000E+01  0.00000000E+00
  6.30000000E+02  5.80000000E+01  0.00000000E+00
  6.30000000E+02  5.60000000E+01  0.00000000E+00
  6.30000000E+02  5.40000000E+01  0.00000000E+00
  6.30000000E+02  5.20000000E+01  0.00000000E+00
  6.30000000E+02  5.00000000E+01  0.00000000E+00
  6.30000000E+02  4.80000000E+01  0.00000000E+00
  6.30000000E+02  4.60000000E+01  0.00000000E+00
  6.30000000E+02  4.40000000E+01  0.00000000E+00
  6.30000000E+02  4.20000000E+01  0.00000000E+00
  6.30000000E+02  4.00000000E+01  0.00000000E+00
  6.30000000E+02  3.80000000E+01  0.00000000E+00
  6.30000000E+02  3.60000000E+01  0.00000000E+00
  6.30000000E+02  3.40000000E+01  0.00000000E+00
  6.30000000E+02  3.20000000E+01  0.00000000E+00
  6.30000000E+02  3.00000000E+01  0.00000000E+00
  6.30000000E+02  2.80000000E+01  0.00000000E+00
  6.30000000E+02  2.60000000E+01  0.00000000E+00
  6.30000000E+02  2.40000000E+01  0.00000000E+00
  6.30000000E+02  2.20000000E+01  0.00000000E+00
  6.30000000E+02  2.00000000E+01  0.00000000E+00
  6.30000000E+02  1.80000000E+01  0.00000000E+00
  6.30000000E+02  1.60000000E+01  0.00000000E+00
  6.30000000E+02  1.40000000E+01  0.00000000E+00
  6.30000000E+02  1.20000000E+01  0.00000000E+00
  6.30000000E+02  1.00000000E+01  0.00000000E+00
  6.30000000E+02  8.00000000E+00  0.00000000E+00
  6.30000000E+02  6.00000000E+00  0.00000000E+00
  6.30000000E+02  4.00000000E+00  0.00000000E+00
  6.30000000E+02  2.00000000E+00  0.00000000E+00
  6.30000000E+02 -3.33066907E-14  0.00000000E+00
  6.40000000E+02  1.00000000E+02  0.00000000E+00
  6.40000000E+02  9.80000000E+01  0.00000000E+00
  6.40000000E+02  9.60000000E+01  0.00000000E+00
  6.40000000E+02  9.40000000E+01  0.00000000E+00
  6.40000000E+02  9.20000000E+01  0.00000000E+00
  6.40000000E+02  9.00000000E+01  0.00000000E+00
  6.40000000E+02  8.80000000E+01  0.00000000E+00
  6.40000000E+02  8.60000000E+01  0.00000000E+00
  6.40000000E+02  8.40000000E+01  0.00000000E+00
  6.40000000E+02  8.20000000E+01  0.00000000E+00
  6.40000000E+02  8.00000000E+01  0.00000000E+00
  6.40000000E+02  7.80000000E+01  0.00000000E+00
  6.40000000E+02  7.60000000E+01  0.00000000E+00
  6.40000000E+02  7.40000000E+01  0.00000000E+00
  6.40000000E+02  7.20000000E+01  0.00000000E+00
  6.40000000E+02  7.00000000E+01  0.00000000E+00
  6.40000000E+02  6.80000000E+01  0.00000000E+00
  6.40000000E+02  6.60000000E+01  0.00000000E+00
  6.40000000E+02  6.40000000E+01  0.00000000E+00
  6.40000000E+02  6.20000000E+01  0.00000000E+00
  6.40000000E+02  6.00000000E+01  0.00000000E+00
  6.40000000E+02  5.80000000E+01  0.00000000E+00
  6.40000000E+02  5.60000000E+01  0.00000000E+00
  6.40000000E+02  5.40000000E+01  0.00000000E+00
  6.40000000E+02  5.20000000E+01  0.00000000E+00
  6.40000000E+02  5.00000000E+01  0.00000000E+00
  6.40000000E+02  4.80000000E+01  0.00000000E+00
  6.40000000E+02  4.60000000E+01  0.00000000E+00
  6.40000000E+02  4.40000000E+01  0.00000000E+00
  6.40000000E+02  4.20000000E+01  0.00000000E+00
  6.40000000E+02  4.00000000E+01  0.00000000E+00
  6.40000000E+02  3.80000000E+01  0.00000000E+00
  6.40000000E+02  3.60000000E+01  0.00000000E+00
  6.40000000E+02  3.40000000E+01  0.00000000E+00
  6.40000000E+02  3.20000000E+01  0.00000000E+00
  6.40000000E+02  3.00000000E+01  0.00000000E+00
  6.40000000E+02  2.80000000E+01  0.00000000E+00
  6.40000000E+02  2.60000000E+01  0.00000000E+00
  6.40000000E+02  2.40000000E+01  0.00000000E+00
  6.40000000E+02  2.20000000E+01  0.00000000E+00
  6.40000000E+02  2.00000000E+01  0.00000000E+00
  6.40000000E+02  1.80000000E+01  0.00000000E+00
  6.40000000E+02  1.60000000E+01  0.00000000E+00
  6.40000000E+02  1.40000000E+01  0.00000000E+00
  6.40000000E+02  1.20000000E+01  0.00000000E+00
  6.40000000E+02  1.00000000E+01  0.00000000E+00
  6.40000000E+02  8.00000000E+00  0.00000000E+00
  6.40000000E+02  6.00000000E+00  0.00000000E+00
  6.40000000E+02  4.00000000E+00  0.00000000E+00
  6.40000000E+02  2.00000000E+00  0.00000000E+00
  6.40000000E+02 -3.33066907E-14  0.00000000E+00
  6.50000000E+02  1.00000000E+02  0.00000000E+00
  6.50000000E+02  9.80000000E+01  0.00000000E+00
  6.50000000E+02  9.60000000E+01  0.00000000E+00
  6.50000000E+02  9.40000000E+01  0.00000000E+00
  6.50000000E+02  9.20000000E+01  0.00000000E+00
  6.50000000E+02  9.00000000E+01  0.00000000E+00
  6.50000000E+02  8.80000000E+01  0.00000000E+00
  6.50000000E+02  8.60000000E+01  0.00000000E+00
  6.50000000E+02  8.40000000E+01  0.00000000E+00
  6.50000000E+02  8.20000000E+01  0.00000000E+00
  6.50000000E+02  8.00000000E+01  0.00000000E+00
  6.50000000E+02  7.80000000E+01  0.00000000E+00
  6.50000000E+02  7.60000000E+01  0.00000000E+00
  6.50000000E+02  7.40000000E+01  0.00000000E+00
  6.50000000E+02  7.20000000E+01  0.00000000E+00
  6.50000000E+02  7.00000000E+01  0.00000000E+00
  6.50000000E+02  6.80000000E+01  0.00000000E+00
  6.50000000E+02  6.60000000E+01  0.00000000E+00
  6.50000000E+02  6.40000000E+01  0.00000000E+00
  6.50000000E+02  6.20000000E+01  0.00000000E+00
  6.50000000E+02  6.00000000E+01  0.00000000E+00
  6.50000000E+02  5.80000000E+01  0.00000000E+00
  6.50000000E+02  5.60000000E+01  0.00000000E+00
  6.50000000E+02  5.40000000E+01  0.00000000E+00
  6.50000000E+02  5.20000000E+01  0.00000000E+00
  6.50000000E+02  5.00000000E+01  0.00000000E+00
  6.50000000E+02  4.80000000E+01  0.00000000E+00
  6.50000000E+02  4.60000000E+01  0.00000000E+00
  6.50000000E+02  4.40000000E+01  0.00000000E+00
  6.50000000E+02  4.20000000E+01  0.00000000E+00
  6.50000000E+02  4.00000000E+01  0.00000000E+00
  6.50000000E+02  3.80000000E+01  0.00000000E+00
  6.50000000E+02  3.60000000E+01  0.00000000E+00
  6.50000000E+02  3.40000000E+01  0.00000000E+00
  6.50000000E+02  3.20000000E+01  0.00000000E+00
  6.50000000E+02  3.00000000E+01  0.00000000E+00
  6.50000000E+02  2.80000000E+01  0.00000000E+00
  6.50000000E+02  2.60000000E+01  0.00000000E+00
  6.50000000E+02  2.40000000E+01  0.00000000E+00
  6.50000000E+02  2.20000000E+01  0.00000000E+00
  6.50000000E+02  2.00000000E+01  0.00000000E+00
  6.50000000E+02  1.80000000E+01  0.00000000E+00
  6.50000000E+02  1.60000000E+01  0.00000000E+00
  6.50000000E+02  1.40000000E+01  0.00000000E+00
  6.50000000E+02  1.20000000E+01  0.00000000E+00
  6.50000000E+02  1.00000000E+01  0.00000000E+00
  6.50000000E+02  8.00000000E+00  0.00000000E+00
  6.50000000E+02  6.00000000E+00  0.00000000E+00
  6.50000000E+02  4.00000000E+00  0.00000000E+00
  6.50000000E+02  2.00000000E+00  0.00000000E+00
  6.50000000E+02 -3.33066907E-14  0.00000000E+00
  6.60000000E+02  1.00000000E+02  0.00000000E+00
  6.60000000E+02  9.80000000E+01  0.00000000E+00
  6.60000000E+02  9.60000000E+01  0.00000000E+00
  6.60000000E+02  9.40000000E+01  0.00000000E+00
  6.60000000E+02  9.20000000E+01  0.00000000E+00
  6.60000000E+02  9.00000000E+01  0.00000000E+00
  6.60000000E+02  8.80000000E+01  0.00000000E+00
  6.60000000E+02  8.60000000E+01  0.00000000E+00
  6.60000000E+02  8.40000000E+01  0.00000000E+00
  6.60000000E+02  8.20000000E+01  0.00000000E+00
  6.60000000E+02  8.00000000E+01  0.00000000E+00
  6.60000000E+02  7.80000000E+01  0.00000000E+00
  6.60000000E+02  7.60000000E+01  0.00000000E+00
  6.60000000E+02  7.40000000E+01  0.00000000E+00
  6.60000000E+02  7.20000000E+01  0.00000000E+00
  6.60000000E+02  7.00000000E+01  0.00000000E+00
  6.60000000E+02  6.80000000E+01  0.00000000E+00
  6.60000000E+02  6.60000000E+01  0.00000000E+00
  6.60000000E+02  6.40000000E+01  0.00000000E+00
  6.60000000E+02  6.20000000E+01  0.00000000E+00
  6.60000000E+02  6.00000000E+01  0.00000000E+00
  6.60000000E+02  5.80000000E+01  0.00000000E+00
  6.60000000E+02  5.60000000E+01  0.00000000E+00
  6.60000000E+02  5.40000000E+01  0.00000000E+00
  6.60000000E+02  5.20000000E+01  0.00000000E+00
  6.60000000E+02  5.00000000E+01  0.00000000E+00
  6.60000000E+02  4.80000000E+01  0.00000000E+00
  6.60000000E+02  4.60000000E+01  0.00000000E+00
  6.60000000E+02  4.40000000E+01  0.00000000E+00
  6.60000000E+02  4.20000000E+01  0.00000000E+00
  6.60000000E+02  4.00000000E+01  0.00000000E+00
  6.60000000E+02  3.80000000E+01  0.00000000E+00
  6.60000000E+02  3.60000000E+01  0.00000000E+00
  6.60000000E+02  3.40000000E+01  0.00000000E+00
  6.60000000E+02  3.20000000E+01  0.00000000E+00
  6.60000000E+02  3.00000000E+01  0.00000000E+00
  6.60000000E+02  2.80000000E+01  0.00000000E+00
  6.60000000E+02  2.60000000E+01  0.00000000E+00
  6.60000000E+02  2.40000000E+01  0.00000000E+00
  6.60000000E+02  2.20000000E+01  0.00000000E+00
  6.60000000E+02  2.00000000E+01  0.00000000E+00
  6.60000000E+02  1.80000000E+01  0.00000000E+00
  6.60000000E+02  1.60000000E+01  0.00000000E+00
  6.60000000E+02  1.40000000E+01  0.00000000E+00
  6.60000000E+02  1.20000000E+01  0.00000000E+00
  6.60000000E+02  1.00000000E+01  0.00000000E+00
  6.60000000E+02  8.00000000E+00  0.00000000E+00
  6.60000000E+02  6.00000000E+00  0.00000000E+00
  6.60000000E+02  4.00000000E+00  0.00000000E+00
  6.60000000E+02  2.00000000E+00  0.00000000E+00
  6.60000000E+02 -3.33066907E-14  0.00000000E+00
  6.70000000E+02  1.00000000E+02  0.00000000E+00
  6.70000000E+02  9.80000000E+01  0.00000000E+00
  6.70000000E+02  9.60000000E+01  0.00000000E+00
  6.70000000E+02  9.40000000E+01  0.00000000E+00
  6.70000000E+02  9.20000000E+01  0.00000000E+00
  6.70000000E+02  9.00000000E+01  0.00000000E+00
  6.70000000E+02  8.80000000E+01  0.00000000E+00
  6.70000000E+02  8.60000000E+01  0.00000000E+00
  6.70000000E+02  8.40000000E+01  0.00000000E+00
  6.70000000E+02  8.20000000E+01  0.00000000E+00
  6.70000000E+02  8.00000000E+01  0.00000000E+00
  6.70000000E+02  7.80000000E+01  0.00000000E+00
  6.70000000E+02  7.60000000E+01  0.00000000E+00
  6.70000000E+02  7.40000000E+01  0.00000000E+00
  6.70000000E+02  7.20000000E+01  0.00000000E+00
  6.70000000E+02  7.00000000E+01  0.00000000E+00
  6.70000000E+02  6.80000000E+01  0.00000000E+00
  6.70000000E+02  6.60000000E+01  0.00000000E+00
  6.70000000E+02  6.40000000E+01  0.00000000E+00
  6.70000000E+02  6.20000000E+01  0.00000000E+00
  6.70000000E+02  6.00000000E+01  0.00000000E+00
  6.70000000E+02  5.80000000E+01  0.00000000E+00
  6.70000000E+02  5.60000000E+01  0.00000000E+00
  6.70000000E+02  5.40000000E+01  0.00000000E+00
  6.70000000E+02  5.20000000E+01  0.00000000E+00
  6.70000000E+02  5.00000000E+01  0.00000000E+00
  6.70000000E+02  4.80000000E+01  0.00000000E+00
  6.70000000E+02  4.60000000E+01  0.00000000E+00
  6.70000000E+02  4.40000000E+01  0.00000000E+00
  6.70000000E+02  4.20000000E+01  0.00000000E+00
  6.70000000E+02  4.00000000E+01  0.00000000E+00
  6.70000000E+02  3.80000000E+01  0.00000000E+00
  6.70000000E+02  3.60000000E+01  0.00000000E+00
  6.70000000E+02  3.40000000E+01  0.00000000E+00
  6.70000000E+02  3.20000000E+01  0.00000000E+00
  6.70000000E+02  3.00000000E+01  0.00000000E+00
  6.70000000E+02  2.80000000E+01  0.00000000E+00
  6.70000000E+02  2.60000000E+01  0.00000000E+00
  6.70000000E+02  2.40000000E+01  0.00000000E+00
  6.70000000E+02  2.20000000E+01  0.00000000E+00
  6.70000000E+02  2.00000000E+01  0.00000000E+00
  6.70000000E+02  1.80000000E+01  0.00000000E+00
  6.70000000E+02  1.60000000E+01  0.00000000E+00
  6.70000000E+02  1.40000000E+01  0.00000000E+00
  6.70000000E+02  1.20000000E+01  0.00000000E+00
  6.70000000E+02  1.00000000E+01  0.00000000E+00
  6.70000000E+02  8.00000000E+00  0.00000000E+00
  6.70000000E+02  6.00000000E+00  0.00000000E+00
  6.70000000E+02  4.00000000E+00  0.00000000E+00
  6.70000000E+02  2.00000000E+00  0.00000000E+00
  6.70000000E+02 -3.33066907E-14  0.00000000E+00
  6.80000000E+02  1.00000000E+02  0.00000000E+00
  6.80000000E+02  9.80000000E+01  0.00000000E+00
  6.80000000E+02  9.60000000E+01  0.00000000E+00
  6.80000000E+02  9.40000000E+01  0.00000000E+00
  6.80000000E+02  9.20000000E+01  0.00000000E+00
  6.80000000E+02  9.00000000E+01  0.00000000E+00
  6.80000000E+02  8.80000000E+01  0.00000000E+00
  6.80000000E+02  8.60000000E+01  0.00000000E+00
  6.80000000E+02  8.40000000E+01  0.00000000E+00
  6.80000000E+02  8.20000000E+01  0.00000000E+00
  6.80000000E+02  8.00000000E+01  0.00000000E+00
  6.80000000E+02  7.80000000E+01  0.00000000E+00
  6.80000000E+02  7.60000000E+01  0.00000000E+00
  6.80000000E+02  7.40000000E+01  0.00000000E+00
  6.80000000E+02  7.20000000E+01  0.00000000E+00
  6.80000000E+02  7.00000000E+01  0.00000000E+00
  6.80000000E+02  6.80000000E+01  0.00000000E+00
  6.80000000E+02  6.60000000E+01  0.00000000E+00
  6.80000000E+02  6.40000000E+01  0.00000000E+00
  6.80000000E+02  6.20000000E+01  0.00000000E+00
  6.80000000E+02  6.00000000E+01  0.00000000E+00
  6.80000000E+02  5.80000000E+01  0.00000000E+00
  6.80000000E+02  5.60000000E+01  0.00000000E+00
  6.80000000E+02  5.40000000E+01  0.00000000E+00
  6.80000000E+02  5.20000000E+01  0.00000000E+00
  6.80000000E+02  5.00000000E+01  0.00000000E+00
  6.80000000E+02  4.80000000E+01  0.00000000E+00
  6.80000000E+02  4.60000000E+01  0.00000000E+00
  6.80000000E+02  4.40000000E+01  0.00000000E+00
  6.80000000E+02  4.20000000E+01  0.00000000E+00
  6.80000000E+02  4.00000000E+01  0.00000000E+00
  6.80000000E+02  3.80000000E+01  0.00000000E+00
  6.80000000E+02  3.60000000E+01  0.00000000E+00
  6.80000000E+02  3.40000000E+01  0.00000000E+00
  6.80000000E+02  3.20000000E+01  0.00000000E+00
  6.80000000E+02  3.00000000E+01  0.00000000E+00
  6.80000000E+02  2.80000000E+01  0.00000000E+00
  6.80000000E+02  2.60000000E+01  0.00000000E+00
  6.80000000E+02  2.40000000E+01  0.00000000E+00
  6.80000000E+02  2.20000000E+01  0.00000000E+00
  6.80000000E+02  2.00000000E+01  0.00000000E+00
  6.80000000E+02  1.80000000E+01  0.00000000E+00
  6.80000000E+02  1.60000000E+01  0.00000000E+00
  6.80000000E+02  1.40000000E+01  0.00000000E+00
  6.80000000E+02  1.20000000E+01  0.00000000E+00
  6.80000000E+02  1.00000000E+01  0.00000000E+00
  6.80000000E+02  8.00000000E+00  0.00000000E+00
  6.80000000E+02  6.00000000E+00  0.00000000E+00
  6.80000000E+02  4.00000000E+00  0.00000000E+00
  6.80000000E+02  2.00000000E+00  0.00000000E+00
  6.80000000E+02 -3.33066907E-14  0.00000000E+00
  6.90000000E+02  1.00000000E+02  0.00000000E+00
  6.90000000E+02  9.80000000E+01  0.00000000E+00
  6.90000000E+02  9.60000000E+01  0.00000000E+00
  6.90000000E+02  9.40000000E+01  0.00000000E+00
  6.90000000E+02  9.20000000E+01  0.00000000E+00
  6.90000000E+02  9.00000000E+01  0.00000000E+00
  6.90000000E+02  8.80000000E+01  0.00000000E+00
  6.90000000E+02  8.60000000E+01  0.00000000E+00
  6.90000000E+02  8.40000000E+01  0.00000000E+00
  6.90000000E+02  8.20000000E+01  0.00000000E+00
  6.90000000E+02  8.00000000E+01  0.00000000E+00
  6.90000000E+02  7.80000000E+01  0.00000000E+00
  6.90000000E+02  7.60000000E+01  0.00000000E+00
  6.90000000E+02  7.40000000E+01  0.00000000E+00
  6.90000000E+02  7.20000000E+01  0.00000000E+00
  6.90000000E+02  7.00000000E+01  0.00000000E+00
  6.90000000E+02  6.80000000E+01  0.00000000E+00
  6.90000000E+02  6.60000000E+01  0.00000000E+00
  6.90000000E+02  6.40000000E+01  0.00000000E+00
  6.90000000E+02  6.20000000E+01  0.00000000E+00
  6.90000000E+02  6.00000000E+01  0.00000000E+00
  6.90000000E+02  5.80000000E+01  0.00000000E+00
  6.90000000E+02  5.60000000E+01  0.00000000E+00
  6.90000000E+02  5.40000000E+01  0.00000000E+00
  6.90000000E+02  5.20000000E+01  0.00000000E+00
  6.90000000E+02  5.00000000E+01  0.00000000E+00
  6.90000000E+02  4.80000000E+01  0.00000000E+00
  6.90000000E+02  4.60000000E+01  0.00000000E+00
  6.90000000E+02  4.40000000E+01  0.00000000E+00
  6.90000000E+02  4.20000000E+01  0.00000000E+00
  6.90000000E+02  4.00000000E+01  0.00000000E+00
  6.90000000E+02  3.80000000E+01  0.00000000E+00
  6.90000000E+02  3.60000000E+01  0.00000000E+00
  6.90000000E+02  3.40000000E+01  0.00000000E+00
  6.90000000E+02  3.20000000E+01  0.00000000E+00
  6.90000000E+02  3.00000000E+01  0.00000000E+00
  6.90000000E+02  2.80000000E+01  0.00000000E+00
  6.90000000E+02  2.60000000E+01  0.00000000E+00
  6.90000000E+02  2.40000000E+01  0.00000000E+00
  6.90000000E+02  2.20000000E+01  0.00000000E+00
  6.90000000E+02  2.00000000E+01  0.00000000E+00
  6.90000000E+02  1.80000000E+01  0.00000000E+00
  6.90000000E+02  1.60000000E+01  0.00000000E+00
  6.90000000E+02  1.40000000E+01  0.00000000E+00
  6.90000000E+02  1.20000000E+01  0.00000000E+00
  6.90000000E+02  1.00000000E+01  0.00000000E+00
  6.90000000E+02  8.00000000E+00  0.00000000E+00
  6.90000000E+02  6.00000000E+00  0.00000000E+00
  6.90000000E+02  4.00000000E+00  0.00000000E+00
  6.90000000E+02  2.00000000E+00  0.00000000E+00
  6.90000000E+02 -3.33066907E-14  0.00000000E+00
  7.00000000E+02  1.00000000E+02  0.00000000E+00
  7.00000000E+02  9.80000000E+01  0.00000000E+00
  7.00000000E+02  9.60000000E+01  0.00000000E+00
  7.00000000E+02  9.40000000E+01  0.00000000E+00
  7.00000000E+02  9.20000000E+01  0.00000000E+00
  7.00000000E+02  9.00000000E+01  0.00000000E+00
  7.00000000E+02  8.80000000E+01  0.00000000E+00
  7.00000000E+02  8.60000000E+01  0.00000000E+00
  7.00000000E+02  8.40000000E+01  0.00000000E+00
  7.00000000E+02  8.20000000E+01  0.00000000E+00
  7.00000000E+02  8.00000000E+01  0.00000000E+00
  7.00000000E+02  7.80000000E+01  0.00000000E+00
  7.00000000E+02  7.60000000E+01  0.00000000E+00
  7.00000000E+02  7.40000000E+01  0.00000000E+00
  7.00000000E+02  7.20000000E+01  0.00000000E+00
  7.00000000E+02  7.00000000E+01  0.00000000E+00
  7.00000000E+02  6.80000000E+01  0.00000000E+00
  7.00000000E+02  6.60000000E+01  0.00000000E+00
  7.00000000E+02  6.40000000E+01  0.00000000E+00
  7.00000000E+02  6.20000000E+01  0.00000000E+00
  7.00000000E+02  6.00000000E+01  0.00000000E+00
  7.00000000E+02  5.80000000E+01  0.00000000E+00
  7.00000000E+02  5.60000000E+01  0.00000000E+00
  7.00000000E+02  5.40000000E+01  0.00000000E+00
  7.00000000E+02  5.20000000E+01  0.00000000E+00
  7.00000000E+02  5.00000000E+01  0.00000000E+00
  7.00000000E+02  4.80000000E+01  0.00000000E+00
  7.00000000E+02  4.60000000E+01  0.00000000E+00
  7.00000000E+02  4.40000000E+01  0.00000000E+00
  7.00000000E+02  4.20000000E+01  0.00000000E+00
  7.00000000E+02  4.00000000E+01  0.00000000E+00
  7.00000000E+02  3.80000000E+01  0.00000000E+00
  7.00000000E+02  3.60000000E+01  0.00000000E+00
  7.00000000E+02  3.40000000E+01  0.00000000E+00
  7.00000000E+02  3.20000000E+01  0.00000000E+00
  7.00000000E+02  3.00000000E+01  0.00000000E+00
  7.00000000E+02  2.80000000E+01  0.00000000E+00
  7.00000000E+02  2.60000000E+01  0.00000000E+00
  7.00000000E+02  2.40000000E+01  0.00000000E+00
  7.00000000E+02  2.20000000E+01  0.00000000E+00
  7.00000000E+02  2.00000000E+01  0.00000000E+00
  7.00000000E+02  1.80000000E+01  0.00000000E+00
  7.00000000E+02  1.60000000E+01  0.00000000E+00
  7.00000000E+02  1.40000000E+01  0.00000000E+00
  7.00000000E+02  1.20000000E+01  0.00000000E+00
  7.00000000E+02  1.00000000E+01  0.00000000E+00
  7.00000000E+02  8.00000000E+00  0.00000000E+00
  7.00000000E+02  6.00000000E+00  0.00000000E+00
  7.00000000E+02  4.00000000E+00  0.00000000E+00
  7.00000000E+02  2.00000000E+00  0.00000000E+00
  7.00000000E+02 -3.33066907E-14  0.00000000E+00
  7.10000000E+02  1.00000000E+02  0.00000000E+00
  7.10000000E+02  9.80000000E+01  0.00000000E+00
  7.10000000E+02  9.60000000E+01  0.00000000E+00
  7.10000000E+02  9.40000000E+01  0.00000000E+00
  7.10000000E+02  9.20000000E+01  0.00000000E+00
  7.10000000E+02  9.00000000E+01  0.00000000E+00
  7.10000000E+02  8.80000000E+01  0.00000000E+00
  7.10000000E+02  8.60000000E+01  0.00000000E+00
  7.10000000E+02  8.40000000E+01  0.00000000E+00
  7.10000000E+02  8.20000000E+01  0.00000000E+00
  7.10000000E+02  8.00000000E+01  0.00000000E+00
  7.10000000E+02  7.80000000E+01  0.00000000E+00
  7.10000000E+02  7.60000000E+01  0.00000000E+00
  7.10000000E+02  7.40000000E+01  0.00000000E+00
  7.10000000E+02  7.20000000E+01  0.00000000E+00
  7.10000000E+02  7.00000000E+01  0.00000000E+00
  7.10000000E+02  6.80000000E+01  0.00000000E+00
  7.10000000E+02  6.60000000E+01  0.00000000E+00
  7.10000000E+02  6.40000000E+01  0.00000000E+00
  7.10000000E+02  6.20000000E+01  0.00000000E+00
  7.10000000E+02  6.00000000E+01  0.00000000E+00
  7.10000000E+02  5.80000000E+01  0.00000000E+00
  7.10000000E+02  5.60000000E+01  0.00000000E+00
  7.10000000E+02  5.40000000E+01  0.00000000E+00
  7.10000000E+02  5.20000000E+01  0.00000000E+00
  7.10000000E+02  5.00000000E+01  0.00000000E+00
  7.10000000E+02  4.80000000E+01  0.00000000E+00
  7.10000000E+02  4.60000000E+01  0.00000000E+00
  7.10000000E+02  4.40000000E+01  0.00000000E+00
  7.10000000E+02  4.20000000E+01  0.00000000E+00
  7.10000000E+02  4.00000000E+01  0.00000000E+00
  7.10000000E+02  3.80000000E+01  0.00000000E+00
  7.10000000E+02  3.60000000E+01  0.00000000E+00
  7.10000000E+02  3.40000000E+01  0.00000000E+00
  7.10000000E+02  3.20000000E+01  0.00000000E+00
  7.10000000E+02  3.00000000E+01  0.00000000E+00
  7.10000000E+02  2.80000000E+01  0.00000000E+00
  7.10000000E+02  2.60000000E+01  0.00000000E+00
  7.10000000E+02  2.40000000E+01  0.00000000E+00
  7.10000000E+02  2.20000000E+01  0.00000000E+00
  7.10000000E+02  2.00000000E+01  0.00000000E+00
  7.10000000E+02  1.80000000E+01  0.00000000E+00
  7.10000000E+02  1.60000000E+01  0.00000000E+00
  7.10000000E+02  1.40000000E+01  0.00000000E+00
  7.10000000E+02  1.20000000E+01  0.00000000E+00
  7.10000000E+02  1.00000000E+01  0.00000000E+00
  7.10000000E+02  8.00000000E+00  0.00000000E+00
  7.10000000E+02  6.00000000E+00  0.00000000E+00
  7.10000000E+02  4.00000000E+00  0.00000000E+00
  7.10000000E+02  2.00000000E+00  0.00000000E+00
  7.10000000E+02 -3.33066907E-14  0.00000000E+00
  7.20000000E+02  1.00000000E+02  0.00000000E+00
  7.20000000E+02  9.80000000E+01  0.00000000E+00
  7.20000000E+02  9.60000000E+01  0.00000000E+00
  7.20000000E+02  9.40000000E+01  0.00000000E+00
  7.20000000E+02  9.20000000E+01  0.00000000E+00
  7.20000000E+02  9.00000000E+01  0.00000000E+00
  7.20000000E+02  8.80000000E+01  0.00000000E+00
  7.20000000E+02  8.60000000E+01  0.00000000E+00
  7.20000000E+02  8.40000000E+01  0.00000000E+00
  7.20000000E+02  8.20000000E+01  0.00000000E+00
  7.20000000E+02  8.00000000E+01  0.00000000E+00
  7.20000000E+02  7.80000000E+01  0.00000000E+00
  7.20000000E+02  7.60000000E+01  0.00000000E+00
  7.20000000E+02  7.40000000E+01  0.00000000E+00
  7.20000000E+02  7.20000000E+01  0.00000000E+00
  7.20000000E+02  7.00000000E+01  0.00000000E+00
  7.20000000E+02  6.80000000E+01  0.00000000E+00
  7.20000000E+02  6.60000000E+01  0.00000000E+00
  7.20000000E+02  6.40000000E+01  0.00000000E+00
  7.20000000E+02  6.20000000E+01  0.00000000E+00
  7.20000000E+02  6.00000000E+01  0.00000000E+00
  7.20000000E+02  5.80000000E+01  0.00000000E+00
  7.20000000E+02  5.60000000E+01  0.00000000E+00
  7.20000000E+02  5.40000000E+01  0.00000000E+00
  7.20000000E+02  5.20000000E+01  0.00000000E+00
  7.20000000E+02  5.00000000E+01  0.00000000E+00
  7.20000000E+02  4.80000000E+01  0.00000000E+00
  7.20000000E+02  4.60000000E+01  0.00000000E+00
  7.20000000E+02  4.40000000E+01  0.00000000E+00
  7.20000000E+02  4.20000000E+01  0.00000000E+00
  7.20000000E+02  4.00000000E+01  0.00000000E+00
  7.20000000E+02  3.80000000E+01  0.00000000E+00
  7.20000000E+02  3.60000000E+01  0.00000000E+00
  7.20000000E+02  3.40000000E+01  0.00000000E+00
  7.20000000E+02  3.20000000E+01  0.00000000E+00
  7.20000000E+02  3.00000000E+01  0.00000000E+00
  7.20000000E+02  2.80000000E+01  0.00000000E+00
  7.20000000E+02  2.60000000E+01  0.00000000E+00
  7.20000000E+02  2.40000000E+01  0.00000000E+00
  7.20000000E+02  2.20000000E+01  0.00000000E+00
  7.20000000E+02  2.00000000E+01  0.00000000E+00
  7.20000000E+02  1.80000000E+01  0.00000000E+00
  7.20000000E+02  1.60000000E+01  0.00000000E+00
  7.20000000E+02  1.40000000E+01  0.00000000E+00
  7.20000000E+02  1.20000000E+01  0.00000000E+00
  7.20000000E+02  1.00000000E+01  0.00000000E+00
  7.20000000E+02  8.00000000E+00  0.00000000E+00
  7.20000000E+02  6.00000000E+00  0.00000000E+00
  7.20000000E+02  4.00000000E+00  0.00000000E+00
  7.20000000E+02  2.00000000E+00  0.00000000E+00
  7.20000000E+02 -3.33066907E-14  0.00000000E+00
  7.30000000E+02  1.00000000E+02  0.00000000E+00
  7.30000000E+02  9.80000000E+01  0.00000000E+00
  7.30000000E+02  9.60000000E+01  0.00000000E+00
  7.30000000E+02  9.40000000E+01  0.00000000E+00
  7.30000000E+02  9.20000000E+01  0.00000000E+00
  7.30000000E+02  9.00000000E+01  0.00000000E+00
  7.30000000E+02  8.80000000E+01  0.00000000E+00
  7.30000000E+02  8.60000000E+01  0.00000000E+00
  7.30000000E+02  8.40000000E+01  0.00000000E+00
  7.30000000E+02  8.20000000E+01  0.00000000E+00
  7.30000000E+02  8.00000000E+01  0.00000000E+00
  7.30000000E+02  7.80000000E+01  0.00000000E+00
  7.30000000E+02  7.60000000E+01  0.00000000E+00
  7.30000000E+02  7.40000000E+01  0.00000000E+00
  7.30000000E+02  7.20000000E+01  0.00000000E+00
  7.30000000E+02  7.00000000E+01  0.00000000E+00
  7.30000000E+02  6.80000000E+01  0.00000000E+00
  7.30000000E+02  6.60000000E+01  0.00000000E+00
  7.30000000E+02  6.40000000E+01  0.00000000E+00
  7.30000000E+02  6.20000000E+01  0.00000000E+00
  7.30000000E+02  6.00000000E+01  0.00000000E+00
  7.30000000E+02  5.80000000E+01  0.00000000E+00
  7.30000000E+02  5.60000000E+01  0.00000000E+00
  7.30000000E+02  5.40000000E+01  0.00000000E+00
  7.30000000E+02  5.20000000E+01  0.00000000E+00
  7.30000000E+02  5.00000000E+01  0.00000000E+00
  7.30000000E+02  4.80000000E+01  0.00000000E+00
  7.30000000E+02  4.60000000E+01  0.00000000E+00
  7.30000000E+02  4.40000000E+01  0.00000000E+00
  7.30000000E+02  4.20000000E+01  0.00000000E+00
  7.30000000E+02  4.00000000E+01  0.00000000E+00
  7.30000000E+02  3.80000000E+01  0.00000000E+00
  7.30000000E+02  3.60000000E+01  0.00000000E+00
  7.30000000E+02  3.40000000E+01  0.00000000E+00
  7.30000000E+02  3.20000000E+01  0.00000000E+00
  7.30000000E+02  3.00000000E+01  0.00000000E+00
  7.30000000E+02  2.80000000E+01  0.00000000E+00
  7.30000000E+02  2.60000000E+01  0.00000000E+00
  7.30000000E+02  2.40000000E+01  0.00000000E+00
  7.30000000E+02  2.20000000E+01  0.00000000E+00
  7.30000000E+02  2.00000000E+01  0.00000000E+00
  7.30000000E+02  1.80000000E+01  0.00000000E+00
  7.30000000E+02  1.60000000E+01  0.00000000E+00
  7.30000000E+02  1.40000000E+01  0.00000000E+00
  7.30000000E+02  1.20000000E+01  0.00000000E+00
  7.30000000E+02  1.00000000E+01  0.00000000E+00
  7.30000000E+02  8.00000000E+00  0.00000000E+00
  7.30000000E+02  6.00000000E+00  0.00000000E+00
  7.30000000E+02  4.00000000E+00  0.00000000E+00
  7.30000000E+02  2.00000000E+00  0.00000000E+00
  7.30000000E+02 -3.33066907E-14  0.00000000E+00
  7.40000000E+02  1.00000000E+02  0.00000000E+00
  7.40000000E+02  9.80000000E+01  0.00000000E+00
  7.40000000E+02  9.60000000E+01  0.00000000E+00
  7.40000000E+02  9.40000000E+01  0.00000000E+00
  7.40000000E+02  9.20000000E+01  0.00000000E+00
  7.40000000E+02  9.00000000E+01  0.00000000E+00
  7.40000000E+02  8.80000000E+01  0.00000000E+00
  7.40000000E+02  8.60000000E+01  0.00000000E+00
  7.40000000E+02  8.40000000E+01  0.00000000E+00
  7.40000000E+02  8.20000000E+01  0.00000000E+00
  7.40000000E+02  8.00000000E+01  0.00000000E+00
  7.40000000E+02  7.80000000E+01  0.00000000E+00
  7.40000000E+02  7.60000000E+01  0.00000000E+00
  7.40000000E+02  7.40000000E+01  0.00000000E+00
  7.40000000E+02  7.20000000E+01  0.00000000E+00
  7.40000000E+02  7.00000000E+01  0.00000000E+00
  7.40000000E+02  6.80000000E+01  0.00000000E+00
  7.40000000E+02  6.60000000E+01  0.00000000E+00
  7.40000000E+02  6.40000000E+01  0.00000000E+00
  7.40000000E+02  6.20000000E+01  0.00000000E+00
  7.40000000E+02  6.00000000E+01  0.00000000E+00
  7.40000000E+02  5.80000000E+01  0.00000000E+00
  7.40000000E+02  5.60000000E+01  0.00000000E+00
  7.40000000E+02  5.40000000E+01  0.00000000E+00
  7.40000000E+02  5.20000000E+01  0.00000000E+00
  7.40000000E+02  5.00000000E+01  0.00000000E+00
  7.40000000E+02  4.80000000E+01  0.00000000E+00
  7.40000000E+02  4.60000000E+01  0.00000000E+00
  7.40000000E+02  4.40000000E+01  0.00000000E+00
  7.40000000E+02  4.20000000E+01  0.00000000E+00
  7.40000000E+02  4.00000000E+01  0.00000000E+00
  7.40000000E+02  3.80000000E+01  0.00000000E+00
  7.40000000E+02  3.60000000E+01  0.00000000E+00
  7.40000000E+02  3.40000000E+01  0.00000000E+00
  7.40000000E+02  3.20000000E+01  0.00000000E+00
  7.40000000E+02  3.00000000E+01  0.00000000E+00
  7.40000000E+02  2.80000000E+01  0.00000000E+00
  7.40000000E+02  2.60000000E+01  0.00000000E+00
  7.40000000E+02  2.40000000E+01  0.00000000E+00
  7.40000000E+02  2.20000000E+01  0.00000000E+00
  7.40000000E+02  2.00000000E+01  0.00000000E+00
  7.40000000E+02  1.80000000E+01  0.00000000E+00
  7.40000000E+02  1.60000000E+01  0.00000000E+00
  7.40000000E+02  1.40000000E+01  0.00000000E+00
  7.40000000E+02  1.20000000E+01  0.00000000E+00
  7.40000000E+02  1.00000000E+01  0.00000000E+00
  7.40000000E+02  8.00000000E+00  0.00000000E+00
  7.40000000E+02  6.00000000E+00  0.00000000E+00
  7.40000000E+02  4.00000000E+00  0.00000000E+00
  7.40000000E+02  2.00000000E+00  0.00000000E+00
  7.40000000E+02 -3.33066907E-14  0.00000000E+00
  7.50000000E+02  1.00000000E+02  0.00000000E+00
  7.50000000E+02  9.80000000E+01  0.00000000E+00
  7.50000000E+02  9.60000000E+01  0.00000000E+00
  7.50000000E+02  9.40000000E+01  0.00000000E+00
  7.50000000E+02  9.20000000E+01  0.00000000E+00
  7.50000000E+02  9.00000000E+01  0.00000000E+00
  7.50000000E+02  8.80000000E+01  0.00000000E+00
  7.50000000E+02  8.60000000E+01  0.00000000E+00
  7.50000000E+02  8.40000000E+01  0.00000000E+00
  7.50000000E+02  8.20000000E+01  0.00000000E+00
  7.50000000E+02  8.00000000E+01  0.00000000E+00
  7.50000000E+02  7.80000000E+01  0.00000000E+00
  7.50000000E+02  7.60000000E+01  0.00000000E+00
  7.50000000E+02  7.40000000E+01  0.00000000E+00
  7.50000000E+02  7.20000000E+01  0.00000000E+00
  7.50000000E+02  7.00000000E+01  0.00000000E+00
  7.50000000E+02  6.80000000E+01  0.00000000E+00
  7.50000000E+02  6.60000000E+01  0.00000000E+00
  7.50000000E+02  6.40000000E+01  0.00000000E+00
  7.50000000E+02  6.20000000E+01  0.00000000E+00
  7.50000000E+02  6.00000000E+01  0.00000000E+00
  7.50000000E+02  5.80000000E+01  0.00000000E+00
  7.50000000E+02  5.60000000E+01  0.00000000E+00
  7.50000000E+02  5.40000000E+01  0.00000000E+00
  7.50000000E+02  5.20000000E+01  0.00000000E+00
  7.50000000E+02  5.00000000E+01  0.00000000E+00
  7.50000000E+02  4.80000000E+01  0.00000000E+00
  7.50000000E+02  4.60000000E+01  0.00000000E+00
  7.50000000E+02  4.40000000E+01  0.00000000E+00
  7.50000000E+02  4.20000000E+01  0.00000000E+00
  7.50000000E+02  4.00000000E+01  0.00000000E+00
  7.50000000E+02  3.80000000E+01  0.00000000E+00
  7.50000000E+02  3.60000000E+01  0.00000000E+00
  7.50000000E+02  3.40000000E+01  0.00000000E+00
  7.50000000E+02  3.20000000E+01  0.00000000E+00
  7.50000000E+02  3.00000000E+01  0.00000000E+00
  7.50000000E+02  2.80000000E+01  0.00000000E+00
  7.50000000E+02  2.60000000E+01  0.00000000E+00
  7.50000000E+02  2.40000000E+01  0.00000000E+00
  7.50000000E+02  2.20000000E+01  0.00000000E+00
  7.50000000E+02  2.00000000E+01  0.00000000E+00
  7.50000000E+02  1.80000000E+01  0.00000000E+00
  7.50000000E+02  1.60000000E+01  0.00000000E+00
  7.50000000E+02  1.40000000E+01  0.00000000E+00
  7.50000000E+02  1.20000000E+01  0.00000000E+00
  7.50000000E+02  1.00000000E+01  0.00000000E+00
  7.50000000E+02  8.00000000E+00  0.00000000E+00
  7.50000000E+02  6.00000000E+00  0.00000000E+00
  7.50000000E+02  4.00000000E+00  0.00000000E+00
  7.50000000E+02  2.00000000E+00  0.00000000E+00
  7.50000000E+02 -3.33066907E-14  0.00000000E+00
  7.60000000E+02  1.00000000E+02  0.00000000E+00
  7.60000000E+02  9.80000000E+01  0.00000000E+00
  7.60000000E+02  9.60000000E+01  0.00000000E+00
  7.60000000E+02  9.40000000E+01  0.00000000E+00
  7.60000000E+02  9.20000000E+01  0.00000000E+00
  7.60000000E+02  9.00000000E+01  0.00000000E+00
  7.60000000E+02  8.80000000E+01  0.00000000E+00
  7.60000000E+02  8.60000000E+01  0.00000000E+00
  7.60000000E+02  8.40000000E+01  0.00000000E+00
  7.60000000E+02  8.20000000E+01  0.00000000E+00
  7.60000000E+02  8.00000000E+01  0.00000000E+00
  7.60000000E+02  7.80000000E+01  0.00000000E+00
  7.60000000E+02  7.60000000E+01  0.00000000E+00
  7.60000000E+02  7.40000000E+01  0.00000000E+00
  7.60000000E+02  7.20000000E+01  0.00000000E+00
  7.60000000E+02  7.00000000E+01  0.00000000E+00
  7.60000000E+02  6.80000000E+01  0.00000000E+00
  7.60000000E+02  6.60000000E+01  0.00000000E+00
  7.60000000E+02  6.40000000E+01  0.00000000E+00
  7.60000000E+02  6.20000000E+01  0.00000000E+00
  7.60000000E+02  6.00000000E+01  0.00000000E+00
  7.60000000E+02  5.80000000E+01  0.00000000E+00
  7.60000000E+02  5.60000000E+01  0.00000000E+00
  7.60000000E+02  5.40000000E+01  0.00000000E+00
  7.60000000E+02  5.20000000E+01  0.00000000E+00
  7.60000000E+02  5.00000000E+01  0.00000000E+00
  7.60000000E+02  4.80000000E+01  0.00000000E+00
  7.60000000E+02  4.60000000E+01  0.00000000E+00
  7.60000000E+02  4.40000000E+01  0.00000000E+00
  7.60000000E+02  4.20000000E+01  0.00000000E+00
  7.60000000E+02  4.00000000E+01  0.00000000E+00
  7.60000000E+02  3.80000000E+01  0.00000000E+00
  7.60000000E+02  3.60000000E+01  0.00000000E+00
  7.60000000E+02  3.40000000E+01  0.00000000E+00
  7.60000000E+02  3.20000000E+01  0.00000000E+00
  7.60000000E+02  3.00000000E+01  0.00000000E+00
  7.60000000E+02  2.80000000E+01  0.00000000E+00
  7.60000000E+02  2.60000000E+01  0.00000000E+00
  7.60000000E+02  2.40000000E+01  0.00000000E+00
  7.60000000E+02  2.20000000E+01  0.00000000E+00
  7.60000000E+02  2.00000000E+01  0.00000000E+00
  7.60000000E+02  1.80000000E+01  0.00000000E+00
  7.60000000E+02  1.60000000E+01  0.00000000E+00
  7.60000000E+02  1.40000000E+01  0.00000000E+00
  7.60000000E+02  1.20000000E+01  0.00000000E+00
  7.60000000E+02  1.00000000E+01  0.00000000E+00
  7.60000000E+02  8.00000000E+00  0.00000000E+00
  7.60000000E+02  6.00000000E+00  0.00000000E+00
  7.60000000E+02  4.00000000E+00  0.00000000E+00
  7.60000000E+02  2.00000000E+00  0.00000000E+00
  7.60000000E+02 -3.33066907E-14  0.00000000E+00
  7.70000000E+02  1.00000000E+02  0.00000000E+00
  7.70000000E+02  9.80000000E+01  0.00000000E+00
  7.70000000E+02  9.60000000E+01  0.00000000E+00
  7.70000000E+02  9.40000000E+01  0.00000000E+00
  7.70000000E+02  9.20000000E+01  0.00000000E+00
  7.70000000E+02  9.00000000E+01  0.00000000E+00
  7.70000000E+02  8.80000000E+01  0.00000000E+00
  7.70000000E+02  8.60000000E+01  0.00000000E+00
  7.70000000E+02  8.40000000E+01  0.00000000E+00
  7.70000000E+02  8.20000000E+01  0.00000000E+00
  7.70000000E+02  8.00000000E+01  0.00000000E+00
  7.70000000E+02  7.80000000E+01  0.00000000E+00
  7.70000000E+02  7.60000000E+01  0.00000000E+00
  7.70000000E+02  7.40000000E+01  0.00000000E+00
  7.70000000E+02  7.20000000E+01  0.00000000E+00
  7.70000000E+02  7.00000000E+01  0.00000000E+00
  7.70000000E+02  6.80000000E+01  0.00000000E+00
  7.70000000E+02  6.60000000E+01  0.00000000E+00
  7.70000000E+02  6.40000000E+01  0.00000000E+00
  7.70000000E+02  6.20000000E+01  0.00000000E+00
  7.70000000E+02  6.00000000E+01  0.00000000E+00
  7.70000000E+02  5.80000000E+01  0.00000000E+00
  7.70000000E+02  5.60000000E+01  0.00000000E+00
  7.70000000E+02  5.40000000E+01  0.00000000E+00
  7.70000000E+02  5.20000000E+01  0.00000000E+00
  7.70000000E+02  5.00000000E+01  0.00000000E+00
  7.70000000E+02  4.80000000E+01  0.00000000E+00
  7.70000000E+02  4.60000000E+01  0.00000000E+00
  7.70000000E+02  4.40000000E+01  0.00000000E+00
  7.70000000E+02  4.20000000E+01  0.00000000E+00
  7.70000000E+02  4.00000000E+01  0.00000000E+00
  7.70000000E+02  3.80000000E+01  0.00000000E+00
  7.70000000E+02  3.60000000E+01  0.00000000E+00
  7.70000000E+02  3.40000000E+01  0.00000000E+00
  7.70000000E+02  3.20000000E+01  0.00000000E+00
  7.70000000E+02  3.00000000E+01  0.00000000E+00
  7.70000000E+02  2.80000000E+01  0.00000000E+00
  7.70000000E+02  2.60000000E+01  0.00000000E+00
  7.70000000E+02  2.40000000E+01  0.00000000E+00
  7.70000000E+02  2.20000000E+01  0.00000000E+00
  7.70000000E+02  2.00000000E+01  0.00000000E+00
  7.70000000E+02  1.80000000E+01  0.00000000E+00
  7.70000000E+02  1.60000000E+01  0.00000000E+00
  7.70000000E+02  1.40000000E+01  0.00000000E+00
  7.70000000E+02  1.20000000E+01  0.00000000E+00
  7.70000000E+02  1.00000000E+01  0.00000000E+00
  7.70000000E+02  8.00000000E+00  0.00000000E+00
  7.70000000E+02  6.00000000E+00  0.00000000E+00
  7.70000000E+02  4.00000000E+00  0.00000000E+00
  7.70000000E+02  2.00000000E+00  0.00000000E+00
  7.70000000E+02 -3.33066907E-14  0.00000000E+00
  7.80000000E+02  1.00000000E+02  0.00000000E+00
  7.80000000E+02  9.80000000E+01  0.00000000E+00
  7.80000000E+02  9.60000000E+01  0.00000000E+00
  7.80000000E+02  9.40000000E+01  0.00000000E+00
  7.80000000E+02  9.20000000E+01  0.00000000E+00
  7.80000000E+02  9.00000000E+01  0.00000000E+00
  7.80000000E+02  8.80000000E+01  0.00000000E+00
  7.80000000E+02  8.60000000E+01  0.00000000E+00
  7.80000000E+02  8.40000000E+01  0.00000000E+00
  7.80000000E+02  8.20000000E+01  0.00000000E+00
  7.80000000E+02  8.00000000E+01  0.00000000E+00
  7.80000000E+02  7.80000000E+01  0.00000000E+00
  7.80000000E+02  7.60000000E+01  0.00000000E+00
  7.80000000E+02  7.40000000E+01  0.00000000E+00
  7.80000000E+02  7.20000000E+01  0.00000000E+00
  7.80000000E+02  7.00000000E+01  0.00000000E+00
  7.80000000E+02  6.80000000E+01  0.00000000E+00
  7.80000000E+02  6.60000000E+01  0.00000000E+00
  7.80000000E+02  6.40000000E+01  0.00000000E+00
  7.80000000E+02  6.20000000E+01  0.00000000E+00
  7.80000000E+02  6.00000000E+01  0.00000000E+00
  7.80000000E+02  5.80000000E+01  0.00000000E+00
  7.80000000E+02  5.60000000E+01  0.00000000E+00
  7.80000000E+02  5.40000000E+01  0.00000000E+00
  7.80000000E+02  5.20000000E+01  0.00000000E+00
  7.80000000E+02  5.00000000E+01  0.00000000E+00
  7.80000000E+02  4.80000000E+01  0.00000000E+00
  7.80000000E+02  4.60000000E+01  0.00000000E+00
  7.80000000E+02  4.40000000E+01  0.00000000E+00
  7.80000000E+02  4.20000000E+01  0.00000000E+00
  7.80000000E+02  4.00000000E+01  0.00000000E+00
  7.80000000E+02  3.80000000E+01  0.00000000E+00
  7.80000000E+02  3.60000000E+01  0.00000000E+00
  7.80000000E+02  3.40000000E+01  0.00000000E+00
  7.80000000E+02  3.20000000E+01  0.00000000E+00
  7.80000000E+02  3.00000000E+01  0.00000000E+00
  7.80000000E+02  2.80000000E+01  0.00000000E+00
  7.80000000E+02  2.60000000E+01  0.00000000E+00
  7.80000000E+02  2.40000000E+01  0.00000000E+00
  7.80000000E+02  2.20000000E+01  0.00000000E+00
  7.80000000E+02  2.00000000E+01  0.00000000E+00
  7.80000000E+02  1.80000000E+01  0.00000000E+00
  7.80000000E+02  1.60000000E+01  0.00000000E+00
  7.80000000E+02  1.40000000E+01  0.00000000E+00
  7.80000000E+02  1.20000000E+01  0.00000000E+00
  7.80000000E+02  1.00000000E+01  0.00000000E+00
  7.80000000E+02  8.00000000E+00  0.00000000E+00
  7.80000000E+02  6.00000000E+00  0.00000000E+00
  7.80000000E+02  4.00000000E+00  0.00000000E+00
  7.80000000E+02  2.00000000E+00  0.00000000E+00
  7.80000000E+02 -3.33066907E-14  0.00000000E+00
  7.90000000E+02  1.00000000E+02  0.00000000E+00
  7.90000000E+02  9.80000000E+01  0.00000000E+00
  7.90000000E+02  9.60000000E+01  0.00000000E+00
  7.90000000E+02  9.40000000E+01  0.00000000E+00
  7.90000000E+02  9.20000000E+01  0.00000000E+00
  7.90000000E+02  9.00000000E+01  0.00000000E+00
  7.90000000E+02  8.80000000E+01  0.00000000E+00
  7.90000000E+02  8.60000000E+01  0.00000000E+00
  7.90000000E+02  8.40000000E+01  0.00000000E+00
  7.90000000E+02  8.20000000E+01  0.00000000E+00
  7.90000000E+02  8.00000000E+01  0.00000000E+00
  7.90000000E+02  7.80000000E+01  0.00000000E+00
  7.90000000E+02  7.60000000E+01  0.00000000E+00
  7.90000000E+02  7.40000000E+01  0.00000000E+00
  7.90000000E+02  7.20000000E+01  0.00000000E+00
  7.90000000E+02  7.00000000E+01  0.00000000E+00
  7.90000000E+02  6.80000000E+01  0.00000000E+00
  7.90000000E+02  6.60000000E+01  0.00000000E+00
  7.90000000E+02  6.40000000E+01  0.00000000E+00
  7.90000000E+02  6.20000000E+01  0.00000000E+00
  7.90000000E+02  6.00000000E+01  0.00000000E+00
  7.90000000E+02  5.80000000E+01  0.00000000E+00
  7.90000000E+02  5.60000000E+01  0.00000000E+00
  7.90000000E+02  5.40000000E+01  0.00000000E+00
  7.90000000E+02  5.20000000E+01  0.00000000E+00
  7.90000000E+02  5.00000000E+01  0.00000000E+00
  7.90000000E+02  4.80000000E+01  0.00000000E+00
  7.90000000E+02  4.60000000E+01  0.00000000E+00
  7.90000000E+02  4.40000000E+01  0.00000000E+00
  7.90000000E+02  4.20000000E+01  0.00000000E+00
  7.90000000E+02  4.00000000E+01  0.00000000E+00
  7.90000000E+02  3.80000000E+01  0.00000000E+00
  7.90000000E+02  3.60000000E+01  0.00000000E+00
  7.90000000E+02  3.40000000E+01  0.00000000E+00
  7.90000000E+02  3.20000000E+01  0.00000000E+00
  7.90000000E+02  3.00000000E+01  0.00000000E+00
  7.90000000E+02  2.80000000E+01  0.00000000E+00
  7.90000000E+02  2.60000000E+01  0.00000000E+00
  7.90000000E+02  2.40000000E+01  0.00000000E+00
  7.90000000E+02  2.20000000E+01  0.00000000E+00
  7.90000000E+02  2.00000000E+01  0.00000000E+00
  7.90000000E+02  1.80000000E+01  0.00000000E+00
  7.90000000E+02  1.60000000E+01  0.00000000E+00
  7.90000000E+02  1.40000000E+01  0.00000000E+00
  7.90000000E+02  1.20000000E+01  0.00000000E+00
  7.90000000E+02  1.00000000E+01  0.00000000E+00
  7.90000000E+02  8.00000000E+00  0.00000000E+00
  7.90000000E+02  6.00000000E+00  0.00000000E+00
  7.90000000E+02  4.00000000E+00  0.00000000E+00
  7.90000000E+02  2.00000000E+00  0.00000000E+00
  7.90000000E+02 -3.33066907E-14  0.00000000E+00
  8.00000000E+02  1.00000000E+02  0.00000000E+00
  8.00000000E+02  9.80000000E+01  0.00000000E+00
  8.00000000E+02  9.60000000E+01  0.00000000E+00
  8.00000000E+02  9.40000000E+01  0.00000000E+00
  8.00000000E+02  9.20000000E+01  0.00000000E+00
  8.00000000E+02  9.00000000E+01  0.00000000E+00
  8.00000000E+02  8.80000000E+01  0.00000000E+00
  8.00000000E+02  8.60000000E+01  0.00000000E+00
  8.00000000E+02  8.40000000E+01  0.00000000E+00
  8.00000000E+02  8.20000000E+01  0.00000000E+00
  8.00000000E+02  8.00000000E+01  0.00000000E+00
  8.00000000E+02  7.80000000E+01  0.00000000E+00
  8.00000000E+02  7.60000000E+01  0.00000000E+00
  8.00000000E+02  7.40000000E+01  0.00000000E+00
  8.00000000E+02  7.20000000E+01  0.00000000E+00
  8.00000000E+02  7.00000000E+01  0.00000000E+00
  8.00000000E+02  6.80000000E+01  0.00000000E+00
  8.00000000E+02  6.60000000E+01  0.00000000E+00
  8.00000000E+02  6.40000000E+01  0.00000000E+00
  8.00000000E+02  6.20000000E+01  0.00000000E+00
  8.00000000E+02  6.00000000E+01  0.00000000E+00
  8.00000000E+02  5.80000000E+01  0.00000000E+00
  8.00000000E+02  5.60000000E+01  0.00000000E+00
  8.00000000E+02  5.40000000E+01  0.00000000E+00
  8.00000000E+02  5.20000000E+01  0.00000000E+00
  8.00000000E+02  5.00000000E+01  0.00000000E+00
  8.00000000E+02  4.80000000E+01  0.00000000E+00
  8.00000000E+02  4.60000000E+01  0.00000000E+00
  8.00000000E+02  4.40000000E+01  0.00000000E+00
  8.00000000E+02  4.20000000E+01  0.00000000E+00
  8.00000000E+02  4.00000000E+01  0.00000000E+00
  8.00000000E+02  3.80000000E+01  0.00000000E+00
  8.00000000E+02  3.60000000E+01  0.00000000E+00
  8.00000000E+02  3.40000000E+01  0.00000000E+00
  8.00000000E+02  3.20000000E+01  0.00000000E+00
  8.00000000E+02  3.00000000E+01  0.00000000E+00
  8.00000000E+02  2.80000000E+01  0.00000000E+00
  8.00000000E+02  2.60000000E+01  0.00000000E+00
  8.00000000E+02  2.40000000E+01  0.00000000E+00
  8.00000000E+02  2.20000000E+01  0.00000000E+00
  8.00000000E+02  2.00000000E+01  0.00000000E+00
  8.00000000E+02  1.80000000E+01  0.00000000E+00
  8.00000000E+02  1.60000000E+01  0.00000000E+00
  8.00000000E+02  1.40000000E+01  0.00000000E+00
  8.00000000E+02  1.20000000E+01  0.00000000E+00
  8.00000000E+02  1.00000000E+01  0.00000000E+00
  8.00000000E+02  8.00000000E+00  0.00000000E+00
  8.00000000E+02  6.00000000E+00  0.00000000E+00
  8.00000000E+02  4.00000000E+00  0.00000000E+00
  8.00000000E+02  2.00000000E+00  0.00000000E+00
  8.00000000E+02 -3.33066907E-14  0.00000000E+00
  8.10000000E+02  1.00000000E+02  0.00000000E+00
  8.10000000E+02  9.80000000E+01  0.00000000E+00
  8.10000000E+02  9.60000000E+01  0.00000000E+00
  8.10000000E+02  9.40000000E+01  0.00000000E+00
  8.10000000E+02  9.20000000E+01  0.00000000E+00
  8.10000000E+02  9.00000000E+01  0.00000000E+00
  8.10000000E+02  8.80000000E+01  0.00000000E+00
  8.10000000E+02  8.60000000E+01  0.00000000E+00
  8.10000000E+02  8.40000000E+01  0.00000000E+00
  8.10000000E+02  8.20000000E+01  0.00000000E+00
  8.10000000E+02  8.00000000E+01  0.00000000E+00
  8.10000000E+02  7.80000000E+01  0.00000000E+00
  8.10000000E+02  7.60000000E+01  0.00000000E+00
  8.10000000E+02  7.40000000E+01  0.00000000E+00
  8.10000000E+02  7.20000000E+01  0.00000000E+00
  8.10000000E+02  7.00000000E+01  0.00000000E+00
  8.10000000E+02  6.80000000E+01  0.00000000E+00
  8.10000000E+02  6.60000000E+01  0.00000000E+00
  8.10000000E+02  6.40000000E+01  0.00000000E+00
  8.10000000E+02  6.20000000E+01  0.00000000E+00
  8.10000000E+02  6.00000000E+01  0.00000000E+00
  8.10000000E+02  5.80000000E+01  0.00000000E+00
  8.10000000E+02  5.60000000E+01  0.00000000E+00
  8.10000000E+02  5.40000000E+01  0.00000000E+00
  8.10000000E+02  5.20000000E+01  0.00000000E+00
  8.10000000E+02  5.00000000E+01  0.00000000E+00
  8.10000000E+02  4.80000000E+01  0.00000000E+00
  8.10000000E+02  4.60000000E+01  0.00000000E+00
  8.10000000E+02  4.40000000E+01  0.00000000E+00
  8.10000000E+02  4.20000000E+01  0.00000000E+00
  8.10000000E+02  4.00000000E+01  0.00000000E+00
  8.10000000E+02  3.80000000E+01  0.00000000E+00
  8.10000000E+02  3.60000000E+01  0.00000000E+00
  8.10000000E+02  3.40000000E+01  0.00000000E+00
  8.10000000E+02  3.20000000E+01  0.00000000E+00
  8.10000000E+02  3.00000000E+01  0.00000000E+00
  8.10000000E+02  2.80000000E+01  0.00000000E+00
  8.10000000E+02  2.60000000E+01  0.00000000E+00
  8.10000000E+02  2.40000000E+01  0.00000000E+00
  8.10000000E+02  2.20000000E+01  0.00000000E+00
  8.10000000E+02  2.00000000E+01  0.00000000E+00
  8.10000000E+02  1.80000000E+01  0.00000000E+00
  8.10000000E+02  1.60000000E+01  0.00000000E+00
  8.10000000E+02  1.40000000E+01  0.00000000E+00
  8.10000000E+02  1.20000000E+01  0.00000000E+00
  8.10000000E+02  1.00000000E+01  0.00000000E+00
  8.10000000E+02  8.00000000E+00  0.00000000E+00
  8.10000000E+02  6.00000000E+00  0.00000000E+00
  8.10000000E+02  4.00000000E+00  0.00000000E+00
  8.10000000E+02  2.00000000E+00  0.00000000E+00
  8.10000000E+02 -3.33066907E-14  0.00000000E+00
  8.20000000E+02  1.00000000E+02  0.00000000E+00
  8.20000000E+02  9.80000000E+01  0.00000000E+00
  8.20000000E+02  9.60000000E+01  0.00000000E+00
  8.20000000E+02  9.40000000E+01  0.00000000E+00
  8.20000000E+02  9.20000000E+01  0.00000000E+00
  8.20000000E+02  9.00000000E+01  0.00000000E+00
  8.20000000E+02  8.80000000E+01  0.00000000E+00
  8.20000000E+02  8.60000000E+01  0.00000000E+00
  8.20000000E+02  8.40000000E+01  0.00000000E+00
  8.20000000E+02  8.20000000E+01  0.00000000E+00
  8.20000000E+02  8.00000000E+01  0.00000000E+00
  8.20000000E+02  7.80000000E+01  0.00000000E+00
  8.20000000E+02  7.60000000E+01  0.00000000E+00
  8.20000000E+02  7.40000000E+01  0.00000000E+00
  8.20000000E+02  7.20000000E+01  0.00000000E+00
  8.20000000E+02  7.00000000E+01  0.00000000E+00
  8.20000000E+02  6.80000000E+01  0.00000000E+00
  8.20000000E+02  6.60000000E+01  0.00000000E+00
  8.20000000E+02  6.40000000E+01  0.00000000E+00
  8.20000000E+02  6.20000000E+01  0.00000000E+00
  8.20000000E+02  6.00000000E+01  0.00000000E+00
  8.20000000E+02  5.80000000E+01  0.00000000E+00
  8.20000000E+02  5.60000000E+01  0.00000000E+00
  8.20000000E+02  5.40000000E+01  0.00000000E+00
  8.20000000E+02  5.20000000E+01  0.00000000E+00
  8.20000000E+02  5.00000000E+01  0.00000000E+00
  8.20000000E+02  4.80000000E+01  0.00000000E+00
  8.20000000E+02  4.60000000E+01  0.00000000E+00
  8.20000000E+02  4.40000000E+01  0.00000000E+00
  8.20000000E+02  4.20000000E+01  0.00000000E+00
  8.20000000E+02  4.00000000E+01  0.00000000E+00
  8.20000000E+02  3.80000000E+01  0.00000000E+00
  8.20000000E+02  3.60000000E+01  0.00000000E+00
  8.20000000E+02  3.40000000E+01  0.00000000E+00
  8.20000000E+02  3.20000000E+01  0.00000000E+00
  8.20000000E+02  3.00000000E+01  0.00000000E+00
  8.20000000E+02  2.80000000E+01  0.00000000E+00
  8.20000000E+02  2.60000000E+01  0.00000000E+00
  8.20000000E+02  2.40000000E+01  0.00000000E+00
  8.20000000E+02  2.20000000E+01  0.00000000E+00
  8.20000000E+02  2.00000000E+01  0.00000000E+00
  8.20000000E+02  1.80000000E+01  0.00000000E+00
  8.20000000E+02  1.60000000E+01  0.00000000E+00
  8.20000000E+02  1.40000000E+01  0.00000000E+00
  8.20000000E+02  1.20000000E+01  0.00000000E+00
  8.20000000E+02  1.00000000E+01  0.00000000E+00
  8.20000000E+02  8.00000000E+00  0.00000000E+00
  8.20000000E+02  6.00000000E+00  0.00000000E+00
  8.20000000E+02  4.00000000E+00  0.00000000E+00
  8.20000000E+02  2.00000000E+00  0.00000000E+00
  8.20000000E+02 -3.33066907E-14  0.00000000E+00
  8.30000000E+02  1.00000000E+02  0.00000000E+00
  8.30000000E+02  9.80000000E+01  0.00000000E+00
  8.30000000E+02  9.60000000E+01  0.00000000E+00
  8.30000000E+02  9.40000000E+01  0.00000000E+00
  8.30000000E+02  9.20000000E+01  0.00000000E+00
  8.30000000E+02  9.00000000E+01  0.00000000E+00
  8.30000000E+02  8.80000000E+01  0.00000000E+00
  8.30000000E+02  8.60000000E+01  0.00000000E+00
  8.30000000E+02  8.40000000E+01  0.00000000E+00
  8.30000000E+02  8.20000000E+01  0.00000000E+00
  8.30000000E+02  8.00000000E+01  0.00000000E+00
  8.30000000E+02  7.80000000E+01  0.00000000E+00
  8.30000000E+02  7.60000000E+01  0.00000000E+00
  8.30000000E+02  7.40000000E+01  0.00000000E+00
  8.30000000E+02  7.20000000E+01  0.00000000E+00
  8.30000000E+02  7.00000000E+01  0.00000000E+00
  8.30000000E+02  6.80000000E+01  0.00000000E+00
  8.30000000E+02  6.60000000E+01  0.00000000E+00
  8.30000000E+02  6.40000000E+01  0.00000000E+00
  8.30000000E+02  6.20000000E+01  0.00000000E+00
  8.30000000E+02  6.00000000E+01  0.00000000E+00
  8.30000000E+02  5.80000000E+01  0.00000000E+00
  8.30000000E+02  5.60000000E+01  0.00000000E+00
  8.30000000E+02  5.40000000E+01  0.00000000E+00
  8.30000000E+02  5.20000000E+01  0.00000000E+00
  8.30000000E+02  5.00000000E+01  0.00000000E+00
  8.30000000E+02  4.80000000E+01  0.00000000E+00
  8.30000000E+02  4.60000000E+01  0.00000000E+00
  8.30000000E+02  4.40000000E+01  0.00000000E+00
  8.30000000E+02  4.20000000E+01  0.00000000E+00
  8.30000000E+02  4.00000000E+01  0.00000000E+00
  8.30000000E+02  3.80000000E+01  0.00000000E+00
  8.30000000E+02  3.60000000E+01  0.00000000E+00
  8.30000000E+02  3.40000000E+01  0.00000000E+00
  8.30000000E+02  3.20000000E+01  0.00000000E+00
  8.30000000E+02  3.00000000E+01  0.00000000E+00
  8.30000000E+02  2.80000000E+01  0.00000000E+00
  8.30000000E+02  2.60000000E+01  0.00000000E+00
  8.30000000E+02  2.40000000E+01  0.00000000E+00
  8.30000000E+02  2.20000000E+01  0.00000000E+00
  8.30000000E+02  2.00000000E+01  0.00000000E+00
  8.30000000E+02  1.80000000E+01  0.00000000E+00
  8.30000000E+02  1.60000000E+01  0.00000000E+00
  8.30000000E+02  1.40000000E+01  0.00000000E+00
  8.30000000E+02  1.20000000E+01  0.00000000E+00
  8.30000000E+02  1.00000000E+01  0.00000000E+00
  8.30000000E+02  8.00000000E+00  0.00000000E+00
  8.30000000E+02  6.00000000E+00  0.00000000E+00
  8.30000000E+02  4.00000000E+00  0.00000000E+00
  8.30000000E+02  2.00000000E+00  0.00000000E+00
  8.30000000E+02 -3.33066907E-14  0.00000000E+00
  8.40000000E+02  1.00000000E+02  0.00000000E+00
  8.40000000E+02  9.80000000E+01  0.00000000E+00
  8.40000000E+02  9.60000000E+01  0.00000000E+00
  8.40000000E+02  9.40000000E+01  0.00000000E+00
  8.40000000E+02  9.20000000E+01  0.00000000E+00
  8.40000000E+02  9.00000000E+01  0.00000000E+00
  8.40000000E+02  8.80000000E+01  0.00000000E+00
  8.40000000E+02  8.60000000E+01  0.00000000E+00
  8.40000000E+02  8.40000000E+01  0.00000000E+00
  8.40000000E+02  8.20000000E+01  0.00000000E+00
  8.40000000E+02  8.00000000E+01  0.00000000E+00
  8.40000000E+02  7.80000000E+01  0.00000000E+00
  8.40000000E+02  7.60000000E+01  0.00000000E+00
  8.40000000E+02  7.40000000E+01  0.00000000E+00
  8.40000000E+02  7.20000000E+01  0.00000000E+00
  8.40000000E+02  7.00000000E+01  0.00000000E+00
  8.40000000E+02  6.80000000E+01  0.00000000E+00
  8.40000000E+02  6.60000000E+01  0.00000000E+00
  8.40000000E+02  6.40000000E+01  0.00000000E+00
  8.40000000E+02  6.20000000E+01  0.00000000E+00
  8.40000000E+02  6.00000000E+01  0.00000000E+00
  8.40000000E+02  5.80000000E+01  0.00000000E+00
  8.40000000E+02  5.60000000E+01  0.00000000E+00
  8.40000000E+02  5.40000000E+01  0.00000000E+00
  8.40000000E+02  5.20000000E+01  0.00000000E+00
  8.40000000E+02  5.00000000E+01  0.00000000E+00
  8.40000000E+02  4.80000000E+01  0.00000000E+00
  8.40000000E+02  4.60000000E+01  0.00000000E+00
  8.40000000E+02  4.40000000E+01  0.00000000E+00
  8.40000000E+02  4.20000000E+01  0.00000000E+00
  8.40000000E+02  4.00000000E+01  0.00000000E+00
  8.40000000E+02  3.80000000E+01  0.00000000E+00
  8.40000000E+02  3.60000000E+01  0.00000000E+00
  8.40000000E+02  3.40000000E+01  0.00000000E+00
  8.40000000E+02  3.20000000E+01  0.00000000E+00
  8.40000000E+02  3.00000000E+01  0.00000000E+00
  8.40000000E+02  2.80000000E+01  0.00000000E+00
  8.40000000E+02  2.60000000E+01  0.00000000E+00
  8.40000000E+02  2.40000000E+01  0.00000000E+00
  8.40000000E+02  2.20000000E+01  0.00000000E+00
  8.40000000E+02  2.00000000E+01  0.00000000E+00
  8.40000000E+02  1.80000000E+01  0.00000000E+00
  8.40000000E+02  1.60000000E+01  0.00000000E+00
  8.40000000E+02  1.40000000E+01  0.00000000E+00
  8.40000000E+02  1.20000000E+01  0.00000000E+00
  8.40000000E+02  1.00000000E+01  0.00000000E+00
  8.40000000E+02  8.00000000E+00  0.00000000E+00
  8.40000000E+02  6.00000000E+00  0.00000000E+00
  8.40000000E+02  4.00000000E+00  0.00000000E+00
  8.40000000E+02  2.00000000E+00  0.00000000E+00
  8.40000000E+02 -3.33066907E-14  0.00000000E+00
  8.50000000E+02  1.00000000E+02  0.00000000E+00
  8.50000000E+02  9.80000000E+01  0.00000000E+00
  8.50000000E+02  9.60000000E+01  0.00000000E+00
  8.50000000E+02  9.40000000E+01  0.00000000E+00
  8.50000000E+02  9.20000000E+01  0.00000000E+00
  8.50000000E+02  9.00000000E+01  0.00000000E+00
  8.50000000E+02  8.80000000E+01  0.00000000E+00
  8.50000000E+02  8.60000000E+01  0.00000000E+00
  8.50000000E+02  8.40000000E+01  0.00000000E+00
  8.50000000E+02  8.20000000E+01  0.00000000E+00
  8.50000000E+02  8.00000000E+01  0.00000000E+00
  8.50000000E+02  7.80000000E+01  0.00000000E+00
  8.50000000E+02  7.60000000E+01  0.00000000E+00
  8.50000000E+02  7.40000000E+01  0.00000000E+00
  8.50000000E+02  7.20000000E+01  0.00000000E+00
  8.50000000E+02  7.00000000E+01  0.00000000E+00
  8.50000000E+02  6.80000000E+01  0.00000000E+00
  8.50000000E+02  6.60000000E+01  0.00000000E+00
  8.50000000E+02  6.40000000E+01  0.00000000E+00
  8.50000000E+02  6.20000000E+01  0.00000000E+00
  8.50000000E+02  6.00000000E+01  0.00000000E+00
  8.50000000E+02  5.80000000E+01  0.00000000E+00
  8.50000000E+02  5.60000000E+01  0.00000000E+00
  8.50000000E+02  5.40000000E+01  0.00000000E+00
  8.50000000E+02  5.20000000E+01  0.00000000E+00
  8.50000000E+02  5.00000000E+01  0.00000000E+00
  8.50000000E+02  4.80000000E+01  0.00000000E+00
  8.50000000E+02  4.60000000E+01  0.00000000E+00
  8.50000000E+02  4.40000000E+01  0.00000000E+00
  8.50000000E+02  4.20000000E+01  0.00000000E+00
  8.50000000E+02  4.00000000E+01  0.00000000E+00
  8.50000000E+02  3.80000000E+01  0.00000000E+00
  8.50000000E+02  3.60000000E+01  0.00000000E+00
  8.50000000E+02  3.40000000E+01  0.00000000E+00
  8.50000000E+02  3.20000000E+01  0.00000000E+00
  8.50000000E+02  3.00000000E+01  0.00000000E+00
  8.50000000E+02  2.80000000E+01  0.00000000E+00
  8.50000000E+02  2.60000000E+01  0.00000000E+00
  8.50000000E+02  2.40000000E+01  0.00000000E+00
  8.50000000E+02  2.20000000E+01  0.00000000E+00
  8.50000000E+02  2.00000000E+01  0.00000000E+00
  8.50000000E+02  1.80000000E+01  0.00000000E+00
  8.50000000E+02  1.60000000E+01  0.00000000E+00
  8.50000000E+02  1.40000000E+01  0.00000000E+00
  8.50000000E+02  1.20000000E+01  0.00000000E+00
  8.50000000E+02  1.00000000E+01  0.00000000E+00
  8.50000000E+02  8.00000000E+00  0.00000000E+00
  8.50000000E+02  6.00000000E+00  0.00000000E+00
  8.50000000E+02  4.00000000E+00  0.00000000E+00
  8.50000000E+02  2.00000000E+00  0.00000000E+00
  8.50000000E+02 -3.33066907E-14  0.00000000E+00
  8.60000000E+02  1.00000000E+02  0.00000000E+00
  8.60000000E+02  9.80000000E+01  0.00000000E+00
  8.60000000E+02  9.60000000E+01  0.00000000E+00
  8.60000000E+02  9.40000000E+01  0.00000000E+00
  8.60000000E+02  9.20000000E+01  0.00000000E+00
  8.60000000E+02  9.00000000E+01  0.00000000E+00
  8.60000000E+02  8.80000000E+01  0.00000000E+00
  8.60000000E+02  8.60000000E+01  0.00000000E+00
  8.60000000E+02  8.40000000E+01  0.00000000E+00
  8.60000000E+02  8.20000000E+01  0.00000000E+00
  8.60000000E+02  8.00000000E+01  0.00000000E+00
  8.60000000E+02  7.80000000E+01  0.00000000E+00
  8.60000000E+02  7.60000000E+01  0.00000000E+00
  8.60000000E+02  7.40000000E+01  0.00000000E+00
  8.60000000E+02  7.20000000E+01  0.00000000E+00
  8.60000000E+02  7.00000000E+01  0.00000000E+00
  8.60000000E+02  6.80000000E+01  0.00000000E+00
  8.60000000E+02  6.60000000E+01  0.00000000E+00
  8.60000000E+02  6.40000000E+01  0.00000000E+00
  8.60000000E+02  6.20000000E+01  0.00000000E+00
  8.60000000E+02  6.00000000E+01  0.00000000E+00
  8.60000000E+02  5.80000000E+01  0.00000000E+00
  8.60000000E+02  5.60000000E+01  0.00000000E+00
  8.60000000E+02  5.40000000E+01  0.00000000E+00
  8.60000000E+02  5.20000000E+01  0.00000000E+00
  8.60000000E+02  5.00000000E+01  0.00000000E+00
  8.60000000E+02  4.80000000E+01  0.00000000E+00
  8.60000000E+02  4.60000000E+01  0.00000000E+00
  8.60000000E+02  4.40000000E+01  0.00000000E+00
  8.60000000E+02  4.20000000E+01  0.00000000E+00
  8.60000000E+02  4.00000000E+01  0.00000000E+00
  8.60000000E+02  3.80000000E+01  0.00000000E+00
  8.60000000E+02  3.60000000E+01  0.00000000E+00
  8.60000000E+02  3.40000000E+01  0.00000000E+00
  8.60000000E+02  3.20000000E+01  0.00000000E+00
  8.60000000E+02  3.00000000E+01  0.00000000E+00
  8.60000000E+02  2.80000000E+01  0.00000000E+00
  8.60000000E+02  2.60000000E+01  0.00000000E+00
  8.60000000E+02  2.40000000E+01  0.00000000E+00
  8.60000000E+02  2.20000000E+01  0.00000000E+00
  8.60000000E+02  2.00000000E+01  0.00000000E+00
  8.60000000E+02  1.80000000E+01  0.00000000E+00
  8.60000000E+02  1.60000000E+01  0.00000000E+00
  8.60000000E+02  1.40000000E+01  0.00000000E+00
  8.60000000E+02  1.20000000E+01  0.00000000E+00
  8.60000000E+02  1.00000000E+01  0.00000000E+00
  8.60000000E+02  8.00000000E+00  0.00000000E+00
  8.60000000E+02  6.00000000E+00  0.00000000E+00
  8.60000000E+02  4.00000000E+00  0.00000000E+00
  8.60000000E+02  2.00000000E+00  0.00000000E+00
  8.60000000E+02 -3.33066907E-14  0.00000000E+00
  8.70000000E+02  1.00000000E+02  0.00000000E+00
  8.70000000E+02  9.80000000E+01  0.00000000E+00
  8.70000000E+02  9.60000000E+01  0.00000000E+00
  8.70000000E+02  9.40000000E+01  0.00000000E+00
  8.70000000E+02  9.20000000E+01  0.00000000E+00
  8.70000000E+02  9.00000000E+01  0.00000000E+00
  8.70000000E+02  8.80000000E+01  0.00000000E+00
  8.70000000E+02  8.60000000E+01  0.00000000E+00
  8.70000000E+02  8.40000000E+01  0.00000000E+00
  8.70000000E+02  8.20000000E+01  0.00000000E+00
  8.70000000E+02  8.00000000E+01  0.00000000E+00
  8.70000000E+02  7.80000000E+01  0.00000000E+00
  8.70000000E+02  7.60000000E+01  0.00000000E+00
  8.70000000E+02  7.40000000E+01  0.00000000E+00
  8.70000000E+02  7.20000000E+01  0.00000000E+00
  8.70000000E+02  7.00000000E+01  0.00000000E+00
  8.70000000E+02  6.80000000E+01  0.00000000E+00
  8.70000000E+02  6.60000000E+01  0.00000000E+00
  8.70000000E+02  6.40000000E+01  0.00000000E+00
  8.70000000E+02  6.20000000E+01  0.00000000E+00
  8.70000000E+02  6.00000000E+01  0.00000000E+00
  8.70000000E+02  5.80000000E+01  0.00000000E+00
  8.70000000E+02  5.60000000E+01  0.00000000E+00
  8.70000000E+02  5.40000000E+01  0.00000000E+00
  8.70000000E+02  5.20000000E+01  0.00000000E+00
  8.70000000E+02  5.00000000E+01  0.00000000E+00
  8.70000000E+02  4.80000000E+01  0.00000000E+00
  8.70000000E+02  4.60000000E+01  0.00000000E+00
  8.70000000E+02  4.40000000E+01  0.00000000E+00
  8.70000000E+02  4.20000000E+01  0.00000000E+00
  8.70000000E+02  4.00000000E+01  0.00000000E+00
  8.70000000E+02  3.80000000E+01  0.00000000E+00
  8.70000000E+02  3.60000000E+01  0.00000000E+00
  8.70000000E+02  3.40000000E+01  0.00000000E+00
  8.70000000E+02  3.20000000E+01  0.00000000E+00
  8.70000000E+02  3.00000000E+01  0.00000000E+00
  8.70000000E+02  2.80000000E+01  0.00000000E+00
  8.70000000E+02  2.60000000E+01  0.00000000E+00
  8.70000000E+02  2.40000000E+01  0.00000000E+00
  8.70000000E+02  2.20000000E+01  0.00000000E+00
  8.70000000E+02  2.00000000E+01  0.00000000E+00
  8.70000000E+02  1.80000000E+01  0.00000000E+00
  8.70000000E+02  1.60000000E+01  0.00000000E+00
  8.70000000E+02  1.40000000E+01  0.00000000E+00
  8.70000000E+02  1.20000000E+01  0.00000000E+00
  8.70000000E+02  1.00000000E+01  0.00000000E+00
  8.70000000E+02  8.00000000E+00  0.00000000E+00
  8.70000000E+02  6.00000000E+00  0.00000000E+00
  8.70000000E+02  4.00000000E+00  0.00000000E+00
  8.70000000E+02  2.00000000E+00  0.00000000E+00
  8.70000000E+02 -3.33066907E-14  0.00000000E+00
  8.80000000E+02  1.00000000E+02  0.00000000E+00
  8.80000000E+02  9.80000000E+01  0.00000000E+00
  8.80000000E+02  9.60000000E+01  0.00000000E+00
  8.80000000E+02  9.40000000E+01  0.00000000E+00
  8.80000000E+02  9.20000000E+01  0.00000000E+00
  8.80000000E+02  9.00000000E+01  0.00000000E+00
  8.80000000E+02  8.80000000E+01  0.00000000E+00
  8.80000000E+02  8.60000000E+01  0.00000000E+00
  8.80000000E+02  8.40000000E+01  0.00000000E+00
  8.80000000E+02  8.20000000E+01  0.00000000E+00
  8.80000000E+02  8.00000000E+01  0.00000000E+00
  8.80000000E+02  7.80000000E+01  0.00000000E+00
  8.80000000E+02  7.60000000E+01  0.00000000E+00
  8.80000000E+02  7.40000000E+01  0.00000000E+00
  8.80000000E+02  7.20000000E+01  0.00000000E+00
  8.80000000E+02  7.00000000E+01  0.00000000E+00
  8.80000000E+02  6.80000000E+01  0.00000000E+00
  8.80000000E+02  6.60000000E+01  0.00000000E+00
  8.80000000E+02  6.40000000E+01  0.00000000E+00
  8.80000000E+02  6.20000000E+01  0.00000000E+00
  8.80000000E+02  6.00000000E+01  0.00000000E+00
  8.80000000E+02  5.80000000E+01  0.00000000E+00
  8.80000000E+02  5.60000000E+01  0.00000000E+00
  8.80000000E+02  5.40000000E+01  0.00000000E+00
  8.80000000E+02  5.20000000E+01  0.00000000E+00
  8.80000000E+02  5.00000000E+01  0.00000000E+00
  8.80000000E+02  4.80000000E+01  0.00000000E+00
  8.80000000E+02  4.60000000E+01  0.00000000E+00
  8.80000000E+02  4.40000000E+01  0.00000000E+00
  8.80000000E+02  4.20000000E+01  0.00000000E+00
  8.80000000E+02  4.00000000E+01  0.00000000E+00
  8.80000000E+02  3.80000000E+01  0.00000000E+00
  8.80000000E+02  3.60000000E+01  0.00000000E+00
  8.80000000E+02  3.40000000E+01  0.00000000E+00
  8.80000000E+02  3.20000000E+01  0.00000000E+00
  8.80000000E+02  3.00000000E+01  0.00000000E+00
  8.80000000E+02  2.80000000E+01  0.00000000E+00
  8.80000000E+02  2.60000000E+01  0.00000000E+00
  8.80000000E+02  2.40000000E+01  0.00000000E+00
  8.80000000E+02  2.20000000E+01  0.00000000E+00
  8.80000000E+02  2.00000000E+01  0.00000000E+00
  8.80000000E+02  1.80000000E+01  0.00000000E+00
  8.80000000E+02  1.60000000E+01  0.00000000E+00
  8.80000000E+02  1.40000000E+01  0.00000000E+00
  8.80000000E+02  1.20000000E+01  0.00000000E+00
  8.80000000E+02  1.00000000E+01  0.00000000E+00
  8.80000000E+02  8.00000000E+00  0.00000000E+00
  8.80000000E+02  6.00000000E+00  0.00000000E+00
  8.80000000E+02  4.00000000E+00  0.00000000E+00
  8.80000000E+02  2.00000000E+00  0.00000000E+00
  8.80000000E+02 -3.33066907E-14  0.00000000E+00
  8.90000000E+02  1.00000000E+02  0.00000000E+00
  8.90000000E+02  9.80000000E+01  0.00000000E+00
  8.90000000E+02  9.60000000E+01  0.00000000E+00
  8.90000000E+02  9.40000000E+01  0.00000000E+00
  8.90000000E+02  9.20000000E+01  0.00000000E+00
  8.90000000E+02  9.00000000E+01  0.00000000E+00
  8.90000000E+02  8.80000000E+01  0.00000000E+00
  8.90000000E+02  8.60000000E+01  0.00000000E+00
  8.90000000E+02  8.40000000E+01  0.00000000E+00
  8.90000000E+02  8.20000000E+01  0.00000000E+00
  8.90000000E+02  8.00000000E+01  0.00000000E+00
  8.90000000E+02  7.80000000E+01  0.00000000E+00
  8.90000000E+02  7.60000000E+01  0.00000000E+00
  8.90000000E+02  7.40000000E+01  0.00000000E+00
  8.90000000E+02  7.20000000E+01  0.00000000E+00
  8.90000000E+02  7.00000000E+01  0.00000000E+00
  8.90000000E+02  6.80000000E+01  0.00000000E+00
  8.90000000E+02  6.60000000E+01  0.00000000E+00
  8.90000000E+02  6.40000000E+01  0.00000000E+00
  8.90000000E+02  6.20000000E+01  0.00000000E+00
  8.90000000E+02  6.00000000E+01  0.00000000E+00
  8.90000000E+02  5.80000000E+01  0.00000000E+00
  8.90000000E+02  5.60000000E+01  0.00000000E+00
  8.90000000E+02  5.40000000E+01  0.00000000E+00
  8.90000000E+02  5.20000000E+01  0.00000000E+00
  8.90000000E+02  5.00000000E+01  0.00000000E+00
  8.90000000E+02  4.80000000E+01  0.00000000E+00
  8.90000000E+02  4.60000000E+01  0.00000000E+00
  8.90000000E+02  4.40000000E+01  0.00000000E+00
  8.90000000E+02  4.20000000E+01  0.00000000E+00
  8.90000000E+02  4.00000000E+01  0.00000000E+00
  8.90000000E+02  3.80000000E+01  0.00000000E+00
  8.90000000E+02  3.60000000E+01  0.00000000E+00
  8.90000000E+02  3.40000000E+01  0.00000000E+00
  8.90000000E+02  3.20000000E+01  0.00000000E+00
  8.90000000E+02  3.00000000E+01  0.00000000E+00
  8.90000000E+02  2.80000000E+01  0.00000000E+00
  8.90000000E+02  2.60000000E+01  0.00000000E+00
  8.90000000E+02  2.40000000E+01  0.00000000E+00
  8.90000000E+02  2.20000000E+01  0.00000000E+00
  8.90000000E+02  2.00000000E+01  0.00000000E+00
  8.90000000E+02  1.80000000E+01  0.00000000E+00
  8.90000000E+02  1.60000000E+01  0.00000000E+00
  8.90000000E+02  1.40000000E+01  0.00000000E+00
  8.90000000E+02  1.20000000E+01  0.00000000E+00
  8.90000000E+02  1.00000000E+01  0.00000000E+00
  8.90000000E+02  8.00000000E+00  0.00000000E+00
  8.90000000E+02  6.00000000E+00  0.00000000E+00
  8.90000000E+02  4.00000000E+00  0.00000000E+00
  8.90000000E+02  2.00000000E+00  0.00000000E+00
  8.90000000E+02 -3.33066907E-14  0.00000000E+00
  9.00000000E+02  1.00000000E+02  0.00000000E+00
  9.00000000E+02  9.80000000E+01  0.00000000E+00
  9.00000000E+02  9.60000000E+01  0.00000000E+00
  9.00000000E+02  9.40000000E+01  0.00000000E+00
  9.00000000E+02  9.20000000E+01  0.00000000E+00
  9.00000000E+02  9.00000000E+01  0.00000000E+00
  9.00000000E+02  8.80000000E+01  0.00000000E+00
  9.00000000E+02  8.60000000E+01  0.00000000E+00
  9.00000000E+02  8.40000000E+01  0.00000000E+00
  9.00000000E+02  8.20000000E+01  0.00000000E+00
  9.00000000E+02  8.00000000E+01  0.00000000E+00
  9.00000000E+02  7.80000000E+01  0.00000000E+00
  9.00000000E+02  7.60000000E+01  0.00000000E+00
  9.00000000E+02  7.40000000E+01  0.00000000E+00
  9.00000000E+02  7.20000000E+01  0.00000000E+00
  9.00000000E+02  7.00000000E+01  0.00000000E+00
  9.00000000E+02  6.80000000E+01  0.00000000E+00
  9.00000000E+02  6.60000000E+01  0.00000000E+00
  9.00000000E+02  6.40000000E+01  0.00000000E+00
  9.00000000E+02  6.20000000E+01  0.00000000E+00
  9.00000000E+02  6.00000000E+01  0.00000000E+00
  9.00000000E+02  5.80000000E+01  0.00000000E+00
  9.00000000E+02  5.60000000E+01  0.00000000E+00
  9.00000000E+02  5.40000000E+01  0.00000000E+00
  9.00000000E+02  5.20000000E+01  0.00000000E+00
  9.00000000E+02  5.00000000E+01  0.00000000E+00
  9.00000000E+02  4.80000000E+01  0.00000000E+00
  9.00000000E+02  4.60000000E+01  0.00000000E+00
  9.00000000E+02  4.40000000E+01  0.00000000E+00
  9.00000000E+02  4.20000000E+01  0.00000000E+00
  9.00000000E+02  4.00000000E+01  0.00000000E+00
  9.00000000E+02  3.80000000E+01  0.00000000E+00
  9.00000000E+02  3.60000000E+01  0.00000000E+00
  9.00000000E+02  3.40000000E+01  0.00000000E+00
  9.00000000E+02  3.20000000E+01  0.00000000E+00
  9.00000000E+02  3.00000000E+01  0.00000000E+00
  9.00000000E+02  2.80000000E+01  0.00000000E+00
  9.00000000E+02  2.60000000E+01  0.00000000E+00
  9.00000000E+02  2.40000000E+01  0.00000000E+00
  9.00000000E+02  2.20000000E+01  0.00000000E+00
  9.00000000E+02  2.00000000E+01  0.00000000E+00
  9.00000000E+02  1.80000000E+01  0.00000000E+00
  9.00000000E+02  1.60000000E+01  0.00000000E+00
  9.00000000E+02  1.40000000E+01  0.00000000E+00
  9.00000000E+02  1.20000000E+01  0.00000000E+00
  9.00000000E+02  1.00000000E+01  0.00000000E+00
  9.00000000E+02  8.00000000E+00  0.00000000E+00
  9.00000000E+02  6.00000000E+00  0.00000000E+00
  9.00000000E+02  4.00000000E+00  0.00000000E+00
  9.00000000E+02  2.00000000E+00  0.00000000E+00
  9.00000000E+02 -3.33066907E-14  0.00000000E+00
  9.10000000E+02  1.00000000E+02  0.00000000E+00
  9.10000000E+02  9.80000000E+01  0.00000000E+00
  9.10000000E+02  9.60000000E+01  0.00000000E+00
  9.10000000E+02  9.40000000E+01  0.00000000E+00
  9.10000000E+02  9.20000000E+01  0.00000000E+00
  9.10000000E+02  9.00000000E+01  0.00000000E+00
  9.10000000E+02  8.80000000E+01  0.00000000E+00
  9.10000000E+02  8.60000000E+01  0.00000000E+00
  9.10000000E+02  8.40000000E+01  0.00000000E+00
  9.10000000E+02  8.20000000E+01  0.00000000E+00
  9.10000000E+02  8.00000000E+01  0.00000000E+00
  9.10000000E+02  7.80000000E+01  0.00000000E+00
  9.10000000E+02  7.60000000E+01  0.00000000E+00
  9.10000000E+02  7.40000000E+01  0.00000000E+00
  9.10000000E+02  7.20000000E+01  0.00000000E+00
  9.10000000E+02  7.00000000E+01  0.00000000E+00
  9.10000000E+02  6.80000000E+01  0.00000000E+00
  9.10000000E+02  6.60000000E+01  0.00000000E+00
  9.10000000E+02  6.40000000E+01  0.00000000E+00
  9.10000000E+02  6.20000000E+01  0.00000000E+00
  9.10000000E+02  6.00000000E+01  0.00000000E+00
  9.10000000E+02  5.80000000E+01  0.00000000E+00
  9.10000000E+02  5.60000000E+01  0.00000000E+00
  9.10000000E+02  5.40000000E+01  0.00000000E+00
  9.10000000E+02  5.20000000E+01  0.00000000E+00
  9.10000000E+02  5.00000000E+01  0.00000000E+00
  9.10000000E+02  4.80000000E+01  0.00000000E+00
  9.10000000E+02  4.60000000E+01  0.00000000E+00
  9.10000000E+02  4.40000000E+01  0.00000000E+00
  9.10000000E+02  4.20000000E+01  0.00000000E+00
  9.10000000E+02  4.00000000E+01  0.00000000E+00
  9.10000000E+02  3.80000000E+01  0.00000000E+00
  9.10000000E+02  3.60000000E+01  0.00000000E+00
  9.10000000E+02  3.40000000E+01  0.00000000E+00
  9.10000000E+02  3.20000000E+01  0.00000000E+00
  9.10000000E+02  3.00000000E+01  0.00000000E+00
  9.10000000E+02  2.80000000E+01  0.00000000E+00
  9.10000000E+02  2.60000000E+01  0.00000000E+00
  9.10000000E+02  2.40000000E+01  0.00000000E+00
  9.10000000E+02  2.20000000E+01  0.00000000E+00
  9.10000000E+02  2.00000000E+01  0.00000000E+00
  9.10000000E+02  1.80000000E+01  0.00000000E+00
  9.10000000E+02  1.60000000E+01  0.00000000E+00
  9.10000000E+02  1.40000000E+01  0.00000000E+00
  9.10000000E+02  1.20000000E+01  0.00000000E+00
  9.10000000E+02  1.00000000E+01  0.00000000E+00
  9.10000000E+02  8.00000000E+00  0.00000000E+00
  9.10000000E+02  6.00000000E+00  0.00000000E+00
  9.10000000E+02  4.00000000E+00  0.00000000E+00
  9.10000000E+02  2.00000000E+00  0.00000000E+00
  9.10000000E+02 -3.33066907E-14  0.00000000E+00
  9.20000000E+02  1.00000000E+02  0.00000000E+00
  9.20000000E+02  9.80000000E+01  0.00000000E+00
  9.20000000E+02  9.60000000E+01  0.00000000E+00
  9.20000000E+02  9.40000000E+01  0.00000000E+00
  9.20000000E+02  9.20000000E+01  0.00000000E+00
  9.20000000E+02  9.00000000E+01  0.00000000E+00
  9.20000000E+02  8.80000000E+01  0.00000000E+00
  9.20000000E+02  8.60000000E+01  0.00000000E+00
  9.20000000E+02  8.40000000E+01  0.00000000E+00
  9.20000000E+02  8.20000000E+01  0.00000000E+00
  9.20000000E+02  8.00000000E+01  0.00000000E+00
  9.20000000E+02  7.80000000E+01  0.00000000E+00
  9.20000000E+02  7.60000000E+01  0.00000000E+00
  9.20000000E+02  7.40000000E+01  0.00000000E+00
  9.20000000E+02  7.20000000E+01  0.00000000E+00
  9.20000000E+02  7.00000000E+01  0.00000000E+00
  9.20000000E+02  6.80000000E+01  0.00000000E+00
  9.20000000E+02  6.60000000E+01  0.00000000E+00
  9.20000000E+02  6.40000000E+01  0.00000000E+00
  9.20000000E+02  6.20000000E+01  0.00000000E+00
  9.20000000E+02  6.00000000E+01  0.00000000E+00
  9.20000000E+02  5.80000000E+01  0.00000000E+00
  9.20000000E+02  5.60000000E+01  0.00000000E+00
  9.20000000E+02  5.40000000E+01  0.00000000E+00
  9.20000000E+02  5.20000000E+01  0.00000000E+00
  9.20000000E+02  5.00000000E+01  0.00000000E+00
  9.20000000E+02  4.80000000E+01  0.00000000E+00
  9.20000000E+02  4.60000000E+01  0.00000000E+00
  9.20000000E+02  4.40000000E+01  0.00000000E+00
  9.20000000E+02  4.20000000E+01  0.00000000E+00
  9.20000000E+02  4.00000000E+01  0.00000000E+00
  9.20000000E+02  3.80000000E+01  0.00000000E+00
  9.20000000E+02  3.60000000E+01  0.00000000E+00
  9.20000000E+02  3.40000000E+01  0.00000000E+00
  9.20000000E+02  3.20000000E+01  0.00000000E+00
  9.20000000E+02  3.00000000E+01  0.00000000E+00
  9.20000000E+02  2.80000000E+01  0.00000000E+00
  9.20000000E+02  2.60000000E+01  0.00000000E+00
  9.20000000E+02  2.40000000E+01  0.00000000E+00
  9.20000000E+02  2.20000000E+01  0.00000000E+00
  9.20000000E+02  2.00000000E+01  0.00000000E+00
  9.20000000E+02  1.80000000E+01  0.00000000E+00
  9.20000000E+02  1.60000000E+01  0.00000000E+00
  9.20000000E+02  1.40000000E+01  0.00000000E+00
  9.20000000E+02  1.20000000E+01  0.00000000E+00
  9.20000000E+02  1.00000000E+01  0.00000000E+00
  9.20000000E+02  8.00000000E+00  0.00000000E+00
  9.20000000E+02  6.00000000E+00  0.00000000E+00
  9.20000000E+02  4.00000000E+00  0.00000000E+00
  9.20000000E+02  2.00000000E+00  0.00000000E+00
  9.20000000E+02 -3.33066907E-14  0.00000000E+00
  9.30000000E+02  1.00000000E+02  0.00000000E+00
  9.30000000E+02  9.80000000E+01  0.00000000E+00
  9.30000000E+02  9.60000000E+01  0.00000000E+00
  9.30000000E+02  9.40000000E+01  0.00000000E+00
  9.30000000E+02  9.20000000E+01  0.00000000E+00
  9.30000000E+02  9.00000000E+01  0.00000000E+00
  9.30000000E+02  8.80000000E+01  0.00000000E+00
  9.30000000E+02  8.60000000E+01  0.00000000E+00
  9.30000000E+02  8.40000000E+01  0.00000000E+00
  9.30000000E+02  8.20000000E+01  0.00000000E+00
  9.30000000E+02  8.00000000E+01  0.00000000E+00
  9.30000000E+02  7.80000000E+01  0.00000000E+00
  9.30000000E+02  7.60000000E+01  0.00000000E+00
  9.30000000E+02  7.40000000E+01  0.00000000E+00
  9.30000000E+02  7.20000000E+01  0.00000000E+00
  9.30000000E+02  7.00000000E+01  0.00000000E+00
  9.30000000E+02  6.80000000E+01  0.00000000E+00
  9.30000000E+02  6.60000000E+01  0.00000000E+00
  9.30000000E+02  6.40000000E+01  0.00000000E+00
  9.30000000E+02  6.20000000E+01  0.00000000E+00
  9.30000000E+02  6.00000000E+01  0.00000000E+00
  9.30000000E+02  5.80000000E+01  0.00000000E+00
  9.30000000E+02  5.60000000E+01  0.00000000E+00
  9.30000000E+02  5.40000000E+01  0.00000000E+00
  9.30000000E+02  5.20000000E+01  0.00000000E+00
  9.30000000E+02  5.00000000E+01  0.00000000E+00
  9.30000000E+02  4.80000000E+01  0.00000000E+00
  9.30000000E+02  4.60000000E+01  0.00000000E+00
  9.30000000E+02  4.40000000E+01  0.00000000E+00
  9.30000000E+02  4.20000000E+01  0.00000000E+00
  9.30000000E+02  4.00000000E+01  0.00000000E+00
  9.30000000E+02  3.80000000E+01  0.00000000E+00
  9.30000000E+02  3.60000000E+01  0.00000000E+00
  9.30000000E+02  3.40000000E+01  0.00000000E+00
  9.30000000E+02  3.20000000E+01  0.00000000E+00
  9.30000000E+02  3.00000000E+01  0.00000000E+00
  9.30000000E+02  2.80000000E+01  0.00000000E+00
  9.30000000E+02  2.60000000E+01  0.00000000E+00
  9.30000000E+02  2.40000000E+01  0.00000000E+00
  9.30000000E+02  2.20000000E+01  0.00000000E+00
  9.30000000E+02  2.00000000E+01  0.00000000E+00
  9.30000000E+02  1.80000000E+01  0.00000000E+00
  9.30000000E+02  1.60000000E+01  0.00000000E+00
  9.30000000E+02  1.40000000E+01  0.00000000E+00
  9.30000000E+02  1.20000000E+01  0.00000000E+00
  9.30000000E+02  1.00000000E+01  0.00000000E+00
  9.30000000E+02  8.00000000E+00  0.00000000E+00
  9.30000000E+02  6.00000000E+00  0.00000000E+00
  9.30000000E+02  4.00000000E+00  0.00000000E+00
  9.30000000E+02  2.00000000E+00  0.00000000E+00
  9.30000000E+02 -3.33066907E-14  0.00000000E+00
  9.40000000E+02  1.00000000E+02  0.00000000E+00
  9.40000000E+02  9.80000000E+01  0.00000000E+00
  9.40000000E+02  9.60000000E+01  0.00000000E+00
  9.40000000E+02  9.40000000E+01  0.00000000E+00
  9.40000000E+02  9.20000000E+01  0.00000000E+00
  9.40000000E+02  9.00000000E+01  0.00000000E+00
  9.40000000E+02  8.80000000E+01  0.00000000E+00
  9.40000000E+02  8.60000000E+01  0.00000000E+00
  9.40000000E+02  8.40000000E+01  0.00000000E+00
  9.40000000E+02  8.20000000E+01  0.00000000E+00
  9.40000000E+02  8.00000000E+01  0.00000000E+00
  9.40000000E+02  7.80000000E+01  0.00000000E+00
  9.40000000E+02  7.60000000E+01  0.00000000E+00
  9.40000000E+02  7.40000000E+01  0.00000000E+00
  9.40000000E+02  7.20000000E+01  0.00000000E+00
  9.40000000E+02  7.00000000E+01  0.00000000E+00
  9.40000000E+02  6.80000000E+01  0.00000000E+00
  9.40000000E+02  6.60000000E+01  0.00000000E+00
  9.40000000E+02  6.40000000E+01  0.00000000E+00
  9.40000000E+02  6.20000000E+01  0.00000000E+00
  9.40000000E+02  6.00000000E+01  0.00000000E+00
  9.40000000E+02  5.80000000E+01  0.00000000E+00
  9.40000000E+02  5.60000000E+01  0.00000000E+00
  9.40000000E+02  5.40000000E+01  0.00000000E+00
  9.40000000E+02  5.20000000E+01  0.00000000E+00
  9.40000000E+02  5.00000000E+01  0.00000000E+00
  9.40000000E+02  4.80000000E+01  0.00000000E+00
  9.40000000E+02  4.60000000E+01  0.00000000E+00
  9.40000000E+02  4.40000000E+01  0.00000000E+00
  9.40000000E+02  4.20000000E+01  0.00000000E+00
  9.40000000E+02  4.00000000E+01  0.00000000E+00
  9.40000000E+02  3.80000000E+01  0.00000000E+00
  9.40000000E+02  3.60000000E+01  0.00000000E+00
  9.40000000E+02  3.40000000E+01  0.00000000E+00
  9.40000000E+02  3.20000000E+01  0.00000000E+00
  9.40000000E+02  3.00000000E+01  0.00000000E+00
  9.40000000E+02  2.80000000E+01  0.00000000E+00
  9.40000000E+02  2.60000000E+01  0.00000000E+00
  9.40000000E+02  2.40000000E+01  0.00000000E+00
  9.40000000E+02  2.20000000E+01  0.00000000E+00
  9.40000000E+02  2.00000000E+01  0.00000000E+00
  9.40000000E+02  1.80000000E+01  0.00000000E+00
  9.40000000E+02  1.60000000E+01  0.00000000E+00
  9.40000000E+02  1.40000000E+01  0.00000000E+00
  9.40000000E+02  1.20000000E+01  0.00000000E+00
  9.40000000E+02  1.00000000E+01  0.00000000E+00
  9.40000000E+02  8.00000000E+00  0.00000000E+00
  9.40000000E+02  6.00000000E+00  0.00000000E+00
  9.40000000E+02  4.00000000E+00  0.00000000E+00
  9.40000000E+02  2.00000000E+00  0.00000000E+00
  9.40000000E+02 -3.33066907E-14  0.00000000E+00
  9.50000000E+02  1.00000000E+02  0.00000000E+00
  9.50000000E+02  9.80000000E+01  0.00000000E+00
  9.50000000E+02  9.60000000E+01  0.00000000E+00
  9.50000000E+02  9.40000000E+01  0.00000000E+00
  9.50000000E+02  9.20000000E+01  0.00000000E+00
  9.50000000E+02  9.00000000E+01  0.00000000E+00
  9.50000000E+02  8.80000000E+01  0.00000000E+00
  9.50000000E+02  8.60000000E+01  0.00000000E+00
  9.50000000E+02  8.40000000E+01  0.00000000E+00
  9.50000000E+02  8.20000000E+01  0.00000000E+00
  9.50000000E+02  8.00000000E+01  0.00000000E+00
  9.50000000E+02  7.80000000E+01  0.00000000E+00
  9.50000000E+02  7.60000000E+01  0.00000000E+00
  9.50000000E+02  7.40000000E+01  0.00000000E+00
  9.50000000E+02  7.20000000E+01  0.00000000E+00
  9.50000000E+02  7.00000000E+01  0.00000000E+00
  9.50000000E+02  6.80000000E+01  0.00000000E+00
  9.50000000E+02  6.60000000E+01  0.00000000E+00
  9.50000000E+02  6.40000000E+01  0.00000000E+00
  9.50000000E+02  6.20000000E+01  0.00000000E+00
  9.50000000E+02  6.00000000E+01  0.00000000E+00
  9.50000000E+02  5.80000000E+01  0.00000000E+00
  9.50000000E+02  5.60000000E+01  0.00000000E+00
  9.50000000E+02  5.40000000E+01  0.00000000E+00
  9.50000000E+02  5.20000000E+01  0.00000000E+00
  9.50000000E+02  5.00000000E+01  0.00000000E+00
  9.50000000E+02  4.80000000E+01  0.00000000E+00
  9.50000000E+02  4.60000000E+01  0.00000000E+00
  9.50000000E+02  4.40000000E+01  0.00000000E+00
  9.50000000E+02  4.20000000E+01  0.00000000E+00
  9.50000000E+02  4.00000000E+01  0.00000000E+00
  9.50000000E+02  3.80000000E+01  0.00000000E+00
  9.50000000E+02  3.60000000E+01  0.00000000E+00
  9.50000000E+02  3.40000000E+01  0.00000000E+00
  9.50000000E+02  3.20000000E+01  0.00000000E+00
  9.50000000E+02  3.00000000E+01  0.00000000E+00
  9.50000000E+02  2.80000000E+01  0.00000000E+00
  9.50000000E+02  2.60000000E+01  0.00000000E+00
  9.50000000E+02  2.40000000E+01  0.00000000E+00
  9.50000000E+02  2.20000000E+01  0.00000000E+00
  9.50000000E+02  2.00000000E+01  0.00000000E+00
  9.50000000E+02  1.80000000E+01  0.00000000E+00
  9.50000000E+02  1.60000000E+01  0.00000000E+00
  9.50000000E+02  1.40000000E+01  0.00000000E+00
  9.50000000E+02  1.20000000E+01  0.00000000E+00
  9.50000000E+02  1.00000000E+01  0.00000000E+00
  9.50000000E+02  8.00000000E+00  0.00000000E+00
  9.50000000E+02  6.00000000E+00  0.00000000E+00
  9.50000000E+02  4.00000000E+00  0.00000000E+00
  9.50000000E+02  2.00000000E+00  0.00000000E+00
  9.50000000E+02 -3.33066907E-14  0.00000000E+00
  9.60000000E+02  1.00000000E+02  0.00000000E+00
  9.60000000E+02  9.80000000E+01  0.00000000E+00
  9.60000000E+02  9.60000000E+01  0.00000000E+00
  9.60000000E+02  9.40000000E+01  0.00000000E+00
  9.60000000E+02  9.20000000E+01  0.00000000E+00
  9.60000000E+02  9.00000000E+01  0.00000000E+00
  9.60000000E+02  8.80000000E+01  0.00000000E+00
  9.60000000E+02  8.60000000E+01  0.00000000E+00
  9.60000000E+02  8.40000000E+01  0.00000000E+00
  9.60000000E+02  8.20000000E+01  0.00000000E+00
  9.60000000E+02  8.00000000E+01  0.00000000E+00
  9.60000000E+02  7.80000000E+01  0.00000000E+00
  9.60000000E+02  7.60000000E+01  0.00000000E+00
  9.60000000E+02  7.40000000E+01  0.00000000E+00
  9.60000000E+02  7.20000000E+01  0.00000000E+00
  9.60000000E+02  7.00000000E+01  0.00000000E+00
  9.60000000E+02  6.80000000E+01  0.00000000E+00
  9.60000000E+02  6.60000000E+01  0.00000000E+00
  9.60000000E+02  6.40000000E+01  0.00000000E+00
  9.60000000E+02  6.20000000E+01  0.00000000E+00
  9.60000000E+02  6.00000000E+01  0.00000000E+00
  9.60000000E+02  5.80000000E+01  0.00000000E+00
  9.60000000E+02  5.60000000E+01  0.00000000E+00
  9.60000000E+02  5.40000000E+01  0.00000000E+00
  9.60000000E+02  5.20000000E+01  0.00000000E+00
  9.60000000E+02  5.00000000E+01  0.00000000E+00
  9.60000000E+02  4.80000000E+01  0.00000000E+00
  9.60000000E+02  4.60000000E+01  0.00000000E+00
  9.60000000E+02  4.40000000E+01  0.00000000E+00
  9.60000000E+02  4.20000000E+01  0.00000000E+00
  9.60000000E+02  4.00000000E+01  0.00000000E+00
  9.60000000E+02  3.80000000E+01  0.00000000E+00
  9.60000000E+02  3.60000000E+01  0.00000000E+00
  9.60000000E+02  3.40000000E+01  0.00000000E+00
  9.60000000E+02  3.20000000E+01  0.00000000E+00
  9.60000000E+02  3.00000000E+01  0.00000000E+00
  9.60000000E+02  2.80000000E+01  0.00000000E+00
  9.60000000E+02  2.60000000E+01  0.00000000E+00
  9.60000000E+02  2.40000000E+01  0.00000000E+00
  9.60000000E+02  2.20000000E+01  0.00000000E+00
  9.60000000E+02  2.00000000E+01  0.00000000E+00
  9.60000000E+02  1.80000000E+01  0.00000000E+00
  9.60000000E+02  1.60000000E+01  0.00000000E+00
  9.60000000E+02  1.40000000E+01  0.00000000E+00
  9.60000000E+02  1.20000000E+01  0.00000000E+00
  9.60000000E+02  1.00000000E+01  0.00000000E+00
  9.60000000E+02  8.00000000E+00  0.00000000E+00
  9.60000000E+02  6.00000000E+00  0.00000000E+00
  9.60000000E+02  4.00000000E+00  0.00000000E+00
  9.60000000E+02  2.00000000E+00  0.00000000E+00
  9.60000000E+02 -3.33066907E-14  0.00000000E+00
  9.70000000E+02  1.00000000E+02  0.00000000E+00
  9.70000000E+02  9.80000000E+01  0.00000000E+00
  9.70000000E+02  9.60000000E+01  0.00000000E+00
  9.70000000E+02  9.40000000E+01  0.00000000E+00
  9.70000000E+02  9.20000000E+01  0.00000000E+00
  9.70000000E+02  9.00000000E+01  0.00000000E+00
  9.70000000E+02  8.80000000E+01  0.00000000E+00
  9.70000000E+02  8.60000000E+01  0.00000000E+00
  9.70000000E+02  8.40000000E+01  0.00000000E+00
  9.70000000E+02  8.20000000E+01  0.00000000E+00
  9.70000000E+02  8.00000000E+01  0.00000000E+00
  9.70000000E+02  7.80000000E+01  0.00000000E+00
  9.70000000E+02  7.60000000E+01  0.00000000E+00
  9.70000000E+02  7.40000000E+01  0.00000000E+00
  9.70000000E+02  7.20000000E+01  0.00000000E+00
  9.70000000E+02  7.00000000E+01  0.00000000E+00
  9.70000000E+02  6.80000000E+01  0.00000000E+00
  9.70000000E+02  6.60000000E+01  0.00000000E+00
  9.70000000E+02  6.40000000E+01  0.00000000E+00
  9.70000000E+02  6.20000000E+01  0.00000000E+00
  9.70000000E+02  6.00000000E+01  0.00000000E+00
  9.70000000E+02  5.80000000E+01  0.00000000E+00
  9.70000000E+02  5.60000000E+01  0.00000000E+00
  9.70000000E+02  5.40000000E+01  0.00000000E+00
  9.70000000E+02  5.20000000E+01  0.00000000E+00
  9.70000000E+02  5.00000000E+01  0.00000000E+00
  9.70000000E+02  4.80000000E+01  0.00000000E+00
  9.70000000E+02  4.60000000E+01  0.00000000E+00
  9.70000000E+02  4.40000000E+01  0.00000000E+00
  9.70000000E+02  4.20000000E+01  0.00000000E+00
  9.70000000E+02  4.00000000E+01  0.00000000E+00
  9.70000000E+02  3.80000000E+01  0.00000000E+00
  9.70000000E+02  3.60000000E+01  0.00000000E+00
  9.70000000E+02  3.40000000E+01  0.00000000E+00
  9.70000000E+02  3.20000000E+01  0.00000000E+00
  9.70000000E+02  3.00000000E+01  0.00000000E+00
  9.70000000E+02  2.80000000E+01  0.00000000E+00
  9.70000000E+02  2.60000000E+01  0.00000000E+00
  9.70000000E+02  2.40000000E+01  0.00000000E+00
  9.70000000E+02  2.20000000E+01  0.00000000E+00
  9.70000000E+02  2.00000000E+01  0.00000000E+00
  9.70000000E+02  1.80000000E+01  0.00000000E+00
  9.70000000E+02  1.60000000E+01  0.00000000E+00
  9.70000000E+02  1.40000000E+01  0.00000000E+00
  9.70000000E+02  1.20000000E+01  0.00000000E+00
  9.70000000E+02  1.00000000E+01  0.00000000E+00
  9.70000000E+02  8.00000000E+00  0.00000000E+00
  9.70000000E+02  6.00000000E+00  0.00000000E+00
  9.70000000E+02  4.00000000E+00  0.00000000E+00
  9.70000000E+02  2.00000000E+00  0.00000000E+00
  9.70000000E+02 -3.33066907E-14  0.00000000E+00
  9.80000000E+02  1.00000000E+02  0.00000000E+00
  9.80000000E+02  9.80000000E+01  0.00000000E+00
  9.80000000E+02  9.60000000E+01  0.00000000E+00
  9.80000000E+02  9.40000000E+01  0.00000000E+00
  9.80000000E+02  9.20000000E+01  0.00000000E+00
  9.80000000E+02  9.00000000E+01  0.00000000E+00
  9.80000000E+02  8.80000000E+01  0.00000000E+00
  9.80000000E+02  8.60000000E+01  0.00000000E+00
  9.80000000E+02  8.40000000E+01  0.00000000E+00
  9.80000000E+02  8.20000000E+01  0.00000000E+00
  9.80000000E+02  8.00000000E+01  0.00000000E+00
  9.80000000E+02  7.80000000E+01  0.00000000E+00
  9.80000000E+02  7.60000000E+01  0.00000000E+00
  9.80000000E+02  7.40000000E+01  0.00000000E+00
  9.80000000E+02  7.20000000E+01  0.00000000E+00
  9.80000000E+02  7.00000000E+01  0.00000000E+00
  9.80000000E+02  6.80000000E+01  0.00000000E+00
  9.80000000E+02  6.60000000E+01  0.00000000E+00
  9.80000000E+02  6.40000000E+01  0.00000000E+00
  9.80000000E+02  6.20000000E+01  0.00000000E+00
  9.80000000E+02  6.00000000E+01  0.00000000E+00
  9.80000000E+02  5.80000000E+01  0.00000000E+00
  9.80000000E+02  5.60000000E+01  0.00000000E+00
  9.80000000E+02  5.40000000E+01  0.00000000E+00
  9.80000000E+02  5.20000000E+01  0.00000000E+00
  9.80000000E+02  5.00000000E+01  0.00000000E+00
  9.80000000E+02  4.80000000E+01  0.00000000E+00
  9.80000000E+02  4.60000000E+01  0.00000000E+00
  9.80000000E+02  4.40000000E+01  0.00000000E+00
  9.80000000E+02  4.20000000E+01  0.00000000E+00
  9.80000000E+02  4.00000000E+01  0.00000000E+00
  9.80000000E+02  3.80000000E+01  0.00000000E+00
  9.80000000E+02  3.60000000E+01  0.00000000E+00
  9.80000000E+02  3.40000000E+01  0.00000000E+00
  9.80000000E+02  3.20000000E+01  0.00000000E+00
  9.80000000E+02  3.00000000E+01  0.00000000E+00
  9.80000000E+02  2.80000000E+01  0.00000000E+00
  9.80000000E+02  2.60000000E+01  0.00000000E+00
  9.80000000E+02  2.40000000E+01  0.00000000E+00
  9.80000000E+02  2.20000000E+01  0.00000000E+00
  9.80000000E+02  2.00000000E+01  0.00000000E+00
  9.80000000E+02  1.80000000E+01  0.00000000E+00
  9.80000000E+02  1.60000000E+01  0.00000000E+00
  9.80000000E+02  1.40000000E+01  0.00000000E+00
  9.80000000E+02  1.20000000E+01  0.00000000E+00
  9.80000000E+02  1.00000000E+01  0.00000000E+00
  9.80000000E+02  8.00000000E+00  0.00000000E+00
  9.80000000E+02  6.00000000E+00  0.00000000E+00
  9.80000000E+02  4.00000000E+00  0.00000000E+00
  9.80000000E+02  2.00000000E+00  0.00000000E+00
  9.80000000E+02 -3.33066907E-14  0.00000000E+00
  9.90000000E+02  1.00000000E+02  0.00000000E+00
  9.90000000E+02  9.80000000E+01  0.00000000E+00
  9.90000000E+02  9.60000000E+01  0.00000000E+00
  9.90000000E+02  9.40000000E+01  0.00000000E+00
  9.90000000E+02  9.20000000E+01  0.00000000E+00
  9.90000000E+02  9.00000000E+01  0.00000000E+00
  9.90000000E+02  8.80000000E+01  0.00000000E+00
  9.90000000E+02  8.60000000E+01  0.00000000E+00
  9.90000000E+02  8.40000000E+01  0.00000000E+00
  9.90000000E+02  8.20000000E+01  0.00000000E+00
  9.90000000E+02  8.00000000E+01  0.00000000E+00
  9.90000000E+02  7.80000000E+01  0.00000000E+00
  9.90000000E+02  7.60000000E+01  0.00000000E+00
  9.90000000E+02  7.40000000E+01  0.00000000E+00
  9.90000000E+02  7.20000000E+01  0.00000000E+00
  9.90000000E+02  7.00000000E+01  0.00000000E+00
  9.90000000E+02  6.80000000E+01  0.00000000E+00
  9.90000000E+02  6.60000000E+01  0.00000000E+00
  9.90000000E+02  6.40000000E+01  0.00000000E+00
  9.90000000E+02  6.20000000E+01  0.00000000E+00
  9.90000000E+02  6.00000000E+01  0.00000000E+00
  9.90000000E+02  5.80000000E+01  0.00000000E+00
  9.90000000E+02  5.60000000E+01  0.00000000E+00
  9.90000000E+02  5.40000000E+01  0.00000000E+00
  9.90000000E+02  5.20000000E+01  0.00000000E+00
  9.90000000E+02  5.00000000E+01  0.00000000E+00
  9.90000000E+02  4.80000000E+01  0.00000000E+00
  9.90000000E+02  4.60000000E+01  0.00000000E+00
  9.90000000E+02  4.40000000E+01  0.00000000E+00
  9.90000000E+02  4.20000000E+01  0.00000000E+00
  9.90000000E+02  4.00000000E+01  0.00000000E+00
  9.90000000E+02  3.80000000E+01  0.00000000E+00
  9.90000000E+02  3.60000000E+01  0.00000000E+00
  9.90000000E+02  3.40000000E+01  0.00000000E+00
  9.90000000E+02  3.20000000E+01  0.00000000E+00
  9.90000000E+02  3.00000000E+01  0.00000000E+00
  9.90000000E+02  2.80000000E+01  0.00000000E+00
  9.90000000E+02  2.60000000E+01  0.00000000E+00
  9.90000000E+02  2.40000000E+01  0.00000000E+00
  9.90000000E+02  2.20000000E+01  0.00000000E+00
  9.90000000E+02  2.00000000E+01  0.00000000E+00
  9.90000000E+02  1.80000000E+01  0.00000000E+00
  9.90000000E+02  1.60000000E+01  0.00000000E+00
  9.90000000E+02  1.40000000E+01  0.00000000E+00
  9.90000000E+02  1.20000000E+01  0.00000000E+00
  9.90000000E+02  1.00000000E+01  0.00000000E+00
  9.90000000E+02  8.00000000E+00  0.00000000E+00
  9.90000000E+02  6.00000000E+00  0.00000000E+00
  9.90000000E+02  4.00000000E+00  0.00000000E+00
  9.90000000E+02  2.00000000E+00  0.00000000E+00
  9.90000000E+02 -3.33066907E-14  0.00000000E+00
  1.00000000E+03  1.00000000E+02  0.00000000E+00
  1.00000000E+03  9.80000000E+01  0.00000000E+00
  1.00000000E+03  9.60000000E+01  0.00000000E+00
  1.00000000E+03  9.40000000E+01  0.00000000E+00
  1.00000000E+03  9.20000000E+01  0.00000000E+00
  1.00000000E+03  9.00000000E+01  0.00000000E+00
  1.00000000E+03  8.80000000E+01  0.00000000E+00
  1.00000000E+03  8.60000000E+01  0.00000000E+00
  1.00000000E+03  8.40000000E+01  0.00000000E+00
  1.00000000E+03  8.20000000E+01  0.00000000E+00
  1.00000000E+03  8.00000000E+01  0.00000000E+00
  1.00000000E+03  7.80000000E+01  0.00000000E+00
  1.00000000E+03  7.60000000E+01  0.00000000E+00
  1.00000000E+03  7.40000000E+01  0.00000000E+00
  1.00000000E+03  7.20000000E+01  0.00000000E+00
  1.00000000E+03  7.00000000E+01  0.00000000E+00
  1.00000000E+03  6.80000000E+01  0.00000000E+00
  1.00000000E+03  6.60000000E+01  0.00000000E+00
  1.00000000E+03  6.40000000E+01  0.00000000E+00
  1.00000000E+03  6.20000000E+01  0.00000000E+00
  1.00000000E+03  6.00000000E+01  0.00000000E+00
  1.00000000E+03  5.80000000E+01  0.00000000E+00
  1.00000000E+03  5.60000000E+01  0.00000000E+00
  1.00000000E+03  5.40000000E+01  0.00000000E+00
  1.00000000E+03  5.20000000E+01  0.00000000E+00
  1.00000000E+03  5.00000000E+01  0.00000000E+00
  1.00000000E+03  4.80000000E+01  0.00000000E+00
  1.00000000E+03  4.60000000E+01  0.00000000E+00
  1.00000000E+03  4.40000000E+01  0.00000000E+00
  1.00000000E+03  4.20000000E+01  0.00000000E+00
  1.00000000E+03  4.00000000E+01  0.00000000E+00
  1.00000000E+03  3.80000000E+01  0.00000000E+00
  1.00000000E+03  3.60000000E+01  0.00000000E+00
  1.00000000E+03  3.40000000E+01  0.00000000E+00
  1.00000000E+03  3.20000000E+01  0.00000000E+00
  1.00000000E+03  3.00000000E+01  0.00000000E+00
  1.00000000E+03  2.80000000E+01  0.00000000E+00
  1.00000000E+03  2.60000000E+01  0.00000000E+00
  1.00000000E+03  2.40000000E+01  0.00000000E+00
  1.00000000E+03  2.20000000E+01  0.00000000E+00
  1.00000000E+03  2.00000000E+01  0.00000000E+00
  1.00000000E+03  1.80000000E+01  0.00000000E+00
  1.00000000E+03  1.60000000E+01  0.00000000E+00
  1.00000000E+03  1.40000000E+01  0.00000000E+00
  1.00000000E+03  1.20000000E+01  0.00000000E+00
  1.00000000E+03  1.00000000E+01  0.00000000E+00
  1.00000000E+03  8.00000000E+00  0.00000000E+00
  1.00000000E+03  6.00000000E+00  0.00000000E+00
  1.00000000E+03  4.00000000E+00  0.00000000E+00
  1.00000000E+03  2.00000000E+00  0.00000000E+00
  1.00000000E+03 -3.33066907E-14  0.00000000E+00
CELLS      5000     25000
         4           0           1          52          51
         4           1           2          53          52
         4           2           3          54          53
         4           3           4          55          54
         4           4           5          56          55
         4           5           6          57          56
         4           6           7          58          57
         4           7           8          59          58
         4           8           9          60          59
         4           9          10          61          60
         4          10          11          62          61
         4          11          12          63          62
         4          12          13          64          63
         4          13          14          65          64
         4          14          15          66          65
         4          15          16          67          66
         4          16          17          68          67
         4          17          18          69          68
         4          18          19          70          69
         4          19          20          71          70
         4          20          21          72          71
         4          21          22          73          72
         4          22          23          74          73
         4          23          24          75          74
         4          24          25          76          75
         4          25          26          77          76
         4          26          27          78          77
         4          27          28          79          78
         4          28          29          80          79
         4          29          30          81          80
         4          30          31          82          81
         4          31          32          83          82
         4          32          33          84          83
         4          33          34          85          84
         4          34          35          86          85
         4          35          36          87          86
         4          36          37          88          87
         4          37          38          89          88
         4          38          39          90          89
         4          39          40          91          90
         4          40          41          92          91
         4          41          42          93          92
         4          42          43          94          93
         4          43          44          95          94
         4          44          45          96          95
         4          45          46          97          96
         4          46          47          98          97
         4          47          48          99          98
         4          48          49         100          99
         4          49          50         101         100
         4          51          52         103         102
         4          52          53         104         103
         4          53          54         105         104
         4          54          55         106         105
         4          55          56         107         106
         4          56          57         108         107
         4          57          58         109         108
         4          58          59         110         109
         4          59          60         111         110
         4          60          61         112         111
         4          61          62         113         112
         4          62          63         114         113
         4          63          64         115         114
         4          64          65         116         115
         4          65          66         117         116
         4          66          67         118         117
         4          67          68         119         118
         4          68          69         120         119
         4          69          70         121         120
         4          70          71         122         121
         4          71          72         123         122
         4          72          73         124         123
         4          73          74         125         124
         4          74          75         126         125
         4          75          76         127         126
         4          76          77         128         127
         4          77          78         129         128
         4          78          79         130         129
         4          79          80         131         130
         4          80          81         132         131
         4          81          82         133         132
         4          82          83         134         133
         4          83          84         135         134
         4          84          85         136         135
         4          85          86         137         136
         4          86          87         138         137
         4          87          88         139         138
         4          88          89         140         139
         4          89          90         141         140
         4          90          91         142         141
         4          91          92         143         142
         4          92          93         144         143
         4          93          94         145         144
         4          94          95         146         145
         4          95          96         147         146
         4          96          97         148         147
         4          97          98         149         148
         4          98          99         150         149
         4          99         100         151         150
         4         100         101         152         151
         4         102         103         154         153
         4         103         104         155         154
         4         104         105         156         155
         4         105         106         157         156
         4         106         107         158         157
         4         107         108         159         158
         4         108         109         160         159
         4         109         110         161         160
         4         110         111         162         161
         4         111         112         163         162
         4         112         113         164         163
         4         113         114         165         164
         4         114         115         166         165
         4         115         116         167         166
         4         116         117         168         167
         4         117         118         169         168
         4         118         119         170         169
         4         119         120         171         170
         4         120         121         172         171
         4         121         122         173         172
         4         122         123         174         173
         4         123         124         175         174
         4         124         125         176         175
         4         125         126         177         176
         4         126         127         178         177
         4         127         128         179         178
         4         128         129         180         179
         4         129         130         181         180
         4         130         131         182         181
         4         131         132         183         182
         4         132         133         184         183
         4         133         134         185         184
         4         134         135         186         185
         4         135         136         187         186
         4         136         137         188         187
         4         137         138         189         188
         4         138         139         190         189
         4         139         140         191         190
         4         140         141         192         191
         4         141         142         193         192
         4         142         143         194         193
         4         143         144         195         194
         4         144         145         196         195
         4         145         146         197         196
         4         146         147         198         197
         4         147         148         199         198
         4         148         149         200         199
         4         149         150         201         200
         4         150         151         202         201
         4         151         152         203         202
         4         153         154         205         204
         4         154         155         206         205
         4         155         156         207         206
         4         156         157         208         207
         4         157         158         209         208
         4         158         159         210         209
         4         159         160         211         210
         4         160         161         212         211
         4         161         162         213         212
         4         162         163         214         213
         4         163         164         215         214
         4         164         165         216         215
         4         165         166         217         216
         4         166         167         218         217
         4         167         168         219         218
         4         168         169         220         219
         4         169         170         221         220
         4         170         171         222         221
         4         171         172         223         222
         4         172         173         224         223
         4         173         174         225         224
         4         174         175         226         225
         4         175         176         227         226
         4         176         177         228         227
         4         177         178         229         228
         4         178         179         230         229
         4         179         180         231         230
         4         180         181         232         231
         4         181         182         233         232
         4         182         183         234         233
         4         183         184         235         234
         4         184         185         236         235
         4         185         186         237         236
         4         186         187         238         237
         4         187         188         239         238
         4         188         189         240         239
         4         189         190         241         240
         4         190         191         242         241
         4         191         192         243         242
         4         192         193         244         243
         4         193         194         245         244
         4         194         195         246         245
         4         195         196         247         246
         4         196         197         248         247
         4         197         198         249         248
         4         198         199         250         249
         4         199         200         251         250
         4         200         201         252         251
         4         201         202         253         252
         4         202         203         254         253
         4         204         205         256         255
         4         205         206         257         256
         4         206         207         258         257
         4         207         208         259         258
         4         208         209         260         259
         4         209         210         261         260
         4         210         211         262         261
         4         211         212         263         262
         4         212         213         264         263
         4         213         214         265         264
         4         214         215         266         265
         4         215         216         267         266
         4         216         217         268         267
         4         217         218         269         268
         4         218         219         270         269
         4         219         220         271         270
         4         220         221         272         271
         4         221         222         273         272
         4         222         223         274         273
         4         223         224         275         274
         4         224         225         276         275
         4         225         226         277         276
         4         226         227         278         277
         4         227         228         279         278
         4         228         229         280         279
         4         229         230         281         280
         4         230         231         282         281
         4         231         232         283         282
         4         232         233         284         283
         4         233         234         285         284
         4         234         235         286         285
         4         235         236         287         286
         4         236         237         288         287
         4         237         238         289         288
         4         238         239         290         289
         4         239         240         291         290
         4         240         241         292         291
         4         241         242         293         292
         4         242         243         294         293
         4         243         244         295         294
         4         244         245         296         295
         4         245         246         297         296
         4         246         247         298         297
         4         247         248         299         298
         4         248         249         300         299
         4         249         250         301         300
         4         250         251         302         301
         4         251         252         303         302
         4         252         253         304         303
         4         253         254         305         304
         4         255         256         307         306
         4         256         257         308         307
         4         257         258         309         308
         4         258         259         310         309
         4         259         260         311         310
         4         260         261         312         311
         4         261         262         313         312
         4         262         263         314         313
         4         263         264         315         314
         4         264         265         316         315
         4         265         266         317         316
         4         266         267         318         317
         4         267         268         319         318
         4         268         269         320         319
         4         269         270         321         320
         4         270         271         322         321
         4         271         272         323         322
         4         272         273         324         323
         4         273         274         325         324
         4         274         275         326         325
         4         275         276         327         326
         4         276         277         328         327
         4         277         278         329         328
         4         278         279         330         329
         4         279         280         331         330
         4         280         281         332         331
         4         281         282         333         332
         4         282         283         334         333
         4         283         284         335         334
         4         284         285         336         335
         4         285         286         337         336
         4         286         287         338         337
         4         287         288         339         338
         4         288         289         340         339
         4         289         290         341         340
         4         290         291         342         341
         4         291         292         343         342
         4         292         293         344         343
         4         293         294         345         344
         4         294         295         346         345
         4         295         296         347         346
         4         296         297         348         347
         4         297         298         349         348
         4         298         299         350         349
         4         299         300         351         350
         4         300         301         352         351
         4         301         302         353         352
         4         302         303         354         353
         4         303         304         355         354
         4         304         305         356         355
         4         306         307         358         357
         4         307         308         359         358
         4         308         309         360         359
         4         309         310         361         360
         4         310         311         362         361
         4         311         312         363         362
         4         312         313         364         363
         4         313         314         365         364
         4         314         315         366         365
         4         315         316         367         366
         4         316         317         368         367
         4         317         318         369         368
         4         318         319         370         369
         4         319         320         371         370
         4         320         321         372         371
         4         321         322         373         372
         4         322         323         374         373
         4         323         324         375         374
         4         324         325         376         375
         4         325         326         377         376
         4         326         327         378         377
         4         327         328         379         378
         4         328         329         380         379
         4         329         330         381         380
         4         330         331         382         381
         4         331         332         383         382
         4         332         333         384         383
         4         333         334         385         384
         4         334         335         386         385
         4         335         336         387         386
         4         336         337         388         387
         4         337         338         389         388
         4         338         339         390         389
         4         339         340         391         390
         4         340         341         392         391
         4         341         342         393         392
         4         342         343         394         393
         4         343         344         395         394
         4         344         345         396         395
         4         345         346         397         396
         4         346         347         398         397
         4         347         348         399         398
         4         348         349         400         399
         4         349         350         401         400
         4         350         351         402         401
         4         351         352         403         402
         4         352         353         404         403
         4         353         354         405         404
         4         354         355         406         405
         4         355         356         407         406
         4         357         358         409         408
         4         358         359         410         409
         4         359         360         411         410
         4         360         361         412         411
         4         361         362         413         412
         4         362         363         414         413
         4         363         364         415         414
         4         364         365         416         415
         4         365         366         417         416
         4         366         367         418         417
         4         367         368         419         418
         4         368         369         420         419
         4         369         370         421         420
         4         370         371         422         421
         4         371         372         423         422
         4         372         373         424         423
         4         373         374         425         424
         4         374         375         426         425
         4         375         376         427         426
         4         376         377         428         427
         4         377         378         429         428
         4         378         379         430         429
         4         379         380         431         430
         4         380         381         432         431
         4         381         382         433         432
         4         382         383         434         433
         4         383         384         435         434
         4         384         385         436         435
         4         385         386         437         436
         4         386         387         438         437
         4         387         388         439         438
         4         388         389         440         439
         4         389         390         441         440
         4         390         391         442         441
         4         391         392         443         442
         4         392         393         444         443
         4         393         394         445         444
         4         394         395         446         445
         4         395         396         447         446
         4         396         397         448         447
         4         397         398         449         448
         4         398         399         450         449
         4         399         400         451         450
         4         400         401         452         451
         4         401         402         453         452
         4         402         403         454         453
         4         403         404         455         454
         4         404         405         456         455
         4         405         406         457         456
         4         406         407         458         457
         4         408         409         460         459
         4         409         410         461         460
         4         410         411         462         461
         4         411         412         463         462
         4         412         413         464         463
         4         413         414         465         464
         4         414         415         466         465
         4         415         416         467         466
         4         416         417         468         467
         4         417         418         469         468
         4         418         419         470         469
         4         419         420         471         470
         4         420         421         472         471
         4         421         422         473         472
         4         422         423         474         473
         4         423         424         475         474
         4         424         425         476         475
         4         425         426         477         476
         4         426         427         478         477
         4         427         428         479         478
         4         428         429         480         479
         4         429         430         481         480
         4         430         431         482         481
         4         431         432         483         482
         4         432         433         484         483
         4         433         434         485         484
         4         434         435         486         485
         4         435         436         487         486
         4         436         437         488         487
         4         437         438         489         488
         4         438         439         490         489
         4         439         440         491         490
         4         440         441         492         491
         4         441         442         493         492
         4         442         443         494         493
         4         443         444         495         494
         4         444         445         496         495
         4         445         446         497         496
         4         446         447         498         497
         4         447         448         499         498
         4         448         449         500         499
         4         449         450         501         500
         4         450         451         502         501
         4         451         452         503         502
         4         452         453         504         503
         4         453         454         505         504
         4         454         455         506         505
         4         455         456         507         506
         4         456         457         508         507
         4         457         458         509         508
         4         459         460         511         510
         4         460         461         512         511
         4         461         462         513         512
         4         462         463         514         513
         4         463         464         515         514
         4         464         465         516         515
         4         465         466         517         516
         4         466         467         518         517
         4         467         468         519         518
         4         468         469         520         519
         4         469         470         521         520
         4         470         471         522         521
         4         471         472         523         522
         4         472         473         524         523
         4         473         474         525         524
         4         474         475         526         525
         4         475         476         527         526
         4         476         477         528         527
         4         477         478         529         528
         4         478         479         530         529
         4         479         480         531         530
         4         480         481         532         531
         4         481         482         533         532
         4         482         483         534         533
         4         483         484         535         534
         4         484         485         536         535
         4         485         486         537         536
         4         486         487         538         537
         4         487         488         539         538
         4         488         489         540         539
         4         489         490         541         540
         4         490         491         542         541
         4         491         492         543         542
         4         492         493         544         543
         4         493         494         545         544
         4         494         495         546         545
         4         495         496         547         546
         4         496         497         548         547
         4         497         498         549         548
         4         498         499         550         549
         4         499         500         551         550
         4         500         501         552         551
         4         501         502         553         552
         4         502         503         554         553
         4         503         504         555         554
         4         504         505         556         555
         4         505         506         557         556
         4         506         507         558         557
         4         507         508         559         558
         4         508         509         560         559
         4         510         511         562         561
         4         511         512         563         562
         4         512         513         564         563
         4         513         514         565         564
         4         514         515         566         565
         4         515         516         567         566
         4         516         517         568         567
         4         517         518         569         568
         4         518         519         570         569
         4         519         520         571         570
         4         520         521         572         571
         4         521         522         573         572
         4         522         523         574         573
         4         523         524         575         574
         4         524         525         576         575
         4         525         526         577         576
         4         526         527         578         577
         4         527         528         579         578
         4         528         529         580         579
         4         529         530         581         580
         4         530         531         582         581
         4         531         532         583         582
         4         532         533         584         583
         4         533         534         585         584
         4         534         535         586         585
         4         535         536         587         586
         4         536         537         588         587
         4         537         538         589         588
         4         538         539         590         589
         4         539         540         591         590
         4         540         541         592         591
         4         541         542         593         592
         4         542         543         594         593
         4         543         544         595         594
         4         544         545         596         595
         4         545         546         597         596
         4         546         547         598         597
         4         547         548         599         598
         4         548         549         600         599
         4         549         550         601         600
         4         550         551         602         601
         4         551         552         603         602
         4         552         553         604         603
         4         553         554         605         604
         4         554         555         606         605
         4         555         556         607         606
         4         556         557         608         607
         4         557         558         609         608
         4         558         559         610         609
         4         559         560         611         610
         4         561         562         613         612
         4         562         563         614         613
         4         563         564         615         614
         4         564         565         616         615
         4         565         566         617         616
         4         566         567         618         617
         4         567         568         619         618
         4         568         569         620         619
         4         569         570         621         620
         4         570         571         622         621
         4         571         572         623         622
         4         572         573         624         623
         4         573         574         625         624
         4         574         575         626         625
         4         575         576         627         626
         4         576         577         628         627
         4         577         578         629         628
         4         578         579         630         629
         4         579         580         631         630
         4         580         581         632         631
         4         581         582         633         632
         4         582         583         634         633
         4         583         584         635         634
         4         584         585         636         635
         4         585         586         637         636
         4         586         587         638         637
         4         587         588         639         638
         4         588         589         640         639
         4         589         590         641         640
         4         590         591         642         641
         4         591         592         643         642
         4         592         593         644         643
         4         593         594         645         644
         4         594         595         646         645
         4         595         596         647         646
         4         596         597         648         647
         4         597         598         649         648
         4         598         599         650         649
         4         599         600         651         650
         4         600         601         652         651
         4         601         602         653         652
         4         602         603         654         653
         4         603         604         655         654
         4         604         605         656         655
         4         605         606         657         656
         4         606         607         658         657
         4         607         608         659         658
         4         608         609         660         659
         4         609         610         661         660
         4         610         611         662         661
         4         612         613         664         663
         4         613         614         665         664
         4         614         615         666         665
         4         615         616         667         666
         4         616         617         668         667
         4         617         618         669         668
         4         618         619         670         669
         4         619         620         671         670
         4         620         621         672         671
         4         621         622         673         672
         4         622         623         674         673
         4         623         624         675         674
         4         624         625         676         675
         4         625         626         677         676
         4         626         627         678         677
         4         627         628         679         678
         4         628         629         680         679
         4         629         630         681         680
         4         630         631         682         681
         4         631         632         683         682
         4         632         633         684         683
         4         633         634         685         684
         4         634         635         686         685
         4         635         636         687         686
         4         636         637         688         687
         4         637         638         689         688
         4         638         639         690         689
         4         639         640         691         690
         4         640         641         692         691
         4         641         642         693         692
         4         642         643         694         693
         4         643         644         695         694
         4         644         645         696         695
         4         645         646         697         696
         4         646         647         698         697
         4         647         648         699         698
         4         648         649         700         699
         4         649         650         701         700
         4         650         651         702         701
         4         651         652         703         702
         4         652         653         704         703
         4         653         654         705         704
         4         654         655         706         705
         4         655         656         707         706
         4         656         657         708         707
         4         657         658         709         708
         4         658         659         710         709
         4         659         660         711         710
         4         660         661         712         711
         4         661         662         713         712
         4         663         664         715         714
         4         664         665         716         715
         4         665         666         717         716
         4         666         667         718         717
         4         667         668         719         718
         4         668         669         720         719
         4         669         670         721         720
         4         670         671         722         721
         4         671         672         723         722
         4         672         673         724         723
         4         673         674         725         724
         4         674         675         726         725
         4         675         676         727         726
         4         676         677         728         727
         4         677         678         729         728
         4         678         679         730         729
         4         679         680         731         730
         4         680         681         732         731
         4         681         682         733         732
         4         682         683         734         733
         4         683         684         735         734
         4         684         685         736         735
         4         685         686         737         736
         4         686         687         738         737
         4         687         688         739         738
         4         688         689         740         739
         4         689         690         741         740
         4         690         691         742         741
         4         691         692         743         742
         4         692         693         744         743
         4         693         694         745         744
         4         694         695         746         745
         4         695         696         747         746
         4         696         697         748         747
         4         697         698         749         748
         4         698         699         750         749
         4         699         700         751         750
         4         700         701         752         751
         4         701         702         753         752
         4         702         703         754         753
         4         703         704         755         754
         4         704         705         756         755
         4         705         706         757         756
         4         706         707         758         757
         4         707         708         759         758
         4         708         709         760         759
         4         709         710         761         760
         4         710         711         762         761
         4         711         712         763         762
         4         712         713         764         763
         4         714         715         766         765
         4         715         716         767         766
         4         716         717         768         767
         4         717         718         769         768
         4         718         719         770         769
         4         719         720         771         770
         4         720         721         772         771
         4         721         722         773         772
         4         722         723         774         773
         4         723         724         775         774
         4         724         725         776         775
         4         725         726         777         776
         4         726         727         778         777
         4         727         728         779         778
         4         728         729         780         779
         4         729         730         781         780
         4         730         731         782         781
         4         731         732         783         782
         4         732         733         784         783
         4         733         734         785         784
         4         734         735         786         785
         4         735         736         787         786
         4         736         737         788         787
         4         737         738         789         788
         4         738         739         790         789
         4         739         740         791         790
         4         740         741         792         791
         4         741         742         793         792
         4         742         743         794         793
         4         743         744         795         794
         4         744         745         796         795
         4         745         746         797         796
         4         746         747         798         797
         4         747         748         799         798
         4         748         749         800         799
         4         749         750         801         800
         4         750         751         802         801
         4         751         752         803         802
         4         752         753         804         803
         4         753         754         805         804
         4         754         755         806         805
         4         755         756         807         806
         4         756         757         808         807
         4         757         758         809         808
         4         758         759         810         809
         4         759         760         811         810
         4         760         761         812         811
         4         761         762         813         812
         4         762         763         814         813
         4         763         764         815         814
         4         765         766         817         816
         4         766         767         818         817
         4         767         768         819         818
         4         768         769         820         819
         4         769         770         821         820
         4         770         771         822         821
         4         771         772         823         822
         4         772         773         824         823
         4         773         774         825         824
         4         774         775         826         825
         4         775         776         827         826
         4         776         777         828         827
         4         777         778         829         828
         4         778         779         830         829
         4         779         780         831         830
         4         780         781         832         831
         4         781         782         833         832
         4         782         783         834         833
         4         783         784         835         834
         4         784         785         836         835
         4         785         786         837         836
         4         786         787         838         837
         4         787         788         839         838
         4         788         789         840         839
         4         789         790         841         840
         4         790         791         842         841
         4         791         792         843         842
         4         792         793         844         843
         4         793         794         845         844
         4         794         795         846         845
         4         795         796         847         846
         4         796         797         848         847
         4         797         798         849         848
         4         798         799         850         849
         4         799         800         851         850
         4         800         801         852         851
         4         801         802         853         852
         4         802         803         854         853
         4         803         804         855         854
         4         804         805         856         855
         4         805         806         857         856
         4         806         807         858         857
         4         807         808         859         858
         4         808         809         860         859
         4         809         810         861         860
         4         810         811         862         861
         4         811         812         863         862
         4         812         813         864         863
         4         813         814         865         864
         4         814         815         866         865
         4         816         817         868         867
         4         817         818         869         868
         4         818         819         870         869
         4         819         820         871         870
         4         820         821         872         871
         4         821         822         873         872
         4         822         823         874         873
         4         823         824         875         874
         4         824         825         876         875
         4         825         826         877         876
         4         826         827         878         877
         4         827         828         879         878
         4         828         829         880         879
         4         829         830         881         880
         4         830         831         882         881
         4         831         832         883         882
         4         832         833         884         883
         4         833         834         885         884
         4         834         835         886         885
         4         835         836         887         886
         4         836         837         888         887
         4         837         838         889         888
         4         838         839         890         889
         4         839         840         891         890
         4         840         841         892         891
         4         841         842         893         892
         4         842         843         894         893
         4         843         844         895         894
         4         844         845         896         895
         4         845         846         897         896
         4         846         847         898         897
         4         847         848         899         898
         4         848         849         900         899
         4         849         850         901         900
         4         850         851         902         901
         4         851         852         903         902
         4         852         853         904         903
         4         853         854         905         904
         4         854         855         906         905
         4         855         856         907         906
         4         856         857         908         907
         4         857         858         909         908
         4         858         859         910         909
         4         859         860         911         910
         4         860         861         912         911
         4         861         862         913         912
         4         862         863         914         913
         4         863         864         915         914
         4         864         865         916         915
         4         865         866         917         916
         4         867         868         919         918
         4         868         869         920         919
         4         869         870         921         920
         4         870         871         922         921
         4         871         872         923         922
         4         872         873         924         923
         4         873         874         925         924
         4         874         875         926         925
         4         875         876         927         926
         4         876         877         928         927
         4         877         878         929         928
         4         878         879         930         929
         4         879         880         931         930
         4         880         881         932         931
         4         881         882         933         932
         4         882         883         934         933
         4         883         884         935         934
         4         884         885         936         935
         4         885         886         937         936
         4         886         887         938         937
         4         887         888         939         938
         4         888         889         940         939
         4         889         890         941         940
         4         890         891         942         941
         4         891         892         943         942
         4         892         893         944         943
         4         893         894         945         944
         4         894         895         946         945
         4         895         896         947         946
         4         896         897         948         947
         4         897         898         949         948
         4         898         899         950         949
         4         899         900         951         950
         4         900         901         952         951
         4         901         902         953         952
         4         902         903         954         953
         4         903         904         955         954
         4         904         905         956         955
         4         905         906         957         956
         4         906         907         958         957
         4         907         908         959         958
         4         908         909         960         959
         4         909         910         961         960
         4         910         911         962         961
         4         911         912         963         962
         4         912         913         964         963
         4         913         914         965         964
         4         914         915         966         965
         4         915         916         967         966
         4         916         917         968         967
         4         918         919         970         969
         4         919         920         971         970
         4         920         921         972         971
         4         921         922         973         972
         4         922         923         974         973
         4         923         924         975         974
         4         924         925         976         975
         4         925         926         977         976
         4         926         927         978         977
         4         927         928         979         978
         4         928         929         980         979
         4         929         930         981         980
         4         930         931         982         981
         4         931         932         983         982
         4         932         933         984         983
         4         933         934         985         984
         4         934         935         986         985
         4         935         936         987         986
         4         936         937         988         987
         4         937         938         989         988
         4         938         939         990         989
         4         939         940         991         990
         4         940         941         992         991
         4         941         942         993         992
         4         942         943         994         993
         4         943         944         995         994
         4         944         945         996         995
         4         945         946         997         996
         4         946         947         998         997
         4         947         948         999         998
         4         948         949        1000         999
         4         949         950        1001        1000
         4         950         951        1002        1001
         4         951         952        1003        1002
         4         952         953        1004        1003
         4         953         954        1005        1004
         4         954         955        1006        1005
         4         955         956        1007        1006
         4         956         957        1008        1007
         4         957         958        1009        1008
         4         958         959        1010        1009
         4         959         960        1011        1010
         4         960         961        1012        1011
         4         961         962        1013        1012
         4         962         963        1014        1013
         4         963         964        1015        1014
         4         964         965        1016        1015
         4         965         966        1017        1016
         4         966         967        1018        1017
         4         967         968        1019        1018
         4         969         970        1021        1020
         4         970         971        1022        1021
         4         971         972        1023        1022
         4         972         973        1024        1023
         4         973         974        1025        1024
         4         974         975        1026        1025
         4         975         976        1027        1026
         4         976         977        1028        1027
         4         977         978        1029        1028
         4         978         979        1030        1029
         4         979         980        1031        1030
         4         980         981        1032        1031
         4         981         982        1033        1032
         4         982         983        1034        1033
         4         983         984        1035        1034
         4         984         985        1036        1035
         4         985         986        1037        1036
         4         986         987        1038        1037
         4         987         988        1039        1038
         4         988         989        1040        1039
         4         989         990        1041        1040
         4         990         991        1042        1041
         4         991         992        1043        1042
         4         992         993        1044        1043
         4         993         994        1045        1044
         4         994         995        1046        1045
         4         995         996        1047        1046
         4         996         997        1048        1047
         4         997         998        1049        1048
         4         998         999        1050        1049
         4         999        1000        1051        1050
         4        1000        1001        1052        1051
         4        1001        1002        1053        1052
         4        1002        1003        1054        1053
         4        1003        1004        1055        1054
         4        1004        1005        1056        1055
         4        1005        1006        1057        1056
         4        1006        1007        1058        1057
         4        1007        1008        1059        1058
         4        1008        1009        1060        1059
         4        1009        1010        1061        1060
         4        1010        1011        1062        1061
         4        1011        1012        1063        1062
         4        1012        1013        1064        1063
         4        1013        1014        1065        1064
         4        1014        1015        1066        1065
         4        1015        1016        1067        1066
         4        1016        1017        1068        1067
         4        1017        1018        1069        1068
         4        1018        1019        1070        1069
         4        1020        1021        1072        1071
         4        1021        1022        1073        1072
         4        1022        1023        1074        1073
         4        1023        1024        1075        1074
         4        1024        1025        1076        1075
         4        1025        1026        1077        1076
         4        1026        1027        1078        1077
         4        1027        1028        1079        1078
         4        1028        1029        1080        1079
         4        1029        1030        1081        1080
         4        1030        1031        1082        1081
         4        1031        1032        1083        1082
         4        1032        1033        1084        1083
         4        1033        1034        1085        1084
         4        1034        1035        1086        1085
         4        1035        1036        1087        1086
         4        1036        1037        1088        1087
         4        1037        1038        1089        1088
         4        1038        1039        1090        1089
         4        1039        1040        1091        1090
         4        1040        1041        1092        1091
         4        1041        1042        1093        1092
         4        1042        1043        1094        1093
         4        1043        1044        1095        1094
         4        1044        1045        1096        1095
         4        1045        1046        1097        1096
         4        1046        1047        1098        1097
         4        1047        1048        1099        1098
         4        1048        1049        1100        1099
         4        1049        1050        1101        1100
         4        1050        1051        1102        1101
         4        1051        1052        1103        1102
         4        1052        1053        1104        1103
         4        1053        1054        1105        1104
         4        1054        1055        1106        1105
         4        1055        1056        1107        1106
         4        1056        1057        1108        1107
         4        1057        1058        1109        1108
         4        1058        1059        1110        1109
         4        1059        1060        1111        1110
         4        1060        1061        1112        1111
         4        1061        1062        1113        1112
         4        1062        1063        1114        1113
         4        1063        1064        1115        1114
         4        1064        1065        1116        1115
         4        1065        1066        1117        1116
         4        1066        1067        1118        1117
         4        1067        1068        1119        1118
         4        1068        1069        1120        1119
         4        1069        1070        1121        1120
         4        1071        1072        1123        1122
         4        1072        1073        1124        1123
         4        1073        1074        1125        1124
         4        1074        1075        1126        1125
         4        1075        1076        1127        1126
         4        1076        1077        1128        1127
         4        1077        1078        1129        1128
         4        1078        1079        1130        1129
         4        1079        1080        1131        1130
         4        1080        1081        1132        1131
         4        1081        1082        1133        1132
         4        1082        1083        1134        1133
         4        1083        1084        1135        1134
         4        1084        1085        1136        1135
         4        1085        1086        1137        1136
         4        1086        1087        1138        1137
         4        1087        1088        1139        1138
         4        1088        1089        1140        1139
         4        1089        1090        1141        1140
         4        1090        1091        1142        1141
         4        1091        1092        1143        1142
         4        1092        1093        1144        1143
         4        1093        1094        1145        1144
         4        1094        1095        1146        1145
         4        1095        1096        1147        1146
         4        1096        1097        1148        1147
         4        1097        1098        1149        1148
         4        1098        1099        1150        1149
         4        1099        1100        1151        1150
         4        1100        1101        1152        1151
         4        1101        1102        1153        1152
         4        1102        1103        1154        1153
         4        1103        1104        1155        1154
         4        1104        1105        1156        1155
         4        1105        1106        1157        1156
         4        1106        1107        1158        1157
         4        1107        1108        1159        1158
         4        1108        1109        1160        1159
         4        1109        1110        1161        1160
         4        1110        1111        1162        1161
         4        1111        1112        1163        1162
         4        1112        1113        1164        1163
         4        1113        1114        1165        1164
         4        1114        1115        1166        1165
         4        1115        1116        1167        1166
         4        1116        1117        1168        1167
         4        1117        1118        1169        1168
         4        1118        1119        1170        1169
         4        1119        1120        1171        1170
         4        1120        1121        1172        1171
         4        1122        1123        1174        1173
         4        1123        1124        1175        1174
         4        1124        1125        1176        1175
         4        1125        1126        1177        1176
         4        1126        1127        1178        1177
         4        1127        1128        1179        1178
         4        1128        1129        1180        1179
         4        1129        1130        1181        1180
         4        1130        1131        1182        1181
         4        1131        1132        1183        1182
         4        1132        1133        1184        1183
         4        1133        1134        1185        1184
         4        1134        1135        1186        1185
         4        1135        1136        1187        1186
         4        1136        1137        1188        1187
         4        1137        1138        1189        1188
         4        1138        1139        1190        1189
         4        1139        1140        1191        1190
         4        1140        1141        1192        1191
         4        1141        1142        1193        1192
         4        1142        1143        1194        1193
         4        1143        1144        1195        1194
         4        1144        1145        1196        1195
         4        1145        1146        1197        1196
         4        1146        1147        1198        1197
         4        1147        1148        1199        1198
         4        1148        1149        1200        1199
         4        1149        1150        1201        1200
         4        1150        1151        1202        1201
         4        1151        1152        1203        1202
         4        1152        1153        1204        1203
         4        1153        1154        1205        1204
         4        1154        1155        1206        1205
         4        1155        1156        1207        1206
         4        1156        1157        1208        1207
         4        1157        1158        1209        1208
         4        1158        1159        1210        1209
         4        1159        1160        1211        1210
         4        1160        1161        1212        1211
         4        1161        1162        1213        1212
         4        1162        1163        1214        1213
         4        1163        1164        1215        1214
         4        1164        1165        1216        1215
         4        1165        1166        1217        1216
         4        1166        1167        1218        1217
         4        1167        1168        1219        1218
         4        1168        1169        1220        1219
         4        1169        1170        1221        1220
         4        1170        1171        1222        1221
         4        1171        1172        1223        1222
         4        1173        1174        1225        1224
         4        1174        1175        1226        1225
         4        1175        1176        1227        1226
         4        1176        1177        1228        1227
         4        1177        1178        1229        1228
         4        1178        1179        1230        1229
         4        1179        1180        1231        1230
         4        1180        1181        1232        1231
         4        1181        1182        1233        1232
         4        1182        1183        1234        1233
         4        1183        1184        1235        1234
         4        1184        1185        1236        1235
         4        1185        1186        1237        1236
         4        1186        1187        1238        1237
         4        1187        1188        1239        1238
         4        1188        1189        1240        1239
         4        1189        1190        1241        1240
         4        1190        1191        1242        1241
         4        1191        1192        1243        1242
         4        1192        1193        1244        1243
         4        1193        1194        1245        1244
         4        1194        1195        1246        1245
         4        1195        1196        1247        1246
         4        1196        1197        1248        1247
         4        1197        1198        1249        1248
         4        1198        1199        1250        1249
         4        1199        1200        1251        1250
         4        1200        1201        1252        1251
         4        1201        1202        1253        1252
         4        1202        1203        1254        1253
         4        1203        1204        1255        1254
         4        1204        1205        1256        1255
         4        1205        1206        1257        1256
         4        1206        1207        1258        1257
         4        1207        1208        1259        1258
         4        1208        1209        1260        1259
         4        1209        1210        1261        1260
         4        1210        1211        1262        1261
         4        1211        1212        1263        1262
         4        1212        1213        1264        1263
         4        1213        1214        1265        1264
         4        1214        1215        1266        1265
         4        1215        1216        1267        1266
         4        1216        1217        1268        1267
         4        1217        1218        1269        1268
         4        1218        1219        1270        1269
         4        1219        1220        1271        1270
         4        1220        1221        1272        1271
         4        1221        1222        1273        1272
         4        1222        1223        1274        1273
         4        1224        1225        1276        1275
         4        1225        1226        1277        1276
         4        1226        1227        1278        1277
         4        1227        1228        1279        1278
         4        1228        1229        1280        1279
         4        1229        1230        1281        1280
         4        1230        1231        1282        1281
         4        1231        1232        1283        1282
         4        1232        1233        1284        1283
         4        1233        1234        1285        1284
         4        1234        1235        1286        1285
         4        1235        1236        1287        1286
         4        1236        1237        1288        1287
         4        1237        1238        1289        1288
         4        1238        1239        1290        1289
         4        1239        1240        1291        1290
         4        1240        1241        1292        1291
         4        1241        1242        1293        1292
         4        1242        1243        1294        1293
         4        1243        1244        1295        1294
         4        1244        1245        1296        1295
         4        1245        1246        1297        1296
         4        1246        1247        1298        1297
         4        1247        1248        1299        1298
         4        1248        1249        1300        1299
         4        1249        1250        1301        1300
         4        1250        1251        1302        1301
         4        1251        1252        1303        1302
         4        1252        1253        1304        1303
         4        1253        1254        1305        1304
         4        1254        1255        1306        1305
         4        1255        1256        1307        1306
         4        1256        1257        1308        1307
         4        1257        1258        1309        1308
         4        1258        1259        1310        1309
         4        1259        1260        1311        1310
         4        1260        1261        1312        1311
         4        1261        1262        1313        1312
         4        1262        1263        1314        1313
         4        1263        1264        1315        1314
         4        1264        1265        1316        1315
         4        1265        1266        1317        1316
         4        1266        1267        1318        1317
         4        1267        1268        1319        1318
         4        1268        1269        1320        1319
         4        1269        1270        1321        1320
         4        1270        1271        1322        1321
         4        1271        1272        1323        1322
         4        1272        1273        1324        1323
         4        1273        1274        1325        1324
         4        1275        1276        1327        1326
         4        1276        1277        1328        1327
         4        1277        1278        1329        1328
         4        1278        1279        1330        1329
         4        1279        1280        1331        1330
         4        1280        1281        1332        1331
         4        1281        1282        1333        1332
         4        1282        1283        1334        1333
         4        1283        1284        1335        1334
         4        1284        1285        1336        1335
         4        1285        1286        1337        1336
         4        1286        1287        1338        1337
         4        1287        1288        1339        1338
         4        1288        1289        1340        1339
         4        1289        1290        1341        1340
         4        1290        1291        1342        1341
         4        1291        1292        1343        1342
         4        1292        1293        1344        1343
         4        1293        1294        1345        1344
         4        1294        1295        1346        1345
         4        1295        1296        1347        1346
         4        1296        1297        1348        1347
         4        1297        1298        1349        1348
         4        1298        1299        1350        1349
         4        1299        1300        1351        1350
         4        1300        1301        1352        1351
         4        1301        1302        1353        1352
         4        1302        1303        1354        1353
         4        1303        1304        1355        1354
         4        1304        1305        1356        1355
         4        1305        1306        1357        1356
         4        1306        1307        1358        1357
         4        1307        1308        1359        1358
         4        1308        1309        1360        1359
         4        1309        1310        1361        1360
         4        1310        1311        1362        1361
         4        1311        1312        1363        1362
         4        1312        1313        1364        1363
         4        1313        1314        1365        1364
         4        1314        1315        1366        1365
         4        1315        1316        1367        1366
         4        1316        1317        1368        1367
         4        1317        1318        1369        1368
         4        1318        1319        1370        1369
         4        1319        1320        1371        1370
         4        1320        1321        1372        1371
         4        1321        1322        1373        1372
         4        1322        1323        1374        1373
         4        1323        1324        1375        1374
         4        1324        1325        1376        1375
         4        1326        1327        1378        1377
         4        1327        1328        1379        1378
         4        1328        1329        1380        1379
         4        1329        1330        1381        1380
         4        1330        1331        1382        1381
         4        1331        1332        1383        1382
         4        1332        1333        1384        1383
         4        1333        1334        1385        1384
         4        1334        1335        1386        1385
         4        1335        1336        1387        1386
         4        1336        1337        1388        1387
         4        1337        1338        1389        1388
         4        1338        1339        1390        1389
         4        1339        1340        1391        1390
         4        1340        1341        1392        1391
         4        1341        1342        1393        1392
         4        1342        1343        1394        1393
         4        1343        1344        1395        1394
         4        1344        1345        1396        1395
         4        1345        1346        1397        1396
         4        1346        1347        1398        1397
         4        1347        1348        1399        1398
         4        1348        1349        1400        1399
         4        1349        1350        1401        1400
         4        1350        1351        1402        1401
         4        1351        1352        1403        1402
         4        1352        1353        1404        1403
         4        1353        1354        1405        1404
         4        1354        1355        1406        1405
         4        1355        1356        1407        1406
         4        1356        1357        1408        1407
         4        1357        1358        1409        1408
         4        1358        1359        1410        1409
         4        1359        1360        1411        1410
         4        1360        1361        1412        1411
         4        1361        1362        1413        1412
         4        1362        1363        1414        1413
         4        1363        1364        1415        1414
         4        1364        1365        1416        1415
         4        1365        1366        1417        1416
         4        1366        1367        1418        1417
         4        1367        1368        1419        1418
         4        1368        1369        1420        1419
         4        1369        1370        1421        1420
         4        1370        1371        1422        1421
         4        1371        1372        1423        1422
         4        1372        1373        1424        1423
         4        1373        1374        1425        1424
         4        1374        1375        1426        1425
         4        1375        1376        1427        1426
         4        1377        1378        1429        1428
         4        1378        1379        1430        1429
         4        1379        1380        1431        1430
         4        1380        1381        1432        1431
         4        1381        1382        1433        1432
         4        1382        1383        1434        1433
         4        1383        1384        1435        1434
         4        1384        1385        1436        1435
         4        1385        1386        1437        1436
         4        1386        1387        1438        1437
         4        1387        1388        1439        1438
         4        1388        1389        1440        1439
         4        1389        1390        1441        1440
         4        1390        1391        1442        1441
         4        1391        1392        1443        1442
         4        1392        1393        1444        1443
         4        1393        1394        1445        1444
         4        1394        1395        1446        1445
         4        1395        1396        1447        1446
         4        1396        1397        1448        1447
         4        1397        1398        1449        1448
         4        1398        1399        1450        1449
         4        1399        1400        1451        1450
         4        1400        1401        1452        1451
         4        1401        1402        1453        1452
         4        1402        1403        1454        1453
         4        1403        1404        1455        1454
         4        1404        1405        1456        1455
         4        1405        1406        1457        1456
         4        1406        1407        1458        1457
         4        1407        1408        1459        1458
         4        1408        1409        1460        1459
         4        1409        1410        1461        1460
         4        1410        1411        1462        1461
         4        1411        1412        1463        1462
         4        1412        1413        1464        1463
         4        1413        1414        1465        1464
         4        1414        1415        1466        1465
         4        1415        1416        1467        1466
         4        1416        1417        1468        1467
         4        1417        1418        1469        1468
         4        1418        1419        1470        1469
         4        1419        1420        1471        1470
         4        1420        1421        1472        1471
         4        1421        1422        1473        1472
         4        1422        1423        1474        1473
         4        1423        1424        1475        1474
         4        1424        1425        1476        1475
         4        1425        1426        1477        1476
         4        1426        1427        1478        1477
         4        1428        1429        1480        1479
         4        1429        1430        1481        1480
         4        1430        1431        1482        1481
         4        1431        1432        1483        1482
         4        1432        1433        1484        1483
         4        1433        1434        1485        1484
         4        1434        1435        1486        1485
         4        1435        1436        1487        1486
         4        1436        1437        1488        1487
         4        1437        1438        1489        1488
         4        1438        1439        1490        1489
         4        1439        1440        1491        1490
         4        1440        1441        1492        1491
         4        1441        1442        1493        1492
         4        1442        1443        1494        1493
         4        1443        1444        1495        1494
         4        1444        1445        1496        1495
         4        1445        1446        1497        1496
         4        1446        1447        1498        1497
         4        1447        1448        1499        1498
         4        1448        1449        1500        1499
         4        1449        1450        1501        1500
         4        1450        1451        1502        1501
         4        1451        1452        1503        1502
         4        1452        1453        1504        1503
         4        1453        1454        1505        1504
         4        1454        1455        1506        1505
         4        1455        1456        1507        1506
         4        1456        1457        1508        1507
         4        1457        1458        1509        1508
         4        1458        1459        1510        1509
         4        1459        1460        1511        1510
         4        1460        1461        1512        1511
         4        1461        1462        1513        1512
         4        1462        1463        1514        1513
         4        1463        1464        1515        1514
         4        1464        1465        1516        1515
         4        1465        1466        1517        1516
         4        1466        1467        1518        1517
         4        1467        1468        1519        1518
         4        1468        1469        1520        1519
         4        1469        1470        1521        1520
         4        1470        1471        1522        1521
         4        1471        1472        1523        1522
         4        1472        1473        1524        1523
         4        1473        1474        1525        1524
         4        1474        1475        1526        1525
         4        1475        1476        1527        1526
         4        1476        1477        1528        1527
         4        1477        1478        1529        1528
         4        1479        1480        1531        1530
         4        1480        1481        1532        1531
         4        1481        1482        1533        1532
         4        1482        1483        1534        1533
         4        1483        1484        1535        1534
         4        1484        1485        1536        1535
         4        1485        1486        1537        1536
         4        1486        1487        1538        1537
         4        1487        1488        1539        1538
         4        1488        1489        1540        1539
         4        1489        1490        1541        1540
         4        1490        1491        1542        1541
         4        1491        1492        1543        1542
         4        1492        1493        1544        1543
         4        1493        1494        1545        1544
         4        1494        1495        1546        1545
         4        1495        1496        1547        1546
         4        1496        1497        1548        1547
         4        1497        1498        1549        1548
         4        1498        1499        1550        1549
         4        1499        1500        1551        1550
         4        1500        1501        1552        1551
         4        1501        1502        1553        1552
         4        1502        1503        1554        1553
         4        1503        1504        1555        1554
         4        1504        1505        1556        1555
         4        1505        1506        1557        1556
         4        1506        1507        1558        1557
         4        1507        1508        1559        1558
         4        1508        1509        1560        1559
         4        1509        1510        1561        1560
         4        1510        1511        1562        1561
         4        1511        1512        1563        1562
         4        1512        1513        1564        1563
         4        1513        1514        1565        1564
         4        1514        1515        1566        1565
         4        1515        1516        1567        1566
         4        1516        1517        1568        1567
         4        1517        1518        1569        1568
         4        1518        1519        1570        1569
         4        1519        1520        1571        1570
         4        1520        1521        1572        1571
         4        1521        1522        1573        1572
         4        1522        1523        1574        1573
         4        1523        1524        1575        1574
         4        1524        1525        1576        1575
         4        1525        1526        1577        1576
         4        1526        1527        1578        1577
         4        1527        1528        1579        1578
         4        1528        1529        1580        1579
         4        1530        1531        1582        1581
         4        1531        1532        1583        1582
         4        1532        1533        1584        1583
         4        1533        1534        1585        1584
         4        1534        1535        1586        1585
         4        1535        1536        1587        1586
         4        1536        1537        1588        1587
         4        1537        1538        1589        1588
         4        1538        1539        1590        1589
         4        1539        1540        1591        1590
         4        1540        1541        1592        1591
         4        1541        1542        1593        1592
         4        1542        1543        1594        1593
         4        1543        1544        1595        1594
         4        1544        1545        1596        1595
         4        1545        1546        1597        1596
         4        1546        1547        1598        1597
         4        1547        1548        1599        1598
         4        1548        1549        1600        1599
         4        1549        1550        1601        1600
         4        1550        1551        1602        1601
         4        1551        1552        1603        1602
         4        1552        1553        1604        1603
         4        1553        1554        1605        1604
         4        1554        1555        1606        1605
         4        1555        1556        1607        1606
         4        1556        1557        1608        1607
         4        1557        1558        1609        1608
         4        1558        1559        1610        1609
         4        1559        1560        1611        1610
         4        1560        1561        1612        1611
         4        1561        1562        1613        1612
         4        1562        1563        1614        1613
         4        1563        1564        1615        1614
         4        1564        1565        1616        1615
         4        1565        1566        1617        1616
         4        1566        1567        1618        1617
         4        1567        1568        1619        1618
         4        1568        1569        1620        1619
         4        1569        1570        1621        1620
         4        1570        1571        1622        1621
         4        1571        1572        1623        1622
         4        1572        1573        1624        1623
         4        1573        1574        1625        1624
         4        1574        1575        1626        1625
         4        1575        1576        1627        1626
         4        1576        1577        1628        1627
         4        1577        1578        1629        1628
         4        1578        1579        1630        1629
         4        1579        1580        1631        1630
         4        1581        1582        1633        1632
         4        1582        1583        1634        1633
         4        1583        1584        1635        1634
         4        1584        1585        1636        1635
         4        1585        1586        1637        1636
         4        1586        1587        1638        1637
         4        1587        1588        1639        1638
         4        1588        1589        1640        1639
         4        1589        1590        1641        1640
         4        1590        1591        1642        1641
         4        1591        1592        1643        1642
         4        1592        1593        1644        1643
         4        1593        1594        1645        1644
         4        1594        1595        1646        1645
         4        1595        1596        1647        1646
         4        1596        1597        1648        1647
         4        1597        1598        1649        1648
         4        1598        1599        1650        1649
         4        1599        1600        1651        1650
         4        1600        1601        1652        1651
         4        1601        1602        1653        1652
         4        1602        1603        1654        1653
         4        1603        1604        1655        1654
         4        1604        1605        1656        1655
         4        1605        1606        1657        1656
         4        1606        1607        1658        1657
         4        1607        1608        1659        1658
         4        1608        1609        1660        1659
         4        1609        1610        1661        1660
         4        1610        1611        1662        1661
         4        1611        1612        1663        1662
         4        1612        1613        1664        1663
         4        1613        1614        1665        1664
         4        1614        1615        1666        1665
         4        1615        1616        1667        1666
         4        1616        1617        1668        1667
         4        1617        1618        1669        1668
         4        1618        1619        1670        1669
         4        1619        1620        1671        1670
         4        1620        1621        1672        1671
         4        1621        1622        1673        1672
         4        1622        1623        1674        1673
         4        1623        1624        1675        1674
         4        1624        1625        1676        1675
         4        1625        1626        1677        1676
         4        1626        1627        1678        1677
         4        1627        1628        1679        1678
         4        1628        1629        1680        1679
         4        1629        1630        1681        1680
         4        1630        1631        1682        1681
         4        1632        1633        1684        1683
         4        1633        1634        1685        1684
         4        1634        1635        1686        1685
         4        1635        1636        1687        1686
         4        1636        1637        1688        1687
         4        1637        1638        1689        1688
         4        1638        1639        1690        1689
         4        1639        1640        1691        1690
         4        1640        1641        1692        1691
         4        1641        1642        1693        1692
         4        1642        1643        1694        1693
         4        1643        1644        1695        1694
         4        1644        1645        1696        1695
         4        1645        1646        1697        1696
         4        1646        1647        1698        1697
         4        1647        1648        1699        1698
         4        1648        1649        1700        1699
         4        1649        1650        1701        1700
         4        1650        1651        1702        1701
         4        1651        1652        1703        1702
         4        1652        1653        1704        1703
         4        1653        1654        1705        1704
         4        1654        1655        1706        1705
         4        1655        1656        1707        1706
         4        1656        1657        1708        1707
         4        1657        1658        1709        1708
         4        1658        1659        1710        1709
         4        1659        1660        1711        1710
         4        1660        1661        1712        1711
         4        1661        1662        1713        1712
         4        1662        1663        1714        1713
         4        1663        1664        1715        1714
         4        1664        1665        1716        1715
         4        1665        1666        1717        1716
         4        1666        1667        1718        1717
         4        1667        1668        1719        1718
         4        1668        1669        1720        1719
         4        1669        1670        1721        1720
         4        1670        1671        1722        1721
         4        1671        1672        1723        1722
         4        1672        1673        1724        1723
         4        1673        1674        1725        1724
         4        1674        1675        1726        1725
         4        1675        1676        1727        1726
         4        1676        1677        1728        1727
         4        1677        1678        1729        1728
         4        1678        1679        1730        1729
         4        1679        1680        1731        1730
         4        1680        1681        1732        1731
         4        1681        1682        1733        1732
         4        1683        1684        1735        1734
         4        1684        1685        1736        1735
         4        1685        1686        1737        1736
         4        1686        1687        1738        1737
         4        1687        1688        1739        1738
         4        1688        1689        1740        1739
         4        1689        1690        1741        1740
         4        1690        1691        1742        1741
         4        1691        1692        1743        1742
         4        1692        1693        1744        1743
         4        1693        1694        1745        1744
         4        1694        1695        1746        1745
         4        1695        1696        1747        1746
         4        1696        1697        1748        1747
         4        1697        1698        1749        1748
         4        1698        1699        1750        1749
         4        1699        1700        1751        1750
         4        1700        1701        1752        1751
         4        1701        1702        1753        1752
         4        1702        1703        1754        1753
         4        1703        1704        1755        1754
         4        1704        1705        1756        1755
         4        1705        1706        1757        1756
         4        1706        1707        1758        1757
         4        1707        1708        1759        1758
         4        1708        1709        1760        1759
         4        1709        1710        1761        1760
         4        1710        1711        1762        1761
         4        1711        1712        1763        1762
         4        1712        1713        1764        1763
         4        1713        1714        1765        1764
         4        1714        1715        1766        1765
         4        1715        1716        1767        1766
         4        1716        1717        1768        1767
         4        1717        1718        1769        1768
         4        1718        1719        1770        1769
         4        1719        1720        1771        1770
         4        1720        1721        1772        1771
         4        1721        1722        1773        1772
         4        1722        1723        1774        1773
         4        1723        1724        1775        1774
         4        1724        1725        1776        1775
         4        1725        1726        1777        1776
         4        1726        1727        1778        1777
         4        1727        1728        1779        1778
         4        1728        1729        1780        1779
         4        1729        1730        1781        1780
         4        1730        1731        1782        1781
         4        1731        1732        1783        1782
         4        1732        1733        1784        1783
         4        1734        1735        1786        1785
         4        1735        1736        1787        1786
         4        1736        1737        1788        1787
         4        1737        1738        1789        1788
         4        1738        1739        1790        1789
         4        1739        1740        1791        1790
         4        1740        1741        1792        1791
         4        1741        1742        1793        1792
         4        1742        1743        1794        1793
         4        1743        1744        1795        1794
         4        1744        1745        1796        1795
         4        1745        1746        1797        1796
         4        1746        1747        1798        1797
         4        1747        1748        1799        1798
         4        1748        1749        1800        1799
         4        1749        1750        1801        1800
         4        1750        1751        1802        1801
         4        1751        1752        1803        1802
         4        1752        1753        1804        1803
         4        1753        1754        1805        1804
         4        1754        1755        1806        1805
         4        1755        1756        1807        1806
         4        1756        1757        1808        1807
         4        1757        1758        1809        1808
         4        1758        1759        1810        1809
         4        1759        1760        1811        1810
         4        1760        1761        1812        1811
         4        1761        1762        1813        1812
         4        1762        1763        1814        1813
         4        1763        1764        1815        1814
         4        1764        1765        1816        1815
         4        1765        1766        1817        1816
         4        1766        1767        1818        1817
         4        1767        1768        1819        1818
         4        1768        1769        1820        1819
         4        1769        1770        1821        1820
         4        1770        1771        1822        1821
         4        1771        1772        1823        1822
         4        1772        1773        1824        1823
         4        1773        1774        1825        1824
         4        1774        1775        1826        1825
         4        1775        1776        1827        1826
         4        1776        1777        1828        1827
         4        1777        1778        1829        1828
         4        1778        1779        1830        1829
         4        1779        1780        1831        1830
         4        1780        1781        1832        1831
         4        1781        1782        1833        1832
         4        1782        1783        1834        1833
         4        1783        1784        1835        1834
         4        1785        1786        1837        1836
         4        1786        1787        1838        1837
         4        1787        1788        1839        1838
         4        1788        1789        1840        1839
         4        1789        1790        1841        1840
         4        1790        1791        1842        1841
         4        1791        1792        1843        1842
         4        1792        1793        1844        1843
         4        1793        1794        1845        1844
         4        1794        1795        1846        1845
         4        1795        1796        1847        1846
         4        1796        1797        1848        1847
         4        1797        1798        1849        1848
         4        1798        1799        1850        1849
         4        1799        1800        1851        1850
         4        1800        1801        1852        1851
         4        1801        1802        1853        1852
         4        1802        1803        1854        1853
         4        1803        1804        1855        1854
         4        1804        1805        1856        1855
         4        1805        1806        1857        1856
         4        1806        1807        1858        1857
         4        1807        1808        1859        1858
         4        1808        1809        1860        1859
         4        1809        1810        1861        1860
         4        1810        1811        1862        1861
         4        1811        1812        1863        1862
         4        1812        1813        1864        1863
         4        1813        1814        1865        1864
         4        1814        1815        1866        1865
         4        1815        1816        1867        1866
         4        1816        1817        1868        1867
         4        1817        1818        1869        1868
         4        1818        1819        1870        1869
         4        1819        1820        1871        1870
         4        1820        1821        1872        1871
         4        1821        1822        1873        1872
         4        1822        1823        1874        1873
         4        1823        1824        1875        1874
         4        1824        1825        1876        1875
         4        1825        1826        1877        1876
         4        1826        1827        1878        1877
         4        1827        1828        1879        1878
         4        1828        1829        1880        1879
         4        1829        1830        1881        1880
         4        1830        1831        1882        1881
         4        1831        1832        1883        1882
         4        1832        1833        1884        1883
         4        1833        1834        1885        1884
         4        1834        1835        1886        1885
         4        1836        1837        1888        1887
         4        1837        1838        1889        1888
         4        1838        1839        1890        1889
         4        1839        1840        1891        1890
         4        1840        1841        1892        1891
         4        1841        1842        1893        1892
         4        1842        1843        1894        1893
         4        1843        1844        1895        1894
         4        1844        1845        1896        1895
         4        1845        1846        1897        1896
         4        1846        1847        1898        1897
         4        1847        1848        1899        1898
         4        1848        1849        1900        1899
         4        1849        1850        1901        1900
         4        1850        1851        1902        1901
         4        1851        1852        1903        1902
         4        1852        1853        1904        1903
         4        1853        1854        1905        1904
         4        1854        1855        1906        1905
         4        1855        1856        1907        1906
         4        1856        1857        1908        1907
         4        1857        1858        1909        1908
         4        1858        1859        1910        1909
         4        1859        1860        1911        1910
         4        1860        1861        1912        1911
         4        1861        1862        1913        1912
         4        1862        1863        1914        1913
         4        1863        1864        1915        1914
         4        1864        1865        1916        1915
         4        1865        1866        1917        1916
         4        1866        1867        1918        1917
         4        1867        1868        1919        1918
         4        1868        1869        1920        1919
         4        1869        1870        1921        1920
         4        1870        1871        1922        1921
         4        1871        1872        1923        1922
         4        1872        1873        1924        1923
         4        1873        1874        1925        1924
         4        1874        1875        1926        1925
         4        1875        1876        1927        1926
         4        1876        1877        1928        1927
         4        1877        1878        1929        1928
         4        1878        1879        1930        1929
         4        1879        1880        1931        1930
         4        1880        1881        1932        1931
         4        1881        1882        1933        1932
         4        1882        1883        1934        1933
         4        1883        1884        1935        1934
         4        1884        1885        1936        1935
         4        1885        1886        1937        1936
         4        1887        1888        1939        1938
         4        1888        1889        1940        1939
         4        1889        1890        1941        1940
         4        1890        1891        1942        1941
         4        1891        1892        1943        1942
         4        1892        1893        1944        1943
         4        1893        1894        1945        1944
         4        1894        1895        1946        1945
         4        1895        1896        1947        1946
         4        1896        1897        1948        1947
         4        1897        1898        1949        1948
         4        1898        1899        1950        1949
         4        1899        1900        1951        1950
         4        1900        1901        1952        1951
         4        1901        1902        1953        1952
         4        1902        1903        1954        1953
         4        1903        1904        1955        1954
         4        1904        1905        1956        1955
         4        1905        1906        1957        1956
         4        1906        1907        1958        1957
         4        1907        1908        1959        1958
         4        1908        1909        1960        1959
         4        1909        1910        1961        1960
         4        1910        1911        1962        1961
         4        1911        1912        1963        1962
         4        1912        1913        1964        1963
         4        1913        1914        1965        1964
         4        1914        1915        1966        1965
         4        1915        1916        1967        1966
         4        1916        1917        1968        1967
         4        1917        1918        1969        1968
         4        1918        1919        1970        1969
         4        1919        1920        1971        1970
         4        1920        1921        1972        1971
         4        1921        1922        1973        1972
         4        1922        1923        1974        1973
         4        1923        1924        1975        1974
         4        1924        1925        1976        1975
         4        1925        1926        1977        1976
         4        1926        1927        1978        1977
         4        1927        1928        1979        1978
         4        1928        1929        1980        1979
         4        1929        1930        1981        1980
         4        1930        1931        1982        1981
         4        1931        1932        1983        1982
         4        1932        1933        1984        1983
         4        1933        1934        1985        1984
         4        1934        1935        1986        1985
         4        1935        1936        1987        1986
         4        1936        1937        1988        1987
         4        1938        1939        1990        1989
         4        1939        1940        1991        1990
         4        1940        1941        1992        1991
         4        1941        1942        1993        1992
         4        1942        1943        1994        1993
         4        1943        1944        1995        1994
         4        1944        1945        1996        1995
         4        1945        1946        1997        1996
         4        1946        1947        1998        1997
         4        1947        1948        1999        1998
         4        1948        1949        2000        1999
         4        1949        1950        2001        2000
         4        1950        1951        2002        2001
         4        1951        1952        2003        2002
         4        1952        1953        2004        2003
         4        1953        1954        2005        2004
         4        1954        1955        2006        2005
         4        1955        1956        2007        2006
         4        1956        1957        2008        2007
         4        1957        1958        2009        2008
         4        1958        1959        2010        2009
         4        1959        1960        2011        2010
         4        1960        1961        2012        2011
         4        1961        1962        2013        2012
         4        1962        1963        2014        2013
         4        1963        1964        2015        2014
         4        1964        1965        2016        2015
         4        1965        1966        2017        2016
         4        1966        1967        2018        2017
         4        1967        1968        2019        2018
         4        1968        1969        2020        2019
         4        1969        1970        2021        2020
         4        1970        1971        2022        2021
         4        1971        1972        2023        2022
         4        1972        1973        2024        2023
         4        1973        1974        2025        2024
         4        1974        1975        2026        2025
         4        1975        1976        2027        2026
         4        1976        1977        2028        2027
         4        1977        1978        2029        2028
         4        1978        1979        2030        2029
         4        1979        1980        2031        2030
         4        1980        1981        2032        2031
         4        1981        1982        2033        2032
         4        1982        1983        2034        2033
         4        1983        1984        2035        2034
         4        1984        1985        2036        2035
         4        1985        1986        2037        2036
         4        1986        1987        2038        2037
         4        1987        1988        2039        2038
         4        1989        1990        2041        2040
         4        1990        1991        2042        2041
         4        1991        1992        2043        2042
         4        1992        1993        2044        2043
         4        1993        1994        2045        2044
         4        1994        1995        2046        2045
         4        1995        1996        2047        2046
         4        1996        1997        2048        2047
         4        1997        1998        2049        2048
         4        1998        1999        2050        2049
         4        1999        2000        2051        2050
         4        2000        2001        2052        2051
         4        2001        2002        2053        2052
         4        2002        2003        2054        2053
         4        2003        2004        2055        2054
         4        2004        2005        2056        2055
         4        2005        2006        2057        2056
         4        2006        2007        2058        2057
         4        2007        2008        2059        2058
         4        2008        2009        2060        2059
         4        2009        2010        2061        2060
         4        2010        2011        2062        2061
         4        2011        2012        2063        2062
         4        2012        2013        2064        2063
         4        2013        2014        2065        2064
         4        2014        2015        2066        2065
         4        2015        2016        2067        2066
         4        2016        2017        2068        2067
         4        2017        2018        2069        2068
         4        2018        2019        2070        2069
         4        2019        2020        2071        2070
         4        2020        2021        2072        2071
         4        2021        2022        2073        2072
         4        2022        2023        2074        2073
         4        2023        2024        2075        2074
         4        2024        2025        2076        2075
         4        2025        2026        2077        2076
         4        2026        2027        2078        2077
         4        2027        2028        2079        2078
         4        2028        2029        2080        2079
         4        2029        2030        2081        2080
         4        2030        2031        2082        2081
         4        2031        2032        2083        2082
         4        2032        2033        2084        2083
         4        2033        2034        2085        2084
         4        2034        2035        2086        2085
         4        2035        2036        2087        2086
         4        2036        2037        2088        2087
         4        2037        2038        2089        2088
         4        2038        2039        2090        2089
         4        2040        2041        2092        2091
         4        2041        2042        2093        2092
         4        2042        2043        2094        2093
         4        2043        2044        2095        2094
         4        2044        2045        2096        2095
         4        2045        2046        2097        2096
         4        2046        2047        2098        2097
         4        2047        2048        2099        2098
         4        2048        2049        2100        2099
         4        2049        2050        2101        2100
         4        2050        2051        2102        2101
         4        2051        2052        2103        2102
         4        2052        2053        2104        2103
         4        2053        2054        2105        2104
         4        2054        2055        2106        2105
         4        2055        2056        2107        2106
         4        2056        2057        2108        2107
         4        2057        2058        2109        2108
         4        2058        2059        2110        2109
         4        2059        2060        2111        2110
         4        2060        2061        2112        2111
         4        2061        2062        2113        2112
         4        2062        2063        2114        2113
         4        2063        2064        2115        2114
         4        2064        2065        2116        2115
         4        2065        2066        2117        2116
         4        2066        2067        2118        2117
         4        2067        2068        2119        2118
         4        2068        2069        2120        2119
         4        2069        2070        2121        2120
         4        2070        2071        2122        2121
         4        2071        2072        2123        2122
         4        2072        2073        2124        2123
         4        2073        2074        2125        2124
         4        2074        2075        2126        2125
         4        2075        2076        2127        2126
         4        2076        2077        2128        2127
         4        2077        2078        2129        2128
         4        2078        2079        2130        2129
         4        2079        2080        2131        2130
         4        2080        2081        2132        2131
         4        2081        2082        2133        2132
         4        2082        2083        2134        2133
         4        2083        2084        2135        2134
         4        2084        2085        2136        2135
         4        2085        2086        2137        2136
         4        2086        2087        2138        2137
         4        2087        2088        2139        2138
         4        2088        2089        2140        2139
         4        2089        2090        2141        2140
         4        2091        2092        2143        2142
         4        2092        2093        2144        2143
         4        2093        2094        2145        2144
         4        2094        2095        2146        2145
         4        2095        2096        2147        2146
         4        2096        2097        2148        2147
         4        2097        2098        2149        2148
         4        2098        2099        2150        2149
         4        2099        2100        2151        2150
         4        2100        2101        2152        2151
         4        2101        2102        2153        2152
         4        2102        2103        2154        2153
         4        2103        2104        2155        2154
         4        2104        2105        2156        2155
         4        2105        2106        2157        2156
         4        2106        2107        2158        2157
         4        2107        2108        2159        2158
         4        2108        2109        2160        2159
         4        2109        2110        2161        2160
         4        2110        2111        2162        2161
         4        2111        2112        2163        2162
         4        2112        2113        2164        2163
         4        2113        2114        2165        2164
         4        2114        2115        2166        2165
         4        2115        2116        2167        2166
         4        2116        2117        2168        2167
         4        2117        2118        2169        2168
         4        2118        2119        2170        2169
         4        2119        2120        2171        2170
         4        2120        2121        2172        2171
         4        2121        2122        2173        2172
         4        2122        2123        2174        2173
         4        2123        2124        2175        2174
         4        2124        2125        2176        2175
         4        2125        2126        2177        2176
         4        2126        2127        2178        2177
         4        2127        2128        2179        2178
         4        2128        2129        2180        2179
         4        2129        2130        2181        2180
         4        2130        2131        2182        2181
         4        2131        2132        2183        2182
         4        2132        2133        2184        2183
         4        2133        2134        2185        2184
         4        2134        2135        2186        2185
         4        2135        2136        2187        2186
         4        2136        2137        2188        2187
         4        2137        2138        2189        2188
         4        2138        2139        2190        2189
         4        2139        2140        2191        2190
         4        2140        2141        2192        2191
         4        2142        2143        2194        2193
         4        2143        2144        2195        2194
         4        2144        2145        2196        2195
         4        2145        2146        2197        2196
         4        2146        2147        2198        2197
         4        2147        2148        2199        2198
         4        2148        2149        2200        2199
         4        2149        2150        2201        2200
         4        2150        2151        2202        2201
         4        2151        2152        2203        2202
         4        2152        2153        2204        2203
         4        2153        2154        2205        2204
         4        2154        2155        2206        2205
         4        2155        2156        2207        2206
         4        2156        2157        2208        2207
         4        2157        2158        2209        2208
         4        2158        2159        2210        2209
         4        2159        2160        2211        2210
         4        2160        2161        2212        2211
         4        2161        2162        2213        2212
         4        2162        2163        2214        2213
         4        2163        2164        2215        2214
         4        2164        2165        2216        2215
         4        2165        2166        2217        2216
         4        2166        2167        2218        2217
         4        2167        2168        2219        2218
         4        2168        2169        2220        2219
         4        2169        2170        2221        2220
         4        2170        2171        2222        2221
         4        2171        2172        2223        2222
         4        2172        2173        2224        2223
         4        2173        2174        2225        2224
         4        2174        2175        2226        2225
         4        2175        2176        2227        2226
         4        2176        2177        2228        2227
         4        2177        2178        2229        2228
         4        2178        2179        2230        2229
         4        2179        2180        2231        2230
         4        2180        2181        2232        2231
         4        2181        2182        2233        2232
         4        2182        2183        2234        2233
         4        2183        2184        2235        2234
         4        2184        2185        2236        2235
         4        2185        2186        2237        2236
         4        2186        2187        2238        2237
         4        2187        2188        2239        2238
         4        2188        2189        2240        2239
         4        2189        2190        2241        2240
         4        2190        2191        2242        2241
         4        2191        2192        2243        2242
         4        2193        2194        2245        2244
         4        2194        2195        2246        2245
         4        2195        2196        2247        2246
         4        2196        2197        2248        2247
         4        2197        2198        2249        2248
         4        2198        2199        2250        2249
         4        2199        2200        2251        2250
         4        2200        2201        2252        2251
         4        2201        2202        2253        2252
         4        2202        2203        2254        2253
         4        2203        2204        2255        2254
         4        2204        2205        2256        2255
         4        2205        2206        2257        2256
         4        2206        2207        2258        2257
         4        2207        2208        2259        2258
         4        2208        2209        2260        2259
         4        2209        2210        2261        2260
         4        2210        2211        2262        2261
         4        2211        2212        2263        2262
         4        2212        2213        2264        2263
         4        2213        2214        2265        2264
         4        2214        2215        2266        2265
         4        2215        2216        2267        2266
         4        2216        2217        2268        2267
         4        2217        2218        2269        2268
         4        2218        2219        2270        2269
         4        2219        2220        2271        2270
         4        2220        2221        2272        2271
         4        2221        2222        2273        2272
         4        2222        2223        2274        2273
         4        2223        2224        2275        2274
         4        2224        2225        2276        2275
         4        2225        2226        2277        2276
         4        2226        2227        2278        2277
         4        2227        2228        2279        2278
         4        2228        2229        2280        2279
         4        2229        2230        2281        2280
         4        2230        2231        2282        2281
         4        2231        2232        2283        2282
         4        2232        2233        2284        2283
         4        2233        2234        2285        2284
         4        2234        2235        2286        2285
         4        2235        2236        2287        2286
         4        2236        2237        2288        2287
         4        2237        2238        2289        2288
         4        2238        2239        2290        2289
         4        2239        2240        2291        2290
         4        2240        2241        2292        2291
         4        2241        2242        2293        2292
         4        2242        2243        2294        2293
         4        2244        2245        2296        2295
         4        2245        2246        2297        2296
         4        2246        2247        2298        2297
         4        2247        2248        2299        2298
         4        2248        2249        2300        2299
         4        2249        2250        2301        2300
         4        2250        2251        2302        2301
         4        2251        2252        2303        2302
         4        2252        2253        2304        2303
         4        2253        2254        2305        2304
         4        2254        2255        2306        2305
         4        2255        2256        2307        2306
         4        2256        2257        2308        2307
         4        2257        2258        2309        2308
         4        2258        2259        2310        2309
         4        2259        2260        2311        2310
         4        2260        2261        2312        2311
         4        2261        2262        2313        2312
         4        2262        2263        2314        2313
         4        2263        2264        2315        2314
         4        2264        2265        2316        2315
         4        2265        2266        2317        2316
         4        2266        2267        2318        2317
         4        2267        2268        2319        2318
         4        2268        2269        2320        2319
         4        2269        2270        2321        2320
         4        2270        2271        2322        2321
         4        2271        2272        2323        2322
         4        2272        2273        2324        2323
         4        2273        2274        2325        2324
         4        2274        2275        2326        2325
         4        2275        2276        2327        2326
         4        2276        2277        2328        2327
         4        2277        2278        2329        2328
         4        2278        2279        2330        2329
         4        2279        2280        2331        2330
         4        2280        2281        2332        2331
         4        2281        2282        2333        2332
         4        2282        2283        2334        2333
         4        2283        2284        2335        2334
         4        2284        2285        2336        2335
         4        2285        2286        2337        2336
         4        2286        2287        2338        2337
         4        2287        2288        2339        2338
         4        2288        2289        2340        2339
         4        2289        2290        2341        2340
         4        2290        2291        2342        2341
         4        2291        2292        2343        2342
         4        2292        2293        2344        2343
         4        2293        2294        2345        2344
         4        2295        2296        2347        2346
         4        2296        2297        2348        2347
         4        2297        2298        2349        2348
         4        2298        2299        2350        2349
         4        2299        2300        2351        2350
         4        2300        2301        2352        2351
         4        2301        2302        2353        2352
         4        2302        2303        2354        2353
         4        2303        2304        2355        2354
         4        2304        2305        2356        2355
         4        2305        2306        2357        2356
         4        2306        2307        2358        2357
         4        2307        2308        2359        2358
         4        2308        2309        2360        2359
         4        2309        2310        2361        2360
         4        2310        2311        2362        2361
         4        2311        2312        2363        2362
         4        2312        2313        2364        2363
         4        2313        2314        2365        2364
         4        2314        2315        2366        2365
         4        2315        2316        2367        2366
         4        2316        2317        2368        2367
         4        2317        2318        2369        2368
         4        2318        2319        2370        2369
         4        2319        2320        2371        2370
         4        2320        2321        2372        2371
         4        2321        2322        2373        2372
         4        2322        2323        2374        2373
         4        2323        2324        2375        2374
         4        2324        2325        2376        2375
         4        2325        2326        2377        2376
         4        2326        2327        2378        2377
         4        2327        2328        2379        2378
         4        2328        2329        2380        2379
         4        2329        2330        2381        2380
         4        2330        2331        2382        2381
         4        2331        2332        2383        2382
         4        2332        2333        2384        2383
         4        2333        2334        2385        2384
         4        2334        2335        2386        2385
         4        2335        2336        2387        2386
         4        2336        2337        2388        2387
         4        2337        2338        2389        2388
         4        2338        2339        2390        2389
         4        2339        2340        2391        2390
         4        2340        2341        2392        2391
         4        2341        2342        2393        2392
         4        2342        2343        2394        2393
         4        2343        2344        2395        2394
         4        2344        2345        2396        2395
         4        2346        2347        2398        2397
         4        2347        2348        2399        2398
         4        2348        2349        2400        2399
         4        2349        2350        2401        2400
         4        2350        2351        2402        2401
         4        2351        2352        2403        2402
         4        2352        2353        2404        2403
         4        2353        2354        2405        2404
         4        2354        2355        2406        2405
         4        2355        2356        2407        2406
         4        2356        2357        2408        2407
         4        2357        2358        2409        2408
         4        2358        2359        2410        2409
         4        2359        2360        2411        2410
         4        2360        2361        2412        2411
         4        2361        2362        2413        2412
         4        2362        2363        2414        2413
         4        2363        2364        2415        2414
         4        2364        2365        2416        2415
         4        2365        2366        2417        2416
         4        2366        2367        2418        2417
         4        2367        2368        2419        2418
         4        2368        2369        2420        2419
         4        2369        2370        2421        2420
         4        2370        2371        2422        2421
         4        2371        2372        2423        2422
         4        2372        2373        2424        2423
         4        2373        2374        2425        2424
         4        2374        2375        2426        2425
         4        2375        2376        2427        2426
         4        2376        2377        2428        2427
         4        2377        2378        2429        2428
         4        2378        2379        2430        2429
         4        2379        2380        2431        2430
         4        2380        2381        2432        2431
         4        2381        2382        2433        2432
         4        2382        2383        2434        2433
         4        2383        2384        2435        2434
         4        2384        2385        2436        2435
         4        2385        2386        2437        2436
         4        2386        2387        2438        2437
         4        2387        2388        2439        2438
         4        2388        2389        2440        2439
         4        2389        2390        2441        2440
         4        2390        2391        2442        2441
         4        2391        2392        2443        2442
         4        2392        2393        2444        2443
         4        2393        2394        2445        2444
         4        2394        2395        2446        2445
         4        2395        2396        2447        2446
         4        2397        2398        2449        2448
         4        2398        2399        2450        2449
         4        2399        2400        2451        2450
         4        2400        2401        2452        2451
         4        2401        2402        2453        2452
         4        2402        2403        2454        2453
         4        2403        2404        2455        2454
         4        2404        2405        2456        2455
         4        2405        2406        2457        2456
         4        2406        2407        2458        2457
         4        2407        2408        2459        2458
         4        2408        2409        2460        2459
         4        2409        2410        2461        2460
         4        2410        2411        2462        2461
         4        2411        2412        2463        2462
         4        2412        2413        2464        2463
         4        2413        2414        2465        2464
         4        2414        2415        2466        2465
         4        2415        2416        2467        2466
         4        2416        2417        2468        2467
         4        2417        2418        2469        2468
         4        2418        2419        2470        2469
         4        2419        2420        2471        2470
         4        2420        2421        2472        2471
         4        2421        2422        2473        2472
         4        2422        2423        2474        2473
         4        2423        2424        2475        2474
         4        2424        2425        2476        2475
         4        2425        2426        2477        2476
         4        2426        2427        2478        2477
         4        2427        2428        2479        2478
         4        2428        2429        2480        2479
         4        2429        2430        2481        2480
         4        2430        2431        2482        2481
         4        2431        2432        2483        2482
         4        2432        2433        2484        2483
         4        2433        2434        2485        2484
         4        2434        2435        2486        2485
         4        2435        2436        2487        2486
         4        2436        2437        2488        2487
         4        2437        2438        2489        2488
         4        2438        2439        2490        2489
         4        2439        2440        2491        2490
         4        2440        2441        2492        2491
         4        2441        2442        2493        2492
         4        2442        2443        2494        2493
         4        2443        2444        2495        2494
         4        2444        2445        2496        2495
         4        2445        2446        2497        2496
         4        2446        2447        2498        2497
         4        2448        2449        2500        2499
         4        2449        2450        2501        2500
         4        2450        2451        2502        2501
         4        2451        2452        2503        2502
         4        2452        2453        2504        2503
         4        2453        2454        2505        2504
         4        2454        2455        2506        2505
         4        2455        2456        2507        2506
         4        2456        2457        2508        2507
         4        2457        2458        2509        2508
         4        2458        2459        2510        2509
         4        2459        2460        2511        2510
         4        2460        2461        2512        2511
         4        2461        2462        2513        2512
         4        2462        2463        2514        2513
         4        2463        2464        2515        2514
         4        2464        2465        2516        2515
         4        2465        2466        2517        2516
         4        2466        2467        2518        2517
         4        2467        2468        2519        2518
         4        2468        2469        2520        2519
         4        2469        2470        2521        2520
         4        2470        2471        2522        2521
         4        2471        2472        2523        2522
         4        2472        2473        2524        2523
         4        2473        2474        2525        2524
         4        2474        2475        2526        2525
         4        2475        2476        2527        2526
         4        2476        2477        2528        2527
         4        2477        2478        2529        2528
         4        2478        2479        2530        2529
         4        2479        2480        2531        2530
         4        2480        2481        2532        2531
         4        2481        2482        2533        2532
         4        2482        2483        2534        2533
         4        2483        2484        2535        2534
         4        2484        2485        2536        2535
         4        2485        2486        2537        2536
         4        2486        2487        2538        2537
         4        2487        2488        2539        2538
         4        2488        2489        2540        2539
         4        2489        2490        2541        2540
         4        2490        2491        2542        2541
         4        2491        2492        2543        2542
         4        2492        2493        2544        2543
         4        2493        2494        2545        2544
         4        2494        2495        2546        2545
         4        2495        2496        2547        2546
         4        2496        2497        2548        2547
         4        2497        2498        2549        2548
         4        2499        2500        2551        2550
         4        2500        2501        2552        2551
         4        2501        2502        2553        2552
         4        2502        2503        2554        2553
         4        2503        2504        2555        2554
         4        2504        2505        2556        2555
         4        2505        2506        2557        2556
         4        2506        2507        2558        2557
         4        2507        2508        2559        2558
         4        2508        2509        2560        2559
         4        2509        2510        2561        2560
         4        2510        2511        2562        2561
         4        2511        2512        2563        2562
         4        2512        2513        2564        2563
         4        2513        2514        2565        2564
         4        2514        2515        2566        2565
         4        2515        2516        2567        2566
         4        2516        2517        2568        2567
         4        2517        2518        2569        2568
         4        2518        2519        2570        2569
         4        2519        2520        2571        2570
         4        2520        2521        2572        2571
         4        2521        2522        2573        2572
         4        2522        2523        2574        2573
         4        2523        2524        2575        2574
         4        2524        2525        2576        2575
         4        2525        2526        2577        2576
         4        2526        2527        2578        2577
         4        2527        2528        2579        2578
         4        2528        2529        2580        2579
         4        2529        2530        2581        2580
         4        2530        2531        2582        2581
         4        2531        2532        2583        2582
         4        2532        2533        2584        2583
         4        2533        2534        2585        2584
         4        2534        2535        2586        2585
         4        2535        2536        2587        2586
         4        2536        2537        2588        2587
         4        2537        2538        2589        2588
         4        2538        2539        2590        2589
         4        2539        2540        2591        2590
         4        2540        2541        2592        2591
         4        2541        2542        2593        2592
         4        2542        2543        2594        2593
         4        2543        2544        2595        2594
         4        2544        2545        2596        2595
         4        2545        2546        2597        2596
         4        2546        2547        2598        2597
         4        2547        2548        2599        2598
         4        2548        2549        2600        2599
         4        2550        2551        2602        2601
         4        2551        2552        2603        2602
         4        2552        2553        2604        2603
         4        2553        2554        2605        2604
         4        2554        2555        2606        2605
         4        2555        2556        2607        2606
         4        2556        2557        2608        2607
         4        2557        2558        2609        2608
         4        2558        2559        2610        2609
         4        2559        2560        2611        2610
         4        2560        2561        2612        2611
         4        2561        2562        2613        2612
         4        2562        2563        2614        2613
         4        2563        2564        2615        2614
         4        2564        2565        2616        2615
         4        2565        2566        2617        2616
         4        2566        2567        2618        2617
         4        2567        2568        2619        2618
         4        2568        2569        2620        2619
         4        2569        2570        2621        2620
         4        2570        2571        2622        2621
         4        2571        2572        2623        2622
         4        2572        2573        2624        2623
         4        2573        2574        2625        2624
         4        2574        2575        2626        2625
         4        2575        2576        2627        2626
         4        2576        2577        2628        2627
         4        2577        2578        2629        2628
         4        2578        2579        2630        2629
         4        2579        2580        2631        2630
         4        2580        2581        2632        2631
         4        2581        2582        2633        2632
         4        2582        2583        2634        2633
         4        2583        2584        2635        2634
         4        2584        2585        2636        2635
         4        2585        2586        2637        2636
         4        2586        2587        2638        2637
         4        2587        2588        2639        2638
         4        2588        2589        2640        2639
         4        2589        2590        2641        2640
         4        2590        2591        2642        2641
         4        2591        2592        2643        2642
         4        2592        2593        2644        2643
         4        2593        2594        2645        2644
         4        2594        2595        2646        2645
         4        2595        2596        2647        2646
         4        2596        2597        2648        2647
         4        2597        2598        2649        2648
         4        2598        2599        2650        2649
         4        2599        2600        2651        2650
         4        2601        2602        2653        2652
         4        2602        2603        2654        2653
         4        2603        2604        2655        2654
         4        2604        2605        2656        2655
         4        2605        2606        2657        2656
         4        2606        2607        2658        2657
         4        2607        2608        2659        2658
         4        2608        2609        2660        2659
         4        2609        2610        2661        2660
         4        2610        2611        2662        2661
         4        2611        2612        2663        2662
         4        2612        2613        2664        2663
         4        2613        2614        2665        2664
         4        2614        2615        2666        2665
         4        2615        2616        2667        2666
         4        2616        2617        2668        2667
         4        2617        2618        2669        2668
         4        2618        2619        2670        2669
         4        2619        2620        2671        2670
         4        2620        2621        2672        2671
         4        2621        2622        2673        2672
         4        2622        2623        2674        2673
         4        2623        2624        2675        2674
         4        2624        2625        2676        2675
         4        2625        2626        2677        2676
         4        2626        2627        2678        2677
         4        2627        2628        2679        2678
         4        2628        2629        2680        2679
         4        2629        2630        2681        2680
         4        2630        2631        2682        2681
         4        2631        2632        2683        2682
         4        2632        2633        2684        2683
         4        2633        2634        2685        2684
         4        2634        2635        2686        2685
         4        2635        2636        2687        2686
         4        2636        2637        2688        2687
         4        2637        2638        2689        2688
         4        2638        2639        2690        2689
         4        2639        2640        2691        2690
         4        2640        2641        2692        2691
         4        2641        2642        2693        2692
         4        2642        2643        2694        2693
         4        2643        2644        2695        2694
         4        2644        2645        2696        2695
         4        2645        2646        2697        2696
         4        2646        2647        2698        2697
         4        2647        2648        2699        2698
         4        2648        2649        2700        2699
         4        2649        2650        2701        2700
         4        2650        2651        2702        2701
         4        2652        2653        2704        2703
         4        2653        2654        2705        2704
         4        2654        2655        2706        2705
         4        2655        2656        2707        2706
         4        2656        2657        2708        2707
         4        2657        2658        2709        2708
         4        2658        2659        2710        2709
         4        2659        2660        2711        2710
         4        2660        2661        2712        2711
         4        2661        2662        2713        2712
         4        2662        2663        2714        2713
         4        2663        2664        2715        2714
         4        2664        2665        2716        2715
         4        2665        2666        2717        2716
         4        2666        2667        2718        2717
         4        2667        2668        2719        2718
         4        2668        2669        2720        2719
         4        2669        2670        2721        2720
         4        2670        2671        2722        2721
         4        2671        2672        2723        2722
         4        2672        2673        2724        2723
         4        2673        2674        2725        2724
         4        2674        2675        2726        2725
         4        2675        2676        2727        2726
         4        2676        2677        2728        2727
         4        2677        2678        2729        2728
         4        2678        2679        2730        2729
         4        2679        2680        2731        2730
         4        2680        2681        2732        2731
         4        2681        2682        2733        2732
         4        2682        2683        2734        2733
         4        2683        2684        2735        2734
         4        2684        2685        2736        2735
         4        2685        2686        2737        2736
         4        2686        2687        2738        2737
         4        2687        2688        2739        2738
         4        2688        2689        2740        2739
         4        2689        2690        2741        2740
         4        2690        2691        2742        2741
         4        2691        2692        2743        2742
         4        2692        2693        2744        2743
         4        2693        2694        2745        2744
         4        2694        2695        2746        2745
         4        2695        2696        2747        2746
         4        2696        2697        2748        2747
         4        2697        2698        2749        2748
         4        2698        2699        2750        2749
         4        2699        2700        2751        2750
         4        2700        2701        2752        2751
         4        2701        2702        2753        2752
         4        2703        2704        2755        2754
         4        2704        2705        2756        2755
         4        2705        2706        2757        2756
         4        2706        2707        2758        2757
         4        2707        2708        2759        2758
         4        2708        2709        2760        2759
         4        2709        2710        2761        2760
         4        2710        2711        2762        2761
         4        2711        2712        2763        2762
         4        2712        2713        2764        2763
         4        2713        2714        2765        2764
         4        2714        2715        2766        2765
         4        2715        2716        2767        2766
         4        2716        2717        2768        2767
         4        2717        2718        2769        2768
         4        2718        2719        2770        2769
         4        2719        2720        2771        2770
         4        2720        2721        2772        2771
         4        2721        2722        2773        2772
         4        2722        2723        2774        2773
         4        2723        2724        2775        2774
         4        2724        2725        2776        2775
         4        2725        2726        2777        2776
         4        2726        2727        2778        2777
         4        2727        2728        2779        2778
         4        2728        2729        2780        2779
         4        2729        2730        2781        2780
         4        2730        2731        2782        2781
         4        2731        2732        2783        2782
         4        2732        2733        2784        2783
         4        2733        2734        2785        2784
         4        2734        2735        2786        2785
         4        2735        2736        2787        2786
         4        2736        2737        2788        2787
         4        2737        2738        2789        2788
         4        2738        2739        2790        2789
         4        2739        2740        2791        2790
         4        2740        2741        2792        2791
         4        2741        2742        2793        2792
         4        2742        2743        2794        2793
         4        2743        2744        2795        2794
         4        2744        2745        2796        2795
         4        2745        2746        2797        2796
         4        2746        2747        2798        2797
         4        2747        2748        2799        2798
         4        2748        2749        2800        2799
         4        2749        2750        2801        2800
         4        2750        2751        2802        2801
         4        2751        2752        2803        2802
         4        2752        2753        2804        2803
         4        2754        2755        2806        2805
         4        2755        2756        2807        2806
         4        2756        2757        2808        2807
         4        2757        2758        2809        2808
         4        2758        2759        2810        2809
         4        2759        2760        2811        2810
         4        2760        2761        2812        2811
         4        2761        2762        2813        2812
         4        2762        2763        2814        2813
         4        2763        2764        2815        2814
         4        2764        2765        2816        2815
         4        2765        2766        2817        2816
         4        2766        2767        2818        2817
         4        2767        2768        2819        2818
         4        2768        2769        2820        2819
         4        2769        2770        2821        2820
         4        2770        2771        2822        2821
         4        2771        2772        2823        2822
         4        2772        2773        2824        2823
         4        2773        2774        2825        2824
         4        2774        2775        2826        2825
         4        2775        2776        2827        2826
         4        2776        2777        2828        2827
         4        2777        2778        2829        2828
         4        2778        2779        2830        2829
         4        2779        2780        2831        2830
         4        2780        2781        2832        2831
         4        2781        2782        2833        2832
         4        2782        2783        2834        2833
         4        2783        2784        2835        2834
         4        2784        2785        2836        2835
         4        2785        2786        2837        2836
         4        2786        2787        2838        2837
         4        2787        2788        2839        2838
         4        2788        2789        2840        2839
         4        2789        2790        2841        2840
         4        2790        2791        2842        2841
         4        2791        2792        2843        2842
         4        2792        2793        2844        2843
         4        2793        2794        2845        2844
         4        2794        2795        2846        2845
         4        2795        2796        2847        2846
         4        2796        2797        2848        2847
         4        2797        2798        2849        2848
         4        2798        2799        2850        2849
         4        2799        2800        2851        2850
         4        2800        2801        2852        2851
         4        2801        2802        2853        2852
         4        2802        2803        2854        2853
         4        2803        2804        2855        2854
         4        2805        2806        2857        2856
         4        2806        2807        2858        2857
         4        2807        2808        2859        2858
         4        2808        2809        2860        2859
         4        2809        2810        2861        2860
         4        2810        2811        2862        2861
         4        2811        2812        2863        2862
         4        2812        2813        2864        2863
         4        2813        2814        2865        2864
         4        2814        2815        2866        2865
         4        2815        2816        2867        2866
         4        2816        2817        2868        2867
         4        2817        2818        2869        2868
         4        2818        2819        2870        2869
         4        2819        2820        2871        2870
         4        2820        2821        2872        2871
         4        2821        2822        2873        2872
         4        2822        2823        2874        2873
         4        2823        2824        2875        2874
         4        2824        2825        2876        2875
         4        2825        2826        2877        2876
         4        2826        2827        2878        2877
         4        2827        2828        2879        2878
         4        2828        2829        2880        2879
         4        2829        2830        2881        2880
         4        2830        2831        2882        2881
         4        2831        2832        2883        2882
         4        2832        2833        2884        2883
         4        2833        2834        2885        2884
         4        2834        2835        2886        2885
         4        2835        2836        2887        2886
         4        2836        2837        2888        2887
         4        2837        2838        2889        2888
         4        2838        2839        2890        2889
         4        2839        2840        2891        2890
         4        2840        2841        2892        2891
         4        2841        2842        2893        2892
         4        2842        2843        2894        2893
         4        2843        2844        2895        2894
         4        2844        2845        2896        2895
         4        2845        2846        2897        2896
         4        2846        2847        2898        2897
         4        2847        2848        2899        2898
         4        2848        2849        2900        2899
         4        2849        2850        2901        2900
         4        2850        2851        2902        2901
         4        2851        2852        2903        2902
         4        2852        2853        2904        2903
         4        2853        2854        2905        2904
         4        2854        2855        2906        2905
         4        2856        2857        2908        2907
         4        2857        2858        2909        2908
         4        2858        2859        2910        2909
         4        2859        2860        2911        2910
         4        2860        2861        2912        2911
         4        2861        2862        2913        2912
         4        2862        2863        2914        2913
         4        2863        2864        2915        2914
         4        2864        2865        2916        2915
         4        2865        2866        2917        2916
         4        2866        2867        2918        2917
         4        2867        2868        2919        2918
         4        2868        2869        2920        2919
         4        2869        2870        2921        2920
         4        2870        2871        2922        2921
         4        2871        2872        2923        2922
         4        2872        2873        2924        2923
         4        2873        2874        2925        2924
         4        2874        2875        2926        2925
         4        2875        2876        2927        2926
         4        2876        2877        2928        2927
         4        2877        2878        2929        2928
         4        2878        2879        2930        2929
         4        2879        2880        2931        2930
         4        2880        2881        2932        2931
         4        2881        2882        2933        2932
         4        2882        2883        2934        2933
         4        2883        2884        2935        2934
         4        2884        2885        2936        2935
         4        2885        2886        2937        2936
         4        2886        2887        2938        2937
         4        2887        2888        2939        2938
         4        2888        2889        2940        2939
         4        2889        2890        2941        2940
         4        2890        2891        2942        2941
         4        2891        2892        2943        2942
         4        2892        2893        2944        2943
         4        2893        2894        2945        2944
         4        2894        2895        2946        2945
         4        2895        2896        2947        2946
         4        2896        2897        2948        2947
         4        2897        2898        2949        2948
         4        2898        2899        2950        2949
         4        2899        2900        2951        2950
         4        2900        2901        2952        2951
         4        2901        2902        2953        2952
         4        2902        2903        2954        2953
         4        2903        2904        2955        2954
         4        2904        2905        2956        2955
         4        2905        2906        2957        2956
         4        2907        2908        2959        2958
         4        2908        2909        2960        2959
         4        2909        2910        2961        2960
         4        2910        2911        2962        2961
         4        2911        2912        2963        2962
         4        2912        2913        2964        2963
         4        2913        2914        2965        2964
         4        2914        2915        2966        2965
         4        2915        2916        2967        2966
         4        2916        2917        2968        2967
         4        2917        2918        2969        2968
         4        2918        2919        2970        2969
         4        2919        2920        2971        2970
         4        2920        2921        2972        2971
         4        2921        2922        2973        2972
         4        2922        2923        2974        2973
         4        2923        2924        2975        2974
         4        2924        2925        2976        2975
         4        2925        2926        2977        2976
         4        2926        2927        2978        2977
         4        2927        2928        2979        2978
         4        2928        2929        2980        2979
         4        2929        2930        2981        2980
         4        2930        2931        2982        2981
         4        2931        2932        2983        2982
         4        2932        2933        2984        2983
         4        2933        2934        2985        2984
         4        2934        2935        2986        2985
         4        2935        2936        2987        2986
         4        2936        2937        2988        2987
         4        2937        2938        2989        2988
         4        2938        2939        2990        2989
         4        2939        2940        2991        2990
         4        2940        2941        2992        2991
         4        2941        2942        2993        2992
         4        2942        2943        2994        2993
         4        2943        2944        2995        2994
         4        2944        2945        2996        2995
         4        2945        2946        2997        2996
         4        2946        2947        2998        2997
         4        2947        2948        2999        2998
         4        2948        2949        3000        2999
         4        2949        2950        3001        3000
         4        2950        2951        3002        3001
         4        2951        2952        3003        3002
         4        2952        2953        3004        3003
         4        2953        2954        3005        3004
         4        2954        2955        3006        3005
         4        2955        2956        3007        3006
         4        2956        2957        3008        3007
         4        2958        2959        3010        3009
         4        2959        2960        3011        3010
         4        2960        2961        3012        3011
         4        2961        2962        3013        3012
         4        2962        2963        3014        3013
         4        2963        2964        3015        3014
         4        2964        2965        3016        3015
         4        2965        2966        3017        3016
         4        2966        2967        3018        3017
         4        2967        2968        3019        3018
         4        2968        2969        3020        3019
         4        2969        2970        3021        3020
         4        2970        2971        3022        3021
         4        2971        2972        3023        3022
         4        2972        2973        3024        3023
         4        2973        2974        3025        3024
         4        2974        2975        3026        3025
         4        2975        2976        3027        3026
         4        2976        2977        3028        3027
         4        2977        2978        3029        3028
         4        2978        2979        3030        3029
         4        2979        2980        3031        3030
         4        2980        2981        3032        3031
         4        2981        2982        3033        3032
         4        2982        2983        3034        3033
         4        2983        2984        3035        3034
         4        2984        2985        3036        3035
         4        2985        2986        3037        3036
         4        2986        2987        3038        3037
         4        2987        2988        3039        3038
         4        2988        2989        3040        3039
         4        2989        2990        3041        3040
         4        2990        2991        3042        3041
         4        2991        2992        3043        3042
         4        2992        2993        3044        3043
         4        2993        2994        3045        3044
         4        2994        2995        3046        3045
         4        2995        2996        3047        3046
         4        2996        2997        3048        3047
         4        2997        2998        3049        3048
         4        2998        2999        3050        3049
         4        2999        3000        3051        3050
         4        3000        3001        3052        3051
         4        3001        3002        3053        3052
         4        3002        3003        3054        3053
         4        3003        3004        3055        3054
         4        3004        3005        3056        3055
         4        3005        3006        3057        3056
         4        3006        3007        3058        3057
         4        3007        3008        3059        3058
         4        3009        3010        3061        3060
         4        3010        3011        3062        3061
         4        3011        3012        3063        3062
         4        3012        3013        3064        3063
         4        3013        3014        3065        3064
         4        3014        3015        3066        3065
         4        3015        3016        3067        3066
         4        3016        3017        3068        3067
         4        3017        3018        3069        3068
         4        3018        3019        3070        3069
         4        3019        3020        3071        3070
         4        3020        3021        3072        3071
         4        3021        3022        3073        3072
         4        3022        3023        3074        3073
         4        3023        3024        3075        3074
         4        3024        3025        3076        3075
         4        3025        3026        3077        3076
         4        3026        3027        3078        3077
         4        3027        3028        3079        3078
         4        3028        3029        3080        3079
         4        3029        3030        3081        3080
         4        3030        3031        3082        3081
         4        3031        3032        3083        3082
         4        3032        3033        3084        3083
         4        3033        3034        3085        3084
         4        3034        3035        3086        3085
         4        3035        3036        3087        3086
         4        3036        3037        3088        3087
         4        3037        3038        3089        3088
         4        3038        3039        3090        3089
         4        3039        3040        3091        3090
         4        3040        3041        3092        3091
         4        3041        3042        3093        3092
         4        3042        3043        3094        3093
         4        3043        3044        3095        3094
         4        3044        3045        3096        3095
         4        3045        3046        3097        3096
         4        3046        3047        3098        3097
         4        3047        3048        3099        3098
         4        3048        3049        3100        3099
         4        3049        3050        3101        3100
         4        3050        3051        3102        3101
         4        3051        3052        3103        3102
         4        3052        3053        3104        3103
         4        3053        3054        3105        3104
         4        3054        3055        3106        3105
         4        3055        3056        3107        3106
         4        3056        3057        3108        3107
         4        3057        3058        3109        3108
         4        3058        3059        3110        3109
         4        3060        3061        3112        3111
         4        3061        3062        3113        3112
         4        3062        3063        3114        3113
         4        3063        3064        3115        3114
         4        3064        3065        3116        3115
         4        3065        3066        3117        3116
         4        3066        3067        3118        3117
         4        3067        3068        3119        3118
         4        3068        3069        3120        3119
         4        3069        3070        3121        3120
         4        3070        3071        3122        3121
         4        3071        3072        3123        3122
         4        3072        3073        3124        3123
         4        3073        3074        3125        3124
         4        3074        3075        3126        3125
         4        3075        3076        3127        3126
         4        3076        3077        3128        3127
         4        3077        3078        3129        3128
         4        3078        3079        3130        3129
         4        3079        3080        3131        3130
         4        3080        3081        3132        3131
         4        3081        3082        3133        3132
         4        3082        3083        3134        3133
         4        3083        3084        3135        3134
         4        3084        3085        3136        3135
         4        3085        3086        3137        3136
         4        3086        3087        3138        3137
         4        3087        3088        3139        3138
         4        3088        3089        3140        3139
         4        3089        3090        3141        3140
         4        3090        3091        3142        3141
         4        3091        3092        3143        3142
         4        3092        3093        3144        3143
         4        3093        3094        3145        3144
         4        3094        3095        3146        3145
         4        3095        3096        3147        3146
         4        3096        3097        3148        3147
         4        3097        3098        3149        3148
         4        3098        3099        3150        3149
         4        3099        3100        3151        3150
         4        3100        3101        3152        3151
         4        3101        3102        3153        3152
         4        3102        3103        3154        3153
         4        3103        3104        3155        3154
         4        3104        3105        3156        3155
         4        3105        3106        3157        3156
         4        3106        3107        3158        3157
         4        3107        3108        3159        3158
         4        3108        3109        3160        3159
         4        3109        3110        3161        3160
         4        3111        3112        3163        3162
         4        3112        3113        3164        3163
         4        3113        3114        3165        3164
         4        3114        3115        3166        3165
         4        3115        3116        3167        3166
         4        3116        3117        3168        3167
         4        3117        3118        3169        3168
         4        3118        3119        3170        3169
         4        3119        3120        3171        3170
         4        3120        3121        3172        3171
         4        3121        3122        3173        3172
         4        3122        3123        3174        3173
         4        3123        3124        3175        3174
         4        3124        3125        3176        3175
         4        3125        3126        3177        3176
         4        3126        3127        3178        3177
         4        3127        3128        3179        3178
         4        3128        3129        3180        3179
         4        3129        3130        3181        3180
         4        3130        3131        3182        3181
         4        3131        3132        3183        3182
         4        3132        3133        3184        3183
         4        3133        3134        3185        3184
         4        3134        3135        3186        3185
         4        3135        3136        3187        3186
         4        3136        3137        3188        3187
         4        3137        3138        3189        3188
         4        3138        3139        3190        3189
         4        3139        3140        3191        3190
         4        3140        3141        3192        3191
         4        3141        3142        3193        3192
         4        3142        3143        3194        3193
         4        3143        3144        3195        3194
         4        3144        3145        3196        3195
         4        3145        3146        3197        3196
         4        3146        3147        3198        3197
         4        3147        3148        3199        3198
         4        3148        3149        3200        3199
         4        3149        3150        3201        3200
         4        3150        3151        3202        3201
         4        3151        3152        3203        3202
         4        3152        3153        3204        3203
         4        3153        3154        3205        3204
         4        3154        3155        3206        3205
         4        3155        3156        3207        3206
         4        3156        3157        3208        3207
         4        3157        3158        3209        3208
         4        3158        3159        3210        3209
         4        3159        3160        3211        3210
         4        3160        3161        3212        3211
         4        3162        3163        3214        3213
         4        3163        3164        3215        3214
         4        3164        3165        3216        3215
         4        3165        3166        3217        3216
         4        3166        3167        3218        3217
         4        3167        3168        3219        3218
         4        3168        3169        3220        3219
         4        3169        3170        3221        3220
         4        3170        3171        3222        3221
         4        3171        3172        3223        3222
         4        3172        3173        3224        3223
         4        3173        3174        3225        3224
         4        3174        3175        3226        3225
         4        3175        3176        3227        3226
         4        3176        3177        3228        3227
         4        3177        3178        3229        3228
         4        3178        3179        3230        3229
         4        3179        3180        3231        3230
         4        3180        3181        3232        3231
         4        3181        3182        3233        3232
         4        3182        3183        3234        3233
         4        3183        3184        3235        3234
         4        3184        3185        3236        3235
         4        3185        3186        3237        3236
         4        3186        3187        3238        3237
         4        3187        3188        3239        3238
         4        3188        3189        3240        3239
         4        3189        3190        3241        3240
         4        3190        3191        3242        3241
         4        3191        3192        3243        3242
         4        3192        3193        3244        3243
         4        3193        3194        3245        3244
         4        3194        3195        3246        3245
         4        3195        3196        3247        3246
         4        3196        3197        3248        3247
         4        3197        3198        3249        3248
         4        3198        3199        3250        3249
         4        3199        3200        3251        3250
         4        3200        3201        3252        3251
         4        3201        3202        3253        3252
         4        3202        3203        3254        3253
         4        3203        3204        3255        3254
         4        3204        3205        3256        3255
         4        3205        3206        3257        3256
         4        3206        3207        3258        3257
         4        3207        3208        3259        3258
         4        3208        3209        3260        3259
         4        3209        3210        3261        3260
         4        3210        3211        3262        3261
         4        3211        3212        3263        3262
         4        3213        3214        3265        3264
         4        3214        3215        3266        3265
         4        3215        3216        3267        3266
         4        3216        3217        3268        3267
         4        3217        3218        3269        3268
         4        3218        3219        3270        3269
         4        3219        3220        3271        3270
         4        3220        3221        3272        3271
         4        3221        3222        3273        3272
         4        3222        3223        3274        3273
         4        3223        3224        3275        3274
         4        3224        3225        3276        3275
         4        3225        3226        3277        3276
         4        3226        3227        3278        3277
         4        3227        3228        3279        3278
         4        3228        3229        3280        3279
         4        3229        3230        3281        3280
         4        3230        3231        3282        3281
         4        3231        3232        3283        3282
         4        3232        3233        3284        3283
         4        3233        3234        3285        3284
         4        3234        3235        3286        3285
         4        3235        3236        3287        3286
         4        3236        3237        3288        3287
         4        3237        3238        3289        3288
         4        3238        3239        3290        3289
         4        3239        3240        3291        3290
         4        3240        3241        3292        3291
         4        3241        3242        3293        3292
         4        3242        3243        3294        3293
         4        3243        3244        3295        3294
         4        3244        3245        3296        3295
         4        3245        3246        3297        3296
         4        3246        3247        3298        3297
         4        3247        3248        3299        3298
         4        3248        3249        3300        3299
         4        3249        3250        3301        3300
         4        3250        3251        3302        3301
         4        3251        3252        3303        3302
         4        3252        3253        3304        3303
         4        3253        3254        3305        3304
         4        3254        3255        3306        3305
         4        3255        3256        3307        3306
         4        3256        3257        3308        3307
         4        3257        3258        3309        3308
         4        3258        3259        3310        3309
         4        3259        3260        3311        3310
         4        3260        3261        3312        3311
         4        3261        3262        3313        3312
         4        3262        3263        3314        3313
         4        3264        3265        3316        3315
         4        3265        3266        3317        3316
         4        3266        3267        3318        3317
         4        3267        3268        3319        3318
         4        3268        3269        3320        3319
         4        3269        3270        3321        3320
         4        3270        3271        3322        3321
         4        3271        3272        3323        3322
         4        3272        3273        3324        3323
         4        3273        3274        3325        3324
         4        3274        3275        3326        3325
         4        3275        3276        3327        3326
         4        3276        3277        3328        3327
         4        3277        3278        3329        3328
         4        3278        3279        3330        3329
         4        3279        3280        3331        3330
         4        3280        3281        3332        3331
         4        3281        3282        3333        3332
         4        3282        3283        3334        3333
         4        3283        3284        3335        3334
         4        3284        3285        3336        3335
         4        3285        3286        3337        3336
         4        3286        3287        3338        3337
         4        3287        3288        3339        3338
         4        3288        3289        3340        3339
         4        3289        3290        3341        3340
         4        3290        3291        3342        3341
         4        3291        3292        3343        3342
         4        3292        3293        3344        3343
         4        3293        3294        3345        3344
         4        3294        3295        3346        3345
         4        3295        3296        3347        3346
         4        3296        3297        3348        3347
         4        3297        3298        3349        3348
         4        3298        3299        3350        3349
         4        3299        3300        3351        3350
         4        3300        3301        3352        3351
         4        3301        3302        3353        3352
         4        3302        3303        3354        3353
         4        3303        3304        3355        3354
         4        3304        3305        3356        3355
         4        3305        3306        3357        3356
         4        3306        3307        3358        3357
         4        3307        3308        3359        3358
         4        3308        3309        3360        3359
         4        3309        3310        3361        3360
         4        3310        3311        3362        3361
         4        3311        3312        3363        3362
         4        3312        3313        3364        3363
         4        3313        3314        3365        3364
         4        3315        3316        3367        3366
         4        3316        3317        3368        3367
         4        3317        3318        3369        3368
         4        3318        3319        3370        3369
         4        3319        3320        3371        3370
         4        3320        3321        3372        3371
         4        3321        3322        3373        3372
         4        3322        3323        3374        3373
         4        3323        3324        3375        3374
         4        3324        3325        3376        3375
         4        3325        3326        3377        3376
         4        3326        3327        3378        3377
         4        3327        3328        3379        3378
         4        3328        3329        3380        3379
         4        3329        3330        3381        3380
         4        3330        3331        3382        3381
         4        3331        3332        3383        3382
         4        3332        3333        3384        3383
         4        3333        3334        3385        3384
         4        3334        3335        3386        3385
         4        3335        3336        3387        3386
         4        3336        3337        3388        3387
         4        3337        3338        3389        3388
         4        3338        3339        3390        3389
         4        3339        3340        3391        3390
         4        3340        3341        3392        3391
         4        3341        3342        3393        3392
         4        3342        3343        3394        3393
         4        3343        3344        3395        3394
         4        3344        3345        3396        3395
         4        3345        3346        3397        3396
         4        3346        3347        3398        3397
         4        3347        3348        3399        3398
         4        3348        3349        3400        3399
         4        3349        3350        3401        3400
         4        3350        3351        3402        3401
         4        3351        3352        3403        3402
         4        3352        3353        3404        3403
         4        3353        3354        3405        3404
         4        3354        3355        3406        3405
         4        3355        3356        3407        3406
         4        3356        3357        3408        3407
         4        3357        3358        3409        3408
         4        3358        3359        3410        3409
         4        3359        3360        3411        3410
         4        3360        3361        3412        3411
         4        3361        3362        3413        3412
         4        3362        3363        3414        3413
         4        3363        3364        3415        3414
         4        3364        3365        3416        3415
         4        3366        3367        3418        3417
         4        3367        3368        3419        3418
         4        3368        3369        3420        3419
         4        3369        3370        3421        3420
         4        3370        3371        3422        3421
         4        3371        3372        3423        3422
         4        3372        3373        3424        3423
         4        3373        3374        3425        3424
         4        3374        3375        3426        3425
         4        3375        3376        3427        3426
         4        3376        3377        3428        3427
         4        3377        3378        3429        3428
         4        3378        3379        3430        3429
         4        3379        3380        3431        3430
         4        3380        3381        3432        3431
         4        3381        3382        3433        3432
         4        3382        3383        3434        3433
         4        3383        3384        3435        3434
         4        3384        3385        3436        3435
         4        3385        3386        3437        3436
         4        3386        3387        3438        3437
         4        3387        3388        3439        3438
         4        3388        3389        3440        3439
         4        3389        3390        3441        3440
         4        3390        3391        3442        3441
         4        3391        3392        3443        3442
         4        3392        3393        3444        3443
         4        3393        3394        3445        3444
         4        3394        3395        3446        3445
         4        3395        3396        3447        3446
         4        3396        3397        3448        3447
         4        3397        3398        3449        3448
         4        3398        3399        3450        3449
         4        3399        3400        3451        3450
         4        3400        3401        3452        3451
         4        3401        3402        3453        3452
         4        3402        3403        3454        3453
         4        3403        3404        3455        3454
         4        3404        3405        3456        3455
         4        3405        3406        3457        3456
         4        3406        3407        3458        3457
         4        3407        3408        3459        3458
         4        3408        3409        3460        3459
         4        3409        3410        3461        3460
         4        3410        3411        3462        3461
         4        3411        3412        3463        3462
         4        3412        3413        3464        3463
         4        3413        3414        3465        3464
         4        3414        3415        3466        3465
         4        3415        3416        3467        3466
         4        3417        3418        3469        3468
         4        3418        3419        3470        3469
         4        3419        3420        3471        3470
         4        3420        3421        3472        3471
         4        3421        3422        3473        3472
         4        3422        3423        3474        3473
         4        3423        3424        3475        3474
         4        3424        3425        3476        3475
         4        3425        3426        3477        3476
         4        3426        3427        3478        3477
         4        3427        3428        3479        3478
         4        3428        3429        3480        3479
         4        3429        3430        3481        3480
         4        3430        3431        3482        3481
         4        3431        3432        3483        3482
         4        3432        3433        3484        3483
         4        3433        3434        3485        3484
         4        3434        3435        3486        3485
         4        3435        3436        3487        3486
         4        3436        3437        3488        3487
         4        3437        3438        3489        3488
         4        3438        3439        3490        3489
         4        3439        3440        3491        3490
         4        3440        3441        3492        3491
         4        3441        3442        3493        3492
         4        3442        3443        3494        3493
         4        3443        3444        3495        3494
         4        3444        3445        3496        3495
         4        3445        3446        3497        3496
         4        3446        3447        3498        3497
         4        3447        3448        3499        3498
         4        3448        3449        3500        3499
         4        3449        3450        3501        3500
         4        3450        3451        3502        3501
         4        3451        3452        3503        3502
         4        3452        3453        3504        3503
         4        3453        3454        3505        3504
         4        3454        3455        3506        3505
         4        3455        3456        3507        3506
         4        3456        3457        3508        3507
         4        3457        3458        3509        3508
         4        3458        3459        3510        3509
         4        3459        3460        3511        3510
         4        3460        3461        3512        3511
         4        3461        3462        3513        3512
         4        3462        3463        3514        3513
         4        3463        3464        3515        3514
         4        3464        3465        3516        3515
         4        3465        3466        3517        3516
         4        3466        3467        3518        3517
         4        3468        3469        3520        3519
         4        3469        3470        3521        3520
         4        3470        3471        3522        3521
         4        3471        3472        3523        3522
         4        3472        3473        3524        3523
         4        3473        3474        3525        3524
         4        3474        3475        3526        3525
         4        3475        3476        3527        3526
         4        3476        3477        3528        3527
         4        3477        3478        3529        3528
         4        3478        3479        3530        3529
         4        3479        3480        3531        3530
         4        3480        3481        3532        3531
         4        3481        3482        3533        3532
         4        3482        3483        3534        3533
         4        3483        3484        3535        3534
         4        3484        3485        3536        3535
         4        3485        3486        3537        3536
         4        3486        3487        3538        3537
         4        3487        3488        3539        3538
         4        3488        3489        3540        3539
         4        3489        3490        3541        3540
         4        3490        3491        3542        3541
         4        3491        3492        3543        3542
         4        3492        3493        3544        3543
         4        3493        3494        3545        3544
         4        3494        3495        3546        3545
         4        3495        3496        3547        3546
         4        3496        3497        3548        3547
         4        3497        3498        3549        3548
         4        3498        3499        3550        3549
         4        3499        3500        3551        3550
         4        3500        3501        3552        3551
         4        3501        3502        3553        3552
         4        3502        3503        3554        3553
         4        3503        3504        3555        3554
         4        3504        3505        3556        3555
         4        3505        3506        3557        3556
         4        3506        3507        3558        3557
         4        3507        3508        3559        3558
         4        3508        3509        3560        3559
         4        3509        3510        3561        3560
         4        3510        3511        3562        3561
         4        3511        3512        3563        3562
         4        3512        3513        3564        3563
         4        3513        3514        3565        3564
         4        3514        3515        3566        3565
         4        3515        3516        3567        3566
         4        3516        3517        3568        3567
         4        3517        3518        3569        3568
         4        3519        3520        3571        3570
         4        3520        3521        3572        3571
         4        3521        3522        3573        3572
         4        3522        3523        3574        3573
         4        3523        3524        3575        3574
         4        3524        3525        3576        3575
         4        3525        3526        3577        3576
         4        3526        3527        3578        3577
         4        3527        3528        3579        3578
         4        3528        3529        3580        3579
         4        3529        3530        3581        3580
         4        3530        3531        3582        3581
         4        3531        3532        3583        3582
         4        3532        3533        3584        3583
         4        3533        3534        3585        3584
         4        3534        3535        3586        3585
         4        3535        3536        3587        3586
         4        3536        3537        3588        3587
         4        3537        3538        3589        3588
         4        3538        3539        3590        3589
         4        3539        3540        3591        3590
         4        3540        3541        3592        3591
         4        3541        3542        3593        3592
         4        3542        3543        3594        3593
         4        3543        3544        3595        3594
         4        3544        3545        3596        3595
         4        3545        3546        3597        3596
         4        3546        3547        3598        3597
         4        3547        3548        3599        3598
         4        3548        3549        3600        3599
         4        3549        3550        3601        3600
         4        3550        3551        3602        3601
         4        3551        3552        3603        3602
         4        3552        3553        3604        3603
         4        3553        3554        3605        3604
         4        3554        3555        3606        3605
         4        3555        3556        3607        3606
         4        3556        3557        3608        3607
         4        3557        3558        3609        3608
         4        3558        3559        3610        3609
         4        3559        3560        3611        3610
         4        3560        3561        3612        3611
         4        3561        3562        3613        3612
         4        3562        3563        3614        3613
         4        3563        3564        3615        3614
         4        3564        3565        3616        3615
         4        3565        3566        3617        3616
         4        3566        3567        3618        3617
         4        3567        3568        3619        3618
         4        3568        3569        3620        3619
         4        3570        3571        3622        3621
         4        3571        3572        3623        3622
         4        3572        3573        3624        3623
         4        3573        3574        3625        3624
         4        3574        3575        3626        3625
         4        3575        3576        3627        3626
         4        3576        3577        3628        3627
         4        3577        3578        3629        3628
         4        3578        3579        3630        3629
         4        3579        3580        3631        3630
         4        3580        3581        3632        3631
         4        3581        3582        3633        3632
         4        3582        3583        3634        3633
         4        3583        3584        3635        3634
         4        3584        3585        3636        3635
         4        3585        3586        3637        3636
         4        3586        3587        3638        3637
         4        3587        3588        3639        3638
         4        3588        3589        3640        3639
         4        3589        3590        3641        3640
         4        3590        3591        3642        3641
         4        3591        3592        3643        3642
         4        3592        3593        3644        3643
         4        3593        3594        3645        3644
         4        3594        3595        3646        3645
         4        3595        3596        3647        3646
         4        3596        3597        3648        3647
         4        3597        3598        3649        3648
         4        3598        3599        3650        3649
         4        3599        3600        3651        3650
         4        3600        3601        3652        3651
         4        3601        3602        3653        3652
         4        3602        3603        3654        3653
         4        3603        3604        3655        3654
         4        3604        3605        3656        3655
         4        3605        3606        3657        3656
         4        3606        3607        3658        3657
         4        3607        3608        3659        3658
         4        3608        3609        3660        3659
         4        3609        3610        3661        3660
         4        3610        3611        3662        3661
         4        3611        3612        3663        3662
         4        3612        3613        3664        3663
         4        3613        3614        3665        3664
         4        3614        3615        3666        3665
         4        3615        3616        3667        3666
         4        3616        3617        3668        3667
         4        3617        3618        3669        3668
         4        3618        3619        3670        3669
         4        3619        3620        3671        3670
         4        3621        3622        3673        3672
         4        3622        3623        3674        3673
         4        3623        3624        3675        3674
         4        3624        3625        3676        3675
         4        3625        3626        3677        3676
         4        3626        3627        3678        3677
         4        3627        3628        3679        3678
         4        3628        3629        3680        3679
         4        3629        3630        3681        3680
         4        3630        3631        3682        3681
         4        3631        3632        3683        3682
         4        3632        3633        3684        3683
         4        3633        3634        3685        3684
         4        3634        3635        3686        3685
         4        3635        3636        3687        3686
         4        3636        3637        3688        3687
         4        3637        3638        3689        3688
         4        3638        3639        3690        3689
         4        3639        3640        3691        3690
         4        3640        3641        3692        3691
         4        3641        3642        3693        3692
         4        3642        3643        3694        3693
         4        3643        3644        3695        3694
         4        3644        3645        3696        3695
         4        3645        3646        3697        3696
         4        3646        3647        3698        3697
         4        3647        3648        3699        3698
         4        3648        3649        3700        3699
         4        3649        3650        3701        3700
         4        3650        3651        3702        3701
         4        3651        3652        3703        3702
         4        3652        3653        3704        3703
         4        3653        3654        3705        3704
         4        3654        3655        3706        3705
         4        3655        3656        3707        3706
         4        3656        3657        3708        3707
         4        3657        3658        3709        3708
         4        3658        3659        3710        3709
         4        3659        3660        3711        3710
         4        3660        3661        3712        3711
         4        3661        3662        3713        3712
         4        3662        3663        3714        3713
         4        3663        3664        3715        3714
         4        3664        3665        3716        3715
         4        3665        3666        3717        3716
         4        3666        3667        3718        3717
         4        3667        3668        3719        3718
         4        3668        3669        3720        3719
         4        3669        3670        3721        3720
         4        3670        3671        3722        3721
         4        3672        3673        3724        3723
         4        3673        3674        3725        3724
         4        3674        3675        3726        3725
         4        3675        3676        3727        3726
         4        3676        3677        3728        3727
         4        3677        3678        3729        3728
         4        3678        3679        3730        3729
         4        3679        3680        3731        3730
         4        3680        3681        3732        3731
         4        3681        3682        3733        3732
         4        3682        3683        3734        3733
         4        3683        3684        3735        3734
         4        3684        3685        3736        3735
         4        3685        3686        3737        3736
         4        3686        3687        3738        3737
         4        3687        3688        3739        3738
         4        3688        3689        3740        3739
         4        3689        3690        3741        3740
         4        3690        3691        3742        3741
         4        3691        3692        3743        3742
         4        3692        3693        3744        3743
         4        3693        3694        3745        3744
         4        3694        3695        3746        3745
         4        3695        3696        3747        3746
         4        3696        3697        3748        3747
         4        3697        3698        3749        3748
         4        3698        3699        3750        3749
         4        3699        3700        3751        3750
         4        3700        3701        3752        3751
         4        3701        3702        3753        3752
         4        3702        3703        3754        3753
         4        3703        3704        3755        3754
         4        3704        3705        3756        3755
         4        3705        3706        3757        3756
         4        3706        3707        3758        3757
         4        3707        3708        3759        3758
         4        3708        3709        3760        3759
         4        3709        3710        3761        3760
         4        3710        3711        3762        3761
         4        3711        3712        3763        3762
         4        3712        3713        3764        3763
         4        3713        3714        3765        3764
         4        3714        3715        3766        3765
         4        3715        3716        3767        3766
         4        3716        3717        3768        3767
         4        3717        3718        3769        3768
         4        3718        3719        3770        3769
         4        3719        3720        3771        3770
         4        3720        3721        3772        3771
         4        3721        3722        3773        3772
         4        3723        3724        3775        3774
         4        3724        3725        3776        3775
         4        3725        3726        3777        3776
         4        3726        3727        3778        3777
         4        3727        3728        3779        3778
         4        3728        3729        3780        3779
         4        3729        3730        3781        3780
         4        3730        3731        3782        3781
         4        3731        3732        3783        3782
         4        3732        3733        3784        3783
         4        3733        3734        3785        3784
         4        3734        3735        3786        3785
         4        3735        3736        3787        3786
         4        3736        3737        3788        3787
         4        3737        3738        3789        3788
         4        3738        3739        3790        3789
         4        3739        3740        3791        3790
         4        3740        3741        3792        3791
         4        3741        3742        3793        3792
         4        3742        3743        3794        3793
         4        3743        3744        3795        3794
         4        3744        3745        3796        3795
         4        3745        3746        3797        3796
         4        3746        3747        3798        3797
         4        3747        3748        3799        3798
         4        3748        3749        3800        3799
         4        3749        3750        3801        3800
         4        3750        3751        3802        3801
         4        3751        3752        3803        3802
         4        3752        3753        3804        3803
         4        3753        3754        3805        3804
         4        3754        3755        3806        3805
         4        3755        3756        3807        3806
         4        3756        3757        3808        3807
         4        3757        3758        3809        3808
         4        3758        3759        3810        3809
         4        3759        3760        3811        3810
         4        3760        3761        3812        3811
         4        3761        3762        3813        3812
         4        3762        3763        3814        3813
         4        3763        3764        3815        3814
         4        3764        3765        3816        3815
         4        3765        3766        3817        3816
         4        3766        3767        3818        3817
         4        3767        3768        3819        3818
         4        3768        3769        3820        3819
         4        3769        3770        3821        3820
         4        3770        3771        3822        3821
         4        3771        3772        3823        3822
         4        3772        3773        3824        3823
         4        3774        3775        3826        3825
         4        3775        3776        3827        3826
         4        3776        3777        3828        3827
         4        3777        3778        3829        3828
         4        3778        3779        3830        3829
         4        3779        3780        3831        3830
         4        3780        3781        3832        3831
         4        3781        3782        3833        3832
         4        3782        3783        3834        3833
         4        3783        3784        3835        3834
         4        3784        3785        3836        3835
         4        3785        3786        3837        3836
         4        3786        3787        3838        3837
         4        3787        3788        3839        3838
         4        3788        3789        3840        3839
         4        3789        3790        3841        3840
         4        3790        3791        3842        3841
         4        3791        3792        3843        3842
         4        3792        3793        3844        3843
         4        3793        3794        3845        3844
         4        3794        3795        3846        3845
         4        3795        3796        3847        3846
         4        3796        3797        3848        3847
         4        3797        3798        3849        3848
         4        3798        3799        3850        3849
         4        3799        3800        3851        3850
         4        3800        3801        3852        3851
         4        3801        3802        3853        3852
         4        3802        3803        3854        3853
         4        3803        3804        3855        3854
         4        3804        3805        3856        3855
         4        3805        3806        3857        3856
         4        3806        3807        3858        3857
         4        3807        3808        3859        3858
         4        3808        3809        3860        3859
         4        3809        3810        3861        3860
         4        3810        3811        3862        3861
         4        3811        3812        3863        3862
         4        3812        3813        3864        3863
         4        3813        3814        3865        3864
         4        3814        3815        3866        3865
         4        3815        3816        3867        3866
         4        3816        3817        3868        3867
         4        3817        3818        3869        3868
         4        3818        3819        3870        3869
         4        3819        3820        3871        3870
         4        3820        3821        3872        3871
         4        3821        3822        3873        3872
         4        3822        3823        3874        3873
         4        3823        3824        3875        3874
         4        3825        3826        3877        3876
         4        3826        3827        3878        3877
         4        3827        3828        3879        3878
         4        3828        3829        3880        3879
         4        3829        3830        3881        3880
         4        3830        3831        3882        3881
         4        3831        3832        3883        3882
         4        3832        3833        3884        3883
         4        3833        3834        3885        3884
         4        3834        3835        3886        3885
         4        3835        3836        3887        3886
         4        3836        3837        3888        3887
         4        3837        3838        3889        3888
         4        3838        3839        3890        3889
         4        3839        3840        3891        3890
         4        3840        3841        3892        3891
         4        3841        3842        3893        3892
         4        3842        3843        3894        3893
         4        3843        3844        3895        3894
         4        3844        3845        3896        3895
         4        3845        3846        3897        3896
         4        3846        3847        3898        3897
         4        3847        3848        3899        3898
         4        3848        3849        3900        3899
         4        3849        3850        3901        3900
         4        3850        3851        3902        3901
         4        3851        3852        3903        3902
         4        3852        3853        3904        3903
         4        3853        3854        3905        3904
         4        3854        3855        3906        3905
         4        3855        3856        3907        3906
         4        3856        3857        3908        3907
         4        3857        3858        3909        3908
         4        3858        3859        3910        3909
         4        3859        3860        3911        3910
         4        3860        3861        3912        3911
         4        3861        3862        3913        3912
         4        3862        3863        3914        3913
         4        3863        3864        3915        3914
         4        3864        3865        3916        3915
         4        3865        3866        3917        3916
         4        3866        3867        3918        3917
         4        3867        3868        3919        3918
         4        3868        3869        3920        3919
         4        3869        3870        3921        3920
         4        3870        3871        3922        3921
         4        3871        3872        3923        3922
         4        3872        3873        3924        3923
         4        3873        3874        3925        3924
         4        3874        3875        3926        3925
         4        3876        3877        3928        3927
         4        3877        3878        3929        3928
         4        3878        3879        3930        3929
         4        3879        3880        3931        3930
         4        3880        3881        3932        3931
         4        3881        3882        3933        3932
         4        3882        3883        3934        3933
         4        3883        3884        3935        3934
         4        3884        3885        3936        3935
         4        3885        3886        3937        3936
         4        3886        3887        3938        3937
         4        3887        3888        3939        3938
         4        3888        3889        3940        3939
         4        3889        3890        3941        3940
         4        3890        3891        3942        3941
         4        3891        3892        3943        3942
         4        3892        3893        3944        3943
         4        3893        3894        3945        3944
         4        3894        3895        3946        3945
         4        3895        3896        3947        3946
         4        3896        3897        3948        3947
         4        3897        3898        3949        3948
         4        3898        3899        3950        3949
         4        3899        3900        3951        3950
         4        3900        3901        3952        3951
         4        3901        3902        3953        3952
         4        3902        3903        3954        3953
         4        3903        3904        3955        3954
         4        3904        3905        3956        3955
         4        3905        3906        3957        3956
         4        3906        3907        3958        3957
         4        3907        3908        3959        3958
         4        3908        3909        3960        3959
         4        3909        3910        3961        3960
         4        3910        3911        3962        3961
         4        3911        3912        3963        3962
         4        3912        3913        3964        3963
         4        3913        3914        3965        3964
         4        3914        3915        3966        3965
         4        3915        3916        3967        3966
         4        3916        3917        3968        3967
         4        3917        3918        3969        3968
         4        3918        3919        3970        3969
         4        3919        3920        3971        3970
         4        3920        3921        3972        3971
         4        3921        3922        3973        3972
         4        3922        3923        3974        3973
         4        3923        3924        3975        3974
         4        3924        3925        3976        3975
         4        3925        3926        3977        3976
         4        3927        3928        3979        3978
         4        3928        3929        3980        3979
         4        3929        3930        3981        3980
         4        3930        3931        3982        3981
         4        3931        3932        3983        3982
         4        3932        3933        3984        3983
         4        3933        3934        3985        3984
         4        3934        3935        3986        3985
         4        3935        3936        3987        3986
         4        3936        3937        3988        3987
         4        3937        3938        3989        3988
         4        3938        3939        3990        3989
         4        3939        3940        3991        3990
         4        3940        3941        3992        3991
         4        3941        3942        3993        3992
         4        3942        3943        3994        3993
         4        3943        3944        3995        3994
         4        3944        3945        3996        3995
         4        3945        3946        3997        3996
         4        3946        3947        3998        3997
         4        3947        3948        3999        3998
         4        3948        3949        4000        3999
         4        3949        3950        4001        4000
         4        3950        3951        4002        4001
         4        3951        3952        4003        4002
         4        3952        3953        4004        4003
         4        3953        3954        4005        4004
         4        3954        3955        4006        4005
         4        3955        3956        4007        4006
         4        3956        3957        4008        4007
         4        3957        3958        4009        4008
         4        3958        3959        4010        4009
         4        3959        3960        4011        4010
         4        3960        3961        4012        4011
         4        3961        3962        4013        4012
         4        3962        3963        4014        4013
         4        3963        3964        4015        4014
         4        3964        3965        4016        4015
         4        3965        3966        4017        4016
         4        3966        3967        4018        4017
         4        3967        3968        4019        4018
         4        3968        3969        4020        4019
         4        3969        3970        4021        4020
         4        3970        3971        4022        4021
         4        3971        3972        4023        4022
         4        3972        3973        4024        4023
         4        3973        3974        4025        4024
         4        3974        3975        4026        4025
         4        3975        3976        4027        4026
         4        3976        3977        4028        4027
         4        3978        3979        4030        4029
         4        3979        3980        4031        4030
         4        3980        3981        4032        4031
         4        3981        3982        4033        4032
         4        3982        3983        4034        4033
         4        3983        3984        4035        4034
         4        3984        3985        4036        4035
         4        3985        3986        4037        4036
         4        3986        3987        4038        4037
         4        3987        3988        4039        4038
         4        3988        3989        4040        4039
         4        3989        3990        4041        4040
         4        3990        3991        4042        4041
         4        3991        3992        4043        4042
         4        3992        3993        4044        4043
         4        3993        3994        4045        4044
         4        3994        3995        4046        4045
         4        3995        3996        4047        4046
         4        3996        3997        4048        4047
         4        3997        3998        4049        4048
         4        3998        3999        4050        4049
         4        3999        4000        4051        4050
         4        4000        4001        4052        4051
         4        4001        4002        4053        4052
         4        4002        4003        4054        4053
         4        4003        4004        4055        4054
         4        4004        4005        4056        4055
         4        4005        4006        4057        4056
         4        4006        4007        4058        4057
         4        4007        4008        4059        4058
         4        4008        4009        4060        4059
         4        4009        4010        4061        4060
         4        4010        4011        4062        4061
         4        4011        4012        4063        4062
         4        4012        4013        4064        4063
         4        4013        4014        4065        4064
         4        4014        4015        4066        4065
         4        4015        4016        4067        4066
         4        4016        4017        4068        4067
         4        4017        4018        4069        4068
         4        4018        4019        4070        4069
         4        4019        4020        4071        4070
         4        4020        4021        4072        4071
         4        4021        4022        4073        4072
         4        4022        4023        4074        4073
         4        4023        4024        4075        4074
         4        4024        4025        4076        4075
         4        4025        4026        4077        4076
         4        4026        4027        4078        4077
         4        4027        4028        4079        4078
         4        4029        4030        4081        4080
         4        4030        4031        4082        4081
         4        4031        4032        4083        4082
         4        4032        4033        4084        4083
         4        4033        4034        4085        4084
         4        4034        4035        4086        4085
         4        4035        4036        4087        4086
         4        4036        4037        4088        4087
         4        4037        4038        4089        4088
         4        4038        4039        4090        4089
         4        4039        4040        4091        4090
         4        4040        4041        4092        4091
         4        4041        4042        4093        4092
         4        4042        4043        4094        4093
         4        4043        4044        4095        4094
         4        4044        4045        4096        4095
         4        4045        4046        4097        4096
         4        4046        4047        4098        4097
         4        4047        4048        4099        4098
         4        4048        4049        4100        4099
         4        4049        4050        4101        4100
         4        4050        4051        4102        4101
         4        4051        4052        4103        4102
         4        4052        4053        4104        4103
         4        4053        4054        4105        4104
         4        4054        4055        4106        4105
         4        4055        4056        4107        4106
         4        4056        4057        4108        4107
         4        4057        4058        4109        4108
         4        4058        4059        4110        4109
         4        4059        4060        4111        4110
         4        4060        4061        4112        4111
         4        4061        4062        4113        4112
         4        4062        4063        4114        4113
         4        4063        4064        4115        4114
         4        4064        4065        4116        4115
         4        4065        4066        4117        4116
         4        4066        4067        4118        4117
         4        4067        4068        4119        4118
         4        4068        4069        4120        4119
         4        4069        4070        4121        4120
         4        4070        4071        4122        4121
         4        4071        4072        4123        4122
         4        4072        4073        4124        4123
         4        4073        4074        4125        4124
         4        4074        4075        4126        4125
         4        4075        4076        4127        4126
         4        4076        4077        4128        4127
         4        4077        4078        4129        4128
         4        4078        4079        4130        4129
         4        4080        4081        4132        4131
         4        4081        4082        4133        4132
         4        4082        4083        4134        4133
         4        4083        4084        4135        4134
         4        4084        4085        4136        4135
         4        4085        4086        4137        4136
         4        4086        4087        4138        4137
         4        4087        4088        4139        4138
         4        4088        4089        4140        4139
         4        4089        4090        4141        4140
         4        4090        4091        4142        4141
         4        4091        4092        4143        4142
         4        4092        4093        4144        4143
         4        4093        4094        4145        4144
         4        4094        4095        4146        4145
         4        4095        4096        4147        4146
         4        4096        4097        4148        4147
         4        4097        4098        4149        4148
         4        4098        4099        4150        4149
         4        4099        4100        4151        4150
         4        4100        4101        4152        4151
         4        4101        4102        4153        4152
         4        4102        4103        4154        4153
         4        4103        4104        4155        4154
         4        4104        4105        4156        4155
         4        4105        4106        4157        4156
         4        4106        4107        4158        4157
         4        4107        4108        4159        4158
         4        4108        4109        4160        4159
         4        4109        4110        4161        4160
         4        4110        4111        4162        4161
         4        4111        4112        4163        4162
         4        4112        4113        4164        4163
         4        4113        4114        4165        4164
         4        4114        4115        4166        4165
         4        4115        4116        4167        4166
         4        4116        4117        4168        4167
         4        4117        4118        4169        4168
         4        4118        4119        4170        4169
         4        4119        4120        4171        4170
         4        4120        4121        4172        4171
         4        4121        4122        4173        4172
         4        4122        4123        4174        4173
         4        4123        4124        4175        4174
         4        4124        4125        4176        4175
         4        4125        4126        4177        4176
         4        4126        4127        4178        4177
         4        4127        4128        4179        4178
         4        4128        4129        4180        4179
         4        4129        4130        4181        4180
         4        4131        4132        4183        4182
         4        4132        4133        4184        4183
         4        4133        4134        4185        4184
         4        4134        4135        4186        4185
         4        4135        4136        4187        4186
         4        4136        4137        4188        4187
         4        4137        4138        4189        4188
         4        4138        4139        4190        4189
         4        4139        4140        4191        4190
         4        4140        4141        4192        4191
         4        4141        4142        4193        4192
         4        4142        4143        4194        4193
         4        4143        4144        4195        4194
         4        4144        4145        4196        4195
         4        4145        4146        4197        4196
         4        4146        4147        4198        4197
         4        4147        4148        4199        4198
         4        4148        4149        4200        4199
         4        4149        4150        4201        4200
         4        4150        4151        4202        4201
         4        4151        4152        4203        4202
         4        4152        4153        4204        4203
         4        4153        4154        4205        4204
         4        4154        4155        4206        4205
         4        4155        4156        4207        4206
         4        4156        4157        4208        4207
         4        4157        4158        4209        4208
         4        4158        4159        4210        4209
         4        4159        4160        4211        4210
         4        4160        4161        4212        4211
         4        4161        4162        4213        4212
         4        4162        4163        4214        4213
         4        4163        4164        4215        4214
         4        4164        4165        4216        4215
         4        4165        4166        4217        4216
         4        4166        4167        4218        4217
         4        4167        4168        4219        4218
         4        4168        4169        4220        4219
         4        4169        4170        4221        4220
         4        4170        4171        4222        4221
         4        4171        4172        4223        4222
         4        4172        4173        4224        4223
         4        4173        4174        4225        4224
         4        4174        4175        4226        4225
         4        4175        4176        4227        4226
         4        4176        4177        4228        4227
         4        4177        4178        4229        4228
         4        4178        4179        4230        4229
         4        4179        4180        4231        4230
         4        4180        4181        4232        4231
         4        4182        4183        4234        4233
         4        4183        4184        4235        4234
         4        4184        4185        4236        4235
         4        4185        4186        4237        4236
         4        4186        4187        4238        4237
         4        4187        4188        4239        4238
         4        4188        4189        4240        4239
         4        4189        4190        4241        4240
         4        4190        4191        4242        4241
         4        4191        4192        4243        4242
         4        4192        4193        4244        4243
         4        4193        4194        4245        4244
         4        4194        4195        4246        4245
         4        4195        4196        4247        4246
         4        4196        4197        4248        4247
         4        4197        4198        4249        4248
         4        4198        4199        4250        4249
         4        4199        4200        4251        4250
         4        4200        4201        4252        4251
         4        4201        4202        4253        4252
         4        4202        4203        4254        4253
         4        4203        4204        4255        4254
         4        4204        4205        4256        4255
         4        4205        4206        4257        4256
         4        4206        4207        4258        4257
         4        4207        4208        4259        4258
         4        4208        4209        4260        4259
         4        4209        4210        4261        4260
         4        4210        4211        4262        4261
         4        4211        4212        4263        4262
         4        4212        4213        4264        4263
         4        4213        4214        4265        4264
         4        4214        4215        4266        4265
         4        4215        4216        4267        4266
         4        4216        4217        4268        4267
         4        4217        4218        4269        4268
         4        4218        4219        4270        4269
         4        4219        4220        4271        4270
         4        4220        4221        4272        4271
         4        4221        4222        4273        4272
         4        4222        4223        4274        4273
         4        4223        4224        4275        4274
         4        4224        4225        4276        4275
         4        4225        4226        4277        4276
         4        4226        4227        4278        4277
         4        4227        4228        4279        4278
         4        4228        4229        4280        4279
         4        4229        4230        4281        4280
         4        4230        4231        4282        4281
         4        4231        4232        4283        4282
         4        4233        4234        4285        4284
         4        4234        4235        4286        4285
         4        4235        4236        4287        4286
         4        4236        4237        4288        4287
         4        4237        4238        4289        4288
         4        4238        4239        4290        4289
         4        4239        4240        4291        4290
         4        4240        4241        4292        4291
         4        4241        4242        4293        4292
         4        4242        4243        4294        4293
         4        4243        4244        4295        4294
         4        4244        4245        4296        4295
         4        4245        4246        4297        4296
         4        4246        4247        4298        4297
         4        4247        4248        4299        4298
         4        4248        4249        4300        4299
         4        4249        4250        4301        4300
         4        4250        4251        4302        4301
         4        4251        4252        4303        4302
         4        4252        4253        4304        4303
         4        4253        4254        4305        4304
         4        4254        4255        4306        4305
         4        4255        4256        4307        4306
         4        4256        4257        4308        4307
         4        4257        4258        4309        4308
         4        4258        4259        4310        4309
         4        4259        4260        4311        4310
         4        4260        4261        4312        4311
         4        4261        4262        4313        4312
         4        4262        4263        4314        4313
         4        4263        4264        4315        4314
         4        4264        4265        4316        4315
         4        4265        4266        4317        4316
         4        4266        4267        4318        4317
         4        4267        4268        4319        4318
         4        4268        4269        4320        4319
         4        4269        4270        4321        4320
         4        4270        4271        4322        4321
         4        4271        4272        4323        4322
         4        4272        4273        4324        4323
         4        4273        4274        4325        4324
         4        4274        4275        4326        4325
         4        4275        4276        4327        4326
         4        4276        4277        4328        4327
         4        4277        4278        4329        4328
         4        4278        4279        4330        4329
         4        4279        4280        4331        4330
         4        4280        4281        4332        4331
         4        4281        4282        4333        4332
         4        4282        4283        4334        4333
         4        4284        4285        4336        4335
         4        4285        4286        4337        4336
         4        4286        4287        4338        4337
         4        4287        4288        4339        4338
         4        4288        4289        4340        4339
         4        4289        4290        4341        4340
         4        4290        4291        4342        4341
         4        4291        4292        4343        4342
         4        4292        4293        4344        4343
         4        4293        4294        4345        4344
         4        4294        4295        4346        4345
         4        4295        4296        4347        4346
         4        4296        4297        4348        4347
         4        4297        4298        4349        4348
         4        4298        4299        4350        4349
         4        4299        4300        4351        4350
         4        4300        4301        4352        4351
         4        4301        4302        4353        4352
         4        4302        4303        4354        4353
         4        4303        4304        4355        4354
         4        4304        4305        4356        4355
         4        4305        4306        4357        4356
         4        4306        4307        4358        4357
         4        4307        4308        4359        4358
         4        4308        4309        4360        4359
         4        4309        4310        4361        4360
         4        4310        4311        4362        4361
         4        4311        4312        4363        4362
         4        4312        4313        4364        4363
         4        4313        4314        4365        4364
         4        4314        4315        4366        4365
         4        4315        4316        4367        4366
         4        4316        4317        4368        4367
         4        4317        4318        4369        4368
         4        4318        4319        4370        4369
         4        4319        4320        4371        4370
         4        4320        4321        4372        4371
         4        4321        4322        4373        4372
         4        4322        4323        4374        4373
         4        4323        4324        4375        4374
         4        4324        4325        4376        4375
         4        4325        4326        4377        4376
         4        4326        4327        4378        4377
         4        4327        4328        4379        4378
         4        4328        4329        4380        4379
         4        4329        4330        4381        4380
         4        4330        4331        4382        4381
         4        4331        4332        4383        4382
         4        4332        4333        4384        4383
         4        4333        4334        4385        4384
         4        4335        4336        4387        4386
         4        4336        4337        4388        4387
         4        4337        4338        4389        4388
         4        4338        4339        4390        4389
         4        4339        4340        4391        4390
         4        4340        4341        4392        4391
         4        4341        4342        4393        4392
         4        4342        4343        4394        4393
         4        4343        4344        4395        4394
         4        4344        4345        4396        4395
         4        4345        4346        4397        4396
         4        4346        4347        4398        4397
         4        4347        4348        4399        4398
         4        4348        4349        4400        4399
         4        4349        4350        4401        4400
         4        4350        4351        4402        4401
         4        4351        4352        4403        4402
         4        4352        4353        4404        4403
         4        4353        4354        4405        4404
         4        4354        4355        4406        4405
         4        4355        4356        4407        4406
         4        4356        4357        4408        4407
         4        4357        4358        4409        4408
         4        4358        4359        4410        4409
         4        4359        4360        4411        4410
         4        4360        4361        4412        4411
         4        4361        4362        4413        4412
         4        4362        4363        4414        4413
         4        4363        4364        4415        4414
         4        4364        4365        4416        4415
         4        4365        4366        4417        4416
         4        4366        4367        4418        4417
         4        4367        4368        4419        4418
         4        4368        4369        4420        4419
         4        4369        4370        4421        4420
         4        4370        4371        4422        4421
         4        4371        4372        4423        4422
         4        4372        4373        4424        4423
         4        4373        4374        4425        4424
         4        4374        4375        4426        4425
         4        4375        4376        4427        4426
         4        4376        4377        4428        4427
         4        4377        4378        4429        4428
         4        4378        4379        4430        4429
         4        4379        4380        4431        4430
         4        4380        4381        4432        4431
         4        4381        4382        4433        4432
         4        4382        4383        4434        4433
         4        4383        4384        4435        4434
         4        4384        4385        4436        4435
         4        4386        4387        4438        4437
         4        4387        4388        4439        4438
         4        4388        4389        4440        4439
         4        4389        4390        4441        4440
         4        4390        4391        4442        4441
         4        4391        4392        4443        4442
         4        4392        4393        4444        4443
         4        4393        4394        4445        4444
         4        4394        4395        4446        4445
         4        4395        4396        4447        4446
         4        4396        4397        4448        4447
         4        4397        4398        4449        4448
         4        4398        4399        4450        4449
         4        4399        4400        4451        4450
         4        4400        4401        4452        4451
         4        4401        4402        4453        4452
         4        4402        4403        4454        4453
         4        4403        4404        4455        4454
         4        4404        4405        4456        4455
         4        4405        4406        4457        4456
         4        4406        4407        4458        4457
         4        4407        4408        4459        4458
         4        4408        4409        4460        4459
         4        4409        4410        4461        4460
         4        4410        4411        4462        4461
         4        4411        4412        4463        4462
         4        4412        4413        4464        4463
         4        4413        4414        4465        4464
         4        4414        4415        4466        4465
         4        4415        4416        4467        4466
         4        4416        4417        4468        4467
         4        4417        4418        4469        4468
         4        4418        4419        4470        4469
         4        4419        4420        4471        4470
         4        4420        4421        4472        4471
         4        4421        4422        4473        4472
         4        4422        4423        4474        4473
         4        4423        4424        4475        4474
         4        4424        4425        4476        4475
         4        4425        4426        4477        4476
         4        4426        4427        4478        4477
         4        4427        4428        4479        4478
         4        4428        4429        4480        4479
         4        4429        4430        4481        4480
         4        4430        4431        4482        4481
         4        4431        4432        4483        4482
         4        4432        4433        4484        4483
         4        4433        4434        4485        4484
         4        4434        4435        4486        4485
         4        4435        4436        4487        4486
         4        4437        4438        4489        4488
         4        4438        4439        4490        4489
         4        4439        4440        4491        4490
         4        4440        4441        4492        4491
         4        4441        4442        4493        4492
         4        4442        4443        4494        4493
         4        4443        4444        4495        4494
         4        4444        4445        4496        4495
         4        4445        4446        4497        4496
         4        4446        4447        4498        4497
         4        4447        4448        4499        4498
         4        4448        4449        4500        4499
         4        4449        4450        4501        4500
         4        4450        4451        4502        4501
         4        4451        4452        4503        4502
         4        4452        4453        4504        4503
         4        4453        4454        4505        4504
         4        4454        4455        4506        4505
         4        4455        4456        4507        4506
         4        4456        4457        4508        4507
         4        4457        4458        4509        4508
         4        4458        4459        4510        4509
         4        4459        4460        4511        4510
         4        4460        4461        4512        4511
         4        4461        4462        4513        4512
         4        4462        4463        4514        4513
         4        4463        4464        4515        4514
         4        4464        4465        4516        4515
         4        4465        4466        4517        4516
         4        4466        4467        4518        4517
         4        4467        4468        4519        4518
         4        4468        4469        4520        4519
         4        4469        4470        4521        4520
         4        4470        4471        4522        4521
         4        4471        4472        4523        4522
         4        4472        4473        4524        4523
         4        4473        4474        4525        4524
         4        4474        4475        4526        4525
         4        4475        4476        4527        4526
         4        4476        4477        4528        4527
         4        4477        4478        4529        4528
         4        4478        4479        4530        4529
         4        4479        4480        4531        4530
         4        4480        4481        4532        4531
         4        4481        4482        4533        4532
         4        4482        4483        4534        4533
         4        4483        4484        4535        4534
         4        4484        4485        4536        4535
         4        4485        4486        4537        4536
         4        4486        4487        4538        4537
         4        4488        4489        4540        4539
         4        4489        4490        4541        4540
         4        4490        4491        4542        4541
         4        4491        4492        4543        4542
         4        4492        4493        4544        4543
         4        4493        4494        4545        4544
         4        4494        4495        4546        4545
         4        4495        4496        4547        4546
         4        4496        4497        4548        4547
         4        4497        4498        4549        4548
         4        4498        4499        4550        4549
         4        4499        4500        4551        4550
         4        4500        4501        4552        4551
         4        4501        4502        4553        4552
         4        4502        4503        4554        4553
         4        4503        4504        4555        4554
         4        4504        4505        4556        4555
         4        4505        4506        4557        4556
         4        4506        4507        4558        4557
         4        4507        4508        4559        4558
         4        4508        4509        4560        4559
         4        4509        4510        4561        4560
         4        4510        4511        4562        4561
         4        4511        4512        4563        4562
         4        4512        4513        4564        4563
         4        4513        4514        4565        4564
         4        4514        4515        4566        4565
         4        4515        4516        4567        4566
         4        4516        4517        4568        4567
         4        4517        4518        4569        4568
         4        4518        4519        4570        4569
         4        4519        4520        4571        4570
         4        4520        4521        4572        4571
         4        4521        4522        4573        4572
         4        4522        4523        4574        4573
         4        4523        4524        4575        4574
         4        4524        4525        4576        4575
         4        4525        4526        4577        4576
         4        4526        4527        4578        4577
         4        4527        4528        4579        4578
         4        4528        4529        4580        4579
         4        4529        4530        4581        4580
         4        4530        4531        4582        4581
         4        4531        4532        4583        4582
         4        4532        4533        4584        4583
         4        4533        4534        4585        4584
         4        4534        4535        4586        4585
         4        4535        4536        4587        4586
         4        4536        4537        4588        4587
         4        4537        4538        4589        4588
         4        4539        4540        4591        4590
         4        4540        4541        4592        4591
         4        4541        4542        4593        4592
         4        4542        4543        4594        4593
         4        4543        4544        4595        4594
         4        4544        4545        4596        4595
         4        4545        4546        4597        4596
         4        4546        4547        4598        4597
         4        4547        4548        4599        4598
         4        4548        4549        4600        4599
         4        4549        4550        4601        4600
         4        4550        4551        4602        4601
         4        4551        4552        4603        4602
         4        4552        4553        4604        4603
         4        4553        4554        4605        4604
         4        4554        4555        4606        4605
         4        4555        4556        4607        4606
         4        4556        4557        4608        4607
         4        4557        4558        4609        4608
         4        4558        4559        4610        4609
         4        4559        4560        4611        4610
         4        4560        4561        4612        4611
         4        4561        4562        4613        4612
         4        4562        4563        4614        4613
         4        4563        4564        4615        4614
         4        4564        4565        4616        4615
         4        4565        4566        4617        4616
         4        4566        4567        4618        4617
         4        4567        4568        4619        4618
         4        4568        4569        4620        4619
         4        4569        4570        4621        4620
         4        4570        4571        4622        4621
         4        4571        4572        4623        4622
         4        4572        4573        4624        4623
         4        4573        4574        4625        4624
         4        4574        4575        4626        4625
         4        4575        4576        4627        4626
         4        4576        4577        4628        4627
         4        4577        4578        4629        4628
         4        4578        4579        4630        4629
         4        4579        4580        4631        4630
         4        4580        4581        4632        4631
         4        4581        4582        4633        4632
         4        4582        4583        4634        4633
         4        4583        4584        4635        4634
         4        4584        4585        4636        4635
         4        4585        4586        4637        4636
         4        4586        4587        4638        4637
         4        4587        4588        4639        4638
         4        4588        4589        4640        4639
         4        4590        4591        4642        4641
         4        4591        4592        4643        4642
         4        4592        4593        4644        4643
         4        4593        4594        4645        4644
         4        4594        4595        4646        4645
         4        4595        4596        4647        4646
         4        4596        4597        4648        4647
         4        4597        4598        4649        4648
         4        4598        4599        4650        4649
         4        4599        4600        4651        4650
         4        4600        4601        4652        4651
         4        4601        4602        4653        4652
         4        4602        4603        4654        4653
         4        4603        4604        4655        4654
         4        4604        4605        4656        4655
         4        4605        4606        4657        4656
         4        4606        4607        4658        4657
         4        4607        4608        4659        4658
         4        4608        4609        4660        4659
         4        4609        4610        4661        4660
         4        4610        4611        4662        4661
         4        4611        4612        4663        4662
         4        4612        4613        4664        4663
         4        4613        4614        4665        4664
         4        4614        4615        4666        4665
         4        4615        4616        4667        4666
         4        4616        4617        4668        4667
         4        4617        4618        4669        4668
         4        4618        4619        4670        4669
         4        4619        4620        4671        4670
         4        4620        4621        4672        4671
         4        4621        4622        4673        4672
         4        4622        4623        4674        4673
         4        4623        4624        4675        4674
         4        4624        4625        4676        4675
         4        4625        4626        4677        4676
         4        4626        4627        4678        4677
         4        4627        4628        4679        4678
         4        4628        4629        4680        4679
         4        4629        4630        4681        4680
         4        4630        4631        4682        4681
         4        4631        4632        4683        4682
         4        4632        4633        4684        4683
         4        4633        4634        4685        4684
         4        4634        4635        4686        4685
         4        4635        4636        4687        4686
         4        4636        4637        4688        4687
         4        4637        4638        4689        4688
         4        4638        4639        4690        4689
         4        4639        4640        4691        4690
         4        4641        4642        4693        4692
         4        4642        4643        4694        4693
         4        4643        4644        4695        4694
         4        4644        4645        4696        4695
         4        4645        4646        4697        4696
         4        4646        4647        4698        4697
         4        4647        4648        4699        4698
         4        4648        4649        4700        4699
         4        4649        4650        4701        4700
         4        4650        4651        4702        4701
         4        4651        4652        4703        4702
         4        4652        4653        4704        4703
         4        4653        4654        4705        4704
         4        4654        4655        4706        4705
         4        4655        4656        4707        4706
         4        4656        4657        4708        4707
         4        4657        4658        4709        4708
         4        4658        4659        4710        4709
         4        4659        4660        4711        4710
         4        4660        4661        4712        4711
         4        4661        4662        4713        4712
         4        4662        4663        4714        4713
         4        4663        4664        4715        4714
         4        4664        4665        4716        4715
         4        4665        4666        4717        4716
         4        4666        4667        4718        4717
         4        4667        4668        4719        4718
         4        4668        4669        4720        4719
         4        4669        4670        4721        4720
         4        4670        4671        4722        4721
         4        4671        4672        4723        4722
         4        4672        4673        4724        4723
         4        4673        4674        4725        4724
         4        4674        4675        4726        4725
         4        4675        4676        4727        4726
         4        4676        4677        4728        4727
         4        4677        4678        4729        4728
         4        4678        4679        4730        4729
         4        4679        4680        4731        4730
         4        4680        4681        4732        4731
         4        4681        4682        4733        4732
         4        4682        4683        4734        4733
         4        4683        4684        4735        4734
         4        4684        4685        4736        4735
         4        4685        4686        4737        4736
         4        4686        4687        4738        4737
         4        4687        4688        4739        4738
         4        4688        4689        4740        4739
         4        4689        4690        4741        4740
         4        4690        4691        4742        4741
         4        4692        4693        4744        4743
         4        4693        4694        4745        4744
         4        4694        4695        4746        4745
         4        4695        4696        4747        4746
         4        4696        4697        4748        4747
         4        4697        4698        4749        4748
         4        4698        4699        4750        4749
         4        4699        4700        4751        4750
         4        4700        4701        4752        4751
         4        4701        4702        4753        4752
         4        4702        4703        4754        4753
         4        4703        4704        4755        4754
         4        4704        4705        4756        4755
         4        4705        4706        4757        4756
         4        4706        4707        4758        4757
         4        4707        4708        4759        4758
         4        4708        4709        4760        4759
         4        4709        4710        4761        4760
         4        4710        4711        4762        4761
         4        4711        4712        4763        4762
         4        4712        4713        4764        4763
         4        4713        4714        4765        4764
         4        4714        4715        4766        4765
         4        4715        4716        4767        4766
         4        4716        4717        4768        4767
         4        4717        4718        4769        4768
         4        4718        4719        4770        4769
         4        4719        4720        4771        4770
         4        4720        4721        4772        4771
         4        4721        4722        4773        4772
         4        4722        4723        4774        4773
         4        4723        4724        4775        4774
         4        4724        4725        4776        4775
         4        4725        4726        4777        4776
         4        4726        4727        4778        4777
         4        4727        4728        4779        4778
         4        4728        4729        4780        4779
         4        4729        4730        4781        4780
         4        4730        4731        4782        4781
         4        4731        4732        4783        4782
         4        4732        4733        4784        4783
         4        4733        4734        4785        4784
         4        4734        4735        4786        4785
         4        4735        4736        4787        4786
         4        4736        4737        4788        4787
         4        4737        4738        4789        4788
         4        4738        4739        4790        4789
         4        4739        4740        4791        4790
         4        4740        4741        4792        4791
         4        4741        4742        4793        4792
         4        4743        4744        4795        4794
         4        4744        4745        4796        4795
         4        4745        4746        4797        4796
         4        4746        4747        4798        4797
         4        4747        4748        4799        4798
         4        4748        4749        4800        4799
         4        4749        4750        4801        4800
         4        4750        4751        4802        4801
         4        4751        4752        4803        4802
         4        4752        4753        4804        4803
         4        4753        4754        4805        4804
         4        4754        4755        4806        4805
         4        4755        4756        4807        4806
         4        4756        4757        4808        4807
         4        4757        4758        4809        4808
         4        4758        4759        4810        4809
         4        4759        4760        4811        4810
         4        4760        4761        4812        4811
         4        4761        4762        4813        4812
         4        4762        4763        4814        4813
         4        4763        4764        4815        4814
         4        4764        4765        4816        4815
         4        4765        4766        4817        4816
         4        4766        4767        4818        4817
         4        4767        4768        4819        4818
         4        4768        4769        4820        4819
         4        4769        4770        4821        4820
         4        4770        4771        4822        4821
         4        4771        4772        4823        4822
         4        4772        4773        4824        4823
         4        4773        4774        4825        4824
         4        4774        4775        4826        4825
         4        4775        4776        4827        4826
         4        4776        4777        4828        4827
         4        4777        4778        4829        4828
         4        4778        4779        4830        4829
         4        4779        4780        4831        4830
         4        4780        4781        4832        4831
         4        4781        4782        4833        4832
         4        4782        4783        4834        4833
         4        4783        4784        4835        4834
         4        4784        4785        4836        4835
         4        4785        4786        4837        4836
         4        4786        4787        4838        4837
         4        4787        4788        4839        4838
         4        4788        4789        4840        4839
         4        4789        4790        4841        4840
         4        4790        4791        4842        4841
         4        4791        4792        4843        4842
         4        4792        4793        4844        4843
         4        4794        4795        4846        4845
         4        4795        4796        4847        4846
         4        4796        4797        4848        4847
         4        4797        4798        4849        4848
         4        4798        4799        4850        4849
         4        4799        4800        4851        4850
         4        4800        4801        4852        4851
         4        4801        4802        4853        4852
         4        4802        4803        4854        4853
         4        4803        4804        4855        4854
         4        4804        4805        4856        4855
         4        4805        4806        4857        4856
         4        4806        4807        4858        4857
         4        4807        4808        4859        4858
         4        4808        4809        4860        4859
         4        4809        4810        4861        4860
         4        4810        4811        4862        4861
         4        4811        4812        4863        4862
         4        4812        4813        4864        4863
         4        4813        4814        4865        4864
         4        4814        4815        4866        4865
         4        4815        4816        4867        4866
         4        4816        4817        4868        4867
         4        4817        4818        4869        4868
         4        4818        4819        4870        4869
         4        4819        4820        4871        4870
         4        4820        4821        4872        4871
         4        4821        4822        4873        4872
         4        4822        4823        4874        4873
         4        4823        4824        4875        4874
         4        4824        4825        4876        4875
         4        4825        4826        4877        4876
         4        4826        4827        4878        4877
         4        4827        4828        4879        4878
         4        4828        4829        4880        4879
         4        4829        4830        4881        4880
         4        4830        4831        4882        4881
         4        4831        4832        4883        4882
         4        4832        4833        4884        4883
         4        4833        4834        4885        4884
         4        4834        4835        4886        4885
         4        4835        4836        4887        4886
         4        4836        4837        4888        4887
         4        4837        4838        4889        4888
         4        4838        4839        4890        4889
         4        4839        4840        4891        4890
         4        4840        4841        4892        4891
         4        4841        4842        4893        4892
         4        4842        4843        4894        4893
         4        4843        4844        4895        4894
         4        4845        4846        4897        4896
         4        4846        4847        4898        4897
         4        4847        4848        4899        4898
         4        4848        4849        4900        4899
         4        4849        4850        4901        4900
         4        4850        4851        4902        4901
         4        4851        4852        4903        4902
         4        4852        4853        4904        4903
         4        4853        4854        4905        4904
         4        4854        4855        4906        4905
         4        4855        4856        4907        4906
         4        4856        4857        4908        4907
         4        4857        4858        4909        4908
         4        4858        4859        4910        4909
         4        4859        4860        4911        4910
         4        4860        4861        4912        4911
         4        4861        4862        4913        4912
         4        4862        4863        4914        4913
         4        4863        4864        4915        4914
         4        4864        4865        4916        4915
         4        4865        4866        4917        4916
         4        4866        4867        4918        4917
         4        4867        4868        4919        4918
         4        4868        4869        4920        4919
         4        4869        4870        4921        4920
         4        4870        4871        4922        4921
         4        4871        4872        4923        4922
         4        4872        4873        4924        4923
         4        4873        4874        4925        4924
         4        4874        4875        4926        4925
         4        4875        4876        4927        4926
         4        4876        4877        4928        4927
         4        4877        4878        4929        4928
         4        4878        4879        4930        4929
         4        4879        4880        4931        4930
         4        4880        4881        4932        4931
         4        4881        4882        4933        4932
         4        4882        4883        4934        4933
         4        4883        4884        4935        4934
         4        4884        4885        4936        4935
         4        4885        4886        4937        4936
         4        4886        4887        4938        4937
         4        4887        4888        4939        4938
         4        4888        4889        4940        4939
         4        4889        4890        4941        4940
         4        4890        4891        4942        4941
         4        4891        4892        4943        4942
         4        4892        4893        4944        4943
         4        4893        4894        4945        4944
         4        4894        4895        4946        4945
         4        4896        4897        4948        4947
         4        4897        4898        4949        4948
         4        4898        4899        4950        4949
         4        4899        4900        4951        4950
         4        4900        4901        4952        4951
         4        4901        4902        4953        4952
         4        4902        4903        4954        4953
         4        4903        4904        4955        4954
         4        4904        4905        4956        4955
         4        4905        4906        4957        4956
         4        4906        4907        4958        4957
         4        4907        4908        4959        4958
         4        4908        4909        4960        4959
         4        4909        4910        4961        4960
         4        4910        4911        4962        4961
         4        4911        4912        4963        4962
         4        4912        4913        4964        4963
         4        4913        4914        4965        4964
         4        4914        4915        4966        4965
         4        4915        4916        4967        4966
         4        4916        4917        4968        4967
         4        4917        4918        4969        4968
         4        4918        4919        4970        4969
         4        4919        4920        4971        4970
         4        4920        4921        4972        4971
         4        4921        4922        4973        4972
         4        4922        4923        4974        4973
         4        4923        4924        4975        4974
         4        4924        4925        4976        4975
         4        4925        4926        4977        4976
         4        4926        4927        4978        4977
         4        4927        4928        4979        4978
         4        4928        4929        4980        4979
         4        4929        4930        4981        4980
         4        4930        4931        4982        4981
         4        4931        4932        4983        4982
         4        4932        4933        4984        4983
         4        4933        4934        4985        4984
         4        4934        4935        4986        4985
         4        4935        4936        4987        4986
         4        4936        4937        4988        4987
         4        4937        4938        4989        4988
         4        4938        4939        4990        4989
         4        4939        4940        4991        4990
         4        4940        4941        4992        4991
         4        4941        4942        4993        4992
         4        4942        4943        4994        4993
         4        4943        4944        4995        4994
         4        4944        4945        4996        4995
         4        4945        4946        4997        4996
         4        4947        4948        4999        4998
         4        4948        4949        5000        4999
         4        4949        4950        5001        5000
         4        4950        4951        5002        5001
         4        4951        4952        5003        5002
         4        4952        4953        5004        5003
         4        4953        4954        5005        5004
         4        4954        4955        5006        5005
         4        4955        4956        5007        5006
         4        4956        4957        5008        5007
         4        4957        4958        5009        5008
         4        4958        4959        5010        5009
         4        4959        4960        5011        5010
         4        4960        4961        5012        5011
         4        4961        4962        5013        5012
         4        4962        4963        5014        5013
         4        4963        4964        5015        5014
         4        4964        4965        5016        5015
         4        4965        4966        5017        5016
         4        4966        4967        5018        5017
         4        4967        4968        5019        5018
         4        4968        4969        5020        5019
         4        4969        4970        5021        5020
         4        4970        4971        5022        5021
         4        4971        4972        5023        5022
         4        4972        4973        5024        5023
         4        4973        4974        5025        5024
         4        4974        4975        5026        5025
         4        4975        4976        5027        5026
         4        4976        4977        5028        5027
         4        4977        4978        5029        5028
         4        4978        4979        5030        5029
         4        4979        4980        5031        5030
         4        4980        4981        5032        5031
         4        4981        4982        5033        5032
         4        4982        4983        5034        5033
         4        4983        4984        5035        5034
         4        4984        4985        5036        5035
         4        4985        4986        5037        5036
         4        4986        4987        5038        5037
         4        4987        4988        5039        5038
         4        4988        4989        5040        5039
         4        4989        4990        5041        5040
         4        4990        4991        5042        5041
         4        4991        4992        5043        5042
         4        4992        4993        5044        5043
         4        4993        4994        5045        5044
         4        4994        4995        5046        5045
         4        4995        4996        5047        5046
         4        4996        4997        5048        5047
         4        4998        4999        5050        5049
         4        4999        5000        5051        5050
         4        5000        5001        5052        5051
         4        5001        5002        5053        5052
         4        5002        5003        5054        5053
         4        5003        5004        5055        5054
         4        5004        5005        5056        5055
         4        5005        5006        5057        5056
         4        5006        5007        5058        5057
         4        5007        5008        5059        5058
         4        5008        5009        5060        5059
         4        5009        5010        5061        5060
         4        5010        5011        5062        5061
         4        5011        5012        5063        5062
         4        5012        5013        5064        5063
         4        5013        5014        5065        5064
         4        5014        5015        5066        5065
         4        5015        5016        5067        5066
         4        5016        5017        5068        5067
         4        5017        5018        5069        5068
         4        5018        5019        5070        5069
         4        5019        5020        5071        5070
         4        5020        5021        5072        5071
         4        5021        5022        5073        5072
         4        5022        5023        5074        5073
         4        5023        5024        5075        5074
         4        5024        5025        5076        5075
         4        5025        5026        5077        5076
         4        5026        5027        5078        5077
         4        5027        5028        5079        5078
         4        5028        5029        5080        5079
         4        5029        5030        5081        5080
         4        5030        5031        5082        5081
         4        5031        5032        5083        5082
         4        5032        5033        5084        5083
         4        5033        5034        5085        5084
         4        5034        5035        5086        5085
         4        5035        5036        5087        5086
         4        5036        5037        5088        5087
         4        5037        5038        5089        5088
         4        5038        5039        5090        5089
         4        5039        5040        5091        5090
         4        5040        5041        5092        5091
         4        5041        5042        5093        5092
         4        5042        5043        5094        5093
         4        5043        5044        5095        5094
         4        5044        5045        5096        5095
         4        5045        5046        5097        5096
         4        5046        5047        5098        5097
         4        5047        5048        5099        5098
         4        5049        5050        5101        5100
         4        5050        5051        5102        5101
         4        5051        5052        5103        5102
         4        5052        5053        5104        5103
         4        5053        5054        5105        5104
         4        5054        5055        5106        5105
         4        5055        5056        5107        5106
         4        5056        5057        5108        5107
         4        5057        5058        5109        5108
         4        5058        5059        5110        5109
         4        5059        5060        5111        5110
         4        5060        5061        5112        5111
         4        5061        5062        5113        5112
         4        5062        5063        5114        5113
         4        5063        5064        5115        5114
         4        5064        5065        5116        5115
         4        5065        5066        5117        5116
         4        5066        5067        5118        5117
         4        5067        5068        5119        5118
         4        5068        5069        5120        5119
         4        5069        5070        5121        5120
         4        5070        5071        5122        5121
         4        5071        5072        5123        5122
         4        5072        5073        5124        5123
         4        5073        5074        5125        5124
         4        5074        5075        5126        5125
         4        5075        5076        5127        5126
         4        5076        5077        5128        5127
         4        5077        5078        5129        5128
         4        5078        5079        5130        5129
         4        5079        5080        5131        5130
         4        5080        5081        5132        5131
         4        5081        5082        5133        5132
         4        5082        5083        5134        5133
         4        5083        5084        5135        5134
         4        5084        5085        5136        5135
         4        5085        5086        5137        5136
         4        5086        5087        5138        5137
         4        5087        5088        5139        5138
         4        5088        5089        5140        5139
         4        5089        5090        5141        5140
         4        5090        5091        5142        5141
         4        5091        5092        5143        5142
         4        5092        5093        5144        5143
         4        5093        5094        5145        5144
         4        5094        5095        5146        5145
         4        5095        5096        5147        5146
         4        5096        5097        5148        5147
         4        5097        5098        5149        5148
         4        5098        5099        5150        5149
CELL_TYPES       5000
9
9
9
9
9
9
9
9
9
9
9
9
9
9
9
9
9
9
9
9
9
9
9
9
9
9
9
9
9
9
9
9
9
9
9
9
9
9
9
9
9
9
9
9
9
9
9
9
9
9
9
9
9
9
9
9
9
9
9
9
9
9
9
9
9
9
9
9
9
9
9
9
9
9
9
9
9
9
9
9
9
9
9
9
9
9
9
9
9
9
9
9
9
9
9
9
9
9
9
9
9
9
9
9
9
9
9
9
9
9
9
9
9
9
9
9
9
9
9
9
9
9
9
9
9
9
9
9
9
9
9
9
9
9
9
9
9
9
9
9
9
9
9
9
9
9
9
9
9
9
9
9
9
9
9
9
9
9
9
9
9
9
9
9
9
9
9
9
9
9
9
9
9
9
9
9
9
9
9
9
9
9
9
9
9
9
9
9
9
9
9
9
9
9
9
9
9
9
9
9
9
9
9
9
9
9
9
9
9
9
9
9
9
9
9
9
9
9
9
9
9
9
9
9
9
9
9
9
9
9
9
9
9
9
9
9
9
9
9
9
9
9
9
9
9
9
9
9
9
9
9
9
9
9
9
9
9
9
9
9
9
9
9
9
9
9
9
9
9
9
9
9
9
9
9
9
9
9
9
9
9
9
9
9
9
9
9
9
9
9
9
9
9
9
9
9
9
9
9
9
9
9
9
9
9
9
9
9
9
9
9
9
9
9
9
9
9
9
9
9
9
9
9
9
9
9
9
9
9
9
9
9
9
9
9
9
9
9
9
9
9
9
9
9
9
9
9
9
9
9
9
9
9
9
9
9
9
9
9
9
9
9
9
9
9
9
9
9
9
9
9
9
9
9
9
9
9
9
9
9
9
9
9
9
9
9
9
9
9
9
9
9
9
9
9
9
9
9
9
9
9
9
9
9
9
9
9
9
9
9
9
9
9
9
9
9
9
9
9
9
9
9
9
9
9
9
9
9
9
9
9
9
9
9
9
9
9
9
9
9
9
9
9
9
9
9
9
9
9
9
9
9
9
9
9
9
9
9
9
9
9
9
9
9
9
9
9
9
9
9
9
9
9
9
9
9
9
9
9
9
9
9
9
9
9
9
9
9
9
9
9
9
9
9
9
9
9
9
9
9
9
9
9
9
9
9
9
9
9
9
9
9
9
9
9
9
9
9
9
9
9
9
9
9
9
9
9
9
9
9
9
9
9
9
9
9
9
9
9
9
9
9
9
9
9
9
9
9
9
9
9
9
9
9
9
9
9
9
9
9
9
9
9
9
9
9
9
9
9
9
9
9
9
9
9
9
9
9
9
9
9
9
9
9
9
9
9
9
9
9
9
9
9
9
9
9
9
9
9
9
9
9
9
9
9
9
9
9
9
9
9
9
9
9
9
9
9
9
9
9
9
9
9
9
9
9
9
9
9
9
9
9
9
9
9
9
9
9
9
9
9
9
9
9
9
9
9
9
9
9
9
9
9
9
9
9
9
9
9
9
9
9
9
9
9
9
9
9
9
9
9
9
9
9
9
9
9
9
9
9
9
9
9
9
9
9
9
9
9
9
9
9
9
9
9
9
9
9
9
9
9
9
9
9
9
9
9
9
9
9
9
9
9
9
9
9
9
9
9
9
9
9
9
9
9
9
9
9
9
9
9
9
9
9
9
9
9
9
9
9
9
9
9
9
9
9
9
9
9
9
9
9
9
9
9
9
9
9
9
9
9
9
9
9
9
9
9
9
9
9
9
9
9
9
9
9
9
9
9
9
9
9
9
9
9
9
9
9
9
9
9
9
9
9
9
9
9
9
9
9
9
9
9
9
9
9
9
9
9
9
9
9
9
9
9
9
9
9
9
9
9
9
9
9
9
9
9
9
9
9
9
9
9
9
9
9
9
9
9
9
9
9
9
9
9
9
9
9
9
9
9
9
9
9
9
9
9
9
9
9
9
9
9
9
9
9
9
9
9
9
9
9
9
9
9
9
9
9
9
9
9
9
9
9
9
9
9
9
9
9
9
9
9
9
9
9
9
9
9
9
9
9
9
9
9
9
9
9
9
9
9
9
9
9
9
9
9
9
9
9
9
9
9
9
9
9
9
9
9
9
9
9
9
9
9
9
9
9
9
9
9
9
9
9
9
9
9
9
9
9
9
9
9
9
9
9
9
9
9
9
9
9
9
9
9
9
9
9
9
9
9
9
9
9
9
9
9
9
9
9
9
9
9
9
9
9
9
9
9
9
9
9
9
9
9
9
9
9
9
9
9
9
9
9
9
9
9
9
9
9
9
9
9
9
9
9
9
9
9
9
9
9
9
9
9
9
9
9
9
9
9
9
9
9
9
9
9
9
9
9
9
9
9
9
9
9
9
9
9
9
9
9
9
9
9
9
9
9
9
9
9
9
9
9
9
9
9
9
9
9
9
9
9
9
9
9
9
9
9
9
9
9
9
9
9
9
9
9
9
9
9
9
9
9
9
9
9
9
9
9
9
9
9
9
9
9
9
9
9
9
9
9
9
9
9
9
9
9
9
9
9
9
9
9
9
9
9
9
9
9
9
9
9
9
9
9
9
9
9
9
9
9
9
9
9
9
9
9
9
9
9
9
9
9
9
9
9
9
9
9
9
9
9
9
9
9
9
9
9
9
9
9
9
9
9
9
9
9
9
9
9
9
9
9
9
9
9
9
9
9
9
9
9
9
9
9
9
9
9
9
9
9
9
9
9
9
9
9
9
9
9
9
9
9
9
9
9
9
9
9
9
9
9
9
9
9
9
9
9
9
9
9
9
9
9
9
9
9
9
9
9
9
9
9
9
9
9
9
9
9
9
9
9
9
9
9
9
9
9
9
9
9
9
9
9
9
9
9
9
9
9
9
9
9
9
9
9
9
9
9
9
9
9
9
9
9
9
9
9
9
9
9
9
9
9
9
9
9
9
9
9
9
9
9
9
9
9
9
9
9
9
9
9
9
9
9
9
9
9
9
9
9
9
9
9
9
9
9
9
9
9
9
9
9
9
9
9
9
9
9
9
9
9
9
9
9
9
9
9
9
9
9
9
9
9
9
9
9
9
9
9
9
9
9
9
9
9
9
9
9
9
9
9
9
9
9
9
9
9
9
9
9
9
9
9
9
9
9
9
9
9
9
9
9
9
9
9
9
9
9
9
9
9
9
9
9
9
9
9
9
9
9
9
9
9
9
9
9
9
9
9
9
9
9
9
9
9
9
9
9
9
9
9
9
9
9
9
9
9
9
9
9
9
9
9
9
9
9
9
9
9
9
9
9
9
9
9
9
9
9
9
9
9
9
9
9
9
9
9
9
9
9
9
9
9
9
9
9
9
9
9
9
9
9
9
9
9
9
9
9
9
9
9
9
9
9
9
9
9
9
9
9
9
9
9
9
9
9
9
9
9
9
9
9
9
9
9
9
9
9
9
9
9
9
9
9
9
9
9
9
9
9
9
9
9
9
9
9
9
9
9
9
9
9
9
9
9
9
9
9
9
9
9
9
9
9
9
9
9
9
9
9
9
9
9
9
9
9
9
9
9
9
9
9
9
9
9
9
9
9
9
9
9
9
9
9
9
9
9
9
9
9
9
9
9
9
9
9
9
9
9
9
9
9
9
9
9
9
9
9
9
9
9
9
9
9
9
9
9
9
9
9
9
9
9
9
9
9
9
9
9
9
9
9
9
9
9
9
9
9
9
9
9
9
9
9
9
9
9
9
9
9
9
9
9
9
9
9
9
9
9
9
9
9
9
9
9
9
9
9
9
9
9
9
9
9
9
9
9
9
9
9
9
9
9
9
9
9
9
9
9
9
9
9
9
9
9
9
9
9
9
9
9
9
9
9
9
9
9
9
9
9
9
9
9
9
9
9
9
9
9
9
9
9
9
9
9
9
9
9
9
9
9
9
9
9
9
9
9
9
9
9
9
9
9
9
9
9
9
9
9
9
9
9
9
9
9
9
9
9
9
9
9
9
9
9
9
9
9
9
9
9
9
9
9
9
9
9
9
9
9
9
9
9
9
9
9
9
9
9
9
9
9
9
9
9
9
9
9
9
9
9
9
9
9
9
9
9
9
9
9
9
9
9
9
9
9
9
9
9
9
9
9
9
9
9
9
9
9
9
9
9
9
9
9
9
9
9
9
9
9
9
9
9
9
9
9
9
9
9
9
9
9
9
9
9
9
9
9
9
9
9
9
9
9
9
9
9
9
9
9
9
9
9
9
9
9
9
9
9
9
9
9
9
9
9
9
9
9
9
9
9
9
9
9
9
9
9
9
9
9
9
9
9
9
9
9
9
9
9
9
9
9
9
9
9
9
9
9
9
9
9
9
9
9
9
9
9
9
9
9
9
9
9
9
9
9
9
9
9
9
9
9
9
9
9
9
9
9
9
9
9
9
9
9
9
9
9
9
9
9
9
9
9
9
9
9
9
9
9
9
9
9
9
9
9
9
9
9
9
9
9
9
9
9
9
9
9
9
9
9
9
9
9
9
9
9
9
9
9
9
9
9
9
9
9
9
9
9
9
9
9
9
9
9
9
9
9
9
9
9
9
9
9
9
9
9
9
9
9
9
9
9
9
9
9
9
9
9
9
9
9
9
9
9
9
9
9
9
9
9
9
9
9
9
9
9
9
9
9
9
9
9
9
9
9
9
9
9
9
9
9
9
9
9
9
9
9
9
9
9
9
9
9
9
9
9
9
9
9
9
9
9
9
9
9
9
9
9
9
9
9
9
9
9
9
9
9
9
9
9
9
9
9
9
9
9
9
9
9
9
9
9
9
9
9
9
9
9
9
9
9
9
9
9
9
9
9
9
9
9
9
9
9
9
9
9
9
9
9
9
9
9
9
9
9
9
9
9
9
9
9
9
9
9
9
9
9
9
9
9
9
9
9
9
9
9
9
9
9
9
9
9
9
9
9
9
9
9
9
9
9
9
9
9
9
9
9
9
9
9
9
9
9
9
9
9
9
9
9
9
9
9
9
9
9
9
9
9
9
9
9
9
9
9
9
9
9
9
9
9
9
9
9
9
9
9
9
9
9
9
9
9
9
9
9
9
9
9
9
9
9
9
9
9
9
9
9
9
9
9
9
9
9
9
9
9
9
9
9
9
9
9
9
9
9
9
9
9
9
9
9
9
9
9
9
9
9
9
9
9
9
9
9
9
9
9
9
9
9
9
9
9
9
9
9
9
9
9
9
9
9
9
9
9
9
9
9
9
9
9
9
9
9
9
9
9
9
9
9
9
9
9
9
9
9
9
9
9
9
9
9
9
9
9
9
9
9
9
9
9
9
9
9
9
9
9
9
9
9
9
9
9
9
9
9
9
9
9
9
9
9
9
9
9
9
9
9
9
9
9
9
9
9
9
9
9
9
9
9
9
9
9
9
9
9
9
9
9
9
9
9
9
9
9
9
9
9
9
9
9
9
9
9
9
9
9
9
9
9
9
9
9
9
9
9
9
9
9
9
9
9
9
9
9
9
9
9
9
9
9
9
9
9
9
9
9
9
9
9
9
9
9
9
9
9
9
9
9
9
9
9
9
9
9
9
9
9
9
9
9
9
9
9
9
9
9
9
9
9
9
9
9
9
9
9
9
9
9
9
9
9
9
9
9
9
9
9
9
9
9
9
9
9
9
9
9
9
9
9
9
9
9
9
9
9
9
9
9
9
9
9
9
9
9
9
9
9
9
9
9
9
9
9
9
9
9
9
9
9
9
9
9
9
9
9
9
9
9
9
9
9
9
9
9
9
9
9
9
9
9
9
9
9
9
9
9
9
9
9
9
9
9
9
9
9
9
9
9
9
9
9
9
9
9
9
9
9
9
9
9
9
9
9
9
9
9
9
9
9
9
9
9
9
9
9
9
9
9
9
9
9
9
9
9
9
9
9
9
9
9
9
9
9
9
9
9
9
9
9
9
9
9
9
9
9
9
9
9
9
9
9
9
9
9
9
9
9
9
9
9
9
9
9
9
9
9
9
9
9
9
9
9
9
9
9
9
9
9
9
9
9
9
9
9
9
9
9
9
9
9
9
9
9
9
9
9
9
9
9
9
9
9
9
9
9
9
9
9
9
9
9
9
9
9
9
9
9
9
9
9
9
9
9
9
9
9
9
9
9
9
9
9
9
9
9
9
9
9
9
9
9
9
9
9
9
9
9
9
9
9
9
9
9
9
9
9
9
9
9
9
9
9
9
9
9
9
9
9
9
9
9
9
9
9
9
9
9
9
9
9
9
9
9
9
9
9
9
9
9
9
9
9
9
9
9
9
9
9
9
9
9
9
9
9
9
9
9
9
9
9
9
9
9
9
9
9
9
9
9
9
9
9
9
9
9
9
9
9
9
9
9
9
9
9
9
9
9
9
9
9
9
9
9
9
9
9
9
9
9
9
9
9
9
9
9
9
9
9
9
9
9
9
9
9
9
9
9
9
9
9
9
9
9
9
9
9
9
9
9
9
9
9
9
9
9
9
9
9
9
9
9
9
9
9
9
9
9
9
9
9
9
9
9
9
9
9
9
9
9
9
9
9
9
9
9
9
9
9
9
9
9
9
9
9
9
9
9
9
9
9
9
9
9
9
9
9
9
9
9
9
9
9
9
9
9
9
9
9
9
9
9
9
9
9
9
9
9
9
9
9
9
9
9
9
9
9
9
9
9
9
9
9
9
9
9
9
9
9
9
9
9
9
9
9
9
9
9
9
9
9
9
9
9
9
9
9
9
9
9
9
9
9
9
9
9
9
9
9
9
9
9
9
9
9
9
9
9
9
9
9
9
9
9
9
9
9
9
9
9
9
9
9
9
9
9
9
9
9
9
9
9
9
9
9
9
9
9
9
9
9
9
9
9
9
9
9
9
9
9
9
9
9
9
9
9
9
9
9
9
9
9
9
9
9
9
9
9
9
9
9
9
9
9
9
9
9
9
9
9
9
9
9
9
9
9
9
9
9
9
9
9
9
9
9
9
9
9
9
9
9
9
9
9
9
9
9
9
9
9
9
9
9
9
9
9
9
9
9
9
9
9
9
9
9
9
9
9
9
9
9
9
9
9
9
9
9
9
9
9
9
9
9
9
9
9
9
9
9
9
9
9
9
9
9
9
9
9
9
9
9
9
9
9
9
9
9
9
9
9
9
9
9
9
9
9
9
9
9
9
9
9
9
9
9
9
9
9
9
9
9
9
9
9
9
9
9
9
9
9
9
9
9
9
9
9
9
9
9
9
9
9
9
9
9
9
9
9
9
9
9
9
9
9
9
9
9
9
9
9
9
9
9
9
9
9
9
9
9
9
9
9
9
9
9
9
9
9
9
9
9
9
9
9
9
9
9
9
9
9
9
9
9
9
9
9
9
9
9
9
9
9
9
9
9
9
9
9
9
9
9
9
9
9
9
9
9
9
9
9
9
9
9
9
9
9
9
9
9
9
9
9
9
9
9
9
9
9
9
9
9
9
9
9
9
9
9
9
9
9
9
9
9
9
9
9
9
9
9
9
9
9
9
9
9
9
9
9
9
9
9
9
9
9
9
9
9
9
9
9
9
9
9
9
9
9
9
9
9
9
9
9
9
9
9
9
9
9
9
9
9
9
9
9
9
9
9
9
9
9
9
9
9
9
9
9
9
9
9
9
9
9
9
9
9
9
9
9
9
9
9
9
9
9
9
9
9
9
9
9
9
9
9
9
9
9
9
9
9
9
9
9
9
9
9
9
9
9
9
9
9
9
9
9
9
9
9
9
9
9
9
9
9
9
9
9
9
9
9
9
9
9
9
9
9
9
9
9
9
9
9
9
9
9
9
9
9
9
9
9
9
9
9
9
9
9
9
9
9
9
9
9
9
9
9
9
9
9
9
9
9
9
9
9
9
9
9
9
9
9
9
9
9
9
9
9
9
9
9
9
9
9
9
9
9
9
9
9
9
9
9
9
9
9
9
9
9
9
9
9
9
9
9
9
9
9
9
9
9
9
9
9
9
9
9
9
9
9
9
9
9
9
9
9
9
9
9
9
9
9
9
9
9
9
9
9
9
9
9
9
9
9
9
9
9
9
9
9
9
9
9
9
9
9
9
9
9
9
9
9
9
9
9
9
9
9
9
9
9
9
9
9
9
9
9
9
9
9
9
9
9
9
9
9
9
9
9
9
9
9
9
9
9
9
9
9
9
9
9
9
9
9
9
9
9
9
9
9
9
9
9
9
9
9
9
9
9
9
9
9
9
9
9
9
9
9
9
9
9
9
9
9
9
9
9
9
9
9
9
9
9
9
9
9
9
9
9
9
9
9
9
9
9
9
9
9
9
9
9
9
9
9
9
9
9
9
9
9
9
9
9
9
9
9
9
9
9
9
9
9
9
9
9
9
9
9
9
9
9
9
9
9
9
9
9
9
9
9
9
9
9
9
9
9
9
9
9
9
9
9
9
9
9
9
9
9
9
9
9
9
9
9
9
9
9
9
9
9
9
9
9
9
9
9
9
9
9
9
9
9
9
9
9
9
9
9
9
9
9
9
9
9
9
9
9
9
9
9
9
9
9
9
9
9
9
9
9
9
9
9
9
9
9
9
9
9
9
9
9
9
9
9
9
9
9
9
9
9
9
9
9
9
9
9
9
9
9
9
9
9
9
9
9
9
9
9
9
9
9
9
9
9
9
9
9
9
9
9
9
9
9
9
9
9
9
9
9
9
9
9
9
9
9
9
9
9
9
9
9
9
9
9
9
9
9
9
9
9
9
9
9
9
9
9
9
9
9
9
9
9
9
9
9
9
9
9
9
9
9
9
9
9
9
9
9
9
9
9
9
9
9
9
9
9
9
9
9
9
9
9
9
9
9
9
9
9
9
9
9
9
9
9
9
9
9
9
9
9
9
9
9
9
9
9
9
9
9
9
9
9
9
9
9
9
9
9
9
9
9
9
9
9
9
9
9
9
9
9
9
9
9
9
9
9
9
9
9
9
9
9
9
9
9
9
9
9
9
9
9
9
9
9
9
9
9
9
9
9
9
9
9
9
9
9
9
9
9
9
9
9
9
9
9
9
9
9
9
9
9
9
9
9
9
9
9
9
9
9
9
9
9
9
9
9
9
9
9
9
9
9
9
9
9
9
9
9
9
9
9
9
9
9
9
9
9
9
9
9
9
9
9
9
9
9
9
9
9
9
9
9
9
9
9
9
9
9
9
9
9
9
9
9
9
9
9
9
9
9
9
9
9
9
9
9
9
9
9
9
9
9
9
9
9
9
9
9
9
9
9
9
9
9
9
9
9
9
9
9
9
9
9
9
9
9
9
9
9
9
9
9
9
9
9
9
9
9
9
9
9
9
9
9
9
9
9
9
9
9
9
9
9
9
9
9
9
9
9
9
9
9
9
9
9
9
9
9
9
9
9
9
9
9
9
9
9
9
9
9
9
9
9
9
9
9
9
9
9
9
9
9
9
9
9
9
9
9
9
9
9
9
9
9
9
9
9
9
9
9
9
9
9
9
9
9
9
9
9
9
9
9
9
9
9
9
9
9
9
9
9
9
9
9
9
9
9
9
9
9
9
9
9
9
9
9
9
9
9
9
9
9
9
9
9
9
9
9
9
9
9
9
9
9
9
9
9
9
9
9
9
9
9
9
9
9
9
9
9
9
9
9
9
9
9
9
9
9
9
9
9
9
9
9
9
9
9
9
9
9
9
9
9
9
9
9
9
9
9
9
9
9
9
9
9
9
9
9
9
9
9
9
9
9
9
9
9
9
9
9
9
9
9
9
9
9
9
9
9
9
9
9
9
9
9
9
9
9
9
9
9
9
9
9
9
9
9
9
9
9
9
9
9
9
9
9
9
9
9
9
9
9
9
9
9
9
9
9
9
9
9
9
9
9
9
9
9
9
9
9
9
9
9
9
9
9
9
9
9
9
9
9
9
9
9
9
9
9
9
9
9
9
9
9
9
9
9
9
9
9
9
9
9
9
9
9
9
9
9
9
9
9
9
9
9
9
9
9
9
9
9
9
9
9
9
9
9
9
9
9
9
9
9
9
9
9
9
9
9
9
9
9
9
9
9
9
9
9
9
9
9
9
9
9
9
9
9
9
9
9
9
9
9
9
9
9
9
9
9
9
9
9
9
9
9
9
9
9
9
9
9
9
9
9
9
9
9
9
9
9
9
9
9
9
9
9
9
9
9
9
9
9
9
9
9
9
9
9
9
9
9
9
9
9
9
9
9
9
9
9
9
9
9
9
9
9
9
9
9
9
9
9
9
9
9
9
9
9
9
9
9
9
9
9
9
9
9
9
9
9
9
9
9
9
9
9
9
9
9
9
9
9
9
9
9
9
9
9
9
9
9
9
9
9
9
9
9
9
9
9
9
9
9
9
9
9
9
9
9
9
9
9
9
9
9
9
9
9
9
9
9
9
9
9
9
9
9
9
9
9
9
9
9
9
9
9
9
9
9
9
9
9
9
9
9
9
9
9
9
9
9
9
9
9
9
9
9
9
9
9
9
9
9
9
9
9
9
9
9
9
9
9
9
9
9
9
9
9
9
9
9
9
9
9
9
9
9
9
9
9
9
9
9
9
9
9
9
9
9
9
9
9
9
9
9
9
9
9
9
9
9
9
9
9
9
9
9
9
9
9
9
9
9
9
9
9
9
9
9
9
9
9
9
9
9
9
9
9
9
9
9
9
9
9
9
9
9
9
9
9
9
9
9
9
9
9
9
9
9
9
9
9
9
9
9
9
9
9
9
9
9
9
9
9
9
9
9
9
9
9
9
9
9
9
9
9
9
9
9
9
9
9
9
9
9
9
9
9
9
9
9
9
9
9
9
9
9
9
9
9
9
9
9
9
9
9
9
9
9
9
9
9
9
9
9
9
9
9
9
9
9
9
9
9
9
9
9
9
9
9
9
9
9
9
9
9
9
9
9
9
9
9
9
9
9
9
9
9
9
9
9
9
9
9
9
9
9
9
9
9
9
9
9
9
9
9
9
9
9
9
9
9
9
9
9
9
9
9
9
9
9
9
9
9
9
9
9
9
9
9
9
9
9
9
9
9
9
9
9
9
9
9
9
9
9
9
9
9
9
9
9
9
9
9
9
9
9
9
9
9
9
9
9
9
9
9
9
9
9
9
9
9
9
9
9
9
9
9
9
9
9
9
9
9
9
9
9
9
9
9
9
9
9
9
9
9
9
9
9
9
9
9
9
9
9
9
9
9
9
9
9
9
9
9
9
9
9
9
9
9
9
9
9
9
9
9
9
9
9
9
9
9
POINT_DATA      5151
SCALARS p double 
LOOKUP_TABLE default
   70000000.0000000     
   70000000.0000000     
   70000000.0000000     
   70000000.0000000     
   70000000.0000000     
   70000000.0000000     
   70000000.0000000     
   70000000.0000000     
   70000000.0000000     
   70000000.0000000     
   70000000.0000000     
   70000000.0000000     
   70000000.0000000     
   70000000.0000000     
   70000000.0000000     
   70000000.0000000     
   70000000.0000000     
   70000000.0000000     
   70000000.0000000     
   70000000.0000000     
   70000000.0000000     
   70000000.0000000     
   70000000.0000000     
   70000000.0000000     
   70000000.0000000     
   70000000.0000000     
   70000000.0000000     
   70000000.0000000     
   70000000.0000000     
   70000000.0000000     
   70000000.0000000     
   70000000.0000000     
   70000000.0000000     
   70000000.0000000     
   70000000.0000000     
   70000000.0000000     
   70000000.0000000     
   70000000.0000000     
   70000000.0000000     
   70000000.0000000     
   70000000.0000000     
   70000000.0000000     
   70000000.0000000     
   70000000.0000000     
   70000000.0000000     
   70000000.0000000     
   70000000.0000000     
   70000000.0000000     
   70000000.0000000     
   70000000.0000000     
   70000000.0000000     
   69501294.7852418     
   69501294.8351464     
   69501294.9697656     
   69501295.1726419     
   69501295.4311337     
   69501295.7353448     
   69501296.0773931     
   69501296.4509017     
   69501296.8506381     
   69501297.2722531     
   69501297.7120905     
   69501298.1670432     
   69501298.6344454     
   69501299.1119893     
   69501299.5976594     
   69501300.0896818     
   69501300.5864825     
   69501301.0866547     
   69501301.5889308     
   69501302.0921607     
   69501302.5952924     
   69501303.0973562     
   69501303.5974510     
   69501304.0947326     
   69501304.5884032     
   69501305.0777020     
   69501305.5618969     
   69501306.0402766     
   69501306.5121433     
   69501306.9768055     
   69501307.4335710     
   69501307.8817396     
   69501308.3205961     
   69501308.7494019     
   69501309.1673865     
   69501309.5737381     
   69501309.9675919     
   69501310.3480178     
   69501310.7140044     
   69501311.0644409     
   69501311.3980933     
   69501311.7135758     
   69501312.0093135     
   69501312.2834938     
   69501312.5340024     
   69501312.7583358     
   69501312.9534818     
   69501313.1157502     
   69501313.2405306     
   69501313.3219367     
   69501313.3522781     
   69002598.8467091     
   69002598.9013940     
   69002599.0585368     
   69002599.3079761     
   69002599.6396686     
   69002600.0441532     
   69002600.5127425     
   69002601.0375712     
   69002601.6115713     
   69002602.2284129     
   69002602.8824332     
   69002603.5685614     
   69002604.2822492     
   69002605.0194055     
   69002605.7763382     
   69002606.5497030     
   69002607.3364578     
   69002608.1338231     
   69002608.9392470     
   69002609.7503743     
   69002610.5650192     
   69002611.3811422     
   69002612.1968277     
   69002613.0102651     
   69002613.8197317     
   69002614.6235764     
   69002615.4202052     
   69002616.2080669     
   69002616.9856404     
   69002617.7514217     
   69002618.5039114     
   69002619.2416021     
   69002619.9629657     
   69002620.6664401     
   69002621.3504151     
   69002622.0132174     
   69002622.6530946     
   69002623.2681973     
   69002623.8565590     
   69002624.4160742     
   69002624.9444739     
   69002625.4392976     
   69002625.8978626     
   69002626.3172311     
   69002626.6941749     
   69002627.0251420     
   69002627.3062284     
   69002627.5331688     
   69002627.7013637     
   69002627.8059822     
   69002627.8422111     
   68503909.0719349     
   68503909.1273483     
   68503909.2874675     
   68503909.5442569     
   68503909.8899861     
   68503910.3171795     
   68503910.8186399     
   68503911.3874870     
   68503912.0171903     
   68503912.7015872     
   68503913.4348895     
   68503914.2116781     
   68503915.0268893     
   68503915.8757968     
   68503916.7539899     
   68503917.6573498     
   68503918.5820254     
   68503919.5244092     
   68503920.4811142     
   68503921.4489513     
   68503922.4249077     
   68503923.4061268     
   68503924.3898894     
   68503925.3735952     
   68503926.3547458     
   68503927.3309288     
   68503928.2998023     
   68503929.2590801     
   68503930.2065175     
   68503931.1398976     
   68503932.0570178     
   68503932.9556762     
   68503933.8336591     
   68503934.6887273     
   68503935.5186028     
   68503936.3209559     
   68503937.0933915     
   68503937.8334356     
   68503938.5385219     
   68503939.2059788     
   68503939.8330166     
   68503940.4167166     
   68503940.9540213     
   68503941.4417285     
   68503941.8764891     
   68503942.2548114     
   68503942.5730724     
   68503942.8275363     
   68503943.0143772     
   68503943.1296918     
   68503943.1694697     
   68005222.9536608     
   68005223.0056330     
   68005223.1571798     
   68005223.4021988     
   68005223.7346274     
   68005224.1484944     
   68005224.6379462     
   68005225.1972678     
   68005225.8208997     
   68005226.5034533     
   68005227.2397238     
   68005228.0246980     
   68005228.8535592     
   68005229.7216882     
   68005230.6246608     
   68005231.5582425     
   68005232.5183818     
   68005233.5012004     
   68005234.5029833     
   68005235.5201676     
   68005236.5493307     
   68005237.5871784     
   68005238.6305324     
   68005239.6763184     
   68005240.7215534     
   68005241.7633346     
   68005242.7988264     
   68005243.8252500     
   68005244.8398714     
   68005245.8399906     
   68005246.8229308     
   68005247.7860280     
   68005248.7266206     
   68005249.6420400     
   68005250.5296009     
   68005251.3865926     
   68005252.2102704     
   68005252.9978482     
   68005253.7464921     
   68005254.4533140     
   68005255.1153683     
   68005255.7296485     
   68005256.2930866     
   68005256.8025544     
   68005257.2548667     
   68005257.6467864     
   68005257.9750309     
   68005258.2362791     
   68005258.4271797     
   68005258.5443612     
   68005258.5844575     
   67506538.2438644     
   67506538.2908415     
   67506538.4284571     
   67506538.6520967     
   67506538.9571097     
   67506539.3388286     
   67506539.7925919     
   67506540.3137650     
   67506540.8977573     
   67506541.5400373     
   67506542.2361456     
   67506542.9817048     
   67506543.7724280     
   67506544.6041251     
   67506545.4727070     
   67506546.3741881     
   67506547.3046866     
   67506548.2604239     
   67506549.2377224     
   67506550.2330017     
   67506551.2427748     
   67506552.2636422     
   67506553.2922870     
   67506554.3254679     
   67506555.3600131     
   67506556.3928129     
   67506557.4208132     
   67506558.4410080     
   67506559.4504325     
   67506560.4461563     
   67506561.4252762     
   67506562.3849099     
   67506563.3221895     
   67506564.2342557     
   67506565.1182524     
   67506565.9713214     
   67506566.7905984     
   67506567.5732093     
   67506568.3162669     
   67506569.0168696     
   67506569.6720995     
   67506570.2790230     
   67506570.8346914     
   67506571.3361430     
   67506571.7804061     
   67506572.1645026     
   67506572.4854538     
   67506572.7402866     
   67506572.9260415     
   67506573.0397823     
   67506573.0786037     
   67007852.8677655     
   67007852.9089664     
   67007853.0301564     
   67007853.2279077     
   67007853.4987036     
   67007853.8389567     
   67007854.2450261     
   67007854.7132331     
   67007855.2398757     
   67007855.8212421     
   67007856.4536230     
   67007857.1333215     
   67007857.8566627     
   67007858.6200017     
   67007859.4197294     
   67007860.2522781     
   67007861.1141257     
   67007862.0017982     
   67007862.9118720     
   67007863.8409743     
   67007864.7857838     
   67007865.7430296     
   67007866.7094898     
   67007867.6819900     
   67007868.6574009     
   67007869.6326352     
   67007870.6046451     
   67007871.5704186     
   67007872.5269770     
   67007873.4713708     
   67007874.4006768     
   67007875.3119947     
   67007876.2024443     
   67007877.0691623     
   67007877.9093001     
   67007878.7200214     
   67007879.4985005     
   67007880.2419209     
   67007880.9474744     
   67007881.6123611     
   67007882.2337890     
   67007882.8089752     
   67007883.3351472     
   67007883.8095449     
   67007884.2294232     
   67007884.5920550     
   67007884.8947354     
   67007885.1347858     
   67007885.3095581     
   67007885.4164402     
   67007885.4528611     
   66509164.8744513     
   66509164.9096979     
   66509165.0137264     
   66509165.1840656     
   66509165.4181273     
   66509165.7132202     
   66509166.0665649     
   66509166.4753066     
   66509166.9365276     
   66509167.4472592     
   66509168.0044921     
   66509168.6051862     
   66509169.2462793     
   66509169.9246956     
   66509170.6373522     
   66509171.3811656     
   66509172.1530571     
   66509172.9499575     
   66509173.7688106     
   66509174.6065766     
   66509175.4602347     
   66509176.3267849     
   66509177.2032493     
   66509178.0866731     
   66509178.9741252     
   66509179.8626978     
   66509180.7495070     
   66509181.6316920     
   66509182.5064145     
   66509183.3708579     
   66509184.2222270     
   66509185.0577468     
   66509185.8746620     
   66509186.6702360     
   66509187.4417509     
   66509188.1865068     
   66509188.9018214     
   66509189.5850307     
   66509190.2334888     
   66509190.8445683     
   66509191.4156619     
   66509191.9441829     
   66509192.4275669     
   66509192.8632734     
   66509193.2487883     
   66509193.5816260     
   66509193.8593315     
   66509194.0794842     
   66509194.2397001     
   66509194.3376358     
   66509194.3709911     
   66010472.4085938     
   66010472.4380373     
   66010472.5252193     
   66010472.6684375     
   66010472.8658596     
   66010473.1155350     
   66010473.4154067     
   66010473.7633219     
   66010474.1570429     
   66010474.5942570     
   66010475.0725854     
   66010475.5895927     
   66010476.1427945     
   66010476.7296651     
   66010477.3476443     
   66010477.9941440     
   66010478.6665541     
   66010479.3622471     
   66010480.0785838     
   66010480.8129163     
   66010481.5625926     
   66010482.3249596     
   66010483.0973659     
   66010483.8771643     
   66010484.6617140     
   66010485.4483824     
   66010486.2345464     
   66010487.0175942     
   66010487.7949261     
   66010488.5639558     
   66010489.3221106     
   66010490.0668333     
   66010490.7955819     
   66010491.5058311     
   66010492.1950724     
   66010492.8608153     
   66010493.5005881     
   66010494.1119386     
   66010494.6924352     
   66010495.2396680     
   66010495.7512500     
   66010496.2248185     
   66010496.6580365     
   66010497.0485940     
   66010497.3942101     
   66010497.6926345     
   66010497.9416495     
   66010498.1390715     
   66010498.2827537     
   66010498.3705871     
   66010498.4005032     
   65511773.6917898     
   65511773.7157787     
   65511773.7870433     
   65511773.9044986     
   65511774.0669267     
   65511774.2729862     
   65511774.5212222     
   65511774.8100751     
   65511775.1378894     
   65511775.5029226     
   65511775.9033529     
   65511776.3372870     
   65511776.8027670     
   65511777.2977779     
   65511777.8202536     
   65511778.3680831     
   65511778.9391162     
   65511779.5311684     
   65511780.1420266     
   65511780.7694526     
   65511781.4111881     
   65511782.0649582     
   65511782.7284749     
   65511783.3994406     
   65511784.0755507     
   65511784.7544966     
   65511785.4339681     
   65511786.1116559     
   65511786.7852531     
   65511787.4524579     
   65511788.1109750     
   65511788.7585175     
   65511789.3928084     
   65511790.0115820     
   65511790.6125857     
   65511791.1935812     
   65511791.7523461     
   65511792.2866752     
   65511792.7943816     
   65511793.2732984     
   65511793.7212804     
   65511794.1362048     
   65511794.5159729     
   65511794.8585116     
   65511795.1617747     
   65511795.4237444     
   65511795.6424323     
   65511795.8158812     
   65511795.9421662     
   65511796.0193956     
   65511796.0457125     
   65013067.0098459     
   65013067.0288284     
   65013067.0854277     
   65013067.1790524     
   65013067.3089820     
   65013067.4743745     
   65013067.6742742     
   65013067.9076191     
   65013068.1732489     
   65013068.4699110     
   65013068.7962683     
   65013069.1509054     
   65013069.5323352     
   65013069.9390043     
   65013070.3692997     
   65013070.8215535     
   65013071.2940488     
   65013071.7850243     
   65013072.2926791     
   65013072.8151771     
   65013073.3506514     
   65013073.8972081     
   65013074.4529301     
   65013075.0158804     
   65013075.5841058     
   65013076.1556395     
   65013076.7285046     
   65013077.3007161     
   65013077.8702841     
   65013078.4352157     
   65013078.9935181     
   65013079.5431997     
   65013080.0822728     
   65013080.6087556     
   65013081.1206738     
   65013081.6160624     
   65013082.0929676     
   65013082.5494482     
   65013082.9835772     
   65013083.3934437     
   65013083.7771539     
   65013084.1328324     
   65013084.4586242     
   65013084.7526954     
   65013085.0132344     
   65013085.2384537     
   65013085.4265902     
   65013085.5759068     
   65013085.6846927     
   65013085.7512647     
   65013085.7739676     
   64514350.7038399     
   64514350.7183013     
   64514350.7616164     
   64514350.8335882     
   64514350.9338979     
   64514351.0621114     
   64514351.2176855     
   64514351.3999743     
   64514351.6082348     
   64514351.8416330     
   64514352.0992498     
   64514352.3800862     
   64514352.6830689     
   64514353.0070560     
   64514353.3508412     
   64514353.7131592     
   64514354.0926905     
   64514354.4880658     
   64514354.8978699     
   64514355.3206467     
   64514355.7549025     
   64514356.1991100     
   64514356.6517121     
   64514357.1111249     
   64514357.5757416     
   64514358.0439353     
   64514358.5140617     
   64514358.9844627     
   64514359.4534683     
   64514359.9193997     
   64514360.3805714     
   64514360.8352937     
   64514361.2818751     
   64514361.7186240     
   64514362.1438510     
   64514362.5558707     
   64514362.9530034     
   64514363.3335770     
   64514363.6959286     
   64514364.0384060     
   64514364.3593692     
   64514364.6571918     
   64514364.9302622     
   64514365.1769848     
   64514365.3957814     
   64514365.5850917     
   64514365.7433747     
   64514365.8691093     
   64514365.9607949     
   64514366.0169521     
   64514366.0361234     
   64015623.1637776     
   64015623.1741991     
   64015623.2056153     
   64015623.2581438     
   64015623.3317902     
   64015623.4264537     
   64015623.5419313     
   64015623.6779235     
   64015623.8340386     
   64015624.0097980     
   64015624.2046406     
   64015624.4179277     
   64015624.6489471     
   64015624.8969181     
   64015625.1609955     
   64015625.4402741     
   64015625.7337924     
   64015626.0405371     
   64015626.3594462     
   64015626.6894139     
   64015627.0292929     
   64015627.3778989     
   64015627.7340134     
   64015628.0963872     
   64015628.4637434     
   64015628.8347804     
   64015629.2081746     
   64015629.5825836     
   64015629.9566484     
   64015630.3289960     
   64015630.6982420     
   64015631.0629927     
   64015631.4218475     
   64015631.7734007     
   64015632.1162437     
   64015632.4489670     
   64015632.7701618     
   64015633.0784217     
   64015633.3723444     
   64015633.6505334     
   64015633.9115992     
   64015634.1541604     
   64015634.3768455     
   64015634.5782937     
   64015634.7571560     
   64015634.9120960     
   64015635.0417911     
   64015635.1449328     
   64015635.2202277     
   64015635.2663974     
   64015635.2821799     
   63516882.8240785     
   63516882.8309128     
   63516882.8517428     
   63516882.8869378     
   63516882.9367664     
   63516883.0013998     
   63516883.0809164     
   63516883.1753052     
   63516883.2844701     
   63516883.4082334     
   63516883.5463400     
   63516883.6984608     
   63516883.8641971     
   63516884.0430835     
   63516884.2345925     
   63516884.4381372     
   63516884.6530755     
   63516884.8787129     
   63516885.1143064     
   63516885.3590676     
   63516885.6121659     
   63516885.8727315     
   63516886.1398586     
   63516886.4126078     
   63516886.6900099     
   63516886.9710676     
   63516887.2547589     
   63516887.5400391     
   63516887.8258438     
   63516888.1110907     
   63516888.3946823     
   63516888.6755079     
   63516888.9524455     
   63516889.2243643     
   63516889.4901261     
   63516889.7485874     
   63516889.9986010     
   63516890.2390177     
   63516890.4686878     
   63516890.6864626     
   63516890.8911958     
   63516891.0817446     
   63516891.2569710     
   63516891.4157430     
   63516891.5569354     
   63516891.6794309     
   63516891.7821204     
   63516891.8639046     
   63516891.9236935     
   63516891.9604080     
   63516891.9729792     
   63018128.1603728     
   63018128.1640310     
   63018128.1754727     
   63018128.1952704     
   63018128.2239067     
   63018128.2617768     
   63018128.3091922     
   63018128.3663831     
   63018128.4335023     
   63018128.5106272     
   63018128.5977640     
   63018128.6948501     
   63018128.8017572     
   63018128.9182949     
   63018129.0442132     
   63018129.1792055     
   63018129.3229122     
   63018129.4749226     
   63018129.6347788     
   63018129.8019777     
   63018129.9759742     
   63018130.1561839     
   63018130.3419854     
   63018130.5327232     
   63018130.7277103     
   63018130.9262302     
   63018131.1275398     
   63018131.3308710     
   63018131.5354337     
   63018131.7404175     
   63018131.9449937     
   63018132.1483177     
   63018132.3495306     
   63018132.5477610     
   63018132.7421270     
   63018132.9317379     
   63018133.1156954     
   63018133.2930956     
   63018133.4630305     
   63018133.6245887     
   63018133.7768574     
   63018133.9189234     
   63018134.0498739     
   63018134.1687981     
   63018134.2747876     
   63018134.3669377     
   63018134.4443479     
   63018134.5061227     
   63018134.5513723     
   63018134.5792128     
   63018134.5887671     
   62519357.6872561     
   62519357.6881020     
   62519357.6912199     
   62519357.6973484     
   62519357.7071461     
   62519357.7211940     
   62519357.7399983     
   62519357.7639922     
   62519357.7935386     
   62519357.8289325     
   62519357.8704037     
   62519357.9181187     
   62519357.9721836     
   62519358.0326469     
   62519358.0995010     
   62519358.1726857     
   62519358.2520901     
   62519358.3375552     
   62519358.4288763     
   62519358.5258054     
   62519358.6280535     
   62519358.7352928     
   62519358.8471593     
   62519358.9632549     
   62519359.0831492     
   62519359.2063824     
   62519359.3324667     
   62519359.4608884     
   62519359.5911104     
   62519359.7225736     
   62519359.8546989     
   62519359.9868890     
   62519360.1185303     
   62519360.2489942     
   62519360.3776391     
   62519360.5038118     
   62519360.6268490     
   62519360.7460784     
   62519360.8608207     
   62519360.9703902     
   62519361.0740965     
   62519361.1712452     
   62519361.2611395     
   62519361.3430806     
   62519361.4163691     
   62519361.4803053     
   62519361.5341909     
   62519361.5773287     
   62519361.6090237     
   62519361.6285835     
   62519361.6353194     
   62020569.9567389     
   62020569.9550885     
   62020569.9508111     
   62020569.9447825     
   62020569.9378083     
   62020569.9306257     
   62020569.9239050     
   62020569.9182517     
   62020569.9142081     
   62020569.9122556     
   62020569.9128162     
   62020569.9162547     
   62020569.9228805     
   62020569.9329500     
   62020569.9466681     
   62020569.9641908     
   62020569.9856265     
   62020570.0110390     
   62020570.0404483     
   62020570.0738337     
   62020570.1111350     
   62020570.1522551     
   62020570.1970612     
   62020570.2453875     
   62020570.2970365     
   62020570.3517810     
   62020570.4093660     
   62020570.4695105     
   62020570.5319088     
   62020570.5962330     
   62020570.6621339     
   62020570.7292428     
   62020570.7971732     
   62020570.8655223     
   62020570.9338722     
   62020571.0017916     
   62020571.0688367     
   62020571.1345533     
   62020571.1984770     
   62020571.2601353     
   62020571.3190480     
   62020571.3747288     
   62020571.4266859     
   62020571.4744233     
   62020571.5174413     
   62020571.5552379     
   62020571.5873088     
   62020571.6131486     
   62020571.6322515     
   62020571.6441118     
   62020571.6482239     
   61521763.5572067     
   61521763.5533309     
   61521763.5424561     
   61521763.5255747     
   61521763.5036169     
   61521763.4774530     
   61521763.4478937     
   61521763.4156924     
   61521763.3815459     
   61521763.3460966     
   61521763.3099333     
   61521763.2735931     
   61521763.2375632     
   61521763.2022820     
   61521763.1681409     
   61521763.1354862     
   61521763.1046205     
   61521763.0758044     
   61521763.0492581     
   61521763.0251632     
   61521763.0036645     
   61521762.9848710     
   61521762.9688583     
   61521762.9556696     
   61521762.9453179     
   61521762.9377870     
   61521762.9330334     
   61521762.9309877     
   61521762.9315561     
   61521762.9346219     
   61521762.9400472     
   61521762.9476737     
   61521762.9573247     
   61521762.9688059     
   61521762.9819070     
   61521762.9964031     
   61521763.0120556     
   61521763.0286133     
   61521763.0458139     
   61521763.0633847     
   61521763.0810440     
   61521763.0985019     
   61521763.1154611     
   61521763.1316181     
   61521763.1466637     
   61521763.1602843     
   61521763.1721621     
   61521763.1819762     
   61521763.1894031     
   61521763.1941172     
   61521763.1957917     
   61022937.1127537     
   61022937.1068828     
   61022937.0900910     
   61022937.0634710     
   61022937.0280614     
   61022936.9848475     
   61022936.9347624     
   61022936.8786879     
   61022936.8174559     
   61022936.7518492     
   61022936.6826028     
   61022936.6104051     
   61022936.5358993     
   61022936.4596842     
   61022936.3823163     
   61022936.3043101     
   61022936.2261404     
   61022936.1482431     
   61022936.0710168     
   61022935.9948239     
   61022935.9199923     
   61022935.8468166     
   61022935.7755596     
   61022935.7064532     
   61022935.6397005     
   61022935.5754764     
   61022935.5139296     
   61022935.4551833     
   61022935.3993370     
   61022935.3464675     
   61022935.2966302     
   61022935.2498603     
   61022935.2061742     
   61022935.1655703     
   61022935.1280305     
   61022935.0935213     
   61022935.0619945     
   61022935.0333887     
   61022935.0076302     
   61022934.9846340     
   61022934.9643045     
   61022934.9465368     
   61022934.9312173     
   61022934.9182248     
   61022934.9074311     
   61022934.8987017     
   61022934.8918970     
   61022934.8868723     
   61022934.8834791     
   61022934.8815657     
   61022934.8809773     
   60524089.2827942     
   60524089.2751228     
   60524089.2529902     
   60524089.2175780     
   60524089.1700203     
   60524089.1114045     
   60524089.0427713     
   60524088.9651165     
   60524088.8793909     
   60524088.7865017     
   60524088.6873132     
   60524088.5826480     
   60524088.4732874     
   60524088.3599733     
   60524088.2434083     
   60524088.1242574     
   60524088.0031489     
   60524087.8806755     
   60524087.7573953     
   60524087.6338330     
   60524087.5104815     
   60524087.3878020     
   60524087.2662262     
   60524087.1461567     
   60524087.0279687     
   60524086.9120108     
   60524086.7986060     
   60524086.6880534     
   60524086.5806288     
   60524086.4765859     
   60524086.3761576     
   60524086.2795567     
   60524086.1869773     
   60524086.0985959     
   60524086.0145720     
   60524085.9350493     
   60524085.8601568     
   60524085.7900099     
   60524085.7247107     
   60524085.6643496     
   60524085.6090056     
   60524085.5587476     
   60524085.5136351     
   60524085.4737190     
   60524085.4390420     
   60524085.4096401     
   60524085.3855428     
   60524085.3667737     
   60524085.3533514     
   60524085.3452903     
   60524085.3426009     
   60025218.7618771     
   60025218.7525695     
   60025218.7255833     
   60025218.6821807     
   60025218.6235821     
   60025218.5509663     
   60025218.4654712     
   60025218.3681942     
   60025218.2601931     
   60025218.1424864     
   60025218.0160543     
   60025217.8818393     
   60025217.7407469     
   60025217.5936468     
   60025217.4413730     
   60025217.2847254     
   60025217.1244704     
   60025216.9613416     
   60025216.7960409     
   60025216.6292395     
   60025216.4615786     
   60025216.2936708     
   60025216.1261004     
   60025215.9594252     
   60025215.7941764     
   60025215.6308605     
   60025215.4699600     
   60025215.3119340     
   60025215.1572198     
   60025215.0062332     
   60025214.8593699     
   60025214.7170062     
   60025214.5795001     
   60025214.4471922     
   60025214.3204062     
   60025214.1994505     
   60025214.0846185     
   60025213.9761896     
   60025213.8744303     
   60025213.7795948     
   60025213.6919256     
   60025213.6116547     
   60025213.5390043     
   60025213.4741872     
   60025213.4174079     
   60025213.3688632     
   60025213.3287430     
   60025213.2972306     
   60025213.2745040     
   60025213.2607360     
   60025213.2560948     
   59526324.2796563     
   59526324.2688514     
   59526324.2374240     
   59526324.1867110     
   59526324.1180118     
   59526324.0325891     
   59526323.9316693     
   59526323.8164427     
   59526323.6880637     
   59526323.5476519     
   59526323.3962926     
   59526323.2350367     
   59526323.0649022     
   59526322.8868743     
   59526322.7019061     
   59526322.5109196     
   59526322.3148059     
   59526322.1144264     
   59526321.9106135     
   59526321.7041710     
   59526321.4958753     
   59526321.2864760     
   59526321.0766969     
   59526320.8672362     
   59526320.6587682     
   59526320.4519435     
   59526320.2473900     
   59526320.0457138     
   59526319.8475000     
   59526319.6533133     
   59526319.4636993     
   59526319.2791850     
   59526319.1002793     
   59526318.9274746     
   59526318.7612470     
   59526318.6020571     
   59526318.4503512     
   59526318.3065616     
   59526318.1711077     
   59526318.0443967     
   59526317.9268242     
   59526317.8187751     
   59526317.7206239     
   59526317.6327361     
   59526317.5554686     
   59526317.4891699     
   59526317.4341816     
   59526317.3908383     
   59526317.3594689     
   59526317.3403967     
   59526317.3339403     
   59027404.6009755     
   59027404.5887912     
   59027404.5532734     
   59027404.4958289     
   59027404.4178311     
   59027404.3206206     
   59027404.2055054     
   59027404.0737612     
   59027403.9266318     
   59027403.7653296     
   59027403.5910355     
   59027403.4049004     
   59027403.2080446     
   59027403.0015589     
   59027402.7865049     
   59027402.5639159     
   59027402.3347971     
   59027402.1001264     
   59027401.8608550     
   59027401.6179081     
   59027401.3721854     
   59027401.1245618     
   59027400.8758882     
   59027400.6269921     
   59027400.3786784     
   59027400.1317297     
   59027399.8869077     
   59027399.6449533     
   59027399.4065877     
   59027399.1725129     
   59027398.9434123     
   59027398.7199520     
   59027398.5027808     
   59027398.2925315     
   59027398.0898211     
   59027397.8952521     
   59027397.7094125     
   59027397.5328771     
   59027397.3662081     
   59027397.2099553     
   59027397.0646575     
   59027396.9308427     
   59027396.8090288     
   59027396.6997244     
   59027396.6034293     
   59027396.5206355     
   59027396.4518275     
   59027396.3974829     
   59027396.3580733     
   59027396.3340646     
   59027396.3259179     
   58528458.5260446     
   58528458.5125816     
   58528458.4732736     
   58528458.4095939     
   58528458.3229858     
   58528458.2148629     
   58528458.0866099     
   58528457.9395821     
   58528457.7751062     
   58528457.5944803     
   58528457.3989746     
   58528457.1898313     
   58528456.9682655     
   58528456.7354651     
   58528456.4925918     
   58528456.2407811     
   58528455.9811430     
   58528455.7147624     
   58528455.4426998     
   58528455.1659916     
   58528454.8856508     
   58528454.6026676     
   58528454.3180098     
   58528454.0326234     
   58528453.7474336     
   58528453.4633448     
   58528453.1812416     
   58528452.9019896     
   58528452.6264352     
   58528452.3554072     
   58528452.0897169     
   58528451.8301589     
   58528451.5775114     
   58528451.3325376     
   58528451.0959853     
   58528450.8685888     
   58528450.6510681     
   58528450.4441308     
   58528450.2484720     
   58528450.0647751     
   58528449.8937127     
   58528449.7359465     
   58528449.5921288     
   58528449.4629028     
   58528449.3489028     
   58528449.2507555     
   58528449.1690799     
   58528449.1044886     
   58528449.0575877     
   58528449.0289779     
   58528449.0192552     
   58029484.8906841     
   58029484.8760295     
   58029484.8331912     
   58029484.7637060     
   58029484.6690836     
   58029484.5508074     
   58029484.4103341     
   58029484.2490940     
   58029484.0684916     
   58029483.8699053     
   58029483.6546881     
   58029483.4241677     
   58029483.1796472     
   58029482.9224046     
   58029482.6536942     
   58029482.3747461     
   58029482.0867673     
   58029481.7909416     
   58029481.4884304     
   58029481.1803729     
   58029480.8678869     
   58029480.5520688     
   58029480.2339943     
   58029479.9147194     
   58029479.5952801     
   58029479.2766933     
   58029478.9599575     
   58029478.6460532     
   58029478.3359433     
   58029478.0305739     
   58029477.7308746     
   58029477.4377594     
   58029477.1521268     
   58029476.8748609     
   58029476.6068316     
   58029476.3488952     
   58029476.1018953     
   58029475.8666629     
   58029475.6440174     
   58029475.4347670     
   58029475.2397091     
   58029475.0596313     
   58029474.8953115     
   58029474.7475189     
   58029474.6170143     
   58029474.5045506     
   58029474.4108738     
   58029474.3367231     
   58029474.2828317     
   58029474.2499274     
   58029474.2387331     
   57530482.5666260     
   57530482.5508560     
   57530482.5047146     
   57530482.4297998     
   57530482.3276854     
   57530482.1999208     
   57530482.0480316     
   57530481.8735192     
   57530481.6778613     
   57530481.4625122     
   57530481.2289025     
   57530480.9784402     
   57530480.7125102     
   57530480.4324752     
   57530480.1396755     
   57530479.8354295     
   57530479.5210344     
   57530479.1977660     
   57530478.8668792     
   57530478.5296090     
   57530478.1871700     
   57530477.8407574     
   57530477.4915475     
   57530477.1406973     
   57530476.7893463     
   57530476.4386157     
   57530476.0896096     
   57530475.7434153     
   57530475.4011037     
   57530475.0637299     
   57530474.7323335     
   57530474.4079395     
   57530474.0915583     
   57530473.7841866     
   57530473.4868078     
   57530473.2003925     
   57530472.9258990     
   57530472.6642739     
   57530472.4164525     
   57530472.1833596     
   57530471.9659098     
   57530471.7650078     
   57530471.5815497     
   57530471.4164226     
   57530471.2705059     
   57530471.1446714     
   57530471.0397840     
   57530470.9567021     
   57530470.8962785     
   57530470.8593604     
   57530470.8467905     
   57031450.4618589     
   57031450.4450411     
   57031450.3957979     
   57031450.3157869     
   57031450.2066435     
   57031450.0699807     
   57031449.9073894     
   57031449.7204390     
   57031449.5106767     
   57031449.2796283     
   57031449.0287982     
   57031448.7596697     
   57031448.4737050     
   57031448.1723456     
   57031447.8570130     
   57031447.5291083     
   57031447.1900125     
   57031446.8410877     
   57031446.4836763     
   57031446.1191022     
   57031445.7486705     
   57031445.3736684     
   57031444.9953654     
   57031444.6150135     
   57031444.2338477     
   57031443.8530868     
   57031443.4739329     
   57031443.0975730     
   57031442.7251783     
   57031442.3579055     
   57031441.9968969     
   57031441.6432806     
   57031441.2981714     
   57031440.9626712     
   57031440.6378691     
   57031440.3248423     
   57031440.0246564     
   57031439.7383658     
   57031439.4670143     
   57031439.2116357     
   57031438.9732539     
   57031438.7528839     
   57031438.5515319     
   57031438.3701959     
   57031438.2098663     
   57031438.0715265     
   57031437.9561530     
   57031437.8647163     
   57031437.7981812     
   57031437.7575075     
   57031437.7436501     
   56532387.5210091     
   56532387.5032043     
   56532387.4510406     
   56532387.3662332     
   56532387.2504768     
   56532387.1054458     
   56532386.9327940     
   56532386.7341552     
   56532386.5111432     
   56532386.2653517     
   56532385.9983549     
   56532385.7117072     
   56532385.4069441     
   56532385.0855817     
   56532384.7491172     
   56532384.3990295     
   56532384.0367789     
   56532383.6638077     
   56532383.2815404     
   56532382.8913843     
   56532382.4947293     
   56532382.0929483     
   56532381.6873981     
   56532381.2794191     
   56532380.8703360     
   56532380.4614580     
   56532380.0540794     
   56532379.6494797     
   56532379.2489240     
   56532378.8536639     
   56532378.4649371     
   56532378.0839685     
   56532377.7119701     
   56532377.3501419     
   56532376.9996720     
   56532376.6617370     
   56532376.3375029     
   56532376.0281249     
   56532375.7347482     
   56532375.4585085     
   56532375.2005323     
   56532374.9619375     
   56532374.7438336     
   56532374.5473224     
   56532374.3734984     
   56532374.2234496     
   56532374.0982572     
   56532373.9989967     
   56532373.9267383     
   56532373.8825471     
   56532373.8674840     
   56033292.7257510     
   56033292.7070145     
   56033292.6520953     
   56033292.5627646     
   56033292.4407744     
   56033292.2878580     
   56033292.1057296     
   56033291.8960850     
   56033291.6606011     
   56033291.4009366     
   56033291.1187319     
   56033290.8156092     
   56033290.4931729     
   56033290.1530096     
   56033289.7966883     
   56033289.4257611     
   56033289.0417629     
   56033288.6462115     
   56033288.2406089     
   56033287.8264400     
   56033287.4051742     
   56033286.9782654     
   56033286.5471518     
   56033286.1132566     
   56033285.6779884     
   56033285.2427413     
   56033284.8088953     
   56033284.3778167     
   56033283.9508586     
   56033283.5293607     
   56033283.1146505     
   56033282.7080430     
   56033282.3108414     
   56033281.9243372     
   56033281.5498110     
   56033281.1885327     
   56033280.8417617     
   56033280.5107478     
   56033280.1967309     
   56033279.9009423     
   56033279.6246043     
   56033279.3689311     
   56033279.1351291     
   56033278.9243973     
   56033278.7379280     
   56033278.5769066     
   56033278.4425128     
   56033278.3359204     
   56033278.2582984     
   56033278.2108109     
   56033278.1946177     
   55534165.0952397     
   55534165.0756228     
   55534165.0181008     
   55534164.9244991     
   55534164.7966250     
   55534164.6362686     
   55534164.4452022     
   55534164.2251806     
   55534163.9779416     
   55534163.7052055     
   55534163.4086759     
   55534163.0900392     
   55534162.7509653     
   55534162.3931076     
   55534162.0181032     
   55534161.6275730     
   55534161.2231222     
   55534160.8063402     
   55534160.3788012     
   55534159.9420639     
   55534159.4976724     
   55534159.0471560     
   55534158.5920296     
   55534158.1337943     
   55534157.6739372     
   55534157.2139317     
   55534156.7552386     
   55534156.2993053     
   55534155.8475669     
   55534155.4014462     
   55534154.9623543     
   55534154.5316907     
   55534154.1108437     
   55534153.7011907     
   55534153.3040988     
   55534152.9209249     
   55534152.5530162     
   55534152.2017107     
   55534151.8683373     
   55534151.5542163     
   55534151.2606599     
   55534150.9889725     
   55534150.7404510     
   55534150.5163856     
   55534150.3180597     
   55534150.1467505     
   55534150.0037297     
   55534149.8902633     
   55534149.8076128     
   55534149.7570349     
   55534149.7397823     
   55035003.6865650     
   55035003.6661157     
   55035003.6061338     
   55035003.5084968     
   55035003.3750658     
   55035003.2076852     
   55035003.0081831     
   55035002.7783712     
   55035002.5200450     
   55035002.2349839     
   55035001.9249514     
   55035001.5916952     
   55035001.2369474     
   55035000.8624247     
   55035000.4698284     
   55035000.0608450     
   55034999.6371458     
   55034999.2003877     
   55034998.7522130     
   55034998.2942500     
   55034997.8281128     
   55034997.3554020     
   55034996.8777046     
   55034996.3965943     
   55034995.9136322     
   55034995.4303665     
   55034994.9483330     
   55034994.4690554     
   55034993.9940460     
   55034993.5248052     
   55034993.0628224     
   55034992.6095761     
   55034992.1665344     
   55034991.7351552     
   55034991.3168863     
   55034990.9131663     
   55034990.5254243     
   55034990.1550810     
   55034989.8035483     
   55034989.4722301     
   55034989.1625227     
   55034988.8758147     
   55034988.6134880     
   55034988.3769177     
   55034988.1674729     
   55034987.9865164     
   55034987.8354061     
   55034987.7154943     
   55034987.6281289     
   55034987.5746535     
   55034987.5564077     
   54535807.5952165     
   54535807.5739803     
   54535807.5116735     
   54535807.4102241     
   54535807.2715447     
   54535807.0975323     
   54535806.8900683     
   54535806.6510187     
   54535806.3822343     
   54535806.0855508     
   54535805.7627888     
   54535805.4157545     
   54535805.0462387     
   54535804.6560182     
   54535804.2468553     
   54535803.8204981     
   54535803.3786808     
   54535802.9231239     
   54535802.4555340     
   54535801.9776048     
   54535801.4910165     
   54535800.9974366     
   54535800.4985198     
   54535799.9959086     
   54535799.4912330     
   54535798.9861114     
   54535798.4821504     
   54535797.9809453     
   54535797.4840801     
   54535796.9931283     
   54535796.5096527     
   54535796.0352058     
   54535795.5713304     
   54535795.1195593     
   54535794.6814165     
   54535794.2584166     
   54535793.8520658     
   54535793.4638617     
   54535793.0952941     
   54535792.7478450     
   54535792.4229892     
   54535792.1221943     
   54535791.8469215     
   54535791.5986255     
   54535791.3787552     
   54535791.1887539     
   54535791.0300597     
   54535790.9041057     
   54535790.8123208     
   54535790.7561295     
   54535790.7369527     
   54036575.9555593     
   54036575.9335795     
   54036575.8690767     
   54036575.7640277     
   54036575.6203943     
   54036575.4401238     
   54036575.2251488     
   54036574.9773872     
   54036574.6987426     
   54036574.3911043     
   54036574.0563476     
   54036573.6963333     
   54036573.3129088     
   54036572.9079075     
   54036572.4831494     
   54036572.0404411     
   54036571.5815760     
   54036571.1083346     
   54036570.6224845     
   54036570.1257805     
   54036569.6199654     
   54036569.1067695     
   54036568.5879114     
   54036568.0650978     
   54036567.5400238     
   54036567.0143736     
   54036566.4898200     
   54036565.9680254     
   54036565.4506415     
   54036564.9393099     
   54036564.4356621     
   54036563.9413200     
   54036563.4578962     
   54036562.9869941     
   54036562.5302084     
   54036562.0891251     
   54036561.6653220     
   54036561.2603692     
   54036560.8758290     
   54036560.5132566     
   54036560.1742000     
   54036559.8602007     
   54036559.5727939     
   54036559.3135087     
   54036559.0838687     
   54036558.8853921     
   54036558.7195920     
   54036558.5879772     
   54036558.4920519     
   54036558.4333165     
   54036558.4132679     
   53537307.9413166     
   53537307.9186352     
   53537307.8520607     
   53537307.7436165     
   53537307.5953120     
   53537307.4091425     
   53537307.1870893     
   53537306.9311200     
   53537306.6431884     
   53537306.3252347     
   53537305.9791859     
   53537305.6069553     
   53537305.2104434     
   53537304.7915375     
   53537304.3521121     
   53537303.8940289     
   53537303.4191374     
   53537302.9292747     
   53537302.4262654     
   53537301.9119225     
   53537301.3880474     
   53537300.8564294     
   53537300.3188470     
   53537299.7770674     
   53537299.2328469     
   53537298.6879310     
   53537298.1440551     
   53537297.6029441     
   53537297.0663130     
   53537296.5358675     
   53537296.0133033     
   53537295.5003073     
   53537294.9985574     
   53537294.5097227     
   53537294.0354640     
   53537293.5774343     
   53537293.1372784     
   53537292.7166338     
   53537292.3171307     
   53537291.9403924     
   53537291.5880356     
   53537291.2616705     
   53537290.9629014     
   53537290.6933271     
   53537290.4545406     
   53537290.2481301     
   53537290.0756788     
   53537289.9387657     
   53537289.8389656     
   53537289.7778495     
   53537289.7569850     
   53038002.7660557     
   53038002.7427133     
   53038002.6741874     
   53038002.5625463     
   53038002.4098445     
   53038002.2181231     
   53038001.9894100     
   53038001.7257198     
   53038001.4290542     
   53038001.1014018     
   53038000.7447384     
   53038000.3610271     
   53037999.9522187     
   53037999.5202513     
   53037999.0670508     
   53037998.5945313     
   53037998.1045948     
   53037997.5991315     
   53037997.0800202     
   53037996.5491283     
   53037996.0083121     
   53037995.4594167     
   53037994.9042767     
   53037994.3447159     
   53037993.7825478     
   53037993.2195760     
   53037992.6575937     
   53037992.0983850     
   53037991.5437240     
   53037990.9953759     
   53037990.4550968     
   53037989.9246340     
   53037989.4057266     
   53037988.9001051     
   53037988.4094923     
   53037987.9356033     
   53037987.4801454     
   53037987.0448191     
   53037986.6313179     
   53037986.2413288     
   53037985.8765322     
   53037985.5386025     
   53037985.2292087     
   53037984.9500138     
   53037984.7026760     
   53037984.4888486     
   53037984.3101802     
   53037984.1683151     
   53037984.0648938     
   53037984.0015530     
   53037983.9799261     
   52538659.6836722     
   52538659.6597083     
   52538659.5893485     
   52538659.4747035     
   52538659.3178707     
   52538659.1209350     
   52538658.8859685     
   52538658.6150304     
   52538658.3101676     
   52538657.9734146     
   52538657.6067934     
   52538657.2123142     
   52538656.7919750     
   52538656.3477620     
   52538655.8816497     
   52538655.3956010     
   52538654.8915677     
   52538654.3714901     
   52538653.8372975     
   52538653.2909085     
   52538652.7342309     
   52538652.1691622     
   52538651.5975893     
   52538651.0213892     
   52538650.4424291     
   52538649.8625663     
   52538649.2836489     
   52538648.7075155     
   52538648.1359957     
   52538647.5709105     
   52538647.0140721     
   52538646.4672844     
   52538645.9323433     
   52538645.4110366     
   52538644.9051448     
   52538644.4164408     
   52538643.9466906     
   52538643.4976530     
   52538643.0710806     
   52538642.6687193     
   52538642.2923090     
   52538641.9435841     
   52538641.6242731     
   52538641.3360996     
   52538641.0807820     
   52538640.8600339     
   52538640.6755648     
   52538640.5290799     
   52538640.4222805     
   52538640.3568645     
   52538640.3345266     
   52039277.9888694     
   52039277.9643228     
   52039277.8922440     
   52039277.7747838     
   52039277.6140808     
   52039277.4122609     
   52039277.1714379     
   52039276.8937135     
   52039276.5811772     
   52039276.2359066     
   52039275.8599677     
   52039275.4554146     
   52039275.0242900     
   52039274.5686253     
   52039274.0904405     
   52039273.5917446     
   52039273.0745357     
   52039272.5408013     
   52039271.9925181     
   52039271.4316525     
   52039270.8601607     
   52039270.2799888     
   52039269.6930729     
   52039269.1013398     
   52039268.5067064     
   52039267.9110807     
   52039267.3163613     
   52039266.7244381     
   52039266.1371924     
   52039265.5564969     
   52039264.9842161     
   52039264.4222068     
   52039263.8723176     
   52039263.3363898     
   52039262.8162574     
   52039262.3137471     
   52039261.8306790     
   52039261.3688666     
   52039260.9301169     
   52039260.5162311     
   52039260.1290042     
   52039259.7702258     
   52039259.4416804     
   52039259.1451469     
   52039258.8824000     
   52039258.6552095     
   52039258.4653411     
   52039258.3145563     
   52039258.2046132     
   52039258.1372663     
   52039258.1142669     
   51539857.0176325     
   51539856.9925415     
   51539856.9188566     
   51539856.7987670     
   51539856.6344495     
   51539856.4280691     
   51539856.1817791     
   51539855.8977208     
   51539855.5780239     
   51539855.2248068     
   51539854.8401763     
   51539854.4262282     
   51539853.9850468     
   51539853.5187059     
   51539853.0292683     
   51539852.5187859     
   51539851.9893005     
   51539851.4428432     
   51539850.8814353     
   51539850.3070876     
   51539849.7218016     
   51539849.1275686     
   51539848.5263707     
   51539847.9201808     
   51539847.3109625     
   51539846.7006704     
   51539846.0912506     
   51539845.4846405     
   51539844.8827693     
   51539844.2875579     
   51539843.7009196     
   51539843.1247596     
   51539842.5609759     
   51539842.0114591     
   51539841.4780929     
   51539840.9627541     
   51539840.4673129     
   51539839.9936333     
   51539839.5435729     
   51539839.1189837     
   51539838.7217121     
   51539838.3535988     
   51539838.0164795     
   51539837.7121853     
   51539837.4425422     
   51539837.2093721     
   51539837.0144928     
   51539836.8597179     
   51539836.7468578     
   51539836.6777193     
   51539836.6541062     
   51040396.1476926     
   51040396.1220948     
   51040396.0469153     
   51040395.9243790     
   51040395.7566991     
   51040395.5460771     
   51040395.2947031     
   51040395.0047559     
   51040394.6784029     
   51040394.3178002     
   51040393.9250933     
   51040393.5024164     
   51040393.0518933     
   51040392.5756369     
   51040392.0757499     
   51040391.5543245     
   51040391.0134429     
   51040390.4551772     
   51040389.8815896     
   51040389.2947328     
   51040388.6966499     
   51040388.0893747     
   51040387.4749316     
   51040386.8553365     
   51040386.2325959     
   51040385.6087081     
   51040384.9856629     
   51040384.3654419     
   51040383.7500185     
   51040383.1413583     
   51040382.5414194     
   51040381.9521523     
   51040381.3755004     
   51040380.8134000     
   51040380.2677806     
   51040379.7405653     
   51040379.2336705     
   51040378.7490068     
   51040378.2884787     
   51040377.8539849     
   51040377.4474190     
   51040377.0706692     
   51040376.7256186     
   51040376.4141457     
   51040376.1381243     
   51040375.8994243     
   51040375.6999112     
   51040375.5414470     
   51040375.4258899     
   51040375.3550951     
   51040375.3309147     
   50540894.7989771     
   50540894.7729099     
   50540894.6963459     
   50540894.5715437     
   50540894.4007503     
   50540894.1862015     
   50540893.9301218     
   50540893.6347247     
   50540893.3022125     
   50540892.9347773     
   50540892.5345997     
   50540892.1038503     
   50540891.6446890     
   50540891.1592656     
   50540890.6497196     
   50540890.1181805     
   50540889.5667680     
   50540888.9975921     
   50540888.4127532     
   50540887.8143424     
   50540887.2044415     
   50540886.5851234     
   50540885.9584518     
   50540885.3264820     
   50540884.6912608     
   50540884.0548263     
   50540883.4192087     
   50540882.7864301     
   50540882.1585050     
   50540881.5374402     
   50540880.9252349     
   50540880.3238814     
   50540879.7353648     
   50540879.1616635     
   50540878.6047492     
   50540878.0665873     
   50540877.5491370     
   50540877.0543516     
   50540876.5841787     
   50540876.1405601     
   50540875.7254326     
   50540875.3407277     
   50540874.9883723     
   50540874.6702884     
   50540874.3883938     
   50540874.1446022     
   50540873.9408232     
   50540873.7789626     
   50540873.6609231     
   50540873.5886039     
   50540873.5639013     
   50041352.4340459     
   50041352.4075462     
   50041352.3297070     
   50041352.2028181     
   50041352.0291579     
   50041351.8109939     
   50041351.5505826     
   50041351.2501696     
   50041350.9119902     
   50041350.5382686     
   50041350.1312190     
   50041349.6930451     
   50041349.2259404     
   50041348.7320885     
   50041348.2136630     
   50041347.6728278     
   50041347.1117372     
   50041346.5325362     
   50041345.9373603     
   50041345.3283359     
   50041344.7075805     
   50041344.0772028     
   50041343.4393029     
   50041342.7959723     
   50041342.1492941     
   50041341.5013437     
   50041340.8541881     
   50041340.2098868     
   50041339.5704917     
   50041338.9380472     
   50041338.3145906     
   50041337.7021521     
   50041337.1027553     
   50041336.5184168     
   50041335.9511471     
   50041335.4029504     
   50041334.8758248     
   50041334.3717629     
   50041333.8927512     
   50041333.4407712     
   50041333.0177992     
   50041332.6258064     
   50041332.2667595     
   50041331.9426202     
   50041331.6553466     
   50041331.4068921     
   50041331.1992067     
   50041331.0342364     
   50041330.9139241     
   50041330.8402093     
   50041330.8150289     
   49541768.5585102     
   49541768.5316146     
   49541768.4526086     
   49541768.3238107     
   49541768.1475283     
   49541767.9260583     
   49541767.6616864     
   49541767.3566881     
   49541767.0133284     
   49541766.6338620     
   49541766.2205330     
   49541765.7755760     
   49541765.3012152     
   49541764.7996654     
   49541764.2731313     
   49541763.7238084     
   49541763.1538827     
   49541762.5655310     
   49541761.9609210     
   49541761.3422116     
   49541760.7115527     
   49541760.0710858     
   49541759.4229441     
   49541758.7692521     
   49541758.1121266     
   49541757.4536763     
   49541756.7960020     
   49541756.1411973     
   49541755.4913481     
   49541754.8485332     
   49541754.2148244     
   49541753.5922866     
   49541752.9829779     
   49541752.3889502     
   49541751.8122491     
   49541751.2549139     
   49541750.7189783     
   49541750.2064702     
   49541749.7194119     
   49541749.2598207     
   49541748.8297088     
   49541748.4310832     
   49541748.0659468     
   49541747.7362977     
   49541747.4441299     
   49541747.1914333     
   49541746.9801942     
   49541746.8123952     
   49541746.6900157     
   49541746.6150318     
   49541746.5894167     
   49042142.7214308     
   49042142.6941760     
   49042142.6141112     
   49042142.4835811     
   49042142.3049199     
   49042142.0804510     
   49042141.8124873     
   49042141.5033312     
   49042141.1552749     
   49042140.7706008     
   49042140.3515807     
   49042139.9004770     
   49042139.4195419     
   49042138.9110183     
   49042138.3771396     
   49042137.8201299     
   49042137.2422039     
   49042136.6455675     
   49042136.0324174     
   49042135.4049419     
   49042134.7653205     
   49042134.1157244     
   49042133.4583164     
   49042132.7952515     
   49042132.1286763     
   49042131.4607301     
   49042130.7935443     
   49042130.1292430     
   49042129.4699430     
   49042128.8177541     
   49042128.1747792     
   49042127.5431145     
   49042126.9248495     
   49042126.3220678     
   49042125.7368463     
   49042125.1712565     
   49042124.6273637     
   49042124.1072279     
   49042123.6129035     
   49042123.1464401     
   49042122.7098820     
   49042122.3052690     
   49042121.9346360     
   49042121.6000139     
   49042121.3034292     
   49042121.0469047     
   49042120.8324592     
   49042120.6621082     
   49042120.5378638     
   49042120.4617350     
   49042120.4357280     
   48542474.5156958     
   48542474.4881181     
   48542474.4071019     
   48542474.2750160     
   48542474.0942183     
   48542473.8670565     
   48542473.5958679     
   48542473.2829794     
   48542472.9307080     
   48542472.5413605     
   48542472.1172340     
   48542471.6606159     
   48542471.1737838     
   48542470.6590062     
   48542470.1185419     
   48542469.5546406     
   48542468.9695430     
   48542468.3654811     
   48542467.7446779     
   48542467.1093478     
   48542466.4616971     
   48542465.8039234     
   48542465.1382164     
   48542464.4667578     
   48542463.7917216     
   48542463.1152740     
   48542462.4395739     
   48542461.7667728     
   48542461.0990151     
   48542460.4384383     
   48542459.7871732     
   48542459.1473436     
   48542458.5210675     
   48542457.9104563     
   48542457.3176154     
   48542456.7446444     
   48542456.1936373     
   48542455.6666825     
   48542455.1658633     
   48542454.6932577     
   48542454.2509389     
   48542453.8409754     
   48542453.4654313     
   48542453.1263663     
   48542452.8258359     
   48542452.5658921     
   48542452.3485828     
   48542452.1759526     
   48542452.0500428     
   48542451.9728918     
   48542451.9465348     
   48042763.5783733     
   48042763.5505091     
   48042763.4686490     
   48042763.3351829     
   48042763.1524903     
   48042762.9229407     
   48042762.6488929     
   48042762.3326960     
   48042761.9766889     
   48042761.5832004     
   48042761.1545501     
   48042760.6930476     
   48042760.2009931     
   48042759.6806775     
   48042759.1343824     
   48042758.5643807     
   48042757.9729359     
   48042757.3623031     
   48042756.7347284     
   48042756.0924499     
   48042755.4376971     
   48042754.7726912     
   48042754.0996458     
   48042753.4207663     
   48042752.7382506     
   48042752.0542890     
   48042751.3710645     
   48042750.6907528     
   48042750.0155228     
   48042749.3475362     
   48042748.6889484     
   48042748.0419081     
   48042747.4085578     
   48042746.7910337     
   48042746.1914662     
   48042745.6119798     
   48042745.0546936     
   48042744.5217211     
   48042744.0151707     
   48042743.5371458     
   48042743.0897447     
   48042742.6750616     
   48042742.2951856     
   48042741.9522022     
   48042741.6481924     
   48042741.3852336     
   48042741.1653993     
   48042740.9907598     
   48042740.8633821     
   48042740.7853300     
   48042740.7586646     
   47543009.5910394     
   47543009.5629251     
   47543009.4803281     
   47543009.3456574     
   47543009.1613115     
   47543008.9296787     
   47543008.6531373     
   47543008.3340552     
   47543007.9747908     
   47543007.5776926     
   47543007.1450994     
   47543006.6793406     
   47543006.1827360     
   47543005.6575964     
   47543005.1062235     
   47543004.5309097     
   47543003.9339390     
   47543003.3175864     
   47543002.6841187     
   47543002.0357939     
   47543001.3748622     
   47543000.7035655     
   47543000.0241378     
   47542999.3388052     
   47542998.6497866     
   47542997.9592930     
   47542997.2695286     
   47542996.5826900     
   47542995.9009671     
   47542995.2265432     
   47542994.5615948     
   47542993.9082918     
   47542993.2687982     
   47542992.6452718     
   47542992.0398645     
   47542991.4547226     
   47542990.8919866     
   47542990.3537918     
   47542989.8422684     
   47542989.3595417     
   47542988.9077319     
   47542988.4889549     
   47542988.1053221     
   47542987.7589408     
   47542987.4519140     
   47542987.1863412     
   47542986.9643180     
   47542986.7879369     
   47542986.6592868     
   47542986.5804538     
   47542986.5535211     
   47043212.2800794     
   47043212.2517514     
   47043212.1685249     
   47043212.0328253     
   47043211.8470675     
   47043211.6136561     
   47043211.3349861     
   47043211.0134420     
   47043210.6513988     
   47043210.2512216     
   47043209.8152660     
   47043209.3458783     
   47043208.8453953     
   47043208.3161447     
   47043207.7604452     
   47043207.1806064     
   47043206.5789294     
   47043205.9577066     
   47043205.3192219     
   47043204.6657510     
   47043203.9995613     
   47043203.3229122     
   47043202.6380553     
   47043201.9472347     
   47043201.2526865     
   47043200.5566398     
   47043199.8613164     
   47043199.1689308     
   47043198.4816912     
   47043197.8017984     
   47043197.1314472     
   47043196.4728257     
   47043195.8281159     
   47043195.1994938     
   47043194.5891296     
   47043193.9991877     
   47043193.4318271     
   47043192.8892016     
   47043192.3734596     
   47043191.8867449     
   47043191.4311963     
   47043191.0089480     
   47043190.6221301     
   47043190.2728683     
   47043189.9632844     
   47043189.6954963     
   47043189.4716183     
   47043189.2937614     
   47043189.1640335     
   47043189.0845390     
   47043189.0573799     
   46543371.4169606     
   46543371.3884552     
   46543371.3047067     
   46543371.1681541     
   46543370.9812261     
   46543370.7463413     
   46543370.4659082     
   46543370.1423255     
   46543369.7779819     
   46543369.3752568     
   46543368.9365196     
   46543368.4641307     
   46543367.9604410     
   46543367.4277922     
   46543366.8685173     
   46543366.2849403     
   46543365.6793764     
   46543365.0541324     
   46543364.4115064     
   46543363.7537886     
   46543363.0832608     
   46543362.4021970     
   46543361.7128633     
   46543361.0175180     
   46543360.3184123     
   46543359.6177896     
   46543358.9178866     
   46543358.2209325     
   46543357.5291500     
   46543356.8447550     
   46543356.1699569     
   46543355.5069587     
   46543354.8579573     
   46543354.2251438     
   46543353.6107031     
   46543353.0168146     
   46543352.4456525     
   46543351.8993853     
   46543351.3801768     
   46543350.8901856     
   46543350.4315657     
   46543350.0064666     
   46543349.6170332     
   46543349.2654066     
   46543348.9537236     
   46543348.6841173     
   46543348.4587174     
   46543348.2796498     
   46543348.1490376     
   46543348.0690007     
   46543348.0416560     
   46043486.8184747     
   46043486.7898286     
   46043486.7056659     
   46043486.5684367     
   46043486.3805809     
   46043486.1445282     
   46043485.8626984     
   46043485.5375014     
   46043485.1713371     
   46043484.7665959     
   46043484.3256589     
   46043483.8508973     
   46043483.3446734     
   46043482.8093404     
   46043482.2472425     
   46043481.6607149     
   46043481.0520843     
   46043480.4236687     
   46043479.7777778     
   46043479.1167130     
   46043478.4427676     
   46043477.7582270     
   46043477.0653688     
   46043476.3664629     
   46043475.6637717     
   46043474.9595505     
   46043474.2560471     
   46043473.5555025     
   46043472.8601510     
   46043472.1722200     
   46043471.4939304     
   46043470.8274971     
   46043470.1751284     
   46043469.5390270     
   46043468.9213895     
   46043468.3244072     
   46043467.7502657     
   46043467.2011454     
   46043466.6792216     
   46043466.1866647     
   46043465.7256404     
   46043465.2983100     
   46043464.9068302     
   46043464.5533536     
   46043464.2400290     
   46043463.9690011     
   46043463.7424113     
   46043463.5623977     
   46043463.4310946     
   46043463.3506338     
   46043463.3231442     
   45543558.3469511     
   45543558.3182009     
   45543558.2337320     
   45543558.0960031     
   45543557.9074627     
   45543557.6705489     
   45543557.3876900     
   45543557.0613042     
   45543556.6938002     
   45543556.2875767     
   45543555.8450231     
   45543555.3685192     
   45543554.8604358     
   45543554.3231344     
   45543553.7589675     
   45543553.1702789     
   45543552.5594037     
   45543551.9286682     
   45543551.2803906     
   45543550.6168806     
   45543549.9404400     
   45543549.2533625     
   45543548.5579341     
   45543547.8564332     
   45543547.1511305     
   45543546.4442896     
   45543545.7381668     
   45543545.0350114     
   45543544.3370660     
   45543543.6465665     
   45543542.9657422     
   45543542.2968162     
   45543541.6420053     
   45543541.0035207     
   45543540.3835672     
   45543539.7843444     
   45543539.2080464     
   45543538.6568619     
   45543538.1329746     
   45543537.6385633     
   45543537.1758020     
   45543536.7468602     
   45543536.3539031     
   45543535.9990917     
   45543535.6845831     
   45543535.4125304     
   45543535.1850833     
   45543535.0043879     
   45543534.8725874     
   45543534.7918215     
   45543534.7642276     
   45043585.9104362     
   45043585.8816187     
   45043585.7969524     
   45043585.6589017     
   45043585.4699209     
   45043585.2324542     
   45043584.9489353     
   45043584.6217884     
   45043584.2534277     
   45043583.8462577     
   45043583.4026733     
   45043582.9250601     
   45043582.4157942     
   45043581.8772429     
   45043581.3117641     
   45043580.7217070     
   45043580.1094122     
   45043579.4772116     
   45043578.8274286     
   45043578.1623785     
   45043577.4843683     
   45043576.7956970     
   45043576.0986560     
   45043575.3955287     
   45043574.6885914     
   45043573.9801126     
   45043573.2723542     
   45043572.5675706     
   45043571.8680095     
   45043571.1759119     
   45043570.4935124     
   45043569.8230391     
   45043569.1667140     
   45043568.5267532     
   45043567.9053667     
   45043567.3047593     
   45043566.7271298     
   45043566.1746722     
   45043565.6495751     
   45043565.1540223     
   45043564.6901928     
   45043564.2602612     
   45043563.8663975     
   45043563.5107677     
   45043563.1955338     
   45043562.9228538     
   45043562.6948823     
   45043562.5137704     
   45043562.3816662     
   45043562.3007143     
   45043562.2730568     
   44543569.4628434     
   44543569.4339958     
   44543569.3492413     
   44543569.2110476     
   44543569.0218721     
   44543568.7841619     
   44543568.5003541     
   44543568.1728757     
   44543567.8041439     
   44543567.3965659     
   44543566.9525395     
   44543566.4744529     
   44543565.9646852     
   44543565.4256061     
   44543564.8595762     
   44543564.2689473     
   44543563.6560623     
   44543563.0232555     
   44543562.3728528     
   44543561.7071718     
   44543561.0285218     
   44543560.3392042     
   44543559.6415124     
   44543558.9377321     
   44543558.2301417     
   44543557.5210119     
   44543556.8126064     
   44543556.1071817     
   44543555.4069874     
   44543554.7142666     
   44543554.0312556     
   44543553.3601844     
   44543552.7032770     
   44543552.0627511     
   44543551.4408187     
   44543550.8396859     
   44543550.2615536     
   44543549.7086173     
   44543549.1830674     
   44543548.6870891     
   44543548.2228633     
   44543547.7925658     
   44543547.3983684     
   44543547.0424387     
   44543546.7269400     
   44543546.4540319     
   44543546.2258706     
   44543546.0446085     
   44543545.9123951     
   44543545.8313766     
   44543545.8036965     
   44043509.0040667     
   44043508.9752262     
   44043508.8904933     
   44043508.7523363     
   44043508.5632133     
   44043508.3255714     
   44043508.0418482     
   44043507.7144708     
   44043507.3458563     
   44043506.9384122     
   44043506.4945363     
   44043506.0166166     
   44043505.5070319     
   44043504.9681515     
   44043504.4023359     
   44043503.8119364     
   44043503.1992954     
   44043502.5667466     
   44043501.9166154     
   44043501.2512185     
   44043500.5728644     
   44043499.8838537     
   44043499.1864790     
   44043498.4830250     
   44043497.7757689     
   44043497.0669804     
   44043496.3589221     
   44043495.6538492     
   44043494.9540102     
   44043494.2616468     
   44043493.5789938     
   44043492.9082800     
   44043492.2517278     
   44043491.6115532     
   44043490.9899669     
   44043490.3891734     
   44043489.8113719     
   44043489.2587561     
   44043488.7335148     
   44043488.2378314     
   44043487.7738848     
   44043487.3438493     
   44043486.9498947     
   44043486.5941865     
   44043486.2788863     
   44043486.0061518     
   44043485.7781370     
   44043485.5969926     
   44043485.4648658     
   44043485.3839009     
   44043485.3562392     
   43543404.5800632     
   43543404.5512673     
   43543404.4666667     
   43543404.3287278     
   43543404.1399059     
   43543403.9026463     
   43543403.6193837     
   43543403.2925427     
   43543402.9245377     
   43543402.5177734     
   43543402.0746446     
   43543401.5975364     
   43543401.0888243     
   43543400.5508747     
   43543399.9860445     
   43543399.3966815     
   43543398.7851248     
   43543398.1537046     
   43543397.5047422     
   43543396.8405509     
   43543396.1634352     
   43543395.4756918     
   43543394.7796091     
   43543394.0774678     
   43543393.3715407     
   43543392.6640935     
   43543391.9573842     
   43543391.2536636     
   43543390.5551757     
   43543389.8641575     
   43543389.1828394     
   43543388.5134453     
   43543387.8581927     
   43543387.2192931     
   43543386.5989519     
   43543385.9993688     
   43543385.4227378     
   43543384.8712478     
   43543384.3470821     
   43543383.8524192     
   43543383.3894328     
   43543382.9602918     
   43543382.5671606     
   43543382.2121995     
   43543381.8975647     
   43543381.6254083     
   43543381.3978791     
   43543381.2171221     
   43543381.0852791     
   43543381.0044888     
   43543380.9768872     
   43043256.2829004     
   43043256.2541870     
   43043256.1698304     
   43043256.0322920     
   43043255.8440224     
   43043255.6074613     
   43043255.3250383     
   43043254.9991727     
   43043254.6322733     
   43043254.2267390     
   43043253.7849590     
   43043253.3093122     
   43043252.8021683     
   43043252.2658873     
   43043251.7028199     
   43043251.1153076     
   43043250.5056827     
   43043249.8762689     
   43043249.2293807     
   43043248.5673244     
   43043247.8923977     
   43043247.2068900     
   43043246.5130826     
   43043245.8132489     
   43043245.1096544     
   43043244.4045570     
   43043243.7002073     
   43043242.9988483     
   43043242.3027161     
   43043241.6140400     
   43043240.9350423     
   43043240.2679388     
   43043239.6149389     
   43043238.9782459     
   43043238.3600568     
   43043237.7625630     
   43043237.1879503     
   43043236.6383986     
   43043236.1160829     
   43043235.6231730     
   43043235.1618339     
   43043234.7342257     
   43043234.3425041     
   43043233.9888205     
   43043233.6753221     
   43043233.4041524     
   43043233.1774510     
   43043232.9973538     
   43043232.8659937     
   43043232.7855004     
   43043232.7580006     
   42543064.2507707     
   42543064.2221779     
   42543064.1381779     
   42543064.0012243     
   42543063.8137599     
   42543063.5782166     
   42543063.2970158     
   42543062.9725685     
   42543062.6072752     
   42543062.2035263     
   42543061.7637020     
   42543061.2901726     
   42543060.7852987     
   42543060.2514312     
   42543059.6909114     
   42543059.1060713     
   42543058.4992338     
   42543057.8727126     
   42543057.2288126     
   42543056.5698300     
   42543055.8980522     
   42543055.2157584     
   42543054.5252196     
   42543053.8286985     
   42543053.1284501     
   42543052.4267214     
   42543051.7257520     
   42543051.0277742     
   42543050.3350128     
   42543049.6496858     
   42543048.9740043     
   42543048.3101726     
   42543047.6603885     
   42543047.0268436     
   42543046.4117234     
   42543045.8172074     
   42543045.2454692     
   42543044.6986771     
   42543044.1789940     
   42543043.6885775     
   42543043.2295803     
   42543042.8041504     
   42543042.4144310     
   42543042.0625613     
   42543041.7506759     
   42543041.4809058     
   42543041.2553780     
   42543041.0762161     
   42543040.9455402     
   42543040.8654674     
   42543040.8381118     
   42042828.6679706     
   42042828.6395369     
   42042828.5560070     
   42042828.4198241     
   42042828.2334204     
   42042827.9992172     
   42042827.7196248     
   42042827.3970433     
   42042827.0338617     
   42042826.6324589     
   42042826.1952037     
   42042825.7244544     
   42042825.2225598     
   42042824.6918583     
   42042824.1346792     
   42042823.5533418     
   42042822.9501563     
   42042822.3274237     
   42042821.6874358     
   42042821.0324755     
   42042820.3648172     
   42042819.6867264     
   42042819.0004604     
   42042818.3082682     
   42042817.6123908     
   42042816.9150613     
   42042816.2185050     
   42042815.5249398     
   42042814.8365760     
   42042814.1556171     
   42042813.4842593     
   42042812.8246922     
   42042812.1790985     
   42042811.5496549     
   42042810.9385314     
   42042810.3478923     
   42042809.7798960     
   42042809.2366951     
   42042808.7204369     
   42042808.2332634     
   42042807.7773116     
   42042807.3547135     
   42042806.9675965     
   42042806.6180837     
   42042806.3082939     
   42042806.0403417     
   42042805.8163382     
   42042805.6383906     
   42042805.5086030     
   42042805.4290760     
   42042805.4019074     
   41542549.7648467     
   41542549.7366111     
   41542549.6536660     
   41542549.5184417     
   41542549.3333568     
   41542549.1008193     
   41542548.8232257     
   41542548.5029619     
   41542548.1424031     
   41542547.7439136     
   41542547.3098476     
   41542546.8425488     
   41542546.3443505     
   41542545.8175765     
   41542545.2645403     
   41542544.6875458     
   41542544.0888873     
   41542543.4708499     
   41542542.8357092     
   41542542.1857318     
   41542541.5231754     
   41542540.8502888     
   41542540.1693125     
   41542539.4824784     
   41542538.7920102     
   41542538.1001237     
   41542537.4090265     
   41542536.7209187     
   41542536.0379930     
   41542535.3624346     
   41542534.6964215     
   41542534.0421251     
   41542533.4017098     
   41542532.7773333     
   41542532.1711472     
   41542531.5852969     
   41542531.0219216     
   41542530.4831551     
   41542529.9711255     
   41542529.4879553     
   41542529.0357622     
   41542528.6166588     
   41542528.2327530     
   41542527.8861482     
   41542527.5789434     
   41542527.3132337     
   41542527.0911100     
   41542526.9146600     
   41542526.7859675     
   41542526.7071133     
   41542526.6801754     
   41042227.8177080     
   41042227.7897099     
   41042227.7074657     
   41042227.5733899     
   41042227.3898850     
   41042227.1593425     
   41042226.8841425     
   41042226.5666540     
   41042226.2092351     
   41042225.8142328     
   41042225.3839836     
   41042224.9208135     
   41042224.4270381     
   41042223.9049624     
   41042223.3568816     
   41042222.7850811     
   41042222.1918361     
   41042221.5794125     
   41042220.9500666     
   41042220.3060453     
   41042219.6495866     
   41042218.9829194     
   41042218.3082639     
   41042217.6278315     
   41042216.9438254     
   41042216.2584405     
   41042215.5738635     
   41042214.8922734     
   41042214.2158414     
   41042213.5467312     
   41042212.8870993     
   41042212.2390950     
   41042211.6048607     
   41042210.9865322     
   41042210.3862385     
   41042209.8061026     
   41042209.2482414     
   41042208.7147657     
   41042208.2077808     
   41042207.7293863     
   41042207.2816769     
   41042206.8667419     
   41042206.4866660     
   41042206.1435292     
   41042205.8394071     
   41042205.5763712     
   41042205.3564891     
   41042205.1818244     
   41042205.0544376     
   41042204.9763857     
   41042204.9497226     
   40541863.1487059     
   40541863.1209849     
   40541863.0395590     
   40541862.9068238     
   40541862.7251631     
   40541862.4969492     
   40541862.2245427     
   40541861.9102928     
   40541861.5565375     
   40541861.1656038     
   40541860.7398075     
   40541860.2814538     
   40541859.7928370     
   40541859.2762413     
   40541858.7339399     
   40541858.1681964     
   40541857.5812640     
   40541856.9753861     
   40541856.3527965     
   40541855.7157192     
   40541855.0663690     
   40541854.4069517     
   40541853.7396637     
   40541853.0666928     
   40541852.3902181     
   40541851.7124103     
   40541851.0354315     
   40541850.3614362     
   40541849.6925707     
   40541849.0309737     
   40541848.3787763     
   40541847.7381025     
   40541847.1110690     
   40541846.4997857     
   40541845.9063560     
   40541845.3328765     
   40541844.7814377     
   40541844.2541242     
   40541843.7530146     
   40541843.2801820     
   40541842.8376940     
   40541842.4276131     
   40541842.0519969     
   40541841.7128983     
   40541841.4123656     
   40541841.1524430     
   40541840.9351706     
   40541840.7625846     
   40541840.6367180     
   40541840.5595999     
   40541840.5332568     
   40041456.1256799     
   40041456.0982763     
   40041456.0177876     
   40041455.8865878     
   40041455.7070390     
   40041455.4814916     
   40041455.2122837     
   40041454.9017421     
   40041454.5521817     
   40041454.1659063     
   40041453.7452081     
   40041453.2923684     
   40041452.8096576     
   40041452.2993351     
   40041451.7636497     
   40041451.2048397     
   40041450.6251331     
   40041450.0267476     
   40041449.4118912     
   40041448.7827617     
   40041448.1415477     
   40041447.4904278     
   40041446.8315718     
   40041446.1671402     
   40041445.4992846     
   40041444.8301479     
   40041444.1618645     
   40041443.4965604     
   40041442.8363534     
   40041442.1833537     
   40041441.5396635     
   40041440.9073777     
   40041440.2885835     
   40041439.6853616     
   40041439.0997854     
   40041438.5339218     
   40041437.9898314     
   40041437.4695682     
   40041436.9751807     
   40041436.5087114     
   40041436.0721971     
   40041435.6676697     
   40041435.2971557     
   40041434.9626770     
   40041434.6662507     
   40041434.4098897     
   40041434.1956028     
   40041434.0253948     
   40041433.9012670     
   40041433.8252172     
   40041433.7992402     
   39541007.1619745     
   39541007.1349292     
   39541007.0554981     
   39541006.9260311     
   39541006.7488659     
   39541006.5263277     
   39541006.2607298     
   39541005.9543731     
   39541005.6095468     
   39541005.2285284     
   39541004.8135837     
   39541004.3669669     
   39541003.8909211     
   39541003.3876783     
   39541002.8594592     
   39541002.3084740     
   39541001.7369221     
   39541001.1469923     
   39541000.5408633     
   39540999.9207034     
   39540999.2886714     
   39540998.6469159     
   39540997.9975762     
   39540997.3427820     
   39540996.6846538     
   39540996.0253033     
   39540995.3668332     
   39540994.7113378     
   39540994.0609030     
   39540993.4176063     
   39540992.7835174     
   39540992.1606983     
   39540991.5512034     
   39540990.9570798     
   39540990.3803675     
   39540989.8230998     
   39540989.2873030     
   39540988.7749974     
   39540988.2881970     
   39540987.8289096     
   39540987.3991379     
   39540987.0008785     
   39540986.6361233     
   39540986.3068590     
   39540986.0150677     
   39540985.7627268     
   39540985.5518097     
   39540985.3842859     
   39540985.2621209     
   39540985.1872770     
   39540985.1617132     
   39040516.7162235     
   39040516.6895780     
   39040516.6113268     
   39040516.4837930     
   39040516.3092869     
   39040516.0901062     
   39040515.8285359     
   39040515.5268486     
   39040515.1873046     
   39040514.8121522     
   39040514.4036274     
   39040513.9639546     
   39040513.4953466     
   39040513.0000043     
   39040512.4801176     
   39040511.9378650     
   39040511.3754141     
   39040510.7949215     
   39040510.1985332     
   39040509.5883849     
   39040508.9666018     
   39040508.3352990     
   39040507.6965815     
   39040507.0525450     
   39040506.4052756     
   39040505.7568496     
   39040505.1093349     
   39040504.4647899     
   39040503.8252648     
   39040503.1928010     
   39040502.5694317     
   39040501.9571824     
   39040501.3580704     
   39040500.7741056     
   39040500.2072907     
   39040499.6596210     
   39040499.1330853     
   39040498.6296655     
   39040498.1513374     
   39040497.7000705     
   39040497.2778283     
   39040496.8865690     
   39040496.5282452     
   39040496.2048045     
   39040495.9181896     
   39040495.6703385     
   39040495.4631851     
   39040495.2986591     
   39040495.1786863     
   39040495.1051893     
   39040495.0800871     
   38539985.2921064     
   38539985.2659027     
   38539985.1889555     
   38539985.0635585     
   38539984.8919919     
   38539984.6765228     
   38539984.4194051     
   38539984.1228803     
   38539983.7891768     
   38539983.4205104     
   38539983.0190847     
   38539982.5870909     
   38539982.1267081     
   38539981.6401036     
   38539981.1294325     
   38539980.5968389     
   38539980.0444549     
   38539979.4744016     
   38539978.8887891     
   38539978.2897164     
   38539977.6792720     
   38539977.0595338     
   38539976.4325696     
   38539975.8004368     
   38539975.1651830     
   38539974.5288464     
   38539973.8934555     
   38539973.2610295     
   38539972.6335789     
   38539972.0131050     
   38539971.4016009     
   38539970.8010512     
   38539970.2134324     
   38539969.6407133     
   38539969.0848550     
   38539968.5478112     
   38539968.0315286     
   38539967.5379469     
   38539967.0689994     
   38539966.6266128     
   38539966.2127080     
   38539965.8291998     
   38539965.4779978     
   38539965.1610060     
   38539964.8801236     
   38539964.6372448     
   38539964.4342597     
   38539964.2730539     
   38539964.1555093     
   38539964.0835040     
   38539964.0589129     
   38039413.4380763     
   38039413.4123570     
   38039413.3368404     
   38039413.2137876     
   38039413.0454459     
   38039412.8340491     
   38039412.5818174     
   38039412.2909577     
   38039411.9636638     
   38039411.6021162     
   38039411.2084827     
   38039410.7849183     
   38039410.3335653     
   38039409.8565538     
   38039409.3560013     
   38039408.8340136     
   38039408.2926843     
   38039407.7340955     
   38039407.1603177     
   38039406.5734100     
   38039405.9754205     
   38039405.3683863     
   38039404.7543337     
   38039404.1352788     
   38039403.5132270     
   38039402.8901740     
   38039402.2681054     
   38039401.6489972     
   38039401.0348162     
   38039400.4275199     
   38039399.8290568     
   38039399.2413671     
   38039398.6663821     
   38039398.1060253     
   38039397.5622122     
   38039397.0368505     
   38039396.5318406     
   38039396.0490760     
   38039395.5904430     
   38039395.1578215     
   38039394.7530850     
   38039394.3781011     
   38039394.0347314     
   38039393.7248323     
   38039393.4502548     
   38039393.2128452     
   38039393.0144450     
   38039392.8568915     
   38039392.7420179     
   38039392.6716537     
   38039392.6476251     
   37538801.7470628     
   37538801.7218718     
   37538801.6479146     
   37538801.5274173     
   37538801.3625918     
   37538801.1556355     
   37538800.9087321     
   37538800.6240512     
   37538800.3037486     
   37538799.9499668     
   37538799.5648344     
   37538799.1504672     
   37538798.7089674     
   37538798.2424246     
   37538797.7529155     
   37538797.2425042     
   37538796.7132423     
   37538796.1671693     
   37538795.6063126     
   37538795.0326878     
   37538794.4482989     
   37538793.8551385     
   37538793.2551879     
   37538792.6504175     
   37538792.0427869     
   37538791.4342453     
   37538790.8267314     
   37538790.2221742     
   37538789.6224926     
   37538789.0295961     
   37538788.4453847     
   37538787.8717496     
   37538787.3105730     
   37538786.7637287     
   37538786.2330823     
   37538785.7204913     
   37538785.2278055     
   37538784.7568672     
   37538784.3095119     
   37538783.8875679     
   37538783.4928569     
   37538783.1271946     
   37538782.7923905     
   37538782.4902484     
   37538782.2225668     
   37538781.9911391     
   37538781.7977540     
   37538781.6441956     
   37538781.5322439     
   37538781.4636751     
   37538781.4402617     
   37038150.8561493     
   37038150.8315309     
   37038150.7592647     
   37038150.6415391     
   37038150.4805275     
   37038150.2783885     
   37038150.0372662     
   37038149.7592898     
   37038149.4465747     
   37038149.1012217     
   37038148.7253175     
   37038148.3209352     
   37038147.8901340     
   37038147.4349595     
   37038146.9574440     
   37038146.4596064     
   37038145.9434531     
   37038145.4109773     
   37038144.8641596     
   37038144.3049683     
   37038143.7353597     
   37038143.1572778     
   37038142.5726550     
   37038141.9834125     
   37038141.3914599     
   37038140.7986957     
   37038140.2070080     
   37038139.6182740     
   37038139.0343609     
   37038138.4571258     
   37038137.8884159     
   37038137.3300692     
   37038136.7839143     
   37038136.2517710     
   37038135.7354503     
   37038135.2367551     
   37038134.7574800     
   37038134.2994120     
   37038133.8643304     
   37038133.4540076     
   37038133.0702091     
   37038132.7146935     
   37038132.3892137     
   37038132.0955163     
   37038131.8353424     
   37038131.6104277     
   37038131.4225032     
   37038131.2732950     
   37038131.1645251     
   37038131.0979113     
   37038131.0751681     
   36537461.4462281     
   36537461.4222278     
   36537461.3517875     
   36537461.2370551     
   36537461.0801629     
   36537460.8832278     
   36537460.6483513     
   36537460.3776199     
   36537460.0731049     
   36537459.7368626     
   36537459.3709348     
   36537458.9773484     
   36537458.5581161     
   36537458.1152364     
   36537457.6506937     
   36537457.1664586     
   36537456.6644879     
   36537456.1467250     
   36537455.6151002     
   36537455.0715307     
   36537454.5179209     
   36537453.9561626     
   36537453.3881353     
   36537452.8157065     
   36537452.2407317     
   36537451.6650550     
   36537451.0905090     
   36537450.5189153     
   36537449.9520848     
   36537449.3918178     
   36537448.8399044     
   36537448.2981247     
   36537447.7682491     
   36537447.2520388     
   36537446.7512458     
   36537446.2676133     
   36537445.8028762     
   36537445.3587611     
   36537444.9369870     
   36537444.5392650     
   36537444.1672993     
   36537443.8227874     
   36537443.5074197     
   36537443.2228811     
   36537442.9708501     
   36537442.7530001     
   36537442.5709989     
   36537442.4265099     
   36537442.3211919     
   36537442.2566993     
   36537442.2346831     
   36036734.2416377     
   36036734.2183025     
   36036734.1498266     
   36036734.0383150     
   36036733.8858565     
   36036733.6945234     
   36036733.4663721     
   36036733.2034427     
   36036732.9077598     
   36036732.5813322     
   36036732.2261531     
   36036731.8442005     
   36036731.4374371     
   36036731.0078106     
   36036730.5572541     
   36036730.0876859     
   36036729.6010100     
   36036729.0991162     
   36036728.5838804     
   36036728.0571647     
   36036727.5208176     
   36036726.9766747     
   36036726.4265583     
   36036725.8722781     
   36036725.3156313     
   36036724.7584029     
   36036724.2023657     
   36036723.6492814     
   36036723.1008998     
   36036722.5589598     
   36036722.0251897     
   36036721.5013070     
   36036720.9890193     
   36036720.4900242     
   36036720.0060098     
   36036719.5386549     
   36036719.0896294     
   36036718.6605950     
   36036718.2532046     
   36036717.8691036     
   36036717.5099299     
   36036717.1773139     
   36036716.8728795     
   36036716.5982439     
   36036716.3550181     
   36036716.1448076     
   36036715.9692124     
   36036715.8298273     
   36036715.7282426     
   36036715.6660443     
   36036715.6448145     
   35535970.0097798     
   35535969.9871578     
   35535969.9207894     
   35535969.8127341     
   35535969.6650343     
   35535969.4797152     
   35535969.2587847     
   35535969.0042344     
   35535968.7180388     
   35535968.4021558     
   35535968.0585272     
   35535967.6890783     
   35535967.2957184     
   35535966.8803412     
   35535966.4448244     
   35535965.9910306     
   35535965.5208069     
   35535965.0359857     
   35535964.5383843     
   35535964.0298057     
   35535963.5120387     
   35535962.9868579     
   35535962.4560242     
   35535961.9212850     
   35535961.3843748     
   35535960.8470147     
   35535960.3109136     
   35535959.7777678     
   35535959.2492617     
   35535958.7270681     
   35535958.2128483     
   35535957.7082524     
   35535957.2149200     
   35535956.7344801     
   35535956.2685519     
   35535955.8187445     
   35535955.3866580     
   35535954.9738832     
   35535954.5820025     
   35535954.2125897     
   35535953.8672109     
   35535953.5474247     
   35535953.2547823     
   35535952.9908281     
   35535952.7571003     
   35535952.5551308     
   35535952.3864460     
   35535952.2525671     
   35535952.1550104     
   35535952.0952876     
   35535952.0749064     
   35035169.5607234     
   35035169.5388648     
   35035169.4747524     
   35035169.3703980     
   35035169.2277947     
   35035169.0489179     
   35035168.8357247     
   35035168.5901545     
   35035168.3141288     
   35035168.0095518     
   35035167.6783100     
   35035167.3222730     
   35035166.9432931     
   35035166.5432059     
   35035166.1238305     
   35035165.6869694     
   35035165.2344091     
   35035164.7679202     
   35035164.2892575     
   35035163.8001606     
   35035163.3023537     
   35035162.7975464     
   35035162.2874336     
   35035161.7736957     
   35035161.2579995     
   35035160.7419978     
   35035160.2273301     
   35035159.7156230     
   35035159.2084902     
   35035158.7075330     
   35035158.2143407     
   35035157.7304908     
   35035157.2575497     
   35035156.7970726     
   35035156.3506039     
   35035155.9196781     
   35035155.5058195     
   35035155.1105431     
   35035154.7353546     
   35035154.3817510     
   35035154.0512209     
   35035153.7452452     
   35035153.4652970     
   35035153.2128422     
   35035152.9893400     
   35035152.7962435     
   35035152.6349995     
   35035152.5070497     
   35035152.4138303     
   35035152.3567733     
   35035152.3373060     
   34534333.7467970     
   34534333.7257540     
   34534333.6640528     
   34534333.5636547     
   34534333.4265015     
   34534333.2545157     
   34534333.0496007     
   34534332.8136409     
   34534332.5485018     
   34534332.2560300     
   34534331.9380538     
   34534331.5963832     
   34534331.2328100     
   34534330.8491078     
   34534330.4470330     
   34534330.0283242     
   34534329.5947029     
   34534329.1478737     
   34534328.6895244     
   34534328.2213265     
   34534327.7449353     
   34534327.2619902     
   34534326.7741154     
   34534326.2829195     
   34534325.7899966     
   34534325.2969258     
   34534324.8052723     
   34534324.3165875     
   34534323.8324090     
   34534323.3542614     
   34534322.8836565     
   34534322.4220937     
   34534321.9710603     
   34534321.5320320     
   34534321.1064732     
   34534320.6958375     
   34534320.3015679     
   34534319.9250976     
   34534319.5678499     
   34534319.2312389     
   34534318.9166701     
   34534318.6255402     
   34534318.3592384     
   34534318.1191461     
   34534317.9066377     
   34534317.7230809     
   34534317.5698372     
   34534317.4482624     
   34534317.3597069     
   34534317.3055163     
   34534317.2870317     
   34033463.4621703     
   34033463.4419980     
   34033463.3828713     
   34033463.2866991     
   34033463.1553688     
   34033462.9907478     
   34033462.7946827     
   34033462.5689996     
   34033462.3155047     
   34033462.0359841     
   34033461.7322040     
   34033461.4059111     
   34033461.0588325     
   34033460.6926763     
   34033460.3091317     
   34033459.9098691     
   34033459.4965405     
   34033459.0707800     
   34033458.6342035     
   34033458.1884098     
   34033457.7349800     
   34033457.2754787     
   34033456.8114538     
   34033456.3444370     
   34033455.8759441     
   34033455.4074752     
   34033454.9405158     
   34033454.4765360     
   34033454.0169920     
   34033453.5633257     
   34033453.1169656     
   34033452.6793270     
   34033452.2518122     
   34033451.8358115     
   34033451.4327030     
   34033451.0438534     
   34033450.6706182     
   34033450.3143425     
   34033449.9763610     
   34033449.6579987     
   34033449.3605714     
   34033449.0853858     
   34033448.8337406     
   34033448.6069262     
   34033448.4062258     
   34033448.2329155     
   34033448.0882650     
   34033447.9735378     
   34033447.8899919     
   34033447.8388804     
   34033447.8214514     
   33532559.6424327     
   33532559.6231894     
   33532559.5668112     
   33532559.4751514     
   33532559.3500414     
   33532559.1932898     
   33532559.0066838     
   33532558.7919884     
   33532558.5509467     
   33532558.2852807     
   33532557.9966908     
   33532557.6868563     
   33532557.3574359     
   33532557.0100674     
   33532556.6463684     
   33532556.2679366     
   33532555.8763496     
   33532555.4731660     
   33532555.0599249     
   33532554.6381468     
   33532554.2093337     
   33532553.7749696     
   33532553.3365206     
   33532552.8954356     
   33532552.4531465     
   33532552.0110687     
   33532551.5706012     
   33532551.1331277     
   33532550.7000163     
   33532550.2726201     
   33532549.8522780     
   33532549.4403146     
   33532549.0380413     
   33532548.6467561     
   33532548.2677444     
   33532547.9022795     
   33532547.5516228     
   33532547.2170246     
   33532546.8997244     
   33532546.6009515     
   33532546.3219253     
   33532546.0638558     
   33532545.8279442     
   33532545.6153837     
   33532545.4273592     
   33532545.2650485     
   33532545.1296226     
   33532545.0222462     
   33532544.9440780     
   33532544.8962717     
   33532544.8799759     
   33031623.2641678     
   33031623.2459164     
   33031623.1924733     
   33031623.1056346     
   33031622.9871722     
   33031622.8388340     
   33031622.6623439     
   33031622.4594025     
   33031622.2316866     
   33031621.9808499     
   33031621.7085230     
   33031621.4163138     
   33031621.1058078     
   33031620.7785679     
   33031620.4361355     
   33031620.0800301     
   33031619.7117500     
   33031619.3327727     
   33031618.9445549     
   33031618.5485333     
   33031618.1461247     
   33031617.7387265     
   33031617.3277172     
   33031616.9144564     
   33031616.5002860     
   33031616.0865298     
   33031615.6744947     
   33031615.2654704     
   33031614.8607305     
   33031614.4615328     
   33031614.0691195     
   33031613.6847181     
   33031613.3095415     
   33031612.9447887     
   33031612.5916456     
   33031612.2512848     
   33031611.9248668     
   33031611.6135400     
   33031611.3184416     
   33031611.0406978     
   33031610.7814246     
   33031610.5417282     
   33031610.3227055     
   33031610.1254447     
   33031609.9510258     
   33031609.8005211     
   33031609.6749957     
   33031609.5755083     
   33031609.5031113     
   33031609.4588519     
   33031609.4437721     
   32530655.3445318     
   32530655.3273406     
   32530655.2770360     
   32530655.1953543     
   32530655.0840053     
   32530654.9446728     
   32530654.7790147     
   32530654.5886632     
   32530654.3752248     
   32530654.1402809     
   32530653.8853880     
   32530653.6120775     
   32530653.3218568     
   32530653.0162091     
   32530652.6965938     
   32530652.3644468     
   32530652.0211813     
   32530651.6681877     
   32530651.3068342     
   32530650.9384674     
   32530650.5644124     
   32530650.1859734     
   32530649.8044344     
   32530649.4210591     
   32530649.0370922     
   32530648.6537591     
   32530648.2722669     
   32530647.8938046     
   32530647.5195440     
   32530647.1506397     
   32530646.7882302     
   32530646.4334382     
   32530646.0873708     
   32530645.7511206     
   32530645.4257660     
   32530645.1123717     
   32530644.8119893     
   32530644.5256579     
   32530644.2544047     
   32530643.9992454     
   32530643.7611851     
   32530643.5412184     
   32530643.3403302     
   32530643.1594965     
   32530642.9996845     
   32530642.8618536     
   32530642.7469557     
   32530642.6559359     
   32530642.5897330     
   32530642.5492800     
   32530642.5355049     
   32029656.9408371     
   32029656.9247812     
   32029656.8778393     
   32029656.8016850     
   32029656.6979633     
   32029656.5682906     
   32029656.4142547     
   32029656.2374157     
   32029656.0393054     
   32029655.8214283     
   32029655.5852614     
   32029655.3322550     
   32029655.0638325     
   32029654.7813915     
   32029654.4863034     
   32029654.1799144     
   32029653.8635459     
   32029653.5384946     
   32029653.2060333     
   32029652.8674114     
   32029652.5238548     
   32029652.1765676     
   32029651.8267314     
   32029651.4755067     
   32029651.1240330     
   32029650.7734294     
   32029650.4247955     
   32029650.0792115     
   32029649.7377392     
   32029649.4014223     
   32029649.0712872     
   32029648.7483435     
   32029648.4335844     
   32029648.1279878     
   32029647.8325165     
   32029647.5481190     
   32029647.2757300     
   32029647.0162709     
   32029646.7706508     
   32029646.5397669     
   32029646.3245050     
   32029646.1257401     
   32029645.9443373     
   32029645.7811521     
   32029645.6370313     
   32029645.5128132     
   32029645.4093287     
   32029645.3274015     
   32029645.2678488     
   32029645.2314821     
   32029645.2191075     
   31528629.1501472     
   31528629.1353110     
   31528629.0919823     
   31528629.0217697     
   31528628.9262496     
   31528628.8069674     
   31528628.6654370     
   31528628.5031413     
   31528628.3215327     
   31528628.1220332     
   31528627.9060350     
   31528627.6749008     
   31528627.4299642     
   31528627.1725300     
   31528626.9038752     
   31528626.6252489     
   31528626.3378732     
   31528626.0429436     
   31528625.7416296     
   31528625.4350752     
   31528625.1243996     
   31528624.8106978     
   31528624.4950409     
   31528624.1784772     
   31528623.8620327     
   31528623.5467114     
   31528623.2334964     
   31528622.9233503     
   31528622.6172160     
   31528622.3160171     
   31528622.0206590     
   31528621.7320292     
   31528621.4509982     
   31528621.1784201     
   31528620.9151332     
   31528620.6619607     
   31528620.4197114     
   31528620.1891806     
   31528619.9711503     
   31528619.7663903     
   31528619.5756585     
   31528619.3997019     
   31528619.2392571     
   31528619.0950508     
   31528618.9678008     
   31528618.8582161     
   31528618.7669984     
   31528618.6948416     
   31528618.6424337     
   31528618.6104561     
   31528618.5995854     
   31027573.1088909     
   31027573.0953694     
   31027573.0559377     
   31027572.9921354     
   31027572.9054671     
   31027572.7974022     
   31027572.6693758     
   31027572.5227885     
   31027572.3590073     
   31027572.1793657     
   31027571.9851642     
   31027571.7776709     
   31027571.5581220     
   31027571.3277224     
   31027571.0876462     
   31027570.8390372     
   31027570.5830098     
   31027570.3206494     
   31027570.0530132     
   31027569.7811308     
   31027569.5060049     
   31027569.2286123     
   31027568.9499039     
   31027568.6708061     
   31027568.3922215     
   31027568.1150292     
   31027567.8400858     
   31027567.5682264     
   31027567.3002649     
   31027567.0369950     
   31027566.7791911     
   31027566.5276087     
   31027566.2829855     
   31027566.0460419     
   31027565.8174820     
   31027565.5979940     
   31027565.3882513     
   31027565.1889133     
   31027565.0006255     
   31027564.8240208     
   31027564.6597204     
   31027564.5083337     
   31027564.3704599     
   31027564.2466878     
   31027564.1375976     
   31027564.0437604     
   31027563.9657397     
   31027563.9040919     
   31027563.8593664     
   31027563.8321072     
   31027563.8228526     
   30526489.9924966     
   30526489.9803992     
   30526489.9451896     
   30526489.8883347     
   30526489.8112620     
   30526489.7153602     
   30526489.6019793     
   30526489.4724313     
   30526489.3279906     
   30526489.1698948     
   30526488.9993448     
   30526488.8175058     
   30526488.6255081     
   30526488.4244472     
   30526488.2153850     
   30526487.9993505     
   30526487.7773403     
   30526487.5503195     
   30526487.3192226     
   30526487.0849543     
   30526486.8483899     
   30526486.6103770     
   30526486.3717354     
   30526486.1332588     
   30526485.8957148     
   30526485.6598465     
   30526485.4263731     
   30526485.1959906     
   30526484.9693730     
   30526484.7471728     
   30526484.5300223     
   30526484.3185339     
   30526484.1133017     
   30526483.9149016     
   30526483.7238926     
   30526483.5408175     
   30526483.3662038     
   30526483.2005641     
   30526483.0443978     
   30526482.8981909     
   30526482.7624175     
   30526482.6375401     
   30526482.5240106     
   30526482.4222711     
   30526482.3327543     
   30526482.2558847     
   30526482.1920788     
   30526482.1417461     
   30526482.1052899     
   30526482.0831075     
   30526482.0755912     
   30025381.0150626     
   30025381.0045160     
   30025380.9739051     
   30025380.9246189     
   30025380.8580018     
   30025380.7753550     
   30025380.6779362     
   30025380.5669608     
   30025380.4436021     
   30025380.3089926     
   30025380.1642242     
   30025380.0103493     
   30025379.8483815     
   30025379.6792964     
   30025379.5040325     
   30025379.3234924     
   30025379.1385432     
   30025378.9500178     
   30025378.7587159     
   30025378.5654047     
   30025378.3708201     
   30025378.1756677     
   30025377.9806236     
   30025377.7863357     
   30025377.5934243     
   30025377.4024838     
   30025377.2140830     
   30025377.0287665     
   30025376.8470556     
   30025376.6694492     
   30025376.4964251     
   30025376.3284406     
   30025376.1659337     
   30025376.0093240     
   30025375.8590138     
   30025375.7153886     
   30025375.5788186     
   30025375.4496591     
   30025375.3282516     
   30025375.2149249     
   30025375.1099953     
   30025375.0137682     
   30025374.9265382     
   30025374.8485905     
   30025374.7802012     
   30025374.7216384     
   30025374.6731627     
   30025374.6350280     
   30025374.6074821     
   30025374.5907677     
   30025374.5851226     
   29524247.4290711     
   29524247.4202232     
   29524247.3946506     
   29524247.3536573     
   29524247.2984971     
   29524247.2303748     
   29524247.1504469     
   29524247.0598221     
   29524246.9595621     
   29524246.8506832     
   29524246.7341565     
   29524246.6109094     
   29524246.4818264     
   29524246.3477500     
   29524246.2094823     
   29524246.0677856     
   29524245.9233838     
   29524245.7769637     
   29524245.6291755     
   29524245.4806349     
   29524245.3319237     
   29524245.1835909     
   29524245.0361545     
   29524244.8901020     
   29524244.7458922     
   29524244.6039558     
   29524244.4646970     
   29524244.3284948     
   29524244.1957036     
   29524244.0666547     
   29524243.9416578     
   29524243.8210012     
   29524243.7049537     
   29524243.5937656     
   29524243.4876692     
   29524243.3868805     
   29524243.2916000     
   29524243.2020133     
   29524243.1182927     
   29524243.0405979     
   29524242.9690766     
   29524242.9038659     
   29524242.8450928     
   29524242.7928754     
   29524242.7473232     
   29524242.7085383     
   29524242.6766160     
   29524242.6516457     
   29524242.6337112     
   29524242.6228918     
   29524242.6192627     
   29023090.5251600     
   29023090.5181848     
   29023090.4981663     
   29023090.4663142     
   29023090.4237818     
   29023090.3716668     
   29023090.3110120     
   29023090.2428072     
   29023090.1679894     
   29023090.0874448     
   29023090.0020094     
   29023089.9124707     
   29023089.8195687     
   29023089.7239976     
   29023089.6264067     
   29023089.5274021     
   29023089.4275481     
   29023089.3273683     
   29023089.2273474     
   29023089.1279324     
   29023089.0295342     
   29023088.9325288     
   29023088.8372588     
   29023088.7440351     
   29023088.6531378     
   29023088.5648181     
   29023088.4792992     
   29023088.3967782     
   29023088.3174269     
   29023088.2413938     
   29023088.1688045     
   29023088.0997638     
   29023088.0343566     
   29023087.9726492     
   29023087.9146902     
   29023087.8605123     
   29023087.8101328     
   29023087.7635550     
   29023087.7207693     
   29023087.6817542     
   29023087.6464769     
   29023087.6148952     
   29023087.5869573     
   29023087.5626036     
   29023087.5417668     
   29023087.5243736     
   29023087.5103445     
   29023087.4995951     
   29023087.4920369     
   29023087.4875776     
   29023087.4861218     
   28521911.6319748     
   28521911.6270772     
   28521911.6132194     
   28521911.5915045     
   28521911.5629716     
   28521911.5285970     
   28521911.4892952     
   28521911.4459208     
   28521911.3992696     
   28521911.3500806     
   28521911.2990370     
   28521911.2467683     
   28521911.1938517     
   28521911.1408137     
   28521911.0881322     
   28521911.0362378     
   28521910.9855153     
   28521910.9363062     
   28521910.8889099     
   28521910.8435852     
   28521910.8005528     
   28521910.7599959     
   28521910.7220632     
   28521910.6868693     
   28521910.6544973     
   28521910.6250001     
   28521910.5984018     
   28521910.5746997     
   28521910.5538654     
   28521910.5358469     
   28521910.5205696     
   28521910.5079379     
   28521910.4978367     
   28521910.4901328     
   28521910.4846760     
   28521910.4813009     
   28521910.4798275     
   28521910.4800630     
   28521910.4818025     
   28521910.4848306     
   28521910.4889221     
   28521910.4938432     
   28521910.4993524     
   28521910.5052015     
   28521910.5111365     
   28521910.5168982     
   28521910.5222236     
   28521910.5268458     
   28521910.5304954     
   28521910.5329009     
   28521910.5337890     
   28020712.1161276     
   28020712.1135490     
   28020712.1065642     
   28020712.0961535     
   28020712.0832241     
   28020712.0686123     
   28020712.0530848     
   28020712.0373410     
   28020712.0220147     
   28020712.0076762     
   28020711.9948343     
   28020711.9839384     
   28020711.9753803     
   28020711.9694965     
   28020711.9665705     
   28020711.9668342     
   28020711.9704710     
   28020711.9776169     
   28020711.9883632     
   28020712.0027584     
   28020712.0208102     
   28020712.0424877     
   28020712.0677229     
   28020712.0964135     
   28020712.1284242     
   28020712.1635887     
   28020712.2017119     
   28020712.2425714     
   28020712.2859193     
   28020712.3314844     
   28020712.3789731     
   28020712.4280718     
   28020712.4784482     
   28020712.5297527     
   28020712.5816203     
   28020712.6336717     
   28020712.6855147     
   28020712.7367459     
   28020712.7869515     
   28020712.8357090     
   28020712.8825877     
   28020712.9271506     
   28020712.9689550     
   28020713.0075534     
   28020713.0424946     
   28020713.0733246     
   28020713.0995873     
   28020713.1208252     
   28020713.1365802     
   28020713.1463941     
   28020713.1498092     
   27519493.3823014     
   27519493.3823244     
   27519493.3830457     
   27519493.3853001     
   27519493.3898399     
   27519493.3973371     
   27519493.4083858     
   27519493.4235049     
   27519493.4431400     
   27519493.4676667     
   27519493.4973926     
   27519493.5325600     
   27519493.5733484     
   27519493.6198773     
   27519493.6722089     
   27519493.7303500     
   27519493.7942551     
   27519493.8638289     
   27519493.9389285     
   27519494.0193662     
   27519494.1049117     
   27519494.1952944     
   27519494.2902062     
   27519494.3893034     
   27519494.4922091     
   27519494.5985152     
   27519494.7077851     
   27519494.8195553     
   27519494.9333373     
   27519495.0486202     
   27519495.1648722     
   27519495.2815426     
   27519495.3980635     
   27519495.5138515     
   27519495.6283096     
   27519495.7408285     
   27519495.8507884     
   27519495.9575603     
   27519496.0605074     
   27519496.1589865     
   27519496.2523491     
   27519496.3399429     
   27519496.4211124     
   27519496.4952003     
   27519496.5615485     
   27519496.6194987     
   27519496.6683935     
   27519496.7075768     
   27519496.7363947     
   27519496.7541960     
   27519496.7603326     
   27018256.8735530     
   27018256.8765066     
   27018256.8858993     
   27018256.9023915     
   27018256.9265499     
   27018256.9588514     
   27018256.9996860     
   27018257.0493597     
   27018257.1080982     
   27018257.1760495     
   27018257.2532878     
   27018257.3398159     
   27018257.4355693     
   27018257.5404184     
   27018257.6541722     
   27018257.7765816     
   27018257.9073417     
   27018258.0460955     
   27018258.1924367     
   27018258.3459122     
   27018258.5060258     
   27018258.6722399     
   27018258.8439791     
   27018259.0206326     
   27018259.2015565     
   27018259.3860767     
   27018259.5734914     
   27018259.7630728     
   27018259.9540704     
   27018260.1457122     
   27018260.3372078     
   27018260.5277497     
   27018260.7165156     
   27018260.9026704     
   27018261.0853680     
   27018261.2637527     
   27018261.4369614     
   27018261.6041247     
   27018261.7643688     
   27018261.9168167     
   27018262.0605895     
   27018262.1948077     
   27018262.3185925     
   27018262.4310665     
   27018262.5313554     
   27018262.6185880     
   27018262.6918976     
   27018262.7504227     
   27018262.7933074     
   27018262.8197019     
   27018262.8287633     
   26517004.0718878     
   26517004.0781492     
   26517004.0973180     
   26517004.1298407     
   26517004.1760595     
   26517004.2362166     
   26517004.3104577     
   26517004.3988366     
   26517004.5013190     
   26517004.6177863     
   26517004.7480400     
   26517004.8918055     
   26517005.0487357     
   26517005.2184150     
   26517005.4003635     
   26517005.5940399     
   26517005.7988458     
   26517006.0141288     
   26517006.2391864     
   26517006.4732689     
   26517006.7155830     
   26517006.9652950     
   26517007.2215337     
   26517007.4833938     
   26517007.7499382     
   26517008.0202014     
   26517008.2931920     
   26517008.5678952     
   26517008.8432757     
   26517009.1182797     
   26517009.3918375     
   26517009.6628657     
   26517009.9302694     
   26517010.1929441     
   26517010.4497779     
   26517010.6996531     
   26517010.9414483     
   26517011.1740399     
   26517011.3963035     
   26517011.6071159     
   26517011.8053561     
   26517011.9899067     
   26517012.1596553     
   26517012.3134954     
   26517012.4503275     
   26517012.5690602     
   26517012.6686106     
   26517012.7479056     
   26517012.8058821     
   26517012.8414876     
   26517012.8536805     
   26015736.4992065     
   26015736.5092012     
   26015736.5393863     
   26015736.5899441     
   26015736.6609420     
   26015736.7523370     
   26015736.8639812     
   26015736.9956270     
   26015737.1469319     
   26015737.3174635     
   26015737.5067045     
   26015737.7140574     
   26015737.9388491     
   26015738.1803358     
   26015738.4377069     
   26015738.7100901     
   26015738.9965550     
   26015739.2961175     
   26015739.6077438     
   26015739.9303541     
   26015740.2628266     
   26015740.6040006     
   26015740.9526806     
   26015741.3076389     
   26015741.6676195     
   26015742.0313407     
   26015742.3974984     
   26015742.7647686     
   26015743.1318102     
   26015743.4972680     
   26015743.8597745     
   26015744.2179527     
   26015744.5704186     
   26015744.9157825     
   26015745.2526522     
   26015745.5796340     
   26015745.8953350     
   26015746.1983650     
   26015746.4873377     
   26015746.7608727     
   26015747.0175967     
   26015747.2561452     
   26015747.4751633     
   26015747.6733072     
   26015747.8492453     
   26015748.0016592     
   26015748.1292441     
   26015748.2307103     
   26015748.3047831     
   26015748.3502039     
   26015748.3657303     
   25514455.7187646     
   25514455.7329608     
   25514455.7755190     
   25514455.8462930     
   25514455.9450113     
   25514456.0712833     
   25514456.2246064     
   25514456.4043720     
   25514456.6098714     
   25514456.8403025     
   25514457.0947752     
   25514457.3723174     
   25514457.6718804     
   25514457.9923445     
   25514458.3325240     
   25514458.6911725     
   25514459.0669874     
   25514459.4586148     
   25514459.8646541     
   25514460.2836617     
   25514460.7141559     
   25514461.1546200     
   25514461.6035067     
   25514462.0592413     
   25514462.5202250     
   25514462.9848385     
   25514463.4514449     
   25514463.9183924     
   25514464.3840175     
   25514464.8466471     
   25514465.3046018     
   25514465.7561973     
   25514466.1997476     
   25514466.6335667     
   25514467.0559706     
   25514467.4652796     
   25514467.8598198     
   25514468.2379253     
   25514468.5979393     
   25514468.9382163     
   25514469.2571232     
   25514469.5530409     
   25514469.8243657     
   25514470.0695102     
   25514470.2869050     
   25514470.4749992     
   25514470.6322617     
   25514470.7571817     
   25514470.8482700     
   25514470.9040589     
   25514470.9231033     
   25013163.3373350     
   25013163.3562293     
   25013163.4125908     
   25013163.5058624     
   25013163.6353539     
   25013163.8002503     
   25013163.9996196     
   25013164.2324205     
   25013164.4975102     
   25013164.7936516     
   25013165.1195203     
   25013165.4737112     
   25013165.8547457     
   25013166.2610769     
   25013166.6910965     
   25013167.1431399     
   25013167.6154921     
   25013168.1063922     
   25013168.6140388     
   25013169.1365941     
   25013169.6721889     
   25013170.2189260     
   25013170.7748843     
   25013171.3381224     
   25013171.9066822     
   25013172.4785916     
   25013173.0518681     
   25013173.6245209     
   25013174.1945543     
   25013174.7599696     
   25013175.3187676     
   25013175.8689513     
   25013176.4085271     
   25013176.9355078     
   25013177.4479137     
   25013177.9437751     
   25013178.4211333     
   25013178.8780432     
   25013179.3125740     
   25013179.7228116     
   25013180.1068595     
   25013180.4628404     
   25013180.7888977     
   25013181.0831968     
   25013181.3439262     
   25013181.5692991     
   25013181.7575537     
   25013181.9069553     
   25013182.0157962     
   25013182.0823972     
   25013182.1051080     
   24511861.0083382     
   24511861.0324311     
   24511861.1040204     
   24511861.2220359     
   24511861.3852703     
   24511861.5923900     
   24511861.8419442     
   24511862.1323749     
   24511862.4620256     
   24511862.8291502     
   24511863.2319211     
   24511863.6684372     
   24511864.1367315     
   24511864.6347779     
   24511865.1604980     
   24511865.7117673     
   24511866.2864208     
   24511866.8822588     
   24511867.4970516     
   24511868.1285446     
   24511868.7744619     
   24511869.4325110     
   24511870.1003857     
   24511870.7757703     
   24511871.4563417     
   24511872.1397730     
   24511872.8237356     
   24511873.5059017     
   24511874.1839467     
   24511874.8555508     
   24511875.5184011     
   24511876.1701934     
   24511876.8086338     
   24511877.4314401     
   24511878.0363439     
   24511878.6210913     
   24511879.1834449     
   24511879.7211852     
   24511880.2321116     
   24511880.7140444     
   24511881.1648258     
   24511881.5823216     
   24511881.9644223     
   24511882.3090451     
   24511882.6141347     
   24511882.8776651     
   24511883.0976411     
   24511883.2720991     
   24511883.3991092     
   24511883.4767758     
   24511883.5032390     
   24010550.4363106     
   24010550.4660640     
   24010550.5541717     
   24010550.6989231     
   24010550.8984737     
   24010551.1508581     
   24010551.4540011     
   24010551.8057297     
   24010552.2037836     
   24010552.6458254     
   24010553.1294504     
   24010553.6521952     
   24010554.2115467     
   24010554.8049492     
   24010555.4298119     
   24010556.0835155     
   24010556.7634178     
   24010557.4668595     
   24010558.1911686     
   24010558.9336652     
   24010559.6916647     
   24010560.4624819     
   24010561.2434331     
   24010562.0318393     
   24010562.8250282     
   24010563.6203360     
   24010564.4151089     
   24010565.2067048     
   24010565.9924944     
   24010566.7698618     
   24010567.5362060     
   24010568.2889414     
   24010569.0254987     
   24010569.7433255     
   24010570.4398872     
   24010571.1126677     
   24010571.7591704     
   24010572.3769189     
   24010572.9634583     
   24010573.5163561     
   24010574.0332035     
   24010574.5116169     
   24010574.9492392     
   24010575.3437415     
   24010575.6928248     
   24010575.9942219     
   24010576.2456991     
   24010576.4450583     
   24010576.5901388     
   24010576.6788196     
   24010576.7090212     
   23509233.3832358     
   23509233.4190089     
   23509233.5245925     
   23509233.6974801     
   23509233.9350444     
   23509234.2345530     
   23509234.5931828     
   23509235.0080338     
   23509235.4761416     
   23509235.9944896     
   23509236.5600195     
   23509237.1696419     
   23509237.8202449     
   23509238.5087027     
   23509239.2318823     
   23509239.9866509     
   23509240.7698802     
   23509241.5784522     
   23509242.4092623     
   23509243.2592234     
   23509244.1252677     
   23509245.0043491     
   23509245.8934443     
   23509246.7895543     
   23509247.6897043     
   23509248.5909440     
   23509249.4903477     
   23509250.3850136     
   23509251.2720631     
   23509252.1486406     
   23509253.0119124     
   23509253.8590656     
   23509254.6873082     
   23509255.4938675     
   23509256.2759902     
   23509257.0309416     
   23509257.7560057     
   23509258.4484853     
   23509259.1057021     
   23509259.7249972     
   23509260.3037323     
   23509260.8392908     
   23509261.3290794     
   23509261.7705294     
   23509262.1610997     
   23509262.4982783     
   23509262.7795856     
   23509263.0025773     
   23509263.1648469     
   23509263.2640298     
   23509263.2978066     
   23007911.6775249     
   23007911.7194734     
   23007911.8428587     
   23007912.0441850     
   23007912.3198651     
   23007912.6662399     
   23007913.0795957     
   23007913.5561802     
   23007914.0922177     
   23007914.6839229     
   23007915.3275129     
   23007916.0192185     
   23007916.7552932     
   23007917.5320212     
   23007918.3457244     
   23007919.1927675     
   23007920.0695620     
   23007920.9725694     
   23007921.8983030     
   23007922.8433292     
   23007923.8042668     
   23007924.7777871     
   23007925.7606121     
   23007926.7495126     
   23007927.7413061     
   23007928.7328536     
   23007929.7210569     
   23007930.7028551     
   23007931.6752215     
   23007932.6351596     
   23007933.5797006     
   23007934.5058993     
   23007935.4108312     
   23007936.2915901     
   23007937.1452845     
   23007937.9690365     
   23007938.7599789     
   23007939.5152547     
   23007940.2320155     
   23007940.9074216     
   23007941.5386423     
   23007942.1228562     
   23007942.6572532     
   23007943.1390360     
   23007943.5654234     
   23007943.9336529     
   23007944.2409851     
   23007944.4847082     
   23007944.6621420     
   23007944.7706438     
   23007944.8076133     
   22506587.2268586     
   22506587.2748004     
   22506587.4152328     
   22506587.6434348     
   22506587.9546486     
   22506588.3440995     
   22506588.8070199     
   22506589.3386697     
   22506589.9343549     
   22506590.5894429     
   22506591.2993749     
   22506592.0596774     
   22506592.8659701     
   22506593.7139724     
   22506594.5995082     
   22506595.5185077     
   22506596.4670083     
   22506597.4411541     
   22506598.4371926     
   22506599.4514721     
   22506600.4804370     
   22506601.5206219     
   22506602.5686466     
   22506603.6212089     
   22506604.6750783     
   22506605.7270885     
   22506606.7741304     
   22506607.8131450     
   22506608.8411158     
   22506609.8550617     
   22506610.8520303     
   22506611.8290909     
   22506612.7833277     
   22506613.7118345     
   22506614.6117084     
   22506615.4800450     
   22506616.3139339     
   22506617.1104550     
   22506617.8666752     
   22506618.5796469     
   22506619.2464066     
   22506619.8639748     
   22506620.4293569     
   22506620.9395455     
   22506621.3915235     
   22506621.7822677     
   22506622.1087549     
   22506622.3679678     
   22506622.5569040     
   22506622.6725854     
   22506622.7120660     
   22005262.0371126     
   22005262.0902453     
   22005262.2451637     
   22005262.4956124     
   22005262.8353772     
   22005263.2583385     
   22005263.7584987     
   22005264.3300026     
   22005264.9671556     
   22005265.6644392     
   22005266.4165241     
   22005267.2182787     
   22005268.0647733     
   22005268.9512818     
   22005269.8732789     
   22005270.8264346     
   22005271.8066070     
   22005272.8098329     
   22005273.8323170     
   22005274.8704208     
   22005275.9206503     
   22005276.9796434     
   22005278.0441578     
   22005279.1110581     
   22005280.1773034     
   22005281.2399349     
   22005282.2960641     
   22005283.3428602     
   22005284.3775395     
   22005285.3973533     
   22005286.3995770     
   22005287.3814997     
   22005288.3404133     
   22005289.2736030     
   22005290.1783370     
   22005291.0518581     
   22005291.8913745     
   22005292.6940526     
   22005293.4570096     
   22005294.1773083     
   22005294.8519523     
   22005295.4778835     
   22005296.0519813     
   22005296.5710639     
   22005297.0318913     
   22005297.4311709     
   22005297.7655643     
   22005298.0316941     
   22005298.2261526     
   22005298.3455120     
   22005298.3863508     
   21503938.2411393     
   21503938.2978675     
   21503938.4617692     
   21503938.7245976     
   21503939.0784202     
   21503939.5155670     
   21503940.0286548     
   21503940.6106266     
   21503941.2547854     
   21503941.9548128     
   21503942.7047757     
   21503943.4991203     
   21503944.3326589     
   21503945.2005505     
   21503946.0982789     
   21503947.0216281     
   21503947.9666576     
   21503948.9296775     
   21503949.9072247     
   21503950.8960397     
   21503951.8930447     
   21503952.8953227     
   21503953.9000976     
   21503954.9047162     
   21503955.9066304     
   21503956.9033807     
   21503957.8925801     
   21503958.8718992     
   21503959.8390518     
   21503960.7917805     
   21503961.7278426     
   21503962.6449973     
   21503963.5409911     
   21503964.4135453     
   21503965.2603417     
   21503966.0790095     
   21503966.8671108     
   21503967.6221276     
   21503968.3414476     
   21503969.0223507     
   21503969.6619964     
   21503970.2574120     
   21503970.8054833     
   21503971.3029480     
   21503971.7463940     
   21503972.1322633     
   21503972.4568641     
   21503972.7163897     
   21503972.9069416     
   21503973.0245432     
   21503973.0651088     
   21002618.1491783     
   21002618.2052198     
   21002618.3662455     
   21002618.6218204     
   21002618.9616315     
   21002619.3759647     
   21002619.8559018     
   21002620.3933698     
   21002620.9811152     
   21002621.6126436     
   21002622.2821459     
   21002622.9844221     
   21002623.7148091     
   21002624.4691140     
   21002625.2435541     
   21002626.0347043     
   21002626.8394504     
   21002627.6549481     
   21002628.4785872     
   21002629.3079597     
   21002630.1408325     
   21002630.9751222     
   21002631.8088735     
   21002632.6402392     
   21002633.4674623     
   21002634.2888598     
   21002635.1028074     
   21002635.9077255     
   21002636.7020653     
   21002637.4842959     
   21002638.2528914     
   21002639.0063180     
   21002639.7430212     
   21002640.4614115     
   21002641.1598508     
   21002641.8366362     
   21002642.4899844     
   21002643.1180126     
   21002643.7187185     
   21002644.2899575     
   21002644.8294177     
   21002645.3345912     
   21002645.8027429     
   21002646.2308765     
   21002646.6156984     
   21002646.9535834     
   21002647.2405463     
   21002647.4722322     
   21002647.6439439     
   21002647.7507489     
   21002647.7877335     
   20501304.3368287     
   20501304.3880236     
   20501304.5261019     
   20501304.7341579     
   20501304.9992064     
   20501305.3110836     
   20501305.6616951     
   20501306.0444933     
   20501306.4541065     
   20501306.8860711     
   20501307.3366352     
   20501307.8026119     
   20501308.2812674     
   20501308.7702359     
   20501309.2674525     
   20501309.7711003     
   20501310.2795681     
   20501310.7914164     
   20501311.3053493     
   20501311.8201911     
   20501312.3348676     
   20501312.8483890     
   20501313.3598362     
   20501313.8683487     
   20501314.3731136     
   20501314.8733564     
   20501315.3683320     
   20501315.8573170     
   20501316.3396019     
   20501316.8144837     
   20501317.2812592     
   20501317.7392169     
   20501318.1876302     
   20501318.6257484     
   20501319.0527888     
   20501319.4679259     
   20501319.8702807     
   20501320.2589068     
   20501320.6327752     
   20501320.9907548     
   20501321.3315888     
   20501321.6538648     
   20501321.9559770     
   20501322.2360760     
   20501322.4920037     
   20501322.7212034     
   20501322.9205971     
   20501323.0864125     
   20501323.2139342     
   20501323.2971398     
   20501323.3281577     
   20000000.0000000     
   20000000.0000000     
   20000000.0000000     
   20000000.0000000     
   20000000.0000000     
   20000000.0000000     
   20000000.0000000     
   20000000.0000000     
   20000000.0000000     
   20000000.0000000     
   20000000.0000000     
   20000000.0000000     
   20000000.0000000     
   20000000.0000000     
   20000000.0000000     
   20000000.0000000     
   20000000.0000000     
   20000000.0000000     
   20000000.0000000     
   20000000.0000000     
   20000000.0000000     
   20000000.0000000     
   20000000.0000000     
   20000000.0000000     
   20000000.0000000     
   20000000.0000000     
   20000000.0000000     
   20000000.0000000     
   20000000.0000000     
   20000000.0000000     
   20000000.0000000     
   20000000.0000000     
   20000000.0000000     
   20000000.0000000     
   20000000.0000000     
   20000000.0000000     
   20000000.0000000     
   20000000.0000000     
   20000000.0000000     
   20000000.0000000     
   20000000.0000000     
   20000000.0000000     
   20000000.0000000     
   20000000.0000000     
   20000000.0000000     
   20000000.0000000     
   20000000.0000000     
   20000000.0000000     
   20000000.0000000     
   20000000.0000000     
   20000000.0000000     
VECTORS u double 
    0.00000E+00         0.79361E-02         0.00000E+00
    0.00000E+00         0.77898E-02         0.00000E+00
    0.00000E+00         0.76421E-02         0.00000E+00
    0.00000E+00         0.74936E-02         0.00000E+00
    0.00000E+00         0.73447E-02         0.00000E+00
    0.00000E+00         0.71957E-02         0.00000E+00
    0.00000E+00         0.70467E-02         0.00000E+00
    0.00000E+00         0.68979E-02         0.00000E+00
    0.00000E+00         0.67493E-02         0.00000E+00
    0.00000E+00         0.66009E-02         0.00000E+00
    0.00000E+00         0.64527E-02         0.00000E+00
    0.00000E+00         0.63048E-02         0.00000E+00
    0.00000E+00         0.61571E-02         0.00000E+00
    0.00000E+00         0.60096E-02         0.00000E+00
    0.00000E+00         0.58621E-02         0.00000E+00
    0.00000E+00         0.57147E-02         0.00000E+00
    0.00000E+00         0.55673E-02         0.00000E+00
    0.00000E+00         0.54198E-02         0.00000E+00
    0.00000E+00         0.52720E-02         0.00000E+00
    0.00000E+00         0.51240E-02         0.00000E+00
    0.00000E+00         0.49756E-02         0.00000E+00
    0.00000E+00         0.48268E-02         0.00000E+00
    0.00000E+00         0.46774E-02         0.00000E+00
    0.00000E+00         0.45273E-02         0.00000E+00
    0.00000E+00         0.43766E-02         0.00000E+00
    0.00000E+00         0.42251E-02         0.00000E+00
    0.00000E+00         0.40728E-02         0.00000E+00
    0.00000E+00         0.39196E-02         0.00000E+00
    0.00000E+00         0.37655E-02         0.00000E+00
    0.00000E+00         0.36104E-02         0.00000E+00
    0.00000E+00         0.34543E-02         0.00000E+00
    0.00000E+00         0.32971E-02         0.00000E+00
    0.00000E+00         0.31389E-02         0.00000E+00
    0.00000E+00         0.29795E-02         0.00000E+00
    0.00000E+00         0.28189E-02         0.00000E+00
    0.00000E+00         0.26572E-02         0.00000E+00
    0.00000E+00         0.24942E-02         0.00000E+00
    0.00000E+00         0.23299E-02         0.00000E+00
    0.00000E+00         0.21642E-02         0.00000E+00
    0.00000E+00         0.19970E-02         0.00000E+00
    0.00000E+00         0.18283E-02         0.00000E+00
    0.00000E+00         0.16578E-02         0.00000E+00
    0.00000E+00         0.14855E-02         0.00000E+00
    0.00000E+00         0.13111E-02         0.00000E+00
    0.00000E+00         0.11343E-02         0.00000E+00
    0.00000E+00         0.95498E-03         0.00000E+00
    0.00000E+00         0.77261E-03         0.00000E+00
    0.00000E+00         0.58671E-03         0.00000E+00
    0.00000E+00         0.39663E-03         0.00000E+00
    0.00000E+00         0.20147E-03         0.00000E+00
    0.00000E+00         0.00000E+00         0.00000E+00
    0.37049E-03         0.78606E-02         0.00000E+00
    0.34608E-03         0.77199E-02         0.00000E+00
    0.32569E-03         0.75778E-02         0.00000E+00
    0.30838E-03         0.74346E-02         0.00000E+00
    0.29345E-03         0.72905E-02         0.00000E+00
    0.28038E-03         0.71458E-02         0.00000E+00
    0.26878E-03         0.70006E-02         0.00000E+00
    0.25836E-03         0.68551E-02         0.00000E+00
    0.24888E-03         0.67094E-02         0.00000E+00
    0.24018E-03         0.65637E-02         0.00000E+00
    0.23211E-03         0.64179E-02         0.00000E+00
    0.22457E-03         0.62720E-02         0.00000E+00
    0.21745E-03         0.61262E-02         0.00000E+00
    0.21068E-03         0.59804E-02         0.00000E+00
    0.20420E-03         0.58345E-02         0.00000E+00
    0.19795E-03         0.56886E-02         0.00000E+00
    0.19191E-03         0.55425E-02         0.00000E+00
    0.18604E-03         0.53962E-02         0.00000E+00
    0.18031E-03         0.52497E-02         0.00000E+00
    0.17472E-03         0.51029E-02         0.00000E+00
    0.16926E-03         0.49556E-02         0.00000E+00
    0.16392E-03         0.48079E-02         0.00000E+00
    0.15870E-03         0.46595E-02         0.00000E+00
    0.15360E-03         0.45105E-02         0.00000E+00
    0.14863E-03         0.43608E-02         0.00000E+00
    0.14378E-03         0.42103E-02         0.00000E+00
    0.13906E-03         0.40589E-02         0.00000E+00
    0.13447E-03         0.39066E-02         0.00000E+00
    0.12999E-03         0.37534E-02         0.00000E+00
    0.12563E-03         0.35991E-02         0.00000E+00
    0.12137E-03         0.34437E-02         0.00000E+00
    0.11721E-03         0.32873E-02         0.00000E+00
    0.11313E-03         0.31297E-02         0.00000E+00
    0.10912E-03         0.29710E-02         0.00000E+00
    0.10517E-03         0.28111E-02         0.00000E+00
    0.10123E-03         0.26498E-02         0.00000E+00
    0.97289E-04         0.24873E-02         0.00000E+00
    0.93294E-04         0.23234E-02         0.00000E+00
    0.89216E-04         0.21581E-02         0.00000E+00
    0.85006E-04         0.19912E-02         0.00000E+00
    0.80604E-04         0.18226E-02         0.00000E+00
    0.75945E-04         0.16523E-02         0.00000E+00
    0.70953E-04         0.14801E-02         0.00000E+00
    0.65530E-04         0.13057E-02         0.00000E+00
    0.59535E-04         0.11290E-02         0.00000E+00
    0.52816E-04         0.94958E-03         0.00000E+00
    0.45192E-04         0.76725E-03         0.00000E+00
    0.36431E-04         0.58157E-03         0.00000E+00
    0.26245E-04         0.39212E-03         0.00000E+00
    0.14263E-04         0.19840E-03         0.00000E+00
    0.00000E+00         0.00000E+00         0.00000E+00
    0.68916E-03         0.76929E-02         0.00000E+00
    0.65288E-03         0.75596E-02         0.00000E+00
    0.62048E-03         0.74255E-02         0.00000E+00
    0.59144E-03         0.72904E-02         0.00000E+00
    0.56529E-03         0.71542E-02         0.00000E+00
    0.54162E-03         0.70171E-02         0.00000E+00
    0.52004E-03         0.68791E-02         0.00000E+00
    0.50026E-03         0.67403E-02         0.00000E+00
    0.48205E-03         0.66008E-02         0.00000E+00
    0.46516E-03         0.64607E-02         0.00000E+00
    0.44935E-03         0.63203E-02         0.00000E+00
    0.43444E-03         0.61794E-02         0.00000E+00
    0.42031E-03         0.60381E-02         0.00000E+00
    0.40682E-03         0.58965E-02         0.00000E+00
    0.39387E-03         0.57546E-02         0.00000E+00
    0.38138E-03         0.56123E-02         0.00000E+00
    0.36929E-03         0.54698E-02         0.00000E+00
    0.35751E-03         0.53269E-02         0.00000E+00
    0.34601E-03         0.51837E-02         0.00000E+00
    0.33477E-03         0.50400E-02         0.00000E+00
    0.32375E-03         0.48959E-02         0.00000E+00
    0.31295E-03         0.47512E-02         0.00000E+00
    0.30237E-03         0.46059E-02         0.00000E+00
    0.29200E-03         0.44598E-02         0.00000E+00
    0.28185E-03         0.43130E-02         0.00000E+00
    0.27192E-03         0.41653E-02         0.00000E+00
    0.26223E-03         0.40167E-02         0.00000E+00
    0.25277E-03         0.38670E-02         0.00000E+00
    0.24355E-03         0.37163E-02         0.00000E+00
    0.23456E-03         0.35644E-02         0.00000E+00
    0.22578E-03         0.34114E-02         0.00000E+00
    0.21719E-03         0.32571E-02         0.00000E+00
    0.20877E-03         0.31016E-02         0.00000E+00
    0.20047E-03         0.29447E-02         0.00000E+00
    0.19227E-03         0.27865E-02         0.00000E+00
    0.18410E-03         0.26268E-02         0.00000E+00
    0.17592E-03         0.24657E-02         0.00000E+00
    0.16765E-03         0.23030E-02         0.00000E+00
    0.15922E-03         0.21388E-02         0.00000E+00
    0.15055E-03         0.19728E-02         0.00000E+00
    0.14154E-03         0.18051E-02         0.00000E+00
    0.13207E-03         0.16354E-02         0.00000E+00
    0.12201E-03         0.14637E-02         0.00000E+00
    0.11122E-03         0.12898E-02         0.00000E+00
    0.99491E-04         0.11135E-02         0.00000E+00
    0.86630E-04         0.93479E-03         0.00000E+00
    0.72437E-04         0.75339E-03         0.00000E+00
    0.56728E-04         0.56922E-03         0.00000E+00
    0.39377E-04         0.38221E-03         0.00000E+00
    0.20389E-04         0.19242E-03         0.00000E+00
    0.00000E+00         0.00000E+00         0.00000E+00
    0.96174E-03         0.74900E-02         0.00000E+00
    0.92126E-03         0.73605E-02         0.00000E+00
    0.88334E-03         0.72307E-02         0.00000E+00
    0.84789E-03         0.71005E-02         0.00000E+00
    0.81476E-03         0.69699E-02         0.00000E+00
    0.78378E-03         0.68387E-02         0.00000E+00
    0.75478E-03         0.67068E-02         0.00000E+00
    0.72756E-03         0.65744E-02         0.00000E+00
    0.70193E-03         0.64415E-02         0.00000E+00
    0.67776E-03         0.63077E-02         0.00000E+00
    0.65487E-03         0.61731E-02         0.00000E+00
    0.63309E-03         0.60378E-02         0.00000E+00
    0.61228E-03         0.59020E-02         0.00000E+00
    0.59232E-03         0.57657E-02         0.00000E+00
    0.57310E-03         0.56289E-02         0.00000E+00
    0.55451E-03         0.54916E-02         0.00000E+00
    0.53645E-03         0.53538E-02         0.00000E+00
    0.51888E-03         0.52155E-02         0.00000E+00
    0.50173E-03         0.50768E-02         0.00000E+00
    0.48490E-03         0.49377E-02         0.00000E+00
    0.46835E-03         0.47980E-02         0.00000E+00
    0.45205E-03         0.46577E-02         0.00000E+00
    0.43599E-03         0.45167E-02         0.00000E+00
    0.42019E-03         0.43751E-02         0.00000E+00
    0.40465E-03         0.42326E-02         0.00000E+00
    0.38939E-03         0.40892E-02         0.00000E+00
    0.37440E-03         0.39448E-02         0.00000E+00
    0.35971E-03         0.37994E-02         0.00000E+00
    0.34535E-03         0.36528E-02         0.00000E+00
    0.33130E-03         0.35048E-02         0.00000E+00
    0.31755E-03         0.33556E-02         0.00000E+00
    0.30408E-03         0.32049E-02         0.00000E+00
    0.29087E-03         0.30527E-02         0.00000E+00
    0.27786E-03         0.28989E-02         0.00000E+00
    0.26501E-03         0.27436E-02         0.00000E+00
    0.25224E-03         0.25866E-02         0.00000E+00
    0.23948E-03         0.24279E-02         0.00000E+00
    0.22665E-03         0.22675E-02         0.00000E+00
    0.21365E-03         0.21053E-02         0.00000E+00
    0.20037E-03         0.19412E-02         0.00000E+00
    0.18667E-03         0.17752E-02         0.00000E+00
    0.17244E-03         0.16072E-02         0.00000E+00
    0.15757E-03         0.14371E-02         0.00000E+00
    0.14191E-03         0.12650E-02         0.00000E+00
    0.12535E-03         0.10906E-02         0.00000E+00
    0.10765E-03         0.91405E-03         0.00000E+00
    0.88705E-04         0.73533E-03         0.00000E+00
    0.68479E-04         0.55449E-03         0.00000E+00
    0.46968E-04         0.37163E-03         0.00000E+00
    0.24163E-04         0.18681E-03         0.00000E+00
    0.00000E+00         0.00000E+00         0.00000E+00
    0.11971E-02         0.72777E-02         0.00000E+00
    0.11545E-02         0.71501E-02         0.00000E+00
    0.11137E-02         0.70223E-02         0.00000E+00
    0.10747E-02         0.68944E-02         0.00000E+00
    0.10376E-02         0.67662E-02         0.00000E+00
    0.10021E-02         0.66379E-02         0.00000E+00
    0.96821E-03         0.65092E-02         0.00000E+00
    0.93586E-03         0.63801E-02         0.00000E+00
    0.90490E-03         0.62507E-02         0.00000E+00
    0.87523E-03         0.61209E-02         0.00000E+00
    0.84678E-03         0.59907E-02         0.00000E+00
    0.81944E-03         0.58601E-02         0.00000E+00
    0.79309E-03         0.57291E-02         0.00000E+00
    0.76760E-03         0.55978E-02         0.00000E+00
    0.74290E-03         0.54659E-02         0.00000E+00
    0.71888E-03         0.53336E-02         0.00000E+00
    0.69544E-03         0.52009E-02         0.00000E+00
    0.67249E-03         0.50679E-02         0.00000E+00
    0.65000E-03         0.49342E-02         0.00000E+00
    0.62788E-03         0.47998E-02         0.00000E+00
    0.60605E-03         0.46649E-02         0.00000E+00
    0.58448E-03         0.45295E-02         0.00000E+00
    0.56314E-03         0.43936E-02         0.00000E+00
    0.54203E-03         0.42571E-02         0.00000E+00
    0.52112E-03         0.41198E-02         0.00000E+00
    0.50045E-03         0.39817E-02         0.00000E+00
    0.48005E-03         0.38426E-02         0.00000E+00
    0.45991E-03         0.37026E-02         0.00000E+00
    0.44003E-03         0.35613E-02         0.00000E+00
    0.42047E-03         0.34187E-02         0.00000E+00
    0.40125E-03         0.32747E-02         0.00000E+00
    0.38235E-03         0.31290E-02         0.00000E+00
    0.36379E-03         0.29817E-02         0.00000E+00
    0.34553E-03         0.28325E-02         0.00000E+00
    0.32755E-03         0.26815E-02         0.00000E+00
    0.30976E-03         0.25286E-02         0.00000E+00
    0.29210E-03         0.23737E-02         0.00000E+00
    0.27445E-03         0.22168E-02         0.00000E+00
    0.25672E-03         0.20579E-02         0.00000E+00
    0.23881E-03         0.18970E-02         0.00000E+00
    0.22062E-03         0.17341E-02         0.00000E+00
    0.20203E-03         0.15692E-02         0.00000E+00
    0.18288E-03         0.14023E-02         0.00000E+00
    0.16309E-03         0.12334E-02         0.00000E+00
    0.14255E-03         0.10626E-02         0.00000E+00
    0.12125E-03         0.88982E-03         0.00000E+00
    0.99099E-04         0.71527E-03         0.00000E+00
    0.75945E-04         0.53896E-03         0.00000E+00
    0.51713E-04         0.36094E-03         0.00000E+00
    0.26377E-04         0.18125E-03         0.00000E+00
    0.00000E+00         0.00000E+00         0.00000E+00
    0.14020E-02         0.70545E-02         0.00000E+00
    0.13574E-02         0.69294E-02         0.00000E+00
    0.13144E-02         0.68041E-02         0.00000E+00
    0.12730E-02         0.66787E-02         0.00000E+00
    0.12331E-02         0.65531E-02         0.00000E+00
    0.11946E-02         0.64273E-02         0.00000E+00
    0.11575E-02         0.63013E-02         0.00000E+00
    0.11217E-02         0.61750E-02         0.00000E+00
    0.10871E-02         0.60484E-02         0.00000E+00
    0.10536E-02         0.59216E-02         0.00000E+00
    0.10212E-02         0.57944E-02         0.00000E+00
    0.98975E-03         0.56669E-02         0.00000E+00
    0.95919E-03         0.55391E-02         0.00000E+00
    0.92944E-03         0.54109E-02         0.00000E+00
    0.90039E-03         0.52823E-02         0.00000E+00
    0.87200E-03         0.51534E-02         0.00000E+00
    0.84417E-03         0.50241E-02         0.00000E+00
    0.81680E-03         0.48944E-02         0.00000E+00
    0.78984E-03         0.47643E-02         0.00000E+00
    0.76324E-03         0.46339E-02         0.00000E+00
    0.73696E-03         0.45031E-02         0.00000E+00
    0.71092E-03         0.43720E-02         0.00000E+00
    0.68507E-03         0.42407E-02         0.00000E+00
    0.65934E-03         0.41088E-02         0.00000E+00
    0.63370E-03         0.39765E-02         0.00000E+00
    0.60813E-03         0.38439E-02         0.00000E+00
    0.58262E-03         0.37105E-02         0.00000E+00
    0.55717E-03         0.35762E-02         0.00000E+00
    0.53181E-03         0.34409E-02         0.00000E+00
    0.50659E-03         0.33045E-02         0.00000E+00
    0.48158E-03         0.31668E-02         0.00000E+00
    0.45687E-03         0.30276E-02         0.00000E+00
    0.43252E-03         0.28866E-02         0.00000E+00
    0.40853E-03         0.27438E-02         0.00000E+00
    0.38489E-03         0.25990E-02         0.00000E+00
    0.36160E-03         0.24520E-02         0.00000E+00
    0.33858E-03         0.23028E-02         0.00000E+00
    0.31580E-03         0.21513E-02         0.00000E+00
    0.29319E-03         0.19975E-02         0.00000E+00
    0.27065E-03         0.18415E-02         0.00000E+00
    0.24808E-03         0.16834E-02         0.00000E+00
    0.22537E-03         0.15231E-02         0.00000E+00
    0.20243E-03         0.13609E-02         0.00000E+00
    0.17917E-03         0.11967E-02         0.00000E+00
    0.15550E-03         0.10307E-02         0.00000E+00
    0.13126E-03         0.86291E-03         0.00000E+00
    0.10640E-03         0.69340E-03         0.00000E+00
    0.80865E-04         0.52224E-03         0.00000E+00
    0.54668E-04         0.34956E-03         0.00000E+00
    0.27720E-04         0.17546E-03         0.00000E+00
    0.00000E+00         0.00000E+00         0.00000E+00
    0.15793E-02         0.68241E-02         0.00000E+00
    0.15334E-02         0.67015E-02         0.00000E+00
    0.14890E-02         0.65788E-02         0.00000E+00
    0.14459E-02         0.64560E-02         0.00000E+00
    0.14041E-02         0.63331E-02         0.00000E+00
    0.13635E-02         0.62100E-02         0.00000E+00
    0.13241E-02         0.60867E-02         0.00000E+00
    0.12858E-02         0.59632E-02         0.00000E+00
    0.12485E-02         0.58395E-02         0.00000E+00
    0.12121E-02         0.57155E-02         0.00000E+00
    0.11767E-02         0.55912E-02         0.00000E+00
    0.11421E-02         0.54667E-02         0.00000E+00
    0.11082E-02         0.53418E-02         0.00000E+00
    0.10751E-02         0.52166E-02         0.00000E+00
    0.10426E-02         0.50911E-02         0.00000E+00
    0.10107E-02         0.49651E-02         0.00000E+00
    0.97933E-03         0.48389E-02         0.00000E+00
    0.94840E-03         0.47123E-02         0.00000E+00
    0.91788E-03         0.45853E-02         0.00000E+00
    0.88770E-03         0.44579E-02         0.00000E+00
    0.85779E-03         0.43302E-02         0.00000E+00
    0.82812E-03         0.42020E-02         0.00000E+00
    0.79860E-03         0.40735E-02         0.00000E+00
    0.76919E-03         0.39445E-02         0.00000E+00
    0.73982E-03         0.38152E-02         0.00000E+00
    0.71044E-03         0.36856E-02         0.00000E+00
    0.68098E-03         0.35555E-02         0.00000E+00
    0.65143E-03         0.34251E-02         0.00000E+00
    0.62178E-03         0.32944E-02         0.00000E+00
    0.59202E-03         0.31633E-02         0.00000E+00
    0.56214E-03         0.30316E-02         0.00000E+00
    0.53221E-03         0.28993E-02         0.00000E+00
    0.50227E-03         0.27657E-02         0.00000E+00
    0.47242E-03         0.26305E-02         0.00000E+00
    0.44278E-03         0.24935E-02         0.00000E+00
    0.41347E-03         0.23544E-02         0.00000E+00
    0.38460E-03         0.22130E-02         0.00000E+00
    0.35623E-03         0.20693E-02         0.00000E+00
    0.32831E-03         0.19231E-02         0.00000E+00
    0.30081E-03         0.17744E-02         0.00000E+00
    0.27363E-03         0.16231E-02         0.00000E+00
    0.24669E-03         0.14694E-02         0.00000E+00
    0.21993E-03         0.13134E-02         0.00000E+00
    0.19323E-03         0.11552E-02         0.00000E+00
    0.16649E-03         0.99510E-03         0.00000E+00
    0.13961E-03         0.83314E-03         0.00000E+00
    0.11248E-03         0.66949E-03         0.00000E+00
    0.85053E-04         0.50428E-03         0.00000E+00
    0.57195E-04         0.33758E-03         0.00000E+00
    0.28812E-04         0.16944E-03         0.00000E+00
    0.00000E+00         0.00000E+00         0.00000E+00
    0.17317E-02         0.65901E-02         0.00000E+00
    0.16853E-02         0.64701E-02         0.00000E+00
    0.16402E-02         0.63501E-02         0.00000E+00
    0.15961E-02         0.62300E-02         0.00000E+00
    0.15531E-02         0.61099E-02         0.00000E+00
    0.15111E-02         0.59896E-02         0.00000E+00
    0.14700E-02         0.58691E-02         0.00000E+00
    0.14299E-02         0.57485E-02         0.00000E+00
    0.13906E-02         0.56276E-02         0.00000E+00
    0.13521E-02         0.55066E-02         0.00000E+00
    0.13143E-02         0.53852E-02         0.00000E+00
    0.12773E-02         0.52636E-02         0.00000E+00
    0.12408E-02         0.51417E-02         0.00000E+00
    0.12050E-02         0.50195E-02         0.00000E+00
    0.11698E-02         0.48970E-02         0.00000E+00
    0.11350E-02         0.47741E-02         0.00000E+00
    0.11006E-02         0.46509E-02         0.00000E+00
    0.10667E-02         0.45273E-02         0.00000E+00
    0.10331E-02         0.44034E-02         0.00000E+00
    0.99977E-03         0.42790E-02         0.00000E+00
    0.96670E-03         0.41543E-02         0.00000E+00
    0.93383E-03         0.40292E-02         0.00000E+00
    0.90112E-03         0.39036E-02         0.00000E+00
    0.86850E-03         0.37777E-02         0.00000E+00
    0.83595E-03         0.36513E-02         0.00000E+00
    0.80342E-03         0.35245E-02         0.00000E+00
    0.77086E-03         0.33973E-02         0.00000E+00
    0.73825E-03         0.32696E-02         0.00000E+00
    0.70551E-03         0.31416E-02         0.00000E+00
    0.67260E-03         0.30130E-02         0.00000E+00
    0.63946E-03         0.28841E-02         0.00000E+00
    0.60605E-03         0.27548E-02         0.00000E+00
    0.57232E-03         0.26251E-02         0.00000E+00
    0.53836E-03         0.24951E-02         0.00000E+00
    0.50420E-03         0.23647E-02         0.00000E+00
    0.46994E-03         0.22334E-02         0.00000E+00
    0.43575E-03         0.21012E-02         0.00000E+00
    0.40167E-03         0.19669E-02         0.00000E+00
    0.36794E-03         0.18304E-02         0.00000E+00
    0.33470E-03         0.16914E-02         0.00000E+00
    0.30211E-03         0.15496E-02         0.00000E+00
    0.27025E-03         0.14051E-02         0.00000E+00
    0.23904E-03         0.12579E-02         0.00000E+00
    0.20839E-03         0.11080E-02         0.00000E+00
    0.17819E-03         0.95559E-03         0.00000E+00
    0.14829E-03         0.80077E-03         0.00000E+00
    0.11861E-03         0.64385E-03         0.00000E+00
    0.89036E-04         0.48510E-03         0.00000E+00
    0.59483E-04         0.32477E-03         0.00000E+00
    0.29844E-04         0.16304E-03         0.00000E+00
    0.00000E+00         0.00000E+00         0.00000E+00
    0.18621E-02         0.63556E-02         0.00000E+00
    0.18158E-02         0.62384E-02         0.00000E+00
    0.17704E-02         0.61213E-02         0.00000E+00
    0.17259E-02         0.60041E-02         0.00000E+00
    0.16823E-02         0.58868E-02         0.00000E+00
    0.16394E-02         0.57694E-02         0.00000E+00
    0.15973E-02         0.56519E-02         0.00000E+00
    0.15559E-02         0.55342E-02         0.00000E+00
    0.15152E-02         0.54164E-02         0.00000E+00
    0.14751E-02         0.52983E-02         0.00000E+00
    0.14356E-02         0.51800E-02         0.00000E+00
    0.13967E-02         0.50614E-02         0.00000E+00
    0.13582E-02         0.49426E-02         0.00000E+00
    0.13203E-02         0.48235E-02         0.00000E+00
    0.12827E-02         0.47041E-02         0.00000E+00
    0.12456E-02         0.45843E-02         0.00000E+00
    0.12088E-02         0.44643E-02         0.00000E+00
    0.11723E-02         0.43438E-02         0.00000E+00
    0.11361E-02         0.42230E-02         0.00000E+00
    0.11001E-02         0.41019E-02         0.00000E+00
    0.10643E-02         0.39803E-02         0.00000E+00
    0.10286E-02         0.38583E-02         0.00000E+00
    0.99311E-03         0.37359E-02         0.00000E+00
    0.95766E-03         0.36131E-02         0.00000E+00
    0.92226E-03         0.34899E-02         0.00000E+00
    0.88687E-03         0.33663E-02         0.00000E+00
    0.85144E-03         0.32422E-02         0.00000E+00
    0.81596E-03         0.31176E-02         0.00000E+00
    0.78039E-03         0.29927E-02         0.00000E+00
    0.74470E-03         0.28672E-02         0.00000E+00
    0.70886E-03         0.27413E-02         0.00000E+00
    0.67286E-03         0.26150E-02         0.00000E+00
    0.63666E-03         0.24881E-02         0.00000E+00
    0.60022E-03         0.23608E-02         0.00000E+00
    0.56350E-03         0.22331E-02         0.00000E+00
    0.52647E-03         0.21049E-02         0.00000E+00
    0.48908E-03         0.19763E-02         0.00000E+00
    0.45142E-03         0.18475E-02         0.00000E+00
    0.41363E-03         0.17182E-02         0.00000E+00
    0.37583E-03         0.15881E-02         0.00000E+00
    0.33830E-03         0.14571E-02         0.00000E+00
    0.30107E-03         0.13237E-02         0.00000E+00
    0.26439E-03         0.11878E-02         0.00000E+00
    0.22850E-03         0.10489E-02         0.00000E+00
    0.19354E-03         0.90691E-03         0.00000E+00
    0.15963E-03         0.76201E-03         0.00000E+00
    0.12662E-03         0.61428E-03         0.00000E+00
    0.94349E-04         0.46391E-03         0.00000E+00
    0.62630E-04         0.31120E-03         0.00000E+00
    0.31121E-04         0.15643E-03         0.00000E+00
    0.00000E+00         0.00000E+00         0.00000E+00
    0.19733E-02         0.61232E-02         0.00000E+00
    0.19275E-02         0.60091E-02         0.00000E+00
    0.18824E-02         0.58949E-02         0.00000E+00
    0.18380E-02         0.57807E-02         0.00000E+00
    0.17941E-02         0.56664E-02         0.00000E+00
    0.17508E-02         0.55521E-02         0.00000E+00
    0.17081E-02         0.54376E-02         0.00000E+00
    0.16660E-02         0.53231E-02         0.00000E+00
    0.16243E-02         0.52083E-02         0.00000E+00
    0.15830E-02         0.50934E-02         0.00000E+00
    0.15422E-02         0.49782E-02         0.00000E+00
    0.15019E-02         0.48629E-02         0.00000E+00
    0.14619E-02         0.47472E-02         0.00000E+00
    0.14222E-02         0.46314E-02         0.00000E+00
    0.13828E-02         0.45152E-02         0.00000E+00
    0.13438E-02         0.43987E-02         0.00000E+00
    0.13049E-02         0.42819E-02         0.00000E+00
    0.12663E-02         0.41648E-02         0.00000E+00
    0.12279E-02         0.40474E-02         0.00000E+00
    0.11896E-02         0.39296E-02         0.00000E+00
    0.11515E-02         0.38114E-02         0.00000E+00
    0.11135E-02         0.36928E-02         0.00000E+00
    0.10755E-02         0.35739E-02         0.00000E+00
    0.10376E-02         0.34545E-02         0.00000E+00
    0.99964E-03         0.33347E-02         0.00000E+00
    0.96170E-03         0.32145E-02         0.00000E+00
    0.92373E-03         0.30939E-02         0.00000E+00
    0.88569E-03         0.29728E-02         0.00000E+00
    0.84756E-03         0.28513E-02         0.00000E+00
    0.80932E-03         0.27294E-02         0.00000E+00
    0.77096E-03         0.26070E-02         0.00000E+00
    0.73244E-03         0.24841E-02         0.00000E+00
    0.69376E-03         0.23608E-02         0.00000E+00
    0.65490E-03         0.22370E-02         0.00000E+00
    0.61586E-03         0.21127E-02         0.00000E+00
    0.57664E-03         0.19880E-02         0.00000E+00
    0.53723E-03         0.18627E-02         0.00000E+00
    0.49763E-03         0.17370E-02         0.00000E+00
    0.45779E-03         0.16107E-02         0.00000E+00
    0.41770E-03         0.14840E-02         0.00000E+00
    0.37735E-03         0.13569E-02         0.00000E+00
    0.33683E-03         0.12294E-02         0.00000E+00
    0.29638E-03         0.11016E-02         0.00000E+00
    0.25617E-03         0.97290E-03         0.00000E+00
    0.21656E-03         0.84308E-03         0.00000E+00
    0.17758E-03         0.71064E-03         0.00000E+00
    0.13952E-03         0.57509E-03         0.00000E+00
    0.10266E-03         0.43611E-03         0.00000E+00
    0.67137E-04         0.29355E-03         0.00000E+00
    0.33055E-04         0.14805E-03         0.00000E+00
    0.00000E+00         0.00000E+00         0.00000E+00
    0.20683E-02         0.58949E-02         0.00000E+00
    0.20233E-02         0.57839E-02         0.00000E+00
    0.19788E-02         0.56728E-02         0.00000E+00
    0.19347E-02         0.55617E-02         0.00000E+00
    0.18910E-02         0.54506E-02         0.00000E+00
    0.18476E-02         0.53394E-02         0.00000E+00
    0.18047E-02         0.52282E-02         0.00000E+00
    0.17620E-02         0.51168E-02         0.00000E+00
    0.17197E-02         0.50053E-02         0.00000E+00
    0.16777E-02         0.48936E-02         0.00000E+00
    0.16360E-02         0.47818E-02         0.00000E+00
    0.15946E-02         0.46697E-02         0.00000E+00
    0.15534E-02         0.45574E-02         0.00000E+00
    0.15124E-02         0.44449E-02         0.00000E+00
    0.14716E-02         0.43322E-02         0.00000E+00
    0.14310E-02         0.42191E-02         0.00000E+00
    0.13905E-02         0.41058E-02         0.00000E+00
    0.13501E-02         0.39922E-02         0.00000E+00
    0.13099E-02         0.38783E-02         0.00000E+00
    0.12697E-02         0.37641E-02         0.00000E+00
    0.12296E-02         0.36495E-02         0.00000E+00
    0.11895E-02         0.35345E-02         0.00000E+00
    0.11494E-02         0.34193E-02         0.00000E+00
    0.11094E-02         0.33036E-02         0.00000E+00
    0.10693E-02         0.31876E-02         0.00000E+00
    0.10291E-02         0.30711E-02         0.00000E+00
    0.98887E-03         0.29543E-02         0.00000E+00
    0.94856E-03         0.28371E-02         0.00000E+00
    0.90814E-03         0.27195E-02         0.00000E+00
    0.86760E-03         0.26014E-02         0.00000E+00
    0.82693E-03         0.24830E-02         0.00000E+00
    0.78611E-03         0.23641E-02         0.00000E+00
    0.74514E-03         0.22447E-02         0.00000E+00
    0.70401E-03         0.21250E-02         0.00000E+00
    0.66271E-03         0.20047E-02         0.00000E+00
    0.62124E-03         0.18840E-02         0.00000E+00
    0.57960E-03         0.17629E-02         0.00000E+00
    0.53780E-03         0.16413E-02         0.00000E+00
    0.49585E-03         0.15192E-02         0.00000E+00
    0.45378E-03         0.13966E-02         0.00000E+00
    0.41160E-03         0.12735E-02         0.00000E+00
    0.36934E-03         0.11499E-02         0.00000E+00
    0.32696E-03         0.10257E-02         0.00000E+00
    0.28450E-03         0.90101E-03         0.00000E+00
    0.24196E-03         0.77586E-03         0.00000E+00
    0.19948E-03         0.65029E-03         0.00000E+00
    0.15742E-03         0.52431E-03         0.00000E+00
    0.11606E-03         0.39721E-03         0.00000E+00
    0.75958E-04         0.26864E-03         0.00000E+00
    0.37090E-04         0.13644E-03         0.00000E+00
    0.00000E+00         0.00000E+00         0.00000E+00
    0.21498E-02         0.56717E-02         0.00000E+00
    0.21058E-02         0.55639E-02         0.00000E+00
    0.20620E-02         0.54560E-02         0.00000E+00
    0.20184E-02         0.53482E-02         0.00000E+00
    0.19751E-02         0.52404E-02         0.00000E+00
    0.19319E-02         0.51325E-02         0.00000E+00
    0.18889E-02         0.50245E-02         0.00000E+00
    0.18461E-02         0.49165E-02         0.00000E+00
    0.18035E-02         0.48083E-02         0.00000E+00
    0.17610E-02         0.47000E-02         0.00000E+00
    0.17187E-02         0.45916E-02         0.00000E+00
    0.16764E-02         0.44829E-02         0.00000E+00
    0.16343E-02         0.43741E-02         0.00000E+00
    0.15924E-02         0.42651E-02         0.00000E+00
    0.15504E-02         0.41559E-02         0.00000E+00
    0.15086E-02         0.40465E-02         0.00000E+00
    0.14668E-02         0.39368E-02         0.00000E+00
    0.14250E-02         0.38268E-02         0.00000E+00
    0.13833E-02         0.37166E-02         0.00000E+00
    0.13416E-02         0.36061E-02         0.00000E+00
    0.12998E-02         0.34953E-02         0.00000E+00
    0.12580E-02         0.33842E-02         0.00000E+00
    0.12162E-02         0.32727E-02         0.00000E+00
    0.11743E-02         0.31610E-02         0.00000E+00
    0.11323E-02         0.30489E-02         0.00000E+00
    0.10902E-02         0.29365E-02         0.00000E+00
    0.10480E-02         0.28238E-02         0.00000E+00
    0.10057E-02         0.27107E-02         0.00000E+00
    0.96330E-03         0.25972E-02         0.00000E+00
    0.92073E-03         0.24834E-02         0.00000E+00
    0.87800E-03         0.23692E-02         0.00000E+00
    0.83511E-03         0.22546E-02         0.00000E+00
    0.79206E-03         0.21397E-02         0.00000E+00
    0.74883E-03         0.20243E-02         0.00000E+00
    0.70544E-03         0.19086E-02         0.00000E+00
    0.66187E-03         0.17925E-02         0.00000E+00
    0.61813E-03         0.16760E-02         0.00000E+00
    0.57422E-03         0.15591E-02         0.00000E+00
    0.53016E-03         0.14418E-02         0.00000E+00
    0.48595E-03         0.13240E-02         0.00000E+00
    0.44161E-03         0.12059E-02         0.00000E+00
    0.39716E-03         0.10873E-02         0.00000E+00
    0.35263E-03         0.96830E-03         0.00000E+00
    0.30808E-03         0.84885E-03         0.00000E+00
    0.26354E-03         0.72895E-03         0.00000E+00
    0.21907E-03         0.60855E-03         0.00000E+00
    0.17465E-03         0.48763E-03         0.00000E+00
    0.13035E-03         0.36629E-03         0.00000E+00
    0.86199E-04         0.24452E-03         0.00000E+00
    0.42516E-04         0.12244E-03         0.00000E+00
    0.00000E+00         0.00000E+00         0.00000E+00
    0.22203E-02         0.54539E-02         0.00000E+00
    0.21773E-02         0.53494E-02         0.00000E+00
    0.21343E-02         0.52449E-02         0.00000E+00
    0.20914E-02         0.51405E-02         0.00000E+00
    0.20485E-02         0.50360E-02         0.00000E+00
    0.20056E-02         0.49315E-02         0.00000E+00
    0.19628E-02         0.48269E-02         0.00000E+00
    0.19200E-02         0.47223E-02         0.00000E+00
    0.18772E-02         0.46176E-02         0.00000E+00
    0.18344E-02         0.45127E-02         0.00000E+00
    0.17917E-02         0.44078E-02         0.00000E+00
    0.17490E-02         0.43027E-02         0.00000E+00
    0.17062E-02         0.41975E-02         0.00000E+00
    0.16635E-02         0.40921E-02         0.00000E+00
    0.16207E-02         0.39865E-02         0.00000E+00
    0.15779E-02         0.38807E-02         0.00000E+00
    0.15351E-02         0.37747E-02         0.00000E+00
    0.14922E-02         0.36685E-02         0.00000E+00
    0.14493E-02         0.35621E-02         0.00000E+00
    0.14063E-02         0.34554E-02         0.00000E+00
    0.13632E-02         0.33485E-02         0.00000E+00
    0.13200E-02         0.32413E-02         0.00000E+00
    0.12767E-02         0.31339E-02         0.00000E+00
    0.12332E-02         0.30262E-02         0.00000E+00
    0.11897E-02         0.29182E-02         0.00000E+00
    0.11460E-02         0.28099E-02         0.00000E+00
    0.11021E-02         0.27014E-02         0.00000E+00
    0.10581E-02         0.25925E-02         0.00000E+00
    0.10140E-02         0.24834E-02         0.00000E+00
    0.96963E-03         0.23739E-02         0.00000E+00
    0.92510E-03         0.22642E-02         0.00000E+00
    0.88039E-03         0.21541E-02         0.00000E+00
    0.83549E-03         0.20437E-02         0.00000E+00
    0.79040E-03         0.19330E-02         0.00000E+00
    0.74511E-03         0.18220E-02         0.00000E+00
    0.69963E-03         0.17106E-02         0.00000E+00
    0.65396E-03         0.15989E-02         0.00000E+00
    0.60810E-03         0.14869E-02         0.00000E+00
    0.56206E-03         0.13746E-02         0.00000E+00
    0.51584E-03         0.12619E-02         0.00000E+00
    0.46946E-03         0.11490E-02         0.00000E+00
    0.42293E-03         0.10356E-02         0.00000E+00
    0.37626E-03         0.92199E-03         0.00000E+00
    0.32948E-03         0.80801E-03         0.00000E+00
    0.28259E-03         0.69369E-03         0.00000E+00
    0.23561E-03         0.57903E-03         0.00000E+00
    0.18859E-03         0.46404E-03         0.00000E+00
    0.14155E-03         0.34867E-03         0.00000E+00
    0.94503E-04         0.23292E-03         0.00000E+00
    0.47401E-04         0.11672E-03         0.00000E+00
    0.00000E+00         0.00000E+00         0.00000E+00
    0.22820E-02         0.52414E-02         0.00000E+00
    0.22399E-02         0.51403E-02         0.00000E+00
    0.21977E-02         0.50393E-02         0.00000E+00
    0.21554E-02         0.49383E-02         0.00000E+00
    0.21130E-02         0.48373E-02         0.00000E+00
    0.20705E-02         0.47362E-02         0.00000E+00
    0.20279E-02         0.46351E-02         0.00000E+00
    0.19852E-02         0.45340E-02         0.00000E+00
    0.19424E-02         0.44328E-02         0.00000E+00
    0.18995E-02         0.43315E-02         0.00000E+00
    0.18565E-02         0.42301E-02         0.00000E+00
    0.18135E-02         0.41286E-02         0.00000E+00
    0.17703E-02         0.40270E-02         0.00000E+00
    0.17270E-02         0.39252E-02         0.00000E+00
    0.16836E-02         0.38233E-02         0.00000E+00
    0.16401E-02         0.37213E-02         0.00000E+00
    0.15965E-02         0.36191E-02         0.00000E+00
    0.15527E-02         0.35167E-02         0.00000E+00
    0.15088E-02         0.34141E-02         0.00000E+00
    0.14647E-02         0.33113E-02         0.00000E+00
    0.14205E-02         0.32083E-02         0.00000E+00
    0.13762E-02         0.31051E-02         0.00000E+00
    0.13317E-02         0.30017E-02         0.00000E+00
    0.12870E-02         0.28981E-02         0.00000E+00
    0.12421E-02         0.27942E-02         0.00000E+00
    0.11970E-02         0.26901E-02         0.00000E+00
    0.11518E-02         0.25858E-02         0.00000E+00
    0.11063E-02         0.24812E-02         0.00000E+00
    0.10607E-02         0.23764E-02         0.00000E+00
    0.10148E-02         0.22713E-02         0.00000E+00
    0.96869E-03         0.21659E-02         0.00000E+00
    0.92238E-03         0.20603E-02         0.00000E+00
    0.87585E-03         0.19545E-02         0.00000E+00
    0.82909E-03         0.18483E-02         0.00000E+00
    0.78211E-03         0.17419E-02         0.00000E+00
    0.73490E-03         0.16352E-02         0.00000E+00
    0.68746E-03         0.15283E-02         0.00000E+00
    0.63979E-03         0.14211E-02         0.00000E+00
    0.59190E-03         0.13136E-02         0.00000E+00
    0.54379E-03         0.12058E-02         0.00000E+00
    0.49546E-03         0.10978E-02         0.00000E+00
    0.44691E-03         0.98942E-03         0.00000E+00
    0.39815E-03         0.88078E-03         0.00000E+00
    0.34918E-03         0.77185E-03         0.00000E+00
    0.30000E-03         0.66260E-03         0.00000E+00
    0.25061E-03         0.55304E-03         0.00000E+00
    0.20100E-03         0.44315E-03         0.00000E+00
    0.15116E-03         0.33292E-03         0.00000E+00
    0.10105E-03         0.22231E-03         0.00000E+00
    0.50656E-04         0.11134E-03         0.00000E+00
    0.00000E+00         0.00000E+00         0.00000E+00
    0.23365E-02         0.50337E-02         0.00000E+00
    0.22952E-02         0.49361E-02         0.00000E+00
    0.22537E-02         0.48386E-02         0.00000E+00
    0.22120E-02         0.47411E-02         0.00000E+00
    0.21701E-02         0.46436E-02         0.00000E+00
    0.21280E-02         0.45460E-02         0.00000E+00
    0.20857E-02         0.44485E-02         0.00000E+00
    0.20431E-02         0.43509E-02         0.00000E+00
    0.20004E-02         0.42533E-02         0.00000E+00
    0.19575E-02         0.41556E-02         0.00000E+00
    0.19144E-02         0.40578E-02         0.00000E+00
    0.18711E-02         0.39599E-02         0.00000E+00
    0.18276E-02         0.38620E-02         0.00000E+00
    0.17839E-02         0.37639E-02         0.00000E+00
    0.17400E-02         0.36657E-02         0.00000E+00
    0.16960E-02         0.35674E-02         0.00000E+00
    0.16517E-02         0.34690E-02         0.00000E+00
    0.16072E-02         0.33704E-02         0.00000E+00
    0.15625E-02         0.32717E-02         0.00000E+00
    0.15177E-02         0.31728E-02         0.00000E+00
    0.14726E-02         0.30737E-02         0.00000E+00
    0.14273E-02         0.29745E-02         0.00000E+00
    0.13817E-02         0.28751E-02         0.00000E+00
    0.13360E-02         0.27755E-02         0.00000E+00
    0.12900E-02         0.26757E-02         0.00000E+00
    0.12437E-02         0.25757E-02         0.00000E+00
    0.11973E-02         0.24755E-02         0.00000E+00
    0.11506E-02         0.23751E-02         0.00000E+00
    0.11036E-02         0.22746E-02         0.00000E+00
    0.10564E-02         0.21737E-02         0.00000E+00
    0.10089E-02         0.20727E-02         0.00000E+00
    0.96116E-03         0.19715E-02         0.00000E+00
    0.91316E-03         0.18700E-02         0.00000E+00
    0.86489E-03         0.17683E-02         0.00000E+00
    0.81636E-03         0.16664E-02         0.00000E+00
    0.76755E-03         0.15642E-02         0.00000E+00
    0.71846E-03         0.14618E-02         0.00000E+00
    0.66910E-03         0.13591E-02         0.00000E+00
    0.61946E-03         0.12562E-02         0.00000E+00
    0.56954E-03         0.11531E-02         0.00000E+00
    0.51933E-03         0.10497E-02         0.00000E+00
    0.46883E-03         0.94601E-03         0.00000E+00
    0.41804E-03         0.84208E-03         0.00000E+00
    0.36695E-03         0.73787E-03         0.00000E+00
    0.31556E-03         0.63337E-03         0.00000E+00
    0.26384E-03         0.52858E-03         0.00000E+00
    0.21179E-03         0.42350E-03         0.00000E+00
    0.15940E-03         0.31810E-03         0.00000E+00
    0.10665E-03         0.21239E-03         0.00000E+00
    0.53527E-04         0.10636E-03         0.00000E+00
    0.00000E+00         0.00000E+00         0.00000E+00
    0.23852E-02         0.48300E-02         0.00000E+00
    0.23446E-02         0.47360E-02         0.00000E+00
    0.23037E-02         0.46421E-02         0.00000E+00
    0.22626E-02         0.45481E-02         0.00000E+00
    0.22211E-02         0.44542E-02         0.00000E+00
    0.21793E-02         0.43602E-02         0.00000E+00
    0.21372E-02         0.42663E-02         0.00000E+00
    0.20948E-02         0.41723E-02         0.00000E+00
    0.20522E-02         0.40782E-02         0.00000E+00
    0.20093E-02         0.39841E-02         0.00000E+00
    0.19661E-02         0.38900E-02         0.00000E+00
    0.19227E-02         0.37958E-02         0.00000E+00
    0.18789E-02         0.37015E-02         0.00000E+00
    0.18350E-02         0.36072E-02         0.00000E+00
    0.17907E-02         0.35127E-02         0.00000E+00
    0.17462E-02         0.34182E-02         0.00000E+00
    0.17015E-02         0.33235E-02         0.00000E+00
    0.16564E-02         0.32287E-02         0.00000E+00
    0.16111E-02         0.31338E-02         0.00000E+00
    0.15655E-02         0.30388E-02         0.00000E+00
    0.15197E-02         0.29436E-02         0.00000E+00
    0.14736E-02         0.28483E-02         0.00000E+00
    0.14272E-02         0.27528E-02         0.00000E+00
    0.13805E-02         0.26572E-02         0.00000E+00
    0.13336E-02         0.25615E-02         0.00000E+00
    0.12863E-02         0.24655E-02         0.00000E+00
    0.12388E-02         0.23694E-02         0.00000E+00
    0.11910E-02         0.22731E-02         0.00000E+00
    0.11429E-02         0.21767E-02         0.00000E+00
    0.10945E-02         0.20800E-02         0.00000E+00
    0.10457E-02         0.19832E-02         0.00000E+00
    0.99670E-03         0.18862E-02         0.00000E+00
    0.94736E-03         0.17890E-02         0.00000E+00
    0.89771E-03         0.16916E-02         0.00000E+00
    0.84774E-03         0.15939E-02         0.00000E+00
    0.79745E-03         0.14961E-02         0.00000E+00
    0.74683E-03         0.13981E-02         0.00000E+00
    0.69588E-03         0.12998E-02         0.00000E+00
    0.64459E-03         0.12013E-02         0.00000E+00
    0.59296E-03         0.11026E-02         0.00000E+00
    0.54098E-03         0.10036E-02         0.00000E+00
    0.48865E-03         0.90444E-03         0.00000E+00
    0.43595E-03         0.80500E-03         0.00000E+00
    0.38288E-03         0.70532E-03         0.00000E+00
    0.32943E-03         0.60538E-03         0.00000E+00
    0.27559E-03         0.50517E-03         0.00000E+00
    0.22134E-03         0.40470E-03         0.00000E+00
    0.16667E-03         0.30395E-03         0.00000E+00
    0.11157E-03         0.20292E-03         0.00000E+00
    0.56017E-04         0.10161E-03         0.00000E+00
    0.00000E+00         0.00000E+00         0.00000E+00
    0.24291E-02         0.46297E-02         0.00000E+00
    0.23891E-02         0.45393E-02         0.00000E+00
    0.23487E-02         0.44490E-02         0.00000E+00
    0.23079E-02         0.43586E-02         0.00000E+00
    0.22668E-02         0.42683E-02         0.00000E+00
    0.22253E-02         0.41779E-02         0.00000E+00
    0.21835E-02         0.40876E-02         0.00000E+00
    0.21412E-02         0.39972E-02         0.00000E+00
    0.20987E-02         0.39068E-02         0.00000E+00
    0.20558E-02         0.38164E-02         0.00000E+00
    0.20126E-02         0.37259E-02         0.00000E+00
    0.19690E-02         0.36354E-02         0.00000E+00
    0.19251E-02         0.35448E-02         0.00000E+00
    0.18809E-02         0.34541E-02         0.00000E+00
    0.18364E-02         0.33634E-02         0.00000E+00
    0.17915E-02         0.32726E-02         0.00000E+00
    0.17463E-02         0.31817E-02         0.00000E+00
    0.17008E-02         0.30907E-02         0.00000E+00
    0.16550E-02         0.29996E-02         0.00000E+00
    0.16088E-02         0.29084E-02         0.00000E+00
    0.15624E-02         0.28171E-02         0.00000E+00
    0.15156E-02         0.27256E-02         0.00000E+00
    0.14684E-02         0.26341E-02         0.00000E+00
    0.14210E-02         0.25424E-02         0.00000E+00
    0.13732E-02         0.24506E-02         0.00000E+00
    0.13250E-02         0.23586E-02         0.00000E+00
    0.12766E-02         0.22665E-02         0.00000E+00
    0.12277E-02         0.21742E-02         0.00000E+00
    0.11786E-02         0.20818E-02         0.00000E+00
    0.11291E-02         0.19892E-02         0.00000E+00
    0.10793E-02         0.18965E-02         0.00000E+00
    0.10290E-02         0.18036E-02         0.00000E+00
    0.97849E-03         0.17105E-02         0.00000E+00
    0.92756E-03         0.16173E-02         0.00000E+00
    0.87627E-03         0.15238E-02         0.00000E+00
    0.82461E-03         0.14302E-02         0.00000E+00
    0.77257E-03         0.13364E-02         0.00000E+00
    0.72014E-03         0.12424E-02         0.00000E+00
    0.66733E-03         0.11481E-02         0.00000E+00
    0.61412E-03         0.10537E-02         0.00000E+00
    0.56050E-03         0.95907E-03         0.00000E+00
    0.50647E-03         0.86421E-03         0.00000E+00
    0.45203E-03         0.76914E-03         0.00000E+00
    0.39715E-03         0.67384E-03         0.00000E+00
    0.34183E-03         0.57831E-03         0.00000E+00
    0.28606E-03         0.48254E-03         0.00000E+00
    0.22983E-03         0.38653E-03         0.00000E+00
    0.17312E-03         0.29028E-03         0.00000E+00
    0.11592E-03         0.19377E-03         0.00000E+00
    0.58220E-04         0.97016E-04         0.00000E+00
    0.00000E+00         0.00000E+00         0.00000E+00
    0.24689E-02         0.44320E-02         0.00000E+00
    0.24294E-02         0.43453E-02         0.00000E+00
    0.23894E-02         0.42585E-02         0.00000E+00
    0.23489E-02         0.41719E-02         0.00000E+00
    0.23081E-02         0.40852E-02         0.00000E+00
    0.22668E-02         0.39985E-02         0.00000E+00
    0.22251E-02         0.39118E-02         0.00000E+00
    0.21831E-02         0.38250E-02         0.00000E+00
    0.21406E-02         0.37383E-02         0.00000E+00
    0.20977E-02         0.36515E-02         0.00000E+00
    0.20544E-02         0.35647E-02         0.00000E+00
    0.20108E-02         0.34778E-02         0.00000E+00
    0.19667E-02         0.33909E-02         0.00000E+00
    0.19223E-02         0.33040E-02         0.00000E+00
    0.18775E-02         0.32170E-02         0.00000E+00
    0.18324E-02         0.31299E-02         0.00000E+00
    0.17868E-02         0.30427E-02         0.00000E+00
    0.17409E-02         0.29555E-02         0.00000E+00
    0.16946E-02         0.28682E-02         0.00000E+00
    0.16479E-02         0.27808E-02         0.00000E+00
    0.16009E-02         0.26933E-02         0.00000E+00
    0.15535E-02         0.26057E-02         0.00000E+00
    0.15057E-02         0.25180E-02         0.00000E+00
    0.14575E-02         0.24302E-02         0.00000E+00
    0.14090E-02         0.23422E-02         0.00000E+00
    0.13600E-02         0.22542E-02         0.00000E+00
    0.13107E-02         0.21660E-02         0.00000E+00
    0.12610E-02         0.20777E-02         0.00000E+00
    0.12109E-02         0.19893E-02         0.00000E+00
    0.11605E-02         0.19007E-02         0.00000E+00
    0.11096E-02         0.18119E-02         0.00000E+00
    0.10583E-02         0.17231E-02         0.00000E+00
    0.10066E-02         0.16340E-02         0.00000E+00
    0.95455E-03         0.15448E-02         0.00000E+00
    0.90205E-03         0.14555E-02         0.00000E+00
    0.84913E-03         0.13660E-02         0.00000E+00
    0.79579E-03         0.12763E-02         0.00000E+00
    0.74201E-03         0.11864E-02         0.00000E+00
    0.68780E-03         0.10963E-02         0.00000E+00
    0.63314E-03         0.10061E-02         0.00000E+00
    0.57803E-03         0.91567E-03         0.00000E+00
    0.52246E-03         0.82504E-03         0.00000E+00
    0.46642E-03         0.73422E-03         0.00000E+00
    0.40991E-03         0.64319E-03         0.00000E+00
    0.35290E-03         0.55196E-03         0.00000E+00
    0.29540E-03         0.46052E-03         0.00000E+00
    0.23739E-03         0.36886E-03         0.00000E+00
    0.17885E-03         0.27698E-03         0.00000E+00
    0.11979E-03         0.18488E-03         0.00000E+00
    0.60173E-04         0.92555E-04         0.00000E+00
    0.00000E+00         0.00000E+00         0.00000E+00
    0.25052E-02         0.42363E-02         0.00000E+00
    0.24660E-02         0.41532E-02         0.00000E+00
    0.24263E-02         0.40702E-02         0.00000E+00
    0.23861E-02         0.39872E-02         0.00000E+00
    0.23455E-02         0.39041E-02         0.00000E+00
    0.23044E-02         0.38211E-02         0.00000E+00
    0.22628E-02         0.37381E-02         0.00000E+00
    0.22208E-02         0.36550E-02         0.00000E+00
    0.21784E-02         0.35719E-02         0.00000E+00
    0.21355E-02         0.34888E-02         0.00000E+00
    0.20922E-02         0.34057E-02         0.00000E+00
    0.20484E-02         0.33225E-02         0.00000E+00
    0.20043E-02         0.32393E-02         0.00000E+00
    0.19597E-02         0.31561E-02         0.00000E+00
    0.19146E-02         0.30728E-02         0.00000E+00
    0.18692E-02         0.29894E-02         0.00000E+00
    0.18233E-02         0.29060E-02         0.00000E+00
    0.17770E-02         0.28225E-02         0.00000E+00
    0.17303E-02         0.27390E-02         0.00000E+00
    0.16832E-02         0.26554E-02         0.00000E+00
    0.16357E-02         0.25717E-02         0.00000E+00
    0.15877E-02         0.24879E-02         0.00000E+00
    0.15393E-02         0.24040E-02         0.00000E+00
    0.14905E-02         0.23200E-02         0.00000E+00
    0.14413E-02         0.22359E-02         0.00000E+00
    0.13916E-02         0.21517E-02         0.00000E+00
    0.13416E-02         0.20674E-02         0.00000E+00
    0.12911E-02         0.19830E-02         0.00000E+00
    0.12401E-02         0.18985E-02         0.00000E+00
    0.11888E-02         0.18138E-02         0.00000E+00
    0.11369E-02         0.17290E-02         0.00000E+00
    0.10847E-02         0.16441E-02         0.00000E+00
    0.10320E-02         0.15591E-02         0.00000E+00
    0.97886E-03         0.14739E-02         0.00000E+00
    0.92525E-03         0.13885E-02         0.00000E+00
    0.87119E-03         0.13030E-02         0.00000E+00
    0.81666E-03         0.12174E-02         0.00000E+00
    0.76165E-03         0.11316E-02         0.00000E+00
    0.70617E-03         0.10456E-02         0.00000E+00
    0.65020E-03         0.95949E-03         0.00000E+00
    0.59374E-03         0.87318E-03         0.00000E+00
    0.53677E-03         0.78671E-03         0.00000E+00
    0.47930E-03         0.70005E-03         0.00000E+00
    0.42130E-03         0.61322E-03         0.00000E+00
    0.36278E-03         0.52620E-03         0.00000E+00
    0.30373E-03         0.43899E-03         0.00000E+00
    0.24412E-03         0.35159E-03         0.00000E+00
    0.18396E-03         0.26399E-03         0.00000E+00
    0.12322E-03         0.17619E-03         0.00000E+00
    0.61907E-04         0.88199E-04         0.00000E+00
    0.00000E+00         0.00000E+00         0.00000E+00
    0.25385E-02         0.40421E-02         0.00000E+00
    0.24995E-02         0.39627E-02         0.00000E+00
    0.24600E-02         0.38834E-02         0.00000E+00
    0.24200E-02         0.38040E-02         0.00000E+00
    0.23795E-02         0.37247E-02         0.00000E+00
    0.23385E-02         0.36453E-02         0.00000E+00
    0.22970E-02         0.35660E-02         0.00000E+00
    0.22551E-02         0.34866E-02         0.00000E+00
    0.22126E-02         0.34072E-02         0.00000E+00
    0.21697E-02         0.33278E-02         0.00000E+00
    0.21263E-02         0.32483E-02         0.00000E+00
    0.20825E-02         0.31689E-02         0.00000E+00
    0.20382E-02         0.30894E-02         0.00000E+00
    0.19934E-02         0.30098E-02         0.00000E+00
    0.19481E-02         0.29303E-02         0.00000E+00
    0.19024E-02         0.28506E-02         0.00000E+00
    0.18562E-02         0.27710E-02         0.00000E+00
    0.18096E-02         0.26912E-02         0.00000E+00
    0.17625E-02         0.26114E-02         0.00000E+00
    0.17150E-02         0.25315E-02         0.00000E+00
    0.16670E-02         0.24516E-02         0.00000E+00
    0.16185E-02         0.23716E-02         0.00000E+00
    0.15696E-02         0.22915E-02         0.00000E+00
    0.15202E-02         0.22113E-02         0.00000E+00
    0.14704E-02         0.21311E-02         0.00000E+00
    0.14201E-02         0.20507E-02         0.00000E+00
    0.13693E-02         0.19703E-02         0.00000E+00
    0.13181E-02         0.18897E-02         0.00000E+00
    0.12664E-02         0.18091E-02         0.00000E+00
    0.12142E-02         0.17283E-02         0.00000E+00
    0.11615E-02         0.16474E-02         0.00000E+00
    0.11084E-02         0.15664E-02         0.00000E+00
    0.10548E-02         0.14853E-02         0.00000E+00
    0.10007E-02         0.14040E-02         0.00000E+00
    0.94608E-03         0.13227E-02         0.00000E+00
    0.89097E-03         0.12411E-02         0.00000E+00
    0.83537E-03         0.11595E-02         0.00000E+00
    0.77925E-03         0.10777E-02         0.00000E+00
    0.72262E-03         0.99576E-03         0.00000E+00
    0.66546E-03         0.91368E-03         0.00000E+00
    0.60778E-03         0.83144E-03         0.00000E+00
    0.54956E-03         0.74905E-03         0.00000E+00
    0.49079E-03         0.66649E-03         0.00000E+00
    0.43147E-03         0.58378E-03         0.00000E+00
    0.37159E-03         0.50090E-03         0.00000E+00
    0.31114E-03         0.41785E-03         0.00000E+00
    0.25011E-03         0.33463E-03         0.00000E+00
    0.18849E-03         0.25124E-03         0.00000E+00
    0.12627E-03         0.16767E-03         0.00000E+00
    0.63447E-04         0.83928E-04         0.00000E+00
    0.00000E+00         0.00000E+00         0.00000E+00
    0.25689E-02         0.38489E-02         0.00000E+00
    0.25301E-02         0.37733E-02         0.00000E+00
    0.24907E-02         0.36976E-02         0.00000E+00
    0.24509E-02         0.36220E-02         0.00000E+00
    0.24105E-02         0.35463E-02         0.00000E+00
    0.23695E-02         0.34707E-02         0.00000E+00
    0.23281E-02         0.33950E-02         0.00000E+00
    0.22861E-02         0.33193E-02         0.00000E+00
    0.22437E-02         0.32436E-02         0.00000E+00
    0.22007E-02         0.31679E-02         0.00000E+00
    0.21572E-02         0.30922E-02         0.00000E+00
    0.21133E-02         0.30164E-02         0.00000E+00
    0.20688E-02         0.29406E-02         0.00000E+00
    0.20238E-02         0.28648E-02         0.00000E+00
    0.19784E-02         0.27890E-02         0.00000E+00
    0.19324E-02         0.27131E-02         0.00000E+00
    0.18859E-02         0.26371E-02         0.00000E+00
    0.18390E-02         0.25611E-02         0.00000E+00
    0.17916E-02         0.24851E-02         0.00000E+00
    0.17436E-02         0.24090E-02         0.00000E+00
    0.16952E-02         0.23328E-02         0.00000E+00
    0.16463E-02         0.22565E-02         0.00000E+00
    0.15969E-02         0.21802E-02         0.00000E+00
    0.15470E-02         0.21038E-02         0.00000E+00
    0.14966E-02         0.20274E-02         0.00000E+00
    0.14457E-02         0.19508E-02         0.00000E+00
    0.13943E-02         0.18742E-02         0.00000E+00
    0.13424E-02         0.17975E-02         0.00000E+00
    0.12900E-02         0.17207E-02         0.00000E+00
    0.12370E-02         0.16438E-02         0.00000E+00
    0.11836E-02         0.15668E-02         0.00000E+00
    0.11297E-02         0.14896E-02         0.00000E+00
    0.10752E-02         0.14124E-02         0.00000E+00
    0.10202E-02         0.13351E-02         0.00000E+00
    0.96473E-03         0.12576E-02         0.00000E+00
    0.90869E-03         0.11801E-02         0.00000E+00
    0.85211E-03         0.11024E-02         0.00000E+00
    0.79499E-03         0.10245E-02         0.00000E+00
    0.73732E-03         0.94658E-03         0.00000E+00
    0.67910E-03         0.86850E-03         0.00000E+00
    0.62032E-03         0.79028E-03         0.00000E+00
    0.56096E-03         0.71192E-03         0.00000E+00
    0.50104E-03         0.63342E-03         0.00000E+00
    0.44053E-03         0.55477E-03         0.00000E+00
    0.37943E-03         0.47598E-03         0.00000E+00
    0.31774E-03         0.39704E-03         0.00000E+00
    0.25544E-03         0.31794E-03         0.00000E+00
    0.19252E-03         0.23870E-03         0.00000E+00
    0.12899E-03         0.15929E-03         0.00000E+00
    0.64814E-04         0.79725E-04         0.00000E+00
    0.00000E+00         0.00000E+00         0.00000E+00
    0.25968E-02         0.36565E-02         0.00000E+00
    0.25581E-02         0.35846E-02         0.00000E+00
    0.25188E-02         0.35127E-02         0.00000E+00
    0.24790E-02         0.34407E-02         0.00000E+00
    0.24387E-02         0.33688E-02         0.00000E+00
    0.23978E-02         0.32968E-02         0.00000E+00
    0.23563E-02         0.32249E-02         0.00000E+00
    0.23144E-02         0.31529E-02         0.00000E+00
    0.22719E-02         0.30809E-02         0.00000E+00
    0.22288E-02         0.30089E-02         0.00000E+00
    0.21852E-02         0.29369E-02         0.00000E+00
    0.21411E-02         0.28649E-02         0.00000E+00
    0.20965E-02         0.27928E-02         0.00000E+00
    0.20514E-02         0.27207E-02         0.00000E+00
    0.20057E-02         0.26486E-02         0.00000E+00
    0.19595E-02         0.25764E-02         0.00000E+00
    0.19127E-02         0.25042E-02         0.00000E+00
    0.18655E-02         0.24319E-02         0.00000E+00
    0.18177E-02         0.23596E-02         0.00000E+00
    0.17694E-02         0.22872E-02         0.00000E+00
    0.17206E-02         0.22148E-02         0.00000E+00
    0.16713E-02         0.21424E-02         0.00000E+00
    0.16214E-02         0.20698E-02         0.00000E+00
    0.15710E-02         0.19972E-02         0.00000E+00
    0.15201E-02         0.19246E-02         0.00000E+00
    0.14687E-02         0.18518E-02         0.00000E+00
    0.14167E-02         0.17790E-02         0.00000E+00
    0.13642E-02         0.17061E-02         0.00000E+00
    0.13111E-02         0.16331E-02         0.00000E+00
    0.12575E-02         0.15600E-02         0.00000E+00
    0.12034E-02         0.14869E-02         0.00000E+00
    0.11487E-02         0.14136E-02         0.00000E+00
    0.10935E-02         0.13403E-02         0.00000E+00
    0.10377E-02         0.12668E-02         0.00000E+00
    0.98142E-03         0.11933E-02         0.00000E+00
    0.92453E-03         0.11196E-02         0.00000E+00
    0.86707E-03         0.10458E-02         0.00000E+00
    0.80905E-03         0.97195E-03         0.00000E+00
    0.75045E-03         0.89795E-03         0.00000E+00
    0.69127E-03         0.82383E-03         0.00000E+00
    0.63150E-03         0.74959E-03         0.00000E+00
    0.57113E-03         0.67523E-03         0.00000E+00
    0.51017E-03         0.60074E-03         0.00000E+00
    0.44860E-03         0.52612E-03         0.00000E+00
    0.38641E-03         0.45137E-03         0.00000E+00
    0.32361E-03         0.37648E-03         0.00000E+00
    0.26018E-03         0.30147E-03         0.00000E+00
    0.19611E-03         0.22631E-03         0.00000E+00
    0.13139E-03         0.15101E-03         0.00000E+00
    0.66027E-04         0.75579E-04         0.00000E+00
    0.00000E+00         0.00000E+00         0.00000E+00
    0.26224E-02         0.34646E-02         0.00000E+00
    0.25837E-02         0.33964E-02         0.00000E+00
    0.25445E-02         0.33282E-02         0.00000E+00
    0.25047E-02         0.32600E-02         0.00000E+00
    0.24644E-02         0.31917E-02         0.00000E+00
    0.24235E-02         0.31235E-02         0.00000E+00
    0.23820E-02         0.30553E-02         0.00000E+00
    0.23400E-02         0.29870E-02         0.00000E+00
    0.22975E-02         0.29188E-02         0.00000E+00
    0.22543E-02         0.28505E-02         0.00000E+00
    0.22106E-02         0.27822E-02         0.00000E+00
    0.21664E-02         0.27139E-02         0.00000E+00
    0.21216E-02         0.26455E-02         0.00000E+00
    0.20763E-02         0.25772E-02         0.00000E+00
    0.20304E-02         0.25088E-02         0.00000E+00
    0.19839E-02         0.24403E-02         0.00000E+00
    0.19369E-02         0.23719E-02         0.00000E+00
    0.18894E-02         0.23033E-02         0.00000E+00
    0.18413E-02         0.22348E-02         0.00000E+00
    0.17927E-02         0.21662E-02         0.00000E+00
    0.17435E-02         0.20975E-02         0.00000E+00
    0.16938E-02         0.20288E-02         0.00000E+00
    0.16435E-02         0.19601E-02         0.00000E+00
    0.15926E-02         0.18913E-02         0.00000E+00
    0.15412E-02         0.18224E-02         0.00000E+00
    0.14893E-02         0.17534E-02         0.00000E+00
    0.14368E-02         0.16844E-02         0.00000E+00
    0.13837E-02         0.16153E-02         0.00000E+00
    0.13301E-02         0.15461E-02         0.00000E+00
    0.12759E-02         0.14769E-02         0.00000E+00
    0.12211E-02         0.14076E-02         0.00000E+00
    0.11658E-02         0.13382E-02         0.00000E+00
    0.11099E-02         0.12687E-02         0.00000E+00
    0.10534E-02         0.11991E-02         0.00000E+00
    0.99634E-03         0.11294E-02         0.00000E+00
    0.93869E-03         0.10597E-02         0.00000E+00
    0.88044E-03         0.98978E-03         0.00000E+00
    0.82160E-03         0.91981E-03         0.00000E+00
    0.76216E-03         0.84974E-03         0.00000E+00
    0.70212E-03         0.77956E-03         0.00000E+00
    0.64146E-03         0.70928E-03         0.00000E+00
    0.58019E-03         0.63888E-03         0.00000E+00
    0.51830E-03         0.56837E-03         0.00000E+00
    0.45578E-03         0.49774E-03         0.00000E+00
    0.39262E-03         0.42700E-03         0.00000E+00
    0.32883E-03         0.35614E-03         0.00000E+00
    0.26439E-03         0.28516E-03         0.00000E+00
    0.19929E-03         0.21406E-03         0.00000E+00
    0.13353E-03         0.14283E-03         0.00000E+00
    0.67104E-04         0.71478E-04         0.00000E+00
    0.00000E+00         0.00000E+00         0.00000E+00
    0.26457E-02         0.32730E-02         0.00000E+00
    0.26072E-02         0.32085E-02         0.00000E+00
    0.25680E-02         0.31440E-02         0.00000E+00
    0.25282E-02         0.30796E-02         0.00000E+00
    0.24879E-02         0.30151E-02         0.00000E+00
    0.24469E-02         0.29506E-02         0.00000E+00
    0.24054E-02         0.28861E-02         0.00000E+00
    0.23634E-02         0.28216E-02         0.00000E+00
    0.23207E-02         0.27570E-02         0.00000E+00
    0.22775E-02         0.26925E-02         0.00000E+00
    0.22337E-02         0.26279E-02         0.00000E+00
    0.21893E-02         0.25633E-02         0.00000E+00
    0.21443E-02         0.24987E-02         0.00000E+00
    0.20988E-02         0.24341E-02         0.00000E+00
    0.20527E-02         0.23694E-02         0.00000E+00
    0.20060E-02         0.23047E-02         0.00000E+00
    0.19588E-02         0.22400E-02         0.00000E+00
    0.19110E-02         0.21752E-02         0.00000E+00
    0.18626E-02         0.21104E-02         0.00000E+00
    0.18136E-02         0.20456E-02         0.00000E+00
    0.17641E-02         0.19807E-02         0.00000E+00
    0.17140E-02         0.19158E-02         0.00000E+00
    0.16633E-02         0.18508E-02         0.00000E+00
    0.16121E-02         0.17857E-02         0.00000E+00
    0.15603E-02         0.17206E-02         0.00000E+00
    0.15078E-02         0.16555E-02         0.00000E+00
    0.14549E-02         0.15903E-02         0.00000E+00
    0.14013E-02         0.15250E-02         0.00000E+00
    0.13471E-02         0.14596E-02         0.00000E+00
    0.12924E-02         0.13942E-02         0.00000E+00
    0.12370E-02         0.13287E-02         0.00000E+00
    0.11811E-02         0.12632E-02         0.00000E+00
    0.11246E-02         0.11975E-02         0.00000E+00
    0.10674E-02         0.11318E-02         0.00000E+00
    0.10097E-02         0.10660E-02         0.00000E+00
    0.95134E-03         0.10001E-02         0.00000E+00
    0.89238E-03         0.93411E-03         0.00000E+00
    0.83281E-03         0.86803E-03         0.00000E+00
    0.77262E-03         0.80187E-03         0.00000E+00
    0.71180E-03         0.73561E-03         0.00000E+00
    0.65035E-03         0.66926E-03         0.00000E+00
    0.58826E-03         0.60280E-03         0.00000E+00
    0.52554E-03         0.53625E-03         0.00000E+00
    0.46217E-03         0.46959E-03         0.00000E+00
    0.39815E-03         0.40283E-03         0.00000E+00
    0.33347E-03         0.33597E-03         0.00000E+00
    0.26813E-03         0.26899E-03         0.00000E+00
    0.20212E-03         0.20191E-03         0.00000E+00
    0.13543E-03         0.13472E-03         0.00000E+00
    0.68059E-04         0.67415E-04         0.00000E+00
    0.00000E+00         0.00000E+00         0.00000E+00
    0.26671E-02         0.30816E-02         0.00000E+00
    0.26286E-02         0.30208E-02         0.00000E+00
    0.25894E-02         0.29601E-02         0.00000E+00
    0.25496E-02         0.28994E-02         0.00000E+00
    0.25092E-02         0.28386E-02         0.00000E+00
    0.24683E-02         0.27778E-02         0.00000E+00
    0.24267E-02         0.27171E-02         0.00000E+00
    0.23846E-02         0.26563E-02         0.00000E+00
    0.23418E-02         0.25955E-02         0.00000E+00
    0.22985E-02         0.25347E-02         0.00000E+00
    0.22545E-02         0.24739E-02         0.00000E+00
    0.22100E-02         0.24130E-02         0.00000E+00
    0.21649E-02         0.23522E-02         0.00000E+00
    0.21192E-02         0.22913E-02         0.00000E+00
    0.20729E-02         0.22304E-02         0.00000E+00
    0.20260E-02         0.21694E-02         0.00000E+00
    0.19785E-02         0.21085E-02         0.00000E+00
    0.19305E-02         0.20475E-02         0.00000E+00
    0.18818E-02         0.19864E-02         0.00000E+00
    0.18325E-02         0.19253E-02         0.00000E+00
    0.17827E-02         0.18642E-02         0.00000E+00
    0.17323E-02         0.18031E-02         0.00000E+00
    0.16812E-02         0.17418E-02         0.00000E+00
    0.16296E-02         0.16806E-02         0.00000E+00
    0.15773E-02         0.16193E-02         0.00000E+00
    0.15245E-02         0.15579E-02         0.00000E+00
    0.14711E-02         0.14965E-02         0.00000E+00
    0.14170E-02         0.14350E-02         0.00000E+00
    0.13624E-02         0.13735E-02         0.00000E+00
    0.13071E-02         0.13119E-02         0.00000E+00
    0.12513E-02         0.12502E-02         0.00000E+00
    0.11948E-02         0.11885E-02         0.00000E+00
    0.11377E-02         0.11267E-02         0.00000E+00
    0.10800E-02         0.10648E-02         0.00000E+00
    0.10216E-02         0.10029E-02         0.00000E+00
    0.96265E-03         0.94082E-03         0.00000E+00
    0.90305E-03         0.87872E-03         0.00000E+00
    0.84282E-03         0.81653E-03         0.00000E+00
    0.78195E-03         0.75427E-03         0.00000E+00
    0.72043E-03         0.69191E-03         0.00000E+00
    0.65827E-03         0.62947E-03         0.00000E+00
    0.59546E-03         0.56695E-03         0.00000E+00
    0.53199E-03         0.50433E-03         0.00000E+00
    0.46786E-03         0.44162E-03         0.00000E+00
    0.40307E-03         0.37882E-03         0.00000E+00
    0.33760E-03         0.31593E-03         0.00000E+00
    0.27145E-03         0.25294E-03         0.00000E+00
    0.20463E-03         0.18985E-03         0.00000E+00
    0.13711E-03         0.12667E-03         0.00000E+00
    0.68907E-04         0.63383E-04         0.00000E+00
    0.00000E+00         0.00000E+00         0.00000E+00
    0.26867E-02         0.28902E-02         0.00000E+00
    0.26481E-02         0.28332E-02         0.00000E+00
    0.26089E-02         0.27763E-02         0.00000E+00
    0.25691E-02         0.27193E-02         0.00000E+00
    0.25287E-02         0.26622E-02         0.00000E+00
    0.24877E-02         0.26052E-02         0.00000E+00
    0.24461E-02         0.25482E-02         0.00000E+00
    0.24038E-02         0.24912E-02         0.00000E+00
    0.23610E-02         0.24342E-02         0.00000E+00
    0.23175E-02         0.23771E-02         0.00000E+00
    0.22735E-02         0.23200E-02         0.00000E+00
    0.22288E-02         0.22629E-02         0.00000E+00
    0.21835E-02         0.22058E-02         0.00000E+00
    0.21377E-02         0.21487E-02         0.00000E+00
    0.20912E-02         0.20915E-02         0.00000E+00
    0.20441E-02         0.20344E-02         0.00000E+00
    0.19964E-02         0.19771E-02         0.00000E+00
    0.19480E-02         0.19199E-02         0.00000E+00
    0.18991E-02         0.18626E-02         0.00000E+00
    0.18496E-02         0.18053E-02         0.00000E+00
    0.17994E-02         0.17480E-02         0.00000E+00
    0.17487E-02         0.16906E-02         0.00000E+00
    0.16973E-02         0.16331E-02         0.00000E+00
    0.16453E-02         0.15757E-02         0.00000E+00
    0.15927E-02         0.15182E-02         0.00000E+00
    0.15395E-02         0.14606E-02         0.00000E+00
    0.14856E-02         0.14030E-02         0.00000E+00
    0.14312E-02         0.13453E-02         0.00000E+00
    0.13761E-02         0.12876E-02         0.00000E+00
    0.13204E-02         0.12298E-02         0.00000E+00
    0.12640E-02         0.11720E-02         0.00000E+00
    0.12070E-02         0.11141E-02         0.00000E+00
    0.11494E-02         0.10561E-02         0.00000E+00
    0.10912E-02         0.99806E-03         0.00000E+00
    0.10323E-02         0.93996E-03         0.00000E+00
    0.97277E-03         0.88180E-03         0.00000E+00
    0.91259E-03         0.82356E-03         0.00000E+00
    0.85177E-03         0.76525E-03         0.00000E+00
    0.79028E-03         0.70687E-03         0.00000E+00
    0.72815E-03         0.64842E-03         0.00000E+00
    0.66534E-03         0.58988E-03         0.00000E+00
    0.60188E-03         0.53127E-03         0.00000E+00
    0.53774E-03         0.47258E-03         0.00000E+00
    0.47293E-03         0.41380E-03         0.00000E+00
    0.40745E-03         0.35494E-03         0.00000E+00
    0.34127E-03         0.29600E-03         0.00000E+00
    0.27442E-03         0.23698E-03         0.00000E+00
    0.20686E-03         0.17786E-03         0.00000E+00
    0.13861E-03         0.11866E-03         0.00000E+00
    0.69661E-04         0.59376E-04         0.00000E+00
    0.00000E+00         0.00000E+00         0.00000E+00
    0.27045E-02         0.26989E-02         0.00000E+00
    0.26659E-02         0.26457E-02         0.00000E+00
    0.26267E-02         0.25924E-02         0.00000E+00
    0.25869E-02         0.25392E-02         0.00000E+00
    0.25464E-02         0.24859E-02         0.00000E+00
    0.25054E-02         0.24327E-02         0.00000E+00
    0.24637E-02         0.23794E-02         0.00000E+00
    0.24213E-02         0.23262E-02         0.00000E+00
    0.23784E-02         0.22729E-02         0.00000E+00
    0.23348E-02         0.22196E-02         0.00000E+00
    0.22907E-02         0.21663E-02         0.00000E+00
    0.22459E-02         0.21129E-02         0.00000E+00
    0.22004E-02         0.20596E-02         0.00000E+00
    0.21544E-02         0.20062E-02         0.00000E+00
    0.21077E-02         0.19528E-02         0.00000E+00
    0.20604E-02         0.18994E-02         0.00000E+00
    0.20125E-02         0.18460E-02         0.00000E+00
    0.19639E-02         0.17925E-02         0.00000E+00
    0.19148E-02         0.17390E-02         0.00000E+00
    0.18650E-02         0.16854E-02         0.00000E+00
    0.18145E-02         0.16319E-02         0.00000E+00
    0.17635E-02         0.15783E-02         0.00000E+00
    0.17118E-02         0.15246E-02         0.00000E+00
    0.16595E-02         0.14709E-02         0.00000E+00
    0.16065E-02         0.14172E-02         0.00000E+00
    0.15530E-02         0.13635E-02         0.00000E+00
    0.14987E-02         0.13096E-02         0.00000E+00
    0.14439E-02         0.12558E-02         0.00000E+00
    0.13884E-02         0.12019E-02         0.00000E+00
    0.13323E-02         0.11479E-02         0.00000E+00
    0.12755E-02         0.10939E-02         0.00000E+00
    0.12180E-02         0.10398E-02         0.00000E+00
    0.11600E-02         0.98569E-03         0.00000E+00
    0.11012E-02         0.93151E-03         0.00000E+00
    0.10419E-02         0.87726E-03         0.00000E+00
    0.98183E-03         0.82295E-03         0.00000E+00
    0.92113E-03         0.76858E-03         0.00000E+00
    0.85976E-03         0.71415E-03         0.00000E+00
    0.79773E-03         0.65965E-03         0.00000E+00
    0.73503E-03         0.60508E-03         0.00000E+00
    0.67166E-03         0.55044E-03         0.00000E+00
    0.60761E-03         0.49573E-03         0.00000E+00
    0.54288E-03         0.44095E-03         0.00000E+00
    0.47746E-03         0.38610E-03         0.00000E+00
    0.41135E-03         0.33117E-03         0.00000E+00
    0.34455E-03         0.27617E-03         0.00000E+00
    0.27705E-03         0.22109E-03         0.00000E+00
    0.20885E-03         0.16593E-03         0.00000E+00
    0.13995E-03         0.11070E-03         0.00000E+00
    0.70332E-04         0.55390E-04         0.00000E+00
    0.00000E+00         0.00000E+00         0.00000E+00
    0.27207E-02         0.25076E-02         0.00000E+00
    0.26821E-02         0.24581E-02         0.00000E+00
    0.26429E-02         0.24086E-02         0.00000E+00
    0.26030E-02         0.23591E-02         0.00000E+00
    0.25625E-02         0.23096E-02         0.00000E+00
    0.25214E-02         0.22602E-02         0.00000E+00
    0.24796E-02         0.22107E-02         0.00000E+00
    0.24372E-02         0.21611E-02         0.00000E+00
    0.23942E-02         0.21116E-02         0.00000E+00
    0.23505E-02         0.20621E-02         0.00000E+00
    0.23062E-02         0.20125E-02         0.00000E+00
    0.22613E-02         0.19630E-02         0.00000E+00
    0.22157E-02         0.19134E-02         0.00000E+00
    0.21695E-02         0.18638E-02         0.00000E+00
    0.21226E-02         0.18142E-02         0.00000E+00
    0.20752E-02         0.17645E-02         0.00000E+00
    0.20270E-02         0.17149E-02         0.00000E+00
    0.19783E-02         0.16652E-02         0.00000E+00
    0.19289E-02         0.16154E-02         0.00000E+00
    0.18788E-02         0.15657E-02         0.00000E+00
    0.18281E-02         0.15159E-02         0.00000E+00
    0.17768E-02         0.14661E-02         0.00000E+00
    0.17249E-02         0.14162E-02         0.00000E+00
    0.16722E-02         0.13664E-02         0.00000E+00
    0.16190E-02         0.13164E-02         0.00000E+00
    0.15651E-02         0.12665E-02         0.00000E+00
    0.15105E-02         0.12165E-02         0.00000E+00
    0.14553E-02         0.11664E-02         0.00000E+00
    0.13994E-02         0.11163E-02         0.00000E+00
    0.13429E-02         0.10662E-02         0.00000E+00
    0.12858E-02         0.10160E-02         0.00000E+00
    0.12279E-02         0.96574E-03         0.00000E+00
    0.11694E-02         0.91545E-03         0.00000E+00
    0.11103E-02         0.86511E-03         0.00000E+00
    0.10504E-02         0.81471E-03         0.00000E+00
    0.98994E-03         0.76426E-03         0.00000E+00
    0.92877E-03         0.71375E-03         0.00000E+00
    0.86692E-03         0.66318E-03         0.00000E+00
    0.80440E-03         0.61256E-03         0.00000E+00
    0.74120E-03         0.56187E-03         0.00000E+00
    0.67731E-03         0.51112E-03         0.00000E+00
    0.61273E-03         0.46031E-03         0.00000E+00
    0.54746E-03         0.40943E-03         0.00000E+00
    0.48150E-03         0.35849E-03         0.00000E+00
    0.41484E-03         0.30748E-03         0.00000E+00
    0.34748E-03         0.25641E-03         0.00000E+00
    0.27941E-03         0.20526E-03         0.00000E+00
    0.21063E-03         0.15405E-03         0.00000E+00
    0.14114E-03         0.10277E-03         0.00000E+00
    0.70930E-04         0.51421E-04         0.00000E+00
    0.00000E+00         0.00000E+00         0.00000E+00
    0.27355E-02         0.23162E-02         0.00000E+00
    0.26969E-02         0.22705E-02         0.00000E+00
    0.26576E-02         0.22248E-02         0.00000E+00
    0.26177E-02         0.21790E-02         0.00000E+00
    0.25772E-02         0.21333E-02         0.00000E+00
    0.25360E-02         0.20876E-02         0.00000E+00
    0.24941E-02         0.20419E-02         0.00000E+00
    0.24517E-02         0.19961E-02         0.00000E+00
    0.24085E-02         0.19504E-02         0.00000E+00
    0.23648E-02         0.19046E-02         0.00000E+00
    0.23203E-02         0.18588E-02         0.00000E+00
    0.22753E-02         0.18131E-02         0.00000E+00
    0.22295E-02         0.17673E-02         0.00000E+00
    0.21832E-02         0.17214E-02         0.00000E+00
    0.21362E-02         0.16756E-02         0.00000E+00
    0.20885E-02         0.16297E-02         0.00000E+00
    0.20402E-02         0.15838E-02         0.00000E+00
    0.19912E-02         0.15379E-02         0.00000E+00
    0.19416E-02         0.14920E-02         0.00000E+00
    0.18913E-02         0.14460E-02         0.00000E+00
    0.18404E-02         0.14000E-02         0.00000E+00
    0.17889E-02         0.13540E-02         0.00000E+00
    0.17366E-02         0.13079E-02         0.00000E+00
    0.16837E-02         0.12619E-02         0.00000E+00
    0.16302E-02         0.12157E-02         0.00000E+00
    0.15760E-02         0.11696E-02         0.00000E+00
    0.15211E-02         0.11234E-02         0.00000E+00
    0.14656E-02         0.10771E-02         0.00000E+00
    0.14094E-02         0.10309E-02         0.00000E+00
    0.13525E-02         0.98455E-03         0.00000E+00
    0.12950E-02         0.93819E-03         0.00000E+00
    0.12368E-02         0.89178E-03         0.00000E+00
    0.11779E-02         0.84533E-03         0.00000E+00
    0.11183E-02         0.79883E-03         0.00000E+00
    0.10581E-02         0.75228E-03         0.00000E+00
    0.99721E-03         0.70568E-03         0.00000E+00
    0.93561E-03         0.65903E-03         0.00000E+00
    0.87333E-03         0.61233E-03         0.00000E+00
    0.81037E-03         0.56558E-03         0.00000E+00
    0.74671E-03         0.51877E-03         0.00000E+00
    0.68236E-03         0.47190E-03         0.00000E+00
    0.61731E-03         0.42498E-03         0.00000E+00
    0.55156E-03         0.37800E-03         0.00000E+00
    0.48511E-03         0.33096E-03         0.00000E+00
    0.41795E-03         0.28386E-03         0.00000E+00
    0.35009E-03         0.23671E-03         0.00000E+00
    0.28151E-03         0.18949E-03         0.00000E+00
    0.21222E-03         0.14221E-03         0.00000E+00
    0.14220E-03         0.94870E-04         0.00000E+00
    0.71464E-04         0.47466E-04         0.00000E+00
    0.00000E+00         0.00000E+00         0.00000E+00
    0.27489E-02         0.21247E-02         0.00000E+00
    0.27103E-02         0.20828E-02         0.00000E+00
    0.26710E-02         0.20409E-02         0.00000E+00
    0.26310E-02         0.19989E-02         0.00000E+00
    0.25904E-02         0.19570E-02         0.00000E+00
    0.25492E-02         0.19150E-02         0.00000E+00
    0.25073E-02         0.18731E-02         0.00000E+00
    0.24647E-02         0.18311E-02         0.00000E+00
    0.24215E-02         0.17891E-02         0.00000E+00
    0.23776E-02         0.17472E-02         0.00000E+00
    0.23331E-02         0.17052E-02         0.00000E+00
    0.22879E-02         0.16631E-02         0.00000E+00
    0.22421E-02         0.16211E-02         0.00000E+00
    0.21956E-02         0.15791E-02         0.00000E+00
    0.21484E-02         0.15370E-02         0.00000E+00
    0.21006E-02         0.14949E-02         0.00000E+00
    0.20521E-02         0.14528E-02         0.00000E+00
    0.20029E-02         0.14107E-02         0.00000E+00
    0.19531E-02         0.13686E-02         0.00000E+00
    0.19026E-02         0.13264E-02         0.00000E+00
    0.18515E-02         0.12842E-02         0.00000E+00
    0.17997E-02         0.12420E-02         0.00000E+00
    0.17472E-02         0.11997E-02         0.00000E+00
    0.16941E-02         0.11574E-02         0.00000E+00
    0.16403E-02         0.11151E-02         0.00000E+00
    0.15858E-02         0.10728E-02         0.00000E+00
    0.15306E-02         0.10304E-02         0.00000E+00
    0.14748E-02         0.98797E-03         0.00000E+00
    0.14183E-02         0.94552E-03         0.00000E+00
    0.13611E-02         0.90303E-03         0.00000E+00
    0.13033E-02         0.86049E-03         0.00000E+00
    0.12447E-02         0.81792E-03         0.00000E+00
    0.11855E-02         0.77531E-03         0.00000E+00
    0.11256E-02         0.73265E-03         0.00000E+00
    0.10650E-02         0.68995E-03         0.00000E+00
    0.10037E-02         0.64721E-03         0.00000E+00
    0.94175E-03         0.60441E-03         0.00000E+00
    0.87908E-03         0.56157E-03         0.00000E+00
    0.81572E-03         0.51869E-03         0.00000E+00
    0.75165E-03         0.47575E-03         0.00000E+00
    0.68688E-03         0.43277E-03         0.00000E+00
    0.62141E-03         0.38973E-03         0.00000E+00
    0.55523E-03         0.34664E-03         0.00000E+00
    0.48834E-03         0.30350E-03         0.00000E+00
    0.42074E-03         0.26031E-03         0.00000E+00
    0.35243E-03         0.21706E-03         0.00000E+00
    0.28339E-03         0.17376E-03         0.00000E+00
    0.21363E-03         0.13040E-03         0.00000E+00
    0.14315E-03         0.86991E-04         0.00000E+00
    0.71941E-04         0.43524E-04         0.00000E+00
    0.00000E+00         0.00000E+00         0.00000E+00
    0.27610E-02         0.19332E-02         0.00000E+00
    0.27224E-02         0.18951E-02         0.00000E+00
    0.26831E-02         0.18569E-02         0.00000E+00
    0.26431E-02         0.18187E-02         0.00000E+00
    0.26025E-02         0.17806E-02         0.00000E+00
    0.25612E-02         0.17424E-02         0.00000E+00
    0.25192E-02         0.17042E-02         0.00000E+00
    0.24766E-02         0.16661E-02         0.00000E+00
    0.24333E-02         0.16279E-02         0.00000E+00
    0.23893E-02         0.15897E-02         0.00000E+00
    0.23447E-02         0.15515E-02         0.00000E+00
    0.22994E-02         0.15132E-02         0.00000E+00
    0.22534E-02         0.14750E-02         0.00000E+00
    0.22068E-02         0.14367E-02         0.00000E+00
    0.21594E-02         0.13985E-02         0.00000E+00
    0.21115E-02         0.13602E-02         0.00000E+00
    0.20628E-02         0.13219E-02         0.00000E+00
    0.20135E-02         0.12835E-02         0.00000E+00
    0.19635E-02         0.12452E-02         0.00000E+00
    0.19128E-02         0.12068E-02         0.00000E+00
    0.18615E-02         0.11684E-02         0.00000E+00
    0.18095E-02         0.11300E-02         0.00000E+00
    0.17568E-02         0.10915E-02         0.00000E+00
    0.17034E-02         0.10531E-02         0.00000E+00
    0.16494E-02         0.10146E-02         0.00000E+00
    0.15946E-02         0.97604E-03         0.00000E+00
    0.15392E-02         0.93747E-03         0.00000E+00
    0.14831E-02         0.89887E-03         0.00000E+00
    0.14264E-02         0.86024E-03         0.00000E+00
    0.13689E-02         0.82158E-03         0.00000E+00
    0.13107E-02         0.78288E-03         0.00000E+00
    0.12519E-02         0.74414E-03         0.00000E+00
    0.11924E-02         0.70537E-03         0.00000E+00
    0.11321E-02         0.66655E-03         0.00000E+00
    0.10712E-02         0.62770E-03         0.00000E+00
    0.10096E-02         0.58881E-03         0.00000E+00
    0.94726E-03         0.54987E-03         0.00000E+00
    0.88424E-03         0.51090E-03         0.00000E+00
    0.82051E-03         0.47187E-03         0.00000E+00
    0.75608E-03         0.43281E-03         0.00000E+00
    0.69094E-03         0.39370E-03         0.00000E+00
    0.62509E-03         0.35455E-03         0.00000E+00
    0.55852E-03         0.31535E-03         0.00000E+00
    0.49124E-03         0.27610E-03         0.00000E+00
    0.42324E-03         0.23680E-03         0.00000E+00
    0.35452E-03         0.19746E-03         0.00000E+00
    0.28507E-03         0.15807E-03         0.00000E+00
    0.21490E-03         0.11862E-03         0.00000E+00
    0.14400E-03         0.79133E-04         0.00000E+00
    0.72368E-04         0.39592E-04         0.00000E+00
    0.00000E+00         0.00000E+00         0.00000E+00
    0.27721E-02         0.17416E-02         0.00000E+00
    0.27334E-02         0.17073E-02         0.00000E+00
    0.26941E-02         0.16729E-02         0.00000E+00
    0.26541E-02         0.16385E-02         0.00000E+00
    0.26134E-02         0.16041E-02         0.00000E+00
    0.25720E-02         0.15698E-02         0.00000E+00
    0.25300E-02         0.15354E-02         0.00000E+00
    0.24873E-02         0.15010E-02         0.00000E+00
    0.24439E-02         0.14666E-02         0.00000E+00
    0.23998E-02         0.14322E-02         0.00000E+00
    0.23551E-02         0.13977E-02         0.00000E+00
    0.23097E-02         0.13633E-02         0.00000E+00
    0.22636E-02         0.13289E-02         0.00000E+00
    0.22169E-02         0.12944E-02         0.00000E+00
    0.21694E-02         0.12599E-02         0.00000E+00
    0.21213E-02         0.12254E-02         0.00000E+00
    0.20725E-02         0.11909E-02         0.00000E+00
    0.20230E-02         0.11564E-02         0.00000E+00
    0.19729E-02         0.11218E-02         0.00000E+00
    0.19220E-02         0.10873E-02         0.00000E+00
    0.18705E-02         0.10527E-02         0.00000E+00
    0.18183E-02         0.10181E-02         0.00000E+00
    0.17654E-02         0.98342E-03         0.00000E+00
    0.17118E-02         0.94876E-03         0.00000E+00
    0.16576E-02         0.91407E-03         0.00000E+00
    0.16026E-02         0.87935E-03         0.00000E+00
    0.15470E-02         0.84461E-03         0.00000E+00
    0.14906E-02         0.80983E-03         0.00000E+00
    0.14336E-02         0.77503E-03         0.00000E+00
    0.13759E-02         0.74019E-03         0.00000E+00
    0.13174E-02         0.70533E-03         0.00000E+00
    0.12583E-02         0.67043E-03         0.00000E+00
    0.11985E-02         0.63549E-03         0.00000E+00
    0.11380E-02         0.60052E-03         0.00000E+00
    0.10768E-02         0.56552E-03         0.00000E+00
    0.10148E-02         0.53048E-03         0.00000E+00
    0.95221E-03         0.49540E-03         0.00000E+00
    0.88887E-03         0.46028E-03         0.00000E+00
    0.82482E-03         0.42513E-03         0.00000E+00
    0.76005E-03         0.38993E-03         0.00000E+00
    0.69458E-03         0.35470E-03         0.00000E+00
    0.62838E-03         0.31942E-03         0.00000E+00
    0.56147E-03         0.28410E-03         0.00000E+00
    0.49383E-03         0.24874E-03         0.00000E+00
    0.42548E-03         0.21334E-03         0.00000E+00
    0.35639E-03         0.17789E-03         0.00000E+00
    0.28658E-03         0.14240E-03         0.00000E+00
    0.21604E-03         0.10687E-03         0.00000E+00
    0.14476E-03         0.71291E-04         0.00000E+00
    0.72750E-04         0.35668E-04         0.00000E+00
    0.00000E+00         0.00000E+00         0.00000E+00
    0.27820E-02         0.15500E-02         0.00000E+00
    0.27433E-02         0.15194E-02         0.00000E+00
    0.27040E-02         0.14888E-02         0.00000E+00
    0.26639E-02         0.14582E-02         0.00000E+00
    0.26232E-02         0.14277E-02         0.00000E+00
    0.25818E-02         0.13971E-02         0.00000E+00
    0.25397E-02         0.13665E-02         0.00000E+00
    0.24970E-02         0.13359E-02         0.00000E+00
    0.24535E-02         0.13053E-02         0.00000E+00
    0.24094E-02         0.12746E-02         0.00000E+00
    0.23646E-02         0.12440E-02         0.00000E+00
    0.23191E-02         0.12134E-02         0.00000E+00
    0.22729E-02         0.11827E-02         0.00000E+00
    0.22260E-02         0.11521E-02         0.00000E+00
    0.21784E-02         0.11214E-02         0.00000E+00
    0.21302E-02         0.10907E-02         0.00000E+00
    0.20813E-02         0.10600E-02         0.00000E+00
    0.20316E-02         0.10292E-02         0.00000E+00
    0.19813E-02         0.99850E-03         0.00000E+00
    0.19303E-02         0.96774E-03         0.00000E+00
    0.18786E-02         0.93696E-03         0.00000E+00
    0.18262E-02         0.90615E-03         0.00000E+00
    0.17732E-02         0.87533E-03         0.00000E+00
    0.17194E-02         0.84448E-03         0.00000E+00
    0.16649E-02         0.81361E-03         0.00000E+00
    0.16098E-02         0.78271E-03         0.00000E+00
    0.15539E-02         0.75179E-03         0.00000E+00
    0.14973E-02         0.72084E-03         0.00000E+00
    0.14401E-02         0.68987E-03         0.00000E+00
    0.13821E-02         0.65886E-03         0.00000E+00
    0.13235E-02         0.62783E-03         0.00000E+00
    0.12641E-02         0.59677E-03         0.00000E+00
    0.12040E-02         0.56568E-03         0.00000E+00
    0.11432E-02         0.53455E-03         0.00000E+00
    0.10818E-02         0.50340E-03         0.00000E+00
    0.10196E-02         0.47221E-03         0.00000E+00
    0.95665E-03         0.44098E-03         0.00000E+00
    0.89302E-03         0.40973E-03         0.00000E+00
    0.82868E-03         0.37843E-03         0.00000E+00
    0.76362E-03         0.34711E-03         0.00000E+00
    0.69784E-03         0.31574E-03         0.00000E+00
    0.63134E-03         0.28434E-03         0.00000E+00
    0.56411E-03         0.25290E-03         0.00000E+00
    0.49616E-03         0.22143E-03         0.00000E+00
    0.42748E-03         0.18991E-03         0.00000E+00
    0.35807E-03         0.15836E-03         0.00000E+00
    0.28793E-03         0.12677E-03         0.00000E+00
    0.21705E-03         0.95135E-04         0.00000E+00
    0.14544E-03         0.63464E-04         0.00000E+00
    0.73092E-04         0.31752E-04         0.00000E+00
    0.00000E+00         0.00000E+00         0.00000E+00
    0.27910E-02         0.13583E-02         0.00000E+00
    0.27523E-02         0.13315E-02         0.00000E+00
    0.27130E-02         0.13047E-02         0.00000E+00
    0.26729E-02         0.12779E-02         0.00000E+00
    0.26321E-02         0.12511E-02         0.00000E+00
    0.25907E-02         0.12243E-02         0.00000E+00
    0.25485E-02         0.11975E-02         0.00000E+00
    0.25057E-02         0.11707E-02         0.00000E+00
    0.24622E-02         0.11439E-02         0.00000E+00
    0.24180E-02         0.11171E-02         0.00000E+00
    0.23731E-02         0.10903E-02         0.00000E+00
    0.23275E-02         0.10634E-02         0.00000E+00
    0.22812E-02         0.10366E-02         0.00000E+00
    0.22342E-02         0.10097E-02         0.00000E+00
    0.21866E-02         0.98283E-03         0.00000E+00
    0.21382E-02         0.95594E-03         0.00000E+00
    0.20891E-02         0.92904E-03         0.00000E+00
    0.20394E-02         0.90212E-03         0.00000E+00
    0.19889E-02         0.87519E-03         0.00000E+00
    0.19378E-02         0.84823E-03         0.00000E+00
    0.18859E-02         0.82126E-03         0.00000E+00
    0.18334E-02         0.79427E-03         0.00000E+00
    0.17801E-02         0.76727E-03         0.00000E+00
    0.17262E-02         0.74024E-03         0.00000E+00
    0.16716E-02         0.71318E-03         0.00000E+00
    0.16162E-02         0.68611E-03         0.00000E+00
    0.15602E-02         0.65902E-03         0.00000E+00
    0.15034E-02         0.63190E-03         0.00000E+00
    0.14459E-02         0.60475E-03         0.00000E+00
    0.13878E-02         0.57758E-03         0.00000E+00
    0.13289E-02         0.55038E-03         0.00000E+00
    0.12693E-02         0.52316E-03         0.00000E+00
    0.12090E-02         0.49591E-03         0.00000E+00
    0.11480E-02         0.46863E-03         0.00000E+00
    0.10862E-02         0.44132E-03         0.00000E+00
    0.10238E-02         0.41399E-03         0.00000E+00
    0.96063E-03         0.38662E-03         0.00000E+00
    0.89675E-03         0.35922E-03         0.00000E+00
    0.83215E-03         0.33179E-03         0.00000E+00
    0.76682E-03         0.30433E-03         0.00000E+00
    0.70077E-03         0.27683E-03         0.00000E+00
    0.63399E-03         0.24930E-03         0.00000E+00
    0.56648E-03         0.22174E-03         0.00000E+00
    0.49825E-03         0.19415E-03         0.00000E+00
    0.42928E-03         0.16652E-03         0.00000E+00
    0.35958E-03         0.13885E-03         0.00000E+00
    0.28914E-03         0.11115E-03         0.00000E+00
    0.21797E-03         0.83420E-04         0.00000E+00
    0.14605E-03         0.55649E-04         0.00000E+00
    0.73399E-04         0.27843E-04         0.00000E+00
    0.00000E+00         0.00000E+00         0.00000E+00
    0.27991E-02         0.11665E-02         0.00000E+00
    0.27604E-02         0.11435E-02         0.00000E+00
    0.27210E-02         0.11205E-02         0.00000E+00
    0.26809E-02         0.10975E-02         0.00000E+00
    0.26401E-02         0.10746E-02         0.00000E+00
    0.25987E-02         0.10516E-02         0.00000E+00
    0.25565E-02         0.10286E-02         0.00000E+00
    0.25136E-02         0.10056E-02         0.00000E+00
    0.24700E-02         0.98254E-03         0.00000E+00
    0.24257E-02         0.95952E-03         0.00000E+00
    0.23808E-02         0.93650E-03         0.00000E+00
    0.23351E-02         0.91346E-03         0.00000E+00
    0.22887E-02         0.89041E-03         0.00000E+00
    0.22416E-02         0.86736E-03         0.00000E+00
    0.21939E-02         0.84429E-03         0.00000E+00
    0.21454E-02         0.82121E-03         0.00000E+00
    0.20962E-02         0.79811E-03         0.00000E+00
    0.20464E-02         0.77501E-03         0.00000E+00
    0.19958E-02         0.75188E-03         0.00000E+00
    0.19445E-02         0.72874E-03         0.00000E+00
    0.18925E-02         0.70559E-03         0.00000E+00
    0.18398E-02         0.68242E-03         0.00000E+00
    0.17864E-02         0.65923E-03         0.00000E+00
    0.17323E-02         0.63602E-03         0.00000E+00
    0.16775E-02         0.61279E-03         0.00000E+00
    0.16220E-02         0.58955E-03         0.00000E+00
    0.15658E-02         0.56628E-03         0.00000E+00
    0.15088E-02         0.54299E-03         0.00000E+00
    0.14512E-02         0.51967E-03         0.00000E+00
    0.13928E-02         0.49634E-03         0.00000E+00
    0.13338E-02         0.47298E-03         0.00000E+00
    0.12740E-02         0.44960E-03         0.00000E+00
    0.12134E-02         0.42619E-03         0.00000E+00
    0.11522E-02         0.40276E-03         0.00000E+00
    0.10903E-02         0.37930E-03         0.00000E+00
    0.10276E-02         0.35581E-03         0.00000E+00
    0.96421E-03         0.33230E-03         0.00000E+00
    0.90010E-03         0.30876E-03         0.00000E+00
    0.83526E-03         0.28519E-03         0.00000E+00
    0.76969E-03         0.26159E-03         0.00000E+00
    0.70339E-03         0.23796E-03         0.00000E+00
    0.63637E-03         0.21431E-03         0.00000E+00
    0.56861E-03         0.19062E-03         0.00000E+00
    0.50012E-03         0.16690E-03         0.00000E+00
    0.43089E-03         0.14315E-03         0.00000E+00
    0.36093E-03         0.11937E-03         0.00000E+00
    0.29023E-03         0.95563E-04         0.00000E+00
    0.21879E-03         0.71721E-04         0.00000E+00
    0.14660E-03         0.47846E-04         0.00000E+00
    0.73674E-04         0.23939E-04         0.00000E+00
    0.00000E+00         0.00000E+00         0.00000E+00
    0.28065E-02         0.97469E-03         0.00000E+00
    0.27677E-02         0.95551E-03         0.00000E+00
    0.27283E-02         0.93632E-03         0.00000E+00
    0.26882E-02         0.91714E-03         0.00000E+00
    0.26474E-02         0.89795E-03         0.00000E+00
    0.26058E-02         0.87876E-03         0.00000E+00
    0.25636E-02         0.85956E-03         0.00000E+00
    0.25207E-02         0.84036E-03         0.00000E+00
    0.24770E-02         0.82115E-03         0.00000E+00
    0.24327E-02         0.80194E-03         0.00000E+00
    0.23877E-02         0.78272E-03         0.00000E+00
    0.23419E-02         0.76349E-03         0.00000E+00
    0.22955E-02         0.74425E-03         0.00000E+00
    0.22483E-02         0.72500E-03         0.00000E+00
    0.22005E-02         0.70575E-03         0.00000E+00
    0.21519E-02         0.68648E-03         0.00000E+00
    0.21026E-02         0.66719E-03         0.00000E+00
    0.20526E-02         0.64790E-03         0.00000E+00
    0.20019E-02         0.62859E-03         0.00000E+00
    0.19505E-02         0.60927E-03         0.00000E+00
    0.18984E-02         0.58994E-03         0.00000E+00
    0.18456E-02         0.57058E-03         0.00000E+00
    0.17921E-02         0.55122E-03         0.00000E+00
    0.17378E-02         0.53183E-03         0.00000E+00
    0.16829E-02         0.51243E-03         0.00000E+00
    0.16272E-02         0.49301E-03         0.00000E+00
    0.15708E-02         0.47357E-03         0.00000E+00
    0.15137E-02         0.45411E-03         0.00000E+00
    0.14559E-02         0.43463E-03         0.00000E+00
    0.13974E-02         0.41513E-03         0.00000E+00
    0.13381E-02         0.39561E-03         0.00000E+00
    0.12781E-02         0.37607E-03         0.00000E+00
    0.12174E-02         0.35651E-03         0.00000E+00
    0.11560E-02         0.33692E-03         0.00000E+00
    0.10939E-02         0.31731E-03         0.00000E+00
    0.10310E-02         0.29768E-03         0.00000E+00
    0.96742E-03         0.27802E-03         0.00000E+00
    0.90310E-03         0.25833E-03         0.00000E+00
    0.83805E-03         0.23862E-03         0.00000E+00
    0.77226E-03         0.21889E-03         0.00000E+00
    0.70575E-03         0.19913E-03         0.00000E+00
    0.63850E-03         0.17934E-03         0.00000E+00
    0.57052E-03         0.15952E-03         0.00000E+00
    0.50180E-03         0.13968E-03         0.00000E+00
    0.43234E-03         0.11981E-03         0.00000E+00
    0.36214E-03         0.99915E-04         0.00000E+00
    0.29120E-03         0.79990E-04         0.00000E+00
    0.21952E-03         0.60036E-04         0.00000E+00
    0.14709E-03         0.40053E-04         0.00000E+00
    0.73920E-04         0.20041E-04         0.00000E+00
    0.00000E+00         0.00000E+00         0.00000E+00
    0.28130E-02         0.78283E-03         0.00000E+00
    0.27743E-02         0.76745E-03         0.00000E+00
    0.27349E-02         0.75207E-03         0.00000E+00
    0.26947E-02         0.73669E-03         0.00000E+00
    0.26539E-02         0.72131E-03         0.00000E+00
    0.26123E-02         0.70593E-03         0.00000E+00
    0.25700E-02         0.69054E-03         0.00000E+00
    0.25271E-02         0.67514E-03         0.00000E+00
    0.24834E-02         0.65975E-03         0.00000E+00
    0.24390E-02         0.64434E-03         0.00000E+00
    0.23939E-02         0.62893E-03         0.00000E+00
    0.23481E-02         0.61351E-03         0.00000E+00
    0.23015E-02         0.59808E-03         0.00000E+00
    0.22543E-02         0.58265E-03         0.00000E+00
    0.22064E-02         0.56720E-03         0.00000E+00
    0.21577E-02         0.55175E-03         0.00000E+00
    0.21083E-02         0.53628E-03         0.00000E+00
    0.20583E-02         0.52080E-03         0.00000E+00
    0.20075E-02         0.50531E-03         0.00000E+00
    0.19560E-02         0.48981E-03         0.00000E+00
    0.19037E-02         0.47430E-03         0.00000E+00
    0.18508E-02         0.45877E-03         0.00000E+00
    0.17971E-02         0.44322E-03         0.00000E+00
    0.17428E-02         0.42767E-03         0.00000E+00
    0.16877E-02         0.41209E-03         0.00000E+00
    0.16319E-02         0.39650E-03         0.00000E+00
    0.15754E-02         0.38089E-03         0.00000E+00
    0.15181E-02         0.36527E-03         0.00000E+00
    0.14601E-02         0.34962E-03         0.00000E+00
    0.14014E-02         0.33396E-03         0.00000E+00
    0.13420E-02         0.31828E-03         0.00000E+00
    0.12819E-02         0.30258E-03         0.00000E+00
    0.12210E-02         0.28686E-03         0.00000E+00
    0.11594E-02         0.27112E-03         0.00000E+00
    0.10971E-02         0.25536E-03         0.00000E+00
    0.10341E-02         0.23957E-03         0.00000E+00
    0.97030E-03         0.22377E-03         0.00000E+00
    0.90579E-03         0.20794E-03         0.00000E+00
    0.84054E-03         0.19209E-03         0.00000E+00
    0.77457E-03         0.17622E-03         0.00000E+00
    0.70786E-03         0.16032E-03         0.00000E+00
    0.64041E-03         0.14440E-03         0.00000E+00
    0.57222E-03         0.12846E-03         0.00000E+00
    0.50330E-03         0.11249E-03         0.00000E+00
    0.43363E-03         0.96495E-04         0.00000E+00
    0.36322E-03         0.80476E-04         0.00000E+00
    0.29207E-03         0.64432E-04         0.00000E+00
    0.22018E-03         0.48363E-04         0.00000E+00
    0.14753E-03         0.32268E-04         0.00000E+00
    0.74141E-04         0.16147E-04         0.00000E+00
    0.00000E+00         0.00000E+00         0.00000E+00
    0.28189E-02         0.59092E-03         0.00000E+00
    0.27802E-02         0.57935E-03         0.00000E+00
    0.27407E-02         0.56779E-03         0.00000E+00
    0.27005E-02         0.55622E-03         0.00000E+00
    0.26597E-02         0.54464E-03         0.00000E+00
    0.26181E-02         0.53307E-03         0.00000E+00
    0.25758E-02         0.52149E-03         0.00000E+00
    0.25328E-02         0.50991E-03         0.00000E+00
    0.24890E-02         0.49832E-03         0.00000E+00
    0.24446E-02         0.48673E-03         0.00000E+00
    0.23994E-02         0.47513E-03         0.00000E+00
    0.23536E-02         0.46352E-03         0.00000E+00
    0.23070E-02         0.45191E-03         0.00000E+00
    0.22597E-02         0.44029E-03         0.00000E+00
    0.22116E-02         0.42866E-03         0.00000E+00
    0.21629E-02         0.41702E-03         0.00000E+00
    0.21135E-02         0.40537E-03         0.00000E+00
    0.20633E-02         0.39372E-03         0.00000E+00
    0.20124E-02         0.38205E-03         0.00000E+00
    0.19608E-02         0.37037E-03         0.00000E+00
    0.19085E-02         0.35867E-03         0.00000E+00
    0.18554E-02         0.34697E-03         0.00000E+00
    0.18017E-02         0.33525E-03         0.00000E+00
    0.17472E-02         0.32352E-03         0.00000E+00
    0.16920E-02         0.31178E-03         0.00000E+00
    0.16361E-02         0.30002E-03         0.00000E+00
    0.15794E-02         0.28824E-03         0.00000E+00
    0.15220E-02         0.27645E-03         0.00000E+00
    0.14639E-02         0.26464E-03         0.00000E+00
    0.14051E-02         0.25282E-03         0.00000E+00
    0.13455E-02         0.24098E-03         0.00000E+00
    0.12852E-02         0.22912E-03         0.00000E+00
    0.12242E-02         0.21725E-03         0.00000E+00
    0.11625E-02         0.20535E-03         0.00000E+00
    0.11000E-02         0.19344E-03         0.00000E+00
    0.10368E-02         0.18151E-03         0.00000E+00
    0.97286E-03         0.16955E-03         0.00000E+00
    0.90819E-03         0.15758E-03         0.00000E+00
    0.84278E-03         0.14559E-03         0.00000E+00
    0.77663E-03         0.13358E-03         0.00000E+00
    0.70974E-03         0.12154E-03         0.00000E+00
    0.64211E-03         0.10949E-03         0.00000E+00
    0.57375E-03         0.97414E-04         0.00000E+00
    0.50464E-03         0.85316E-04         0.00000E+00
    0.43479E-03         0.73196E-04         0.00000E+00
    0.36419E-03         0.61053E-04         0.00000E+00
    0.29285E-03         0.48889E-04         0.00000E+00
    0.22076E-03         0.36701E-04         0.00000E+00
    0.14792E-03         0.24490E-04         0.00000E+00
    0.74338E-04         0.12257E-04         0.00000E+00
    0.00000E+00         0.00000E+00         0.00000E+00
    0.28242E-02         0.39898E-03         0.00000E+00
    0.27854E-02         0.39122E-03         0.00000E+00
    0.27460E-02         0.38347E-03         0.00000E+00
    0.27058E-02         0.37571E-03         0.00000E+00
    0.26649E-02         0.36795E-03         0.00000E+00
    0.26232E-02         0.36019E-03         0.00000E+00
    0.25809E-02         0.35242E-03         0.00000E+00
    0.25379E-02         0.34465E-03         0.00000E+00
    0.24941E-02         0.33688E-03         0.00000E+00
    0.24496E-02         0.32910E-03         0.00000E+00
    0.24044E-02         0.32132E-03         0.00000E+00
    0.23585E-02         0.31353E-03         0.00000E+00
    0.23118E-02         0.30573E-03         0.00000E+00
    0.22645E-02         0.29793E-03         0.00000E+00
    0.22164E-02         0.29012E-03         0.00000E+00
    0.21676E-02         0.28230E-03         0.00000E+00
    0.21180E-02         0.27447E-03         0.00000E+00
    0.20678E-02         0.26664E-03         0.00000E+00
    0.20168E-02         0.25879E-03         0.00000E+00
    0.19651E-02         0.25093E-03         0.00000E+00
    0.19127E-02         0.24307E-03         0.00000E+00
    0.18596E-02         0.23519E-03         0.00000E+00
    0.18057E-02         0.22730E-03         0.00000E+00
    0.17511E-02         0.21939E-03         0.00000E+00
    0.16958E-02         0.21148E-03         0.00000E+00
    0.16398E-02         0.20355E-03         0.00000E+00
    0.15830E-02         0.19561E-03         0.00000E+00
    0.15255E-02         0.18766E-03         0.00000E+00
    0.14673E-02         0.17969E-03         0.00000E+00
    0.14083E-02         0.17170E-03         0.00000E+00
    0.13487E-02         0.16370E-03         0.00000E+00
    0.12882E-02         0.15569E-03         0.00000E+00
    0.12271E-02         0.14766E-03         0.00000E+00
    0.11652E-02         0.13961E-03         0.00000E+00
    0.11026E-02         0.13155E-03         0.00000E+00
    0.10392E-02         0.12346E-03         0.00000E+00
    0.97516E-03         0.11537E-03         0.00000E+00
    0.91033E-03         0.10725E-03         0.00000E+00
    0.84477E-03         0.99115E-04         0.00000E+00
    0.77846E-03         0.90963E-04         0.00000E+00
    0.71142E-03         0.82791E-04         0.00000E+00
    0.64364E-03         0.74601E-04         0.00000E+00
    0.57511E-03         0.66392E-04         0.00000E+00
    0.50584E-03         0.58163E-04         0.00000E+00
    0.43582E-03         0.49914E-04         0.00000E+00
    0.36505E-03         0.41646E-04         0.00000E+00
    0.29354E-03         0.33357E-04         0.00000E+00
    0.22128E-03         0.25049E-04         0.00000E+00
    0.14827E-03         0.16720E-04         0.00000E+00
    0.74513E-04         0.83702E-05         0.00000E+00
    0.00000E+00         0.00000E+00         0.00000E+00
    0.28289E-02         0.20700E-03         0.00000E+00
    0.27901E-02         0.20306E-03         0.00000E+00
    0.27506E-02         0.19912E-03         0.00000E+00
    0.27104E-02         0.19518E-03         0.00000E+00
    0.26695E-02         0.19123E-03         0.00000E+00
    0.26278E-02         0.18728E-03         0.00000E+00
    0.25855E-02         0.18333E-03         0.00000E+00
    0.25424E-02         0.17938E-03         0.00000E+00
    0.24986E-02         0.17542E-03         0.00000E+00
    0.24541E-02         0.17146E-03         0.00000E+00
    0.24088E-02         0.16750E-03         0.00000E+00
    0.23628E-02         0.16353E-03         0.00000E+00
    0.23161E-02         0.15955E-03         0.00000E+00
    0.22687E-02         0.15557E-03         0.00000E+00
    0.22206E-02         0.15158E-03         0.00000E+00
    0.21717E-02         0.14758E-03         0.00000E+00
    0.21221E-02         0.14357E-03         0.00000E+00
    0.20718E-02         0.13956E-03         0.00000E+00
    0.20208E-02         0.13554E-03         0.00000E+00
    0.19690E-02         0.13151E-03         0.00000E+00
    0.19165E-02         0.12747E-03         0.00000E+00
    0.18633E-02         0.12342E-03         0.00000E+00
    0.18093E-02         0.11936E-03         0.00000E+00
    0.17546E-02         0.11529E-03         0.00000E+00
    0.16992E-02         0.11120E-03         0.00000E+00
    0.16431E-02         0.10711E-03         0.00000E+00
    0.15862E-02         0.10300E-03         0.00000E+00
    0.15286E-02         0.98885E-04         0.00000E+00
    0.14703E-02         0.94754E-04         0.00000E+00
    0.14112E-02         0.90609E-04         0.00000E+00
    0.13514E-02         0.86452E-04         0.00000E+00
    0.12909E-02         0.82280E-04         0.00000E+00
    0.12296E-02         0.78094E-04         0.00000E+00
    0.11676E-02         0.73894E-04         0.00000E+00
    0.11049E-02         0.69679E-04         0.00000E+00
    0.10414E-02         0.65448E-04         0.00000E+00
    0.97719E-03         0.61202E-04         0.00000E+00
    0.91223E-03         0.56941E-04         0.00000E+00
    0.84654E-03         0.52663E-04         0.00000E+00
    0.78010E-03         0.48369E-04         0.00000E+00
    0.71291E-03         0.44059E-04         0.00000E+00
    0.64499E-03         0.39732E-04         0.00000E+00
    0.57632E-03         0.35388E-04         0.00000E+00
    0.50690E-03         0.31026E-04         0.00000E+00
    0.43673E-03         0.26648E-04         0.00000E+00
    0.36582E-03         0.22251E-04         0.00000E+00
    0.29416E-03         0.17837E-04         0.00000E+00
    0.22175E-03         0.13405E-04         0.00000E+00
    0.14859E-03         0.89550E-05         0.00000E+00
    0.74670E-04         0.44867E-05         0.00000E+00
    0.00000E+00         0.00000E+00         0.00000E+00
    0.28330E-02         0.14990E-04         0.00000E+00
    0.27942E-02         0.14867E-04         0.00000E+00
    0.27547E-02         0.14743E-04         0.00000E+00
    0.27145E-02         0.14617E-04         0.00000E+00
    0.26736E-02         0.14490E-04         0.00000E+00
    0.26319E-02         0.14361E-04         0.00000E+00
    0.25895E-02         0.14230E-04         0.00000E+00
    0.25464E-02         0.14095E-04         0.00000E+00
    0.25026E-02         0.13957E-04         0.00000E+00
    0.24580E-02         0.13816E-04         0.00000E+00
    0.24127E-02         0.13669E-04         0.00000E+00
    0.23667E-02         0.13519E-04         0.00000E+00
    0.23200E-02         0.13363E-04         0.00000E+00
    0.22725E-02         0.13201E-04         0.00000E+00
    0.22243E-02         0.13034E-04         0.00000E+00
    0.21754E-02         0.12860E-04         0.00000E+00
    0.21257E-02         0.12679E-04         0.00000E+00
    0.20753E-02         0.12492E-04         0.00000E+00
    0.20242E-02         0.12296E-04         0.00000E+00
    0.19724E-02         0.12093E-04         0.00000E+00
    0.19198E-02         0.11881E-04         0.00000E+00
    0.18665E-02         0.11660E-04         0.00000E+00
    0.18125E-02         0.11431E-04         0.00000E+00
    0.17577E-02         0.11192E-04         0.00000E+00
    0.17023E-02         0.10942E-04         0.00000E+00
    0.16460E-02         0.10683E-04         0.00000E+00
    0.15891E-02         0.10413E-04         0.00000E+00
    0.15314E-02         0.10132E-04         0.00000E+00
    0.14730E-02         0.98401E-05         0.00000E+00
    0.14138E-02         0.95363E-05         0.00000E+00
    0.13539E-02         0.92207E-05         0.00000E+00
    0.12933E-02         0.88928E-05         0.00000E+00
    0.12319E-02         0.85524E-05         0.00000E+00
    0.11698E-02         0.81992E-05         0.00000E+00
    0.11069E-02         0.78329E-05         0.00000E+00
    0.10433E-02         0.74532E-05         0.00000E+00
    0.97899E-03         0.70599E-05         0.00000E+00
    0.91392E-03         0.66527E-05         0.00000E+00
    0.84810E-03         0.62314E-05         0.00000E+00
    0.78154E-03         0.57957E-05         0.00000E+00
    0.71423E-03         0.53454E-05         0.00000E+00
    0.64618E-03         0.48803E-05         0.00000E+00
    0.57738E-03         0.44003E-05         0.00000E+00
    0.50784E-03         0.39050E-05         0.00000E+00
    0.43754E-03         0.33944E-05         0.00000E+00
    0.36650E-03         0.28683E-05         0.00000E+00
    0.29471E-03         0.23265E-05         0.00000E+00
    0.22216E-03         0.17689E-05         0.00000E+00
    0.14886E-03         0.11954E-05         0.00000E+00
    0.74808E-04         0.60577E-06         0.00000E+00
    0.00000E+00         0.00000E+00         0.00000E+00
    0.28367E-02        -0.17705E-03         0.00000E+00
    0.27979E-02        -0.17335E-03         0.00000E+00
    0.27584E-02        -0.16966E-03         0.00000E+00
    0.27182E-02        -0.16596E-03         0.00000E+00
    0.26772E-02        -0.16227E-03         0.00000E+00
    0.26355E-02        -0.15858E-03         0.00000E+00
    0.25931E-02        -0.15489E-03         0.00000E+00
    0.25500E-02        -0.15121E-03         0.00000E+00
    0.25061E-02        -0.14752E-03         0.00000E+00
    0.24615E-02        -0.14384E-03         0.00000E+00
    0.24162E-02        -0.14017E-03         0.00000E+00
    0.23701E-02        -0.13650E-03         0.00000E+00
    0.23233E-02        -0.13283E-03         0.00000E+00
    0.22758E-02        -0.12917E-03         0.00000E+00
    0.22276E-02        -0.12551E-03         0.00000E+00
    0.21786E-02        -0.12186E-03         0.00000E+00
    0.21289E-02        -0.11821E-03         0.00000E+00
    0.20785E-02        -0.11457E-03         0.00000E+00
    0.20273E-02        -0.11094E-03         0.00000E+00
    0.19754E-02        -0.10732E-03         0.00000E+00
    0.19228E-02        -0.10370E-03         0.00000E+00
    0.18694E-02        -0.10009E-03         0.00000E+00
    0.18153E-02        -0.96485E-04         0.00000E+00
    0.17605E-02        -0.92891E-04         0.00000E+00
    0.17049E-02        -0.89305E-04         0.00000E+00
    0.16486E-02        -0.85729E-04         0.00000E+00
    0.15916E-02        -0.82162E-04         0.00000E+00
    0.15338E-02        -0.78604E-04         0.00000E+00
    0.14753E-02        -0.75057E-04         0.00000E+00
    0.14160E-02        -0.71519E-04         0.00000E+00
    0.13561E-02        -0.67992E-04         0.00000E+00
    0.12953E-02        -0.64476E-04         0.00000E+00
    0.12339E-02        -0.60971E-04         0.00000E+00
    0.11717E-02        -0.57477E-04         0.00000E+00
    0.11087E-02        -0.53994E-04         0.00000E+00
    0.10450E-02        -0.50523E-04         0.00000E+00
    0.98058E-03        -0.47064E-04         0.00000E+00
    0.91540E-03        -0.43618E-04         0.00000E+00
    0.84948E-03        -0.40183E-04         0.00000E+00
    0.78281E-03        -0.36761E-04         0.00000E+00
    0.71540E-03        -0.33352E-04         0.00000E+00
    0.64723E-03        -0.29956E-04         0.00000E+00
    0.57832E-03        -0.26573E-04         0.00000E+00
    0.50867E-03        -0.23204E-04         0.00000E+00
    0.43826E-03        -0.19847E-04         0.00000E+00
    0.36710E-03        -0.16505E-04         0.00000E+00
    0.29519E-03        -0.13176E-04         0.00000E+00
    0.22252E-03        -0.98609E-05         0.00000E+00
    0.14910E-03        -0.65598E-05         0.00000E+00
    0.74929E-04        -0.32728E-05         0.00000E+00
    0.00000E+00         0.00000E+00         0.00000E+00
    0.28399E-02        -0.36911E-03         0.00000E+00
    0.28011E-02        -0.36160E-03         0.00000E+00
    0.27616E-02        -0.35408E-03         0.00000E+00
    0.27213E-02        -0.34657E-03         0.00000E+00
    0.26804E-02        -0.33905E-03         0.00000E+00
    0.26387E-02        -0.33154E-03         0.00000E+00
    0.25962E-02        -0.32403E-03         0.00000E+00
    0.25531E-02        -0.31652E-03         0.00000E+00
    0.25092E-02        -0.30901E-03         0.00000E+00
    0.24645E-02        -0.30151E-03         0.00000E+00
    0.24192E-02        -0.29401E-03         0.00000E+00
    0.23731E-02        -0.28652E-03         0.00000E+00
    0.23263E-02        -0.27902E-03         0.00000E+00
    0.22787E-02        -0.27154E-03         0.00000E+00
    0.22304E-02        -0.26405E-03         0.00000E+00
    0.21814E-02        -0.25658E-03         0.00000E+00
    0.21317E-02        -0.24910E-03         0.00000E+00
    0.20812E-02        -0.24164E-03         0.00000E+00
    0.20300E-02        -0.23417E-03         0.00000E+00
    0.19780E-02        -0.22672E-03         0.00000E+00
    0.19253E-02        -0.21927E-03         0.00000E+00
    0.18719E-02        -0.21183E-03         0.00000E+00
    0.18178E-02        -0.20439E-03         0.00000E+00
    0.17629E-02        -0.19696E-03         0.00000E+00
    0.17072E-02        -0.18954E-03         0.00000E+00
    0.16509E-02        -0.18213E-03         0.00000E+00
    0.15938E-02        -0.17472E-03         0.00000E+00
    0.15359E-02        -0.16733E-03         0.00000E+00
    0.14773E-02        -0.15994E-03         0.00000E+00
    0.14180E-02        -0.15256E-03         0.00000E+00
    0.13579E-02        -0.14519E-03         0.00000E+00
    0.12971E-02        -0.13783E-03         0.00000E+00
    0.12356E-02        -0.13048E-03         0.00000E+00
    0.11733E-02        -0.12314E-03         0.00000E+00
    0.11103E-02        -0.11581E-03         0.00000E+00
    0.10465E-02        -0.10848E-03         0.00000E+00
    0.98196E-03        -0.10117E-03         0.00000E+00
    0.91669E-03        -0.93872E-04         0.00000E+00
    0.85068E-03        -0.86583E-04         0.00000E+00
    0.78392E-03        -0.79304E-04         0.00000E+00
    0.71641E-03        -0.72036E-04         0.00000E+00
    0.64815E-03        -0.64780E-04         0.00000E+00
    0.57914E-03        -0.57535E-04         0.00000E+00
    0.50939E-03        -0.50301E-04         0.00000E+00
    0.43888E-03        -0.43079E-04         0.00000E+00
    0.36762E-03        -0.35869E-04         0.00000E+00
    0.29560E-03        -0.28671E-04         0.00000E+00
    0.22284E-03        -0.21485E-04         0.00000E+00
    0.14931E-03        -0.14311E-04         0.00000E+00
    0.75035E-04        -0.71494E-05         0.00000E+00
    0.00000E+00         0.00000E+00         0.00000E+00
    0.28426E-02        -0.56120E-03         0.00000E+00
    0.28038E-02        -0.54986E-03         0.00000E+00
    0.27643E-02        -0.53852E-03         0.00000E+00
    0.27241E-02        -0.52719E-03         0.00000E+00
    0.26831E-02        -0.51585E-03         0.00000E+00
    0.26414E-02        -0.50451E-03         0.00000E+00
    0.25989E-02        -0.49318E-03         0.00000E+00
    0.25557E-02        -0.48185E-03         0.00000E+00
    0.25118E-02        -0.47052E-03         0.00000E+00
    0.24672E-02        -0.45919E-03         0.00000E+00
    0.24218E-02        -0.44787E-03         0.00000E+00
    0.23757E-02        -0.43654E-03         0.00000E+00
    0.23288E-02        -0.42523E-03         0.00000E+00
    0.22812E-02        -0.41391E-03         0.00000E+00
    0.22329E-02        -0.40260E-03         0.00000E+00
    0.21839E-02        -0.39129E-03         0.00000E+00
    0.21341E-02        -0.37999E-03         0.00000E+00
    0.20835E-02        -0.36870E-03         0.00000E+00
    0.20323E-02        -0.35740E-03         0.00000E+00
    0.19803E-02        -0.34612E-03         0.00000E+00
    0.19276E-02        -0.33484E-03         0.00000E+00
    0.18741E-02        -0.32356E-03         0.00000E+00
    0.18199E-02        -0.31229E-03         0.00000E+00
    0.17649E-02        -0.30103E-03         0.00000E+00
    0.17092E-02        -0.28977E-03         0.00000E+00
    0.16528E-02        -0.27852E-03         0.00000E+00
    0.15956E-02        -0.26728E-03         0.00000E+00
    0.15377E-02        -0.25604E-03         0.00000E+00
    0.14791E-02        -0.24481E-03         0.00000E+00
    0.14197E-02        -0.23359E-03         0.00000E+00
    0.13596E-02        -0.22238E-03         0.00000E+00
    0.12987E-02        -0.21117E-03         0.00000E+00
    0.12371E-02        -0.19997E-03         0.00000E+00
    0.11747E-02        -0.18878E-03         0.00000E+00
    0.11116E-02        -0.17760E-03         0.00000E+00
    0.10478E-02        -0.16643E-03         0.00000E+00
    0.98315E-03        -0.15527E-03         0.00000E+00
    0.91781E-03        -0.14411E-03         0.00000E+00
    0.85172E-03        -0.13297E-03         0.00000E+00
    0.78487E-03        -0.12183E-03         0.00000E+00
    0.71728E-03        -0.11071E-03         0.00000E+00
    0.64894E-03        -0.99593E-04         0.00000E+00
    0.57985E-03        -0.88486E-04         0.00000E+00
    0.51001E-03        -0.77390E-04         0.00000E+00
    0.43942E-03        -0.66303E-04         0.00000E+00
    0.36807E-03        -0.55227E-04         0.00000E+00
    0.29597E-03        -0.44161E-04         0.00000E+00
    0.22311E-03        -0.33105E-04         0.00000E+00
    0.14950E-03        -0.22059E-04         0.00000E+00
    0.75127E-04        -0.11024E-04         0.00000E+00
    0.00000E+00         0.00000E+00         0.00000E+00
    0.28450E-02        -0.75332E-03         0.00000E+00
    0.28062E-02        -0.73815E-03         0.00000E+00
    0.27667E-02        -0.72299E-03         0.00000E+00
    0.27264E-02        -0.70783E-03         0.00000E+00
    0.26854E-02        -0.69267E-03         0.00000E+00
    0.26437E-02        -0.67750E-03         0.00000E+00
    0.26012E-02        -0.66235E-03         0.00000E+00
    0.25580E-02        -0.64719E-03         0.00000E+00
    0.25141E-02        -0.63203E-03         0.00000E+00
    0.24694E-02        -0.61688E-03         0.00000E+00
    0.24240E-02        -0.60173E-03         0.00000E+00
    0.23779E-02        -0.58658E-03         0.00000E+00
    0.23310E-02        -0.57143E-03         0.00000E+00
    0.22834E-02        -0.55629E-03         0.00000E+00
    0.22350E-02        -0.54115E-03         0.00000E+00
    0.21859E-02        -0.52602E-03         0.00000E+00
    0.21361E-02        -0.51088E-03         0.00000E+00
    0.20856E-02        -0.49576E-03         0.00000E+00
    0.20343E-02        -0.48063E-03         0.00000E+00
    0.19822E-02        -0.46551E-03         0.00000E+00
    0.19294E-02        -0.45040E-03         0.00000E+00
    0.18759E-02        -0.43529E-03         0.00000E+00
    0.18217E-02        -0.42018E-03         0.00000E+00
    0.17667E-02        -0.40508E-03         0.00000E+00
    0.17109E-02        -0.38999E-03         0.00000E+00
    0.16545E-02        -0.37490E-03         0.00000E+00
    0.15972E-02        -0.35982E-03         0.00000E+00
    0.15393E-02        -0.34474E-03         0.00000E+00
    0.14806E-02        -0.32967E-03         0.00000E+00
    0.14211E-02        -0.31461E-03         0.00000E+00
    0.13610E-02        -0.29955E-03         0.00000E+00
    0.13000E-02        -0.28450E-03         0.00000E+00
    0.12383E-02        -0.26946E-03         0.00000E+00
    0.11759E-02        -0.25442E-03         0.00000E+00
    0.11128E-02        -0.23939E-03         0.00000E+00
    0.10488E-02        -0.22437E-03         0.00000E+00
    0.98417E-03        -0.20935E-03         0.00000E+00
    0.91876E-03        -0.19435E-03         0.00000E+00
    0.85260E-03        -0.17935E-03         0.00000E+00
    0.78569E-03        -0.16436E-03         0.00000E+00
    0.71803E-03        -0.14937E-03         0.00000E+00
    0.64962E-03        -0.13440E-03         0.00000E+00
    0.58046E-03        -0.11943E-03         0.00000E+00
    0.51054E-03        -0.10447E-03         0.00000E+00
    0.43987E-03        -0.89520E-04         0.00000E+00
    0.36845E-03        -0.74579E-04         0.00000E+00
    0.29627E-03        -0.59645E-04         0.00000E+00
    0.22334E-03        -0.44721E-04         0.00000E+00
    0.14965E-03        -0.29805E-04         0.00000E+00
    0.75205E-04        -0.14898E-04         0.00000E+00
    0.00000E+00         0.00000E+00         0.00000E+00
    0.28470E-02        -0.94545E-03         0.00000E+00
    0.28082E-02        -0.92646E-03         0.00000E+00
    0.27686E-02        -0.90747E-03         0.00000E+00
    0.27284E-02        -0.88849E-03         0.00000E+00
    0.26874E-02        -0.86950E-03         0.00000E+00
    0.26456E-02        -0.85051E-03         0.00000E+00
    0.26031E-02        -0.83153E-03         0.00000E+00
    0.25599E-02        -0.81254E-03         0.00000E+00
    0.25160E-02        -0.79356E-03         0.00000E+00
    0.24713E-02        -0.77458E-03         0.00000E+00
    0.24259E-02        -0.75560E-03         0.00000E+00
    0.23797E-02        -0.73662E-03         0.00000E+00
    0.23328E-02        -0.71765E-03         0.00000E+00
    0.22852E-02        -0.69868E-03         0.00000E+00
    0.22368E-02        -0.67971E-03         0.00000E+00
    0.21877E-02        -0.66074E-03         0.00000E+00
    0.21378E-02        -0.64178E-03         0.00000E+00
    0.20872E-02        -0.62282E-03         0.00000E+00
    0.20359E-02        -0.60386E-03         0.00000E+00
    0.19838E-02        -0.58491E-03         0.00000E+00
    0.19310E-02        -0.56596E-03         0.00000E+00
    0.18775E-02        -0.54702E-03         0.00000E+00
    0.18232E-02        -0.52808E-03         0.00000E+00
    0.17681E-02        -0.50914E-03         0.00000E+00
    0.17124E-02        -0.49021E-03         0.00000E+00
    0.16558E-02        -0.47128E-03         0.00000E+00
    0.15986E-02        -0.45236E-03         0.00000E+00
    0.15406E-02        -0.43344E-03         0.00000E+00
    0.14818E-02        -0.41453E-03         0.00000E+00
    0.14223E-02        -0.39562E-03         0.00000E+00
    0.13621E-02        -0.37672E-03         0.00000E+00
    0.13011E-02        -0.35782E-03         0.00000E+00
    0.12394E-02        -0.33893E-03         0.00000E+00
    0.11769E-02        -0.32005E-03         0.00000E+00
    0.11137E-02        -0.30117E-03         0.00000E+00
    0.10497E-02        -0.28230E-03         0.00000E+00
    0.98502E-03        -0.26343E-03         0.00000E+00
    0.91955E-03        -0.24457E-03         0.00000E+00
    0.85334E-03        -0.22572E-03         0.00000E+00
    0.78637E-03        -0.20687E-03         0.00000E+00
    0.71865E-03        -0.18803E-03         0.00000E+00
    0.65018E-03        -0.16919E-03         0.00000E+00
    0.58096E-03        -0.15037E-03         0.00000E+00
    0.51098E-03        -0.13155E-03         0.00000E+00
    0.44025E-03        -0.11273E-03         0.00000E+00
    0.36877E-03        -0.93926E-04         0.00000E+00
    0.29653E-03        -0.75126E-04         0.00000E+00
    0.22353E-03        -0.56334E-04         0.00000E+00
    0.14978E-03        -0.37548E-04         0.00000E+00
    0.75270E-04        -0.18771E-04         0.00000E+00
    0.00000E+00         0.00000E+00         0.00000E+00
    0.28486E-02        -0.11376E-02         0.00000E+00
    0.28098E-02        -0.11148E-02         0.00000E+00
    0.27703E-02        -0.10920E-02         0.00000E+00
    0.27300E-02        -0.10692E-02         0.00000E+00
    0.26890E-02        -0.10463E-02         0.00000E+00
    0.26472E-02        -0.10235E-02         0.00000E+00
    0.26047E-02        -0.10007E-02         0.00000E+00
    0.25615E-02        -0.97791E-03         0.00000E+00
    0.25175E-02        -0.95510E-03         0.00000E+00
    0.24728E-02        -0.93229E-03         0.00000E+00
    0.24274E-02        -0.90948E-03         0.00000E+00
    0.23812E-02        -0.88667E-03         0.00000E+00
    0.23343E-02        -0.86387E-03         0.00000E+00
    0.22866E-02        -0.84107E-03         0.00000E+00
    0.22382E-02        -0.81827E-03         0.00000E+00
    0.21891E-02        -0.79547E-03         0.00000E+00
    0.21392E-02        -0.77268E-03         0.00000E+00
    0.20886E-02        -0.74988E-03         0.00000E+00
    0.20372E-02        -0.72710E-03         0.00000E+00
    0.19851E-02        -0.70431E-03         0.00000E+00
    0.19323E-02        -0.68153E-03         0.00000E+00
    0.18787E-02        -0.65874E-03         0.00000E+00
    0.18244E-02        -0.63597E-03         0.00000E+00
    0.17693E-02        -0.61319E-03         0.00000E+00
    0.17135E-02        -0.59042E-03         0.00000E+00
    0.16570E-02        -0.56766E-03         0.00000E+00
    0.15997E-02        -0.54489E-03         0.00000E+00
    0.15416E-02        -0.52214E-03         0.00000E+00
    0.14829E-02        -0.49938E-03         0.00000E+00
    0.14233E-02        -0.47663E-03         0.00000E+00
    0.13630E-02        -0.45388E-03         0.00000E+00
    0.13020E-02        -0.43114E-03         0.00000E+00
    0.12403E-02        -0.40841E-03         0.00000E+00
    0.11777E-02        -0.38567E-03         0.00000E+00
    0.11145E-02        -0.36294E-03         0.00000E+00
    0.10505E-02        -0.34022E-03         0.00000E+00
    0.98571E-03        -0.31750E-03         0.00000E+00
    0.92020E-03        -0.29479E-03         0.00000E+00
    0.85393E-03        -0.27208E-03         0.00000E+00
    0.78692E-03        -0.24938E-03         0.00000E+00
    0.71916E-03        -0.22668E-03         0.00000E+00
    0.65064E-03        -0.20399E-03         0.00000E+00
    0.58137E-03        -0.18130E-03         0.00000E+00
    0.51134E-03        -0.15862E-03         0.00000E+00
    0.44056E-03        -0.13594E-03         0.00000E+00
    0.36903E-03        -0.11327E-03         0.00000E+00
    0.29674E-03        -0.90604E-04         0.00000E+00
    0.22369E-03        -0.67944E-04         0.00000E+00
    0.14989E-03        -0.45290E-04         0.00000E+00
    0.75322E-04        -0.22642E-04         0.00000E+00
    0.00000E+00         0.00000E+00         0.00000E+00
    0.28499E-02        -0.13298E-02         0.00000E+00
    0.28110E-02        -0.13031E-02         0.00000E+00
    0.27715E-02        -0.12765E-02         0.00000E+00
    0.27312E-02        -0.12499E-02         0.00000E+00
    0.26902E-02        -0.12232E-02         0.00000E+00
    0.26484E-02        -0.11966E-02         0.00000E+00
    0.26059E-02        -0.11699E-02         0.00000E+00
    0.25627E-02        -0.11433E-02         0.00000E+00
    0.25187E-02        -0.11166E-02         0.00000E+00
    0.24740E-02        -0.10900E-02         0.00000E+00
    0.24286E-02        -0.10634E-02         0.00000E+00
    0.23824E-02        -0.10367E-02         0.00000E+00
    0.23354E-02        -0.10101E-02         0.00000E+00
    0.22878E-02        -0.98347E-03         0.00000E+00
    0.22393E-02        -0.95684E-03         0.00000E+00
    0.21902E-02        -0.93021E-03         0.00000E+00
    0.21403E-02        -0.90358E-03         0.00000E+00
    0.20897E-02        -0.87696E-03         0.00000E+00
    0.20383E-02        -0.85033E-03         0.00000E+00
    0.19862E-02        -0.82371E-03         0.00000E+00
    0.19333E-02        -0.79709E-03         0.00000E+00
    0.18797E-02        -0.77048E-03         0.00000E+00
    0.18253E-02        -0.74386E-03         0.00000E+00
    0.17703E-02        -0.71725E-03         0.00000E+00
    0.17144E-02        -0.69064E-03         0.00000E+00
    0.16578E-02        -0.66403E-03         0.00000E+00
    0.16005E-02        -0.63743E-03         0.00000E+00
    0.15425E-02        -0.61083E-03         0.00000E+00
    0.14836E-02        -0.58423E-03         0.00000E+00
    0.14241E-02        -0.55764E-03         0.00000E+00
    0.13638E-02        -0.53105E-03         0.00000E+00
    0.13027E-02        -0.50446E-03         0.00000E+00
    0.12409E-02        -0.47787E-03         0.00000E+00
    0.11784E-02        -0.45129E-03         0.00000E+00
    0.11151E-02        -0.42472E-03         0.00000E+00
    0.10510E-02        -0.39814E-03         0.00000E+00
    0.98624E-03        -0.37157E-03         0.00000E+00
    0.92069E-03        -0.34500E-03         0.00000E+00
    0.85440E-03        -0.31844E-03         0.00000E+00
    0.78735E-03        -0.29188E-03         0.00000E+00
    0.71955E-03        -0.26533E-03         0.00000E+00
    0.65099E-03        -0.23878E-03         0.00000E+00
    0.58168E-03        -0.21223E-03         0.00000E+00
    0.51162E-03        -0.18568E-03         0.00000E+00
    0.44080E-03        -0.15915E-03         0.00000E+00
    0.36923E-03        -0.13261E-03         0.00000E+00
    0.29690E-03        -0.10608E-03         0.00000E+00
    0.22381E-03        -0.79554E-04         0.00000E+00
    0.14997E-03        -0.53031E-04         0.00000E+00
    0.75363E-04        -0.26514E-04         0.00000E+00
    0.00000E+00         0.00000E+00         0.00000E+00
    0.28508E-02        -0.15220E-02         0.00000E+00
    0.28120E-02        -0.14915E-02         0.00000E+00
    0.27724E-02        -0.14610E-02         0.00000E+00
    0.27321E-02        -0.14306E-02         0.00000E+00
    0.26911E-02        -0.14001E-02         0.00000E+00
    0.26493E-02        -0.13696E-02         0.00000E+00
    0.26068E-02        -0.13392E-02         0.00000E+00
    0.25636E-02        -0.13087E-02         0.00000E+00
    0.25196E-02        -0.12782E-02         0.00000E+00
    0.24749E-02        -0.12477E-02         0.00000E+00
    0.24294E-02        -0.12173E-02         0.00000E+00
    0.23832E-02        -0.11868E-02         0.00000E+00
    0.23363E-02        -0.11563E-02         0.00000E+00
    0.22886E-02        -0.11259E-02         0.00000E+00
    0.22401E-02        -0.10954E-02         0.00000E+00
    0.21910E-02        -0.10650E-02         0.00000E+00
    0.21411E-02        -0.10345E-02         0.00000E+00
    0.20904E-02        -0.10040E-02         0.00000E+00
    0.20390E-02        -0.97358E-03         0.00000E+00
    0.19869E-02        -0.94312E-03         0.00000E+00
    0.19340E-02        -0.91266E-03         0.00000E+00
    0.18804E-02        -0.88221E-03         0.00000E+00
    0.18260E-02        -0.85176E-03         0.00000E+00
    0.17709E-02        -0.82131E-03         0.00000E+00
    0.17151E-02        -0.79086E-03         0.00000E+00
    0.16585E-02        -0.76041E-03         0.00000E+00
    0.16011E-02        -0.72997E-03         0.00000E+00
    0.15430E-02        -0.69953E-03         0.00000E+00
    0.14842E-02        -0.66908E-03         0.00000E+00
    0.14246E-02        -0.63865E-03         0.00000E+00
    0.13643E-02        -0.60821E-03         0.00000E+00
    0.13032E-02        -0.57778E-03         0.00000E+00
    0.12414E-02        -0.54734E-03         0.00000E+00
    0.11788E-02        -0.51691E-03         0.00000E+00
    0.11155E-02        -0.48649E-03         0.00000E+00
    0.10514E-02        -0.45606E-03         0.00000E+00
    0.98662E-03        -0.42564E-03         0.00000E+00
    0.92105E-03        -0.39522E-03         0.00000E+00
    0.85473E-03        -0.36480E-03         0.00000E+00
    0.78765E-03        -0.33439E-03         0.00000E+00
    0.71983E-03        -0.30397E-03         0.00000E+00
    0.65124E-03        -0.27356E-03         0.00000E+00
    0.58191E-03        -0.24316E-03         0.00000E+00
    0.51182E-03        -0.21275E-03         0.00000E+00
    0.44097E-03        -0.18235E-03         0.00000E+00
    0.36937E-03        -0.15195E-03         0.00000E+00
    0.29701E-03        -0.12156E-03         0.00000E+00
    0.22390E-03        -0.91162E-04         0.00000E+00
    0.15003E-03        -0.60772E-04         0.00000E+00
    0.75392E-04        -0.30384E-04         0.00000E+00
    0.00000E+00         0.00000E+00         0.00000E+00
    0.28514E-02        -0.17142E-02         0.00000E+00
    0.28126E-02        -0.16799E-02         0.00000E+00
    0.27730E-02        -0.16456E-02         0.00000E+00
    0.27327E-02        -0.16113E-02         0.00000E+00
    0.26917E-02        -0.15770E-02         0.00000E+00
    0.26499E-02        -0.15427E-02         0.00000E+00
    0.26074E-02        -0.15084E-02         0.00000E+00
    0.25641E-02        -0.14741E-02         0.00000E+00
    0.25201E-02        -0.14398E-02         0.00000E+00
    0.24754E-02        -0.14055E-02         0.00000E+00
    0.24299E-02        -0.13712E-02         0.00000E+00
    0.23837E-02        -0.13369E-02         0.00000E+00
    0.23368E-02        -0.13026E-02         0.00000E+00
    0.22891E-02        -0.12683E-02         0.00000E+00
    0.22406E-02        -0.12340E-02         0.00000E+00
    0.21915E-02        -0.11997E-02         0.00000E+00
    0.21416E-02        -0.11654E-02         0.00000E+00
    0.20909E-02        -0.11311E-02         0.00000E+00
    0.20395E-02        -0.10968E-02         0.00000E+00
    0.19873E-02        -0.10625E-02         0.00000E+00
    0.19345E-02        -0.10282E-02         0.00000E+00
    0.18808E-02        -0.99395E-03         0.00000E+00
    0.18264E-02        -0.95966E-03         0.00000E+00
    0.17713E-02        -0.92537E-03         0.00000E+00
    0.17155E-02        -0.89108E-03         0.00000E+00
    0.16589E-02        -0.85680E-03         0.00000E+00
    0.16015E-02        -0.82251E-03         0.00000E+00
    0.15434E-02        -0.78822E-03         0.00000E+00
    0.14846E-02        -0.75394E-03         0.00000E+00
    0.14250E-02        -0.71966E-03         0.00000E+00
    0.13646E-02        -0.68538E-03         0.00000E+00
    0.13035E-02        -0.65109E-03         0.00000E+00
    0.12417E-02        -0.61681E-03         0.00000E+00
    0.11791E-02        -0.58254E-03         0.00000E+00
    0.11158E-02        -0.54826E-03         0.00000E+00
    0.10517E-02        -0.51398E-03         0.00000E+00
    0.98686E-03        -0.47971E-03         0.00000E+00
    0.92127E-03        -0.44543E-03         0.00000E+00
    0.85493E-03        -0.41116E-03         0.00000E+00
    0.78784E-03        -0.37689E-03         0.00000E+00
    0.72000E-03        -0.34262E-03         0.00000E+00
    0.65140E-03        -0.30835E-03         0.00000E+00
    0.58205E-03        -0.27408E-03         0.00000E+00
    0.51194E-03        -0.23982E-03         0.00000E+00
    0.44108E-03        -0.20555E-03         0.00000E+00
    0.36946E-03        -0.17129E-03         0.00000E+00
    0.29709E-03        -0.13703E-03         0.00000E+00
    0.22395E-03        -0.10277E-03         0.00000E+00
    0.15006E-03        -0.68512E-04         0.00000E+00
    0.75410E-04        -0.34255E-04         0.00000E+00
    0.00000E+00         0.00000E+00         0.00000E+00
    0.28516E-02        -0.19064E-02         0.00000E+00
    0.28128E-02        -0.18683E-02         0.00000E+00
    0.27733E-02        -0.18302E-02         0.00000E+00
    0.27330E-02        -0.17920E-02         0.00000E+00
    0.26919E-02        -0.17539E-02         0.00000E+00
    0.26501E-02        -0.17158E-02         0.00000E+00
    0.26076E-02        -0.16776E-02         0.00000E+00
    0.25644E-02        -0.16395E-02         0.00000E+00
    0.25204E-02        -0.16014E-02         0.00000E+00
    0.24756E-02        -0.15632E-02         0.00000E+00
    0.24302E-02        -0.15251E-02         0.00000E+00
    0.23839E-02        -0.14870E-02         0.00000E+00
    0.23370E-02        -0.14489E-02         0.00000E+00
    0.22893E-02        -0.14107E-02         0.00000E+00
    0.22409E-02        -0.13726E-02         0.00000E+00
    0.21917E-02        -0.13345E-02         0.00000E+00
    0.21417E-02        -0.12963E-02         0.00000E+00
    0.20911E-02        -0.12582E-02         0.00000E+00
    0.20397E-02        -0.12201E-02         0.00000E+00
    0.19875E-02        -0.11820E-02         0.00000E+00
    0.19346E-02        -0.11438E-02         0.00000E+00
    0.18810E-02        -0.11057E-02         0.00000E+00
    0.18266E-02        -0.10676E-02         0.00000E+00
    0.17715E-02        -0.10294E-02         0.00000E+00
    0.17156E-02        -0.99132E-03         0.00000E+00
    0.16590E-02        -0.95319E-03         0.00000E+00
    0.16016E-02        -0.91506E-03         0.00000E+00
    0.15435E-02        -0.87693E-03         0.00000E+00
    0.14847E-02        -0.83880E-03         0.00000E+00
    0.14251E-02        -0.80067E-03         0.00000E+00
    0.13647E-02        -0.76255E-03         0.00000E+00
    0.13037E-02        -0.72442E-03         0.00000E+00
    0.12418E-02        -0.68629E-03         0.00000E+00
    0.11792E-02        -0.64816E-03         0.00000E+00
    0.11159E-02        -0.61003E-03         0.00000E+00
    0.10518E-02        -0.57191E-03         0.00000E+00
    0.98695E-03        -0.53378E-03         0.00000E+00
    0.92135E-03        -0.49565E-03         0.00000E+00
    0.85501E-03        -0.45752E-03         0.00000E+00
    0.78791E-03        -0.41940E-03         0.00000E+00
    0.72006E-03        -0.38127E-03         0.00000E+00
    0.65146E-03        -0.34314E-03         0.00000E+00
    0.58210E-03        -0.30501E-03         0.00000E+00
    0.51199E-03        -0.26689E-03         0.00000E+00
    0.44112E-03        -0.22876E-03         0.00000E+00
    0.36949E-03        -0.19063E-03         0.00000E+00
    0.29711E-03        -0.15251E-03         0.00000E+00
    0.22397E-03        -0.11438E-03         0.00000E+00
    0.15007E-03        -0.76253E-04         0.00000E+00
    0.75417E-04        -0.38126E-04         0.00000E+00
    0.00000E+00         0.00000E+00         0.00000E+00
    0.28516E-02        -0.20987E-02         0.00000E+00
    0.28127E-02        -0.20567E-02         0.00000E+00
    0.27732E-02        -0.20147E-02         0.00000E+00
    0.27329E-02        -0.19728E-02         0.00000E+00
    0.26918E-02        -0.19308E-02         0.00000E+00
    0.26501E-02        -0.18889E-02         0.00000E+00
    0.26075E-02        -0.18469E-02         0.00000E+00
    0.25643E-02        -0.18049E-02         0.00000E+00
    0.25203E-02        -0.17630E-02         0.00000E+00
    0.24755E-02        -0.17210E-02         0.00000E+00
    0.24301E-02        -0.16791E-02         0.00000E+00
    0.23839E-02        -0.16371E-02         0.00000E+00
    0.23369E-02        -0.15951E-02         0.00000E+00
    0.22892E-02        -0.15532E-02         0.00000E+00
    0.22408E-02        -0.15112E-02         0.00000E+00
    0.21916E-02        -0.14693E-02         0.00000E+00
    0.21417E-02        -0.14273E-02         0.00000E+00
    0.20910E-02        -0.13853E-02         0.00000E+00
    0.20396E-02        -0.13434E-02         0.00000E+00
    0.19874E-02        -0.13014E-02         0.00000E+00
    0.19345E-02        -0.12594E-02         0.00000E+00
    0.18809E-02        -0.12175E-02         0.00000E+00
    0.18265E-02        -0.11755E-02         0.00000E+00
    0.17714E-02        -0.11335E-02         0.00000E+00
    0.17155E-02        -0.10916E-02         0.00000E+00
    0.16589E-02        -0.10496E-02         0.00000E+00
    0.16016E-02        -0.10076E-02         0.00000E+00
    0.15435E-02        -0.96565E-03         0.00000E+00
    0.14846E-02        -0.92367E-03         0.00000E+00
    0.14250E-02        -0.88170E-03         0.00000E+00
    0.13647E-02        -0.83973E-03         0.00000E+00
    0.13036E-02        -0.79775E-03         0.00000E+00
    0.12417E-02        -0.75577E-03         0.00000E+00
    0.11792E-02        -0.71380E-03         0.00000E+00
    0.11158E-02        -0.67182E-03         0.00000E+00
    0.10517E-02        -0.62984E-03         0.00000E+00
    0.98689E-03        -0.58786E-03         0.00000E+00
    0.92130E-03        -0.54588E-03         0.00000E+00
    0.85496E-03        -0.50389E-03         0.00000E+00
    0.78787E-03        -0.46191E-03         0.00000E+00
    0.72002E-03        -0.41992E-03         0.00000E+00
    0.65142E-03        -0.37794E-03         0.00000E+00
    0.58207E-03        -0.33595E-03         0.00000E+00
    0.51196E-03        -0.29396E-03         0.00000E+00
    0.44109E-03        -0.25197E-03         0.00000E+00
    0.36947E-03        -0.20998E-03         0.00000E+00
    0.29710E-03        -0.16798E-03         0.00000E+00
    0.22396E-03        -0.12599E-03         0.00000E+00
    0.15007E-03        -0.83995E-04         0.00000E+00
    0.75413E-04        -0.41998E-04         0.00000E+00
    0.00000E+00         0.00000E+00         0.00000E+00
    0.28511E-02        -0.22909E-02         0.00000E+00
    0.28123E-02        -0.22451E-02         0.00000E+00
    0.27728E-02        -0.21993E-02         0.00000E+00
    0.27325E-02        -0.21536E-02         0.00000E+00
    0.26914E-02        -0.21078E-02         0.00000E+00
    0.26496E-02        -0.20620E-02         0.00000E+00
    0.26071E-02        -0.20162E-02         0.00000E+00
    0.25639E-02        -0.19704E-02         0.00000E+00
    0.25199E-02        -0.19246E-02         0.00000E+00
    0.24751E-02        -0.18788E-02         0.00000E+00
    0.24297E-02        -0.18330E-02         0.00000E+00
    0.23834E-02        -0.17872E-02         0.00000E+00
    0.23365E-02        -0.17414E-02         0.00000E+00
    0.22888E-02        -0.16956E-02         0.00000E+00
    0.22404E-02        -0.16498E-02         0.00000E+00
    0.21912E-02        -0.16040E-02         0.00000E+00
    0.21413E-02        -0.15582E-02         0.00000E+00
    0.20906E-02        -0.15124E-02         0.00000E+00
    0.20392E-02        -0.14666E-02         0.00000E+00
    0.19871E-02        -0.14208E-02         0.00000E+00
    0.19342E-02        -0.13750E-02         0.00000E+00
    0.18805E-02        -0.13292E-02         0.00000E+00
    0.18262E-02        -0.12834E-02         0.00000E+00
    0.17711E-02        -0.12376E-02         0.00000E+00
    0.17152E-02        -0.11918E-02         0.00000E+00
    0.16586E-02        -0.11460E-02         0.00000E+00
    0.16012E-02        -0.11002E-02         0.00000E+00
    0.15432E-02        -0.10544E-02         0.00000E+00
    0.14843E-02        -0.10086E-02         0.00000E+00
    0.14247E-02        -0.96274E-03         0.00000E+00
    0.13644E-02        -0.91691E-03         0.00000E+00
    0.13033E-02        -0.87109E-03         0.00000E+00
    0.12415E-02        -0.82527E-03         0.00000E+00
    0.11789E-02        -0.77944E-03         0.00000E+00
    0.11156E-02        -0.73361E-03         0.00000E+00
    0.10515E-02        -0.68778E-03         0.00000E+00
    0.98669E-03        -0.64194E-03         0.00000E+00
    0.92111E-03        -0.59611E-03         0.00000E+00
    0.85478E-03        -0.55027E-03         0.00000E+00
    0.78770E-03        -0.50443E-03         0.00000E+00
    0.71987E-03        -0.45858E-03         0.00000E+00
    0.65129E-03        -0.41274E-03         0.00000E+00
    0.58195E-03        -0.36689E-03         0.00000E+00
    0.51185E-03        -0.32104E-03         0.00000E+00
    0.44100E-03        -0.27518E-03         0.00000E+00
    0.36940E-03        -0.22932E-03         0.00000E+00
    0.29703E-03        -0.18346E-03         0.00000E+00
    0.22391E-03        -0.13760E-03         0.00000E+00
    0.15003E-03        -0.91738E-04         0.00000E+00
    0.75397E-04        -0.45870E-04         0.00000E+00
    0.00000E+00         0.00000E+00         0.00000E+00
    0.28504E-02        -0.24832E-02         0.00000E+00
    0.28116E-02        -0.24336E-02         0.00000E+00
    0.27720E-02        -0.23840E-02         0.00000E+00
    0.27317E-02        -0.23343E-02         0.00000E+00
    0.26907E-02        -0.22847E-02         0.00000E+00
    0.26489E-02        -0.22351E-02         0.00000E+00
    0.26064E-02        -0.21855E-02         0.00000E+00
    0.25631E-02        -0.21359E-02         0.00000E+00
    0.25191E-02        -0.20862E-02         0.00000E+00
    0.24744E-02        -0.20366E-02         0.00000E+00
    0.24289E-02        -0.19870E-02         0.00000E+00
    0.23827E-02        -0.19374E-02         0.00000E+00
    0.23358E-02        -0.18877E-02         0.00000E+00
    0.22881E-02        -0.18381E-02         0.00000E+00
    0.22396E-02        -0.17885E-02         0.00000E+00
    0.21905E-02        -0.17389E-02         0.00000E+00
    0.21406E-02        -0.16892E-02         0.00000E+00
    0.20899E-02        -0.16396E-02         0.00000E+00
    0.20385E-02        -0.15899E-02         0.00000E+00
    0.19864E-02        -0.15403E-02         0.00000E+00
    0.19335E-02        -0.14907E-02         0.00000E+00
    0.18799E-02        -0.14410E-02         0.00000E+00
    0.18256E-02        -0.13914E-02         0.00000E+00
    0.17705E-02        -0.13417E-02         0.00000E+00
    0.17146E-02        -0.12921E-02         0.00000E+00
    0.16580E-02        -0.12424E-02         0.00000E+00
    0.16007E-02        -0.11928E-02         0.00000E+00
    0.15426E-02        -0.11431E-02         0.00000E+00
    0.14838E-02        -0.10934E-02         0.00000E+00
    0.14242E-02        -0.10438E-02         0.00000E+00
    0.13639E-02        -0.99412E-03         0.00000E+00
    0.13029E-02        -0.94445E-03         0.00000E+00
    0.12410E-02        -0.89477E-03         0.00000E+00
    0.11785E-02        -0.84509E-03         0.00000E+00
    0.11152E-02        -0.79541E-03         0.00000E+00
    0.10511E-02        -0.74573E-03         0.00000E+00
    0.98633E-03        -0.69604E-03         0.00000E+00
    0.92078E-03        -0.64635E-03         0.00000E+00
    0.85447E-03        -0.59665E-03         0.00000E+00
    0.78742E-03        -0.54695E-03         0.00000E+00
    0.71961E-03        -0.49725E-03         0.00000E+00
    0.65105E-03        -0.44754E-03         0.00000E+00
    0.58173E-03        -0.39783E-03         0.00000E+00
    0.51167E-03        -0.34812E-03         0.00000E+00
    0.44084E-03        -0.29840E-03         0.00000E+00
    0.36926E-03        -0.24868E-03         0.00000E+00
    0.29693E-03        -0.19895E-03         0.00000E+00
    0.22383E-03        -0.14922E-03         0.00000E+00
    0.14998E-03        -0.99483E-04         0.00000E+00
    0.75370E-04        -0.49743E-04         0.00000E+00
    0.00000E+00         0.00000E+00         0.00000E+00
    0.28493E-02        -0.26755E-02         0.00000E+00
    0.28105E-02        -0.26220E-02         0.00000E+00
    0.27709E-02        -0.25686E-02         0.00000E+00
    0.27306E-02        -0.25151E-02         0.00000E+00
    0.26896E-02        -0.24617E-02         0.00000E+00
    0.26478E-02        -0.24082E-02         0.00000E+00
    0.26053E-02        -0.23548E-02         0.00000E+00
    0.25620E-02        -0.23013E-02         0.00000E+00
    0.25180E-02        -0.22479E-02         0.00000E+00
    0.24733E-02        -0.21944E-02         0.00000E+00
    0.24279E-02        -0.21410E-02         0.00000E+00
    0.23817E-02        -0.20875E-02         0.00000E+00
    0.23347E-02        -0.20341E-02         0.00000E+00
    0.22870E-02        -0.19806E-02         0.00000E+00
    0.22386E-02        -0.19271E-02         0.00000E+00
    0.21895E-02        -0.18737E-02         0.00000E+00
    0.21396E-02        -0.18202E-02         0.00000E+00
    0.20889E-02        -0.17667E-02         0.00000E+00
    0.20376E-02        -0.17133E-02         0.00000E+00
    0.19855E-02        -0.16598E-02         0.00000E+00
    0.19326E-02        -0.16063E-02         0.00000E+00
    0.18790E-02        -0.15528E-02         0.00000E+00
    0.18247E-02        -0.14993E-02         0.00000E+00
    0.17696E-02        -0.14459E-02         0.00000E+00
    0.17138E-02        -0.13924E-02         0.00000E+00
    0.16572E-02        -0.13389E-02         0.00000E+00
    0.15999E-02        -0.12854E-02         0.00000E+00
    0.15418E-02        -0.12319E-02         0.00000E+00
    0.14830E-02        -0.11784E-02         0.00000E+00
    0.14235E-02        -0.11249E-02         0.00000E+00
    0.13632E-02        -0.10713E-02         0.00000E+00
    0.13022E-02        -0.10178E-02         0.00000E+00
    0.12404E-02        -0.96429E-03         0.00000E+00
    0.11779E-02        -0.91076E-03         0.00000E+00
    0.11146E-02        -0.85723E-03         0.00000E+00
    0.10506E-02        -0.80369E-03         0.00000E+00
    0.98582E-03        -0.75015E-03         0.00000E+00
    0.92030E-03        -0.69660E-03         0.00000E+00
    0.85403E-03        -0.64305E-03         0.00000E+00
    0.78701E-03        -0.58949E-03         0.00000E+00
    0.71924E-03        -0.53593E-03         0.00000E+00
    0.65071E-03        -0.48236E-03         0.00000E+00
    0.58143E-03        -0.42879E-03         0.00000E+00
    0.51140E-03        -0.37521E-03         0.00000E+00
    0.44061E-03        -0.32162E-03         0.00000E+00
    0.36907E-03        -0.26803E-03         0.00000E+00
    0.29677E-03        -0.21444E-03         0.00000E+00
    0.22372E-03        -0.16084E-03         0.00000E+00
    0.14990E-03        -0.10723E-03         0.00000E+00
    0.75331E-04        -0.53618E-04         0.00000E+00
    0.00000E+00         0.00000E+00         0.00000E+00
    0.28478E-02        -0.28678E-02         0.00000E+00
    0.28090E-02        -0.28105E-02         0.00000E+00
    0.27694E-02        -0.27532E-02         0.00000E+00
    0.27291E-02        -0.26960E-02         0.00000E+00
    0.26881E-02        -0.26387E-02         0.00000E+00
    0.26463E-02        -0.25814E-02         0.00000E+00
    0.26038E-02        -0.25241E-02         0.00000E+00
    0.25606E-02        -0.24668E-02         0.00000E+00
    0.25166E-02        -0.24096E-02         0.00000E+00
    0.24719E-02        -0.23523E-02         0.00000E+00
    0.24264E-02        -0.22950E-02         0.00000E+00
    0.23803E-02        -0.22377E-02         0.00000E+00
    0.23333E-02        -0.21804E-02         0.00000E+00
    0.22857E-02        -0.21231E-02         0.00000E+00
    0.22373E-02        -0.20658E-02         0.00000E+00
    0.21881E-02        -0.20085E-02         0.00000E+00
    0.21383E-02        -0.19512E-02         0.00000E+00
    0.20876E-02        -0.18939E-02         0.00000E+00
    0.20363E-02        -0.18366E-02         0.00000E+00
    0.19842E-02        -0.17793E-02         0.00000E+00
    0.19314E-02        -0.17220E-02         0.00000E+00
    0.18778E-02        -0.16647E-02         0.00000E+00
    0.18235E-02        -0.16073E-02         0.00000E+00
    0.17684E-02        -0.15500E-02         0.00000E+00
    0.17127E-02        -0.14927E-02         0.00000E+00
    0.16561E-02        -0.14353E-02         0.00000E+00
    0.15988E-02        -0.13780E-02         0.00000E+00
    0.15408E-02        -0.13206E-02         0.00000E+00
    0.14821E-02        -0.12633E-02         0.00000E+00
    0.14226E-02        -0.12059E-02         0.00000E+00
    0.13623E-02        -0.11486E-02         0.00000E+00
    0.13013E-02        -0.10912E-02         0.00000E+00
    0.12396E-02        -0.10338E-02         0.00000E+00
    0.11771E-02        -0.97645E-03         0.00000E+00
    0.11139E-02        -0.91906E-03         0.00000E+00
    0.10499E-02        -0.86167E-03         0.00000E+00
    0.98515E-03        -0.80427E-03         0.00000E+00
    0.91967E-03        -0.74687E-03         0.00000E+00
    0.85345E-03        -0.68946E-03         0.00000E+00
    0.78647E-03        -0.63204E-03         0.00000E+00
    0.71874E-03        -0.57462E-03         0.00000E+00
    0.65026E-03        -0.51719E-03         0.00000E+00
    0.58103E-03        -0.45975E-03         0.00000E+00
    0.51105E-03        -0.40231E-03         0.00000E+00
    0.44031E-03        -0.34486E-03         0.00000E+00
    0.36882E-03        -0.28740E-03         0.00000E+00
    0.29657E-03        -0.22993E-03         0.00000E+00
    0.22356E-03        -0.17246E-03         0.00000E+00
    0.14980E-03        -0.11498E-03         0.00000E+00
    0.75279E-04        -0.57494E-04         0.00000E+00
    0.00000E+00         0.00000E+00         0.00000E+00
    0.28460E-02        -0.30601E-02         0.00000E+00
    0.28072E-02        -0.29990E-02         0.00000E+00
    0.27676E-02        -0.29379E-02         0.00000E+00
    0.27273E-02        -0.28768E-02         0.00000E+00
    0.26863E-02        -0.28157E-02         0.00000E+00
    0.26445E-02        -0.27546E-02         0.00000E+00
    0.26020E-02        -0.26935E-02         0.00000E+00
    0.25588E-02        -0.26324E-02         0.00000E+00
    0.25148E-02        -0.25712E-02         0.00000E+00
    0.24701E-02        -0.25101E-02         0.00000E+00
    0.24247E-02        -0.24490E-02         0.00000E+00
    0.23785E-02        -0.23879E-02         0.00000E+00
    0.23316E-02        -0.23268E-02         0.00000E+00
    0.22839E-02        -0.22656E-02         0.00000E+00
    0.22356E-02        -0.22045E-02         0.00000E+00
    0.21865E-02        -0.21434E-02         0.00000E+00
    0.21366E-02        -0.20822E-02         0.00000E+00
    0.20860E-02        -0.20211E-02         0.00000E+00
    0.20347E-02        -0.19600E-02         0.00000E+00
    0.19826E-02        -0.18988E-02         0.00000E+00
    0.19298E-02        -0.18377E-02         0.00000E+00
    0.18763E-02        -0.17765E-02         0.00000E+00
    0.18220E-02        -0.17153E-02         0.00000E+00
    0.17670E-02        -0.16542E-02         0.00000E+00
    0.17113E-02        -0.15930E-02         0.00000E+00
    0.16548E-02        -0.15318E-02         0.00000E+00
    0.15975E-02        -0.14706E-02         0.00000E+00
    0.15395E-02        -0.14094E-02         0.00000E+00
    0.14808E-02        -0.13482E-02         0.00000E+00
    0.14214E-02        -0.12870E-02         0.00000E+00
    0.13612E-02        -0.12258E-02         0.00000E+00
    0.13002E-02        -0.11646E-02         0.00000E+00
    0.12385E-02        -0.11034E-02         0.00000E+00
    0.11761E-02        -0.10422E-02         0.00000E+00
    0.11129E-02        -0.98092E-03         0.00000E+00
    0.10490E-02        -0.91967E-03         0.00000E+00
    0.98431E-03        -0.85842E-03         0.00000E+00
    0.91889E-03        -0.79715E-03         0.00000E+00
    0.85272E-03        -0.73588E-03         0.00000E+00
    0.78580E-03        -0.67461E-03         0.00000E+00
    0.71813E-03        -0.61332E-03         0.00000E+00
    0.64971E-03        -0.55203E-03         0.00000E+00
    0.58053E-03        -0.49073E-03         0.00000E+00
    0.51061E-03        -0.42942E-03         0.00000E+00
    0.43993E-03        -0.36810E-03         0.00000E+00
    0.36850E-03        -0.30677E-03         0.00000E+00
    0.29631E-03        -0.24543E-03         0.00000E+00
    0.22337E-03        -0.18409E-03         0.00000E+00
    0.14967E-03        -0.12273E-03         0.00000E+00
    0.75214E-04        -0.61372E-04         0.00000E+00
    0.00000E+00         0.00000E+00         0.00000E+00
    0.28437E-02        -0.32524E-02         0.00000E+00
    0.28049E-02        -0.31875E-02         0.00000E+00
    0.27654E-02        -0.31226E-02         0.00000E+00
    0.27251E-02        -0.30576E-02         0.00000E+00
    0.26840E-02        -0.29927E-02         0.00000E+00
    0.26423E-02        -0.29278E-02         0.00000E+00
    0.25998E-02        -0.28628E-02         0.00000E+00
    0.25566E-02        -0.27979E-02         0.00000E+00
    0.25126E-02        -0.27329E-02         0.00000E+00
    0.24679E-02        -0.26680E-02         0.00000E+00
    0.24225E-02        -0.26031E-02         0.00000E+00
    0.23763E-02        -0.25381E-02         0.00000E+00
    0.23295E-02        -0.24731E-02         0.00000E+00
    0.22818E-02        -0.24082E-02         0.00000E+00
    0.22335E-02        -0.23432E-02         0.00000E+00
    0.21844E-02        -0.22783E-02         0.00000E+00
    0.21346E-02        -0.22133E-02         0.00000E+00
    0.20840E-02        -0.21483E-02         0.00000E+00
    0.20328E-02        -0.20833E-02         0.00000E+00
    0.19807E-02        -0.20184E-02         0.00000E+00
    0.19280E-02        -0.19534E-02         0.00000E+00
    0.18745E-02        -0.18884E-02         0.00000E+00
    0.18202E-02        -0.18234E-02         0.00000E+00
    0.17653E-02        -0.17584E-02         0.00000E+00
    0.17096E-02        -0.16933E-02         0.00000E+00
    0.16531E-02        -0.16283E-02         0.00000E+00
    0.15959E-02        -0.15633E-02         0.00000E+00
    0.15380E-02        -0.14983E-02         0.00000E+00
    0.14793E-02        -0.14332E-02         0.00000E+00
    0.14199E-02        -0.13682E-02         0.00000E+00
    0.13598E-02        -0.13031E-02         0.00000E+00
    0.12989E-02        -0.12380E-02         0.00000E+00
    0.12373E-02        -0.11730E-02         0.00000E+00
    0.11749E-02        -0.11079E-02         0.00000E+00
    0.11118E-02        -0.10428E-02         0.00000E+00
    0.10479E-02        -0.97769E-03         0.00000E+00
    0.98329E-03        -0.91258E-03         0.00000E+00
    0.91794E-03        -0.84746E-03         0.00000E+00
    0.85183E-03        -0.78233E-03         0.00000E+00
    0.78498E-03        -0.71719E-03         0.00000E+00
    0.71738E-03        -0.65204E-03         0.00000E+00
    0.64903E-03        -0.58688E-03         0.00000E+00
    0.57993E-03        -0.52172E-03         0.00000E+00
    0.51008E-03        -0.45654E-03         0.00000E+00
    0.43947E-03        -0.39135E-03         0.00000E+00
    0.36811E-03        -0.32615E-03         0.00000E+00
    0.29600E-03        -0.26094E-03         0.00000E+00
    0.22314E-03        -0.19572E-03         0.00000E+00
    0.14951E-03        -0.13049E-03         0.00000E+00
    0.75136E-04        -0.65251E-04         0.00000E+00
    0.00000E+00         0.00000E+00         0.00000E+00
    0.28411E-02        -0.34448E-02         0.00000E+00
    0.28022E-02        -0.33760E-02         0.00000E+00
    0.27627E-02        -0.33073E-02         0.00000E+00
    0.27224E-02        -0.32385E-02         0.00000E+00
    0.26814E-02        -0.31697E-02         0.00000E+00
    0.26396E-02        -0.31010E-02         0.00000E+00
    0.25971E-02        -0.30322E-02         0.00000E+00
    0.25539E-02        -0.29634E-02         0.00000E+00
    0.25100E-02        -0.28947E-02         0.00000E+00
    0.24653E-02        -0.28259E-02         0.00000E+00
    0.24199E-02        -0.27571E-02         0.00000E+00
    0.23738E-02        -0.26883E-02         0.00000E+00
    0.23270E-02        -0.26196E-02         0.00000E+00
    0.22794E-02        -0.25508E-02         0.00000E+00
    0.22310E-02        -0.24820E-02         0.00000E+00
    0.21820E-02        -0.24132E-02         0.00000E+00
    0.21322E-02        -0.23444E-02         0.00000E+00
    0.20817E-02        -0.22756E-02         0.00000E+00
    0.20304E-02        -0.22068E-02         0.00000E+00
    0.19785E-02        -0.21379E-02         0.00000E+00
    0.19258E-02        -0.20691E-02         0.00000E+00
    0.18723E-02        -0.20003E-02         0.00000E+00
    0.18181E-02        -0.19314E-02         0.00000E+00
    0.17632E-02        -0.18626E-02         0.00000E+00
    0.17076E-02        -0.17937E-02         0.00000E+00
    0.16512E-02        -0.17249E-02         0.00000E+00
    0.15940E-02        -0.16560E-02         0.00000E+00
    0.15362E-02        -0.15871E-02         0.00000E+00
    0.14776E-02        -0.15182E-02         0.00000E+00
    0.14182E-02        -0.14493E-02         0.00000E+00
    0.13581E-02        -0.13804E-02         0.00000E+00
    0.12973E-02        -0.13115E-02         0.00000E+00
    0.12358E-02        -0.12426E-02         0.00000E+00
    0.11735E-02        -0.11736E-02         0.00000E+00
    0.11104E-02        -0.11047E-02         0.00000E+00
    0.10466E-02        -0.10357E-02         0.00000E+00
    0.98209E-03        -0.96676E-03         0.00000E+00
    0.91681E-03        -0.89779E-03         0.00000E+00
    0.85078E-03        -0.82880E-03         0.00000E+00
    0.78401E-03        -0.75979E-03         0.00000E+00
    0.71649E-03        -0.69078E-03         0.00000E+00
    0.64823E-03        -0.62176E-03         0.00000E+00
    0.57921E-03        -0.55272E-03         0.00000E+00
    0.50944E-03        -0.48367E-03         0.00000E+00
    0.43893E-03        -0.41461E-03         0.00000E+00
    0.36766E-03        -0.34554E-03         0.00000E+00
    0.29564E-03        -0.27646E-03         0.00000E+00
    0.22286E-03        -0.20736E-03         0.00000E+00
    0.14933E-03        -0.13825E-03         0.00000E+00
    0.75043E-04        -0.69134E-04         0.00000E+00
    0.00000E+00         0.00000E+00         0.00000E+00
    0.28379E-02        -0.36371E-02         0.00000E+00
    0.27991E-02        -0.35645E-02         0.00000E+00
    0.27596E-02        -0.34920E-02         0.00000E+00
    0.27193E-02        -0.34194E-02         0.00000E+00
    0.26783E-02        -0.33468E-02         0.00000E+00
    0.26365E-02        -0.32742E-02         0.00000E+00
    0.25941E-02        -0.32016E-02         0.00000E+00
    0.25509E-02        -0.31290E-02         0.00000E+00
    0.25069E-02        -0.30564E-02         0.00000E+00
    0.24623E-02        -0.29838E-02         0.00000E+00
    0.24169E-02        -0.29112E-02         0.00000E+00
    0.23708E-02        -0.28386E-02         0.00000E+00
    0.23240E-02        -0.27660E-02         0.00000E+00
    0.22765E-02        -0.26934E-02         0.00000E+00
    0.22282E-02        -0.26207E-02         0.00000E+00
    0.21792E-02        -0.25481E-02         0.00000E+00
    0.21294E-02        -0.24755E-02         0.00000E+00
    0.20790E-02        -0.24028E-02         0.00000E+00
    0.20278E-02        -0.23302E-02         0.00000E+00
    0.19758E-02        -0.22575E-02         0.00000E+00
    0.19232E-02        -0.21849E-02         0.00000E+00
    0.18698E-02        -0.21122E-02         0.00000E+00
    0.18157E-02        -0.20395E-02         0.00000E+00
    0.17608E-02        -0.19668E-02         0.00000E+00
    0.17052E-02        -0.18941E-02         0.00000E+00
    0.16489E-02        -0.18214E-02         0.00000E+00
    0.15918E-02        -0.17487E-02         0.00000E+00
    0.15340E-02        -0.16760E-02         0.00000E+00
    0.14755E-02        -0.16033E-02         0.00000E+00
    0.14162E-02        -0.15305E-02         0.00000E+00
    0.13562E-02        -0.14578E-02         0.00000E+00
    0.12955E-02        -0.13850E-02         0.00000E+00
    0.12340E-02        -0.13122E-02         0.00000E+00
    0.11718E-02        -0.12394E-02         0.00000E+00
    0.11088E-02        -0.11666E-02         0.00000E+00
    0.10451E-02        -0.10938E-02         0.00000E+00
    0.98068E-03        -0.10210E-02         0.00000E+00
    0.91549E-03        -0.94814E-03         0.00000E+00
    0.84956E-03        -0.87529E-03         0.00000E+00
    0.78288E-03        -0.80242E-03         0.00000E+00
    0.71546E-03        -0.72954E-03         0.00000E+00
    0.64729E-03        -0.65665E-03         0.00000E+00
    0.57837E-03        -0.58375E-03         0.00000E+00
    0.50871E-03        -0.51083E-03         0.00000E+00
    0.43829E-03        -0.43789E-03         0.00000E+00
    0.36713E-03        -0.36495E-03         0.00000E+00
    0.29521E-03        -0.29199E-03         0.00000E+00
    0.22254E-03        -0.21901E-03         0.00000E+00
    0.14911E-03        -0.14602E-03         0.00000E+00
    0.74935E-04        -0.73018E-04         0.00000E+00
    0.00000E+00         0.00000E+00         0.00000E+00
    0.28343E-02        -0.38295E-02         0.00000E+00
    0.27955E-02        -0.37531E-02         0.00000E+00
    0.27559E-02        -0.36767E-02         0.00000E+00
    0.27157E-02        -0.36003E-02         0.00000E+00
    0.26747E-02        -0.35238E-02         0.00000E+00
    0.26329E-02        -0.34474E-02         0.00000E+00
    0.25905E-02        -0.33710E-02         0.00000E+00
    0.25473E-02        -0.32946E-02         0.00000E+00
    0.25034E-02        -0.32182E-02         0.00000E+00
    0.24588E-02        -0.31417E-02         0.00000E+00
    0.24135E-02        -0.30653E-02         0.00000E+00
    0.23674E-02        -0.29889E-02         0.00000E+00
    0.23206E-02        -0.29124E-02         0.00000E+00
    0.22731E-02        -0.28360E-02         0.00000E+00
    0.22249E-02        -0.27595E-02         0.00000E+00
    0.21759E-02        -0.26831E-02         0.00000E+00
    0.21262E-02        -0.26066E-02         0.00000E+00
    0.20758E-02        -0.25301E-02         0.00000E+00
    0.20246E-02        -0.24537E-02         0.00000E+00
    0.19728E-02        -0.23772E-02         0.00000E+00
    0.19202E-02        -0.23007E-02         0.00000E+00
    0.18669E-02        -0.22242E-02         0.00000E+00
    0.18128E-02        -0.21476E-02         0.00000E+00
    0.17580E-02        -0.20711E-02         0.00000E+00
    0.17025E-02        -0.19946E-02         0.00000E+00
    0.16462E-02        -0.19180E-02         0.00000E+00
    0.15893E-02        -0.18415E-02         0.00000E+00
    0.15316E-02        -0.17649E-02         0.00000E+00
    0.14731E-02        -0.16883E-02         0.00000E+00
    0.14139E-02        -0.16117E-02         0.00000E+00
    0.13540E-02        -0.15351E-02         0.00000E+00
    0.12934E-02        -0.14585E-02         0.00000E+00
    0.12320E-02        -0.13819E-02         0.00000E+00
    0.11699E-02        -0.13052E-02         0.00000E+00
    0.11070E-02        -0.12286E-02         0.00000E+00
    0.10434E-02        -0.11519E-02         0.00000E+00
    0.97905E-03        -0.10752E-02         0.00000E+00
    0.91397E-03        -0.99852E-03         0.00000E+00
    0.84814E-03        -0.92180E-03         0.00000E+00
    0.78158E-03        -0.84507E-03         0.00000E+00
    0.71426E-03        -0.76833E-03         0.00000E+00
    0.64621E-03        -0.69157E-03         0.00000E+00
    0.57741E-03        -0.61479E-03         0.00000E+00
    0.50786E-03        -0.53800E-03         0.00000E+00
    0.43756E-03        -0.46119E-03         0.00000E+00
    0.36651E-03        -0.38437E-03         0.00000E+00
    0.29472E-03        -0.30753E-03         0.00000E+00
    0.22217E-03        -0.23067E-03         0.00000E+00
    0.14887E-03        -0.15380E-03         0.00000E+00
    0.74810E-04        -0.76907E-04         0.00000E+00
    0.00000E+00         0.00000E+00         0.00000E+00
    0.28302E-02        -0.40219E-02         0.00000E+00
    0.27913E-02        -0.39416E-02         0.00000E+00
    0.27518E-02        -0.38614E-02         0.00000E+00
    0.27115E-02        -0.37812E-02         0.00000E+00
    0.26705E-02        -0.37009E-02         0.00000E+00
    0.26288E-02        -0.36207E-02         0.00000E+00
    0.25864E-02        -0.35404E-02         0.00000E+00
    0.25433E-02        -0.34602E-02         0.00000E+00
    0.24994E-02        -0.33799E-02         0.00000E+00
    0.24548E-02        -0.32997E-02         0.00000E+00
    0.24095E-02        -0.32194E-02         0.00000E+00
    0.23635E-02        -0.31392E-02         0.00000E+00
    0.23167E-02        -0.30589E-02         0.00000E+00
    0.22693E-02        -0.29786E-02         0.00000E+00
    0.22211E-02        -0.28984E-02         0.00000E+00
    0.21722E-02        -0.28181E-02         0.00000E+00
    0.21225E-02        -0.27378E-02         0.00000E+00
    0.20722E-02        -0.26575E-02         0.00000E+00
    0.20211E-02        -0.25772E-02         0.00000E+00
    0.19693E-02        -0.24968E-02         0.00000E+00
    0.19168E-02        -0.24165E-02         0.00000E+00
    0.18635E-02        -0.23362E-02         0.00000E+00
    0.18095E-02        -0.22558E-02         0.00000E+00
    0.17548E-02        -0.21754E-02         0.00000E+00
    0.16994E-02        -0.20951E-02         0.00000E+00
    0.16432E-02        -0.20147E-02         0.00000E+00
    0.15863E-02        -0.19343E-02         0.00000E+00
    0.15287E-02        -0.18539E-02         0.00000E+00
    0.14704E-02        -0.17734E-02         0.00000E+00
    0.14113E-02        -0.16930E-02         0.00000E+00
    0.13515E-02        -0.16125E-02         0.00000E+00
    0.12909E-02        -0.15321E-02         0.00000E+00
    0.12297E-02        -0.14516E-02         0.00000E+00
    0.11676E-02        -0.13711E-02         0.00000E+00
    0.11049E-02        -0.12906E-02         0.00000E+00
    0.10414E-02        -0.12100E-02         0.00000E+00
    0.97719E-03        -0.11295E-02         0.00000E+00
    0.91223E-03        -0.10489E-02         0.00000E+00
    0.84652E-03        -0.96835E-03         0.00000E+00
    0.78008E-03        -0.88775E-03         0.00000E+00
    0.71290E-03        -0.80714E-03         0.00000E+00
    0.64497E-03        -0.72651E-03         0.00000E+00
    0.57630E-03        -0.64586E-03         0.00000E+00
    0.50688E-03        -0.56519E-03         0.00000E+00
    0.43672E-03        -0.48450E-03         0.00000E+00
    0.36581E-03        -0.40380E-03         0.00000E+00
    0.29415E-03        -0.32308E-03         0.00000E+00
    0.22174E-03        -0.24234E-03         0.00000E+00
    0.14858E-03        -0.16158E-03         0.00000E+00
    0.74667E-04        -0.80798E-04         0.00000E+00
    0.00000E+00         0.00000E+00         0.00000E+00
    0.28255E-02        -0.42142E-02         0.00000E+00
    0.27866E-02        -0.41302E-02         0.00000E+00
    0.27471E-02        -0.40461E-02         0.00000E+00
    0.27068E-02        -0.39621E-02         0.00000E+00
    0.26658E-02        -0.38780E-02         0.00000E+00
    0.26242E-02        -0.37939E-02         0.00000E+00
    0.25818E-02        -0.37099E-02         0.00000E+00
    0.25386E-02        -0.36258E-02         0.00000E+00
    0.24948E-02        -0.35417E-02         0.00000E+00
    0.24503E-02        -0.34577E-02         0.00000E+00
    0.24050E-02        -0.33736E-02         0.00000E+00
    0.23590E-02        -0.32895E-02         0.00000E+00
    0.23123E-02        -0.32054E-02         0.00000E+00
    0.22649E-02        -0.31213E-02         0.00000E+00
    0.22168E-02        -0.30372E-02         0.00000E+00
    0.21679E-02        -0.29531E-02         0.00000E+00
    0.21183E-02        -0.28690E-02         0.00000E+00
    0.20681E-02        -0.27848E-02         0.00000E+00
    0.20170E-02        -0.27007E-02         0.00000E+00
    0.19653E-02        -0.26165E-02         0.00000E+00
    0.19129E-02        -0.25324E-02         0.00000E+00
    0.18597E-02        -0.24482E-02         0.00000E+00
    0.18058E-02        -0.23640E-02         0.00000E+00
    0.17512E-02        -0.22798E-02         0.00000E+00
    0.16959E-02        -0.21956E-02         0.00000E+00
    0.16398E-02        -0.21114E-02         0.00000E+00
    0.15830E-02        -0.20271E-02         0.00000E+00
    0.15255E-02        -0.19429E-02         0.00000E+00
    0.14673E-02        -0.18586E-02         0.00000E+00
    0.14083E-02        -0.17743E-02         0.00000E+00
    0.13486E-02        -0.16900E-02         0.00000E+00
    0.12882E-02        -0.16057E-02         0.00000E+00
    0.12270E-02        -0.15213E-02         0.00000E+00
    0.11651E-02        -0.14370E-02         0.00000E+00
    0.11025E-02        -0.13526E-02         0.00000E+00
    0.10392E-02        -0.12682E-02         0.00000E+00
    0.97507E-03        -0.11838E-02         0.00000E+00
    0.91025E-03        -0.10994E-02         0.00000E+00
    0.84469E-03        -0.10149E-02         0.00000E+00
    0.77838E-03        -0.93047E-03         0.00000E+00
    0.71134E-03        -0.84598E-03         0.00000E+00
    0.64356E-03        -0.76148E-03         0.00000E+00
    0.57504E-03        -0.67695E-03         0.00000E+00
    0.50578E-03        -0.59241E-03         0.00000E+00
    0.43577E-03        -0.50784E-03         0.00000E+00
    0.36501E-03        -0.42325E-03         0.00000E+00
    0.29351E-03        -0.33864E-03         0.00000E+00
    0.22126E-03        -0.25402E-03         0.00000E+00
    0.14826E-03        -0.16937E-03         0.00000E+00
    0.74504E-04        -0.84693E-04         0.00000E+00
    0.00000E+00         0.00000E+00         0.00000E+00
    0.28201E-02        -0.44066E-02         0.00000E+00
    0.27813E-02        -0.43187E-02         0.00000E+00
    0.27417E-02        -0.42309E-02         0.00000E+00
    0.27015E-02        -0.41430E-02         0.00000E+00
    0.26605E-02        -0.40551E-02         0.00000E+00
    0.26189E-02        -0.39672E-02         0.00000E+00
    0.25765E-02        -0.38793E-02         0.00000E+00
    0.25334E-02        -0.37915E-02         0.00000E+00
    0.24896E-02        -0.37036E-02         0.00000E+00
    0.24451E-02        -0.36157E-02         0.00000E+00
    0.23999E-02        -0.35278E-02         0.00000E+00
    0.23539E-02        -0.34399E-02         0.00000E+00
    0.23073E-02        -0.33520E-02         0.00000E+00
    0.22600E-02        -0.32640E-02         0.00000E+00
    0.22119E-02        -0.31761E-02         0.00000E+00
    0.21631E-02        -0.30882E-02         0.00000E+00
    0.21136E-02        -0.30002E-02         0.00000E+00
    0.20634E-02        -0.29122E-02         0.00000E+00
    0.20125E-02        -0.28243E-02         0.00000E+00
    0.19608E-02        -0.27363E-02         0.00000E+00
    0.19085E-02        -0.26483E-02         0.00000E+00
    0.18554E-02        -0.25603E-02         0.00000E+00
    0.18016E-02        -0.24722E-02         0.00000E+00
    0.17471E-02        -0.23842E-02         0.00000E+00
    0.16919E-02        -0.22962E-02         0.00000E+00
    0.16359E-02        -0.22081E-02         0.00000E+00
    0.15793E-02        -0.21200E-02         0.00000E+00
    0.15219E-02        -0.20319E-02         0.00000E+00
    0.14638E-02        -0.19438E-02         0.00000E+00
    0.14049E-02        -0.18556E-02         0.00000E+00
    0.13454E-02        -0.17675E-02         0.00000E+00
    0.12851E-02        -0.16793E-02         0.00000E+00
    0.12240E-02        -0.15911E-02         0.00000E+00
    0.11623E-02        -0.15029E-02         0.00000E+00
    0.10998E-02        -0.14147E-02         0.00000E+00
    0.10366E-02        -0.13264E-02         0.00000E+00
    0.97268E-03        -0.12382E-02         0.00000E+00
    0.90801E-03        -0.11499E-02         0.00000E+00
    0.84260E-03        -0.10616E-02         0.00000E+00
    0.77647E-03        -0.97321E-03         0.00000E+00
    0.70959E-03        -0.88486E-03         0.00000E+00
    0.64197E-03        -0.79648E-03         0.00000E+00
    0.57362E-03        -0.70807E-03         0.00000E+00
    0.50452E-03        -0.61965E-03         0.00000E+00
    0.43469E-03        -0.53120E-03         0.00000E+00
    0.36411E-03        -0.44272E-03         0.00000E+00
    0.29278E-03        -0.35423E-03         0.00000E+00
    0.22071E-03        -0.26571E-03         0.00000E+00
    0.14789E-03        -0.17716E-03         0.00000E+00
    0.74320E-04        -0.88593E-04         0.00000E+00
    0.00000E+00         0.00000E+00         0.00000E+00
    0.28141E-02        -0.45990E-02         0.00000E+00
    0.27753E-02        -0.45073E-02         0.00000E+00
    0.27357E-02        -0.44156E-02         0.00000E+00
    0.26955E-02        -0.43239E-02         0.00000E+00
    0.26546E-02        -0.42322E-02         0.00000E+00
    0.26129E-02        -0.41405E-02         0.00000E+00
    0.25706E-02        -0.40488E-02         0.00000E+00
    0.25275E-02        -0.39571E-02         0.00000E+00
    0.24838E-02        -0.38654E-02         0.00000E+00
    0.24393E-02        -0.37737E-02         0.00000E+00
    0.23941E-02        -0.36820E-02         0.00000E+00
    0.23483E-02        -0.35903E-02         0.00000E+00
    0.23017E-02        -0.34985E-02         0.00000E+00
    0.22544E-02        -0.34068E-02         0.00000E+00
    0.22064E-02        -0.33150E-02         0.00000E+00
    0.21577E-02        -0.32233E-02         0.00000E+00
    0.21083E-02        -0.31315E-02         0.00000E+00
    0.20582E-02        -0.30397E-02         0.00000E+00
    0.20073E-02        -0.29479E-02         0.00000E+00
    0.19558E-02        -0.28561E-02         0.00000E+00
    0.19035E-02        -0.27642E-02         0.00000E+00
    0.18506E-02        -0.26724E-02         0.00000E+00
    0.17969E-02        -0.25805E-02         0.00000E+00
    0.17425E-02        -0.24887E-02         0.00000E+00
    0.16874E-02        -0.23968E-02         0.00000E+00
    0.16316E-02        -0.23049E-02         0.00000E+00
    0.15750E-02        -0.22129E-02         0.00000E+00
    0.15178E-02        -0.21210E-02         0.00000E+00
    0.14598E-02        -0.20290E-02         0.00000E+00
    0.14011E-02        -0.19370E-02         0.00000E+00
    0.13417E-02        -0.18450E-02         0.00000E+00
    0.12815E-02        -0.17530E-02         0.00000E+00
    0.12207E-02        -0.16610E-02         0.00000E+00
    0.11591E-02        -0.15689E-02         0.00000E+00
    0.10968E-02        -0.14768E-02         0.00000E+00
    0.10338E-02        -0.13847E-02         0.00000E+00
    0.96999E-03        -0.12926E-02         0.00000E+00
    0.90549E-03        -0.12004E-02         0.00000E+00
    0.84026E-03        -0.11082E-02         0.00000E+00
    0.77430E-03        -0.10160E-02         0.00000E+00
    0.70761E-03        -0.92377E-03         0.00000E+00
    0.64018E-03        -0.83151E-03         0.00000E+00
    0.57202E-03        -0.73923E-03         0.00000E+00
    0.50311E-03        -0.64692E-03         0.00000E+00
    0.43347E-03        -0.55458E-03         0.00000E+00
    0.36309E-03        -0.46222E-03         0.00000E+00
    0.29196E-03        -0.36983E-03         0.00000E+00
    0.22009E-03        -0.27741E-03         0.00000E+00
    0.14748E-03        -0.18497E-03         0.00000E+00
    0.74113E-04        -0.92498E-04         0.00000E+00
    0.00000E+00         0.00000E+00         0.00000E+00
    0.28073E-02        -0.47914E-02         0.00000E+00
    0.27685E-02        -0.46959E-02         0.00000E+00
    0.27290E-02        -0.46004E-02         0.00000E+00
    0.26888E-02        -0.45049E-02         0.00000E+00
    0.26479E-02        -0.44094E-02         0.00000E+00
    0.26062E-02        -0.43139E-02         0.00000E+00
    0.25639E-02        -0.42183E-02         0.00000E+00
    0.25209E-02        -0.41228E-02         0.00000E+00
    0.24772E-02        -0.40273E-02         0.00000E+00
    0.24328E-02        -0.39318E-02         0.00000E+00
    0.23877E-02        -0.38362E-02         0.00000E+00
    0.23419E-02        -0.37407E-02         0.00000E+00
    0.22954E-02        -0.36451E-02         0.00000E+00
    0.22481E-02        -0.35496E-02         0.00000E+00
    0.22002E-02        -0.34540E-02         0.00000E+00
    0.21516E-02        -0.33584E-02         0.00000E+00
    0.21023E-02        -0.32628E-02         0.00000E+00
    0.20523E-02        -0.31672E-02         0.00000E+00
    0.20015E-02        -0.30716E-02         0.00000E+00
    0.19501E-02        -0.29759E-02         0.00000E+00
    0.18980E-02        -0.28803E-02         0.00000E+00
    0.18451E-02        -0.27846E-02         0.00000E+00
    0.17916E-02        -0.26889E-02         0.00000E+00
    0.17373E-02        -0.25932E-02         0.00000E+00
    0.16824E-02        -0.24975E-02         0.00000E+00
    0.16267E-02        -0.24017E-02         0.00000E+00
    0.15703E-02        -0.23059E-02         0.00000E+00
    0.15132E-02        -0.22101E-02         0.00000E+00
    0.14554E-02        -0.21143E-02         0.00000E+00
    0.13968E-02        -0.20185E-02         0.00000E+00
    0.13376E-02        -0.19226E-02         0.00000E+00
    0.12776E-02        -0.18268E-02         0.00000E+00
    0.12169E-02        -0.17309E-02         0.00000E+00
    0.11555E-02        -0.16349E-02         0.00000E+00
    0.10934E-02        -0.15390E-02         0.00000E+00
    0.10305E-02        -0.14430E-02         0.00000E+00
    0.96696E-03        -0.13470E-02         0.00000E+00
    0.90266E-03        -0.12510E-02         0.00000E+00
    0.83763E-03        -0.11549E-02         0.00000E+00
    0.77188E-03        -0.10588E-02         0.00000E+00
    0.70539E-03        -0.96273E-03         0.00000E+00
    0.63817E-03        -0.86659E-03         0.00000E+00
    0.57022E-03        -0.77042E-03         0.00000E+00
    0.50153E-03        -0.67422E-03         0.00000E+00
    0.43211E-03        -0.57799E-03         0.00000E+00
    0.36195E-03        -0.48174E-03         0.00000E+00
    0.29104E-03        -0.38545E-03         0.00000E+00
    0.21940E-03        -0.28913E-03         0.00000E+00
    0.14701E-03        -0.19279E-03         0.00000E+00
    0.73880E-04        -0.96408E-04         0.00000E+00
    0.00000E+00         0.00000E+00         0.00000E+00
    0.27998E-02        -0.49837E-02         0.00000E+00
    0.27610E-02        -0.48844E-02         0.00000E+00
    0.27214E-02        -0.47851E-02         0.00000E+00
    0.26812E-02        -0.46858E-02         0.00000E+00
    0.26403E-02        -0.45865E-02         0.00000E+00
    0.25988E-02        -0.44872E-02         0.00000E+00
    0.25565E-02        -0.43879E-02         0.00000E+00
    0.25135E-02        -0.42885E-02         0.00000E+00
    0.24698E-02        -0.41892E-02         0.00000E+00
    0.24255E-02        -0.40899E-02         0.00000E+00
    0.23804E-02        -0.39905E-02         0.00000E+00
    0.23347E-02        -0.38912E-02         0.00000E+00
    0.22883E-02        -0.37918E-02         0.00000E+00
    0.22411E-02        -0.36924E-02         0.00000E+00
    0.21933E-02        -0.35930E-02         0.00000E+00
    0.21448E-02        -0.34936E-02         0.00000E+00
    0.20956E-02        -0.33942E-02         0.00000E+00
    0.20457E-02        -0.32947E-02         0.00000E+00
    0.19951E-02        -0.31953E-02         0.00000E+00
    0.19438E-02        -0.30958E-02         0.00000E+00
    0.18918E-02        -0.29963E-02         0.00000E+00
    0.18390E-02        -0.28968E-02         0.00000E+00
    0.17856E-02        -0.27973E-02         0.00000E+00
    0.17315E-02        -0.26978E-02         0.00000E+00
    0.16767E-02        -0.25982E-02         0.00000E+00
    0.16212E-02        -0.24986E-02         0.00000E+00
    0.15650E-02        -0.23990E-02         0.00000E+00
    0.15080E-02        -0.22994E-02         0.00000E+00
    0.14504E-02        -0.21997E-02         0.00000E+00
    0.13920E-02        -0.21000E-02         0.00000E+00
    0.13330E-02        -0.20003E-02         0.00000E+00
    0.12732E-02        -0.19006E-02         0.00000E+00
    0.12127E-02        -0.18008E-02         0.00000E+00
    0.11515E-02        -0.17010E-02         0.00000E+00
    0.10896E-02        -0.16012E-02         0.00000E+00
    0.10269E-02        -0.15014E-02         0.00000E+00
    0.96357E-03        -0.14015E-02         0.00000E+00
    0.89949E-03        -0.13016E-02         0.00000E+00
    0.83469E-03        -0.12017E-02         0.00000E+00
    0.76916E-03        -0.11017E-02         0.00000E+00
    0.70290E-03        -0.10017E-02         0.00000E+00
    0.63592E-03        -0.90170E-03         0.00000E+00
    0.56821E-03        -0.80165E-03         0.00000E+00
    0.49976E-03        -0.70156E-03         0.00000E+00
    0.43058E-03        -0.60144E-03         0.00000E+00
    0.36067E-03        -0.50128E-03         0.00000E+00
    0.29002E-03        -0.40109E-03         0.00000E+00
    0.21863E-03        -0.30087E-03         0.00000E+00
    0.14649E-03        -0.20061E-03         0.00000E+00
    0.73619E-04        -0.10032E-03         0.00000E+00
    0.00000E+00         0.00000E+00         0.00000E+00
    0.27913E-02        -0.51761E-02         0.00000E+00
    0.27525E-02        -0.50730E-02         0.00000E+00
    0.27130E-02        -0.49699E-02         0.00000E+00
    0.26728E-02        -0.48668E-02         0.00000E+00
    0.26320E-02        -0.47637E-02         0.00000E+00
    0.25904E-02        -0.46605E-02         0.00000E+00
    0.25482E-02        -0.45574E-02         0.00000E+00
    0.25052E-02        -0.44543E-02         0.00000E+00
    0.24616E-02        -0.43511E-02         0.00000E+00
    0.24174E-02        -0.42480E-02         0.00000E+00
    0.23724E-02        -0.41448E-02         0.00000E+00
    0.23267E-02        -0.40417E-02         0.00000E+00
    0.22804E-02        -0.39385E-02         0.00000E+00
    0.22333E-02        -0.38353E-02         0.00000E+00
    0.21856E-02        -0.37321E-02         0.00000E+00
    0.21372E-02        -0.36288E-02         0.00000E+00
    0.20881E-02        -0.35256E-02         0.00000E+00
    0.20383E-02        -0.34224E-02         0.00000E+00
    0.19878E-02        -0.33191E-02         0.00000E+00
    0.19367E-02        -0.32158E-02         0.00000E+00
    0.18848E-02        -0.31125E-02         0.00000E+00
    0.18323E-02        -0.30091E-02         0.00000E+00
    0.17790E-02        -0.29058E-02         0.00000E+00
    0.17251E-02        -0.28024E-02         0.00000E+00
    0.16704E-02        -0.26990E-02         0.00000E+00
    0.16151E-02        -0.25956E-02         0.00000E+00
    0.15590E-02        -0.24921E-02         0.00000E+00
    0.15023E-02        -0.23887E-02         0.00000E+00
    0.14448E-02        -0.22852E-02         0.00000E+00
    0.13867E-02        -0.21816E-02         0.00000E+00
    0.13278E-02        -0.20781E-02         0.00000E+00
    0.12683E-02        -0.19745E-02         0.00000E+00
    0.12080E-02        -0.18709E-02         0.00000E+00
    0.11470E-02        -0.17672E-02         0.00000E+00
    0.10853E-02        -0.16635E-02         0.00000E+00
    0.10229E-02        -0.15598E-02         0.00000E+00
    0.95979E-03        -0.14561E-02         0.00000E+00
    0.89595E-03        -0.13523E-02         0.00000E+00
    0.83140E-03        -0.12485E-02         0.00000E+00
    0.76612E-03        -0.11447E-02         0.00000E+00
    0.70013E-03        -0.10408E-02         0.00000E+00
    0.63340E-03        -0.93687E-03         0.00000E+00
    0.56596E-03        -0.83292E-03         0.00000E+00
    0.49778E-03        -0.72894E-03         0.00000E+00
    0.42888E-03        -0.62491E-03         0.00000E+00
    0.35924E-03        -0.52086E-03         0.00000E+00
    0.28887E-03        -0.41676E-03         0.00000E+00
    0.21776E-03        -0.31263E-03         0.00000E+00
    0.14591E-03        -0.20846E-03         0.00000E+00
    0.73328E-04        -0.10425E-03         0.00000E+00
    0.00000E+00         0.00000E+00         0.00000E+00
    0.27819E-02        -0.53685E-02         0.00000E+00
    0.27431E-02        -0.52616E-02         0.00000E+00
    0.27036E-02        -0.51547E-02         0.00000E+00
    0.26634E-02        -0.50478E-02         0.00000E+00
    0.26226E-02        -0.49409E-02         0.00000E+00
    0.25811E-02        -0.48339E-02         0.00000E+00
    0.25389E-02        -0.47270E-02         0.00000E+00
    0.24960E-02        -0.46201E-02         0.00000E+00
    0.24525E-02        -0.45131E-02         0.00000E+00
    0.24083E-02        -0.44062E-02         0.00000E+00
    0.23634E-02        -0.42992E-02         0.00000E+00
    0.23178E-02        -0.41922E-02         0.00000E+00
    0.22716E-02        -0.40852E-02         0.00000E+00
    0.22246E-02        -0.39782E-02         0.00000E+00
    0.21770E-02        -0.38712E-02         0.00000E+00
    0.21287E-02        -0.37642E-02         0.00000E+00
    0.20798E-02        -0.36571E-02         0.00000E+00
    0.20301E-02        -0.35500E-02         0.00000E+00
    0.19798E-02        -0.34429E-02         0.00000E+00
    0.19288E-02        -0.33358E-02         0.00000E+00
    0.18771E-02        -0.32287E-02         0.00000E+00
    0.18247E-02        -0.31215E-02         0.00000E+00
    0.17716E-02        -0.30143E-02         0.00000E+00
    0.17178E-02        -0.29071E-02         0.00000E+00
    0.16634E-02        -0.27999E-02         0.00000E+00
    0.16082E-02        -0.26926E-02         0.00000E+00
    0.15524E-02        -0.25853E-02         0.00000E+00
    0.14959E-02        -0.24780E-02         0.00000E+00
    0.14386E-02        -0.23707E-02         0.00000E+00
    0.13807E-02        -0.22633E-02         0.00000E+00
    0.13221E-02        -0.21559E-02         0.00000E+00
    0.12628E-02        -0.20485E-02         0.00000E+00
    0.12027E-02        -0.19410E-02         0.00000E+00
    0.11420E-02        -0.18335E-02         0.00000E+00
    0.10806E-02        -0.17259E-02         0.00000E+00
    0.10184E-02        -0.16183E-02         0.00000E+00
    0.95557E-03        -0.15107E-02         0.00000E+00
    0.89201E-03        -0.14031E-02         0.00000E+00
    0.82773E-03        -0.12954E-02         0.00000E+00
    0.76274E-03        -0.11877E-02         0.00000E+00
    0.69703E-03        -0.10799E-02         0.00000E+00
    0.63060E-03        -0.97209E-03         0.00000E+00
    0.56345E-03        -0.86424E-03         0.00000E+00
    0.49557E-03        -0.75636E-03         0.00000E+00
    0.42697E-03        -0.64843E-03         0.00000E+00
    0.35764E-03        -0.54047E-03         0.00000E+00
    0.28758E-03        -0.43246E-03         0.00000E+00
    0.21679E-03        -0.32441E-03         0.00000E+00
    0.14527E-03        -0.21631E-03         0.00000E+00
    0.73003E-04        -0.10818E-03         0.00000E+00
    0.00000E+00         0.00000E+00         0.00000E+00
    0.27714E-02        -0.55609E-02         0.00000E+00
    0.27326E-02        -0.54502E-02         0.00000E+00
    0.26931E-02        -0.53395E-02         0.00000E+00
    0.26530E-02        -0.52288E-02         0.00000E+00
    0.26122E-02        -0.51181E-02         0.00000E+00
    0.25707E-02        -0.50073E-02         0.00000E+00
    0.25286E-02        -0.48966E-02         0.00000E+00
    0.24858E-02        -0.47859E-02         0.00000E+00
    0.24423E-02        -0.46751E-02         0.00000E+00
    0.23982E-02        -0.45644E-02         0.00000E+00
    0.23534E-02        -0.44536E-02         0.00000E+00
    0.23079E-02        -0.43428E-02         0.00000E+00
    0.22617E-02        -0.42320E-02         0.00000E+00
    0.22149E-02        -0.41212E-02         0.00000E+00
    0.21675E-02        -0.40104E-02         0.00000E+00
    0.21193E-02        -0.38995E-02         0.00000E+00
    0.20705E-02        -0.37887E-02         0.00000E+00
    0.20210E-02        -0.36778E-02         0.00000E+00
    0.19708E-02        -0.35669E-02         0.00000E+00
    0.19200E-02        -0.34559E-02         0.00000E+00
    0.18684E-02        -0.33450E-02         0.00000E+00
    0.18162E-02        -0.32340E-02         0.00000E+00
    0.17634E-02        -0.31230E-02         0.00000E+00
    0.17098E-02        -0.30119E-02         0.00000E+00
    0.16556E-02        -0.29009E-02         0.00000E+00
    0.16006E-02        -0.27898E-02         0.00000E+00
    0.15450E-02        -0.26787E-02         0.00000E+00
    0.14887E-02        -0.25675E-02         0.00000E+00
    0.14317E-02        -0.24563E-02         0.00000E+00
    0.13741E-02        -0.23451E-02         0.00000E+00
    0.13157E-02        -0.22338E-02         0.00000E+00
    0.12566E-02        -0.21225E-02         0.00000E+00
    0.11969E-02        -0.20112E-02         0.00000E+00
    0.11364E-02        -0.18998E-02         0.00000E+00
    0.10753E-02        -0.17884E-02         0.00000E+00
    0.10134E-02        -0.16769E-02         0.00000E+00
    0.95088E-03        -0.15655E-02         0.00000E+00
    0.88761E-03        -0.14539E-02         0.00000E+00
    0.82365E-03        -0.13423E-02         0.00000E+00
    0.75897E-03        -0.12307E-02         0.00000E+00
    0.69358E-03        -0.11191E-02         0.00000E+00
    0.62747E-03        -0.10074E-02         0.00000E+00
    0.56065E-03        -0.89562E-03         0.00000E+00
    0.49311E-03        -0.78383E-03         0.00000E+00
    0.42485E-03        -0.67200E-03         0.00000E+00
    0.35587E-03        -0.56011E-03         0.00000E+00
    0.28616E-03        -0.44818E-03         0.00000E+00
    0.21572E-03        -0.33621E-03         0.00000E+00
    0.14455E-03        -0.22419E-03         0.00000E+00
    0.72641E-04        -0.11212E-03         0.00000E+00
    0.00000E+00         0.00000E+00         0.00000E+00
    0.27598E-02        -0.57533E-02         0.00000E+00
    0.27210E-02        -0.56388E-02         0.00000E+00
    0.26815E-02        -0.55243E-02         0.00000E+00
    0.26414E-02        -0.54098E-02         0.00000E+00
    0.26006E-02        -0.52953E-02         0.00000E+00
    0.25592E-02        -0.51808E-02         0.00000E+00
    0.25171E-02        -0.50663E-02         0.00000E+00
    0.24744E-02        -0.49517E-02         0.00000E+00
    0.24310E-02        -0.48372E-02         0.00000E+00
    0.23869E-02        -0.47226E-02         0.00000E+00
    0.23422E-02        -0.46081E-02         0.00000E+00
    0.22969E-02        -0.44935E-02         0.00000E+00
    0.22508E-02        -0.43789E-02         0.00000E+00
    0.22042E-02        -0.42643E-02         0.00000E+00
    0.21568E-02        -0.41496E-02         0.00000E+00
    0.21088E-02        -0.40350E-02         0.00000E+00
    0.20601E-02        -0.39203E-02         0.00000E+00
    0.20108E-02        -0.38056E-02         0.00000E+00
    0.19608E-02        -0.36909E-02         0.00000E+00
    0.19102E-02        -0.35761E-02         0.00000E+00
    0.18589E-02        -0.34614E-02         0.00000E+00
    0.18069E-02        -0.33466E-02         0.00000E+00
    0.17542E-02        -0.32317E-02         0.00000E+00
    0.17009E-02        -0.31169E-02         0.00000E+00
    0.16469E-02        -0.30020E-02         0.00000E+00
    0.15922E-02        -0.28870E-02         0.00000E+00
    0.15368E-02        -0.27721E-02         0.00000E+00
    0.14808E-02        -0.26571E-02         0.00000E+00
    0.14241E-02        -0.25420E-02         0.00000E+00
    0.13667E-02        -0.24269E-02         0.00000E+00
    0.13086E-02        -0.23118E-02         0.00000E+00
    0.12498E-02        -0.21967E-02         0.00000E+00
    0.11904E-02        -0.20815E-02         0.00000E+00
    0.11302E-02        -0.19662E-02         0.00000E+00
    0.10694E-02        -0.18510E-02         0.00000E+00
    0.10079E-02        -0.17356E-02         0.00000E+00
    0.94565E-03        -0.16203E-02         0.00000E+00
    0.88273E-03        -0.15048E-02         0.00000E+00
    0.81910E-03        -0.13894E-02         0.00000E+00
    0.75478E-03        -0.12739E-02         0.00000E+00
    0.68974E-03        -0.11583E-02         0.00000E+00
    0.62400E-03        -0.10427E-02         0.00000E+00
    0.55755E-03        -0.92706E-03         0.00000E+00
    0.49038E-03        -0.81136E-03         0.00000E+00
    0.42250E-03        -0.69561E-03         0.00000E+00
    0.35389E-03        -0.57980E-03         0.00000E+00
    0.28457E-03        -0.46395E-03         0.00000E+00
    0.21452E-03        -0.34804E-03         0.00000E+00
    0.14374E-03        -0.23208E-03         0.00000E+00
    0.72239E-04        -0.11607E-03         0.00000E+00
    0.00000E+00         0.00000E+00         0.00000E+00
    0.27468E-02        -0.59457E-02         0.00000E+00
    0.27080E-02        -0.58274E-02         0.00000E+00
    0.26686E-02        -0.57091E-02         0.00000E+00
    0.26285E-02        -0.55908E-02         0.00000E+00
    0.25877E-02        -0.54725E-02         0.00000E+00
    0.25464E-02        -0.53542E-02         0.00000E+00
    0.25043E-02        -0.52359E-02         0.00000E+00
    0.24617E-02        -0.51176E-02         0.00000E+00
    0.24184E-02        -0.49993E-02         0.00000E+00
    0.23744E-02        -0.48809E-02         0.00000E+00
    0.23298E-02        -0.47626E-02         0.00000E+00
    0.22846E-02        -0.46442E-02         0.00000E+00
    0.22387E-02        -0.45258E-02         0.00000E+00
    0.21922E-02        -0.44074E-02         0.00000E+00
    0.21450E-02        -0.42890E-02         0.00000E+00
    0.20972E-02        -0.41705E-02         0.00000E+00
    0.20487E-02        -0.40520E-02         0.00000E+00
    0.19995E-02        -0.39335E-02         0.00000E+00
    0.19497E-02        -0.38150E-02         0.00000E+00
    0.18993E-02        -0.36964E-02         0.00000E+00
    0.18482E-02        -0.35778E-02         0.00000E+00
    0.17964E-02        -0.34592E-02         0.00000E+00
    0.17440E-02        -0.33406E-02         0.00000E+00
    0.16909E-02        -0.32219E-02         0.00000E+00
    0.16372E-02        -0.31031E-02         0.00000E+00
    0.15828E-02        -0.29844E-02         0.00000E+00
    0.15277E-02        -0.28656E-02         0.00000E+00
    0.14720E-02        -0.27467E-02         0.00000E+00
    0.14156E-02        -0.26279E-02         0.00000E+00
    0.13585E-02        -0.25089E-02         0.00000E+00
    0.13007E-02        -0.23900E-02         0.00000E+00
    0.12423E-02        -0.22709E-02         0.00000E+00
    0.11832E-02        -0.21519E-02         0.00000E+00
    0.11234E-02        -0.20328E-02         0.00000E+00
    0.10629E-02        -0.19136E-02         0.00000E+00
    0.10017E-02        -0.17944E-02         0.00000E+00
    0.93985E-03        -0.16752E-02         0.00000E+00
    0.87730E-03        -0.15559E-02         0.00000E+00
    0.81406E-03        -0.14365E-02         0.00000E+00
    0.75012E-03        -0.13171E-02         0.00000E+00
    0.68548E-03        -0.11977E-02         0.00000E+00
    0.62014E-03        -0.10781E-02         0.00000E+00
    0.55409E-03        -0.95857E-03         0.00000E+00
    0.48734E-03        -0.83895E-03         0.00000E+00
    0.41988E-03        -0.71927E-03         0.00000E+00
    0.35170E-03        -0.59954E-03         0.00000E+00
    0.28280E-03        -0.47975E-03         0.00000E+00
    0.21319E-03        -0.35990E-03         0.00000E+00
    0.14285E-03        -0.23999E-03         0.00000E+00
    0.71792E-04        -0.12002E-03         0.00000E+00
    0.00000E+00         0.00000E+00         0.00000E+00
    0.27324E-02        -0.61381E-02         0.00000E+00
    0.26936E-02        -0.60160E-02         0.00000E+00
    0.26542E-02        -0.58940E-02         0.00000E+00
    0.26141E-02        -0.57719E-02         0.00000E+00
    0.25735E-02        -0.56498E-02         0.00000E+00
    0.25321E-02        -0.55278E-02         0.00000E+00
    0.24902E-02        -0.54057E-02         0.00000E+00
    0.24476E-02        -0.52836E-02         0.00000E+00
    0.24044E-02        -0.51615E-02         0.00000E+00
    0.23606E-02        -0.50393E-02         0.00000E+00
    0.23161E-02        -0.49172E-02         0.00000E+00
    0.22710E-02        -0.47950E-02         0.00000E+00
    0.22253E-02        -0.46728E-02         0.00000E+00
    0.21789E-02        -0.45506E-02         0.00000E+00
    0.21319E-02        -0.44284E-02         0.00000E+00
    0.20842E-02        -0.43062E-02         0.00000E+00
    0.20359E-02        -0.41839E-02         0.00000E+00
    0.19870E-02        -0.40616E-02         0.00000E+00
    0.19374E-02        -0.39392E-02         0.00000E+00
    0.18872E-02        -0.38169E-02         0.00000E+00
    0.18364E-02        -0.36944E-02         0.00000E+00
    0.17849E-02        -0.35720E-02         0.00000E+00
    0.17327E-02        -0.34495E-02         0.00000E+00
    0.16799E-02        -0.33270E-02         0.00000E+00
    0.16265E-02        -0.32045E-02         0.00000E+00
    0.15724E-02        -0.30819E-02         0.00000E+00
    0.15176E-02        -0.29592E-02         0.00000E+00
    0.14622E-02        -0.28365E-02         0.00000E+00
    0.14061E-02        -0.27138E-02         0.00000E+00
    0.13494E-02        -0.25910E-02         0.00000E+00
    0.12919E-02        -0.24682E-02         0.00000E+00
    0.12339E-02        -0.23453E-02         0.00000E+00
    0.11751E-02        -0.22224E-02         0.00000E+00
    0.11157E-02        -0.20994E-02         0.00000E+00
    0.10556E-02        -0.19764E-02         0.00000E+00
    0.99485E-03        -0.18533E-02         0.00000E+00
    0.93341E-03        -0.17302E-02         0.00000E+00
    0.87127E-03        -0.16070E-02         0.00000E+00
    0.80845E-03        -0.14838E-02         0.00000E+00
    0.74495E-03        -0.13604E-02         0.00000E+00
    0.68075E-03        -0.12371E-02         0.00000E+00
    0.61585E-03        -0.11136E-02         0.00000E+00
    0.55026E-03        -0.99016E-03         0.00000E+00
    0.48397E-03        -0.86661E-03         0.00000E+00
    0.41697E-03        -0.74300E-03         0.00000E+00
    0.34926E-03        -0.61933E-03         0.00000E+00
    0.28085E-03        -0.49559E-03         0.00000E+00
    0.21171E-03        -0.37179E-03         0.00000E+00
    0.14187E-03        -0.24793E-03         0.00000E+00
    0.71295E-04        -0.12400E-03         0.00000E+00
    0.00000E+00         0.00000E+00         0.00000E+00
    0.27165E-02        -0.63305E-02         0.00000E+00
    0.26777E-02        -0.62047E-02         0.00000E+00
    0.26383E-02        -0.60789E-02         0.00000E+00
    0.25982E-02        -0.59530E-02         0.00000E+00
    0.25576E-02        -0.58272E-02         0.00000E+00
    0.25164E-02        -0.57013E-02         0.00000E+00
    0.24745E-02        -0.55755E-02         0.00000E+00
    0.24320E-02        -0.54496E-02         0.00000E+00
    0.23889E-02        -0.53237E-02         0.00000E+00
    0.23452E-02        -0.51978E-02         0.00000E+00
    0.23008E-02        -0.50719E-02         0.00000E+00
    0.22559E-02        -0.49459E-02         0.00000E+00
    0.22103E-02        -0.48200E-02         0.00000E+00
    0.21641E-02        -0.46940E-02         0.00000E+00
    0.21173E-02        -0.45679E-02         0.00000E+00
    0.20699E-02        -0.44419E-02         0.00000E+00
    0.20218E-02        -0.43158E-02         0.00000E+00
    0.19731E-02        -0.41897E-02         0.00000E+00
    0.19238E-02        -0.40636E-02         0.00000E+00
    0.18738E-02        -0.39374E-02         0.00000E+00
    0.18232E-02        -0.38112E-02         0.00000E+00
    0.17720E-02        -0.36849E-02         0.00000E+00
    0.17202E-02        -0.35586E-02         0.00000E+00
    0.16677E-02        -0.34323E-02         0.00000E+00
    0.16146E-02        -0.33059E-02         0.00000E+00
    0.15608E-02        -0.31795E-02         0.00000E+00
    0.15064E-02        -0.30530E-02         0.00000E+00
    0.14513E-02        -0.29265E-02         0.00000E+00
    0.13956E-02        -0.27999E-02         0.00000E+00
    0.13392E-02        -0.26733E-02         0.00000E+00
    0.12822E-02        -0.25466E-02         0.00000E+00
    0.12246E-02        -0.24199E-02         0.00000E+00
    0.11662E-02        -0.22931E-02         0.00000E+00
    0.11072E-02        -0.21662E-02         0.00000E+00
    0.10476E-02        -0.20393E-02         0.00000E+00
    0.98726E-03        -0.19124E-02         0.00000E+00
    0.92626E-03        -0.17853E-02         0.00000E+00
    0.86459E-03        -0.16583E-02         0.00000E+00
    0.80224E-03        -0.15311E-02         0.00000E+00
    0.73921E-03        -0.14039E-02         0.00000E+00
    0.67550E-03        -0.12766E-02         0.00000E+00
    0.61110E-03        -0.11493E-02         0.00000E+00
    0.54601E-03        -0.10218E-02         0.00000E+00
    0.48023E-03        -0.89435E-03         0.00000E+00
    0.41375E-03        -0.76680E-03         0.00000E+00
    0.34656E-03        -0.63918E-03         0.00000E+00
    0.27867E-03        -0.51148E-03         0.00000E+00
    0.21008E-03        -0.38372E-03         0.00000E+00
    0.14077E-03        -0.25589E-03         0.00000E+00
    0.70744E-04        -0.12798E-03         0.00000E+00
    0.00000E+00         0.00000E+00         0.00000E+00
    0.26988E-02        -0.65230E-02         0.00000E+00
    0.26600E-02        -0.63934E-02         0.00000E+00
    0.26206E-02        -0.62638E-02         0.00000E+00
    0.25806E-02        -0.61342E-02         0.00000E+00
    0.25400E-02        -0.60046E-02         0.00000E+00
    0.24989E-02        -0.58749E-02         0.00000E+00
    0.24571E-02        -0.57453E-02         0.00000E+00
    0.24147E-02        -0.56157E-02         0.00000E+00
    0.23717E-02        -0.54860E-02         0.00000E+00
    0.23281E-02        -0.53563E-02         0.00000E+00
    0.22839E-02        -0.52266E-02         0.00000E+00
    0.22391E-02        -0.50969E-02         0.00000E+00
    0.21938E-02        -0.49672E-02         0.00000E+00
    0.21478E-02        -0.48374E-02         0.00000E+00
    0.21012E-02        -0.47076E-02         0.00000E+00
    0.20539E-02        -0.45778E-02         0.00000E+00
    0.20061E-02        -0.44479E-02         0.00000E+00
    0.19577E-02        -0.43180E-02         0.00000E+00
    0.19086E-02        -0.41881E-02         0.00000E+00
    0.18590E-02        -0.40581E-02         0.00000E+00
    0.18087E-02        -0.39281E-02         0.00000E+00
    0.17578E-02        -0.37980E-02         0.00000E+00
    0.17063E-02        -0.36679E-02         0.00000E+00
    0.16541E-02        -0.35377E-02         0.00000E+00
    0.16014E-02        -0.34075E-02         0.00000E+00
    0.15480E-02        -0.32773E-02         0.00000E+00
    0.14939E-02        -0.31470E-02         0.00000E+00
    0.14393E-02        -0.30166E-02         0.00000E+00
    0.13840E-02        -0.28862E-02         0.00000E+00
    0.13280E-02        -0.27557E-02         0.00000E+00
    0.12715E-02        -0.26252E-02         0.00000E+00
    0.12142E-02        -0.24946E-02         0.00000E+00
    0.11564E-02        -0.23639E-02         0.00000E+00
    0.10979E-02        -0.22332E-02         0.00000E+00
    0.10387E-02        -0.21024E-02         0.00000E+00
    0.97884E-03        -0.19716E-02         0.00000E+00
    0.91835E-03        -0.18406E-02         0.00000E+00
    0.85719E-03        -0.17096E-02         0.00000E+00
    0.79536E-03        -0.15786E-02         0.00000E+00
    0.73286E-03        -0.14474E-02         0.00000E+00
    0.66969E-03        -0.13162E-02         0.00000E+00
    0.60584E-03        -0.11850E-02         0.00000E+00
    0.54130E-03        -0.10536E-02         0.00000E+00
    0.47608E-03        -0.92218E-03         0.00000E+00
    0.41017E-03        -0.79067E-03         0.00000E+00
    0.34357E-03        -0.65909E-03         0.00000E+00
    0.27627E-03        -0.52743E-03         0.00000E+00
    0.20826E-03        -0.39569E-03         0.00000E+00
    0.13955E-03        -0.26387E-03         0.00000E+00
    0.70135E-04        -0.13198E-03         0.00000E+00
    0.00000E+00         0.00000E+00         0.00000E+00
    0.26792E-02        -0.67154E-02         0.00000E+00
    0.26404E-02        -0.65821E-02         0.00000E+00
    0.26010E-02        -0.64487E-02         0.00000E+00
    0.25611E-02        -0.63154E-02         0.00000E+00
    0.25206E-02        -0.61820E-02         0.00000E+00
    0.24795E-02        -0.60486E-02         0.00000E+00
    0.24378E-02        -0.59153E-02         0.00000E+00
    0.23955E-02        -0.57819E-02         0.00000E+00
    0.23526E-02        -0.56484E-02         0.00000E+00
    0.23092E-02        -0.55150E-02         0.00000E+00
    0.22652E-02        -0.53815E-02         0.00000E+00
    0.22206E-02        -0.52481E-02         0.00000E+00
    0.21754E-02        -0.51145E-02         0.00000E+00
    0.21296E-02        -0.49810E-02         0.00000E+00
    0.20833E-02        -0.48474E-02         0.00000E+00
    0.20363E-02        -0.47138E-02         0.00000E+00
    0.19887E-02        -0.45802E-02         0.00000E+00
    0.19406E-02        -0.44465E-02         0.00000E+00
    0.18919E-02        -0.43127E-02         0.00000E+00
    0.18425E-02        -0.41790E-02         0.00000E+00
    0.17926E-02        -0.40451E-02         0.00000E+00
    0.17420E-02        -0.39113E-02         0.00000E+00
    0.16909E-02        -0.37774E-02         0.00000E+00
    0.16391E-02        -0.36434E-02         0.00000E+00
    0.15867E-02        -0.35094E-02         0.00000E+00
    0.15338E-02        -0.33753E-02         0.00000E+00
    0.14802E-02        -0.32411E-02         0.00000E+00
    0.14259E-02        -0.31069E-02         0.00000E+00
    0.13711E-02        -0.29727E-02         0.00000E+00
    0.13156E-02        -0.28383E-02         0.00000E+00
    0.12595E-02        -0.27039E-02         0.00000E+00
    0.12028E-02        -0.25695E-02         0.00000E+00
    0.11455E-02        -0.24349E-02         0.00000E+00
    0.10875E-02        -0.23003E-02         0.00000E+00
    0.10288E-02        -0.21657E-02         0.00000E+00
    0.96952E-03        -0.20309E-02         0.00000E+00
    0.90958E-03        -0.18961E-02         0.00000E+00
    0.84899E-03        -0.17612E-02         0.00000E+00
    0.78774E-03        -0.16262E-02         0.00000E+00
    0.72583E-03        -0.14911E-02         0.00000E+00
    0.66326E-03        -0.13560E-02         0.00000E+00
    0.60001E-03        -0.12208E-02         0.00000E+00
    0.53609E-03        -0.10855E-02         0.00000E+00
    0.47150E-03        -0.95010E-03         0.00000E+00
    0.40622E-03        -0.81463E-03         0.00000E+00
    0.34026E-03        -0.67907E-03         0.00000E+00
    0.27361E-03        -0.54343E-03         0.00000E+00
    0.20626E-03        -0.40771E-03         0.00000E+00
    0.13821E-03        -0.27189E-03         0.00000E+00
    0.69459E-04        -0.13599E-03         0.00000E+00
    0.00000E+00         0.00000E+00         0.00000E+00
    0.26575E-02        -0.69079E-02         0.00000E+00
    0.26187E-02        -0.67708E-02         0.00000E+00
    0.25793E-02        -0.66338E-02         0.00000E+00
    0.25394E-02        -0.64967E-02         0.00000E+00
    0.24990E-02        -0.63595E-02         0.00000E+00
    0.24579E-02        -0.62224E-02         0.00000E+00
    0.24164E-02        -0.60853E-02         0.00000E+00
    0.23742E-02        -0.59481E-02         0.00000E+00
    0.23315E-02        -0.58110E-02         0.00000E+00
    0.22882E-02        -0.56738E-02         0.00000E+00
    0.22444E-02        -0.55366E-02         0.00000E+00
    0.22000E-02        -0.53993E-02         0.00000E+00
    0.21550E-02        -0.52620E-02         0.00000E+00
    0.21095E-02        -0.51247E-02         0.00000E+00
    0.20634E-02        -0.49874E-02         0.00000E+00
    0.20167E-02        -0.48500E-02         0.00000E+00
    0.19695E-02        -0.47126E-02         0.00000E+00
    0.19217E-02        -0.45751E-02         0.00000E+00
    0.18733E-02        -0.44376E-02         0.00000E+00
    0.18243E-02        -0.43000E-02         0.00000E+00
    0.17747E-02        -0.41624E-02         0.00000E+00
    0.17246E-02        -0.40247E-02         0.00000E+00
    0.16738E-02        -0.38870E-02         0.00000E+00
    0.16225E-02        -0.37492E-02         0.00000E+00
    0.15706E-02        -0.36114E-02         0.00000E+00
    0.15180E-02        -0.34735E-02         0.00000E+00
    0.14649E-02        -0.33355E-02         0.00000E+00
    0.14112E-02        -0.31974E-02         0.00000E+00
    0.13569E-02        -0.30593E-02         0.00000E+00
    0.13019E-02        -0.29211E-02         0.00000E+00
    0.12463E-02        -0.27829E-02         0.00000E+00
    0.11902E-02        -0.26446E-02         0.00000E+00
    0.11334E-02        -0.25061E-02         0.00000E+00
    0.10760E-02        -0.23677E-02         0.00000E+00
    0.10179E-02        -0.22291E-02         0.00000E+00
    0.95921E-03        -0.20904E-02         0.00000E+00
    0.89989E-03        -0.19517E-02         0.00000E+00
    0.83993E-03        -0.18129E-02         0.00000E+00
    0.77932E-03        -0.16740E-02         0.00000E+00
    0.71806E-03        -0.15350E-02         0.00000E+00
    0.65614E-03        -0.13959E-02         0.00000E+00
    0.59357E-03        -0.12567E-02         0.00000E+00
    0.53033E-03        -0.11175E-02         0.00000E+00
    0.46643E-03        -0.97813E-03         0.00000E+00
    0.40185E-03        -0.83868E-03         0.00000E+00
    0.33660E-03        -0.69914E-03         0.00000E+00
    0.27066E-03        -0.55951E-03         0.00000E+00
    0.20404E-03        -0.41978E-03         0.00000E+00
    0.13672E-03        -0.27995E-03         0.00000E+00
    0.68713E-04        -0.14002E-03         0.00000E+00
    0.00000E+00         0.00000E+00         0.00000E+00
    0.26334E-02        -0.71005E-02         0.00000E+00
    0.25946E-02        -0.69597E-02         0.00000E+00
    0.25553E-02        -0.68188E-02         0.00000E+00
    0.25154E-02        -0.66780E-02         0.00000E+00
    0.24750E-02        -0.65372E-02         0.00000E+00
    0.24341E-02        -0.63963E-02         0.00000E+00
    0.23926E-02        -0.62554E-02         0.00000E+00
    0.23506E-02        -0.61146E-02         0.00000E+00
    0.23081E-02        -0.59737E-02         0.00000E+00
    0.22650E-02        -0.58327E-02         0.00000E+00
    0.22214E-02        -0.56918E-02         0.00000E+00
    0.21772E-02        -0.55508E-02         0.00000E+00
    0.21325E-02        -0.54097E-02         0.00000E+00
    0.20872E-02        -0.52687E-02         0.00000E+00
    0.20414E-02        -0.51276E-02         0.00000E+00
    0.19951E-02        -0.49864E-02         0.00000E+00
    0.19482E-02        -0.48452E-02         0.00000E+00
    0.19007E-02        -0.47040E-02         0.00000E+00
    0.18527E-02        -0.45627E-02         0.00000E+00
    0.18041E-02        -0.44213E-02         0.00000E+00
    0.17549E-02        -0.42799E-02         0.00000E+00
    0.17052E-02        -0.41384E-02         0.00000E+00
    0.16549E-02        -0.39969E-02         0.00000E+00
    0.16041E-02        -0.38553E-02         0.00000E+00
    0.15526E-02        -0.37136E-02         0.00000E+00
    0.15006E-02        -0.35719E-02         0.00000E+00
    0.14480E-02        -0.34301E-02         0.00000E+00
    0.13949E-02        -0.32882E-02         0.00000E+00
    0.13411E-02        -0.31462E-02         0.00000E+00
    0.12867E-02        -0.30042E-02         0.00000E+00
    0.12318E-02        -0.28621E-02         0.00000E+00
    0.11762E-02        -0.27199E-02         0.00000E+00
    0.11200E-02        -0.25776E-02         0.00000E+00
    0.10632E-02        -0.24352E-02         0.00000E+00
    0.10058E-02        -0.22927E-02         0.00000E+00
    0.94782E-03        -0.21502E-02         0.00000E+00
    0.88918E-03        -0.20075E-02         0.00000E+00
    0.82991E-03        -0.18648E-02         0.00000E+00
    0.77001E-03        -0.17219E-02         0.00000E+00
    0.70947E-03        -0.15790E-02         0.00000E+00
    0.64828E-03        -0.14360E-02         0.00000E+00
    0.58645E-03        -0.12928E-02         0.00000E+00
    0.52397E-03        -0.11496E-02         0.00000E+00
    0.46083E-03        -0.10063E-02         0.00000E+00
    0.39703E-03        -0.86284E-03         0.00000E+00
    0.33255E-03        -0.71930E-03         0.00000E+00
    0.26741E-03        -0.57565E-03         0.00000E+00
    0.20159E-03        -0.43190E-03         0.00000E+00
    0.13508E-03        -0.28804E-03         0.00000E+00
    0.67889E-04        -0.14407E-03         0.00000E+00
    0.00000E+00         0.00000E+00         0.00000E+00
    0.26067E-02        -0.72931E-02         0.00000E+00
    0.25679E-02        -0.71485E-02         0.00000E+00
    0.25286E-02        -0.70040E-02         0.00000E+00
    0.24888E-02        -0.68595E-02         0.00000E+00
    0.24485E-02        -0.67149E-02         0.00000E+00
    0.24077E-02        -0.65703E-02         0.00000E+00
    0.23663E-02        -0.64257E-02         0.00000E+00
    0.23245E-02        -0.62811E-02         0.00000E+00
    0.22821E-02        -0.61365E-02         0.00000E+00
    0.22393E-02        -0.59918E-02         0.00000E+00
    0.21959E-02        -0.58471E-02         0.00000E+00
    0.21520E-02        -0.57024E-02         0.00000E+00
    0.21075E-02        -0.55576E-02         0.00000E+00
    0.20626E-02        -0.54128E-02         0.00000E+00
    0.20171E-02        -0.52679E-02         0.00000E+00
    0.19711E-02        -0.51230E-02         0.00000E+00
    0.19245E-02        -0.49781E-02         0.00000E+00
    0.18775E-02        -0.48331E-02         0.00000E+00
    0.18299E-02        -0.46880E-02         0.00000E+00
    0.17817E-02        -0.45429E-02         0.00000E+00
    0.17331E-02        -0.43977E-02         0.00000E+00
    0.16838E-02        -0.42524E-02         0.00000E+00
    0.16340E-02        -0.41071E-02         0.00000E+00
    0.15837E-02        -0.39616E-02         0.00000E+00
    0.15328E-02        -0.38162E-02         0.00000E+00
    0.14814E-02        -0.36706E-02         0.00000E+00
    0.14294E-02        -0.35250E-02         0.00000E+00
    0.13768E-02        -0.33792E-02         0.00000E+00
    0.13237E-02        -0.32334E-02         0.00000E+00
    0.12699E-02        -0.30875E-02         0.00000E+00
    0.12156E-02        -0.29415E-02         0.00000E+00
    0.11607E-02        -0.27954E-02         0.00000E+00
    0.11053E-02        -0.26493E-02         0.00000E+00
    0.10492E-02        -0.25030E-02         0.00000E+00
    0.99252E-03        -0.23566E-02         0.00000E+00
    0.93524E-03        -0.22101E-02         0.00000E+00
    0.87735E-03        -0.20636E-02         0.00000E+00
    0.81885E-03        -0.19169E-02         0.00000E+00
    0.75973E-03        -0.17701E-02         0.00000E+00
    0.69999E-03        -0.16232E-02         0.00000E+00
    0.63961E-03        -0.14762E-02         0.00000E+00
    0.57860E-03        -0.13291E-02         0.00000E+00
    0.51695E-03        -0.11819E-02         0.00000E+00
    0.45465E-03        -0.10346E-02         0.00000E+00
    0.39170E-03        -0.88711E-03         0.00000E+00
    0.32810E-03        -0.73955E-03         0.00000E+00
    0.26383E-03        -0.59188E-03         0.00000E+00
    0.19889E-03        -0.44408E-03         0.00000E+00
    0.13327E-03        -0.29618E-03         0.00000E+00
    0.66980E-04        -0.14815E-03         0.00000E+00
    0.00000E+00         0.00000E+00         0.00000E+00
    0.25771E-02        -0.74857E-02         0.00000E+00
    0.25383E-02        -0.73375E-02         0.00000E+00
    0.24990E-02        -0.71893E-02         0.00000E+00
    0.24593E-02        -0.70410E-02         0.00000E+00
    0.24191E-02        -0.68928E-02         0.00000E+00
    0.23784E-02        -0.67445E-02         0.00000E+00
    0.23372E-02        -0.65962E-02         0.00000E+00
    0.22955E-02        -0.64479E-02         0.00000E+00
    0.22534E-02        -0.62995E-02         0.00000E+00
    0.22107E-02        -0.61511E-02         0.00000E+00
    0.21676E-02        -0.60027E-02         0.00000E+00
    0.21240E-02        -0.58542E-02         0.00000E+00
    0.20799E-02        -0.57057E-02         0.00000E+00
    0.20352E-02        -0.55572E-02         0.00000E+00
    0.19901E-02        -0.54086E-02         0.00000E+00
    0.19445E-02        -0.52599E-02         0.00000E+00
    0.18984E-02        -0.51112E-02         0.00000E+00
    0.18518E-02        -0.49624E-02         0.00000E+00
    0.18047E-02        -0.48136E-02         0.00000E+00
    0.17570E-02        -0.46647E-02         0.00000E+00
    0.17088E-02        -0.45157E-02         0.00000E+00
    0.16602E-02        -0.43667E-02         0.00000E+00
    0.16109E-02        -0.42175E-02         0.00000E+00
    0.15612E-02        -0.40683E-02         0.00000E+00
    0.15109E-02        -0.39190E-02         0.00000E+00
    0.14601E-02        -0.37696E-02         0.00000E+00
    0.14088E-02        -0.36201E-02         0.00000E+00
    0.13569E-02        -0.34706E-02         0.00000E+00
    0.13044E-02        -0.33209E-02         0.00000E+00
    0.12514E-02        -0.31711E-02         0.00000E+00
    0.11978E-02        -0.30213E-02         0.00000E+00
    0.11437E-02        -0.28713E-02         0.00000E+00
    0.10890E-02        -0.27212E-02         0.00000E+00
    0.10337E-02        -0.25711E-02         0.00000E+00
    0.97782E-03        -0.24208E-02         0.00000E+00
    0.92137E-03        -0.22704E-02         0.00000E+00
    0.86431E-03        -0.21199E-02         0.00000E+00
    0.80666E-03        -0.19692E-02         0.00000E+00
    0.74840E-03        -0.18185E-02         0.00000E+00
    0.68954E-03        -0.16676E-02         0.00000E+00
    0.63005E-03        -0.15167E-02         0.00000E+00
    0.56995E-03        -0.13656E-02         0.00000E+00
    0.50921E-03        -0.12143E-02         0.00000E+00
    0.44785E-03        -0.10630E-02         0.00000E+00
    0.38584E-03        -0.91151E-03         0.00000E+00
    0.32318E-03        -0.75992E-03         0.00000E+00
    0.25988E-03        -0.60819E-03         0.00000E+00
    0.19591E-03        -0.45634E-03         0.00000E+00
    0.13128E-03        -0.30436E-03         0.00000E+00
    0.65980E-04        -0.15224E-03         0.00000E+00
    0.00000E+00         0.00000E+00         0.00000E+00
    0.25443E-02        -0.76785E-02         0.00000E+00
    0.25055E-02        -0.75266E-02         0.00000E+00
    0.24663E-02        -0.73746E-02         0.00000E+00
    0.24266E-02        -0.72227E-02         0.00000E+00
    0.23865E-02        -0.70707E-02         0.00000E+00
    0.23459E-02        -0.69188E-02         0.00000E+00
    0.23049E-02        -0.67668E-02         0.00000E+00
    0.22634E-02        -0.66148E-02         0.00000E+00
    0.22215E-02        -0.64627E-02         0.00000E+00
    0.21791E-02        -0.63106E-02         0.00000E+00
    0.21363E-02        -0.61585E-02         0.00000E+00
    0.20930E-02        -0.60063E-02         0.00000E+00
    0.20492E-02        -0.58541E-02         0.00000E+00
    0.20050E-02        -0.57018E-02         0.00000E+00
    0.19603E-02        -0.55495E-02         0.00000E+00
    0.19151E-02        -0.53971E-02         0.00000E+00
    0.18695E-02        -0.52447E-02         0.00000E+00
    0.18233E-02        -0.50921E-02         0.00000E+00
    0.17767E-02        -0.49395E-02         0.00000E+00
    0.17297E-02        -0.47868E-02         0.00000E+00
    0.16821E-02        -0.46341E-02         0.00000E+00
    0.16340E-02        -0.44812E-02         0.00000E+00
    0.15854E-02        -0.43283E-02         0.00000E+00
    0.15363E-02        -0.41753E-02         0.00000E+00
    0.14867E-02        -0.40222E-02         0.00000E+00
    0.14366E-02        -0.38690E-02         0.00000E+00
    0.13860E-02        -0.37156E-02         0.00000E+00
    0.13349E-02        -0.35622E-02         0.00000E+00
    0.12832E-02        -0.34087E-02         0.00000E+00
    0.12310E-02        -0.32551E-02         0.00000E+00
    0.11782E-02        -0.31013E-02         0.00000E+00
    0.11249E-02        -0.29475E-02         0.00000E+00
    0.10710E-02        -0.27935E-02         0.00000E+00
    0.10166E-02        -0.26394E-02         0.00000E+00
    0.96163E-03        -0.24852E-02         0.00000E+00
    0.90608E-03        -0.23309E-02         0.00000E+00
    0.84995E-03        -0.21764E-02         0.00000E+00
    0.79324E-03        -0.20218E-02         0.00000E+00
    0.73593E-03        -0.18671E-02         0.00000E+00
    0.67804E-03        -0.17123E-02         0.00000E+00
    0.61954E-03        -0.15573E-02         0.00000E+00
    0.56043E-03        -0.14022E-02         0.00000E+00
    0.50071E-03        -0.12469E-02         0.00000E+00
    0.44036E-03        -0.10916E-02         0.00000E+00
    0.37939E-03        -0.93605E-03         0.00000E+00
    0.31778E-03        -0.78040E-03         0.00000E+00
    0.25554E-03        -0.62460E-03         0.00000E+00
    0.19264E-03        -0.46867E-03         0.00000E+00
    0.12909E-03        -0.31259E-03         0.00000E+00
    0.64880E-04        -0.15637E-03         0.00000E+00
    0.00000E+00         0.00000E+00         0.00000E+00
    0.25078E-02        -0.78713E-02         0.00000E+00
    0.24690E-02        -0.77157E-02         0.00000E+00
    0.24299E-02        -0.75601E-02         0.00000E+00
    0.23903E-02        -0.74045E-02         0.00000E+00
    0.23503E-02        -0.72489E-02         0.00000E+00
    0.23098E-02        -0.70933E-02         0.00000E+00
    0.22690E-02        -0.69376E-02         0.00000E+00
    0.22278E-02        -0.67819E-02         0.00000E+00
    0.21861E-02        -0.66262E-02         0.00000E+00
    0.21440E-02        -0.64704E-02         0.00000E+00
    0.21015E-02        -0.63146E-02         0.00000E+00
    0.20586E-02        -0.61587E-02         0.00000E+00
    0.20152E-02        -0.60028E-02         0.00000E+00
    0.19714E-02        -0.58468E-02         0.00000E+00
    0.19272E-02        -0.56908E-02         0.00000E+00
    0.18826E-02        -0.55346E-02         0.00000E+00
    0.18374E-02        -0.53784E-02         0.00000E+00
    0.17919E-02        -0.52222E-02         0.00000E+00
    0.17459E-02        -0.50658E-02         0.00000E+00
    0.16994E-02        -0.49094E-02         0.00000E+00
    0.16525E-02        -0.47528E-02         0.00000E+00
    0.16051E-02        -0.45962E-02         0.00000E+00
    0.15572E-02        -0.44395E-02         0.00000E+00
    0.15089E-02        -0.42827E-02         0.00000E+00
    0.14600E-02        -0.41257E-02         0.00000E+00
    0.14107E-02        -0.39687E-02         0.00000E+00
    0.13609E-02        -0.38115E-02         0.00000E+00
    0.13106E-02        -0.36543E-02         0.00000E+00
    0.12598E-02        -0.34969E-02         0.00000E+00
    0.12084E-02        -0.33394E-02         0.00000E+00
    0.11566E-02        -0.31818E-02         0.00000E+00
    0.11042E-02        -0.30240E-02         0.00000E+00
    0.10513E-02        -0.28661E-02         0.00000E+00
    0.99782E-03        -0.27081E-02         0.00000E+00
    0.94382E-03        -0.25500E-02         0.00000E+00
    0.88926E-03        -0.23917E-02         0.00000E+00
    0.83415E-03        -0.22333E-02         0.00000E+00
    0.77848E-03        -0.20747E-02         0.00000E+00
    0.72223E-03        -0.19160E-02         0.00000E+00
    0.66540E-03        -0.17572E-02         0.00000E+00
    0.60798E-03        -0.15982E-02         0.00000E+00
    0.54997E-03        -0.14390E-02         0.00000E+00
    0.49136E-03        -0.12798E-02         0.00000E+00
    0.43215E-03        -0.11203E-02         0.00000E+00
    0.37231E-03        -0.96074E-03         0.00000E+00
    0.31186E-03        -0.80101E-03         0.00000E+00
    0.25077E-03        -0.64112E-03         0.00000E+00
    0.18905E-03        -0.48107E-03         0.00000E+00
    0.12669E-03        -0.32087E-03         0.00000E+00
    0.63674E-04        -0.16051E-03         0.00000E+00
    0.00000E+00         0.00000E+00         0.00000E+00
    0.24673E-02        -0.80642E-02         0.00000E+00
    0.24286E-02        -0.79050E-02         0.00000E+00
    0.23894E-02        -0.77457E-02         0.00000E+00
    0.23499E-02        -0.75865E-02         0.00000E+00
    0.23101E-02        -0.74272E-02         0.00000E+00
    0.22698E-02        -0.72679E-02         0.00000E+00
    0.22292E-02        -0.71086E-02         0.00000E+00
    0.21882E-02        -0.69493E-02         0.00000E+00
    0.21469E-02        -0.67899E-02         0.00000E+00
    0.21051E-02        -0.66304E-02         0.00000E+00
    0.20630E-02        -0.64709E-02         0.00000E+00
    0.20205E-02        -0.63114E-02         0.00000E+00
    0.19776E-02        -0.61518E-02         0.00000E+00
    0.19343E-02        -0.59921E-02         0.00000E+00
    0.18906E-02        -0.58323E-02         0.00000E+00
    0.18465E-02        -0.56725E-02         0.00000E+00
    0.18020E-02        -0.55126E-02         0.00000E+00
    0.17571E-02        -0.53526E-02         0.00000E+00
    0.17118E-02        -0.51925E-02         0.00000E+00
    0.16660E-02        -0.50323E-02         0.00000E+00
    0.16198E-02        -0.48720E-02         0.00000E+00
    0.15732E-02        -0.47116E-02         0.00000E+00
    0.15261E-02        -0.45510E-02         0.00000E+00
    0.14786E-02        -0.43904E-02         0.00000E+00
    0.14306E-02        -0.42297E-02         0.00000E+00
    0.13821E-02        -0.40688E-02         0.00000E+00
    0.13332E-02        -0.39078E-02         0.00000E+00
    0.12838E-02        -0.37467E-02         0.00000E+00
    0.12340E-02        -0.35855E-02         0.00000E+00
    0.11836E-02        -0.34241E-02         0.00000E+00
    0.11328E-02        -0.32626E-02         0.00000E+00
    0.10814E-02        -0.31009E-02         0.00000E+00
    0.10295E-02        -0.29391E-02         0.00000E+00
    0.97715E-03        -0.27772E-02         0.00000E+00
    0.92424E-03        -0.26151E-02         0.00000E+00
    0.87079E-03        -0.24528E-02         0.00000E+00
    0.81681E-03        -0.22904E-02         0.00000E+00
    0.76227E-03        -0.21279E-02         0.00000E+00
    0.70718E-03        -0.19652E-02         0.00000E+00
    0.65153E-03        -0.18023E-02         0.00000E+00
    0.59531E-03        -0.16393E-02         0.00000E+00
    0.53851E-03        -0.14761E-02         0.00000E+00
    0.48112E-03        -0.13128E-02         0.00000E+00
    0.42314E-03        -0.11493E-02         0.00000E+00
    0.36456E-03        -0.98559E-03         0.00000E+00
    0.30537E-03        -0.82175E-03         0.00000E+00
    0.24556E-03        -0.65774E-03         0.00000E+00
    0.18513E-03        -0.49356E-03         0.00000E+00
    0.12406E-03        -0.32921E-03         0.00000E+00
    0.62354E-04        -0.16469E-03         0.00000E+00
    0.00000E+00         0.00000E+00         0.00000E+00
    0.24223E-02        -0.82572E-02         0.00000E+00
    0.23836E-02        -0.80943E-02         0.00000E+00
    0.23445E-02        -0.79315E-02         0.00000E+00
    0.23051E-02        -0.77686E-02         0.00000E+00
    0.22654E-02        -0.76057E-02         0.00000E+00
    0.22254E-02        -0.74428E-02         0.00000E+00
    0.21850E-02        -0.72798E-02         0.00000E+00
    0.21444E-02        -0.71169E-02         0.00000E+00
    0.21033E-02        -0.69538E-02         0.00000E+00
    0.20620E-02        -0.67907E-02         0.00000E+00
    0.20203E-02        -0.66276E-02         0.00000E+00
    0.19783E-02        -0.64644E-02         0.00000E+00
    0.19359E-02        -0.63011E-02         0.00000E+00
    0.18932E-02        -0.61377E-02         0.00000E+00
    0.18501E-02        -0.59743E-02         0.00000E+00
    0.18066E-02        -0.58107E-02         0.00000E+00
    0.17628E-02        -0.56471E-02         0.00000E+00
    0.17186E-02        -0.54834E-02         0.00000E+00
    0.16740E-02        -0.53195E-02         0.00000E+00
    0.16291E-02        -0.51556E-02         0.00000E+00
    0.15837E-02        -0.49915E-02         0.00000E+00
    0.15379E-02        -0.48273E-02         0.00000E+00
    0.14917E-02        -0.46630E-02         0.00000E+00
    0.14451E-02        -0.44986E-02         0.00000E+00
    0.13981E-02        -0.43341E-02         0.00000E+00
    0.13507E-02        -0.41694E-02         0.00000E+00
    0.13028E-02        -0.40045E-02         0.00000E+00
    0.12544E-02        -0.38396E-02         0.00000E+00
    0.12056E-02        -0.36744E-02         0.00000E+00
    0.11563E-02        -0.35092E-02         0.00000E+00
    0.11066E-02        -0.33438E-02         0.00000E+00
    0.10564E-02        -0.31782E-02         0.00000E+00
    0.10057E-02        -0.30125E-02         0.00000E+00
    0.95446E-03        -0.28466E-02         0.00000E+00
    0.90275E-03        -0.26805E-02         0.00000E+00
    0.85053E-03        -0.25143E-02         0.00000E+00
    0.79779E-03        -0.23479E-02         0.00000E+00
    0.74451E-03        -0.21814E-02         0.00000E+00
    0.69070E-03        -0.20146E-02         0.00000E+00
    0.63635E-03        -0.18477E-02         0.00000E+00
    0.58144E-03        -0.16807E-02         0.00000E+00
    0.52596E-03        -0.15134E-02         0.00000E+00
    0.46992E-03        -0.13460E-02         0.00000E+00
    0.41330E-03        -0.11784E-02         0.00000E+00
    0.35608E-03        -0.10106E-02         0.00000E+00
    0.29828E-03        -0.84263E-03         0.00000E+00
    0.23986E-03        -0.67448E-03         0.00000E+00
    0.18084E-03        -0.50614E-03         0.00000E+00
    0.12119E-03        -0.33761E-03         0.00000E+00
    0.60914E-04        -0.16890E-03         0.00000E+00
    0.00000E+00         0.00000E+00         0.00000E+00
    0.23722E-02        -0.84501E-02         0.00000E+00
    0.23335E-02        -0.82837E-02         0.00000E+00
    0.22945E-02        -0.81173E-02         0.00000E+00
    0.22553E-02        -0.79508E-02         0.00000E+00
    0.22158E-02        -0.77843E-02         0.00000E+00
    0.21760E-02        -0.76178E-02         0.00000E+00
    0.21359E-02        -0.74513E-02         0.00000E+00
    0.20956E-02        -0.72847E-02         0.00000E+00
    0.20550E-02        -0.71180E-02         0.00000E+00
    0.20141E-02        -0.69513E-02         0.00000E+00
    0.19730E-02        -0.67845E-02         0.00000E+00
    0.19315E-02        -0.66176E-02         0.00000E+00
    0.18897E-02        -0.64507E-02         0.00000E+00
    0.18476E-02        -0.62837E-02         0.00000E+00
    0.18052E-02        -0.61165E-02         0.00000E+00
    0.17625E-02        -0.59493E-02         0.00000E+00
    0.17195E-02        -0.57820E-02         0.00000E+00
    0.16761E-02        -0.56145E-02         0.00000E+00
    0.16324E-02        -0.54470E-02         0.00000E+00
    0.15883E-02        -0.52793E-02         0.00000E+00
    0.15439E-02        -0.51115E-02         0.00000E+00
    0.14991E-02        -0.49435E-02         0.00000E+00
    0.14539E-02        -0.47755E-02         0.00000E+00
    0.14083E-02        -0.46072E-02         0.00000E+00
    0.13624E-02        -0.44389E-02         0.00000E+00
    0.13160E-02        -0.42704E-02         0.00000E+00
    0.12692E-02        -0.41017E-02         0.00000E+00
    0.12220E-02        -0.39329E-02         0.00000E+00
    0.11744E-02        -0.37639E-02         0.00000E+00
    0.11264E-02        -0.35947E-02         0.00000E+00
    0.10779E-02        -0.34254E-02         0.00000E+00
    0.10289E-02        -0.32559E-02         0.00000E+00
    0.97949E-03        -0.30862E-02         0.00000E+00
    0.92960E-03        -0.29164E-02         0.00000E+00
    0.87922E-03        -0.27464E-02         0.00000E+00
    0.82835E-03        -0.25761E-02         0.00000E+00
    0.77698E-03        -0.24058E-02         0.00000E+00
    0.72509E-03        -0.22352E-02         0.00000E+00
    0.67269E-03        -0.20644E-02         0.00000E+00
    0.61976E-03        -0.18935E-02         0.00000E+00
    0.56629E-03        -0.17223E-02         0.00000E+00
    0.51227E-03        -0.15510E-02         0.00000E+00
    0.45770E-03        -0.13794E-02         0.00000E+00
    0.40256E-03        -0.12077E-02         0.00000E+00
    0.34684E-03        -0.10358E-02         0.00000E+00
    0.29055E-03        -0.86366E-03         0.00000E+00
    0.23366E-03        -0.69133E-03         0.00000E+00
    0.17617E-03        -0.51880E-03         0.00000E+00
    0.11807E-03        -0.34607E-03         0.00000E+00
    0.59346E-04        -0.17314E-03         0.00000E+00
    0.00000E+00         0.00000E+00         0.00000E+00
    0.23164E-02        -0.86431E-02         0.00000E+00
    0.22777E-02        -0.84731E-02         0.00000E+00
    0.22388E-02        -0.83031E-02         0.00000E+00
    0.21998E-02        -0.81331E-02         0.00000E+00
    0.21605E-02        -0.79630E-02         0.00000E+00
    0.21211E-02        -0.77929E-02         0.00000E+00
    0.20814E-02        -0.76228E-02         0.00000E+00
    0.20415E-02        -0.74526E-02         0.00000E+00
    0.20014E-02        -0.72824E-02         0.00000E+00
    0.19610E-02        -0.71121E-02         0.00000E+00
    0.19204E-02        -0.69417E-02         0.00000E+00
    0.18796E-02        -0.67712E-02         0.00000E+00
    0.18385E-02        -0.66006E-02         0.00000E+00
    0.17972E-02        -0.64299E-02         0.00000E+00
    0.17556E-02        -0.62592E-02         0.00000E+00
    0.17137E-02        -0.60883E-02         0.00000E+00
    0.16716E-02        -0.59173E-02         0.00000E+00
    0.16291E-02        -0.57461E-02         0.00000E+00
    0.15864E-02        -0.55748E-02         0.00000E+00
    0.15433E-02        -0.54034E-02         0.00000E+00
    0.14999E-02        -0.52319E-02         0.00000E+00
    0.14562E-02        -0.50602E-02         0.00000E+00
    0.14122E-02        -0.48883E-02         0.00000E+00
    0.13678E-02        -0.47163E-02         0.00000E+00
    0.13230E-02        -0.45441E-02         0.00000E+00
    0.12779E-02        -0.43718E-02         0.00000E+00
    0.12324E-02        -0.41993E-02         0.00000E+00
    0.11865E-02        -0.40266E-02         0.00000E+00
    0.11402E-02        -0.38537E-02         0.00000E+00
    0.10935E-02        -0.36806E-02         0.00000E+00
    0.10464E-02        -0.35074E-02         0.00000E+00
    0.99883E-03        -0.33340E-02         0.00000E+00
    0.95084E-03        -0.31604E-02         0.00000E+00
    0.90239E-03        -0.29865E-02         0.00000E+00
    0.85348E-03        -0.28125E-02         0.00000E+00
    0.80411E-03        -0.26383E-02         0.00000E+00
    0.75425E-03        -0.24639E-02         0.00000E+00
    0.70389E-03        -0.22893E-02         0.00000E+00
    0.65304E-03        -0.21145E-02         0.00000E+00
    0.60167E-03        -0.19394E-02         0.00000E+00
    0.54978E-03        -0.17642E-02         0.00000E+00
    0.49736E-03        -0.15888E-02         0.00000E+00
    0.44439E-03        -0.14131E-02         0.00000E+00
    0.39088E-03        -0.12372E-02         0.00000E+00
    0.33680E-03        -0.10611E-02         0.00000E+00
    0.28215E-03        -0.88482E-03         0.00000E+00
    0.22692E-03        -0.70829E-03         0.00000E+00
    0.17109E-03        -0.53155E-03         0.00000E+00
    0.11467E-03        -0.35459E-03         0.00000E+00
    0.57646E-04        -0.17740E-03         0.00000E+00
    0.00000E+00         0.00000E+00         0.00000E+00
    0.22541E-02        -0.88358E-02         0.00000E+00
    0.22155E-02        -0.86623E-02         0.00000E+00
    0.21768E-02        -0.84888E-02         0.00000E+00
    0.21380E-02        -0.83153E-02         0.00000E+00
    0.20990E-02        -0.81417E-02         0.00000E+00
    0.20599E-02        -0.79681E-02         0.00000E+00
    0.20207E-02        -0.77944E-02         0.00000E+00
    0.19813E-02        -0.76207E-02         0.00000E+00
    0.19417E-02        -0.74469E-02         0.00000E+00
    0.19020E-02        -0.72730E-02         0.00000E+00
    0.18621E-02        -0.70990E-02         0.00000E+00
    0.18221E-02        -0.69249E-02         0.00000E+00
    0.17818E-02        -0.67508E-02         0.00000E+00
    0.17413E-02        -0.65765E-02         0.00000E+00
    0.17006E-02        -0.64020E-02         0.00000E+00
    0.16597E-02        -0.62275E-02         0.00000E+00
    0.16186E-02        -0.60528E-02         0.00000E+00
    0.15772E-02        -0.58780E-02         0.00000E+00
    0.15356E-02        -0.57030E-02         0.00000E+00
    0.14937E-02        -0.55279E-02         0.00000E+00
    0.14515E-02        -0.53526E-02         0.00000E+00
    0.14090E-02        -0.51771E-02         0.00000E+00
    0.13663E-02        -0.50015E-02         0.00000E+00
    0.13232E-02        -0.48257E-02         0.00000E+00
    0.12798E-02        -0.46497E-02         0.00000E+00
    0.12360E-02        -0.44736E-02         0.00000E+00
    0.11920E-02        -0.42972E-02         0.00000E+00
    0.11475E-02        -0.41207E-02         0.00000E+00
    0.11027E-02        -0.39439E-02         0.00000E+00
    0.10575E-02        -0.37670E-02         0.00000E+00
    0.10119E-02        -0.35898E-02         0.00000E+00
    0.96593E-03        -0.34124E-02         0.00000E+00
    0.91952E-03        -0.32349E-02         0.00000E+00
    0.87268E-03        -0.30571E-02         0.00000E+00
    0.82540E-03        -0.28791E-02         0.00000E+00
    0.77767E-03        -0.27008E-02         0.00000E+00
    0.72948E-03        -0.25224E-02         0.00000E+00
    0.68081E-03        -0.23437E-02         0.00000E+00
    0.63165E-03        -0.21648E-02         0.00000E+00
    0.58200E-03        -0.19857E-02         0.00000E+00
    0.53184E-03        -0.18063E-02         0.00000E+00
    0.48116E-03        -0.16268E-02         0.00000E+00
    0.42995E-03        -0.14469E-02         0.00000E+00
    0.37820E-03        -0.12669E-02         0.00000E+00
    0.32590E-03        -0.10866E-02         0.00000E+00
    0.27305E-03        -0.90611E-03         0.00000E+00
    0.21962E-03        -0.72536E-03         0.00000E+00
    0.16561E-03        -0.54438E-03         0.00000E+00
    0.11101E-03        -0.36316E-03         0.00000E+00
    0.55808E-04        -0.18170E-03         0.00000E+00
    0.00000E+00         0.00000E+00         0.00000E+00
    0.21845E-02        -0.90282E-02         0.00000E+00
    0.21460E-02        -0.88512E-02         0.00000E+00
    0.21076E-02        -0.86743E-02         0.00000E+00
    0.20690E-02        -0.84972E-02         0.00000E+00
    0.20305E-02        -0.83202E-02         0.00000E+00
    0.19918E-02        -0.81431E-02         0.00000E+00
    0.19531E-02        -0.79659E-02         0.00000E+00
    0.19144E-02        -0.77887E-02         0.00000E+00
    0.18755E-02        -0.76113E-02         0.00000E+00
    0.18365E-02        -0.74339E-02         0.00000E+00
    0.17974E-02        -0.72564E-02         0.00000E+00
    0.17583E-02        -0.70787E-02         0.00000E+00
    0.17189E-02        -0.69010E-02         0.00000E+00
    0.16795E-02        -0.67231E-02         0.00000E+00
    0.16398E-02        -0.65450E-02         0.00000E+00
    0.16001E-02        -0.63669E-02         0.00000E+00
    0.15601E-02        -0.61885E-02         0.00000E+00
    0.15199E-02        -0.60101E-02         0.00000E+00
    0.14796E-02        -0.58314E-02         0.00000E+00
    0.14390E-02        -0.56526E-02         0.00000E+00
    0.13982E-02        -0.54736E-02         0.00000E+00
    0.13571E-02        -0.52944E-02         0.00000E+00
    0.13158E-02        -0.51150E-02         0.00000E+00
    0.12742E-02        -0.49354E-02         0.00000E+00
    0.12323E-02        -0.47556E-02         0.00000E+00
    0.11901E-02        -0.45756E-02         0.00000E+00
    0.11476E-02        -0.43954E-02         0.00000E+00
    0.11048E-02        -0.42150E-02         0.00000E+00
    0.10617E-02        -0.40344E-02         0.00000E+00
    0.10182E-02        -0.38535E-02         0.00000E+00
    0.97427E-03        -0.36725E-02         0.00000E+00
    0.93001E-03        -0.34912E-02         0.00000E+00
    0.88536E-03        -0.33096E-02         0.00000E+00
    0.84029E-03        -0.31278E-02         0.00000E+00
    0.79481E-03        -0.29458E-02         0.00000E+00
    0.74890E-03        -0.27636E-02         0.00000E+00
    0.70254E-03        -0.25811E-02         0.00000E+00
    0.65572E-03        -0.23984E-02         0.00000E+00
    0.60843E-03        -0.22154E-02         0.00000E+00
    0.56065E-03        -0.20321E-02         0.00000E+00
    0.51239E-03        -0.18487E-02         0.00000E+00
    0.46361E-03        -0.16649E-02         0.00000E+00
    0.41432E-03        -0.14810E-02         0.00000E+00
    0.36449E-03        -0.12967E-02         0.00000E+00
    0.31413E-03        -0.11122E-02         0.00000E+00
    0.26322E-03        -0.92751E-03         0.00000E+00
    0.21174E-03        -0.74252E-03         0.00000E+00
    0.15969E-03        -0.55727E-03         0.00000E+00
    0.10705E-03        -0.37177E-03         0.00000E+00
    0.53829E-04        -0.18601E-03         0.00000E+00
    0.00000E+00         0.00000E+00         0.00000E+00
    0.21066E-02        -0.92200E-02         0.00000E+00
    0.20684E-02        -0.90396E-02         0.00000E+00
    0.20302E-02        -0.88592E-02         0.00000E+00
    0.19921E-02        -0.86787E-02         0.00000E+00
    0.19540E-02        -0.84982E-02         0.00000E+00
    0.19160E-02        -0.83177E-02         0.00000E+00
    0.18779E-02        -0.81370E-02         0.00000E+00
    0.18399E-02        -0.79563E-02         0.00000E+00
    0.18018E-02        -0.77755E-02         0.00000E+00
    0.17638E-02        -0.75946E-02         0.00000E+00
    0.17257E-02        -0.74135E-02         0.00000E+00
    0.16875E-02        -0.72323E-02         0.00000E+00
    0.16493E-02        -0.70510E-02         0.00000E+00
    0.16110E-02        -0.68696E-02         0.00000E+00
    0.15726E-02        -0.66880E-02         0.00000E+00
    0.15341E-02        -0.65062E-02         0.00000E+00
    0.14955E-02        -0.63242E-02         0.00000E+00
    0.14567E-02        -0.61421E-02         0.00000E+00
    0.14178E-02        -0.59598E-02         0.00000E+00
    0.13787E-02        -0.57773E-02         0.00000E+00
    0.13395E-02        -0.55946E-02         0.00000E+00
    0.13000E-02        -0.54117E-02         0.00000E+00
    0.12603E-02        -0.52285E-02         0.00000E+00
    0.12204E-02        -0.50452E-02         0.00000E+00
    0.11803E-02        -0.48616E-02         0.00000E+00
    0.11398E-02        -0.46778E-02         0.00000E+00
    0.10991E-02        -0.44938E-02         0.00000E+00
    0.10581E-02        -0.43095E-02         0.00000E+00
    0.10168E-02        -0.41250E-02         0.00000E+00
    0.97518E-03        -0.39403E-02         0.00000E+00
    0.93320E-03        -0.37553E-02         0.00000E+00
    0.89086E-03        -0.35700E-02         0.00000E+00
    0.84815E-03        -0.33845E-02         0.00000E+00
    0.80505E-03        -0.31988E-02         0.00000E+00
    0.76156E-03        -0.30128E-02         0.00000E+00
    0.71764E-03        -0.28265E-02         0.00000E+00
    0.67330E-03        -0.26399E-02         0.00000E+00
    0.62851E-03        -0.24531E-02         0.00000E+00
    0.58327E-03        -0.22661E-02         0.00000E+00
    0.53755E-03        -0.20787E-02         0.00000E+00
    0.49135E-03        -0.18911E-02         0.00000E+00
    0.44465E-03        -0.17032E-02         0.00000E+00
    0.39744E-03        -0.15151E-02         0.00000E+00
    0.34971E-03        -0.13266E-02         0.00000E+00
    0.30144E-03        -0.11379E-02         0.00000E+00
    0.25263E-03        -0.94897E-03         0.00000E+00
    0.20326E-03        -0.75973E-03         0.00000E+00
    0.15333E-03        -0.57021E-03         0.00000E+00
    0.10281E-03        -0.38041E-03         0.00000E+00
    0.51705E-04        -0.19034E-03         0.00000E+00
    0.00000E+00         0.00000E+00         0.00000E+00
    0.20194E-02        -0.94107E-02         0.00000E+00
    0.19815E-02        -0.92269E-02         0.00000E+00
    0.19438E-02        -0.90432E-02         0.00000E+00
    0.19062E-02        -0.88593E-02         0.00000E+00
    0.18687E-02        -0.86754E-02         0.00000E+00
    0.18314E-02        -0.84915E-02         0.00000E+00
    0.17941E-02        -0.83074E-02         0.00000E+00
    0.17570E-02        -0.81233E-02         0.00000E+00
    0.17199E-02        -0.79390E-02         0.00000E+00
    0.16829E-02        -0.77546E-02         0.00000E+00
    0.16460E-02        -0.75701E-02         0.00000E+00
    0.16091E-02        -0.73854E-02         0.00000E+00
    0.15721E-02        -0.72006E-02         0.00000E+00
    0.15352E-02        -0.70156E-02         0.00000E+00
    0.14983E-02        -0.68305E-02         0.00000E+00
    0.14613E-02        -0.66451E-02         0.00000E+00
    0.14242E-02        -0.64596E-02         0.00000E+00
    0.13871E-02        -0.62738E-02         0.00000E+00
    0.13498E-02        -0.60879E-02         0.00000E+00
    0.13125E-02        -0.59017E-02         0.00000E+00
    0.12750E-02        -0.57153E-02         0.00000E+00
    0.12373E-02        -0.55287E-02         0.00000E+00
    0.11995E-02        -0.53419E-02         0.00000E+00
    0.11615E-02        -0.51548E-02         0.00000E+00
    0.11232E-02        -0.49675E-02         0.00000E+00
    0.10848E-02        -0.47799E-02         0.00000E+00
    0.10461E-02        -0.45920E-02         0.00000E+00
    0.10071E-02        -0.44039E-02         0.00000E+00
    0.96787E-03        -0.42156E-02         0.00000E+00
    0.92832E-03        -0.40269E-02         0.00000E+00
    0.88845E-03        -0.38380E-02         0.00000E+00
    0.84825E-03        -0.36489E-02         0.00000E+00
    0.80769E-03        -0.34594E-02         0.00000E+00
    0.76677E-03        -0.32697E-02         0.00000E+00
    0.72546E-03        -0.30797E-02         0.00000E+00
    0.68375E-03        -0.28894E-02         0.00000E+00
    0.64163E-03        -0.26988E-02         0.00000E+00
    0.59907E-03        -0.25079E-02         0.00000E+00
    0.55606E-03        -0.23167E-02         0.00000E+00
    0.51259E-03        -0.21253E-02         0.00000E+00
    0.46865E-03        -0.19335E-02         0.00000E+00
    0.42421E-03        -0.17415E-02         0.00000E+00
    0.37926E-03        -0.15492E-02         0.00000E+00
    0.33380E-03        -0.13566E-02         0.00000E+00
    0.28781E-03        -0.11637E-02         0.00000E+00
    0.24127E-03        -0.97045E-03         0.00000E+00
    0.19417E-03        -0.77694E-03         0.00000E+00
    0.14651E-03        -0.58315E-03         0.00000E+00
    0.98266E-04        -0.38906E-03         0.00000E+00
    0.49433E-04        -0.19468E-03         0.00000E+00
    0.00000E+00         0.00000E+00         0.00000E+00
    0.19217E-02        -0.95998E-02         0.00000E+00
    0.18842E-02        -0.94127E-02         0.00000E+00
    0.18471E-02        -0.92257E-02         0.00000E+00
    0.18101E-02        -0.90385E-02         0.00000E+00
    0.17735E-02        -0.88513E-02         0.00000E+00
    0.17370E-02        -0.86640E-02         0.00000E+00
    0.17008E-02        -0.84766E-02         0.00000E+00
    0.16648E-02        -0.82890E-02         0.00000E+00
    0.16289E-02        -0.81014E-02         0.00000E+00
    0.15932E-02        -0.79136E-02         0.00000E+00
    0.15576E-02        -0.77256E-02         0.00000E+00
    0.15221E-02        -0.75375E-02         0.00000E+00
    0.14867E-02        -0.73492E-02         0.00000E+00
    0.14514E-02        -0.71607E-02         0.00000E+00
    0.14161E-02        -0.69721E-02         0.00000E+00
    0.13808E-02        -0.67832E-02         0.00000E+00
    0.13456E-02        -0.65941E-02         0.00000E+00
    0.13103E-02        -0.64048E-02         0.00000E+00
    0.12750E-02        -0.62152E-02         0.00000E+00
    0.12396E-02        -0.60254E-02         0.00000E+00
    0.12041E-02        -0.58354E-02         0.00000E+00
    0.11685E-02        -0.56451E-02         0.00000E+00
    0.11328E-02        -0.54546E-02         0.00000E+00
    0.10969E-02        -0.52638E-02         0.00000E+00
    0.10608E-02        -0.50727E-02         0.00000E+00
    0.10246E-02        -0.48814E-02         0.00000E+00
    0.98815E-03        -0.46897E-02         0.00000E+00
    0.95145E-03        -0.44978E-02         0.00000E+00
    0.91450E-03        -0.43056E-02         0.00000E+00
    0.87728E-03        -0.41131E-02         0.00000E+00
    0.83976E-03        -0.39204E-02         0.00000E+00
    0.80192E-03        -0.37273E-02         0.00000E+00
    0.76375E-03        -0.35339E-02         0.00000E+00
    0.72523E-03        -0.33402E-02         0.00000E+00
    0.68634E-03        -0.31462E-02         0.00000E+00
    0.64706E-03        -0.29520E-02         0.00000E+00
    0.60737E-03        -0.27574E-02         0.00000E+00
    0.56725E-03        -0.25624E-02         0.00000E+00
    0.52669E-03        -0.23672E-02         0.00000E+00
    0.48568E-03        -0.21717E-02         0.00000E+00
    0.44419E-03        -0.19758E-02         0.00000E+00
    0.40221E-03        -0.17797E-02         0.00000E+00
    0.35972E-03        -0.15832E-02         0.00000E+00
    0.31672E-03        -0.13864E-02         0.00000E+00
    0.27318E-03        -0.11893E-02         0.00000E+00
    0.22909E-03        -0.99185E-03         0.00000E+00
    0.18445E-03        -0.79411E-03         0.00000E+00
    0.13922E-03        -0.59605E-03         0.00000E+00
    0.93416E-04        -0.39768E-03         0.00000E+00
    0.47012E-04        -0.19900E-03         0.00000E+00
    0.00000E+00         0.00000E+00         0.00000E+00
    0.18120E-02        -0.97865E-02         0.00000E+00
    0.17752E-02        -0.95962E-02         0.00000E+00
    0.17388E-02        -0.94059E-02         0.00000E+00
    0.17028E-02        -0.92155E-02         0.00000E+00
    0.16671E-02        -0.90250E-02         0.00000E+00
    0.16318E-02        -0.88344E-02         0.00000E+00
    0.15968E-02        -0.86437E-02         0.00000E+00
    0.15621E-02        -0.84529E-02         0.00000E+00
    0.15277E-02        -0.82619E-02         0.00000E+00
    0.14935E-02        -0.80707E-02         0.00000E+00
    0.14596E-02        -0.78794E-02         0.00000E+00
    0.14258E-02        -0.76878E-02         0.00000E+00
    0.13922E-02        -0.74961E-02         0.00000E+00
    0.13588E-02        -0.73042E-02         0.00000E+00
    0.13254E-02        -0.71121E-02         0.00000E+00
    0.12922E-02        -0.69197E-02         0.00000E+00
    0.12590E-02        -0.67271E-02         0.00000E+00
    0.12258E-02        -0.65342E-02         0.00000E+00
    0.11927E-02        -0.63411E-02         0.00000E+00
    0.11595E-02        -0.61478E-02         0.00000E+00
    0.11263E-02        -0.59541E-02         0.00000E+00
    0.10931E-02        -0.57602E-02         0.00000E+00
    0.10597E-02        -0.55660E-02         0.00000E+00
    0.10262E-02        -0.53716E-02         0.00000E+00
    0.99264E-03        -0.51768E-02         0.00000E+00
    0.95888E-03        -0.49817E-02         0.00000E+00
    0.92493E-03        -0.47864E-02         0.00000E+00
    0.89077E-03        -0.45907E-02         0.00000E+00
    0.85638E-03        -0.43947E-02         0.00000E+00
    0.82174E-03        -0.41984E-02         0.00000E+00
    0.78682E-03        -0.40018E-02         0.00000E+00
    0.75161E-03        -0.38049E-02         0.00000E+00
    0.71607E-03        -0.36076E-02         0.00000E+00
    0.68020E-03        -0.34101E-02         0.00000E+00
    0.64396E-03        -0.32122E-02         0.00000E+00
    0.60734E-03        -0.30139E-02         0.00000E+00
    0.57033E-03        -0.28154E-02         0.00000E+00
    0.53289E-03        -0.26164E-02         0.00000E+00
    0.49501E-03        -0.24172E-02         0.00000E+00
    0.45667E-03        -0.22176E-02         0.00000E+00
    0.41786E-03        -0.20177E-02         0.00000E+00
    0.37855E-03        -0.18175E-02         0.00000E+00
    0.33874E-03        -0.16169E-02         0.00000E+00
    0.29839E-03        -0.14159E-02         0.00000E+00
    0.25751E-03        -0.12147E-02         0.00000E+00
    0.21607E-03        -0.10131E-02         0.00000E+00
    0.17405E-03        -0.81112E-03         0.00000E+00
    0.13145E-03        -0.60884E-03         0.00000E+00
    0.88247E-04        -0.40623E-03         0.00000E+00
    0.44435E-04        -0.20328E-03         0.00000E+00
    0.00000E+00         0.00000E+00         0.00000E+00
    0.16889E-02        -0.99698E-02         0.00000E+00
    0.16529E-02        -0.97763E-02         0.00000E+00
    0.16176E-02        -0.95828E-02         0.00000E+00
    0.15827E-02        -0.93893E-02         0.00000E+00
    0.15484E-02        -0.91956E-02         0.00000E+00
    0.15145E-02        -0.90018E-02         0.00000E+00
    0.14811E-02        -0.88078E-02         0.00000E+00
    0.14480E-02        -0.86137E-02         0.00000E+00
    0.14153E-02        -0.84194E-02         0.00000E+00
    0.13830E-02        -0.82249E-02         0.00000E+00
    0.13510E-02        -0.80303E-02         0.00000E+00
    0.13193E-02        -0.78354E-02         0.00000E+00
    0.12878E-02        -0.76403E-02         0.00000E+00
    0.12565E-02        -0.74450E-02         0.00000E+00
    0.12254E-02        -0.72495E-02         0.00000E+00
    0.11945E-02        -0.70537E-02         0.00000E+00
    0.11637E-02        -0.68576E-02         0.00000E+00
    0.11330E-02        -0.66613E-02         0.00000E+00
    0.11023E-02        -0.64646E-02         0.00000E+00
    0.10717E-02        -0.62678E-02         0.00000E+00
    0.10411E-02        -0.60706E-02         0.00000E+00
    0.10104E-02        -0.58731E-02         0.00000E+00
    0.97977E-03        -0.56753E-02         0.00000E+00
    0.94901E-03        -0.54773E-02         0.00000E+00
    0.91814E-03        -0.52789E-02         0.00000E+00
    0.88714E-03        -0.50802E-02         0.00000E+00
    0.85599E-03        -0.48811E-02         0.00000E+00
    0.82465E-03        -0.46818E-02         0.00000E+00
    0.79310E-03        -0.44821E-02         0.00000E+00
    0.76132E-03        -0.42821E-02         0.00000E+00
    0.72928E-03        -0.40817E-02         0.00000E+00
    0.69695E-03        -0.38810E-02         0.00000E+00
    0.66432E-03        -0.36800E-02         0.00000E+00
    0.63136E-03        -0.34786E-02         0.00000E+00
    0.59804E-03        -0.32768E-02         0.00000E+00
    0.56435E-03        -0.30747E-02         0.00000E+00
    0.53026E-03        -0.28723E-02         0.00000E+00
    0.49575E-03        -0.26695E-02         0.00000E+00
    0.46080E-03        -0.24663E-02         0.00000E+00
    0.42539E-03        -0.22628E-02         0.00000E+00
    0.38949E-03        -0.20589E-02         0.00000E+00
    0.35310E-03        -0.18546E-02         0.00000E+00
    0.31618E-03        -0.16500E-02         0.00000E+00
    0.27872E-03        -0.14450E-02         0.00000E+00
    0.24070E-03        -0.12397E-02         0.00000E+00
    0.20212E-03        -0.10339E-02         0.00000E+00
    0.16293E-03        -0.82787E-03         0.00000E+00
    0.12315E-03        -0.62144E-03         0.00000E+00
    0.82738E-04        -0.41465E-03         0.00000E+00
    0.41693E-04        -0.20750E-03         0.00000E+00
    0.00000E+00         0.00000E+00         0.00000E+00
    0.15506E-02        -0.10148E-01         0.00000E+00
    0.15159E-02        -0.99517E-02         0.00000E+00
    0.14819E-02        -0.97551E-02         0.00000E+00
    0.14486E-02        -0.95584E-02         0.00000E+00
    0.14159E-02        -0.93616E-02         0.00000E+00
    0.13838E-02        -0.91646E-02         0.00000E+00
    0.13523E-02        -0.89675E-02         0.00000E+00
    0.13212E-02        -0.87702E-02         0.00000E+00
    0.12907E-02        -0.85727E-02         0.00000E+00
    0.12606E-02        -0.83750E-02         0.00000E+00
    0.12309E-02        -0.81770E-02         0.00000E+00
    0.12015E-02        -0.79789E-02         0.00000E+00
    0.11725E-02        -0.77805E-02         0.00000E+00
    0.11438E-02        -0.75818E-02         0.00000E+00
    0.11153E-02        -0.73829E-02         0.00000E+00
    0.10870E-02        -0.71838E-02         0.00000E+00
    0.10589E-02        -0.69843E-02         0.00000E+00
    0.10310E-02        -0.67846E-02         0.00000E+00
    0.10032E-02        -0.65845E-02         0.00000E+00
    0.97544E-03        -0.63842E-02         0.00000E+00
    0.94774E-03        -0.61836E-02         0.00000E+00
    0.92006E-03        -0.59826E-02         0.00000E+00
    0.89236E-03        -0.57813E-02         0.00000E+00
    0.86462E-03        -0.55798E-02         0.00000E+00
    0.83680E-03        -0.53778E-02         0.00000E+00
    0.80888E-03        -0.51756E-02         0.00000E+00
    0.78082E-03        -0.49730E-02         0.00000E+00
    0.75259E-03        -0.47701E-02         0.00000E+00
    0.72418E-03        -0.45668E-02         0.00000E+00
    0.69555E-03        -0.43632E-02         0.00000E+00
    0.66667E-03        -0.41592E-02         0.00000E+00
    0.63753E-03        -0.39548E-02         0.00000E+00
    0.60808E-03        -0.37501E-02         0.00000E+00
    0.57832E-03        -0.35450E-02         0.00000E+00
    0.54820E-03        -0.33396E-02         0.00000E+00
    0.51772E-03        -0.31338E-02         0.00000E+00
    0.48683E-03        -0.29275E-02         0.00000E+00
    0.45552E-03        -0.27210E-02         0.00000E+00
    0.42377E-03        -0.25140E-02         0.00000E+00
    0.39155E-03        -0.23066E-02         0.00000E+00
    0.35884E-03        -0.20989E-02         0.00000E+00
    0.32561E-03        -0.18907E-02         0.00000E+00
    0.29185E-03        -0.16822E-02         0.00000E+00
    0.25752E-03        -0.14733E-02         0.00000E+00
    0.22262E-03        -0.12640E-02         0.00000E+00
    0.18712E-03        -0.10543E-02         0.00000E+00
    0.15101E-03        -0.84420E-03         0.00000E+00
    0.11425E-03        -0.63372E-03         0.00000E+00
    0.76844E-04        -0.42286E-03         0.00000E+00
    0.38765E-04        -0.21162E-03         0.00000E+00
    0.00000E+00         0.00000E+00         0.00000E+00
    0.13955E-02        -0.10320E-01         0.00000E+00
    0.13624E-02        -0.10120E-01         0.00000E+00
    0.13302E-02        -0.99208E-02         0.00000E+00
    0.12989E-02        -0.97211E-02         0.00000E+00
    0.12683E-02        -0.95212E-02         0.00000E+00
    0.12384E-02        -0.93211E-02         0.00000E+00
    0.12092E-02        -0.91209E-02         0.00000E+00
    0.11806E-02        -0.89205E-02         0.00000E+00
    0.11526E-02        -0.87198E-02         0.00000E+00
    0.11252E-02        -0.85189E-02         0.00000E+00
    0.10982E-02        -0.83178E-02         0.00000E+00
    0.10717E-02        -0.81164E-02         0.00000E+00
    0.10455E-02        -0.79148E-02         0.00000E+00
    0.10197E-02        -0.77129E-02         0.00000E+00
    0.99425E-03        -0.75107E-02         0.00000E+00
    0.96904E-03        -0.73082E-02         0.00000E+00
    0.94406E-03        -0.71055E-02         0.00000E+00
    0.91927E-03        -0.69024E-02         0.00000E+00
    0.89463E-03        -0.66990E-02         0.00000E+00
    0.87010E-03        -0.64954E-02         0.00000E+00
    0.84566E-03        -0.62914E-02         0.00000E+00
    0.82126E-03        -0.60871E-02         0.00000E+00
    0.79687E-03        -0.58824E-02         0.00000E+00
    0.77246E-03        -0.56775E-02         0.00000E+00
    0.74800E-03        -0.54722E-02         0.00000E+00
    0.72346E-03        -0.52665E-02         0.00000E+00
    0.69880E-03        -0.50605E-02         0.00000E+00
    0.67399E-03        -0.48542E-02         0.00000E+00
    0.64901E-03        -0.46475E-02         0.00000E+00
    0.62383E-03        -0.44404E-02         0.00000E+00
    0.59842E-03        -0.42330E-02         0.00000E+00
    0.57275E-03        -0.40251E-02         0.00000E+00
    0.54679E-03        -0.38170E-02         0.00000E+00
    0.52051E-03        -0.36084E-02         0.00000E+00
    0.49390E-03        -0.33994E-02         0.00000E+00
    0.46691E-03        -0.31900E-02         0.00000E+00
    0.43953E-03        -0.29803E-02         0.00000E+00
    0.41172E-03        -0.27701E-02         0.00000E+00
    0.38347E-03        -0.25595E-02         0.00000E+00
    0.35473E-03        -0.23485E-02         0.00000E+00
    0.32550E-03        -0.21371E-02         0.00000E+00
    0.29573E-03        -0.19253E-02         0.00000E+00
    0.26542E-03        -0.17131E-02         0.00000E+00
    0.23452E-03        -0.15004E-02         0.00000E+00
    0.20302E-03        -0.12873E-02         0.00000E+00
    0.17089E-03        -0.10738E-02         0.00000E+00
    0.13810E-03        -0.85990E-03         0.00000E+00
    0.10464E-03        -0.64555E-03         0.00000E+00
    0.70487E-04        -0.43078E-03         0.00000E+00
    0.35613E-04        -0.21559E-03         0.00000E+00
    0.00000E+00         0.00000E+00         0.00000E+00
    0.12215E-02        -0.10482E-01         0.00000E+00
    0.11907E-02        -0.10280E-01         0.00000E+00
    0.11608E-02        -0.10078E-01         0.00000E+00
    0.11320E-02        -0.98748E-02         0.00000E+00
    0.11040E-02        -0.96720E-02         0.00000E+00
    0.10769E-02        -0.94689E-02         0.00000E+00
    0.10506E-02        -0.92657E-02         0.00000E+00
    0.10250E-02        -0.90622E-02         0.00000E+00
    0.10001E-02        -0.88584E-02         0.00000E+00
    0.97582E-03        -0.86544E-02         0.00000E+00
    0.95207E-03        -0.84502E-02         0.00000E+00
    0.92881E-03        -0.82456E-02         0.00000E+00
    0.90601E-03        -0.80408E-02         0.00000E+00
    0.88361E-03        -0.78358E-02         0.00000E+00
    0.86155E-03        -0.76304E-02         0.00000E+00
    0.83980E-03        -0.74247E-02         0.00000E+00
    0.81831E-03        -0.72188E-02         0.00000E+00
    0.79704E-03        -0.70125E-02         0.00000E+00
    0.77595E-03        -0.68059E-02         0.00000E+00
    0.75499E-03        -0.65991E-02         0.00000E+00
    0.73413E-03        -0.63919E-02         0.00000E+00
    0.71334E-03        -0.61844E-02         0.00000E+00
    0.69258E-03        -0.59765E-02         0.00000E+00
    0.67181E-03        -0.57684E-02         0.00000E+00
    0.65101E-03        -0.55599E-02         0.00000E+00
    0.63014E-03        -0.53510E-02         0.00000E+00
    0.60917E-03        -0.51418E-02         0.00000E+00
    0.58808E-03        -0.49323E-02         0.00000E+00
    0.56682E-03        -0.47224E-02         0.00000E+00
    0.54538E-03        -0.45122E-02         0.00000E+00
    0.52372E-03        -0.43015E-02         0.00000E+00
    0.50181E-03        -0.40905E-02         0.00000E+00
    0.47963E-03        -0.38791E-02         0.00000E+00
    0.45715E-03        -0.36673E-02         0.00000E+00
    0.43434E-03        -0.34551E-02         0.00000E+00
    0.41116E-03        -0.32425E-02         0.00000E+00
    0.38760E-03        -0.30294E-02         0.00000E+00
    0.36362E-03        -0.28160E-02         0.00000E+00
    0.33919E-03        -0.26021E-02         0.00000E+00
    0.31428E-03        -0.23878E-02         0.00000E+00
    0.28886E-03        -0.21730E-02         0.00000E+00
    0.26290E-03        -0.19577E-02         0.00000E+00
    0.23637E-03        -0.17421E-02         0.00000E+00
    0.20924E-03        -0.15259E-02         0.00000E+00
    0.18149E-03        -0.13093E-02         0.00000E+00
    0.15306E-03        -0.10923E-02         0.00000E+00
    0.12395E-03        -0.87473E-03         0.00000E+00
    0.94117E-04        -0.65673E-03         0.00000E+00
    0.63532E-04        -0.43828E-03         0.00000E+00
    0.32169E-04        -0.21937E-03         0.00000E+00
    0.00000E+00         0.00000E+00         0.00000E+00
    0.10268E-02        -0.10633E-01         0.00000E+00
    0.99886E-03        -0.10427E-01         0.00000E+00
    0.97211E-03        -0.10222E-01         0.00000E+00
    0.94647E-03        -0.10017E-01         0.00000E+00
    0.92187E-03        -0.98109E-02         0.00000E+00
    0.89822E-03        -0.96049E-02         0.00000E+00
    0.87546E-03        -0.93986E-02         0.00000E+00
    0.85349E-03        -0.91921E-02         0.00000E+00
    0.83226E-03        -0.89854E-02         0.00000E+00
    0.81168E-03        -0.87783E-02         0.00000E+00
    0.79171E-03        -0.85710E-02         0.00000E+00
    0.77226E-03        -0.83634E-02         0.00000E+00
    0.75329E-03        -0.81555E-02         0.00000E+00
    0.73473E-03        -0.79474E-02         0.00000E+00
    0.71654E-03        -0.77389E-02         0.00000E+00
    0.69866E-03        -0.75302E-02         0.00000E+00
    0.68104E-03        -0.73212E-02         0.00000E+00
    0.66365E-03        -0.71119E-02         0.00000E+00
    0.64644E-03        -0.69023E-02         0.00000E+00
    0.62937E-03        -0.66924E-02         0.00000E+00
    0.61240E-03        -0.64823E-02         0.00000E+00
    0.59551E-03        -0.62718E-02         0.00000E+00
    0.57865E-03        -0.60610E-02         0.00000E+00
    0.56180E-03        -0.58499E-02         0.00000E+00
    0.54492E-03        -0.56385E-02         0.00000E+00
    0.52798E-03        -0.54267E-02         0.00000E+00
    0.51096E-03        -0.52147E-02         0.00000E+00
    0.49383E-03        -0.50022E-02         0.00000E+00
    0.47655E-03        -0.47895E-02         0.00000E+00
    0.45911E-03        -0.45764E-02         0.00000E+00
    0.44147E-03        -0.43629E-02         0.00000E+00
    0.42360E-03        -0.41490E-02         0.00000E+00
    0.40549E-03        -0.39348E-02         0.00000E+00
    0.38709E-03        -0.37201E-02         0.00000E+00
    0.36839E-03        -0.35051E-02         0.00000E+00
    0.34934E-03        -0.32896E-02         0.00000E+00
    0.32993E-03        -0.30737E-02         0.00000E+00
    0.31012E-03        -0.28573E-02         0.00000E+00
    0.28987E-03        -0.26405E-02         0.00000E+00
    0.26916E-03        -0.24232E-02         0.00000E+00
    0.24795E-03        -0.22055E-02         0.00000E+00
    0.22621E-03        -0.19872E-02         0.00000E+00
    0.20389E-03        -0.17685E-02         0.00000E+00
    0.18095E-03        -0.15492E-02         0.00000E+00
    0.15737E-03        -0.13295E-02         0.00000E+00
    0.13310E-03        -0.11092E-02         0.00000E+00
    0.10810E-03        -0.88840E-03         0.00000E+00
    0.82328E-04        -0.66708E-03         0.00000E+00
    0.55748E-04        -0.44524E-03         0.00000E+00
    0.28317E-04        -0.22288E-03         0.00000E+00
    0.00000E+00         0.00000E+00         0.00000E+00
    0.80930E-03        -0.10767E-01         0.00000E+00
    0.78520E-03        -0.10559E-01         0.00000E+00
    0.76245E-03        -0.10351E-01         0.00000E+00
    0.74094E-03        -0.10142E-01         0.00000E+00
    0.72056E-03        -0.99337E-02         0.00000E+00
    0.70121E-03        -0.97248E-02         0.00000E+00
    0.68279E-03        -0.95157E-02         0.00000E+00
    0.66521E-03        -0.93062E-02         0.00000E+00
    0.64837E-03        -0.90965E-02         0.00000E+00
    0.63219E-03        -0.88865E-02         0.00000E+00
    0.61659E-03        -0.86762E-02         0.00000E+00
    0.60150E-03        -0.84656E-02         0.00000E+00
    0.58686E-03        -0.82548E-02         0.00000E+00
    0.57260E-03        -0.80437E-02         0.00000E+00
    0.55867E-03        -0.78324E-02         0.00000E+00
    0.54502E-03        -0.76208E-02         0.00000E+00
    0.53161E-03        -0.74090E-02         0.00000E+00
    0.51840E-03        -0.71969E-02         0.00000E+00
    0.50535E-03        -0.69845E-02         0.00000E+00
    0.49242E-03        -0.67719E-02         0.00000E+00
    0.47958E-03        -0.65591E-02         0.00000E+00
    0.46680E-03        -0.63460E-02         0.00000E+00
    0.45406E-03        -0.61326E-02         0.00000E+00
    0.44132E-03        -0.59189E-02         0.00000E+00
    0.42856E-03        -0.57049E-02         0.00000E+00
    0.41575E-03        -0.54907E-02         0.00000E+00
    0.40287E-03        -0.52762E-02         0.00000E+00
    0.38990E-03        -0.50613E-02         0.00000E+00
    0.37680E-03        -0.48461E-02         0.00000E+00
    0.36357E-03        -0.46306E-02         0.00000E+00
    0.35017E-03        -0.44147E-02         0.00000E+00
    0.33658E-03        -0.41985E-02         0.00000E+00
    0.32277E-03        -0.39819E-02         0.00000E+00
    0.30873E-03        -0.37649E-02         0.00000E+00
    0.29442E-03        -0.35475E-02         0.00000E+00
    0.27982E-03        -0.33297E-02         0.00000E+00
    0.26489E-03        -0.31114E-02         0.00000E+00
    0.24961E-03        -0.28927E-02         0.00000E+00
    0.23394E-03        -0.26735E-02         0.00000E+00
    0.21785E-03        -0.24538E-02         0.00000E+00
    0.20130E-03        -0.22336E-02         0.00000E+00
    0.18424E-03        -0.20128E-02         0.00000E+00
    0.16665E-03        -0.17915E-02         0.00000E+00
    0.14845E-03        -0.15697E-02         0.00000E+00
    0.12962E-03        -0.13472E-02         0.00000E+00
    0.11008E-03        -0.11242E-02         0.00000E+00
    0.89794E-04        -0.90058E-03         0.00000E+00
    0.68699E-04        -0.67635E-03         0.00000E+00
    0.46742E-04        -0.45151E-03         0.00000E+00
    0.23866E-04        -0.22606E-03         0.00000E+00
    0.00000E+00         0.00000E+00         0.00000E+00
    0.56698E-03        -0.10879E-01         0.00000E+00
    0.54801E-03        -0.10668E-01         0.00000E+00
    0.53050E-03        -0.10457E-01         0.00000E+00
    0.51434E-03        -0.10246E-01         0.00000E+00
    0.49935E-03        -0.10035E-01         0.00000E+00
    0.48540E-03        -0.98232E-02         0.00000E+00
    0.47232E-03        -0.96112E-02         0.00000E+00
    0.46000E-03        -0.93988E-02         0.00000E+00
    0.44832E-03        -0.91862E-02         0.00000E+00
    0.43719E-03        -0.89734E-02         0.00000E+00
    0.42653E-03        -0.87603E-02         0.00000E+00
    0.41628E-03        -0.85470E-02         0.00000E+00
    0.40638E-03        -0.83335E-02         0.00000E+00
    0.39676E-03        -0.81198E-02         0.00000E+00
    0.38740E-03        -0.79059E-02         0.00000E+00
    0.37825E-03        -0.76918E-02         0.00000E+00
    0.36926E-03        -0.74775E-02         0.00000E+00
    0.36042E-03        -0.72630E-02         0.00000E+00
    0.35170E-03        -0.70483E-02         0.00000E+00
    0.34306E-03        -0.68335E-02         0.00000E+00
    0.33448E-03        -0.66184E-02         0.00000E+00
    0.32595E-03        -0.64031E-02         0.00000E+00
    0.31743E-03        -0.61876E-02         0.00000E+00
    0.30892E-03        -0.59719E-02         0.00000E+00
    0.30039E-03        -0.57560E-02         0.00000E+00
    0.29182E-03        -0.55398E-02         0.00000E+00
    0.28320E-03        -0.53233E-02         0.00000E+00
    0.27451E-03        -0.51065E-02         0.00000E+00
    0.26574E-03        -0.48895E-02         0.00000E+00
    0.25685E-03        -0.46722E-02         0.00000E+00
    0.24785E-03        -0.44545E-02         0.00000E+00
    0.23871E-03        -0.42365E-02         0.00000E+00
    0.22941E-03        -0.40181E-02         0.00000E+00
    0.21993E-03        -0.37994E-02         0.00000E+00
    0.21025E-03        -0.35802E-02         0.00000E+00
    0.20035E-03        -0.33607E-02         0.00000E+00
    0.19021E-03        -0.31407E-02         0.00000E+00
    0.17980E-03        -0.29202E-02         0.00000E+00
    0.16910E-03        -0.26993E-02         0.00000E+00
    0.15806E-03        -0.24778E-02         0.00000E+00
    0.14665E-03        -0.22558E-02         0.00000E+00
    0.13484E-03        -0.20332E-02         0.00000E+00
    0.12257E-03        -0.18101E-02         0.00000E+00
    0.10980E-03        -0.15863E-02         0.00000E+00
    0.96460E-04        -0.13618E-02         0.00000E+00
    0.82481E-04        -0.11367E-02         0.00000E+00
    0.67782E-04        -0.91085E-03         0.00000E+00
    0.52273E-04        -0.68426E-03         0.00000E+00
    0.35858E-04        -0.45692E-03         0.00000E+00
    0.18448E-04        -0.22882E-03         0.00000E+00
    0.00000E+00         0.00000E+00         0.00000E+00
    0.29775E-03        -0.10961E-01         0.00000E+00
    0.28586E-03        -0.10748E-01         0.00000E+00
    0.27567E-03        -0.10535E-01         0.00000E+00
    0.26672E-03        -0.10321E-01         0.00000E+00
    0.25868E-03        -0.10106E-01         0.00000E+00
    0.25136E-03        -0.98917E-02         0.00000E+00
    0.24460E-03        -0.96769E-02         0.00000E+00
    0.23830E-03        -0.94620E-02         0.00000E+00
    0.23237E-03        -0.92468E-02         0.00000E+00
    0.22676E-03        -0.90315E-02         0.00000E+00
    0.22140E-03        -0.88162E-02         0.00000E+00
    0.21626E-03        -0.86007E-02         0.00000E+00
    0.21130E-03        -0.83851E-02         0.00000E+00
    0.20650E-03        -0.81693E-02         0.00000E+00
    0.20182E-03        -0.79535E-02         0.00000E+00
    0.19725E-03        -0.77376E-02         0.00000E+00
    0.19277E-03        -0.75216E-02         0.00000E+00
    0.18836E-03        -0.73054E-02         0.00000E+00
    0.18401E-03        -0.70892E-02         0.00000E+00
    0.17970E-03        -0.68728E-02         0.00000E+00
    0.17542E-03        -0.66562E-02         0.00000E+00
    0.17116E-03        -0.64395E-02         0.00000E+00
    0.16690E-03        -0.62226E-02         0.00000E+00
    0.16265E-03        -0.60055E-02         0.00000E+00
    0.15839E-03        -0.57883E-02         0.00000E+00
    0.15410E-03        -0.55708E-02         0.00000E+00
    0.14979E-03        -0.53531E-02         0.00000E+00
    0.14544E-03        -0.51351E-02         0.00000E+00
    0.14104E-03        -0.49169E-02         0.00000E+00
    0.13658E-03        -0.46984E-02         0.00000E+00
    0.13206E-03        -0.44796E-02         0.00000E+00
    0.12747E-03        -0.42605E-02         0.00000E+00
    0.12279E-03        -0.40411E-02         0.00000E+00
    0.11802E-03        -0.38213E-02         0.00000E+00
    0.11314E-03        -0.36011E-02         0.00000E+00
    0.10815E-03        -0.33805E-02         0.00000E+00
    0.10302E-03        -0.31595E-02         0.00000E+00
    0.97744E-04        -0.29380E-02         0.00000E+00
    0.92306E-04        -0.27160E-02         0.00000E+00
    0.86683E-04        -0.24935E-02         0.00000E+00
    0.80855E-04        -0.22705E-02         0.00000E+00
    0.74793E-04        -0.20469E-02         0.00000E+00
    0.68466E-04        -0.18226E-02         0.00000E+00
    0.61835E-04        -0.15977E-02         0.00000E+00
    0.54851E-04        -0.13721E-02         0.00000E+00
    0.47452E-04        -0.11457E-02         0.00000E+00
    0.39557E-04        -0.91849E-03         0.00000E+00
    0.31059E-04        -0.69038E-03         0.00000E+00
    0.21803E-04        -0.46131E-03         0.00000E+00
    0.11566E-04        -0.23121E-03         0.00000E+00
    0.00000E+00         0.00000E+00         0.00000E+00
    0.00000E+00        -0.10998E-01         0.00000E+00
    0.00000E+00        -0.10782E-01         0.00000E+00
    0.00000E+00        -0.10566E-01         0.00000E+00
    0.00000E+00        -0.10350E-01         0.00000E+00
    0.00000E+00        -0.10134E-01         0.00000E+00
    0.00000E+00        -0.99178E-02         0.00000E+00
    0.00000E+00        -0.97015E-02         0.00000E+00
    0.00000E+00        -0.94852E-02         0.00000E+00
    0.00000E+00        -0.92688E-02         0.00000E+00
    0.00000E+00        -0.90525E-02         0.00000E+00
    0.00000E+00        -0.88361E-02         0.00000E+00
    0.00000E+00        -0.86197E-02         0.00000E+00
    0.00000E+00        -0.84032E-02         0.00000E+00
    0.00000E+00        -0.81868E-02         0.00000E+00
    0.00000E+00        -0.79702E-02         0.00000E+00
    0.00000E+00        -0.77536E-02         0.00000E+00
    0.00000E+00        -0.75369E-02         0.00000E+00
    0.00000E+00        -0.73201E-02         0.00000E+00
    0.00000E+00        -0.71033E-02         0.00000E+00
    0.00000E+00        -0.68863E-02         0.00000E+00
    0.00000E+00        -0.66692E-02         0.00000E+00
    0.00000E+00        -0.64520E-02         0.00000E+00
    0.00000E+00        -0.62346E-02         0.00000E+00
    0.00000E+00        -0.60171E-02         0.00000E+00
    0.00000E+00        -0.57993E-02         0.00000E+00
    0.00000E+00        -0.55814E-02         0.00000E+00
    0.00000E+00        -0.53633E-02         0.00000E+00
    0.00000E+00        -0.51449E-02         0.00000E+00
    0.00000E+00        -0.49263E-02         0.00000E+00
    0.00000E+00        -0.47074E-02         0.00000E+00
    0.00000E+00        -0.44882E-02         0.00000E+00
    0.00000E+00        -0.42688E-02         0.00000E+00
    0.00000E+00        -0.40490E-02         0.00000E+00
    0.00000E+00        -0.38288E-02         0.00000E+00
    0.00000E+00        -0.36083E-02         0.00000E+00
    0.00000E+00        -0.33873E-02         0.00000E+00
    0.00000E+00        -0.31660E-02         0.00000E+00
    0.00000E+00        -0.29442E-02         0.00000E+00
    0.00000E+00        -0.27219E-02         0.00000E+00
    0.00000E+00        -0.24991E-02         0.00000E+00
    0.00000E+00        -0.22757E-02         0.00000E+00
    0.00000E+00        -0.20518E-02         0.00000E+00
    0.00000E+00        -0.18272E-02         0.00000E+00
    0.00000E+00        -0.16019E-02         0.00000E+00
    0.00000E+00        -0.13759E-02         0.00000E+00
    0.00000E+00        -0.11492E-02         0.00000E+00
    0.00000E+00        -0.92151E-03         0.00000E+00
    0.00000E+00        -0.69291E-03         0.00000E+00
    0.00000E+00        -0.46324E-03         0.00000E+00
    0.00000E+00        -0.23234E-03         0.00000E+00
    0.00000E+00         0.00000E+00         0.00000E+00
CELL_DATA       5000
VECTORS vDarcy double 
    0.49871E-07         0.12476E-13         0.00000E+00
    0.49871E-07         0.33655E-13         0.00000E+00
    0.49870E-07         0.50719E-13         0.00000E+00
    0.49870E-07         0.64623E-13         0.00000E+00
    0.49870E-07         0.76053E-13         0.00000E+00
    0.49870E-07         0.85512E-13         0.00000E+00
    0.49870E-07         0.93377E-13         0.00000E+00
    0.49870E-07         0.99934E-13         0.00000E+00
    0.49870E-07         0.10540E-12         0.00000E+00
    0.49870E-07         0.10996E-12         0.00000E+00
    0.49870E-07         0.11374E-12         0.00000E+00
    0.49870E-07         0.11685E-12         0.00000E+00
    0.49870E-07         0.11939E-12         0.00000E+00
    0.49870E-07         0.12142E-12         0.00000E+00
    0.49870E-07         0.12301E-12         0.00000E+00
    0.49870E-07         0.12420E-12         0.00000E+00
    0.49870E-07         0.12504E-12         0.00000E+00
    0.49870E-07         0.12557E-12         0.00000E+00
    0.49870E-07         0.12581E-12         0.00000E+00
    0.49870E-07         0.12578E-12         0.00000E+00
    0.49870E-07         0.12552E-12         0.00000E+00
    0.49870E-07         0.12502E-12         0.00000E+00
    0.49870E-07         0.12432E-12         0.00000E+00
    0.49870E-07         0.12342E-12         0.00000E+00
    0.49870E-07         0.12232E-12         0.00000E+00
    0.49869E-07         0.12105E-12         0.00000E+00
    0.49869E-07         0.11959E-12         0.00000E+00
    0.49869E-07         0.11797E-12         0.00000E+00
    0.49869E-07         0.11617E-12         0.00000E+00
    0.49869E-07         0.11419E-12         0.00000E+00
    0.49869E-07         0.11204E-12         0.00000E+00
    0.49869E-07         0.10971E-12         0.00000E+00
    0.49869E-07         0.10720E-12         0.00000E+00
    0.49869E-07         0.10450E-12         0.00000E+00
    0.49869E-07         0.10159E-12         0.00000E+00
    0.49869E-07         0.98463E-13         0.00000E+00
    0.49869E-07         0.95106E-13         0.00000E+00
    0.49869E-07         0.91497E-13         0.00000E+00
    0.49869E-07         0.87609E-13         0.00000E+00
    0.49869E-07         0.83413E-13         0.00000E+00
    0.49869E-07         0.78871E-13         0.00000E+00
    0.49869E-07         0.73934E-13         0.00000E+00
    0.49869E-07         0.68545E-13         0.00000E+00
    0.49869E-07         0.62627E-13         0.00000E+00
    0.49869E-07         0.56083E-13         0.00000E+00
    0.49869E-07         0.48786E-13         0.00000E+00
    0.49869E-07         0.40567E-13         0.00000E+00
    0.49869E-07         0.31195E-13         0.00000E+00
    0.49869E-07         0.20352E-13         0.00000E+00
    0.49869E-07         0.75854E-14         0.00000E+00
    0.49870E-07         0.26147E-13         0.00000E+00
    0.49870E-07         0.72940E-13         0.00000E+00
    0.49870E-07         0.11308E-12         0.00000E+00
    0.49870E-07         0.14755E-12         0.00000E+00
    0.49870E-07         0.17717E-12         0.00000E+00
    0.49870E-07         0.20266E-12         0.00000E+00
    0.49870E-07         0.22458E-12         0.00000E+00
    0.49870E-07         0.24343E-12         0.00000E+00
    0.49870E-07         0.25961E-12         0.00000E+00
    0.49869E-07         0.27346E-12         0.00000E+00
    0.49869E-07         0.28527E-12         0.00000E+00
    0.49869E-07         0.29527E-12         0.00000E+00
    0.49869E-07         0.30368E-12         0.00000E+00
    0.49869E-07         0.31065E-12         0.00000E+00
    0.49869E-07         0.31635E-12         0.00000E+00
    0.49869E-07         0.32089E-12         0.00000E+00
    0.49869E-07         0.32438E-12         0.00000E+00
    0.49869E-07         0.32693E-12         0.00000E+00
    0.49869E-07         0.32859E-12         0.00000E+00
    0.49869E-07         0.32944E-12         0.00000E+00
    0.49869E-07         0.32955E-12         0.00000E+00
    0.49869E-07         0.32895E-12         0.00000E+00
    0.49869E-07         0.32768E-12         0.00000E+00
    0.49869E-07         0.32578E-12         0.00000E+00
    0.49869E-07         0.32329E-12         0.00000E+00
    0.49869E-07         0.32021E-12         0.00000E+00
    0.49869E-07         0.31656E-12         0.00000E+00
    0.49869E-07         0.31236E-12         0.00000E+00
    0.49869E-07         0.30761E-12         0.00000E+00
    0.49869E-07         0.30231E-12         0.00000E+00
    0.49869E-07         0.29646E-12         0.00000E+00
    0.49869E-07         0.29006E-12         0.00000E+00
    0.49869E-07         0.28307E-12         0.00000E+00
    0.49869E-07         0.27549E-12         0.00000E+00
    0.49869E-07         0.26729E-12         0.00000E+00
    0.49869E-07         0.25843E-12         0.00000E+00
    0.49869E-07         0.24888E-12         0.00000E+00
    0.49869E-07         0.23859E-12         0.00000E+00
    0.49869E-07         0.22749E-12         0.00000E+00
    0.49869E-07         0.21551E-12         0.00000E+00
    0.49869E-07         0.20258E-12         0.00000E+00
    0.49869E-07         0.18858E-12         0.00000E+00
    0.49869E-07         0.17339E-12         0.00000E+00
    0.49869E-07         0.15686E-12         0.00000E+00
    0.49869E-07         0.13883E-12         0.00000E+00
    0.49869E-07         0.11906E-12         0.00000E+00
    0.49869E-07         0.97302E-13         0.00000E+00
    0.49869E-07         0.73244E-13         0.00000E+00
    0.49869E-07         0.46506E-13         0.00000E+00
    0.49869E-07         0.16643E-13         0.00000E+00
    0.49869E-07         0.27525E-13         0.00000E+00
    0.49869E-07         0.79315E-13         0.00000E+00
    0.49869E-07         0.12656E-12         0.00000E+00
    0.49869E-07         0.16936E-12         0.00000E+00
    0.49869E-07         0.20792E-12         0.00000E+00
    0.49869E-07         0.24251E-12         0.00000E+00
    0.49869E-07         0.27342E-12         0.00000E+00
    0.49869E-07         0.30093E-12         0.00000E+00
    0.49869E-07         0.32531E-12         0.00000E+00
    0.49869E-07         0.34683E-12         0.00000E+00
    0.49869E-07         0.36573E-12         0.00000E+00
    0.49869E-07         0.38222E-12         0.00000E+00
    0.49869E-07         0.39652E-12         0.00000E+00
    0.49869E-07         0.40878E-12         0.00000E+00
    0.49869E-07         0.41918E-12         0.00000E+00
    0.49869E-07         0.42786E-12         0.00000E+00
    0.49869E-07         0.43494E-12         0.00000E+00
    0.49869E-07         0.44053E-12         0.00000E+00
    0.49869E-07         0.44474E-12         0.00000E+00
    0.49869E-07         0.44765E-12         0.00000E+00
    0.49869E-07         0.44934E-12         0.00000E+00
    0.49869E-07         0.44986E-12         0.00000E+00
    0.49869E-07         0.44929E-12         0.00000E+00
    0.49869E-07         0.44765E-12         0.00000E+00
    0.49869E-07         0.44501E-12         0.00000E+00
    0.49869E-07         0.44138E-12         0.00000E+00
    0.49869E-07         0.43678E-12         0.00000E+00
    0.49869E-07         0.43125E-12         0.00000E+00
    0.49869E-07         0.42479E-12         0.00000E+00
    0.49869E-07         0.41740E-12         0.00000E+00
    0.49869E-07         0.40909E-12         0.00000E+00
    0.49869E-07         0.39984E-12         0.00000E+00
    0.49869E-07         0.38964E-12         0.00000E+00
    0.49869E-07         0.37846E-12         0.00000E+00
    0.49869E-07         0.36629E-12         0.00000E+00
    0.49869E-07         0.35308E-12         0.00000E+00
    0.49869E-07         0.33879E-12         0.00000E+00
    0.49869E-07         0.32336E-12         0.00000E+00
    0.49869E-07         0.30674E-12         0.00000E+00
    0.49869E-07         0.28886E-12         0.00000E+00
    0.49869E-07         0.26963E-12         0.00000E+00
    0.49868E-07         0.24897E-12         0.00000E+00
    0.49868E-07         0.22677E-12         0.00000E+00
    0.49868E-07         0.20293E-12         0.00000E+00
    0.49868E-07         0.17732E-12         0.00000E+00
    0.49868E-07         0.14984E-12         0.00000E+00
    0.49868E-07         0.12035E-12         0.00000E+00
    0.49868E-07         0.88759E-13         0.00000E+00
    0.49868E-07         0.54983E-13         0.00000E+00
    0.49868E-07         0.19002E-13         0.00000E+00
    0.49869E-07         0.26846E-13         0.00000E+00
    0.49869E-07         0.77916E-13         0.00000E+00
    0.49869E-07         0.12545E-12         0.00000E+00
    0.49869E-07         0.16954E-12         0.00000E+00
    0.49869E-07         0.21027E-12         0.00000E+00
    0.49869E-07         0.24773E-12         0.00000E+00
    0.49869E-07         0.28204E-12         0.00000E+00
    0.49869E-07         0.31333E-12         0.00000E+00
    0.49869E-07         0.34174E-12         0.00000E+00
    0.49869E-07         0.36739E-12         0.00000E+00
    0.49869E-07         0.39044E-12         0.00000E+00
    0.49869E-07         0.41102E-12         0.00000E+00
    0.49869E-07         0.42926E-12         0.00000E+00
    0.49869E-07         0.44529E-12         0.00000E+00
    0.49869E-07         0.45924E-12         0.00000E+00
    0.49869E-07         0.47120E-12         0.00000E+00
    0.49869E-07         0.48130E-12         0.00000E+00
    0.49869E-07         0.48962E-12         0.00000E+00
    0.49869E-07         0.49626E-12         0.00000E+00
    0.49869E-07         0.50128E-12         0.00000E+00
    0.49869E-07         0.50477E-12         0.00000E+00
    0.49869E-07         0.50678E-12         0.00000E+00
    0.49869E-07         0.50737E-12         0.00000E+00
    0.49869E-07         0.50660E-12         0.00000E+00
    0.49869E-07         0.50449E-12         0.00000E+00
    0.49869E-07         0.50109E-12         0.00000E+00
    0.49869E-07         0.49643E-12         0.00000E+00
    0.49869E-07         0.49051E-12         0.00000E+00
    0.49869E-07         0.48337E-12         0.00000E+00
    0.49869E-07         0.47502E-12         0.00000E+00
    0.49869E-07         0.46544E-12         0.00000E+00
    0.49869E-07         0.45464E-12         0.00000E+00
    0.49869E-07         0.44262E-12         0.00000E+00
    0.49869E-07         0.42936E-12         0.00000E+00
    0.49868E-07         0.41484E-12         0.00000E+00
    0.49868E-07         0.39903E-12         0.00000E+00
    0.49868E-07         0.38191E-12         0.00000E+00
    0.49868E-07         0.36343E-12         0.00000E+00
    0.49868E-07         0.34357E-12         0.00000E+00
    0.49868E-07         0.32227E-12         0.00000E+00
    0.49868E-07         0.29950E-12         0.00000E+00
    0.49868E-07         0.27519E-12         0.00000E+00
    0.49868E-07         0.24929E-12         0.00000E+00
    0.49868E-07         0.22177E-12         0.00000E+00
    0.49868E-07         0.19256E-12         0.00000E+00
    0.49868E-07         0.16163E-12         0.00000E+00
    0.49868E-07         0.12893E-12         0.00000E+00
    0.49868E-07         0.94435E-13         0.00000E+00
    0.49868E-07         0.58124E-13         0.00000E+00
    0.49868E-07         0.19969E-13         0.00000E+00
    0.49868E-07         0.24737E-13         0.00000E+00
    0.49868E-07         0.72291E-13         0.00000E+00
    0.49868E-07         0.11716E-12         0.00000E+00
    0.49868E-07         0.15936E-12         0.00000E+00
    0.49868E-07         0.19890E-12         0.00000E+00
    0.49868E-07         0.23580E-12         0.00000E+00
    0.49868E-07         0.27012E-12         0.00000E+00
    0.49868E-07         0.30191E-12         0.00000E+00
    0.49868E-07         0.33121E-12         0.00000E+00
    0.49868E-07         0.35809E-12         0.00000E+00
    0.49869E-07         0.38263E-12         0.00000E+00
    0.49869E-07         0.40490E-12         0.00000E+00
    0.49869E-07         0.42496E-12         0.00000E+00
    0.49869E-07         0.44289E-12         0.00000E+00
    0.49869E-07         0.45877E-12         0.00000E+00
    0.49869E-07         0.47266E-12         0.00000E+00
    0.49869E-07         0.48464E-12         0.00000E+00
    0.49869E-07         0.49477E-12         0.00000E+00
    0.49869E-07         0.50312E-12         0.00000E+00
    0.49869E-07         0.50973E-12         0.00000E+00
    0.49869E-07         0.51468E-12         0.00000E+00
    0.49869E-07         0.51800E-12         0.00000E+00
    0.49869E-07         0.51974E-12         0.00000E+00
    0.49869E-07         0.51995E-12         0.00000E+00
    0.49869E-07         0.51865E-12         0.00000E+00
    0.49869E-07         0.51587E-12         0.00000E+00
    0.49869E-07         0.51165E-12         0.00000E+00
    0.49869E-07         0.50601E-12         0.00000E+00
    0.49869E-07         0.49896E-12         0.00000E+00
    0.49869E-07         0.49052E-12         0.00000E+00
    0.49869E-07         0.48068E-12         0.00000E+00
    0.49869E-07         0.46947E-12         0.00000E+00
    0.49869E-07         0.45687E-12         0.00000E+00
    0.49869E-07         0.44289E-12         0.00000E+00
    0.49869E-07         0.42752E-12         0.00000E+00
    0.49869E-07         0.41074E-12         0.00000E+00
    0.49869E-07         0.39255E-12         0.00000E+00
    0.49869E-07         0.37293E-12         0.00000E+00
    0.49869E-07         0.35186E-12         0.00000E+00
    0.49869E-07         0.32932E-12         0.00000E+00
    0.49869E-07         0.30530E-12         0.00000E+00
    0.49869E-07         0.27978E-12         0.00000E+00
    0.49869E-07         0.25273E-12         0.00000E+00
    0.49869E-07         0.22414E-12         0.00000E+00
    0.49869E-07         0.19400E-12         0.00000E+00
    0.49869E-07         0.16230E-12         0.00000E+00
    0.49869E-07         0.12902E-12         0.00000E+00
    0.49869E-07         0.94164E-13         0.00000E+00
    0.49869E-07         0.57731E-13         0.00000E+00
    0.49869E-07         0.19729E-13         0.00000E+00
    0.49869E-07         0.22045E-13         0.00000E+00
    0.49869E-07         0.64701E-13         0.00000E+00
    0.49869E-07         0.10535E-12         0.00000E+00
    0.49869E-07         0.14395E-12         0.00000E+00
    0.49869E-07         0.18049E-12         0.00000E+00
    0.49869E-07         0.21496E-12         0.00000E+00
    0.49869E-07         0.24735E-12         0.00000E+00
    0.49869E-07         0.27766E-12         0.00000E+00
    0.49869E-07         0.30591E-12         0.00000E+00
    0.49869E-07         0.33212E-12         0.00000E+00
    0.49869E-07         0.35631E-12         0.00000E+00
    0.49869E-07         0.37852E-12         0.00000E+00
    0.49869E-07         0.39876E-12         0.00000E+00
    0.49869E-07         0.41708E-12         0.00000E+00
    0.49869E-07         0.43351E-12         0.00000E+00
    0.49869E-07         0.44809E-12         0.00000E+00
    0.49869E-07         0.46085E-12         0.00000E+00
    0.49869E-07         0.47184E-12         0.00000E+00
    0.49869E-07         0.48110E-12         0.00000E+00
    0.49869E-07         0.48865E-12         0.00000E+00
    0.49869E-07         0.49453E-12         0.00000E+00
    0.49869E-07         0.49878E-12         0.00000E+00
    0.49869E-07         0.50142E-12         0.00000E+00
    0.49869E-07         0.50249E-12         0.00000E+00
    0.49869E-07         0.50201E-12         0.00000E+00
    0.49869E-07         0.50000E-12         0.00000E+00
    0.49869E-07         0.49649E-12         0.00000E+00
    0.49869E-07         0.49150E-12         0.00000E+00
    0.49869E-07         0.48503E-12         0.00000E+00
    0.49869E-07         0.47711E-12         0.00000E+00
    0.49869E-07         0.46774E-12         0.00000E+00
    0.49869E-07         0.45693E-12         0.00000E+00
    0.49869E-07         0.44470E-12         0.00000E+00
    0.49869E-07         0.43103E-12         0.00000E+00
    0.49869E-07         0.41595E-12         0.00000E+00
    0.49869E-07         0.39944E-12         0.00000E+00
    0.49869E-07         0.38151E-12         0.00000E+00
    0.49869E-07         0.36215E-12         0.00000E+00
    0.49869E-07         0.34137E-12         0.00000E+00
    0.49869E-07         0.31916E-12         0.00000E+00
    0.49869E-07         0.29553E-12         0.00000E+00
    0.49869E-07         0.27046E-12         0.00000E+00
    0.49869E-07         0.24396E-12         0.00000E+00
    0.49869E-07         0.21604E-12         0.00000E+00
    0.49869E-07         0.18668E-12         0.00000E+00
    0.49869E-07         0.15591E-12         0.00000E+00
    0.49869E-07         0.12372E-12         0.00000E+00
    0.49869E-07         0.90132E-13         0.00000E+00
    0.49869E-07         0.55156E-13         0.00000E+00
    0.49869E-07         0.18811E-13         0.00000E+00
    0.49869E-07         0.19112E-13         0.00000E+00
    0.49869E-07         0.56305E-13         0.00000E+00
    0.49869E-07         0.92023E-13         0.00000E+00
    0.49869E-07         0.12621E-12         0.00000E+00
    0.49869E-07         0.15884E-12         0.00000E+00
    0.49869E-07         0.18985E-12         0.00000E+00
    0.49869E-07         0.21924E-12         0.00000E+00
    0.49869E-07         0.24697E-12         0.00000E+00
    0.49869E-07         0.27302E-12         0.00000E+00
    0.49869E-07         0.29740E-12         0.00000E+00
    0.49869E-07         0.32010E-12         0.00000E+00
    0.49869E-07         0.34111E-12         0.00000E+00
    0.49869E-07         0.36044E-12         0.00000E+00
    0.49869E-07         0.37810E-12         0.00000E+00
    0.49869E-07         0.39409E-12         0.00000E+00
    0.49869E-07         0.40843E-12         0.00000E+00
    0.49869E-07         0.42114E-12         0.00000E+00
    0.49869E-07         0.43223E-12         0.00000E+00
    0.49869E-07         0.44172E-12         0.00000E+00
    0.49869E-07         0.44962E-12         0.00000E+00
    0.49869E-07         0.45595E-12         0.00000E+00
    0.49869E-07         0.46073E-12         0.00000E+00
    0.49869E-07         0.46398E-12         0.00000E+00
    0.49869E-07         0.46572E-12         0.00000E+00
    0.49869E-07         0.46595E-12         0.00000E+00
    0.49869E-07         0.46470E-12         0.00000E+00
    0.49869E-07         0.46199E-12         0.00000E+00
    0.49869E-07         0.45782E-12         0.00000E+00
    0.49869E-07         0.45221E-12         0.00000E+00
    0.49869E-07         0.44517E-12         0.00000E+00
    0.49869E-07         0.43671E-12         0.00000E+00
    0.49869E-07         0.42684E-12         0.00000E+00
    0.49869E-07         0.41557E-12         0.00000E+00
    0.49869E-07         0.40291E-12         0.00000E+00
    0.49869E-07         0.38887E-12         0.00000E+00
    0.49869E-07         0.37345E-12         0.00000E+00
    0.49869E-07         0.35666E-12         0.00000E+00
    0.49869E-07         0.33850E-12         0.00000E+00
    0.49869E-07         0.31899E-12         0.00000E+00
    0.49869E-07         0.29813E-12         0.00000E+00
    0.49869E-07         0.27593E-12         0.00000E+00
    0.49869E-07         0.25239E-12         0.00000E+00
    0.49869E-07         0.22753E-12         0.00000E+00
    0.49869E-07         0.20135E-12         0.00000E+00
    0.49869E-07         0.17387E-12         0.00000E+00
    0.49869E-07         0.14510E-12         0.00000E+00
    0.49869E-07         0.11505E-12         0.00000E+00
    0.49869E-07         0.83747E-13         0.00000E+00
    0.49869E-07         0.51204E-13         0.00000E+00
    0.49869E-07         0.17444E-13         0.00000E+00
    0.49869E-07         0.16173E-13         0.00000E+00
    0.49869E-07         0.47803E-13         0.00000E+00
    0.49869E-07         0.78389E-13         0.00000E+00
    0.49869E-07         0.10787E-12         0.00000E+00
    0.49869E-07         0.13619E-12         0.00000E+00
    0.49869E-07         0.16330E-12         0.00000E+00
    0.49869E-07         0.18916E-12         0.00000E+00
    0.49869E-07         0.21374E-12         0.00000E+00
    0.49869E-07         0.23699E-12         0.00000E+00
    0.49869E-07         0.25889E-12         0.00000E+00
    0.49869E-07         0.27943E-12         0.00000E+00
    0.49869E-07         0.29857E-12         0.00000E+00
    0.49869E-07         0.31632E-12         0.00000E+00
    0.49869E-07         0.33266E-12         0.00000E+00
    0.49869E-07         0.34758E-12         0.00000E+00
    0.49869E-07         0.36108E-12         0.00000E+00
    0.49869E-07         0.37315E-12         0.00000E+00
    0.49869E-07         0.38380E-12         0.00000E+00
    0.49869E-07         0.39302E-12         0.00000E+00
    0.49869E-07         0.40083E-12         0.00000E+00
    0.49869E-07         0.40723E-12         0.00000E+00
    0.49869E-07         0.41222E-12         0.00000E+00
    0.49869E-07         0.41581E-12         0.00000E+00
    0.49869E-07         0.41800E-12         0.00000E+00
    0.49869E-07         0.41881E-12         0.00000E+00
    0.49869E-07         0.41824E-12         0.00000E+00
    0.49869E-07         0.41631E-12         0.00000E+00
    0.49869E-07         0.41301E-12         0.00000E+00
    0.49869E-07         0.40837E-12         0.00000E+00
    0.49869E-07         0.40238E-12         0.00000E+00
    0.49869E-07         0.39506E-12         0.00000E+00
    0.49870E-07         0.38642E-12         0.00000E+00
    0.49870E-07         0.37646E-12         0.00000E+00
    0.49870E-07         0.36519E-12         0.00000E+00
    0.49870E-07         0.35262E-12         0.00000E+00
    0.49870E-07         0.33877E-12         0.00000E+00
    0.49870E-07         0.32364E-12         0.00000E+00
    0.49870E-07         0.30724E-12         0.00000E+00
    0.49870E-07         0.28958E-12         0.00000E+00
    0.49870E-07         0.27067E-12         0.00000E+00
    0.49870E-07         0.25052E-12         0.00000E+00
    0.49870E-07         0.22915E-12         0.00000E+00
    0.49870E-07         0.20657E-12         0.00000E+00
    0.49870E-07         0.18278E-12         0.00000E+00
    0.49870E-07         0.15782E-12         0.00000E+00
    0.49870E-07         0.13168E-12         0.00000E+00
    0.49870E-07         0.10439E-12         0.00000E+00
    0.49870E-07         0.75975E-13         0.00000E+00
    0.49870E-07         0.46442E-13         0.00000E+00
    0.49870E-07         0.15818E-13         0.00000E+00
    0.49870E-07         0.13358E-13         0.00000E+00
    0.49870E-07         0.39612E-13         0.00000E+00
    0.49870E-07         0.65168E-13         0.00000E+00
    0.49870E-07         0.89963E-13         0.00000E+00
    0.49870E-07         0.11393E-12         0.00000E+00
    0.49870E-07         0.13703E-12         0.00000E+00
    0.49870E-07         0.15919E-12         0.00000E+00
    0.49870E-07         0.18038E-12         0.00000E+00
    0.49870E-07         0.20056E-12         0.00000E+00
    0.49870E-07         0.21969E-12         0.00000E+00
    0.49870E-07         0.23774E-12         0.00000E+00
    0.49870E-07         0.25467E-12         0.00000E+00
    0.49870E-07         0.27047E-12         0.00000E+00
    0.49870E-07         0.28511E-12         0.00000E+00
    0.49870E-07         0.29858E-12         0.00000E+00
    0.49870E-07         0.31086E-12         0.00000E+00
    0.49870E-07         0.32194E-12         0.00000E+00
    0.49870E-07         0.33180E-12         0.00000E+00
    0.49870E-07         0.34044E-12         0.00000E+00
    0.49870E-07         0.34785E-12         0.00000E+00
    0.49870E-07         0.35403E-12         0.00000E+00
    0.49870E-07         0.35898E-12         0.00000E+00
    0.49870E-07         0.36269E-12         0.00000E+00
    0.49870E-07         0.36516E-12         0.00000E+00
    0.49870E-07         0.36640E-12         0.00000E+00
    0.49870E-07         0.36641E-12         0.00000E+00
    0.49870E-07         0.36518E-12         0.00000E+00
    0.49870E-07         0.36273E-12         0.00000E+00
    0.49870E-07         0.35906E-12         0.00000E+00
    0.49870E-07         0.35417E-12         0.00000E+00
    0.49870E-07         0.34807E-12         0.00000E+00
    0.49870E-07         0.34076E-12         0.00000E+00
    0.49870E-07         0.33226E-12         0.00000E+00
    0.49870E-07         0.32256E-12         0.00000E+00
    0.49870E-07         0.31168E-12         0.00000E+00
    0.49870E-07         0.29963E-12         0.00000E+00
    0.49870E-07         0.28642E-12         0.00000E+00
    0.49870E-07         0.27205E-12         0.00000E+00
    0.49870E-07         0.25654E-12         0.00000E+00
    0.49870E-07         0.23989E-12         0.00000E+00
    0.49870E-07         0.22212E-12         0.00000E+00
    0.49870E-07         0.20325E-12         0.00000E+00
    0.49870E-07         0.18327E-12         0.00000E+00
    0.49870E-07         0.16222E-12         0.00000E+00
    0.49870E-07         0.14010E-12         0.00000E+00
    0.49870E-07         0.11693E-12         0.00000E+00
    0.49870E-07         0.92718E-13         0.00000E+00
    0.49870E-07         0.67492E-13         0.00000E+00
    0.49870E-07         0.41266E-13         0.00000E+00
    0.49870E-07         0.14058E-13         0.00000E+00
    0.49871E-07         0.10743E-13         0.00000E+00
    0.49871E-07         0.31966E-13         0.00000E+00
    0.49871E-07         0.52770E-13         0.00000E+00
    0.49871E-07         0.73089E-13         0.00000E+00
    0.49871E-07         0.92863E-13         0.00000E+00
    0.49871E-07         0.11203E-12         0.00000E+00
    0.49871E-07         0.13055E-12         0.00000E+00
    0.49871E-07         0.14836E-12         0.00000E+00
    0.49871E-07         0.16542E-12         0.00000E+00
    0.49871E-07         0.18170E-12         0.00000E+00
    0.49871E-07         0.19714E-12         0.00000E+00
    0.49871E-07         0.21173E-12         0.00000E+00
    0.49871E-07         0.22542E-12         0.00000E+00
    0.49871E-07         0.23819E-12         0.00000E+00
    0.49871E-07         0.25002E-12         0.00000E+00
    0.49871E-07         0.26088E-12         0.00000E+00
    0.49871E-07         0.27076E-12         0.00000E+00
    0.49871E-07         0.27963E-12         0.00000E+00
    0.49871E-07         0.28748E-12         0.00000E+00
    0.49871E-07         0.29430E-12         0.00000E+00
    0.49871E-07         0.30008E-12         0.00000E+00
    0.49871E-07         0.30481E-12         0.00000E+00
    0.49871E-07         0.30848E-12         0.00000E+00
    0.49871E-07         0.31108E-12         0.00000E+00
    0.49871E-07         0.31262E-12         0.00000E+00
    0.49871E-07         0.31308E-12         0.00000E+00
    0.49871E-07         0.31247E-12         0.00000E+00
    0.49871E-07         0.31079E-12         0.00000E+00
    0.49871E-07         0.30803E-12         0.00000E+00
    0.49871E-07         0.30420E-12         0.00000E+00
    0.49871E-07         0.29931E-12         0.00000E+00
    0.49871E-07         0.29334E-12         0.00000E+00
    0.49871E-07         0.28631E-12         0.00000E+00
    0.49871E-07         0.27823E-12         0.00000E+00
    0.49871E-07         0.26910E-12         0.00000E+00
    0.49871E-07         0.25892E-12         0.00000E+00
    0.49871E-07         0.24770E-12         0.00000E+00
    0.49871E-07         0.23546E-12         0.00000E+00
    0.49871E-07         0.22220E-12         0.00000E+00
    0.49871E-07         0.20792E-12         0.00000E+00
    0.49871E-07         0.19265E-12         0.00000E+00
    0.49871E-07         0.17639E-12         0.00000E+00
    0.49871E-07         0.15915E-12         0.00000E+00
    0.49871E-07         0.14095E-12         0.00000E+00
    0.49871E-07         0.12180E-12         0.00000E+00
    0.49871E-07         0.10171E-12         0.00000E+00
    0.49871E-07         0.80691E-13         0.00000E+00
    0.49871E-07         0.58768E-13         0.00000E+00
    0.49871E-07         0.35950E-13         0.00000E+00
    0.49871E-07         0.12255E-13         0.00000E+00
    0.49872E-07         0.83610E-14         0.00000E+00
    0.49872E-07         0.24979E-13         0.00000E+00
    0.49872E-07         0.41399E-13         0.00000E+00
    0.49872E-07         0.57560E-13         0.00000E+00
    0.49872E-07         0.73401E-13         0.00000E+00
    0.49872E-07         0.88868E-13         0.00000E+00
    0.49872E-07         0.10391E-12         0.00000E+00
    0.49872E-07         0.11847E-12         0.00000E+00
    0.49872E-07         0.13252E-12         0.00000E+00
    0.49872E-07         0.14599E-12         0.00000E+00
    0.49872E-07         0.15887E-12         0.00000E+00
    0.49872E-07         0.17110E-12         0.00000E+00
    0.49872E-07         0.18266E-12         0.00000E+00
    0.49872E-07         0.19352E-12         0.00000E+00
    0.49872E-07         0.20364E-12         0.00000E+00
    0.49872E-07         0.21301E-12         0.00000E+00
    0.49872E-07         0.22159E-12         0.00000E+00
    0.49872E-07         0.22936E-12         0.00000E+00
    0.49872E-07         0.23632E-12         0.00000E+00
    0.49872E-07         0.24243E-12         0.00000E+00
    0.49872E-07         0.24769E-12         0.00000E+00
    0.49872E-07         0.25208E-12         0.00000E+00
    0.49872E-07         0.25559E-12         0.00000E+00
    0.49872E-07         0.25821E-12         0.00000E+00
    0.49872E-07         0.25993E-12         0.00000E+00
    0.49872E-07         0.26075E-12         0.00000E+00
    0.49872E-07         0.26065E-12         0.00000E+00
    0.49872E-07         0.25964E-12         0.00000E+00
    0.49872E-07         0.25772E-12         0.00000E+00
    0.49872E-07         0.25487E-12         0.00000E+00
    0.49872E-07         0.25110E-12         0.00000E+00
    0.49872E-07         0.24641E-12         0.00000E+00
    0.49872E-07         0.24081E-12         0.00000E+00
    0.49872E-07         0.23429E-12         0.00000E+00
    0.49872E-07         0.22685E-12         0.00000E+00
    0.49872E-07         0.21851E-12         0.00000E+00
    0.49872E-07         0.20926E-12         0.00000E+00
    0.49872E-07         0.19912E-12         0.00000E+00
    0.49872E-07         0.18809E-12         0.00000E+00
    0.49872E-07         0.17617E-12         0.00000E+00
    0.49872E-07         0.16338E-12         0.00000E+00
    0.49872E-07         0.14972E-12         0.00000E+00
    0.49872E-07         0.13520E-12         0.00000E+00
    0.49872E-07         0.11983E-12         0.00000E+00
    0.49872E-07         0.10363E-12         0.00000E+00
    0.49872E-07         0.86605E-13         0.00000E+00
    0.49872E-07         0.68763E-13         0.00000E+00
    0.49872E-07         0.50118E-13         0.00000E+00
    0.49872E-07         0.30682E-13         0.00000E+00
    0.49872E-07         0.10469E-13         0.00000E+00
    0.49873E-07         0.62207E-14         0.00000E+00
    0.49873E-07         0.18683E-13         0.00000E+00
    0.49873E-07         0.31125E-13         0.00000E+00
    0.49873E-07         0.43489E-13         0.00000E+00
    0.49873E-07         0.55719E-13         0.00000E+00
    0.49873E-07         0.67763E-13         0.00000E+00
    0.49873E-07         0.79570E-13         0.00000E+00
    0.49873E-07         0.91094E-13         0.00000E+00
    0.49873E-07         0.10229E-12         0.00000E+00
    0.49873E-07         0.11311E-12         0.00000E+00
    0.49873E-07         0.12353E-12         0.00000E+00
    0.49873E-07         0.13350E-12         0.00000E+00
    0.49873E-07         0.14299E-12         0.00000E+00
    0.49873E-07         0.15197E-12         0.00000E+00
    0.49873E-07         0.16040E-12         0.00000E+00
    0.49873E-07         0.16826E-12         0.00000E+00
    0.49873E-07         0.17553E-12         0.00000E+00
    0.49873E-07         0.18218E-12         0.00000E+00
    0.49873E-07         0.18819E-12         0.00000E+00
    0.49873E-07         0.19353E-12         0.00000E+00
    0.49873E-07         0.19820E-12         0.00000E+00
    0.49873E-07         0.20218E-12         0.00000E+00
    0.49873E-07         0.20545E-12         0.00000E+00
    0.49873E-07         0.20799E-12         0.00000E+00
    0.49873E-07         0.20981E-12         0.00000E+00
    0.49873E-07         0.21088E-12         0.00000E+00
    0.49873E-07         0.21120E-12         0.00000E+00
    0.49873E-07         0.21077E-12         0.00000E+00
    0.49873E-07         0.20957E-12         0.00000E+00
    0.49873E-07         0.20760E-12         0.00000E+00
    0.49873E-07         0.20487E-12         0.00000E+00
    0.49873E-07         0.20136E-12         0.00000E+00
    0.49873E-07         0.19708E-12         0.00000E+00
    0.49873E-07         0.19202E-12         0.00000E+00
    0.49873E-07         0.18619E-12         0.00000E+00
    0.49873E-07         0.17958E-12         0.00000E+00
    0.49873E-07         0.17221E-12         0.00000E+00
    0.49873E-07         0.16407E-12         0.00000E+00
    0.49873E-07         0.15517E-12         0.00000E+00
    0.49873E-07         0.14551E-12         0.00000E+00
    0.49873E-07         0.13510E-12         0.00000E+00
    0.49873E-07         0.12394E-12         0.00000E+00
    0.49873E-07         0.11204E-12         0.00000E+00
    0.49873E-07         0.99415E-13         0.00000E+00
    0.49873E-07         0.86063E-13         0.00000E+00
    0.49873E-07         0.71995E-13         0.00000E+00
    0.49873E-07         0.57219E-13         0.00000E+00
    0.49873E-07         0.41745E-13         0.00000E+00
    0.49873E-07         0.25582E-13         0.00000E+00
    0.49873E-07         0.87384E-14         0.00000E+00
    0.49874E-07         0.43139E-14         0.00000E+00
    0.49874E-07         0.13062E-13         0.00000E+00
    0.49874E-07         0.21931E-13         0.00000E+00
    0.49874E-07         0.30869E-13         0.00000E+00
    0.49874E-07         0.39824E-13         0.00000E+00
    0.49874E-07         0.48749E-13         0.00000E+00
    0.49874E-07         0.57595E-13         0.00000E+00
    0.49874E-07         0.66320E-13         0.00000E+00
    0.49874E-07         0.74881E-13         0.00000E+00
    0.49874E-07         0.83237E-13         0.00000E+00
    0.49874E-07         0.91352E-13         0.00000E+00
    0.49874E-07         0.99189E-13         0.00000E+00
    0.49874E-07         0.10671E-12         0.00000E+00
    0.49874E-07         0.11390E-12         0.00000E+00
    0.49874E-07         0.12071E-12         0.00000E+00
    0.49874E-07         0.12711E-12         0.00000E+00
    0.49874E-07         0.13310E-12         0.00000E+00
    0.49874E-07         0.13863E-12         0.00000E+00
    0.49874E-07         0.14368E-12         0.00000E+00
    0.49874E-07         0.14824E-12         0.00000E+00
    0.49874E-07         0.15229E-12         0.00000E+00
    0.49874E-07         0.15581E-12         0.00000E+00
    0.49874E-07         0.15878E-12         0.00000E+00
    0.49874E-07         0.16119E-12         0.00000E+00
    0.49874E-07         0.16302E-12         0.00000E+00
    0.49874E-07         0.16427E-12         0.00000E+00
    0.49874E-07         0.16492E-12         0.00000E+00
    0.49874E-07         0.16497E-12         0.00000E+00
    0.49874E-07         0.16440E-12         0.00000E+00
    0.49874E-07         0.16321E-12         0.00000E+00
    0.49874E-07         0.16139E-12         0.00000E+00
    0.49874E-07         0.15895E-12         0.00000E+00
    0.49874E-07         0.15587E-12         0.00000E+00
    0.49874E-07         0.15215E-12         0.00000E+00
    0.49874E-07         0.14780E-12         0.00000E+00
    0.49874E-07         0.14280E-12         0.00000E+00
    0.49874E-07         0.13717E-12         0.00000E+00
    0.49874E-07         0.13090E-12         0.00000E+00
    0.49874E-07         0.12399E-12         0.00000E+00
    0.49874E-07         0.11645E-12         0.00000E+00
    0.49874E-07         0.10828E-12         0.00000E+00
    0.49874E-07         0.99478E-13         0.00000E+00
    0.49874E-07         0.90055E-13         0.00000E+00
    0.49874E-07         0.80014E-13         0.00000E+00
    0.49874E-07         0.69359E-13         0.00000E+00
    0.49874E-07         0.58096E-13         0.00000E+00
    0.49874E-07         0.46231E-13         0.00000E+00
    0.49874E-07         0.33771E-13         0.00000E+00
    0.49874E-07         0.20721E-13         0.00000E+00
    0.49874E-07         0.70884E-14         0.00000E+00
    0.49875E-07         0.26231E-14         0.00000E+00
    0.49875E-07         0.80679E-14         0.00000E+00
    0.49875E-07         0.13748E-13         0.00000E+00
    0.49875E-07         0.19616E-13         0.00000E+00
    0.49875E-07         0.25626E-13         0.00000E+00
    0.49875E-07         0.31733E-13         0.00000E+00
    0.49875E-07         0.37895E-13         0.00000E+00
    0.49875E-07         0.44071E-13         0.00000E+00
    0.49875E-07         0.50222E-13         0.00000E+00
    0.49875E-07         0.56311E-13         0.00000E+00
    0.49875E-07         0.62302E-13         0.00000E+00
    0.49876E-07         0.68161E-13         0.00000E+00
    0.49876E-07         0.73856E-13         0.00000E+00
    0.49876E-07         0.79357E-13         0.00000E+00
    0.49876E-07         0.84634E-13         0.00000E+00
    0.49876E-07         0.89661E-13         0.00000E+00
    0.49876E-07         0.94412E-13         0.00000E+00
    0.49876E-07         0.98862E-13         0.00000E+00
    0.49876E-07         0.10299E-12         0.00000E+00
    0.49876E-07         0.10677E-12         0.00000E+00
    0.49876E-07         0.11019E-12         0.00000E+00
    0.49876E-07         0.11323E-12         0.00000E+00
    0.49876E-07         0.11587E-12         0.00000E+00
    0.49876E-07         0.11810E-12         0.00000E+00
    0.49876E-07         0.11989E-12         0.00000E+00
    0.49876E-07         0.12125E-12         0.00000E+00
    0.49876E-07         0.12215E-12         0.00000E+00
    0.49876E-07         0.12259E-12         0.00000E+00
    0.49876E-07         0.12256E-12         0.00000E+00
    0.49876E-07         0.12204E-12         0.00000E+00
    0.49876E-07         0.12104E-12         0.00000E+00
    0.49876E-07         0.11954E-12         0.00000E+00
    0.49876E-07         0.11754E-12         0.00000E+00
    0.49876E-07         0.11503E-12         0.00000E+00
    0.49876E-07         0.11202E-12         0.00000E+00
    0.49876E-07         0.10849E-12         0.00000E+00
    0.49876E-07         0.10445E-12         0.00000E+00
    0.49876E-07         0.99901E-13         0.00000E+00
    0.49876E-07         0.94833E-13         0.00000E+00
    0.49876E-07         0.89250E-13         0.00000E+00
    0.49876E-07         0.83154E-13         0.00000E+00
    0.49876E-07         0.76544E-13         0.00000E+00
    0.49876E-07         0.69424E-13         0.00000E+00
    0.49876E-07         0.61795E-13         0.00000E+00
    0.49876E-07         0.53661E-13         0.00000E+00
    0.49876E-07         0.45025E-13         0.00000E+00
    0.49876E-07         0.35890E-13         0.00000E+00
    0.49876E-07         0.26260E-13         0.00000E+00
    0.49876E-07         0.16139E-13         0.00000E+00
    0.49876E-07         0.55314E-14         0.00000E+00
    0.49877E-07         0.11260E-14         0.00000E+00
    0.49877E-07         0.36399E-14         0.00000E+00
    0.49877E-07         0.64816E-14         0.00000E+00
    0.49877E-07         0.96085E-14         0.00000E+00
    0.49877E-07         0.12980E-13         0.00000E+00
    0.49877E-07         0.16555E-13         0.00000E+00
    0.49877E-07         0.20296E-13         0.00000E+00
    0.49877E-07         0.24166E-13         0.00000E+00
    0.49877E-07         0.28130E-13         0.00000E+00
    0.49877E-07         0.32152E-13         0.00000E+00
    0.49877E-07         0.36200E-13         0.00000E+00
    0.49877E-07         0.40243E-13         0.00000E+00
    0.49877E-07         0.44250E-13         0.00000E+00
    0.49877E-07         0.48193E-13         0.00000E+00
    0.49877E-07         0.52044E-13         0.00000E+00
    0.49877E-07         0.55778E-13         0.00000E+00
    0.49877E-07         0.59369E-13         0.00000E+00
    0.49877E-07         0.62794E-13         0.00000E+00
    0.49877E-07         0.66032E-13         0.00000E+00
    0.49877E-07         0.69061E-13         0.00000E+00
    0.49877E-07         0.71862E-13         0.00000E+00
    0.49877E-07         0.74417E-13         0.00000E+00
    0.49877E-07         0.76708E-13         0.00000E+00
    0.49877E-07         0.78720E-13         0.00000E+00
    0.49877E-07         0.80438E-13         0.00000E+00
    0.49877E-07         0.81848E-13         0.00000E+00
    0.49877E-07         0.82938E-13         0.00000E+00
    0.49877E-07         0.83696E-13         0.00000E+00
    0.49877E-07         0.84112E-13         0.00000E+00
    0.49877E-07         0.84175E-13         0.00000E+00
    0.49877E-07         0.83879E-13         0.00000E+00
    0.49877E-07         0.83214E-13         0.00000E+00
    0.49877E-07         0.82174E-13         0.00000E+00
    0.49877E-07         0.80753E-13         0.00000E+00
    0.49877E-07         0.78946E-13         0.00000E+00
    0.49877E-07         0.76749E-13         0.00000E+00
    0.49877E-07         0.74157E-13         0.00000E+00
    0.49877E-07         0.71169E-13         0.00000E+00
    0.49877E-07         0.67782E-13         0.00000E+00
    0.49877E-07         0.63994E-13         0.00000E+00
    0.49877E-07         0.59804E-13         0.00000E+00
    0.49877E-07         0.55211E-13         0.00000E+00
    0.49877E-07         0.50216E-13         0.00000E+00
    0.49877E-07         0.44819E-13         0.00000E+00
    0.49877E-07         0.39022E-13         0.00000E+00
    0.49877E-07         0.32824E-13         0.00000E+00
    0.49877E-07         0.26228E-13         0.00000E+00
    0.49877E-07         0.19236E-13         0.00000E+00
    0.49877E-07         0.11850E-13         0.00000E+00
    0.49877E-07         0.40725E-14         0.00000E+00
    0.49879E-07        -0.20117E-15         0.00000E+00
    0.49879E-07        -0.28985E-15         0.00000E+00
    0.49879E-07         0.24977E-16         0.00000E+00
    0.49879E-07         0.70586E-15         0.00000E+00
    0.49879E-07         0.17163E-14         0.00000E+00
    0.49879E-07         0.30209E-14         0.00000E+00
    0.49879E-07         0.45851E-14         0.00000E+00
    0.49879E-07         0.63757E-14         0.00000E+00
    0.49879E-07         0.83604E-14         0.00000E+00
    0.49879E-07         0.10508E-13         0.00000E+00
    0.49879E-07         0.12788E-13         0.00000E+00
    0.49879E-07         0.15173E-13         0.00000E+00
    0.49879E-07         0.17633E-13         0.00000E+00
    0.49879E-07         0.20143E-13         0.00000E+00
    0.49879E-07         0.22677E-13         0.00000E+00
    0.49879E-07         0.25210E-13         0.00000E+00
    0.49879E-07         0.27719E-13         0.00000E+00
    0.49879E-07         0.30183E-13         0.00000E+00
    0.49879E-07         0.32579E-13         0.00000E+00
    0.49879E-07         0.34887E-13         0.00000E+00
    0.49879E-07         0.37090E-13         0.00000E+00
    0.49879E-07         0.39168E-13         0.00000E+00
    0.49879E-07         0.41105E-13         0.00000E+00
    0.49879E-07         0.42886E-13         0.00000E+00
    0.49879E-07         0.44494E-13         0.00000E+00
    0.49879E-07         0.45917E-13         0.00000E+00
    0.49879E-07         0.47142E-13         0.00000E+00
    0.49879E-07         0.48155E-13         0.00000E+00
    0.49879E-07         0.48947E-13         0.00000E+00
    0.49879E-07         0.49507E-13         0.00000E+00
    0.49879E-07         0.49825E-13         0.00000E+00
    0.49879E-07         0.49893E-13         0.00000E+00
    0.49879E-07         0.49703E-13         0.00000E+00
    0.49879E-07         0.49249E-13         0.00000E+00
    0.49879E-07         0.48523E-13         0.00000E+00
    0.49879E-07         0.47521E-13         0.00000E+00
    0.49879E-07         0.46236E-13         0.00000E+00
    0.49879E-07         0.44667E-13         0.00000E+00
    0.49879E-07         0.42807E-13         0.00000E+00
    0.49879E-07         0.40655E-13         0.00000E+00
    0.49879E-07         0.38207E-13         0.00000E+00
    0.49879E-07         0.35463E-13         0.00000E+00
    0.49879E-07         0.32420E-13         0.00000E+00
    0.49879E-07         0.29077E-13         0.00000E+00
    0.49879E-07         0.25433E-13         0.00000E+00
    0.49879E-07         0.21489E-13         0.00000E+00
    0.49879E-07         0.17244E-13         0.00000E+00
    0.49879E-07         0.12699E-13         0.00000E+00
    0.49879E-07         0.78550E-14         0.00000E+00
    0.49879E-07         0.27120E-14         0.00000E+00
    0.49881E-07        -0.13816E-14         0.00000E+00
    0.49881E-07        -0.37880E-14         0.00000E+00
    0.49881E-07        -0.57275E-14         0.00000E+00
    0.49881E-07        -0.72330E-14         0.00000E+00
    0.49881E-07        -0.83367E-14         0.00000E+00
    0.49881E-07        -0.90700E-14         0.00000E+00
    0.49881E-07        -0.94637E-14         0.00000E+00
    0.49881E-07        -0.95475E-14         0.00000E+00
    0.49881E-07        -0.93505E-14         0.00000E+00
    0.49881E-07        -0.89007E-14         0.00000E+00
    0.49881E-07        -0.82254E-14         0.00000E+00
    0.49881E-07        -0.73510E-14         0.00000E+00
    0.49881E-07        -0.63029E-14         0.00000E+00
    0.49881E-07        -0.51057E-14         0.00000E+00
    0.49881E-07        -0.37830E-14         0.00000E+00
    0.49881E-07        -0.23575E-14         0.00000E+00
    0.49881E-07        -0.85092E-15         0.00000E+00
    0.49881E-07         0.71575E-15         0.00000E+00
    0.49881E-07         0.23226E-14         0.00000E+00
    0.49881E-07         0.39506E-14         0.00000E+00
    0.49881E-07         0.55816E-14         0.00000E+00
    0.49881E-07         0.71984E-14         0.00000E+00
    0.49881E-07         0.87844E-14         0.00000E+00
    0.49881E-07         0.10324E-13         0.00000E+00
    0.49881E-07         0.11803E-13         0.00000E+00
    0.49881E-07         0.13208E-13         0.00000E+00
    0.49881E-07         0.14525E-13         0.00000E+00
    0.49881E-07         0.15742E-13         0.00000E+00
    0.49881E-07         0.16848E-13         0.00000E+00
    0.49881E-07         0.17832E-13         0.00000E+00
    0.49881E-07         0.18684E-13         0.00000E+00
    0.49881E-07         0.19395E-13         0.00000E+00
    0.49881E-07         0.19958E-13         0.00000E+00
    0.49881E-07         0.20363E-13         0.00000E+00
    0.49881E-07         0.20604E-13         0.00000E+00
    0.49881E-07         0.20674E-13         0.00000E+00
    0.49881E-07         0.20569E-13         0.00000E+00
    0.49881E-07         0.20281E-13         0.00000E+00
    0.49881E-07         0.19807E-13         0.00000E+00
    0.49881E-07         0.19143E-13         0.00000E+00
    0.49881E-07         0.18285E-13         0.00000E+00
    0.49881E-07         0.17229E-13         0.00000E+00
    0.49881E-07         0.15974E-13         0.00000E+00
    0.49881E-07         0.14516E-13         0.00000E+00
    0.49881E-07         0.12854E-13         0.00000E+00
    0.49881E-07         0.10987E-13         0.00000E+00
    0.49881E-07         0.89135E-14         0.00000E+00
    0.49881E-07         0.66325E-14         0.00000E+00
    0.49881E-07         0.41436E-14         0.00000E+00
    0.49881E-07         0.14467E-14         0.00000E+00
    0.49883E-07        -0.24367E-14         0.00000E+00
    0.49883E-07        -0.69166E-14         0.00000E+00
    0.49883E-07        -0.10875E-13         0.00000E+00
    0.49883E-07        -0.14342E-13         0.00000E+00
    0.49883E-07        -0.17344E-13         0.00000E+00
    0.49883E-07        -0.19911E-13         0.00000E+00
    0.49883E-07        -0.22069E-13         0.00000E+00
    0.49883E-07        -0.23845E-13         0.00000E+00
    0.49883E-07        -0.25264E-13         0.00000E+00
    0.49883E-07        -0.26352E-13         0.00000E+00
    0.49883E-07        -0.27134E-13         0.00000E+00
    0.49883E-07        -0.27634E-13         0.00000E+00
    0.49883E-07        -0.27874E-13         0.00000E+00
    0.49883E-07        -0.27877E-13         0.00000E+00
    0.49883E-07        -0.27665E-13         0.00000E+00
    0.49883E-07        -0.27259E-13         0.00000E+00
    0.49883E-07        -0.26678E-13         0.00000E+00
    0.49883E-07        -0.25943E-13         0.00000E+00
    0.49883E-07        -0.25072E-13         0.00000E+00
    0.49883E-07        -0.24083E-13         0.00000E+00
    0.49883E-07        -0.22992E-13         0.00000E+00
    0.49883E-07        -0.21817E-13         0.00000E+00
    0.49883E-07        -0.20574E-13         0.00000E+00
    0.49883E-07        -0.19276E-13         0.00000E+00
    0.49883E-07        -0.17939E-13         0.00000E+00
    0.49883E-07        -0.16575E-13         0.00000E+00
    0.49883E-07        -0.15198E-13         0.00000E+00
    0.49883E-07        -0.13819E-13         0.00000E+00
    0.49883E-07        -0.12451E-13         0.00000E+00
    0.49883E-07        -0.11103E-13         0.00000E+00
    0.49883E-07        -0.97858E-14         0.00000E+00
    0.49883E-07        -0.85088E-14         0.00000E+00
    0.49883E-07        -0.72807E-14         0.00000E+00
    0.49883E-07        -0.61097E-14         0.00000E+00
    0.49883E-07        -0.50033E-14         0.00000E+00
    0.49883E-07        -0.39686E-14         0.00000E+00
    0.49883E-07        -0.30120E-14         0.00000E+00
    0.49883E-07        -0.21395E-14         0.00000E+00
    0.49883E-07        -0.13564E-14         0.00000E+00
    0.49883E-07        -0.66753E-15         0.00000E+00
    0.49883E-07        -0.77456E-16         0.00000E+00
    0.49883E-07         0.40994E-15         0.00000E+00
    0.49883E-07         0.79112E-15         0.00000E+00
    0.49883E-07         0.10630E-14         0.00000E+00
    0.49883E-07         0.12228E-14         0.00000E+00
    0.49883E-07         0.12683E-14         0.00000E+00
    0.49883E-07         0.11974E-14         0.00000E+00
    0.49883E-07         0.10084E-14         0.00000E+00
    0.49883E-07         0.70017E-15         0.00000E+00
    0.49883E-07         0.27154E-15         0.00000E+00
    0.49885E-07        -0.33856E-14         0.00000E+00
    0.49885E-07        -0.97311E-14         0.00000E+00
    0.49885E-07        -0.15508E-13         0.00000E+00
    0.49885E-07        -0.20742E-13         0.00000E+00
    0.49885E-07        -0.25457E-13         0.00000E+00
    0.49885E-07        -0.29680E-13         0.00000E+00
    0.49885E-07        -0.33432E-13         0.00000E+00
    0.49885E-07        -0.36739E-13         0.00000E+00
    0.49885E-07        -0.39624E-13         0.00000E+00
    0.49885E-07        -0.42109E-13         0.00000E+00
    0.49885E-07        -0.44216E-13         0.00000E+00
    0.49885E-07        -0.45967E-13         0.00000E+00
    0.49885E-07        -0.47382E-13         0.00000E+00
    0.49885E-07        -0.48483E-13         0.00000E+00
    0.49885E-07        -0.49289E-13         0.00000E+00
    0.49885E-07        -0.49820E-13         0.00000E+00
    0.49885E-07        -0.50093E-13         0.00000E+00
    0.49885E-07        -0.50127E-13         0.00000E+00
    0.49885E-07        -0.49939E-13         0.00000E+00
    0.49885E-07        -0.49546E-13         0.00000E+00
    0.49885E-07        -0.48964E-13         0.00000E+00
    0.49885E-07        -0.48208E-13         0.00000E+00
    0.49885E-07        -0.47294E-13         0.00000E+00
    0.49885E-07        -0.46235E-13         0.00000E+00
    0.49885E-07        -0.45045E-13         0.00000E+00
    0.49885E-07        -0.43738E-13         0.00000E+00
    0.49885E-07        -0.42325E-13         0.00000E+00
    0.49885E-07        -0.40818E-13         0.00000E+00
    0.49885E-07        -0.39228E-13         0.00000E+00
    0.49885E-07        -0.37566E-13         0.00000E+00
    0.49885E-07        -0.35843E-13         0.00000E+00
    0.49885E-07        -0.34066E-13         0.00000E+00
    0.49885E-07        -0.32246E-13         0.00000E+00
    0.49885E-07        -0.30391E-13         0.00000E+00
    0.49885E-07        -0.28508E-13         0.00000E+00
    0.49885E-07        -0.26605E-13         0.00000E+00
    0.49885E-07        -0.24688E-13         0.00000E+00
    0.49885E-07        -0.22764E-13         0.00000E+00
    0.49885E-07        -0.20839E-13         0.00000E+00
    0.49885E-07        -0.18918E-13         0.00000E+00
    0.49885E-07        -0.17006E-13         0.00000E+00
    0.49885E-07        -0.15108E-13         0.00000E+00
    0.49885E-07        -0.13227E-13         0.00000E+00
    0.49885E-07        -0.11368E-13         0.00000E+00
    0.49885E-07        -0.95328E-14         0.00000E+00
    0.49885E-07        -0.77255E-14         0.00000E+00
    0.49885E-07        -0.59485E-14         0.00000E+00
    0.49885E-07        -0.42039E-14         0.00000E+00
    0.49885E-07        -0.24936E-14         0.00000E+00
    0.49885E-07        -0.81944E-15         0.00000E+00
    0.49887E-07        -0.42447E-14         0.00000E+00
    0.49887E-07        -0.12280E-13         0.00000E+00
    0.49887E-07        -0.19704E-13         0.00000E+00
    0.49887E-07        -0.26539E-13         0.00000E+00
    0.49887E-07        -0.32808E-13         0.00000E+00
    0.49887E-07        -0.38532E-13         0.00000E+00
    0.49887E-07        -0.43733E-13         0.00000E+00
    0.49887E-07        -0.48432E-13         0.00000E+00
    0.49887E-07        -0.52649E-13         0.00000E+00
    0.49887E-07        -0.56405E-13         0.00000E+00
    0.49887E-07        -0.59720E-13         0.00000E+00
    0.49887E-07        -0.62613E-13         0.00000E+00
    0.49887E-07        -0.65104E-13         0.00000E+00
    0.49887E-07        -0.67210E-13         0.00000E+00
    0.49887E-07        -0.68950E-13         0.00000E+00
    0.49887E-07        -0.70341E-13         0.00000E+00
    0.49887E-07        -0.71401E-13         0.00000E+00
    0.49887E-07        -0.72145E-13         0.00000E+00
    0.49887E-07        -0.72591E-13         0.00000E+00
    0.49887E-07        -0.72753E-13         0.00000E+00
    0.49887E-07        -0.72647E-13         0.00000E+00
    0.49887E-07        -0.72287E-13         0.00000E+00
    0.49887E-07        -0.71686E-13         0.00000E+00
    0.49887E-07        -0.70859E-13         0.00000E+00
    0.49887E-07        -0.69818E-13         0.00000E+00
    0.49887E-07        -0.68576E-13         0.00000E+00
    0.49887E-07        -0.67145E-13         0.00000E+00
    0.49887E-07        -0.65535E-13         0.00000E+00
    0.49887E-07        -0.63757E-13         0.00000E+00
    0.49887E-07        -0.61823E-13         0.00000E+00
    0.49887E-07        -0.59741E-13         0.00000E+00
    0.49887E-07        -0.57521E-13         0.00000E+00
    0.49887E-07        -0.55172E-13         0.00000E+00
    0.49887E-07        -0.52702E-13         0.00000E+00
    0.49887E-07        -0.50120E-13         0.00000E+00
    0.49887E-07        -0.47431E-13         0.00000E+00
    0.49887E-07        -0.44644E-13         0.00000E+00
    0.49887E-07        -0.41765E-13         0.00000E+00
    0.49887E-07        -0.38799E-13         0.00000E+00
    0.49887E-07        -0.35753E-13         0.00000E+00
    0.49887E-07        -0.32632E-13         0.00000E+00
    0.49887E-07        -0.29441E-13         0.00000E+00
    0.49887E-07        -0.26183E-13         0.00000E+00
    0.49887E-07        -0.22864E-13         0.00000E+00
    0.49887E-07        -0.19487E-13         0.00000E+00
    0.49887E-07        -0.16054E-13         0.00000E+00
    0.49887E-07        -0.12570E-13         0.00000E+00
    0.49887E-07        -0.90372E-14         0.00000E+00
    0.49887E-07        -0.54573E-14         0.00000E+00
    0.49887E-07        -0.18326E-14         0.00000E+00
    0.49889E-07        -0.50281E-14         0.00000E+00
    0.49889E-07        -0.14603E-13         0.00000E+00
    0.49889E-07        -0.23529E-13         0.00000E+00
    0.49889E-07        -0.31824E-13         0.00000E+00
    0.49889E-07        -0.39510E-13         0.00000E+00
    0.49889E-07        -0.46604E-13         0.00000E+00
    0.49889E-07        -0.53126E-13         0.00000E+00
    0.49889E-07        -0.59095E-13         0.00000E+00
    0.49889E-07        -0.64530E-13         0.00000E+00
    0.49889E-07        -0.69448E-13         0.00000E+00
    0.49889E-07        -0.73868E-13         0.00000E+00
    0.49889E-07        -0.77807E-13         0.00000E+00
    0.49889E-07        -0.81282E-13         0.00000E+00
    0.49889E-07        -0.84310E-13         0.00000E+00
    0.49889E-07        -0.86909E-13         0.00000E+00
    0.49889E-07        -0.89092E-13         0.00000E+00
    0.49889E-07        -0.90877E-13         0.00000E+00
    0.49889E-07        -0.92278E-13         0.00000E+00
    0.49889E-07        -0.93311E-13         0.00000E+00
    0.49889E-07        -0.93989E-13         0.00000E+00
    0.49889E-07        -0.94327E-13         0.00000E+00
    0.49890E-07        -0.94337E-13         0.00000E+00
    0.49890E-07        -0.94034E-13         0.00000E+00
    0.49890E-07        -0.93429E-13         0.00000E+00
    0.49890E-07        -0.92535E-13         0.00000E+00
    0.49890E-07        -0.91364E-13         0.00000E+00
    0.49890E-07        -0.89926E-13         0.00000E+00
    0.49890E-07        -0.88232E-13         0.00000E+00
    0.49890E-07        -0.86293E-13         0.00000E+00
    0.49890E-07        -0.84119E-13         0.00000E+00
    0.49890E-07        -0.81720E-13         0.00000E+00
    0.49890E-07        -0.79103E-13         0.00000E+00
    0.49890E-07        -0.76278E-13         0.00000E+00
    0.49890E-07        -0.73253E-13         0.00000E+00
    0.49890E-07        -0.70036E-13         0.00000E+00
    0.49890E-07        -0.66634E-13         0.00000E+00
    0.49890E-07        -0.63055E-13         0.00000E+00
    0.49890E-07        -0.59303E-13         0.00000E+00
    0.49890E-07        -0.55387E-13         0.00000E+00
    0.49890E-07        -0.51310E-13         0.00000E+00
    0.49890E-07        -0.47080E-13         0.00000E+00
    0.49890E-07        -0.42700E-13         0.00000E+00
    0.49890E-07        -0.38176E-13         0.00000E+00
    0.49890E-07        -0.33512E-13         0.00000E+00
    0.49890E-07        -0.28711E-13         0.00000E+00
    0.49890E-07        -0.23777E-13         0.00000E+00
    0.49890E-07        -0.18714E-13         0.00000E+00
    0.49890E-07        -0.13524E-13         0.00000E+00
    0.49890E-07        -0.82101E-14         0.00000E+00
    0.49890E-07        -0.27744E-14         0.00000E+00
    0.49892E-07        -0.57473E-14         0.00000E+00
    0.49892E-07        -0.16736E-13         0.00000E+00
    0.49892E-07        -0.27039E-13         0.00000E+00
    0.49892E-07        -0.36674E-13         0.00000E+00
    0.49892E-07        -0.45658E-13         0.00000E+00
    0.49892E-07        -0.54009E-13         0.00000E+00
    0.49892E-07        -0.61743E-13         0.00000E+00
    0.49892E-07        -0.68877E-13         0.00000E+00
    0.49892E-07        -0.75428E-13         0.00000E+00
    0.49892E-07        -0.81413E-13         0.00000E+00
    0.49892E-07        -0.86848E-13         0.00000E+00
    0.49892E-07        -0.91748E-13         0.00000E+00
    0.49892E-07        -0.96128E-13         0.00000E+00
    0.49892E-07        -0.10001E-12         0.00000E+00
    0.49892E-07        -0.10339E-12         0.00000E+00
    0.49892E-07        -0.10631E-12         0.00000E+00
    0.49892E-07        -0.10876E-12         0.00000E+00
    0.49892E-07        -0.11077E-12         0.00000E+00
    0.49892E-07        -0.11235E-12         0.00000E+00
    0.49892E-07        -0.11350E-12         0.00000E+00
    0.49892E-07        -0.11426E-12         0.00000E+00
    0.49892E-07        -0.11461E-12         0.00000E+00
    0.49892E-07        -0.11459E-12         0.00000E+00
    0.49892E-07        -0.11420E-12         0.00000E+00
    0.49892E-07        -0.11344E-12         0.00000E+00
    0.49892E-07        -0.11234E-12         0.00000E+00
    0.49892E-07        -0.11091E-12         0.00000E+00
    0.49892E-07        -0.10914E-12         0.00000E+00
    0.49892E-07        -0.10707E-12         0.00000E+00
    0.49892E-07        -0.10468E-12         0.00000E+00
    0.49892E-07        -0.10199E-12         0.00000E+00
    0.49892E-07        -0.99019E-13         0.00000E+00
    0.49892E-07        -0.95764E-13         0.00000E+00
    0.49892E-07        -0.92234E-13         0.00000E+00
    0.49892E-07        -0.88440E-13         0.00000E+00
    0.49892E-07        -0.84386E-13         0.00000E+00
    0.49892E-07        -0.80081E-13         0.00000E+00
    0.49892E-07        -0.75531E-13         0.00000E+00
    0.49892E-07        -0.70741E-13         0.00000E+00
    0.49892E-07        -0.65718E-13         0.00000E+00
    0.49892E-07        -0.60466E-13         0.00000E+00
    0.49892E-07        -0.54991E-13         0.00000E+00
    0.49892E-07        -0.49298E-13         0.00000E+00
    0.49892E-07        -0.43391E-13         0.00000E+00
    0.49892E-07        -0.37273E-13         0.00000E+00
    0.49892E-07        -0.30949E-13         0.00000E+00
    0.49892E-07        -0.24422E-13         0.00000E+00
    0.49892E-07        -0.17695E-13         0.00000E+00
    0.49892E-07        -0.10770E-13         0.00000E+00
    0.49892E-07        -0.36508E-14         0.00000E+00
    0.49895E-07        -0.64119E-14         0.00000E+00
    0.49895E-07        -0.18706E-13         0.00000E+00
    0.49895E-07        -0.30281E-13         0.00000E+00
    0.49895E-07        -0.41151E-13         0.00000E+00
    0.49895E-07        -0.51333E-13         0.00000E+00
    0.49895E-07        -0.60842E-13         0.00000E+00
    0.49895E-07        -0.69693E-13         0.00000E+00
    0.49895E-07        -0.77901E-13         0.00000E+00
    0.49895E-07        -0.85482E-13         0.00000E+00
    0.49895E-07        -0.92450E-13         0.00000E+00
    0.49895E-07        -0.98820E-13         0.00000E+00
    0.49895E-07        -0.10461E-12         0.00000E+00
    0.49895E-07        -0.10982E-12         0.00000E+00
    0.49895E-07        -0.11448E-12         0.00000E+00
    0.49895E-07        -0.11860E-12         0.00000E+00
    0.49895E-07        -0.12219E-12         0.00000E+00
    0.49895E-07        -0.12526E-12         0.00000E+00
    0.49895E-07        -0.12783E-12         0.00000E+00
    0.49895E-07        -0.12991E-12         0.00000E+00
    0.49895E-07        -0.13152E-12         0.00000E+00
    0.49895E-07        -0.13265E-12         0.00000E+00
    0.49895E-07        -0.13333E-12         0.00000E+00
    0.49895E-07        -0.13357E-12         0.00000E+00
    0.49895E-07        -0.13338E-12         0.00000E+00
    0.49895E-07        -0.13276E-12         0.00000E+00
    0.49895E-07        -0.13173E-12         0.00000E+00
    0.49895E-07        -0.13030E-12         0.00000E+00
    0.49895E-07        -0.12848E-12         0.00000E+00
    0.49895E-07        -0.12628E-12         0.00000E+00
    0.49895E-07        -0.12370E-12         0.00000E+00
    0.49895E-07        -0.12075E-12         0.00000E+00
    0.49895E-07        -0.11745E-12         0.00000E+00
    0.49895E-07        -0.11381E-12         0.00000E+00
    0.49895E-07        -0.10982E-12         0.00000E+00
    0.49895E-07        -0.10549E-12         0.00000E+00
    0.49895E-07        -0.10084E-12         0.00000E+00
    0.49895E-07        -0.95868E-13         0.00000E+00
    0.49895E-07        -0.90582E-13         0.00000E+00
    0.49895E-07        -0.84987E-13         0.00000E+00
    0.49895E-07        -0.79090E-13         0.00000E+00
    0.49895E-07        -0.72895E-13         0.00000E+00
    0.49895E-07        -0.66408E-13         0.00000E+00
    0.49895E-07        -0.59633E-13         0.00000E+00
    0.49895E-07        -0.52574E-13         0.00000E+00
    0.49895E-07        -0.45235E-13         0.00000E+00
    0.49895E-07        -0.37621E-13         0.00000E+00
    0.49895E-07        -0.29734E-13         0.00000E+00
    0.49895E-07        -0.21578E-13         0.00000E+00
    0.49895E-07        -0.13155E-13         0.00000E+00
    0.49895E-07        -0.44674E-14         0.00000E+00
    0.49897E-07        -0.70294E-14         0.00000E+00
    0.49897E-07        -0.20537E-13         0.00000E+00
    0.49897E-07        -0.33291E-13         0.00000E+00
    0.49897E-07        -0.45308E-13         0.00000E+00
    0.49897E-07        -0.56600E-13         0.00000E+00
    0.49897E-07        -0.67182E-13         0.00000E+00
    0.49897E-07        -0.77067E-13         0.00000E+00
    0.49897E-07        -0.86270E-13         0.00000E+00
    0.49897E-07        -0.94803E-13         0.00000E+00
    0.49897E-07        -0.10268E-12         0.00000E+00
    0.49897E-07        -0.10992E-12         0.00000E+00
    0.49897E-07        -0.11652E-12         0.00000E+00
    0.49897E-07        -0.12251E-12         0.00000E+00
    0.49897E-07        -0.12790E-12         0.00000E+00
    0.49897E-07        -0.13269E-12         0.00000E+00
    0.49897E-07        -0.13690E-12         0.00000E+00
    0.49897E-07        -0.14055E-12         0.00000E+00
    0.49897E-07        -0.14364E-12         0.00000E+00
    0.49897E-07        -0.14619E-12         0.00000E+00
    0.49897E-07        -0.14821E-12         0.00000E+00
    0.49897E-07        -0.14970E-12         0.00000E+00
    0.49897E-07        -0.15068E-12         0.00000E+00
    0.49897E-07        -0.15117E-12         0.00000E+00
    0.49897E-07        -0.15116E-12         0.00000E+00
    0.49897E-07        -0.15067E-12         0.00000E+00
    0.49897E-07        -0.14971E-12         0.00000E+00
    0.49897E-07        -0.14829E-12         0.00000E+00
    0.49897E-07        -0.14642E-12         0.00000E+00
    0.49897E-07        -0.14410E-12         0.00000E+00
    0.49897E-07        -0.14135E-12         0.00000E+00
    0.49897E-07        -0.13817E-12         0.00000E+00
    0.49897E-07        -0.13457E-12         0.00000E+00
    0.49897E-07        -0.13056E-12         0.00000E+00
    0.49897E-07        -0.12615E-12         0.00000E+00
    0.49897E-07        -0.12133E-12         0.00000E+00
    0.49897E-07        -0.11613E-12         0.00000E+00
    0.49897E-07        -0.11054E-12         0.00000E+00
    0.49897E-07        -0.10458E-12         0.00000E+00
    0.49897E-07        -0.98237E-13         0.00000E+00
    0.49897E-07        -0.91530E-13         0.00000E+00
    0.49897E-07        -0.84461E-13         0.00000E+00
    0.49897E-07        -0.77034E-13         0.00000E+00
    0.49897E-07        -0.69255E-13         0.00000E+00
    0.49897E-07        -0.61126E-13         0.00000E+00
    0.49897E-07        -0.52653E-13         0.00000E+00
    0.49897E-07        -0.43838E-13         0.00000E+00
    0.49897E-07        -0.34686E-13         0.00000E+00
    0.49897E-07        -0.25198E-13         0.00000E+00
    0.49897E-07        -0.15379E-13         0.00000E+00
    0.49897E-07        -0.52293E-14         0.00000E+00
    0.49900E-07        -0.76061E-14         0.00000E+00
    0.49900E-07        -0.22245E-13         0.00000E+00
    0.49900E-07        -0.36100E-13         0.00000E+00
    0.49900E-07        -0.49184E-13         0.00000E+00
    0.49900E-07        -0.61510E-13         0.00000E+00
    0.49900E-07        -0.73091E-13         0.00000E+00
    0.49900E-07        -0.83938E-13         0.00000E+00
    0.49900E-07        -0.94065E-13         0.00000E+00
    0.49900E-07        -0.10348E-12         0.00000E+00
    0.49900E-07        -0.11221E-12         0.00000E+00
    0.49900E-07        -0.12025E-12         0.00000E+00
    0.49900E-07        -0.12761E-12         0.00000E+00
    0.49900E-07        -0.13432E-12         0.00000E+00
    0.49900E-07        -0.14038E-12         0.00000E+00
    0.49900E-07        -0.14580E-12         0.00000E+00
    0.49900E-07        -0.15059E-12         0.00000E+00
    0.49900E-07        -0.15477E-12         0.00000E+00
    0.49900E-07        -0.15835E-12         0.00000E+00
    0.49900E-07        -0.16133E-12         0.00000E+00
    0.49900E-07        -0.16373E-12         0.00000E+00
    0.49900E-07        -0.16556E-12         0.00000E+00
    0.49900E-07        -0.16682E-12         0.00000E+00
    0.49900E-07        -0.16753E-12         0.00000E+00
    0.49900E-07        -0.16770E-12         0.00000E+00
    0.49900E-07        -0.16733E-12         0.00000E+00
    0.49900E-07        -0.16644E-12         0.00000E+00
    0.49900E-07        -0.16502E-12         0.00000E+00
    0.49900E-07        -0.16311E-12         0.00000E+00
    0.49900E-07        -0.16069E-12         0.00000E+00
    0.49900E-07        -0.15777E-12         0.00000E+00
    0.49900E-07        -0.15438E-12         0.00000E+00
    0.49900E-07        -0.15050E-12         0.00000E+00
    0.49900E-07        -0.14616E-12         0.00000E+00
    0.49900E-07        -0.14135E-12         0.00000E+00
    0.49900E-07        -0.13609E-12         0.00000E+00
    0.49900E-07        -0.13037E-12         0.00000E+00
    0.49900E-07        -0.12421E-12         0.00000E+00
    0.49900E-07        -0.11762E-12         0.00000E+00
    0.49900E-07        -0.11059E-12         0.00000E+00
    0.49900E-07        -0.10313E-12         0.00000E+00
    0.49900E-07        -0.95245E-13         0.00000E+00
    0.49900E-07        -0.86944E-13         0.00000E+00
    0.49900E-07        -0.78230E-13         0.00000E+00
    0.49900E-07        -0.69105E-13         0.00000E+00
    0.49900E-07        -0.59575E-13         0.00000E+00
    0.49900E-07        -0.49641E-13         0.00000E+00
    0.49900E-07        -0.39308E-13         0.00000E+00
    0.49900E-07        -0.28579E-13         0.00000E+00
    0.49900E-07        -0.17456E-13         0.00000E+00
    0.49900E-07        -0.59411E-14         0.00000E+00
    0.49903E-07        -0.81469E-14         0.00000E+00
    0.49903E-07        -0.23846E-13         0.00000E+00
    0.49903E-07        -0.38731E-13         0.00000E+00
    0.49903E-07        -0.52814E-13         0.00000E+00
    0.49903E-07        -0.66107E-13         0.00000E+00
    0.49903E-07        -0.78620E-13         0.00000E+00
    0.49903E-07        -0.90366E-13         0.00000E+00
    0.49903E-07        -0.10136E-12         0.00000E+00
    0.49903E-07        -0.11160E-12         0.00000E+00
    0.49903E-07        -0.12111E-12         0.00000E+00
    0.49903E-07        -0.12990E-12         0.00000E+00
    0.49903E-07        -0.13797E-12         0.00000E+00
    0.49903E-07        -0.14535E-12         0.00000E+00
    0.49903E-07        -0.15203E-12         0.00000E+00
    0.49903E-07        -0.15804E-12         0.00000E+00
    0.49903E-07        -0.16337E-12         0.00000E+00
    0.49903E-07        -0.16805E-12         0.00000E+00
    0.49903E-07        -0.17207E-12         0.00000E+00
    0.49903E-07        -0.17546E-12         0.00000E+00
    0.49903E-07        -0.17822E-12         0.00000E+00
    0.49903E-07        -0.18035E-12         0.00000E+00
    0.49903E-07        -0.18188E-12         0.00000E+00
    0.49903E-07        -0.18280E-12         0.00000E+00
    0.49903E-07        -0.18313E-12         0.00000E+00
    0.49903E-07        -0.18287E-12         0.00000E+00
    0.49903E-07        -0.18204E-12         0.00000E+00
    0.49903E-07        -0.18064E-12         0.00000E+00
    0.49903E-07        -0.17868E-12         0.00000E+00
    0.49903E-07        -0.17616E-12         0.00000E+00
    0.49903E-07        -0.17310E-12         0.00000E+00
    0.49903E-07        -0.16950E-12         0.00000E+00
    0.49903E-07        -0.16537E-12         0.00000E+00
    0.49903E-07        -0.16072E-12         0.00000E+00
    0.49903E-07        -0.15555E-12         0.00000E+00
    0.49903E-07        -0.14986E-12         0.00000E+00
    0.49903E-07        -0.14367E-12         0.00000E+00
    0.49903E-07        -0.13698E-12         0.00000E+00
    0.49903E-07        -0.12979E-12         0.00000E+00
    0.49903E-07        -0.12212E-12         0.00000E+00
    0.49903E-07        -0.11396E-12         0.00000E+00
    0.49903E-07        -0.10532E-12         0.00000E+00
    0.49903E-07        -0.96203E-13         0.00000E+00
    0.49903E-07        -0.86616E-13         0.00000E+00
    0.49903E-07        -0.76562E-13         0.00000E+00
    0.49903E-07        -0.66044E-13         0.00000E+00
    0.49903E-07        -0.55065E-13         0.00000E+00
    0.49903E-07        -0.43630E-13         0.00000E+00
    0.49903E-07        -0.31740E-13         0.00000E+00
    0.49903E-07        -0.19398E-13         0.00000E+00
    0.49903E-07        -0.66068E-14         0.00000E+00
    0.49906E-07        -0.86557E-14         0.00000E+00
    0.49906E-07        -0.25352E-13         0.00000E+00
    0.49906E-07        -0.41205E-13         0.00000E+00
    0.49906E-07        -0.56225E-13         0.00000E+00
    0.49906E-07        -0.70423E-13         0.00000E+00
    0.49906E-07        -0.83811E-13         0.00000E+00
    0.49906E-07        -0.96397E-13         0.00000E+00
    0.49906E-07        -0.10819E-12         0.00000E+00
    0.49906E-07        -0.11921E-12         0.00000E+00
    0.49906E-07        -0.12946E-12         0.00000E+00
    0.49906E-07        -0.13894E-12         0.00000E+00
    0.49906E-07        -0.14768E-12         0.00000E+00
    0.49906E-07        -0.15568E-12         0.00000E+00
    0.49906E-07        -0.16295E-12         0.00000E+00
    0.49906E-07        -0.16950E-12         0.00000E+00
    0.49906E-07        -0.17534E-12         0.00000E+00
    0.49906E-07        -0.18047E-12         0.00000E+00
    0.49906E-07        -0.18492E-12         0.00000E+00
    0.49906E-07        -0.18868E-12         0.00000E+00
    0.49906E-07        -0.19177E-12         0.00000E+00
    0.49906E-07        -0.19420E-12         0.00000E+00
    0.49906E-07        -0.19596E-12         0.00000E+00
    0.49906E-07        -0.19708E-12         0.00000E+00
    0.49906E-07        -0.19756E-12         0.00000E+00
    0.49906E-07        -0.19741E-12         0.00000E+00
    0.49906E-07        -0.19663E-12         0.00000E+00
    0.49906E-07        -0.19524E-12         0.00000E+00
    0.49906E-07        -0.19324E-12         0.00000E+00
    0.49906E-07        -0.19063E-12         0.00000E+00
    0.49906E-07        -0.18743E-12         0.00000E+00
    0.49906E-07        -0.18365E-12         0.00000E+00
    0.49906E-07        -0.17928E-12         0.00000E+00
    0.49906E-07        -0.17433E-12         0.00000E+00
    0.49906E-07        -0.16882E-12         0.00000E+00
    0.49906E-07        -0.16274E-12         0.00000E+00
    0.49906E-07        -0.15611E-12         0.00000E+00
    0.49906E-07        -0.14892E-12         0.00000E+00
    0.49906E-07        -0.14118E-12         0.00000E+00
    0.49906E-07        -0.13290E-12         0.00000E+00
    0.49906E-07        -0.12409E-12         0.00000E+00
    0.49906E-07        -0.11474E-12         0.00000E+00
    0.49906E-07        -0.10486E-12         0.00000E+00
    0.49906E-07        -0.94462E-13         0.00000E+00
    0.49906E-07        -0.83538E-13         0.00000E+00
    0.49906E-07        -0.72097E-13         0.00000E+00
    0.49906E-07        -0.60141E-13         0.00000E+00
    0.49906E-07        -0.47674E-13         0.00000E+00
    0.49906E-07        -0.34698E-13         0.00000E+00
    0.49906E-07        -0.21216E-13         0.00000E+00
    0.49906E-07        -0.72301E-14         0.00000E+00
    0.49909E-07        -0.91353E-14         0.00000E+00
    0.49909E-07        -0.26771E-13         0.00000E+00
    0.49909E-07        -0.43535E-13         0.00000E+00
    0.49909E-07        -0.59437E-13         0.00000E+00
    0.49909E-07        -0.74487E-13         0.00000E+00
    0.49909E-07        -0.88695E-13         0.00000E+00
    0.49909E-07        -0.10207E-12         0.00000E+00
    0.49909E-07        -0.11462E-12         0.00000E+00
    0.49909E-07        -0.12636E-12         0.00000E+00
    0.49909E-07        -0.13730E-12         0.00000E+00
    0.49909E-07        -0.14744E-12         0.00000E+00
    0.49909E-07        -0.15680E-12         0.00000E+00
    0.49909E-07        -0.16538E-12         0.00000E+00
    0.49909E-07        -0.17320E-12         0.00000E+00
    0.49909E-07        -0.18025E-12         0.00000E+00
    0.49909E-07        -0.18656E-12         0.00000E+00
    0.49910E-07        -0.19213E-12         0.00000E+00
    0.49910E-07        -0.19697E-12         0.00000E+00
    0.49910E-07        -0.20108E-12         0.00000E+00
    0.49910E-07        -0.20448E-12         0.00000E+00
    0.49910E-07        -0.20717E-12         0.00000E+00
    0.49910E-07        -0.20917E-12         0.00000E+00
    0.49910E-07        -0.21047E-12         0.00000E+00
    0.49910E-07        -0.21109E-12         0.00000E+00
    0.49910E-07        -0.21103E-12         0.00000E+00
    0.49910E-07        -0.21031E-12         0.00000E+00
    0.49910E-07        -0.20892E-12         0.00000E+00
    0.49910E-07        -0.20688E-12         0.00000E+00
    0.49910E-07        -0.20419E-12         0.00000E+00
    0.49910E-07        -0.20086E-12         0.00000E+00
    0.49910E-07        -0.19689E-12         0.00000E+00
    0.49910E-07        -0.19230E-12         0.00000E+00
    0.49910E-07        -0.18708E-12         0.00000E+00
    0.49910E-07        -0.18125E-12         0.00000E+00
    0.49910E-07        -0.17480E-12         0.00000E+00
    0.49910E-07        -0.16775E-12         0.00000E+00
    0.49910E-07        -0.16010E-12         0.00000E+00
    0.49910E-07        -0.15185E-12         0.00000E+00
    0.49910E-07        -0.14301E-12         0.00000E+00
    0.49910E-07        -0.13358E-12         0.00000E+00
    0.49910E-07        -0.12357E-12         0.00000E+00
    0.49910E-07        -0.11298E-12         0.00000E+00
    0.49910E-07        -0.10181E-12         0.00000E+00
    0.49910E-07        -0.90073E-13         0.00000E+00
    0.49910E-07        -0.77768E-13         0.00000E+00
    0.49910E-07        -0.64897E-13         0.00000E+00
    0.49910E-07        -0.51463E-13         0.00000E+00
    0.49910E-07        -0.37470E-13         0.00000E+00
    0.49910E-07        -0.22920E-13         0.00000E+00
    0.49910E-07        -0.78141E-14         0.00000E+00
    0.49913E-07        -0.95883E-14         0.00000E+00
    0.49913E-07        -0.28110E-13         0.00000E+00
    0.49913E-07        -0.45733E-13         0.00000E+00
    0.49913E-07        -0.62466E-13         0.00000E+00
    0.49913E-07        -0.78318E-13         0.00000E+00
    0.49913E-07        -0.93299E-13         0.00000E+00
    0.49913E-07        -0.10742E-12         0.00000E+00
    0.49913E-07        -0.12068E-12         0.00000E+00
    0.49913E-07        -0.13310E-12         0.00000E+00
    0.49913E-07        -0.14468E-12         0.00000E+00
    0.49913E-07        -0.15544E-12         0.00000E+00
    0.49913E-07        -0.16538E-12         0.00000E+00
    0.49913E-07        -0.17451E-12         0.00000E+00
    0.49913E-07        -0.18283E-12         0.00000E+00
    0.49913E-07        -0.19036E-12         0.00000E+00
    0.49913E-07        -0.19711E-12         0.00000E+00
    0.49913E-07        -0.20308E-12         0.00000E+00
    0.49913E-07        -0.20829E-12         0.00000E+00
    0.49913E-07        -0.21273E-12         0.00000E+00
    0.49913E-07        -0.21641E-12         0.00000E+00
    0.49913E-07        -0.21936E-12         0.00000E+00
    0.49913E-07        -0.22156E-12         0.00000E+00
    0.49913E-07        -0.22303E-12         0.00000E+00
    0.49913E-07        -0.22378E-12         0.00000E+00
    0.49913E-07        -0.22381E-12         0.00000E+00
    0.49913E-07        -0.22313E-12         0.00000E+00
    0.49913E-07        -0.22175E-12         0.00000E+00
    0.49913E-07        -0.21967E-12         0.00000E+00
    0.49913E-07        -0.21690E-12         0.00000E+00
    0.49913E-07        -0.21345E-12         0.00000E+00
    0.49913E-07        -0.20932E-12         0.00000E+00
    0.49913E-07        -0.20451E-12         0.00000E+00
    0.49913E-07        -0.19904E-12         0.00000E+00
    0.49913E-07        -0.19290E-12         0.00000E+00
    0.49913E-07        -0.18611E-12         0.00000E+00
    0.49913E-07        -0.17867E-12         0.00000E+00
    0.49913E-07        -0.17058E-12         0.00000E+00
    0.49913E-07        -0.16185E-12         0.00000E+00
    0.49913E-07        -0.15248E-12         0.00000E+00
    0.49913E-07        -0.14247E-12         0.00000E+00
    0.49913E-07        -0.13184E-12         0.00000E+00
    0.49913E-07        -0.12058E-12         0.00000E+00
    0.49913E-07        -0.10870E-12         0.00000E+00
    0.49913E-07        -0.96199E-13         0.00000E+00
    0.49913E-07        -0.83083E-13         0.00000E+00
    0.49913E-07        -0.69354E-13         0.00000E+00
    0.49913E-07        -0.55015E-13         0.00000E+00
    0.49913E-07        -0.40068E-13         0.00000E+00
    0.49913E-07        -0.24516E-13         0.00000E+00
    0.49913E-07        -0.83614E-14         0.00000E+00
    0.49916E-07        -0.10017E-13         0.00000E+00
    0.49916E-07        -0.29376E-13         0.00000E+00
    0.49916E-07        -0.47810E-13         0.00000E+00
    0.49916E-07        -0.65326E-13         0.00000E+00
    0.49916E-07        -0.81934E-13         0.00000E+00
    0.49916E-07        -0.97642E-13         0.00000E+00
    0.49916E-07        -0.11246E-12         0.00000E+00
    0.49916E-07        -0.12639E-12         0.00000E+00
    0.49916E-07        -0.13945E-12         0.00000E+00
    0.49916E-07        -0.15164E-12         0.00000E+00
    0.49916E-07        -0.16297E-12         0.00000E+00
    0.49916E-07        -0.17346E-12         0.00000E+00
    0.49916E-07        -0.18310E-12         0.00000E+00
    0.49916E-07        -0.19190E-12         0.00000E+00
    0.49916E-07        -0.19988E-12         0.00000E+00
    0.49916E-07        -0.20704E-12         0.00000E+00
    0.49916E-07        -0.21339E-12         0.00000E+00
    0.49916E-07        -0.21893E-12         0.00000E+00
    0.49916E-07        -0.22368E-12         0.00000E+00
    0.49916E-07        -0.22763E-12         0.00000E+00
    0.49916E-07        -0.23081E-12         0.00000E+00
    0.49916E-07        -0.23321E-12         0.00000E+00
    0.49916E-07        -0.23484E-12         0.00000E+00
    0.49916E-07        -0.23570E-12         0.00000E+00
    0.49916E-07        -0.23582E-12         0.00000E+00
    0.49916E-07        -0.23518E-12         0.00000E+00
    0.49916E-07        -0.23380E-12         0.00000E+00
    0.49916E-07        -0.23169E-12         0.00000E+00
    0.49916E-07        -0.22884E-12         0.00000E+00
    0.49916E-07        -0.22527E-12         0.00000E+00
    0.49916E-07        -0.22098E-12         0.00000E+00
    0.49916E-07        -0.21597E-12         0.00000E+00
    0.49916E-07        -0.21026E-12         0.00000E+00
    0.49916E-07        -0.20384E-12         0.00000E+00
    0.49916E-07        -0.19672E-12         0.00000E+00
    0.49916E-07        -0.18891E-12         0.00000E+00
    0.49916E-07        -0.18041E-12         0.00000E+00
    0.49916E-07        -0.17123E-12         0.00000E+00
    0.49916E-07        -0.16136E-12         0.00000E+00
    0.49916E-07        -0.15082E-12         0.00000E+00
    0.49916E-07        -0.13960E-12         0.00000E+00
    0.49916E-07        -0.12771E-12         0.00000E+00
    0.49916E-07        -0.11516E-12         0.00000E+00
    0.49916E-07        -0.10194E-12         0.00000E+00
    0.49916E-07        -0.88066E-13         0.00000E+00
    0.49916E-07        -0.73533E-13         0.00000E+00
    0.49916E-07        -0.58345E-13         0.00000E+00
    0.49916E-07        -0.42504E-13         0.00000E+00
    0.49916E-07        -0.26013E-13         0.00000E+00
    0.49916E-07        -0.88746E-14         0.00000E+00
    0.49920E-07        -0.10421E-13         0.00000E+00
    0.49920E-07        -0.30572E-13         0.00000E+00
    0.49920E-07        -0.49772E-13         0.00000E+00
    0.49920E-07        -0.68028E-13         0.00000E+00
    0.49920E-07        -0.85348E-13         0.00000E+00
    0.49920E-07        -0.10174E-12         0.00000E+00
    0.49920E-07        -0.11722E-12         0.00000E+00
    0.49920E-07        -0.13178E-12         0.00000E+00
    0.49920E-07        -0.14544E-12         0.00000E+00
    0.49920E-07        -0.15820E-12         0.00000E+00
    0.49920E-07        -0.17007E-12         0.00000E+00
    0.49920E-07        -0.18107E-12         0.00000E+00
    0.49920E-07        -0.19119E-12         0.00000E+00
    0.49920E-07        -0.20044E-12         0.00000E+00
    0.49920E-07        -0.20884E-12         0.00000E+00
    0.49920E-07        -0.21638E-12         0.00000E+00
    0.49920E-07        -0.22308E-12         0.00000E+00
    0.49920E-07        -0.22894E-12         0.00000E+00
    0.49920E-07        -0.23397E-12         0.00000E+00
    0.49920E-07        -0.23818E-12         0.00000E+00
    0.49920E-07        -0.24157E-12         0.00000E+00
    0.49920E-07        -0.24415E-12         0.00000E+00
    0.49920E-07        -0.24593E-12         0.00000E+00
    0.49920E-07        -0.24691E-12         0.00000E+00
    0.49920E-07        -0.24710E-12         0.00000E+00
    0.49920E-07        -0.24650E-12         0.00000E+00
    0.49920E-07        -0.24512E-12         0.00000E+00
    0.49920E-07        -0.24297E-12         0.00000E+00
    0.49920E-07        -0.24005E-12         0.00000E+00
    0.49920E-07        -0.23636E-12         0.00000E+00
    0.49920E-07        -0.23192E-12         0.00000E+00
    0.49920E-07        -0.22673E-12         0.00000E+00
    0.49920E-07        -0.22079E-12         0.00000E+00
    0.49920E-07        -0.21410E-12         0.00000E+00
    0.49920E-07        -0.20668E-12         0.00000E+00
    0.49920E-07        -0.19852E-12         0.00000E+00
    0.49920E-07        -0.18964E-12         0.00000E+00
    0.49920E-07        -0.18003E-12         0.00000E+00
    0.49920E-07        -0.16969E-12         0.00000E+00
    0.49920E-07        -0.15864E-12         0.00000E+00
    0.49920E-07        -0.14688E-12         0.00000E+00
    0.49920E-07        -0.13440E-12         0.00000E+00
    0.49920E-07        -0.12122E-12         0.00000E+00
    0.49920E-07        -0.10733E-12         0.00000E+00
    0.49920E-07        -0.92739E-13         0.00000E+00
    0.49920E-07        -0.77451E-13         0.00000E+00
    0.49920E-07        -0.61466E-13         0.00000E+00
    0.49920E-07        -0.44788E-13         0.00000E+00
    0.49920E-07        -0.27417E-13         0.00000E+00
    0.49920E-07        -0.93556E-14         0.00000E+00
    0.49923E-07        -0.10804E-13         0.00000E+00
    0.49923E-07        -0.31702E-13         0.00000E+00
    0.49923E-07        -0.51625E-13         0.00000E+00
    0.49923E-07        -0.70578E-13         0.00000E+00
    0.49923E-07        -0.88571E-13         0.00000E+00
    0.49923E-07        -0.10561E-12         0.00000E+00
    0.49923E-07        -0.12170E-12         0.00000E+00
    0.49923E-07        -0.13686E-12         0.00000E+00
    0.49923E-07        -0.15108E-12         0.00000E+00
    0.49923E-07        -0.16438E-12         0.00000E+00
    0.49923E-07        -0.17676E-12         0.00000E+00
    0.49923E-07        -0.18824E-12         0.00000E+00
    0.49923E-07        -0.19881E-12         0.00000E+00
    0.49923E-07        -0.20848E-12         0.00000E+00
    0.49923E-07        -0.21727E-12         0.00000E+00
    0.49923E-07        -0.22517E-12         0.00000E+00
    0.49923E-07        -0.23220E-12         0.00000E+00
    0.49923E-07        -0.23836E-12         0.00000E+00
    0.49923E-07        -0.24366E-12         0.00000E+00
    0.49923E-07        -0.24810E-12         0.00000E+00
    0.49923E-07        -0.25169E-12         0.00000E+00
    0.49923E-07        -0.25444E-12         0.00000E+00
    0.49923E-07        -0.25636E-12         0.00000E+00
    0.49923E-07        -0.25744E-12         0.00000E+00
    0.49923E-07        -0.25769E-12         0.00000E+00
    0.49923E-07        -0.25713E-12         0.00000E+00
    0.49923E-07        -0.25575E-12         0.00000E+00
    0.49923E-07        -0.25356E-12         0.00000E+00
    0.49923E-07        -0.25057E-12         0.00000E+00
    0.49923E-07        -0.24678E-12         0.00000E+00
    0.49923E-07        -0.24220E-12         0.00000E+00
    0.49923E-07        -0.23682E-12         0.00000E+00
    0.49923E-07        -0.23067E-12         0.00000E+00
    0.49923E-07        -0.22373E-12         0.00000E+00
    0.49923E-07        -0.21602E-12         0.00000E+00
    0.49923E-07        -0.20754E-12         0.00000E+00
    0.49923E-07        -0.19829E-12         0.00000E+00
    0.49923E-07        -0.18828E-12         0.00000E+00
    0.49923E-07        -0.17751E-12         0.00000E+00
    0.49923E-07        -0.16598E-12         0.00000E+00
    0.49923E-07        -0.15370E-12         0.00000E+00
    0.49923E-07        -0.14067E-12         0.00000E+00
    0.49923E-07        -0.12690E-12         0.00000E+00
    0.49923E-07        -0.11238E-12         0.00000E+00
    0.49923E-07        -0.97119E-13         0.00000E+00
    0.49923E-07        -0.81124E-13         0.00000E+00
    0.49923E-07        -0.64392E-13         0.00000E+00
    0.49923E-07        -0.46928E-13         0.00000E+00
    0.49923E-07        -0.28732E-13         0.00000E+00
    0.49923E-07        -0.98064E-14         0.00000E+00
    0.49927E-07        -0.11165E-13         0.00000E+00
    0.49927E-07        -0.32769E-13         0.00000E+00
    0.49927E-07        -0.53373E-13         0.00000E+00
    0.49927E-07        -0.72984E-13         0.00000E+00
    0.49927E-07        -0.91610E-13         0.00000E+00
    0.49927E-07        -0.10926E-12         0.00000E+00
    0.49927E-07        -0.12593E-12         0.00000E+00
    0.49927E-07        -0.14164E-12         0.00000E+00
    0.49927E-07        -0.15640E-12         0.00000E+00
    0.49927E-07        -0.17020E-12         0.00000E+00
    0.49927E-07        -0.18306E-12         0.00000E+00
    0.49927E-07        -0.19498E-12         0.00000E+00
    0.49927E-07        -0.20598E-12         0.00000E+00
    0.49927E-07        -0.21605E-12         0.00000E+00
    0.49927E-07        -0.22520E-12         0.00000E+00
    0.49927E-07        -0.23344E-12         0.00000E+00
    0.49927E-07        -0.24078E-12         0.00000E+00
    0.49927E-07        -0.24721E-12         0.00000E+00
    0.49927E-07        -0.25276E-12         0.00000E+00
    0.49927E-07        -0.25742E-12         0.00000E+00
    0.49927E-07        -0.26120E-12         0.00000E+00
    0.49927E-07        -0.26411E-12         0.00000E+00
    0.49927E-07        -0.26615E-12         0.00000E+00
    0.49927E-07        -0.26732E-12         0.00000E+00
    0.49927E-07        -0.26764E-12         0.00000E+00
    0.49927E-07        -0.26711E-12         0.00000E+00
    0.49927E-07        -0.26573E-12         0.00000E+00
    0.49927E-07        -0.26350E-12         0.00000E+00
    0.49927E-07        -0.26044E-12         0.00000E+00
    0.49927E-07        -0.25655E-12         0.00000E+00
    0.49927E-07        -0.25183E-12         0.00000E+00
    0.49927E-07        -0.24629E-12         0.00000E+00
    0.49927E-07        -0.23993E-12         0.00000E+00
    0.49927E-07        -0.23276E-12         0.00000E+00
    0.49927E-07        -0.22478E-12         0.00000E+00
    0.49927E-07        -0.21599E-12         0.00000E+00
    0.49927E-07        -0.20640E-12         0.00000E+00
    0.49927E-07        -0.19601E-12         0.00000E+00
    0.49927E-07        -0.18483E-12         0.00000E+00
    0.49927E-07        -0.17285E-12         0.00000E+00
    0.49927E-07        -0.16009E-12         0.00000E+00
    0.49927E-07        -0.14654E-12         0.00000E+00
    0.49927E-07        -0.13221E-12         0.00000E+00
    0.49927E-07        -0.11711E-12         0.00000E+00
    0.49927E-07        -0.10122E-12         0.00000E+00
    0.49927E-07        -0.84563E-13         0.00000E+00
    0.49927E-07        -0.67132E-13         0.00000E+00
    0.49927E-07        -0.48931E-13         0.00000E+00
    0.49927E-07        -0.29963E-13         0.00000E+00
    0.49927E-07        -0.10228E-13         0.00000E+00
    0.49931E-07        -0.11506E-13         0.00000E+00
    0.49931E-07        -0.33775E-13         0.00000E+00
    0.49931E-07        -0.55021E-13         0.00000E+00
    0.49931E-07        -0.75252E-13         0.00000E+00
    0.49931E-07        -0.94473E-13         0.00000E+00
    0.49931E-07        -0.11269E-12         0.00000E+00
    0.49931E-07        -0.12991E-12         0.00000E+00
    0.49931E-07        -0.14615E-12         0.00000E+00
    0.49931E-07        -0.16140E-12         0.00000E+00
    0.49931E-07        -0.17568E-12         0.00000E+00
    0.49931E-07        -0.18899E-12         0.00000E+00
    0.49931E-07        -0.20133E-12         0.00000E+00
    0.49931E-07        -0.21272E-12         0.00000E+00
    0.49931E-07        -0.22316E-12         0.00000E+00
    0.49931E-07        -0.23265E-12         0.00000E+00
    0.49931E-07        -0.24121E-12         0.00000E+00
    0.49931E-07        -0.24883E-12         0.00000E+00
    0.49931E-07        -0.25553E-12         0.00000E+00
    0.49931E-07        -0.26131E-12         0.00000E+00
    0.49931E-07        -0.26617E-12         0.00000E+00
    0.49931E-07        -0.27013E-12         0.00000E+00
    0.49931E-07        -0.27318E-12         0.00000E+00
    0.49931E-07        -0.27534E-12         0.00000E+00
    0.49931E-07        -0.27660E-12         0.00000E+00
    0.49931E-07        -0.27697E-12         0.00000E+00
    0.49931E-07        -0.27646E-12         0.00000E+00
    0.49931E-07        -0.27508E-12         0.00000E+00
    0.49931E-07        -0.27282E-12         0.00000E+00
    0.49931E-07        -0.26970E-12         0.00000E+00
    0.49931E-07        -0.26571E-12         0.00000E+00
    0.49931E-07        -0.26086E-12         0.00000E+00
    0.49931E-07        -0.25516E-12         0.00000E+00
    0.49931E-07        -0.24861E-12         0.00000E+00
    0.49931E-07        -0.24122E-12         0.00000E+00
    0.49931E-07        -0.23298E-12         0.00000E+00
    0.49931E-07        -0.22390E-12         0.00000E+00
    0.49931E-07        -0.21399E-12         0.00000E+00
    0.49931E-07        -0.20325E-12         0.00000E+00
    0.49931E-07        -0.19168E-12         0.00000E+00
    0.49931E-07        -0.17929E-12         0.00000E+00
    0.49931E-07        -0.16607E-12         0.00000E+00
    0.49931E-07        -0.15204E-12         0.00000E+00
    0.49931E-07        -0.13719E-12         0.00000E+00
    0.49931E-07        -0.12153E-12         0.00000E+00
    0.49931E-07        -0.10506E-12         0.00000E+00
    0.49931E-07        -0.87780E-13         0.00000E+00
    0.49931E-07        -0.69695E-13         0.00000E+00
    0.49931E-07        -0.50805E-13         0.00000E+00
    0.49931E-07        -0.31114E-13         0.00000E+00
    0.49931E-07        -0.10623E-13         0.00000E+00
    0.49934E-07        -0.11827E-13         0.00000E+00
    0.49934E-07        -0.34721E-13         0.00000E+00
    0.49934E-07        -0.56572E-13         0.00000E+00
    0.49934E-07        -0.77384E-13         0.00000E+00
    0.49934E-07        -0.97164E-13         0.00000E+00
    0.49934E-07        -0.11592E-12         0.00000E+00
    0.49934E-07        -0.13366E-12         0.00000E+00
    0.49934E-07        -0.15038E-12         0.00000E+00
    0.49934E-07        -0.16610E-12         0.00000E+00
    0.49934E-07        -0.18082E-12         0.00000E+00
    0.49934E-07        -0.19455E-12         0.00000E+00
    0.49934E-07        -0.20729E-12         0.00000E+00
    0.49934E-07        -0.21905E-12         0.00000E+00
    0.49934E-07        -0.22983E-12         0.00000E+00
    0.49934E-07        -0.23964E-12         0.00000E+00
    0.49934E-07        -0.24849E-12         0.00000E+00
    0.49934E-07        -0.25639E-12         0.00000E+00
    0.49934E-07        -0.26333E-12         0.00000E+00
    0.49934E-07        -0.26932E-12         0.00000E+00
    0.49934E-07        -0.27437E-12         0.00000E+00
    0.49934E-07        -0.27849E-12         0.00000E+00
    0.49934E-07        -0.28168E-12         0.00000E+00
    0.49934E-07        -0.28394E-12         0.00000E+00
    0.49934E-07        -0.28528E-12         0.00000E+00
    0.49934E-07        -0.28571E-12         0.00000E+00
    0.49934E-07        -0.28522E-12         0.00000E+00
    0.49934E-07        -0.28384E-12         0.00000E+00
    0.49934E-07        -0.28155E-12         0.00000E+00
    0.49934E-07        -0.27836E-12         0.00000E+00
    0.49934E-07        -0.27428E-12         0.00000E+00
    0.49934E-07        -0.26931E-12         0.00000E+00
    0.49934E-07        -0.26346E-12         0.00000E+00
    0.49934E-07        -0.25673E-12         0.00000E+00
    0.49934E-07        -0.24913E-12         0.00000E+00
    0.49934E-07        -0.24065E-12         0.00000E+00
    0.49934E-07        -0.23130E-12         0.00000E+00
    0.49934E-07        -0.22109E-12         0.00000E+00
    0.49934E-07        -0.21002E-12         0.00000E+00
    0.49934E-07        -0.19809E-12         0.00000E+00
    0.49934E-07        -0.18530E-12         0.00000E+00
    0.49934E-07        -0.17166E-12         0.00000E+00
    0.49934E-07        -0.15718E-12         0.00000E+00
    0.49934E-07        -0.14184E-12         0.00000E+00
    0.49934E-07        -0.12566E-12         0.00000E+00
    0.49934E-07        -0.10864E-12         0.00000E+00
    0.49934E-07        -0.90784E-13         0.00000E+00
    0.49934E-07        -0.72088E-13         0.00000E+00
    0.49934E-07        -0.52555E-13         0.00000E+00
    0.49934E-07        -0.32189E-13         0.00000E+00
    0.49934E-07        -0.10991E-13         0.00000E+00
    0.49938E-07        -0.12128E-13         0.00000E+00
    0.49938E-07        -0.35610E-13         0.00000E+00
    0.49938E-07        -0.58026E-13         0.00000E+00
    0.49938E-07        -0.79384E-13         0.00000E+00
    0.49938E-07        -0.99689E-13         0.00000E+00
    0.49938E-07        -0.11895E-12         0.00000E+00
    0.49938E-07        -0.13717E-12         0.00000E+00
    0.49938E-07        -0.15435E-12         0.00000E+00
    0.49938E-07        -0.17051E-12         0.00000E+00
    0.49938E-07        -0.18564E-12         0.00000E+00
    0.49938E-07        -0.19976E-12         0.00000E+00
    0.49938E-07        -0.21287E-12         0.00000E+00
    0.49938E-07        -0.22497E-12         0.00000E+00
    0.49938E-07        -0.23607E-12         0.00000E+00
    0.49938E-07        -0.24619E-12         0.00000E+00
    0.49938E-07        -0.25531E-12         0.00000E+00
    0.49938E-07        -0.26345E-12         0.00000E+00
    0.49938E-07        -0.27062E-12         0.00000E+00
    0.49938E-07        -0.27681E-12         0.00000E+00
    0.49938E-07        -0.28204E-12         0.00000E+00
    0.49938E-07        -0.28631E-12         0.00000E+00
    0.49938E-07        -0.28962E-12         0.00000E+00
    0.49938E-07        -0.29198E-12         0.00000E+00
    0.49938E-07        -0.29340E-12         0.00000E+00
    0.49938E-07        -0.29387E-12         0.00000E+00
    0.49938E-07        -0.29341E-12         0.00000E+00
    0.49938E-07        -0.29201E-12         0.00000E+00
    0.49938E-07        -0.28969E-12         0.00000E+00
    0.49938E-07        -0.28645E-12         0.00000E+00
    0.49938E-07        -0.28228E-12         0.00000E+00
    0.49938E-07        -0.27720E-12         0.00000E+00
    0.49938E-07        -0.27121E-12         0.00000E+00
    0.49938E-07        -0.26431E-12         0.00000E+00
    0.49938E-07        -0.25651E-12         0.00000E+00
    0.49938E-07        -0.24780E-12         0.00000E+00
    0.49938E-07        -0.23820E-12         0.00000E+00
    0.49938E-07        -0.22771E-12         0.00000E+00
    0.49938E-07        -0.21633E-12         0.00000E+00
    0.49938E-07        -0.20406E-12         0.00000E+00
    0.49938E-07        -0.19091E-12         0.00000E+00
    0.49938E-07        -0.17688E-12         0.00000E+00
    0.49938E-07        -0.16196E-12         0.00000E+00
    0.49938E-07        -0.14618E-12         0.00000E+00
    0.49938E-07        -0.12952E-12         0.00000E+00
    0.49938E-07        -0.11198E-12         0.00000E+00
    0.49938E-07        -0.93584E-13         0.00000E+00
    0.49938E-07        -0.74317E-13         0.00000E+00
    0.49938E-07        -0.54186E-13         0.00000E+00
    0.49938E-07        -0.33191E-13         0.00000E+00
    0.49938E-07        -0.11334E-13         0.00000E+00
    0.49942E-07        -0.12409E-13         0.00000E+00
    0.49942E-07        -0.36441E-13         0.00000E+00
    0.49942E-07        -0.59387E-13         0.00000E+00
    0.49942E-07        -0.81255E-13         0.00000E+00
    0.49942E-07        -0.10205E-12         0.00000E+00
    0.49942E-07        -0.12178E-12         0.00000E+00
    0.49942E-07        -0.14045E-12         0.00000E+00
    0.49942E-07        -0.15806E-12         0.00000E+00
    0.49942E-07        -0.17462E-12         0.00000E+00
    0.49942E-07        -0.19014E-12         0.00000E+00
    0.49942E-07        -0.20463E-12         0.00000E+00
    0.49942E-07        -0.21808E-12         0.00000E+00
    0.49942E-07        -0.23050E-12         0.00000E+00
    0.49942E-07        -0.24191E-12         0.00000E+00
    0.49942E-07        -0.25229E-12         0.00000E+00
    0.49942E-07        -0.26167E-12         0.00000E+00
    0.49942E-07        -0.27005E-12         0.00000E+00
    0.49942E-07        -0.27742E-12         0.00000E+00
    0.49942E-07        -0.28380E-12         0.00000E+00
    0.49942E-07        -0.28919E-12         0.00000E+00
    0.49942E-07        -0.29360E-12         0.00000E+00
    0.49942E-07        -0.29703E-12         0.00000E+00
    0.49942E-07        -0.29948E-12         0.00000E+00
    0.49942E-07        -0.30096E-12         0.00000E+00
    0.49942E-07        -0.30148E-12         0.00000E+00
    0.49942E-07        -0.30103E-12         0.00000E+00
    0.49942E-07        -0.29963E-12         0.00000E+00
    0.49942E-07        -0.29728E-12         0.00000E+00
    0.49942E-07        -0.29398E-12         0.00000E+00
    0.49942E-07        -0.28973E-12         0.00000E+00
    0.49942E-07        -0.28454E-12         0.00000E+00
    0.49942E-07        -0.27842E-12         0.00000E+00
    0.49942E-07        -0.27136E-12         0.00000E+00
    0.49942E-07        -0.26337E-12         0.00000E+00
    0.49942E-07        -0.25446E-12         0.00000E+00
    0.49942E-07        -0.24463E-12         0.00000E+00
    0.49942E-07        -0.23387E-12         0.00000E+00
    0.49942E-07        -0.22220E-12         0.00000E+00
    0.49942E-07        -0.20962E-12         0.00000E+00
    0.49942E-07        -0.19612E-12         0.00000E+00
    0.49942E-07        -0.18172E-12         0.00000E+00
    0.49942E-07        -0.16642E-12         0.00000E+00
    0.49942E-07        -0.15021E-12         0.00000E+00
    0.49942E-07        -0.13310E-12         0.00000E+00
    0.49942E-07        -0.11509E-12         0.00000E+00
    0.49942E-07        -0.96187E-13         0.00000E+00
    0.49942E-07        -0.76390E-13         0.00000E+00
    0.49942E-07        -0.55701E-13         0.00000E+00
    0.49942E-07        -0.34121E-13         0.00000E+00
    0.49942E-07        -0.11653E-13         0.00000E+00
    0.49946E-07        -0.12672E-13         0.00000E+00
    0.49946E-07        -0.37216E-13         0.00000E+00
    0.49946E-07        -0.60656E-13         0.00000E+00
    0.49946E-07        -0.82999E-13         0.00000E+00
    0.49946E-07        -0.10425E-12         0.00000E+00
    0.49946E-07        -0.12442E-12         0.00000E+00
    0.49946E-07        -0.14350E-12         0.00000E+00
    0.49946E-07        -0.16151E-12         0.00000E+00
    0.49946E-07        -0.17845E-12         0.00000E+00
    0.49946E-07        -0.19433E-12         0.00000E+00
    0.49946E-07        -0.20916E-12         0.00000E+00
    0.49946E-07        -0.22293E-12         0.00000E+00
    0.49946E-07        -0.23565E-12         0.00000E+00
    0.49946E-07        -0.24733E-12         0.00000E+00
    0.49946E-07        -0.25798E-12         0.00000E+00
    0.49946E-07        -0.26759E-12         0.00000E+00
    0.49946E-07        -0.27618E-12         0.00000E+00
    0.49946E-07        -0.28375E-12         0.00000E+00
    0.49946E-07        -0.29030E-12         0.00000E+00
    0.49946E-07        -0.29584E-12         0.00000E+00
    0.49946E-07        -0.30038E-12         0.00000E+00
    0.49946E-07        -0.30391E-12         0.00000E+00
    0.49946E-07        -0.30645E-12         0.00000E+00
    0.49946E-07        -0.30799E-12         0.00000E+00
    0.49946E-07        -0.30854E-12         0.00000E+00
    0.49946E-07        -0.30812E-12         0.00000E+00
    0.49946E-07        -0.30671E-12         0.00000E+00
    0.49946E-07        -0.30432E-12         0.00000E+00
    0.49946E-07        -0.30097E-12         0.00000E+00
    0.49946E-07        -0.29664E-12         0.00000E+00
    0.49946E-07        -0.29136E-12         0.00000E+00
    0.49946E-07        -0.28511E-12         0.00000E+00
    0.49946E-07        -0.27790E-12         0.00000E+00
    0.49946E-07        -0.26975E-12         0.00000E+00
    0.49946E-07        -0.26064E-12         0.00000E+00
    0.49946E-07        -0.25058E-12         0.00000E+00
    0.49946E-07        -0.23959E-12         0.00000E+00
    0.49946E-07        -0.22765E-12         0.00000E+00
    0.49946E-07        -0.21477E-12         0.00000E+00
    0.49946E-07        -0.20096E-12         0.00000E+00
    0.49946E-07        -0.18622E-12         0.00000E+00
    0.49946E-07        -0.17054E-12         0.00000E+00
    0.49946E-07        -0.15394E-12         0.00000E+00
    0.49946E-07        -0.13642E-12         0.00000E+00
    0.49946E-07        -0.11797E-12         0.00000E+00
    0.49946E-07        -0.98598E-13         0.00000E+00
    0.49946E-07        -0.78310E-13         0.00000E+00
    0.49946E-07        -0.57104E-13         0.00000E+00
    0.49946E-07        -0.34983E-13         0.00000E+00
    0.49946E-07        -0.11948E-13         0.00000E+00
    0.49950E-07        -0.12916E-13         0.00000E+00
    0.49950E-07        -0.37936E-13         0.00000E+00
    0.49950E-07        -0.61835E-13         0.00000E+00
    0.49950E-07        -0.84618E-13         0.00000E+00
    0.49950E-07        -0.10629E-12         0.00000E+00
    0.49950E-07        -0.12686E-12         0.00000E+00
    0.49950E-07        -0.14634E-12         0.00000E+00
    0.49950E-07        -0.16472E-12         0.00000E+00
    0.49950E-07        -0.18201E-12         0.00000E+00
    0.49950E-07        -0.19822E-12         0.00000E+00
    0.49950E-07        -0.21336E-12         0.00000E+00
    0.49950E-07        -0.22742E-12         0.00000E+00
    0.49950E-07        -0.24042E-12         0.00000E+00
    0.49950E-07        -0.25236E-12         0.00000E+00
    0.49950E-07        -0.26324E-12         0.00000E+00
    0.49950E-07        -0.27307E-12         0.00000E+00
    0.49950E-07        -0.28186E-12         0.00000E+00
    0.49950E-07        -0.28961E-12         0.00000E+00
    0.49950E-07        -0.29632E-12         0.00000E+00
    0.49950E-07        -0.30200E-12         0.00000E+00
    0.49950E-07        -0.30665E-12         0.00000E+00
    0.49950E-07        -0.31028E-12         0.00000E+00
    0.49950E-07        -0.31289E-12         0.00000E+00
    0.49950E-07        -0.31449E-12         0.00000E+00
    0.49950E-07        -0.31508E-12         0.00000E+00
    0.49950E-07        -0.31467E-12         0.00000E+00
    0.49950E-07        -0.31325E-12         0.00000E+00
    0.49950E-07        -0.31084E-12         0.00000E+00
    0.49950E-07        -0.30743E-12         0.00000E+00
    0.49950E-07        -0.30304E-12         0.00000E+00
    0.49950E-07        -0.29766E-12         0.00000E+00
    0.49950E-07        -0.29129E-12         0.00000E+00
    0.49950E-07        -0.28395E-12         0.00000E+00
    0.49950E-07        -0.27563E-12         0.00000E+00
    0.49950E-07        -0.26634E-12         0.00000E+00
    0.49950E-07        -0.25609E-12         0.00000E+00
    0.49950E-07        -0.24486E-12         0.00000E+00
    0.49950E-07        -0.23268E-12         0.00000E+00
    0.49950E-07        -0.21953E-12         0.00000E+00
    0.49950E-07        -0.20542E-12         0.00000E+00
    0.49950E-07        -0.19036E-12         0.00000E+00
    0.49950E-07        -0.17435E-12         0.00000E+00
    0.49950E-07        -0.15739E-12         0.00000E+00
    0.49950E-07        -0.13948E-12         0.00000E+00
    0.49950E-07        -0.12062E-12         0.00000E+00
    0.49950E-07        -0.10082E-12         0.00000E+00
    0.49950E-07        -0.80081E-13         0.00000E+00
    0.49950E-07        -0.58399E-13         0.00000E+00
    0.49950E-07        -0.35778E-13         0.00000E+00
    0.49950E-07        -0.12221E-13         0.00000E+00
    0.49954E-07        -0.13142E-13         0.00000E+00
    0.49954E-07        -0.38601E-13         0.00000E+00
    0.49954E-07        -0.62923E-13         0.00000E+00
    0.49954E-07        -0.86113E-13         0.00000E+00
    0.49954E-07        -0.10818E-12         0.00000E+00
    0.49954E-07        -0.12912E-12         0.00000E+00
    0.49954E-07        -0.14895E-12         0.00000E+00
    0.49954E-07        -0.16767E-12         0.00000E+00
    0.49954E-07        -0.18529E-12         0.00000E+00
    0.49954E-07        -0.20181E-12         0.00000E+00
    0.49954E-07        -0.21723E-12         0.00000E+00
    0.49954E-07        -0.23157E-12         0.00000E+00
    0.49954E-07        -0.24482E-12         0.00000E+00
    0.49954E-07        -0.25699E-12         0.00000E+00
    0.49954E-07        -0.26809E-12         0.00000E+00
    0.49954E-07        -0.27813E-12         0.00000E+00
    0.49954E-07        -0.28709E-12         0.00000E+00
    0.49954E-07        -0.29500E-12         0.00000E+00
    0.49954E-07        -0.30186E-12         0.00000E+00
    0.49954E-07        -0.30766E-12         0.00000E+00
    0.49954E-07        -0.31242E-12         0.00000E+00
    0.49954E-07        -0.31614E-12         0.00000E+00
    0.49954E-07        -0.31883E-12         0.00000E+00
    0.49954E-07        -0.32047E-12         0.00000E+00
    0.49954E-07        -0.32110E-12         0.00000E+00
    0.49954E-07        -0.32069E-12         0.00000E+00
    0.49954E-07        -0.31927E-12         0.00000E+00
    0.49954E-07        -0.31683E-12         0.00000E+00
    0.49954E-07        -0.31338E-12         0.00000E+00
    0.49954E-07        -0.30892E-12         0.00000E+00
    0.49954E-07        -0.30345E-12         0.00000E+00
    0.49954E-07        -0.29698E-12         0.00000E+00
    0.49954E-07        -0.28951E-12         0.00000E+00
    0.49954E-07        -0.28105E-12         0.00000E+00
    0.49954E-07        -0.27159E-12         0.00000E+00
    0.49954E-07        -0.26114E-12         0.00000E+00
    0.49954E-07        -0.24971E-12         0.00000E+00
    0.49954E-07        -0.23730E-12         0.00000E+00
    0.49954E-07        -0.22390E-12         0.00000E+00
    0.49954E-07        -0.20952E-12         0.00000E+00
    0.49954E-07        -0.19417E-12         0.00000E+00
    0.49954E-07        -0.17785E-12         0.00000E+00
    0.49954E-07        -0.16056E-12         0.00000E+00
    0.49954E-07        -0.14229E-12         0.00000E+00
    0.49954E-07        -0.12306E-12         0.00000E+00
    0.49954E-07        -0.10287E-12         0.00000E+00
    0.49954E-07        -0.81708E-13         0.00000E+00
    0.49954E-07        -0.59588E-13         0.00000E+00
    0.49954E-07        -0.36508E-13         0.00000E+00
    0.49954E-07        -0.12471E-13         0.00000E+00
    0.49958E-07        -0.13349E-13         0.00000E+00
    0.49958E-07        -0.39211E-13         0.00000E+00
    0.49958E-07        -0.63922E-13         0.00000E+00
    0.49958E-07        -0.87486E-13         0.00000E+00
    0.49958E-07        -0.10991E-12         0.00000E+00
    0.49958E-07        -0.13120E-12         0.00000E+00
    0.49958E-07        -0.15135E-12         0.00000E+00
    0.49958E-07        -0.17038E-12         0.00000E+00
    0.49958E-07        -0.18830E-12         0.00000E+00
    0.49958E-07        -0.20509E-12         0.00000E+00
    0.49958E-07        -0.22078E-12         0.00000E+00
    0.49958E-07        -0.23537E-12         0.00000E+00
    0.49958E-07        -0.24885E-12         0.00000E+00
    0.49958E-07        -0.26124E-12         0.00000E+00
    0.49958E-07        -0.27254E-12         0.00000E+00
    0.49958E-07        -0.28275E-12         0.00000E+00
    0.49958E-07        -0.29189E-12         0.00000E+00
    0.49958E-07        -0.29995E-12         0.00000E+00
    0.49958E-07        -0.30693E-12         0.00000E+00
    0.49958E-07        -0.31285E-12         0.00000E+00
    0.49958E-07        -0.31771E-12         0.00000E+00
    0.49958E-07        -0.32151E-12         0.00000E+00
    0.49958E-07        -0.32426E-12         0.00000E+00
    0.49958E-07        -0.32595E-12         0.00000E+00
    0.49958E-07        -0.32660E-12         0.00000E+00
    0.49958E-07        -0.32621E-12         0.00000E+00
    0.49958E-07        -0.32478E-12         0.00000E+00
    0.49958E-07        -0.32231E-12         0.00000E+00
    0.49958E-07        -0.31881E-12         0.00000E+00
    0.49958E-07        -0.31429E-12         0.00000E+00
    0.49958E-07        -0.30874E-12         0.00000E+00
    0.49958E-07        -0.30218E-12         0.00000E+00
    0.49958E-07        -0.29459E-12         0.00000E+00
    0.49958E-07        -0.28599E-12         0.00000E+00
    0.49958E-07        -0.27638E-12         0.00000E+00
    0.49958E-07        -0.26577E-12         0.00000E+00
    0.49958E-07        -0.25414E-12         0.00000E+00
    0.49958E-07        -0.24152E-12         0.00000E+00
    0.49958E-07        -0.22789E-12         0.00000E+00
    0.49958E-07        -0.21327E-12         0.00000E+00
    0.49958E-07        -0.19765E-12         0.00000E+00
    0.49958E-07        -0.18105E-12         0.00000E+00
    0.49958E-07        -0.16345E-12         0.00000E+00
    0.49958E-07        -0.14486E-12         0.00000E+00
    0.49958E-07        -0.12529E-12         0.00000E+00
    0.49958E-07        -0.10473E-12         0.00000E+00
    0.49958E-07        -0.83192E-13         0.00000E+00
    0.49958E-07        -0.60673E-13         0.00000E+00
    0.49958E-07        -0.37175E-13         0.00000E+00
    0.49958E-07        -0.12699E-13         0.00000E+00
    0.49963E-07        -0.13538E-13         0.00000E+00
    0.49963E-07        -0.39768E-13         0.00000E+00
    0.49963E-07        -0.64832E-13         0.00000E+00
    0.49963E-07        -0.88736E-13         0.00000E+00
    0.49963E-07        -0.11148E-12         0.00000E+00
    0.49963E-07        -0.13308E-12         0.00000E+00
    0.49963E-07        -0.15354E-12         0.00000E+00
    0.49963E-07        -0.17285E-12         0.00000E+00
    0.49963E-07        -0.19104E-12         0.00000E+00
    0.49963E-07        -0.20809E-12         0.00000E+00
    0.49963E-07        -0.22402E-12         0.00000E+00
    0.49963E-07        -0.23882E-12         0.00000E+00
    0.49963E-07        -0.25252E-12         0.00000E+00
    0.49963E-07        -0.26510E-12         0.00000E+00
    0.49963E-07        -0.27658E-12         0.00000E+00
    0.49963E-07        -0.28696E-12         0.00000E+00
    0.49963E-07        -0.29625E-12         0.00000E+00
    0.49963E-07        -0.30444E-12         0.00000E+00
    0.49963E-07        -0.31155E-12         0.00000E+00
    0.49963E-07        -0.31757E-12         0.00000E+00
    0.49963E-07        -0.32252E-12         0.00000E+00
    0.49963E-07        -0.32639E-12         0.00000E+00
    0.49963E-07        -0.32919E-12         0.00000E+00
    0.49963E-07        -0.33093E-12         0.00000E+00
    0.49963E-07        -0.33160E-12         0.00000E+00
    0.49963E-07        -0.33122E-12         0.00000E+00
    0.49963E-07        -0.32978E-12         0.00000E+00
    0.49963E-07        -0.32729E-12         0.00000E+00
    0.49963E-07        -0.32375E-12         0.00000E+00
    0.49963E-07        -0.31917E-12         0.00000E+00
    0.49963E-07        -0.31355E-12         0.00000E+00
    0.49963E-07        -0.30689E-12         0.00000E+00
    0.49963E-07        -0.29920E-12         0.00000E+00
    0.49963E-07        -0.29048E-12         0.00000E+00
    0.49963E-07        -0.28073E-12         0.00000E+00
    0.49963E-07        -0.26996E-12         0.00000E+00
    0.49963E-07        -0.25816E-12         0.00000E+00
    0.49963E-07        -0.24535E-12         0.00000E+00
    0.49963E-07        -0.23151E-12         0.00000E+00
    0.49963E-07        -0.21667E-12         0.00000E+00
    0.49963E-07        -0.20081E-12         0.00000E+00
    0.49963E-07        -0.18394E-12         0.00000E+00
    0.49963E-07        -0.16607E-12         0.00000E+00
    0.49963E-07        -0.14719E-12         0.00000E+00
    0.49963E-07        -0.12731E-12         0.00000E+00
    0.49963E-07        -0.10642E-12         0.00000E+00
    0.49963E-07        -0.84537E-13         0.00000E+00
    0.49963E-07        -0.61656E-13         0.00000E+00
    0.49963E-07        -0.37778E-13         0.00000E+00
    0.49963E-07        -0.12906E-13         0.00000E+00
    0.49967E-07        -0.13708E-13         0.00000E+00
    0.49967E-07        -0.40270E-13         0.00000E+00
    0.49967E-07        -0.65654E-13         0.00000E+00
    0.49967E-07        -0.89865E-13         0.00000E+00
    0.49967E-07        -0.11291E-12         0.00000E+00
    0.49967E-07        -0.13479E-12         0.00000E+00
    0.49967E-07        -0.15551E-12         0.00000E+00
    0.49967E-07        -0.17508E-12         0.00000E+00
    0.49967E-07        -0.19351E-12         0.00000E+00
    0.49967E-07        -0.21079E-12         0.00000E+00
    0.49967E-07        -0.22693E-12         0.00000E+00
    0.49967E-07        -0.24194E-12         0.00000E+00
    0.49967E-07        -0.25583E-12         0.00000E+00
    0.49967E-07        -0.26859E-12         0.00000E+00
    0.49967E-07        -0.28023E-12         0.00000E+00
    0.49967E-07        -0.29076E-12         0.00000E+00
    0.49967E-07        -0.30017E-12         0.00000E+00
    0.49967E-07        -0.30849E-12         0.00000E+00
    0.49967E-07        -0.31570E-12         0.00000E+00
    0.49967E-07        -0.32182E-12         0.00000E+00
    0.49967E-07        -0.32684E-12         0.00000E+00
    0.49967E-07        -0.33078E-12         0.00000E+00
    0.49967E-07        -0.33363E-12         0.00000E+00
    0.49967E-07        -0.33540E-12         0.00000E+00
    0.49967E-07        -0.33610E-12         0.00000E+00
    0.49967E-07        -0.33572E-12         0.00000E+00
    0.49967E-07        -0.33428E-12         0.00000E+00
    0.49967E-07        -0.33176E-12         0.00000E+00
    0.49967E-07        -0.32819E-12         0.00000E+00
    0.49967E-07        -0.32356E-12         0.00000E+00
    0.49967E-07        -0.31787E-12         0.00000E+00
    0.49967E-07        -0.31114E-12         0.00000E+00
    0.49967E-07        -0.30335E-12         0.00000E+00
    0.49967E-07        -0.29452E-12         0.00000E+00
    0.49967E-07        -0.28464E-12         0.00000E+00
    0.49967E-07        -0.27372E-12         0.00000E+00
    0.49967E-07        -0.26177E-12         0.00000E+00
    0.49967E-07        -0.24879E-12         0.00000E+00
    0.49967E-07        -0.23477E-12         0.00000E+00
    0.49967E-07        -0.21972E-12         0.00000E+00
    0.49967E-07        -0.20364E-12         0.00000E+00
    0.49967E-07        -0.18654E-12         0.00000E+00
    0.49967E-07        -0.16842E-12         0.00000E+00
    0.49967E-07        -0.14928E-12         0.00000E+00
    0.49967E-07        -0.12912E-12         0.00000E+00
    0.49967E-07        -0.10794E-12         0.00000E+00
    0.49967E-07        -0.85745E-13         0.00000E+00
    0.49967E-07        -0.62539E-13         0.00000E+00
    0.49967E-07        -0.38320E-13         0.00000E+00
    0.49967E-07        -0.13091E-13         0.00000E+00
    0.49971E-07        -0.13860E-13         0.00000E+00
    0.49971E-07        -0.40719E-13         0.00000E+00
    0.49971E-07        -0.66388E-13         0.00000E+00
    0.49971E-07        -0.90873E-13         0.00000E+00
    0.49971E-07        -0.11418E-12         0.00000E+00
    0.49971E-07        -0.13631E-12         0.00000E+00
    0.49971E-07        -0.15727E-12         0.00000E+00
    0.49971E-07        -0.17707E-12         0.00000E+00
    0.49971E-07        -0.19571E-12         0.00000E+00
    0.49971E-07        -0.21319E-12         0.00000E+00
    0.49971E-07        -0.22953E-12         0.00000E+00
    0.49971E-07        -0.24472E-12         0.00000E+00
    0.49971E-07        -0.25877E-12         0.00000E+00
    0.49971E-07        -0.27169E-12         0.00000E+00
    0.49971E-07        -0.28348E-12         0.00000E+00
    0.49971E-07        -0.29414E-12         0.00000E+00
    0.49971E-07        -0.30367E-12         0.00000E+00
    0.49971E-07        -0.31209E-12         0.00000E+00
    0.49971E-07        -0.31940E-12         0.00000E+00
    0.49971E-07        -0.32560E-12         0.00000E+00
    0.49971E-07        -0.33069E-12         0.00000E+00
    0.49971E-07        -0.33469E-12         0.00000E+00
    0.49971E-07        -0.33758E-12         0.00000E+00
    0.49971E-07        -0.33939E-12         0.00000E+00
    0.49971E-07        -0.34010E-12         0.00000E+00
    0.49971E-07        -0.33973E-12         0.00000E+00
    0.49971E-07        -0.33828E-12         0.00000E+00
    0.49971E-07        -0.33575E-12         0.00000E+00
    0.49971E-07        -0.33214E-12         0.00000E+00
    0.49971E-07        -0.32746E-12         0.00000E+00
    0.49971E-07        -0.32172E-12         0.00000E+00
    0.49971E-07        -0.31491E-12         0.00000E+00
    0.49971E-07        -0.30703E-12         0.00000E+00
    0.49971E-07        -0.29810E-12         0.00000E+00
    0.49971E-07        -0.28811E-12         0.00000E+00
    0.49971E-07        -0.27707E-12         0.00000E+00
    0.49971E-07        -0.26498E-12         0.00000E+00
    0.49971E-07        -0.25184E-12         0.00000E+00
    0.49971E-07        -0.23766E-12         0.00000E+00
    0.49971E-07        -0.22243E-12         0.00000E+00
    0.49971E-07        -0.20616E-12         0.00000E+00
    0.49971E-07        -0.18886E-12         0.00000E+00
    0.49971E-07        -0.17051E-12         0.00000E+00
    0.49971E-07        -0.15114E-12         0.00000E+00
    0.49971E-07        -0.13073E-12         0.00000E+00
    0.49971E-07        -0.10929E-12         0.00000E+00
    0.49971E-07        -0.86817E-13         0.00000E+00
    0.49971E-07        -0.63322E-13         0.00000E+00
    0.49971E-07        -0.38801E-13         0.00000E+00
    0.49971E-07        -0.13256E-13         0.00000E+00
    0.49975E-07        -0.13995E-13         0.00000E+00
    0.49975E-07        -0.41114E-13         0.00000E+00
    0.49975E-07        -0.67034E-13         0.00000E+00
    0.49975E-07        -0.91760E-13         0.00000E+00
    0.49975E-07        -0.11530E-12         0.00000E+00
    0.49975E-07        -0.13765E-12         0.00000E+00
    0.49975E-07        -0.15882E-12         0.00000E+00
    0.49975E-07        -0.17882E-12         0.00000E+00
    0.49975E-07        -0.19765E-12         0.00000E+00
    0.49975E-07        -0.21531E-12         0.00000E+00
    0.49975E-07        -0.23182E-12         0.00000E+00
    0.49975E-07        -0.24716E-12         0.00000E+00
    0.49975E-07        -0.26136E-12         0.00000E+00
    0.49975E-07        -0.27442E-12         0.00000E+00
    0.49975E-07        -0.28633E-12         0.00000E+00
    0.49975E-07        -0.29710E-12         0.00000E+00
    0.49975E-07        -0.30675E-12         0.00000E+00
    0.49975E-07        -0.31526E-12         0.00000E+00
    0.49975E-07        -0.32265E-12         0.00000E+00
    0.49975E-07        -0.32892E-12         0.00000E+00
    0.49975E-07        -0.33408E-12         0.00000E+00
    0.49975E-07        -0.33812E-12         0.00000E+00
    0.49975E-07        -0.34105E-12         0.00000E+00
    0.49975E-07        -0.34288E-12         0.00000E+00
    0.49975E-07        -0.34361E-12         0.00000E+00
    0.49975E-07        -0.34325E-12         0.00000E+00
    0.49975E-07        -0.34179E-12         0.00000E+00
    0.49975E-07        -0.33924E-12         0.00000E+00
    0.49975E-07        -0.33560E-12         0.00000E+00
    0.49975E-07        -0.33088E-12         0.00000E+00
    0.49975E-07        -0.32509E-12         0.00000E+00
    0.49975E-07        -0.31821E-12         0.00000E+00
    0.49975E-07        -0.31026E-12         0.00000E+00
    0.49975E-07        -0.30124E-12         0.00000E+00
    0.49975E-07        -0.29116E-12         0.00000E+00
    0.49975E-07        -0.28001E-12         0.00000E+00
    0.49975E-07        -0.26779E-12         0.00000E+00
    0.49975E-07        -0.25452E-12         0.00000E+00
    0.49975E-07        -0.24019E-12         0.00000E+00
    0.49975E-07        -0.22480E-12         0.00000E+00
    0.49975E-07        -0.20837E-12         0.00000E+00
    0.49975E-07        -0.19088E-12         0.00000E+00
    0.49975E-07        -0.17234E-12         0.00000E+00
    0.49975E-07        -0.15276E-12         0.00000E+00
    0.49975E-07        -0.13213E-12         0.00000E+00
    0.49975E-07        -0.11046E-12         0.00000E+00
    0.49975E-07        -0.87755E-13         0.00000E+00
    0.49975E-07        -0.64007E-13         0.00000E+00
    0.49975E-07        -0.39221E-13         0.00000E+00
    0.49975E-07        -0.13400E-13         0.00000E+00
    0.49980E-07        -0.14111E-13         0.00000E+00
    0.49980E-07        -0.41456E-13         0.00000E+00
    0.49980E-07        -0.67593E-13         0.00000E+00
    0.49980E-07        -0.92526E-13         0.00000E+00
    0.49980E-07        -0.11626E-12         0.00000E+00
    0.49980E-07        -0.13880E-12         0.00000E+00
    0.49980E-07        -0.16016E-12         0.00000E+00
    0.49980E-07        -0.18033E-12         0.00000E+00
    0.49980E-07        -0.19932E-12         0.00000E+00
    0.49980E-07        -0.21714E-12         0.00000E+00
    0.49980E-07        -0.23379E-12         0.00000E+00
    0.49980E-07        -0.24927E-12         0.00000E+00
    0.49980E-07        -0.26360E-12         0.00000E+00
    0.49980E-07        -0.27677E-12         0.00000E+00
    0.49980E-07        -0.28879E-12         0.00000E+00
    0.49980E-07        -0.29966E-12         0.00000E+00
    0.49980E-07        -0.30939E-12         0.00000E+00
    0.49980E-07        -0.31799E-12         0.00000E+00
    0.49980E-07        -0.32545E-12         0.00000E+00
    0.49980E-07        -0.33178E-12         0.00000E+00
    0.49980E-07        -0.33699E-12         0.00000E+00
    0.49980E-07        -0.34107E-12         0.00000E+00
    0.49980E-07        -0.34404E-12         0.00000E+00
    0.49980E-07        -0.34589E-12         0.00000E+00
    0.49980E-07        -0.34664E-12         0.00000E+00
    0.49980E-07        -0.34627E-12         0.00000E+00
    0.49980E-07        -0.34481E-12         0.00000E+00
    0.49980E-07        -0.34224E-12         0.00000E+00
    0.49980E-07        -0.33858E-12         0.00000E+00
    0.49980E-07        -0.33382E-12         0.00000E+00
    0.49980E-07        -0.32798E-12         0.00000E+00
    0.49980E-07        -0.32105E-12         0.00000E+00
    0.49980E-07        -0.31304E-12         0.00000E+00
    0.49980E-07        -0.30394E-12         0.00000E+00
    0.49980E-07        -0.29377E-12         0.00000E+00
    0.49980E-07        -0.28252E-12         0.00000E+00
    0.49980E-07        -0.27021E-12         0.00000E+00
    0.49980E-07        -0.25682E-12         0.00000E+00
    0.49980E-07        -0.24236E-12         0.00000E+00
    0.49980E-07        -0.22684E-12         0.00000E+00
    0.49980E-07        -0.21026E-12         0.00000E+00
    0.49980E-07        -0.19261E-12         0.00000E+00
    0.49980E-07        -0.17391E-12         0.00000E+00
    0.49980E-07        -0.15415E-12         0.00000E+00
    0.49980E-07        -0.13334E-12         0.00000E+00
    0.49980E-07        -0.11148E-12         0.00000E+00
    0.49980E-07        -0.88559E-13         0.00000E+00
    0.49980E-07        -0.64595E-13         0.00000E+00
    0.49980E-07        -0.39582E-13         0.00000E+00
    0.49980E-07        -0.13523E-13         0.00000E+00
    0.49984E-07        -0.14208E-13         0.00000E+00
    0.49984E-07        -0.41744E-13         0.00000E+00
    0.49984E-07        -0.68063E-13         0.00000E+00
    0.49984E-07        -0.93171E-13         0.00000E+00
    0.49984E-07        -0.11707E-12         0.00000E+00
    0.49984E-07        -0.13978E-12         0.00000E+00
    0.49984E-07        -0.16128E-12         0.00000E+00
    0.49984E-07        -0.18160E-12         0.00000E+00
    0.49984E-07        -0.20073E-12         0.00000E+00
    0.49984E-07        -0.21867E-12         0.00000E+00
    0.49984E-07        -0.23544E-12         0.00000E+00
    0.49984E-07        -0.25104E-12         0.00000E+00
    0.49984E-07        -0.26547E-12         0.00000E+00
    0.49984E-07        -0.27874E-12         0.00000E+00
    0.49984E-07        -0.29085E-12         0.00000E+00
    0.49984E-07        -0.30181E-12         0.00000E+00
    0.49984E-07        -0.31162E-12         0.00000E+00
    0.49984E-07        -0.32028E-12         0.00000E+00
    0.49984E-07        -0.32780E-12         0.00000E+00
    0.49984E-07        -0.33418E-12         0.00000E+00
    0.49984E-07        -0.33943E-12         0.00000E+00
    0.49984E-07        -0.34355E-12         0.00000E+00
    0.49984E-07        -0.34654E-12         0.00000E+00
    0.49984E-07        -0.34841E-12         0.00000E+00
    0.49984E-07        -0.34917E-12         0.00000E+00
    0.49984E-07        -0.34881E-12         0.00000E+00
    0.49984E-07        -0.34733E-12         0.00000E+00
    0.49984E-07        -0.34476E-12         0.00000E+00
    0.49984E-07        -0.34107E-12         0.00000E+00
    0.49984E-07        -0.33629E-12         0.00000E+00
    0.49984E-07        -0.33040E-12         0.00000E+00
    0.49984E-07        -0.32343E-12         0.00000E+00
    0.49984E-07        -0.31536E-12         0.00000E+00
    0.49984E-07        -0.30620E-12         0.00000E+00
    0.49984E-07        -0.29596E-12         0.00000E+00
    0.49984E-07        -0.28463E-12         0.00000E+00
    0.49984E-07        -0.27222E-12         0.00000E+00
    0.49984E-07        -0.25874E-12         0.00000E+00
    0.49984E-07        -0.24418E-12         0.00000E+00
    0.49984E-07        -0.22854E-12         0.00000E+00
    0.49984E-07        -0.21184E-12         0.00000E+00
    0.49984E-07        -0.19406E-12         0.00000E+00
    0.49984E-07        -0.17522E-12         0.00000E+00
    0.49984E-07        -0.15532E-12         0.00000E+00
    0.49984E-07        -0.13435E-12         0.00000E+00
    0.49984E-07        -0.11232E-12         0.00000E+00
    0.49984E-07        -0.89231E-13         0.00000E+00
    0.49984E-07        -0.65085E-13         0.00000E+00
    0.49984E-07        -0.39883E-13         0.00000E+00
    0.49984E-07        -0.13626E-13         0.00000E+00
    0.49988E-07        -0.14288E-13         0.00000E+00
    0.49988E-07        -0.41978E-13         0.00000E+00
    0.49988E-07        -0.68445E-13         0.00000E+00
    0.49988E-07        -0.93696E-13         0.00000E+00
    0.49988E-07        -0.11773E-12         0.00000E+00
    0.49988E-07        -0.14057E-12         0.00000E+00
    0.49988E-07        -0.16219E-12         0.00000E+00
    0.49988E-07        -0.18263E-12         0.00000E+00
    0.49988E-07        -0.20187E-12         0.00000E+00
    0.49988E-07        -0.21992E-12         0.00000E+00
    0.49988E-07        -0.23679E-12         0.00000E+00
    0.49988E-07        -0.25248E-12         0.00000E+00
    0.49988E-07        -0.26700E-12         0.00000E+00
    0.49988E-07        -0.28034E-12         0.00000E+00
    0.49988E-07        -0.29253E-12         0.00000E+00
    0.49988E-07        -0.30355E-12         0.00000E+00
    0.49988E-07        -0.31341E-12         0.00000E+00
    0.49988E-07        -0.32213E-12         0.00000E+00
    0.49988E-07        -0.32970E-12         0.00000E+00
    0.49988E-07        -0.33612E-12         0.00000E+00
    0.49988E-07        -0.34140E-12         0.00000E+00
    0.49988E-07        -0.34555E-12         0.00000E+00
    0.49988E-07        -0.34856E-12         0.00000E+00
    0.49988E-07        -0.35045E-12         0.00000E+00
    0.49988E-07        -0.35121E-12         0.00000E+00
    0.49988E-07        -0.35085E-12         0.00000E+00
    0.49988E-07        -0.34937E-12         0.00000E+00
    0.49988E-07        -0.34678E-12         0.00000E+00
    0.49988E-07        -0.34308E-12         0.00000E+00
    0.49988E-07        -0.33827E-12         0.00000E+00
    0.49988E-07        -0.33236E-12         0.00000E+00
    0.49988E-07        -0.32534E-12         0.00000E+00
    0.49988E-07        -0.31723E-12         0.00000E+00
    0.49988E-07        -0.30802E-12         0.00000E+00
    0.49988E-07        -0.29772E-12         0.00000E+00
    0.49988E-07        -0.28633E-12         0.00000E+00
    0.49988E-07        -0.27385E-12         0.00000E+00
    0.49988E-07        -0.26028E-12         0.00000E+00
    0.49988E-07        -0.24564E-12         0.00000E+00
    0.49988E-07        -0.22991E-12         0.00000E+00
    0.49988E-07        -0.21311E-12         0.00000E+00
    0.49988E-07        -0.19523E-12         0.00000E+00
    0.49988E-07        -0.17628E-12         0.00000E+00
    0.49988E-07        -0.15625E-12         0.00000E+00
    0.49988E-07        -0.13516E-12         0.00000E+00
    0.49988E-07        -0.11300E-12         0.00000E+00
    0.49988E-07        -0.89770E-13         0.00000E+00
    0.49988E-07        -0.65479E-13         0.00000E+00
    0.49988E-07        -0.40124E-13         0.00000E+00
    0.49988E-07        -0.13709E-13         0.00000E+00
    0.49993E-07        -0.14349E-13         0.00000E+00
    0.49993E-07        -0.42158E-13         0.00000E+00
    0.49993E-07        -0.68740E-13         0.00000E+00
    0.49993E-07        -0.94099E-13         0.00000E+00
    0.49993E-07        -0.11824E-12         0.00000E+00
    0.49993E-07        -0.14117E-12         0.00000E+00
    0.49993E-07        -0.16290E-12         0.00000E+00
    0.49993E-07        -0.18342E-12         0.00000E+00
    0.49993E-07        -0.20274E-12         0.00000E+00
    0.49993E-07        -0.22087E-12         0.00000E+00
    0.49993E-07        -0.23782E-12         0.00000E+00
    0.49993E-07        -0.25358E-12         0.00000E+00
    0.49993E-07        -0.26816E-12         0.00000E+00
    0.49993E-07        -0.28157E-12         0.00000E+00
    0.49993E-07        -0.29380E-12         0.00000E+00
    0.49993E-07        -0.30488E-12         0.00000E+00
    0.49993E-07        -0.31479E-12         0.00000E+00
    0.49993E-07        -0.32354E-12         0.00000E+00
    0.49993E-07        -0.33114E-12         0.00000E+00
    0.49993E-07        -0.33760E-12         0.00000E+00
    0.49993E-07        -0.34290E-12         0.00000E+00
    0.49993E-07        -0.34707E-12         0.00000E+00
    0.49993E-07        -0.35010E-12         0.00000E+00
    0.49993E-07        -0.35200E-12         0.00000E+00
    0.49993E-07        -0.35277E-12         0.00000E+00
    0.49993E-07        -0.35241E-12         0.00000E+00
    0.49993E-07        -0.35092E-12         0.00000E+00
    0.49993E-07        -0.34832E-12         0.00000E+00
    0.49993E-07        -0.34461E-12         0.00000E+00
    0.49993E-07        -0.33978E-12         0.00000E+00
    0.49993E-07        -0.33384E-12         0.00000E+00
    0.49993E-07        -0.32679E-12         0.00000E+00
    0.49993E-07        -0.31865E-12         0.00000E+00
    0.49993E-07        -0.30940E-12         0.00000E+00
    0.49993E-07        -0.29905E-12         0.00000E+00
    0.49993E-07        -0.28761E-12         0.00000E+00
    0.49993E-07        -0.27508E-12         0.00000E+00
    0.49993E-07        -0.26145E-12         0.00000E+00
    0.49993E-07        -0.24674E-12         0.00000E+00
    0.49993E-07        -0.23095E-12         0.00000E+00
    0.49993E-07        -0.21407E-12         0.00000E+00
    0.49993E-07        -0.19611E-12         0.00000E+00
    0.49993E-07        -0.17707E-12         0.00000E+00
    0.49993E-07        -0.15696E-12         0.00000E+00
    0.49993E-07        -0.13577E-12         0.00000E+00
    0.49993E-07        -0.11351E-12         0.00000E+00
    0.49993E-07        -0.90177E-13         0.00000E+00
    0.49993E-07        -0.65776E-13         0.00000E+00
    0.49993E-07        -0.40307E-13         0.00000E+00
    0.49993E-07        -0.13771E-13         0.00000E+00
    0.49997E-07        -0.14392E-13         0.00000E+00
    0.49997E-07        -0.42284E-13         0.00000E+00
    0.49997E-07        -0.68945E-13         0.00000E+00
    0.49997E-07        -0.94380E-13         0.00000E+00
    0.49997E-07        -0.11860E-12         0.00000E+00
    0.49997E-07        -0.14159E-12         0.00000E+00
    0.49997E-07        -0.16338E-12         0.00000E+00
    0.49997E-07        -0.18397E-12         0.00000E+00
    0.49997E-07        -0.20335E-12         0.00000E+00
    0.49997E-07        -0.22153E-12         0.00000E+00
    0.49997E-07        -0.23853E-12         0.00000E+00
    0.49997E-07        -0.25434E-12         0.00000E+00
    0.49997E-07        -0.26896E-12         0.00000E+00
    0.49997E-07        -0.28241E-12         0.00000E+00
    0.49997E-07        -0.29469E-12         0.00000E+00
    0.49997E-07        -0.30579E-12         0.00000E+00
    0.49997E-07        -0.31573E-12         0.00000E+00
    0.49997E-07        -0.32452E-12         0.00000E+00
    0.49997E-07        -0.33214E-12         0.00000E+00
    0.49997E-07        -0.33861E-12         0.00000E+00
    0.49997E-07        -0.34394E-12         0.00000E+00
    0.49997E-07        -0.34812E-12         0.00000E+00
    0.49997E-07        -0.35116E-12         0.00000E+00
    0.49997E-07        -0.35306E-12         0.00000E+00
    0.49997E-07        -0.35383E-12         0.00000E+00
    0.49997E-07        -0.35347E-12         0.00000E+00
    0.49997E-07        -0.35198E-12         0.00000E+00
    0.49997E-07        -0.34938E-12         0.00000E+00
    0.49997E-07        -0.34565E-12         0.00000E+00
    0.49997E-07        -0.34081E-12         0.00000E+00
    0.49997E-07        -0.33485E-12         0.00000E+00
    0.49997E-07        -0.32778E-12         0.00000E+00
    0.49997E-07        -0.31961E-12         0.00000E+00
    0.49997E-07        -0.31033E-12         0.00000E+00
    0.49997E-07        -0.29996E-12         0.00000E+00
    0.49997E-07        -0.28848E-12         0.00000E+00
    0.49997E-07        -0.27591E-12         0.00000E+00
    0.49997E-07        -0.26225E-12         0.00000E+00
    0.49997E-07        -0.24749E-12         0.00000E+00
    0.49997E-07        -0.23165E-12         0.00000E+00
    0.49997E-07        -0.21472E-12         0.00000E+00
    0.49997E-07        -0.19671E-12         0.00000E+00
    0.49997E-07        -0.17761E-12         0.00000E+00
    0.49997E-07        -0.15744E-12         0.00000E+00
    0.49997E-07        -0.13618E-12         0.00000E+00
    0.49997E-07        -0.11385E-12         0.00000E+00
    0.49997E-07        -0.90452E-13         0.00000E+00
    0.49997E-07        -0.65976E-13         0.00000E+00
    0.49997E-07        -0.40429E-13         0.00000E+00
    0.49997E-07        -0.13813E-13         0.00000E+00
    0.50002E-07        -0.14416E-13         0.00000E+00
    0.50002E-07        -0.42355E-13         0.00000E+00
    0.50002E-07        -0.69061E-13         0.00000E+00
    0.50002E-07        -0.94539E-13         0.00000E+00
    0.50002E-07        -0.11879E-12         0.00000E+00
    0.50002E-07        -0.14183E-12         0.00000E+00
    0.50002E-07        -0.16366E-12         0.00000E+00
    0.50002E-07        -0.18427E-12         0.00000E+00
    0.50002E-07        -0.20369E-12         0.00000E+00
    0.50002E-07        -0.22190E-12         0.00000E+00
    0.50002E-07        -0.23892E-12         0.00000E+00
    0.50002E-07        -0.25476E-12         0.00000E+00
    0.50002E-07        -0.26941E-12         0.00000E+00
    0.50002E-07        -0.28288E-12         0.00000E+00
    0.50002E-07        -0.29517E-12         0.00000E+00
    0.50002E-07        -0.30629E-12         0.00000E+00
    0.50002E-07        -0.31625E-12         0.00000E+00
    0.50002E-07        -0.32505E-12         0.00000E+00
    0.50002E-07        -0.33268E-12         0.00000E+00
    0.50002E-07        -0.33917E-12         0.00000E+00
    0.50002E-07        -0.34450E-12         0.00000E+00
    0.50002E-07        -0.34868E-12         0.00000E+00
    0.50002E-07        -0.35173E-12         0.00000E+00
    0.50002E-07        -0.35363E-12         0.00000E+00
    0.50002E-07        -0.35440E-12         0.00000E+00
    0.50002E-07        -0.35404E-12         0.00000E+00
    0.50002E-07        -0.35255E-12         0.00000E+00
    0.50002E-07        -0.34994E-12         0.00000E+00
    0.50002E-07        -0.34620E-12         0.00000E+00
    0.50002E-07        -0.34135E-12         0.00000E+00
    0.50002E-07        -0.33539E-12         0.00000E+00
    0.50002E-07        -0.32831E-12         0.00000E+00
    0.50002E-07        -0.32012E-12         0.00000E+00
    0.50002E-07        -0.31083E-12         0.00000E+00
    0.50002E-07        -0.30044E-12         0.00000E+00
    0.50002E-07        -0.28894E-12         0.00000E+00
    0.50002E-07        -0.27635E-12         0.00000E+00
    0.50002E-07        -0.26266E-12         0.00000E+00
    0.50002E-07        -0.24788E-12         0.00000E+00
    0.50002E-07        -0.23201E-12         0.00000E+00
    0.50002E-07        -0.21506E-12         0.00000E+00
    0.50002E-07        -0.19702E-12         0.00000E+00
    0.50002E-07        -0.17789E-12         0.00000E+00
    0.50002E-07        -0.15768E-12         0.00000E+00
    0.50002E-07        -0.13640E-12         0.00000E+00
    0.50002E-07        -0.11403E-12         0.00000E+00
    0.50002E-07        -0.90593E-13         0.00000E+00
    0.50002E-07        -0.66079E-13         0.00000E+00
    0.50002E-07        -0.40493E-13         0.00000E+00
    0.50002E-07        -0.13834E-13         0.00000E+00
    0.50006E-07        -0.14422E-13         0.00000E+00
    0.50006E-07        -0.42372E-13         0.00000E+00
    0.50006E-07        -0.69088E-13         0.00000E+00
    0.50006E-07        -0.94575E-13         0.00000E+00
    0.50006E-07        -0.11884E-12         0.00000E+00
    0.50006E-07        -0.14188E-12         0.00000E+00
    0.50006E-07        -0.16371E-12         0.00000E+00
    0.50006E-07        -0.18434E-12         0.00000E+00
    0.50006E-07        -0.20376E-12         0.00000E+00
    0.50006E-07        -0.22198E-12         0.00000E+00
    0.50006E-07        -0.23900E-12         0.00000E+00
    0.50006E-07        -0.25484E-12         0.00000E+00
    0.50006E-07        -0.26949E-12         0.00000E+00
    0.50006E-07        -0.28296E-12         0.00000E+00
    0.50006E-07        -0.29526E-12         0.00000E+00
    0.50006E-07        -0.30638E-12         0.00000E+00
    0.50006E-07        -0.31634E-12         0.00000E+00
    0.50006E-07        -0.32513E-12         0.00000E+00
    0.50006E-07        -0.33277E-12         0.00000E+00
    0.50006E-07        -0.33925E-12         0.00000E+00
    0.50006E-07        -0.34458E-12         0.00000E+00
    0.50006E-07        -0.34877E-12         0.00000E+00
    0.50006E-07        -0.35181E-12         0.00000E+00
    0.50006E-07        -0.35371E-12         0.00000E+00
    0.50006E-07        -0.35448E-12         0.00000E+00
    0.50006E-07        -0.35412E-12         0.00000E+00
    0.50006E-07        -0.35262E-12         0.00000E+00
    0.50006E-07        -0.35001E-12         0.00000E+00
    0.50006E-07        -0.34627E-12         0.00000E+00
    0.50006E-07        -0.34142E-12         0.00000E+00
    0.50006E-07        -0.33545E-12         0.00000E+00
    0.50006E-07        -0.32836E-12         0.00000E+00
    0.50006E-07        -0.32018E-12         0.00000E+00
    0.50006E-07        -0.31088E-12         0.00000E+00
    0.50006E-07        -0.30048E-12         0.00000E+00
    0.50006E-07        -0.28898E-12         0.00000E+00
    0.50006E-07        -0.27639E-12         0.00000E+00
    0.50006E-07        -0.26270E-12         0.00000E+00
    0.50006E-07        -0.24792E-12         0.00000E+00
    0.50006E-07        -0.23204E-12         0.00000E+00
    0.50006E-07        -0.21508E-12         0.00000E+00
    0.50006E-07        -0.19704E-12         0.00000E+00
    0.50006E-07        -0.17791E-12         0.00000E+00
    0.50006E-07        -0.15770E-12         0.00000E+00
    0.50006E-07        -0.13641E-12         0.00000E+00
    0.50006E-07        -0.11404E-12         0.00000E+00
    0.50006E-07        -0.90602E-13         0.00000E+00
    0.50006E-07        -0.66085E-13         0.00000E+00
    0.50006E-07        -0.40496E-13         0.00000E+00
    0.50006E-07        -0.13835E-13         0.00000E+00
    0.50010E-07        -0.14409E-13         0.00000E+00
    0.50010E-07        -0.42333E-13         0.00000E+00
    0.50010E-07        -0.69024E-13         0.00000E+00
    0.50010E-07        -0.94486E-13         0.00000E+00
    0.50010E-07        -0.11873E-12         0.00000E+00
    0.50010E-07        -0.14175E-12         0.00000E+00
    0.50010E-07        -0.16355E-12         0.00000E+00
    0.50010E-07        -0.18415E-12         0.00000E+00
    0.50010E-07        -0.20355E-12         0.00000E+00
    0.50010E-07        -0.22175E-12         0.00000E+00
    0.50010E-07        -0.23876E-12         0.00000E+00
    0.50010E-07        -0.25457E-12         0.00000E+00
    0.50010E-07        -0.26921E-12         0.00000E+00
    0.50010E-07        -0.28266E-12         0.00000E+00
    0.50010E-07        -0.29494E-12         0.00000E+00
    0.50010E-07        -0.30605E-12         0.00000E+00
    0.50010E-07        -0.31599E-12         0.00000E+00
    0.50010E-07        -0.32477E-12         0.00000E+00
    0.50010E-07        -0.33240E-12         0.00000E+00
    0.50010E-07        -0.33887E-12         0.00000E+00
    0.50010E-07        -0.34419E-12         0.00000E+00
    0.50010E-07        -0.34836E-12         0.00000E+00
    0.50010E-07        -0.35140E-12         0.00000E+00
    0.50010E-07        -0.35330E-12         0.00000E+00
    0.50010E-07        -0.35406E-12         0.00000E+00
    0.50010E-07        -0.35369E-12         0.00000E+00
    0.50010E-07        -0.35220E-12         0.00000E+00
    0.50010E-07        -0.34958E-12         0.00000E+00
    0.50010E-07        -0.34585E-12         0.00000E+00
    0.50010E-07        -0.34099E-12         0.00000E+00
    0.50010E-07        -0.33503E-12         0.00000E+00
    0.50010E-07        -0.32795E-12         0.00000E+00
    0.50010E-07        -0.31977E-12         0.00000E+00
    0.50010E-07        -0.31048E-12         0.00000E+00
    0.50010E-07        -0.30009E-12         0.00000E+00
    0.50010E-07        -0.28861E-12         0.00000E+00
    0.50010E-07        -0.27603E-12         0.00000E+00
    0.50010E-07        -0.26235E-12         0.00000E+00
    0.50010E-07        -0.24759E-12         0.00000E+00
    0.50010E-07        -0.23173E-12         0.00000E+00
    0.50010E-07        -0.21479E-12         0.00000E+00
    0.50010E-07        -0.19677E-12         0.00000E+00
    0.50010E-07        -0.17767E-12         0.00000E+00
    0.50010E-07        -0.15748E-12         0.00000E+00
    0.50010E-07        -0.13622E-12         0.00000E+00
    0.50010E-07        -0.11389E-12         0.00000E+00
    0.50010E-07        -0.90475E-13         0.00000E+00
    0.50010E-07        -0.65992E-13         0.00000E+00
    0.50010E-07        -0.40439E-13         0.00000E+00
    0.50010E-07        -0.13816E-13         0.00000E+00
    0.50015E-07        -0.14377E-13         0.00000E+00
    0.50015E-07        -0.42239E-13         0.00000E+00
    0.50015E-07        -0.68869E-13         0.00000E+00
    0.50015E-07        -0.94273E-13         0.00000E+00
    0.50015E-07        -0.11846E-12         0.00000E+00
    0.50015E-07        -0.14142E-12         0.00000E+00
    0.50015E-07        -0.16318E-12         0.00000E+00
    0.50015E-07        -0.18373E-12         0.00000E+00
    0.50015E-07        -0.20307E-12         0.00000E+00
    0.50015E-07        -0.22123E-12         0.00000E+00
    0.50015E-07        -0.23819E-12         0.00000E+00
    0.50015E-07        -0.25396E-12         0.00000E+00
    0.50015E-07        -0.26856E-12         0.00000E+00
    0.50015E-07        -0.28197E-12         0.00000E+00
    0.50015E-07        -0.29422E-12         0.00000E+00
    0.50015E-07        -0.30530E-12         0.00000E+00
    0.50015E-07        -0.31521E-12         0.00000E+00
    0.50015E-07        -0.32396E-12         0.00000E+00
    0.50015E-07        -0.33156E-12         0.00000E+00
    0.50015E-07        -0.33801E-12         0.00000E+00
    0.50015E-07        -0.34331E-12         0.00000E+00
    0.50015E-07        -0.34747E-12         0.00000E+00
    0.50015E-07        -0.35049E-12         0.00000E+00
    0.50015E-07        -0.35238E-12         0.00000E+00
    0.50015E-07        -0.35314E-12         0.00000E+00
    0.50015E-07        -0.35276E-12         0.00000E+00
    0.50015E-07        -0.35127E-12         0.00000E+00
    0.50015E-07        -0.34866E-12         0.00000E+00
    0.50015E-07        -0.34492E-12         0.00000E+00
    0.50015E-07        -0.34008E-12         0.00000E+00
    0.50015E-07        -0.33412E-12         0.00000E+00
    0.50015E-07        -0.32706E-12         0.00000E+00
    0.50015E-07        -0.31890E-12         0.00000E+00
    0.50015E-07        -0.30963E-12         0.00000E+00
    0.50015E-07        -0.29927E-12         0.00000E+00
    0.50015E-07        -0.28781E-12         0.00000E+00
    0.50015E-07        -0.27526E-12         0.00000E+00
    0.50015E-07        -0.26162E-12         0.00000E+00
    0.50015E-07        -0.24689E-12         0.00000E+00
    0.50015E-07        -0.23108E-12         0.00000E+00
    0.50015E-07        -0.21419E-12         0.00000E+00
    0.50015E-07        -0.19621E-12         0.00000E+00
    0.50015E-07        -0.17716E-12         0.00000E+00
    0.50015E-07        -0.15703E-12         0.00000E+00
    0.50015E-07        -0.13583E-12         0.00000E+00
    0.50015E-07        -0.11356E-12         0.00000E+00
    0.50015E-07        -0.90214E-13         0.00000E+00
    0.50015E-07        -0.65801E-13         0.00000E+00
    0.50015E-07        -0.40321E-13         0.00000E+00
    0.50015E-07        -0.13775E-13         0.00000E+00
    0.50019E-07        -0.14327E-13         0.00000E+00
    0.50019E-07        -0.42089E-13         0.00000E+00
    0.50019E-07        -0.68623E-13         0.00000E+00
    0.50019E-07        -0.93934E-13         0.00000E+00
    0.50019E-07        -0.11803E-12         0.00000E+00
    0.50019E-07        -0.14091E-12         0.00000E+00
    0.50019E-07        -0.16258E-12         0.00000E+00
    0.50019E-07        -0.18305E-12         0.00000E+00
    0.50019E-07        -0.20232E-12         0.00000E+00
    0.50019E-07        -0.22040E-12         0.00000E+00
    0.50019E-07        -0.23729E-12         0.00000E+00
    0.50019E-07        -0.25300E-12         0.00000E+00
    0.50019E-07        -0.26754E-12         0.00000E+00
    0.50019E-07        -0.28090E-12         0.00000E+00
    0.50019E-07        -0.29309E-12         0.00000E+00
    0.50019E-07        -0.30412E-12         0.00000E+00
    0.50019E-07        -0.31398E-12         0.00000E+00
    0.50019E-07        -0.32270E-12         0.00000E+00
    0.50019E-07        -0.33026E-12         0.00000E+00
    0.50019E-07        -0.33668E-12         0.00000E+00
    0.50019E-07        -0.34195E-12         0.00000E+00
    0.50019E-07        -0.34609E-12         0.00000E+00
    0.50019E-07        -0.34909E-12         0.00000E+00
    0.50019E-07        -0.35096E-12         0.00000E+00
    0.50019E-07        -0.35171E-12         0.00000E+00
    0.50019E-07        -0.35133E-12         0.00000E+00
    0.50019E-07        -0.34983E-12         0.00000E+00
    0.50019E-07        -0.34722E-12         0.00000E+00
    0.50019E-07        -0.34350E-12         0.00000E+00
    0.50019E-07        -0.33867E-12         0.00000E+00
    0.50019E-07        -0.33273E-12         0.00000E+00
    0.50019E-07        -0.32570E-12         0.00000E+00
    0.50019E-07        -0.31756E-12         0.00000E+00
    0.50019E-07        -0.30833E-12         0.00000E+00
    0.50019E-07        -0.29800E-12         0.00000E+00
    0.50019E-07        -0.28659E-12         0.00000E+00
    0.50019E-07        -0.27409E-12         0.00000E+00
    0.50019E-07        -0.26050E-12         0.00000E+00
    0.50019E-07        -0.24583E-12         0.00000E+00
    0.50019E-07        -0.23008E-12         0.00000E+00
    0.50019E-07        -0.21326E-12         0.00000E+00
    0.50019E-07        -0.19536E-12         0.00000E+00
    0.50019E-07        -0.17639E-12         0.00000E+00
    0.50019E-07        -0.15635E-12         0.00000E+00
    0.50019E-07        -0.13523E-12         0.00000E+00
    0.50019E-07        -0.11306E-12         0.00000E+00
    0.50019E-07        -0.89815E-13         0.00000E+00
    0.50019E-07        -0.65509E-13         0.00000E+00
    0.50019E-07        -0.40142E-13         0.00000E+00
    0.50019E-07        -0.13714E-13         0.00000E+00
    0.50024E-07        -0.14257E-13         0.00000E+00
    0.50024E-07        -0.41882E-13         0.00000E+00
    0.50024E-07        -0.68284E-13         0.00000E+00
    0.50024E-07        -0.93467E-13         0.00000E+00
    0.50024E-07        -0.11744E-12         0.00000E+00
    0.50024E-07        -0.14020E-12         0.00000E+00
    0.50024E-07        -0.16176E-12         0.00000E+00
    0.50024E-07        -0.18212E-12         0.00000E+00
    0.50024E-07        -0.20129E-12         0.00000E+00
    0.50024E-07        -0.21927E-12         0.00000E+00
    0.50024E-07        -0.23607E-12         0.00000E+00
    0.50024E-07        -0.25169E-12         0.00000E+00
    0.50024E-07        -0.26614E-12         0.00000E+00
    0.50024E-07        -0.27942E-12         0.00000E+00
    0.50024E-07        -0.29154E-12         0.00000E+00
    0.50024E-07        -0.30251E-12         0.00000E+00
    0.50024E-07        -0.31231E-12         0.00000E+00
    0.50024E-07        -0.32097E-12         0.00000E+00
    0.50024E-07        -0.32849E-12         0.00000E+00
    0.50024E-07        -0.33486E-12         0.00000E+00
    0.50024E-07        -0.34010E-12         0.00000E+00
    0.50024E-07        -0.34420E-12         0.00000E+00
    0.50024E-07        -0.34718E-12         0.00000E+00
    0.50024E-07        -0.34903E-12         0.00000E+00
    0.50024E-07        -0.34976E-12         0.00000E+00
    0.50024E-07        -0.34938E-12         0.00000E+00
    0.50024E-07        -0.34789E-12         0.00000E+00
    0.50024E-07        -0.34528E-12         0.00000E+00
    0.50024E-07        -0.34157E-12         0.00000E+00
    0.50024E-07        -0.33676E-12         0.00000E+00
    0.50024E-07        -0.33085E-12         0.00000E+00
    0.50024E-07        -0.32384E-12         0.00000E+00
    0.50024E-07        -0.31575E-12         0.00000E+00
    0.50024E-07        -0.30656E-12         0.00000E+00
    0.50024E-07        -0.29629E-12         0.00000E+00
    0.50024E-07        -0.28493E-12         0.00000E+00
    0.50024E-07        -0.27250E-12         0.00000E+00
    0.50024E-07        -0.25899E-12         0.00000E+00
    0.50024E-07        -0.24440E-12         0.00000E+00
    0.50024E-07        -0.22874E-12         0.00000E+00
    0.50024E-07        -0.21201E-12         0.00000E+00
    0.50024E-07        -0.19421E-12         0.00000E+00
    0.50024E-07        -0.17535E-12         0.00000E+00
    0.50024E-07        -0.15542E-12         0.00000E+00
    0.50024E-07        -0.13443E-12         0.00000E+00
    0.50024E-07        -0.11238E-12         0.00000E+00
    0.50024E-07        -0.89277E-13         0.00000E+00
    0.50024E-07        -0.65116E-13         0.00000E+00
    0.50024E-07        -0.39900E-13         0.00000E+00
    0.50024E-07        -0.13631E-13         0.00000E+00
    0.50028E-07        -0.14167E-13         0.00000E+00
    0.50028E-07        -0.41619E-13         0.00000E+00
    0.50028E-07        -0.67852E-13         0.00000E+00
    0.50028E-07        -0.92872E-13         0.00000E+00
    0.50028E-07        -0.11669E-12         0.00000E+00
    0.50028E-07        -0.13930E-12         0.00000E+00
    0.50028E-07        -0.16071E-12         0.00000E+00
    0.50028E-07        -0.18094E-12         0.00000E+00
    0.50028E-07        -0.19997E-12         0.00000E+00
    0.50028E-07        -0.21783E-12         0.00000E+00
    0.50028E-07        -0.23451E-12         0.00000E+00
    0.50028E-07        -0.25002E-12         0.00000E+00
    0.50028E-07        -0.26437E-12         0.00000E+00
    0.50028E-07        -0.27755E-12         0.00000E+00
    0.50028E-07        -0.28958E-12         0.00000E+00
    0.50028E-07        -0.30046E-12         0.00000E+00
    0.50028E-07        -0.31019E-12         0.00000E+00
    0.50028E-07        -0.31878E-12         0.00000E+00
    0.50028E-07        -0.32623E-12         0.00000E+00
    0.50028E-07        -0.33255E-12         0.00000E+00
    0.50028E-07        -0.33774E-12         0.00000E+00
    0.50028E-07        -0.34181E-12         0.00000E+00
    0.50028E-07        -0.34476E-12         0.00000E+00
    0.50028E-07        -0.34659E-12         0.00000E+00
    0.50028E-07        -0.34730E-12         0.00000E+00
    0.50028E-07        -0.34691E-12         0.00000E+00
    0.50028E-07        -0.34542E-12         0.00000E+00
    0.50028E-07        -0.34282E-12         0.00000E+00
    0.50028E-07        -0.33913E-12         0.00000E+00
    0.50028E-07        -0.33434E-12         0.00000E+00
    0.50028E-07        -0.32847E-12         0.00000E+00
    0.50028E-07        -0.32150E-12         0.00000E+00
    0.50028E-07        -0.31346E-12         0.00000E+00
    0.50028E-07        -0.30433E-12         0.00000E+00
    0.50028E-07        -0.29412E-12         0.00000E+00
    0.50028E-07        -0.28284E-12         0.00000E+00
    0.50028E-07        -0.27049E-12         0.00000E+00
    0.50028E-07        -0.25707E-12         0.00000E+00
    0.50028E-07        -0.24259E-12         0.00000E+00
    0.50028E-07        -0.22704E-12         0.00000E+00
    0.50028E-07        -0.21043E-12         0.00000E+00
    0.50028E-07        -0.19276E-12         0.00000E+00
    0.50028E-07        -0.17403E-12         0.00000E+00
    0.50028E-07        -0.15425E-12         0.00000E+00
    0.50028E-07        -0.13342E-12         0.00000E+00
    0.50028E-07        -0.11153E-12         0.00000E+00
    0.50028E-07        -0.88599E-13         0.00000E+00
    0.50028E-07        -0.64620E-13         0.00000E+00
    0.50028E-07        -0.39595E-13         0.00000E+00
    0.50028E-07        -0.13527E-13         0.00000E+00
    0.50032E-07        -0.14058E-13         0.00000E+00
    0.50032E-07        -0.41297E-13         0.00000E+00
    0.50032E-07        -0.67325E-13         0.00000E+00
    0.50032E-07        -0.92147E-13         0.00000E+00
    0.50032E-07        -0.11577E-12         0.00000E+00
    0.50032E-07        -0.13820E-12         0.00000E+00
    0.50032E-07        -0.15944E-12         0.00000E+00
    0.50032E-07        -0.17949E-12         0.00000E+00
    0.50032E-07        -0.19837E-12         0.00000E+00
    0.50032E-07        -0.21608E-12         0.00000E+00
    0.50032E-07        -0.23262E-12         0.00000E+00
    0.50032E-07        -0.24799E-12         0.00000E+00
    0.50032E-07        -0.26221E-12         0.00000E+00
    0.50032E-07        -0.27528E-12         0.00000E+00
    0.50032E-07        -0.28720E-12         0.00000E+00
    0.50032E-07        -0.29798E-12         0.00000E+00
    0.50032E-07        -0.30762E-12         0.00000E+00
    0.50032E-07        -0.31612E-12         0.00000E+00
    0.50032E-07        -0.32350E-12         0.00000E+00
    0.50032E-07        -0.32975E-12         0.00000E+00
    0.50032E-07        -0.33489E-12         0.00000E+00
    0.50032E-07        -0.33891E-12         0.00000E+00
    0.50032E-07        -0.34182E-12         0.00000E+00
    0.50032E-07        -0.34362E-12         0.00000E+00
    0.50032E-07        -0.34432E-12         0.00000E+00
    0.50032E-07        -0.34392E-12         0.00000E+00
    0.50032E-07        -0.34242E-12         0.00000E+00
    0.50032E-07        -0.33984E-12         0.00000E+00
    0.50032E-07        -0.33617E-12         0.00000E+00
    0.50032E-07        -0.33141E-12         0.00000E+00
    0.50032E-07        -0.32558E-12         0.00000E+00
    0.50032E-07        -0.31866E-12         0.00000E+00
    0.50032E-07        -0.31068E-12         0.00000E+00
    0.50032E-07        -0.30162E-12         0.00000E+00
    0.50032E-07        -0.29150E-12         0.00000E+00
    0.50032E-07        -0.28031E-12         0.00000E+00
    0.50032E-07        -0.26806E-12         0.00000E+00
    0.50032E-07        -0.25475E-12         0.00000E+00
    0.50032E-07        -0.24039E-12         0.00000E+00
    0.50032E-07        -0.22498E-12         0.00000E+00
    0.50032E-07        -0.20851E-12         0.00000E+00
    0.50032E-07        -0.19100E-12         0.00000E+00
    0.50032E-07        -0.17244E-12         0.00000E+00
    0.50032E-07        -0.15283E-12         0.00000E+00
    0.50032E-07        -0.13219E-12         0.00000E+00
    0.50032E-07        -0.11050E-12         0.00000E+00
    0.50032E-07        -0.87779E-13         0.00000E+00
    0.50032E-07        -0.64020E-13         0.00000E+00
    0.50032E-07        -0.39227E-13         0.00000E+00
    0.50032E-07        -0.13400E-13         0.00000E+00
    0.50036E-07        -0.13930E-13         0.00000E+00
    0.50036E-07        -0.40918E-13         0.00000E+00
    0.50036E-07        -0.66703E-13         0.00000E+00
    0.50036E-07        -0.91291E-13         0.00000E+00
    0.50036E-07        -0.11469E-12         0.00000E+00
    0.50036E-07        -0.13690E-12         0.00000E+00
    0.50036E-07        -0.15793E-12         0.00000E+00
    0.50036E-07        -0.17779E-12         0.00000E+00
    0.50036E-07        -0.19648E-12         0.00000E+00
    0.50036E-07        -0.21401E-12         0.00000E+00
    0.50036E-07        -0.23038E-12         0.00000E+00
    0.50036E-07        -0.24560E-12         0.00000E+00
    0.50036E-07        -0.25967E-12         0.00000E+00
    0.50036E-07        -0.27260E-12         0.00000E+00
    0.50036E-07        -0.28439E-12         0.00000E+00
    0.50036E-07        -0.29504E-12         0.00000E+00
    0.50036E-07        -0.30458E-12         0.00000E+00
    0.50036E-07        -0.31298E-12         0.00000E+00
    0.50036E-07        -0.32027E-12         0.00000E+00
    0.50036E-07        -0.32645E-12         0.00000E+00
    0.50036E-07        -0.33152E-12         0.00000E+00
    0.50036E-07        -0.33549E-12         0.00000E+00
    0.50036E-07        -0.33835E-12         0.00000E+00
    0.50036E-07        -0.34012E-12         0.00000E+00
    0.50036E-07        -0.34080E-12         0.00000E+00
    0.50036E-07        -0.34039E-12         0.00000E+00
    0.50036E-07        -0.33890E-12         0.00000E+00
    0.50036E-07        -0.33632E-12         0.00000E+00
    0.50036E-07        -0.33268E-12         0.00000E+00
    0.50036E-07        -0.32796E-12         0.00000E+00
    0.50036E-07        -0.32217E-12         0.00000E+00
    0.50036E-07        -0.31532E-12         0.00000E+00
    0.50036E-07        -0.30740E-12         0.00000E+00
    0.50036E-07        -0.29843E-12         0.00000E+00
    0.50036E-07        -0.28840E-12         0.00000E+00
    0.50036E-07        -0.27732E-12         0.00000E+00
    0.50036E-07        -0.26520E-12         0.00000E+00
    0.50036E-07        -0.25202E-12         0.00000E+00
    0.50036E-07        -0.23781E-12         0.00000E+00
    0.50036E-07        -0.22255E-12         0.00000E+00
    0.50036E-07        -0.20625E-12         0.00000E+00
    0.50036E-07        -0.18892E-12         0.00000E+00
    0.50036E-07        -0.17056E-12         0.00000E+00
    0.50036E-07        -0.15116E-12         0.00000E+00
    0.50036E-07        -0.13074E-12         0.00000E+00
    0.50036E-07        -0.10929E-12         0.00000E+00
    0.50036E-07        -0.86813E-13         0.00000E+00
    0.50036E-07        -0.63313E-13         0.00000E+00
    0.50036E-07        -0.38792E-13         0.00000E+00
    0.50036E-07        -0.13252E-13         0.00000E+00
    0.50041E-07        -0.13781E-13         0.00000E+00
    0.50041E-07        -0.40479E-13         0.00000E+00
    0.50041E-07        -0.65984E-13         0.00000E+00
    0.50041E-07        -0.90302E-13         0.00000E+00
    0.50041E-07        -0.11344E-12         0.00000E+00
    0.50041E-07        -0.13540E-12         0.00000E+00
    0.50041E-07        -0.15620E-12         0.00000E+00
    0.50041E-07        -0.17583E-12         0.00000E+00
    0.50041E-07        -0.19430E-12         0.00000E+00
    0.50041E-07        -0.21162E-12         0.00000E+00
    0.50041E-07        -0.22780E-12         0.00000E+00
    0.50041E-07        -0.24283E-12         0.00000E+00
    0.50041E-07        -0.25673E-12         0.00000E+00
    0.50041E-07        -0.26950E-12         0.00000E+00
    0.50041E-07        -0.28114E-12         0.00000E+00
    0.50041E-07        -0.29166E-12         0.00000E+00
    0.50041E-07        -0.30107E-12         0.00000E+00
    0.50041E-07        -0.30936E-12         0.00000E+00
    0.50041E-07        -0.31655E-12         0.00000E+00
    0.50041E-07        -0.32264E-12         0.00000E+00
    0.50041E-07        -0.32763E-12         0.00000E+00
    0.50041E-07        -0.33154E-12         0.00000E+00
    0.50041E-07        -0.33435E-12         0.00000E+00
    0.50041E-07        -0.33608E-12         0.00000E+00
    0.50041E-07        -0.33674E-12         0.00000E+00
    0.50041E-07        -0.33632E-12         0.00000E+00
    0.50041E-07        -0.33482E-12         0.00000E+00
    0.50041E-07        -0.33227E-12         0.00000E+00
    0.50041E-07        -0.32865E-12         0.00000E+00
    0.50041E-07        -0.32397E-12         0.00000E+00
    0.50041E-07        -0.31824E-12         0.00000E+00
    0.50041E-07        -0.31146E-12         0.00000E+00
    0.50041E-07        -0.30363E-12         0.00000E+00
    0.50041E-07        -0.29475E-12         0.00000E+00
    0.50041E-07        -0.28484E-12         0.00000E+00
    0.50041E-07        -0.27388E-12         0.00000E+00
    0.50041E-07        -0.26189E-12         0.00000E+00
    0.50041E-07        -0.24887E-12         0.00000E+00
    0.50041E-07        -0.23483E-12         0.00000E+00
    0.50041E-07        -0.21975E-12         0.00000E+00
    0.50041E-07        -0.20365E-12         0.00000E+00
    0.50041E-07        -0.18653E-12         0.00000E+00
    0.50041E-07        -0.16839E-12         0.00000E+00
    0.50041E-07        -0.14924E-12         0.00000E+00
    0.50041E-07        -0.12907E-12         0.00000E+00
    0.50041E-07        -0.10789E-12         0.00000E+00
    0.50041E-07        -0.85698E-13         0.00000E+00
    0.50041E-07        -0.62499E-13         0.00000E+00
    0.50041E-07        -0.38292E-13         0.00000E+00
    0.50041E-07        -0.13080E-13         0.00000E+00
    0.50045E-07        -0.13612E-13         0.00000E+00
    0.50045E-07        -0.39980E-13         0.00000E+00
    0.50045E-07        -0.65167E-13         0.00000E+00
    0.50045E-07        -0.89178E-13         0.00000E+00
    0.50045E-07        -0.11202E-12         0.00000E+00
    0.50045E-07        -0.13370E-12         0.00000E+00
    0.50045E-07        -0.15422E-12         0.00000E+00
    0.50045E-07        -0.17360E-12         0.00000E+00
    0.50045E-07        -0.19182E-12         0.00000E+00
    0.50045E-07        -0.20891E-12         0.00000E+00
    0.50045E-07        -0.22486E-12         0.00000E+00
    0.50045E-07        -0.23969E-12         0.00000E+00
    0.50045E-07        -0.25339E-12         0.00000E+00
    0.50045E-07        -0.26598E-12         0.00000E+00
    0.50045E-07        -0.27745E-12         0.00000E+00
    0.50045E-07        -0.28781E-12         0.00000E+00
    0.50045E-07        -0.29708E-12         0.00000E+00
    0.50045E-07        -0.30525E-12         0.00000E+00
    0.50045E-07        -0.31232E-12         0.00000E+00
    0.50045E-07        -0.31831E-12         0.00000E+00
    0.50045E-07        -0.32322E-12         0.00000E+00
    0.50045E-07        -0.32705E-12         0.00000E+00
    0.50045E-07        -0.32981E-12         0.00000E+00
    0.50045E-07        -0.33150E-12         0.00000E+00
    0.50045E-07        -0.33212E-12         0.00000E+00
    0.50045E-07        -0.33169E-12         0.00000E+00
    0.50045E-07        -0.33020E-12         0.00000E+00
    0.50045E-07        -0.32766E-12         0.00000E+00
    0.50045E-07        -0.32407E-12         0.00000E+00
    0.50045E-07        -0.31944E-12         0.00000E+00
    0.50045E-07        -0.31378E-12         0.00000E+00
    0.50045E-07        -0.30707E-12         0.00000E+00
    0.50045E-07        -0.29934E-12         0.00000E+00
    0.50045E-07        -0.29057E-12         0.00000E+00
    0.50045E-07        -0.28078E-12         0.00000E+00
    0.50045E-07        -0.26997E-12         0.00000E+00
    0.50045E-07        -0.25814E-12         0.00000E+00
    0.50045E-07        -0.24530E-12         0.00000E+00
    0.50045E-07        -0.23144E-12         0.00000E+00
    0.50045E-07        -0.21657E-12         0.00000E+00
    0.50045E-07        -0.20070E-12         0.00000E+00
    0.50045E-07        -0.18382E-12         0.00000E+00
    0.50045E-07        -0.16594E-12         0.00000E+00
    0.50045E-07        -0.14705E-12         0.00000E+00
    0.50045E-07        -0.12718E-12         0.00000E+00
    0.50045E-07        -0.10630E-12         0.00000E+00
    0.50045E-07        -0.84433E-13         0.00000E+00
    0.50045E-07        -0.61573E-13         0.00000E+00
    0.50045E-07        -0.37723E-13         0.00000E+00
    0.50045E-07        -0.12885E-13         0.00000E+00
    0.50049E-07        -0.13423E-13         0.00000E+00
    0.50049E-07        -0.39421E-13         0.00000E+00
    0.50049E-07        -0.64250E-13         0.00000E+00
    0.50049E-07        -0.87918E-13         0.00000E+00
    0.50049E-07        -0.11043E-12         0.00000E+00
    0.50049E-07        -0.13179E-12         0.00000E+00
    0.50049E-07        -0.15201E-12         0.00000E+00
    0.50049E-07        -0.17109E-12         0.00000E+00
    0.50049E-07        -0.18904E-12         0.00000E+00
    0.50049E-07        -0.20587E-12         0.00000E+00
    0.50049E-07        -0.22157E-12         0.00000E+00
    0.50049E-07        -0.23616E-12         0.00000E+00
    0.50049E-07        -0.24965E-12         0.00000E+00
    0.50049E-07        -0.26203E-12         0.00000E+00
    0.50049E-07        -0.27331E-12         0.00000E+00
    0.50049E-07        -0.28350E-12         0.00000E+00
    0.50049E-07        -0.29261E-12         0.00000E+00
    0.50049E-07        -0.30063E-12         0.00000E+00
    0.50049E-07        -0.30758E-12         0.00000E+00
    0.50049E-07        -0.31345E-12         0.00000E+00
    0.50049E-07        -0.31826E-12         0.00000E+00
    0.50049E-07        -0.32201E-12         0.00000E+00
    0.50049E-07        -0.32471E-12         0.00000E+00
    0.50049E-07        -0.32635E-12         0.00000E+00
    0.50049E-07        -0.32694E-12         0.00000E+00
    0.50049E-07        -0.32650E-12         0.00000E+00
    0.50049E-07        -0.32501E-12         0.00000E+00
    0.50049E-07        -0.32249E-12         0.00000E+00
    0.50049E-07        -0.31894E-12         0.00000E+00
    0.50049E-07        -0.31436E-12         0.00000E+00
    0.50049E-07        -0.30877E-12         0.00000E+00
    0.50049E-07        -0.30215E-12         0.00000E+00
    0.50049E-07        -0.29452E-12         0.00000E+00
    0.50049E-07        -0.28588E-12         0.00000E+00
    0.50049E-07        -0.27623E-12         0.00000E+00
    0.50049E-07        -0.26558E-12         0.00000E+00
    0.50049E-07        -0.25393E-12         0.00000E+00
    0.50049E-07        -0.24128E-12         0.00000E+00
    0.50049E-07        -0.22764E-12         0.00000E+00
    0.50049E-07        -0.21300E-12         0.00000E+00
    0.50049E-07        -0.19738E-12         0.00000E+00
    0.50049E-07        -0.18077E-12         0.00000E+00
    0.50049E-07        -0.16318E-12         0.00000E+00
    0.50049E-07        -0.14460E-12         0.00000E+00
    0.50049E-07        -0.12505E-12         0.00000E+00
    0.50049E-07        -0.10452E-12         0.00000E+00
    0.50049E-07        -0.83012E-13         0.00000E+00
    0.50049E-07        -0.60534E-13         0.00000E+00
    0.50049E-07        -0.37085E-13         0.00000E+00
    0.50049E-07        -0.12667E-13         0.00000E+00
    0.50053E-07        -0.13212E-13         0.00000E+00
    0.50053E-07        -0.38800E-13         0.00000E+00
    0.50053E-07        -0.63233E-13         0.00000E+00
    0.50053E-07        -0.86518E-13         0.00000E+00
    0.50053E-07        -0.10866E-12         0.00000E+00
    0.50053E-07        -0.12967E-12         0.00000E+00
    0.50053E-07        -0.14955E-12         0.00000E+00
    0.50053E-07        -0.16831E-12         0.00000E+00
    0.50053E-07        -0.18595E-12         0.00000E+00
    0.50053E-07        -0.20249E-12         0.00000E+00
    0.50053E-07        -0.21792E-12         0.00000E+00
    0.50053E-07        -0.23225E-12         0.00000E+00
    0.50053E-07        -0.24549E-12         0.00000E+00
    0.50053E-07        -0.25764E-12         0.00000E+00
    0.50053E-07        -0.26871E-12         0.00000E+00
    0.50053E-07        -0.27871E-12         0.00000E+00
    0.50053E-07        -0.28764E-12         0.00000E+00
    0.50053E-07        -0.29550E-12         0.00000E+00
    0.50053E-07        -0.30231E-12         0.00000E+00
    0.50053E-07        -0.30806E-12         0.00000E+00
    0.50053E-07        -0.31276E-12         0.00000E+00
    0.50053E-07        -0.31642E-12         0.00000E+00
    0.50053E-07        -0.31904E-12         0.00000E+00
    0.50053E-07        -0.32063E-12         0.00000E+00
    0.50053E-07        -0.32119E-12         0.00000E+00
    0.50053E-07        -0.32073E-12         0.00000E+00
    0.50053E-07        -0.31924E-12         0.00000E+00
    0.50053E-07        -0.31674E-12         0.00000E+00
    0.50053E-07        -0.31323E-12         0.00000E+00
    0.50053E-07        -0.30872E-12         0.00000E+00
    0.50053E-07        -0.30320E-12         0.00000E+00
    0.50053E-07        -0.29668E-12         0.00000E+00
    0.50053E-07        -0.28917E-12         0.00000E+00
    0.50053E-07        -0.28067E-12         0.00000E+00
    0.50053E-07        -0.27118E-12         0.00000E+00
    0.50053E-07        -0.26070E-12         0.00000E+00
    0.50053E-07        -0.24925E-12         0.00000E+00
    0.50053E-07        -0.23682E-12         0.00000E+00
    0.50053E-07        -0.22341E-12         0.00000E+00
    0.50053E-07        -0.20904E-12         0.00000E+00
    0.50053E-07        -0.19369E-12         0.00000E+00
    0.50053E-07        -0.17738E-12         0.00000E+00
    0.50053E-07        -0.16011E-12         0.00000E+00
    0.50053E-07        -0.14187E-12         0.00000E+00
    0.50053E-07        -0.12268E-12         0.00000E+00
    0.50053E-07        -0.10253E-12         0.00000E+00
    0.50053E-07        -0.81433E-13         0.00000E+00
    0.50053E-07        -0.59379E-13         0.00000E+00
    0.50053E-07        -0.36376E-13         0.00000E+00
    0.50053E-07        -0.12423E-13         0.00000E+00
    0.50057E-07        -0.12981E-13         0.00000E+00
    0.50057E-07        -0.38116E-13         0.00000E+00
    0.50057E-07        -0.62112E-13         0.00000E+00
    0.50057E-07        -0.84977E-13         0.00000E+00
    0.50057E-07        -0.10672E-12         0.00000E+00
    0.50057E-07        -0.12734E-12         0.00000E+00
    0.50057E-07        -0.14685E-12         0.00000E+00
    0.50057E-07        -0.16525E-12         0.00000E+00
    0.50057E-07        -0.18255E-12         0.00000E+00
    0.50057E-07        -0.19876E-12         0.00000E+00
    0.50057E-07        -0.21389E-12         0.00000E+00
    0.50057E-07        -0.22793E-12         0.00000E+00
    0.50057E-07        -0.24090E-12         0.00000E+00
    0.50057E-07        -0.25281E-12         0.00000E+00
    0.50057E-07        -0.26365E-12         0.00000E+00
    0.50057E-07        -0.27343E-12         0.00000E+00
    0.50057E-07        -0.28216E-12         0.00000E+00
    0.50057E-07        -0.28985E-12         0.00000E+00
    0.50057E-07        -0.29650E-12         0.00000E+00
    0.50057E-07        -0.30211E-12         0.00000E+00
    0.50057E-07        -0.30669E-12         0.00000E+00
    0.50057E-07        -0.31025E-12         0.00000E+00
    0.50057E-07        -0.31280E-12         0.00000E+00
    0.50057E-07        -0.31433E-12         0.00000E+00
    0.50057E-07        -0.31485E-12         0.00000E+00
    0.50057E-07        -0.31436E-12         0.00000E+00
    0.50057E-07        -0.31288E-12         0.00000E+00
    0.50057E-07        -0.31041E-12         0.00000E+00
    0.50057E-07        -0.30694E-12         0.00000E+00
    0.50057E-07        -0.30249E-12         0.00000E+00
    0.50057E-07        -0.29706E-12         0.00000E+00
    0.50057E-07        -0.29065E-12         0.00000E+00
    0.50057E-07        -0.28327E-12         0.00000E+00
    0.50057E-07        -0.27492E-12         0.00000E+00
    0.50057E-07        -0.26560E-12         0.00000E+00
    0.50057E-07        -0.25532E-12         0.00000E+00
    0.50057E-07        -0.24409E-12         0.00000E+00
    0.50057E-07        -0.23190E-12         0.00000E+00
    0.50057E-07        -0.21875E-12         0.00000E+00
    0.50057E-07        -0.20466E-12         0.00000E+00
    0.50057E-07        -0.18962E-12         0.00000E+00
    0.50057E-07        -0.17364E-12         0.00000E+00
    0.50057E-07        -0.15672E-12         0.00000E+00
    0.50057E-07        -0.13886E-12         0.00000E+00
    0.50057E-07        -0.12007E-12         0.00000E+00
    0.50057E-07        -0.10035E-12         0.00000E+00
    0.50057E-07        -0.79690E-13         0.00000E+00
    0.50057E-07        -0.58105E-13         0.00000E+00
    0.50057E-07        -0.35592E-13         0.00000E+00
    0.50057E-07        -0.12155E-13         0.00000E+00
    0.50061E-07        -0.12728E-13         0.00000E+00
    0.50061E-07        -0.37368E-13         0.00000E+00
    0.50061E-07        -0.60888E-13         0.00000E+00
    0.50061E-07        -0.83292E-13         0.00000E+00
    0.50061E-07        -0.10459E-12         0.00000E+00
    0.50061E-07        -0.12478E-12         0.00000E+00
    0.50061E-07        -0.14389E-12         0.00000E+00
    0.50061E-07        -0.16190E-12         0.00000E+00
    0.50061E-07        -0.17883E-12         0.00000E+00
    0.50061E-07        -0.19469E-12         0.00000E+00
    0.50061E-07        -0.20948E-12         0.00000E+00
    0.50061E-07        -0.22321E-12         0.00000E+00
    0.50061E-07        -0.23589E-12         0.00000E+00
    0.50061E-07        -0.24752E-12         0.00000E+00
    0.50061E-07        -0.25810E-12         0.00000E+00
    0.50061E-07        -0.26765E-12         0.00000E+00
    0.50061E-07        -0.27617E-12         0.00000E+00
    0.50061E-07        -0.28366E-12         0.00000E+00
    0.50061E-07        -0.29013E-12         0.00000E+00
    0.50061E-07        -0.29559E-12         0.00000E+00
    0.50061E-07        -0.30005E-12         0.00000E+00
    0.50061E-07        -0.30350E-12         0.00000E+00
    0.50061E-07        -0.30596E-12         0.00000E+00
    0.50061E-07        -0.30742E-12         0.00000E+00
    0.50061E-07        -0.30790E-12         0.00000E+00
    0.50061E-07        -0.30740E-12         0.00000E+00
    0.50061E-07        -0.30592E-12         0.00000E+00
    0.50061E-07        -0.30347E-12         0.00000E+00
    0.50061E-07        -0.30005E-12         0.00000E+00
    0.50061E-07        -0.29567E-12         0.00000E+00
    0.50061E-07        -0.29033E-12         0.00000E+00
    0.50061E-07        -0.28404E-12         0.00000E+00
    0.50061E-07        -0.27680E-12         0.00000E+00
    0.50061E-07        -0.26861E-12         0.00000E+00
    0.50061E-07        -0.25949E-12         0.00000E+00
    0.50061E-07        -0.24942E-12         0.00000E+00
    0.50061E-07        -0.23843E-12         0.00000E+00
    0.50061E-07        -0.22650E-12         0.00000E+00
    0.50061E-07        -0.21364E-12         0.00000E+00
    0.50061E-07        -0.19986E-12         0.00000E+00
    0.50061E-07        -0.18516E-12         0.00000E+00
    0.50061E-07        -0.16954E-12         0.00000E+00
    0.50061E-07        -0.15301E-12         0.00000E+00
    0.50061E-07        -0.13556E-12         0.00000E+00
    0.50061E-07        -0.11721E-12         0.00000E+00
    0.50061E-07        -0.97946E-13         0.00000E+00
    0.50061E-07        -0.77778E-13         0.00000E+00
    0.50061E-07        -0.56706E-13         0.00000E+00
    0.50061E-07        -0.34733E-13         0.00000E+00
    0.50061E-07        -0.11860E-13         0.00000E+00
    0.50065E-07        -0.12452E-13         0.00000E+00
    0.50065E-07        -0.36556E-13         0.00000E+00
    0.50065E-07        -0.59556E-13         0.00000E+00
    0.50065E-07        -0.81459E-13         0.00000E+00
    0.50065E-07        -0.10227E-12         0.00000E+00
    0.50065E-07        -0.12201E-12         0.00000E+00
    0.50065E-07        -0.14066E-12         0.00000E+00
    0.50065E-07        -0.15825E-12         0.00000E+00
    0.50065E-07        -0.17478E-12         0.00000E+00
    0.50065E-07        -0.19026E-12         0.00000E+00
    0.50065E-07        -0.20469E-12         0.00000E+00
    0.50065E-07        -0.21808E-12         0.00000E+00
    0.50065E-07        -0.23043E-12         0.00000E+00
    0.50065E-07        -0.24176E-12         0.00000E+00
    0.50065E-07        -0.25206E-12         0.00000E+00
    0.50065E-07        -0.26135E-12         0.00000E+00
    0.50065E-07        -0.26964E-12         0.00000E+00
    0.50065E-07        -0.27692E-12         0.00000E+00
    0.50065E-07        -0.28320E-12         0.00000E+00
    0.50065E-07        -0.28850E-12         0.00000E+00
    0.50065E-07        -0.29281E-12         0.00000E+00
    0.50065E-07        -0.29614E-12         0.00000E+00
    0.50065E-07        -0.29850E-12         0.00000E+00
    0.50065E-07        -0.29990E-12         0.00000E+00
    0.50065E-07        -0.30033E-12         0.00000E+00
    0.50065E-07        -0.29980E-12         0.00000E+00
    0.50065E-07        -0.29832E-12         0.00000E+00
    0.50065E-07        -0.29590E-12         0.00000E+00
    0.50065E-07        -0.29253E-12         0.00000E+00
    0.50065E-07        -0.28823E-12         0.00000E+00
    0.50065E-07        -0.28300E-12         0.00000E+00
    0.50065E-07        -0.27683E-12         0.00000E+00
    0.50065E-07        -0.26975E-12         0.00000E+00
    0.50065E-07        -0.26174E-12         0.00000E+00
    0.50065E-07        -0.25282E-12         0.00000E+00
    0.50065E-07        -0.24299E-12         0.00000E+00
    0.50065E-07        -0.23225E-12         0.00000E+00
    0.50065E-07        -0.22061E-12         0.00000E+00
    0.50065E-07        -0.20807E-12         0.00000E+00
    0.50065E-07        -0.19463E-12         0.00000E+00
    0.50065E-07        -0.18029E-12         0.00000E+00
    0.50065E-07        -0.16507E-12         0.00000E+00
    0.50065E-07        -0.14896E-12         0.00000E+00
    0.50065E-07        -0.13196E-12         0.00000E+00
    0.50065E-07        -0.11409E-12         0.00000E+00
    0.50065E-07        -0.95327E-13         0.00000E+00
    0.50065E-07        -0.75692E-13         0.00000E+00
    0.50065E-07        -0.55180E-13         0.00000E+00
    0.50065E-07        -0.33796E-13         0.00000E+00
    0.50065E-07        -0.11539E-13         0.00000E+00
    0.50069E-07        -0.12155E-13         0.00000E+00
    0.50069E-07        -0.35677E-13         0.00000E+00
    0.50069E-07        -0.58115E-13         0.00000E+00
    0.50069E-07        -0.79476E-13         0.00000E+00
    0.50069E-07        -0.99769E-13         0.00000E+00
    0.50069E-07        -0.11900E-12         0.00000E+00
    0.50069E-07        -0.13718E-12         0.00000E+00
    0.50069E-07        -0.15431E-12         0.00000E+00
    0.50069E-07        -0.17040E-12         0.00000E+00
    0.50069E-07        -0.18546E-12         0.00000E+00
    0.50069E-07        -0.19949E-12         0.00000E+00
    0.50069E-07        -0.21251E-12         0.00000E+00
    0.50069E-07        -0.22451E-12         0.00000E+00
    0.50069E-07        -0.23551E-12         0.00000E+00
    0.50069E-07        -0.24552E-12         0.00000E+00
    0.50069E-07        -0.25453E-12         0.00000E+00
    0.50069E-07        -0.26256E-12         0.00000E+00
    0.50069E-07        -0.26961E-12         0.00000E+00
    0.50069E-07        -0.27569E-12         0.00000E+00
    0.50069E-07        -0.28080E-12         0.00000E+00
    0.50069E-07        -0.28496E-12         0.00000E+00
    0.50069E-07        -0.28816E-12         0.00000E+00
    0.50069E-07        -0.29042E-12         0.00000E+00
    0.50069E-07        -0.29173E-12         0.00000E+00
    0.50069E-07        -0.29211E-12         0.00000E+00
    0.50069E-07        -0.29156E-12         0.00000E+00
    0.50069E-07        -0.29008E-12         0.00000E+00
    0.50069E-07        -0.28769E-12         0.00000E+00
    0.50069E-07        -0.28438E-12         0.00000E+00
    0.50069E-07        -0.28016E-12         0.00000E+00
    0.50069E-07        -0.27503E-12         0.00000E+00
    0.50069E-07        -0.26901E-12         0.00000E+00
    0.50069E-07        -0.26209E-12         0.00000E+00
    0.50069E-07        -0.25428E-12         0.00000E+00
    0.50069E-07        -0.24558E-12         0.00000E+00
    0.50069E-07        -0.23600E-12         0.00000E+00
    0.50069E-07        -0.22555E-12         0.00000E+00
    0.50069E-07        -0.21421E-12         0.00000E+00
    0.50069E-07        -0.20201E-12         0.00000E+00
    0.50069E-07        -0.18894E-12         0.00000E+00
    0.50069E-07        -0.17501E-12         0.00000E+00
    0.50069E-07        -0.16021E-12         0.00000E+00
    0.50069E-07        -0.14456E-12         0.00000E+00
    0.50069E-07        -0.12805E-12         0.00000E+00
    0.50069E-07        -0.11069E-12         0.00000E+00
    0.50069E-07        -0.92481E-13         0.00000E+00
    0.50069E-07        -0.73424E-13         0.00000E+00
    0.50069E-07        -0.53522E-13         0.00000E+00
    0.50069E-07        -0.32777E-13         0.00000E+00
    0.50069E-07        -0.11190E-13         0.00000E+00
    0.50073E-07        -0.11834E-13         0.00000E+00
    0.50073E-07        -0.34729E-13         0.00000E+00
    0.50073E-07        -0.56561E-13         0.00000E+00
    0.50073E-07        -0.77338E-13         0.00000E+00
    0.50073E-07        -0.97067E-13         0.00000E+00
    0.50073E-07        -0.11576E-12         0.00000E+00
    0.50073E-07        -0.13342E-12         0.00000E+00
    0.50073E-07        -0.15005E-12         0.00000E+00
    0.50073E-07        -0.16567E-12         0.00000E+00
    0.50073E-07        -0.18028E-12         0.00000E+00
    0.50073E-07        -0.19388E-12         0.00000E+00
    0.50073E-07        -0.20650E-12         0.00000E+00
    0.50073E-07        -0.21813E-12         0.00000E+00
    0.50073E-07        -0.22877E-12         0.00000E+00
    0.50073E-07        -0.23845E-12         0.00000E+00
    0.50073E-07        -0.24716E-12         0.00000E+00
    0.50073E-07        -0.25491E-12         0.00000E+00
    0.50073E-07        -0.26172E-12         0.00000E+00
    0.50073E-07        -0.26757E-12         0.00000E+00
    0.50073E-07        -0.27249E-12         0.00000E+00
    0.50073E-07        -0.27648E-12         0.00000E+00
    0.50073E-07        -0.27954E-12         0.00000E+00
    0.50073E-07        -0.28168E-12         0.00000E+00
    0.50073E-07        -0.28291E-12         0.00000E+00
    0.50073E-07        -0.28323E-12         0.00000E+00
    0.50073E-07        -0.28265E-12         0.00000E+00
    0.50073E-07        -0.28117E-12         0.00000E+00
    0.50073E-07        -0.27880E-12         0.00000E+00
    0.50073E-07        -0.27555E-12         0.00000E+00
    0.50073E-07        -0.27142E-12         0.00000E+00
    0.50073E-07        -0.26642E-12         0.00000E+00
    0.50073E-07        -0.26054E-12         0.00000E+00
    0.50073E-07        -0.25380E-12         0.00000E+00
    0.50073E-07        -0.24620E-12         0.00000E+00
    0.50073E-07        -0.23775E-12         0.00000E+00
    0.50073E-07        -0.22844E-12         0.00000E+00
    0.50073E-07        -0.21829E-12         0.00000E+00
    0.50073E-07        -0.20729E-12         0.00000E+00
    0.50073E-07        -0.19546E-12         0.00000E+00
    0.50073E-07        -0.18278E-12         0.00000E+00
    0.50073E-07        -0.16928E-12         0.00000E+00
    0.50073E-07        -0.15495E-12         0.00000E+00
    0.50073E-07        -0.13979E-12         0.00000E+00
    0.50073E-07        -0.12381E-12         0.00000E+00
    0.50073E-07        -0.10702E-12         0.00000E+00
    0.50073E-07        -0.89399E-13         0.00000E+00
    0.50073E-07        -0.70969E-13         0.00000E+00
    0.50073E-07        -0.51726E-13         0.00000E+00
    0.50073E-07        -0.31673E-13         0.00000E+00
    0.50073E-07        -0.10811E-13         0.00000E+00
    0.50076E-07        -0.11489E-13         0.00000E+00
    0.50076E-07        -0.33711E-13         0.00000E+00
    0.50076E-07        -0.54892E-13         0.00000E+00
    0.50076E-07        -0.75040E-13         0.00000E+00
    0.50076E-07        -0.94163E-13         0.00000E+00
    0.50076E-07        -0.11227E-12         0.00000E+00
    0.50076E-07        -0.12937E-12         0.00000E+00
    0.50076E-07        -0.14547E-12         0.00000E+00
    0.50076E-07        -0.16058E-12         0.00000E+00
    0.50076E-07        -0.17470E-12         0.00000E+00
    0.50076E-07        -0.18785E-12         0.00000E+00
    0.50076E-07        -0.20003E-12         0.00000E+00
    0.50076E-07        -0.21125E-12         0.00000E+00
    0.50076E-07        -0.22152E-12         0.00000E+00
    0.50076E-07        -0.23084E-12         0.00000E+00
    0.50076E-07        -0.23922E-12         0.00000E+00
    0.50076E-07        -0.24668E-12         0.00000E+00
    0.50076E-07        -0.25321E-12         0.00000E+00
    0.50076E-07        -0.25882E-12         0.00000E+00
    0.50076E-07        -0.26353E-12         0.00000E+00
    0.50076E-07        -0.26733E-12         0.00000E+00
    0.50076E-07        -0.27024E-12         0.00000E+00
    0.50076E-07        -0.27225E-12         0.00000E+00
    0.50076E-07        -0.27339E-12         0.00000E+00
    0.50076E-07        -0.27365E-12         0.00000E+00
    0.50076E-07        -0.27303E-12         0.00000E+00
    0.50076E-07        -0.27156E-12         0.00000E+00
    0.50076E-07        -0.26922E-12         0.00000E+00
    0.50076E-07        -0.26603E-12         0.00000E+00
    0.50076E-07        -0.26200E-12         0.00000E+00
    0.50076E-07        -0.25712E-12         0.00000E+00
    0.50076E-07        -0.25141E-12         0.00000E+00
    0.50076E-07        -0.24486E-12         0.00000E+00
    0.50076E-07        -0.23749E-12         0.00000E+00
    0.50076E-07        -0.22929E-12         0.00000E+00
    0.50076E-07        -0.22028E-12         0.00000E+00
    0.50076E-07        -0.21045E-12         0.00000E+00
    0.50076E-07        -0.19982E-12         0.00000E+00
    0.50076E-07        -0.18838E-12         0.00000E+00
    0.50076E-07        -0.17614E-12         0.00000E+00
    0.50076E-07        -0.16310E-12         0.00000E+00
    0.50076E-07        -0.14927E-12         0.00000E+00
    0.50076E-07        -0.13465E-12         0.00000E+00
    0.50076E-07        -0.11924E-12         0.00000E+00
    0.50076E-07        -0.10304E-12         0.00000E+00
    0.50076E-07        -0.86070E-13         0.00000E+00
    0.50076E-07        -0.68316E-13         0.00000E+00
    0.50076E-07        -0.49785E-13         0.00000E+00
    0.50076E-07        -0.30480E-13         0.00000E+00
    0.50076E-07        -0.10403E-13         0.00000E+00
    0.50080E-07        -0.11120E-13         0.00000E+00
    0.50080E-07        -0.32620E-13         0.00000E+00
    0.50080E-07        -0.53102E-13         0.00000E+00
    0.50080E-07        -0.72576E-13         0.00000E+00
    0.50080E-07        -0.91049E-13         0.00000E+00
    0.50080E-07        -0.10853E-12         0.00000E+00
    0.50080E-07        -0.12503E-12         0.00000E+00
    0.50080E-07        -0.14056E-12         0.00000E+00
    0.50080E-07        -0.15511E-12         0.00000E+00
    0.50080E-07        -0.16872E-12         0.00000E+00
    0.50080E-07        -0.18137E-12         0.00000E+00
    0.50080E-07        -0.19308E-12         0.00000E+00
    0.50080E-07        -0.20387E-12         0.00000E+00
    0.50080E-07        -0.21372E-12         0.00000E+00
    0.50080E-07        -0.22266E-12         0.00000E+00
    0.50080E-07        -0.23070E-12         0.00000E+00
    0.50080E-07        -0.23783E-12         0.00000E+00
    0.50080E-07        -0.24407E-12         0.00000E+00
    0.50080E-07        -0.24942E-12         0.00000E+00
    0.50080E-07        -0.25389E-12         0.00000E+00
    0.50080E-07        -0.25750E-12         0.00000E+00
    0.50080E-07        -0.26024E-12         0.00000E+00
    0.50080E-07        -0.26212E-12         0.00000E+00
    0.50080E-07        -0.26315E-12         0.00000E+00
    0.50080E-07        -0.26334E-12         0.00000E+00
    0.50080E-07        -0.26269E-12         0.00000E+00
    0.50080E-07        -0.26121E-12         0.00000E+00
    0.50080E-07        -0.25891E-12         0.00000E+00
    0.50080E-07        -0.25579E-12         0.00000E+00
    0.50080E-07        -0.25185E-12         0.00000E+00
    0.50080E-07        -0.24711E-12         0.00000E+00
    0.50080E-07        -0.24157E-12         0.00000E+00
    0.50080E-07        -0.23523E-12         0.00000E+00
    0.50080E-07        -0.22810E-12         0.00000E+00
    0.50080E-07        -0.22018E-12         0.00000E+00
    0.50080E-07        -0.21149E-12         0.00000E+00
    0.50080E-07        -0.20201E-12         0.00000E+00
    0.50080E-07        -0.19177E-12         0.00000E+00
    0.50080E-07        -0.18075E-12         0.00000E+00
    0.50080E-07        -0.16898E-12         0.00000E+00
    0.50080E-07        -0.15644E-12         0.00000E+00
    0.50080E-07        -0.14315E-12         0.00000E+00
    0.50080E-07        -0.12910E-12         0.00000E+00
    0.50080E-07        -0.11431E-12         0.00000E+00
    0.50080E-07        -0.98767E-13         0.00000E+00
    0.50080E-07        -0.82482E-13         0.00000E+00
    0.50080E-07        -0.65457E-13         0.00000E+00
    0.50080E-07        -0.47694E-13         0.00000E+00
    0.50080E-07        -0.29195E-13         0.00000E+00
    0.50080E-07        -0.99621E-14         0.00000E+00
    0.50084E-07        -0.10725E-13         0.00000E+00
    0.50084E-07        -0.31453E-13         0.00000E+00
    0.50084E-07        -0.51188E-13         0.00000E+00
    0.50084E-07        -0.69939E-13         0.00000E+00
    0.50084E-07        -0.87716E-13         0.00000E+00
    0.50084E-07        -0.10453E-12         0.00000E+00
    0.50084E-07        -0.12038E-12         0.00000E+00
    0.50084E-07        -0.13529E-12         0.00000E+00
    0.50084E-07        -0.14926E-12         0.00000E+00
    0.50084E-07        -0.16230E-12         0.00000E+00
    0.50084E-07        -0.17443E-12         0.00000E+00
    0.50084E-07        -0.18564E-12         0.00000E+00
    0.50084E-07        -0.19595E-12         0.00000E+00
    0.50084E-07        -0.20536E-12         0.00000E+00
    0.50084E-07        -0.21389E-12         0.00000E+00
    0.50084E-07        -0.22155E-12         0.00000E+00
    0.50084E-07        -0.22833E-12         0.00000E+00
    0.50084E-07        -0.23425E-12         0.00000E+00
    0.50084E-07        -0.23932E-12         0.00000E+00
    0.50084E-07        -0.24355E-12         0.00000E+00
    0.50084E-07        -0.24694E-12         0.00000E+00
    0.50084E-07        -0.24950E-12         0.00000E+00
    0.50084E-07        -0.25123E-12         0.00000E+00
    0.50084E-07        -0.25215E-12         0.00000E+00
    0.50084E-07        -0.25227E-12         0.00000E+00
    0.50084E-07        -0.25158E-12         0.00000E+00
    0.50084E-07        -0.25010E-12         0.00000E+00
    0.50084E-07        -0.24783E-12         0.00000E+00
    0.50084E-07        -0.24478E-12         0.00000E+00
    0.50084E-07        -0.24095E-12         0.00000E+00
    0.50084E-07        -0.23635E-12         0.00000E+00
    0.50084E-07        -0.23099E-12         0.00000E+00
    0.50084E-07        -0.22488E-12         0.00000E+00
    0.50084E-07        -0.21801E-12         0.00000E+00
    0.50084E-07        -0.21039E-12         0.00000E+00
    0.50084E-07        -0.20203E-12         0.00000E+00
    0.50084E-07        -0.19294E-12         0.00000E+00
    0.50084E-07        -0.18311E-12         0.00000E+00
    0.50084E-07        -0.17255E-12         0.00000E+00
    0.50084E-07        -0.16127E-12         0.00000E+00
    0.50084E-07        -0.14928E-12         0.00000E+00
    0.50084E-07        -0.13656E-12         0.00000E+00
    0.50084E-07        -0.12314E-12         0.00000E+00
    0.50084E-07        -0.10900E-12         0.00000E+00
    0.50084E-07        -0.94163E-13         0.00000E+00
    0.50084E-07        -0.78622E-13         0.00000E+00
    0.50084E-07        -0.62381E-13         0.00000E+00
    0.50084E-07        -0.45444E-13         0.00000E+00
    0.50084E-07        -0.27812E-13         0.00000E+00
    0.50084E-07        -0.94880E-14         0.00000E+00
    0.50087E-07        -0.10304E-13         0.00000E+00
    0.50087E-07        -0.30207E-13         0.00000E+00
    0.50087E-07        -0.49143E-13         0.00000E+00
    0.50087E-07        -0.67121E-13         0.00000E+00
    0.50087E-07        -0.84152E-13         0.00000E+00
    0.50087E-07        -0.10025E-12         0.00000E+00
    0.50087E-07        -0.11541E-12         0.00000E+00
    0.50087E-07        -0.12966E-12         0.00000E+00
    0.50087E-07        -0.14300E-12         0.00000E+00
    0.50087E-07        -0.15544E-12         0.00000E+00
    0.50087E-07        -0.16699E-12         0.00000E+00
    0.50087E-07        -0.17766E-12         0.00000E+00
    0.50087E-07        -0.18746E-12         0.00000E+00
    0.50087E-07        -0.19640E-12         0.00000E+00
    0.50087E-07        -0.20449E-12         0.00000E+00
    0.50087E-07        -0.21174E-12         0.00000E+00
    0.50087E-07        -0.21815E-12         0.00000E+00
    0.50087E-07        -0.22373E-12         0.00000E+00
    0.50087E-07        -0.22850E-12         0.00000E+00
    0.50087E-07        -0.23246E-12         0.00000E+00
    0.50087E-07        -0.23561E-12         0.00000E+00
    0.50087E-07        -0.23797E-12         0.00000E+00
    0.50087E-07        -0.23955E-12         0.00000E+00
    0.50087E-07        -0.24035E-12         0.00000E+00
    0.50087E-07        -0.24038E-12         0.00000E+00
    0.50087E-07        -0.23965E-12         0.00000E+00
    0.50087E-07        -0.23817E-12         0.00000E+00
    0.50087E-07        -0.23593E-12         0.00000E+00
    0.50087E-07        -0.23295E-12         0.00000E+00
    0.50087E-07        -0.22924E-12         0.00000E+00
    0.50087E-07        -0.22480E-12         0.00000E+00
    0.50087E-07        -0.21964E-12         0.00000E+00
    0.50087E-07        -0.21376E-12         0.00000E+00
    0.50087E-07        -0.20717E-12         0.00000E+00
    0.50087E-07        -0.19987E-12         0.00000E+00
    0.50087E-07        -0.19188E-12         0.00000E+00
    0.50087E-07        -0.18319E-12         0.00000E+00
    0.50087E-07        -0.17381E-12         0.00000E+00
    0.50087E-07        -0.16374E-12         0.00000E+00
    0.50087E-07        -0.15300E-12         0.00000E+00
    0.50087E-07        -0.14158E-12         0.00000E+00
    0.50087E-07        -0.12949E-12         0.00000E+00
    0.50087E-07        -0.11673E-12         0.00000E+00
    0.50087E-07        -0.10330E-12         0.00000E+00
    0.50087E-07        -0.89217E-13         0.00000E+00
    0.50087E-07        -0.74474E-13         0.00000E+00
    0.50087E-07        -0.59076E-13         0.00000E+00
    0.50087E-07        -0.43025E-13         0.00000E+00
    0.50087E-07        -0.26326E-13         0.00000E+00
    0.50087E-07        -0.89784E-14         0.00000E+00
    0.50090E-07        -0.98539E-14         0.00000E+00
    0.50090E-07        -0.28876E-13         0.00000E+00
    0.50090E-07        -0.46958E-13         0.00000E+00
    0.50090E-07        -0.64110E-13         0.00000E+00
    0.50090E-07        -0.80343E-13         0.00000E+00
    0.50090E-07        -0.95668E-13         0.00000E+00
    0.50090E-07        -0.11009E-12         0.00000E+00
    0.50090E-07        -0.12363E-12         0.00000E+00
    0.50090E-07        -0.13630E-12         0.00000E+00
    0.50090E-07        -0.14809E-12         0.00000E+00
    0.50090E-07        -0.15903E-12         0.00000E+00
    0.50090E-07        -0.16912E-12         0.00000E+00
    0.50090E-07        -0.17838E-12         0.00000E+00
    0.50090E-07        -0.18681E-12         0.00000E+00
    0.50090E-07        -0.19442E-12         0.00000E+00
    0.50090E-07        -0.20123E-12         0.00000E+00
    0.50090E-07        -0.20724E-12         0.00000E+00
    0.50090E-07        -0.21245E-12         0.00000E+00
    0.50090E-07        -0.21689E-12         0.00000E+00
    0.50090E-07        -0.22056E-12         0.00000E+00
    0.50090E-07        -0.22347E-12         0.00000E+00
    0.50090E-07        -0.22562E-12         0.00000E+00
    0.50090E-07        -0.22703E-12         0.00000E+00
    0.50090E-07        -0.22770E-12         0.00000E+00
    0.50090E-07        -0.22764E-12         0.00000E+00
    0.50090E-07        -0.22686E-12         0.00000E+00
    0.50090E-07        -0.22536E-12         0.00000E+00
    0.50090E-07        -0.22316E-12         0.00000E+00
    0.50090E-07        -0.22027E-12         0.00000E+00
    0.50090E-07        -0.21668E-12         0.00000E+00
    0.50090E-07        -0.21240E-12         0.00000E+00
    0.50090E-07        -0.20745E-12         0.00000E+00
    0.50090E-07        -0.20182E-12         0.00000E+00
    0.50090E-07        -0.19553E-12         0.00000E+00
    0.50090E-07        -0.18858E-12         0.00000E+00
    0.50090E-07        -0.18097E-12         0.00000E+00
    0.50090E-07        -0.17272E-12         0.00000E+00
    0.50090E-07        -0.16382E-12         0.00000E+00
    0.50090E-07        -0.15428E-12         0.00000E+00
    0.50090E-07        -0.14411E-12         0.00000E+00
    0.50090E-07        -0.13331E-12         0.00000E+00
    0.50090E-07        -0.12189E-12         0.00000E+00
    0.50090E-07        -0.10984E-12         0.00000E+00
    0.50090E-07        -0.97181E-13         0.00000E+00
    0.50090E-07        -0.83905E-13         0.00000E+00
    0.50090E-07        -0.70019E-13         0.00000E+00
    0.50090E-07        -0.55526E-13         0.00000E+00
    0.50090E-07        -0.40428E-13         0.00000E+00
    0.50090E-07        -0.24729E-13         0.00000E+00
    0.50090E-07        -0.84312E-14         0.00000E+00
    0.50094E-07        -0.93737E-14         0.00000E+00
    0.50094E-07        -0.27455E-13         0.00000E+00
    0.50094E-07        -0.44625E-13         0.00000E+00
    0.50094E-07        -0.60893E-13         0.00000E+00
    0.50094E-07        -0.76272E-13         0.00000E+00
    0.50094E-07        -0.90774E-13         0.00000E+00
    0.50094E-07        -0.10441E-12         0.00000E+00
    0.50094E-07        -0.11719E-12         0.00000E+00
    0.50094E-07        -0.12913E-12         0.00000E+00
    0.50094E-07        -0.14023E-12         0.00000E+00
    0.50094E-07        -0.15051E-12         0.00000E+00
    0.50094E-07        -0.15998E-12         0.00000E+00
    0.50094E-07        -0.16865E-12         0.00000E+00
    0.50094E-07        -0.17653E-12         0.00000E+00
    0.50094E-07        -0.18363E-12         0.00000E+00
    0.50094E-07        -0.18997E-12         0.00000E+00
    0.50094E-07        -0.19554E-12         0.00000E+00
    0.50094E-07        -0.20036E-12         0.00000E+00
    0.50094E-07        -0.20445E-12         0.00000E+00
    0.50094E-07        -0.20781E-12         0.00000E+00
    0.50094E-07        -0.21044E-12         0.00000E+00
    0.50094E-07        -0.21236E-12         0.00000E+00
    0.50094E-07        -0.21359E-12         0.00000E+00
    0.50094E-07        -0.21411E-12         0.00000E+00
    0.50094E-07        -0.21396E-12         0.00000E+00
    0.50094E-07        -0.21313E-12         0.00000E+00
    0.50094E-07        -0.21162E-12         0.00000E+00
    0.50094E-07        -0.20946E-12         0.00000E+00
    0.50094E-07        -0.20665E-12         0.00000E+00
    0.50094E-07        -0.20319E-12         0.00000E+00
    0.50094E-07        -0.19909E-12         0.00000E+00
    0.50094E-07        -0.19436E-12         0.00000E+00
    0.50094E-07        -0.18901E-12         0.00000E+00
    0.50094E-07        -0.18304E-12         0.00000E+00
    0.50094E-07        -0.17646E-12         0.00000E+00
    0.50094E-07        -0.16927E-12         0.00000E+00
    0.50094E-07        -0.16148E-12         0.00000E+00
    0.50094E-07        -0.15310E-12         0.00000E+00
    0.50094E-07        -0.14413E-12         0.00000E+00
    0.50094E-07        -0.13457E-12         0.00000E+00
    0.50094E-07        -0.12444E-12         0.00000E+00
    0.50094E-07        -0.11373E-12         0.00000E+00
    0.50094E-07        -0.10246E-12         0.00000E+00
    0.50094E-07        -0.90611E-13         0.00000E+00
    0.50094E-07        -0.78204E-13         0.00000E+00
    0.50094E-07        -0.65238E-13         0.00000E+00
    0.50094E-07        -0.51716E-13         0.00000E+00
    0.50094E-07        -0.37641E-13         0.00000E+00
    0.50094E-07        -0.23016E-13         0.00000E+00
    0.50094E-07        -0.78439E-14         0.00000E+00
    0.50097E-07        -0.88607E-14         0.00000E+00
    0.50097E-07        -0.25937E-13         0.00000E+00
    0.50097E-07        -0.42130E-13         0.00000E+00
    0.50097E-07        -0.57453E-13         0.00000E+00
    0.50097E-07        -0.71918E-13         0.00000E+00
    0.50097E-07        -0.85537E-13         0.00000E+00
    0.50097E-07        -0.98323E-13         0.00000E+00
    0.50097E-07        -0.11029E-12         0.00000E+00
    0.50097E-07        -0.12145E-12         0.00000E+00
    0.50097E-07        -0.13180E-12         0.00000E+00
    0.50097E-07        -0.14138E-12         0.00000E+00
    0.50097E-07        -0.15018E-12         0.00000E+00
    0.50097E-07        -0.15822E-12         0.00000E+00
    0.50097E-07        -0.16551E-12         0.00000E+00
    0.50097E-07        -0.17206E-12         0.00000E+00
    0.50097E-07        -0.17789E-12         0.00000E+00
    0.50097E-07        -0.18299E-12         0.00000E+00
    0.50097E-07        -0.18739E-12         0.00000E+00
    0.50097E-07        -0.19110E-12         0.00000E+00
    0.50097E-07        -0.19412E-12         0.00000E+00
    0.50097E-07        -0.19646E-12         0.00000E+00
    0.50097E-07        -0.19814E-12         0.00000E+00
    0.50097E-07        -0.19916E-12         0.00000E+00
    0.50097E-07        -0.19953E-12         0.00000E+00
    0.50097E-07        -0.19927E-12         0.00000E+00
    0.50097E-07        -0.19838E-12         0.00000E+00
    0.50097E-07        -0.19687E-12         0.00000E+00
    0.50097E-07        -0.19475E-12         0.00000E+00
    0.50097E-07        -0.19203E-12         0.00000E+00
    0.50097E-07        -0.18871E-12         0.00000E+00
    0.50097E-07        -0.18480E-12         0.00000E+00
    0.50097E-07        -0.18031E-12         0.00000E+00
    0.50097E-07        -0.17525E-12         0.00000E+00
    0.50097E-07        -0.16962E-12         0.00000E+00
    0.50097E-07        -0.16344E-12         0.00000E+00
    0.50097E-07        -0.15670E-12         0.00000E+00
    0.50097E-07        -0.14941E-12         0.00000E+00
    0.50097E-07        -0.14159E-12         0.00000E+00
    0.50097E-07        -0.13323E-12         0.00000E+00
    0.50097E-07        -0.12433E-12         0.00000E+00
    0.50097E-07        -0.11492E-12         0.00000E+00
    0.50097E-07        -0.10498E-12         0.00000E+00
    0.50097E-07        -0.94524E-13         0.00000E+00
    0.50097E-07        -0.83558E-13         0.00000E+00
    0.50097E-07        -0.72084E-13         0.00000E+00
    0.50097E-07        -0.60106E-13         0.00000E+00
    0.50097E-07        -0.47627E-13         0.00000E+00
    0.50097E-07        -0.34650E-13         0.00000E+00
    0.50097E-07        -0.21178E-13         0.00000E+00
    0.50097E-07        -0.72137E-14         0.00000E+00
    0.50100E-07        -0.83118E-14         0.00000E+00
    0.50100E-07        -0.24312E-13         0.00000E+00
    0.50100E-07        -0.39459E-13         0.00000E+00
    0.50100E-07        -0.53768E-13         0.00000E+00
    0.50100E-07        -0.67251E-13         0.00000E+00
    0.50100E-07        -0.79923E-13         0.00000E+00
    0.50100E-07        -0.91798E-13         0.00000E+00
    0.50100E-07        -0.10289E-12         0.00000E+00
    0.50100E-07        -0.11321E-12         0.00000E+00
    0.50100E-07        -0.12276E-12         0.00000E+00
    0.50100E-07        -0.13158E-12         0.00000E+00
    0.50100E-07        -0.13966E-12         0.00000E+00
    0.50100E-07        -0.14702E-12         0.00000E+00
    0.50100E-07        -0.15368E-12         0.00000E+00
    0.50100E-07        -0.15963E-12         0.00000E+00
    0.50100E-07        -0.16491E-12         0.00000E+00
    0.50100E-07        -0.16951E-12         0.00000E+00
    0.50100E-07        -0.17345E-12         0.00000E+00
    0.50100E-07        -0.17675E-12         0.00000E+00
    0.50100E-07        -0.17940E-12         0.00000E+00
    0.50100E-07        -0.18143E-12         0.00000E+00
    0.50100E-07        -0.18284E-12         0.00000E+00
    0.50100E-07        -0.18365E-12         0.00000E+00
    0.50100E-07        -0.18386E-12         0.00000E+00
    0.50100E-07        -0.18348E-12         0.00000E+00
    0.50100E-07        -0.18253E-12         0.00000E+00
    0.50100E-07        -0.18101E-12         0.00000E+00
    0.50100E-07        -0.17893E-12         0.00000E+00
    0.50100E-07        -0.17631E-12         0.00000E+00
    0.50100E-07        -0.17314E-12         0.00000E+00
    0.50100E-07        -0.16943E-12         0.00000E+00
    0.50100E-07        -0.16521E-12         0.00000E+00
    0.50100E-07        -0.16046E-12         0.00000E+00
    0.50100E-07        -0.15521E-12         0.00000E+00
    0.50100E-07        -0.14945E-12         0.00000E+00
    0.50100E-07        -0.14319E-12         0.00000E+00
    0.50100E-07        -0.13645E-12         0.00000E+00
    0.50100E-07        -0.12922E-12         0.00000E+00
    0.50100E-07        -0.12151E-12         0.00000E+00
    0.50100E-07        -0.11333E-12         0.00000E+00
    0.50100E-07        -0.10468E-12         0.00000E+00
    0.50100E-07        -0.95573E-13         0.00000E+00
    0.50100E-07        -0.86005E-13         0.00000E+00
    0.50100E-07        -0.75983E-13         0.00000E+00
    0.50100E-07        -0.65512E-13         0.00000E+00
    0.50100E-07        -0.54596E-13         0.00000E+00
    0.50100E-07        -0.43237E-13         0.00000E+00
    0.50100E-07        -0.31439E-13         0.00000E+00
    0.50100E-07        -0.19205E-13         0.00000E+00
    0.50100E-07        -0.65374E-14         0.00000E+00
    0.50103E-07        -0.77230E-14         0.00000E+00
    0.50103E-07        -0.22568E-13         0.00000E+00
    0.50103E-07        -0.36592E-13         0.00000E+00
    0.50103E-07        -0.49810E-13         0.00000E+00
    0.50103E-07        -0.62239E-13         0.00000E+00
    0.50103E-07        -0.73892E-13         0.00000E+00
    0.50103E-07        -0.84784E-13         0.00000E+00
    0.50103E-07        -0.94930E-13         0.00000E+00
    0.50103E-07        -0.10434E-12         0.00000E+00
    0.50103E-07        -0.11304E-12         0.00000E+00
    0.50103E-07        -0.12104E-12         0.00000E+00
    0.50103E-07        -0.12834E-12         0.00000E+00
    0.50103E-07        -0.13497E-12         0.00000E+00
    0.50103E-07        -0.14094E-12         0.00000E+00
    0.50103E-07        -0.14625E-12         0.00000E+00
    0.50103E-07        -0.15094E-12         0.00000E+00
    0.50103E-07        -0.15500E-12         0.00000E+00
    0.50103E-07        -0.15844E-12         0.00000E+00
    0.50103E-07        -0.16129E-12         0.00000E+00
    0.50103E-07        -0.16356E-12         0.00000E+00
    0.50103E-07        -0.16525E-12         0.00000E+00
    0.50103E-07        -0.16637E-12         0.00000E+00
    0.50103E-07        -0.16695E-12         0.00000E+00
    0.50103E-07        -0.16698E-12         0.00000E+00
    0.50103E-07        -0.16648E-12         0.00000E+00
    0.50103E-07        -0.16546E-12         0.00000E+00
    0.50103E-07        -0.16393E-12         0.00000E+00
    0.50103E-07        -0.16190E-12         0.00000E+00
    0.50103E-07        -0.15938E-12         0.00000E+00
    0.50103E-07        -0.15637E-12         0.00000E+00
    0.50103E-07        -0.15289E-12         0.00000E+00
    0.50103E-07        -0.14895E-12         0.00000E+00
    0.50103E-07        -0.14454E-12         0.00000E+00
    0.50103E-07        -0.13969E-12         0.00000E+00
    0.50103E-07        -0.13439E-12         0.00000E+00
    0.50103E-07        -0.12866E-12         0.00000E+00
    0.50103E-07        -0.12250E-12         0.00000E+00
    0.50103E-07        -0.11591E-12         0.00000E+00
    0.50103E-07        -0.10891E-12         0.00000E+00
    0.50103E-07        -0.10150E-12         0.00000E+00
    0.50103E-07        -0.93680E-13         0.00000E+00
    0.50103E-07        -0.85462E-13         0.00000E+00
    0.50103E-07        -0.76848E-13         0.00000E+00
    0.50103E-07        -0.67843E-13         0.00000E+00
    0.50103E-07        -0.58451E-13         0.00000E+00
    0.50103E-07        -0.48676E-13         0.00000E+00
    0.50103E-07        -0.38521E-13         0.00000E+00
    0.50103E-07        -0.27990E-13         0.00000E+00
    0.50103E-07        -0.17086E-13         0.00000E+00
    0.50103E-07        -0.58113E-14         0.00000E+00
    0.50106E-07        -0.70894E-14         0.00000E+00
    0.50106E-07        -0.20690E-13         0.00000E+00
    0.50106E-07        -0.33504E-13         0.00000E+00
    0.50106E-07        -0.45547E-13         0.00000E+00
    0.50106E-07        -0.56837E-13         0.00000E+00
    0.50106E-07        -0.67389E-13         0.00000E+00
    0.50106E-07        -0.77221E-13         0.00000E+00
    0.50106E-07        -0.86347E-13         0.00000E+00
    0.50106E-07        -0.94785E-13         0.00000E+00
    0.50106E-07        -0.10255E-12         0.00000E+00
    0.50106E-07        -0.10966E-12         0.00000E+00
    0.50106E-07        -0.11612E-12         0.00000E+00
    0.50106E-07        -0.12196E-12         0.00000E+00
    0.50106E-07        -0.12718E-12         0.00000E+00
    0.50106E-07        -0.13181E-12         0.00000E+00
    0.50106E-07        -0.13585E-12         0.00000E+00
    0.50106E-07        -0.13932E-12         0.00000E+00
    0.50106E-07        -0.14224E-12         0.00000E+00
    0.50106E-07        -0.14461E-12         0.00000E+00
    0.50106E-07        -0.14645E-12         0.00000E+00
    0.50106E-07        -0.14777E-12         0.00000E+00
    0.50106E-07        -0.14859E-12         0.00000E+00
    0.50106E-07        -0.14892E-12         0.00000E+00
    0.50106E-07        -0.14876E-12         0.00000E+00
    0.50106E-07        -0.14813E-12         0.00000E+00
    0.50106E-07        -0.14704E-12         0.00000E+00
    0.50106E-07        -0.14550E-12         0.00000E+00
    0.50106E-07        -0.14352E-12         0.00000E+00
    0.50106E-07        -0.14112E-12         0.00000E+00
    0.50106E-07        -0.13829E-12         0.00000E+00
    0.50106E-07        -0.13505E-12         0.00000E+00
    0.50106E-07        -0.13141E-12         0.00000E+00
    0.50106E-07        -0.12738E-12         0.00000E+00
    0.50106E-07        -0.12296E-12         0.00000E+00
    0.50106E-07        -0.11817E-12         0.00000E+00
    0.50106E-07        -0.11300E-12         0.00000E+00
    0.50106E-07        -0.10747E-12         0.00000E+00
    0.50105E-07        -0.10158E-12         0.00000E+00
    0.50105E-07        -0.95341E-13         0.00000E+00
    0.50105E-07        -0.88758E-13         0.00000E+00
    0.50105E-07        -0.81836E-13         0.00000E+00
    0.50105E-07        -0.74580E-13         0.00000E+00
    0.50105E-07        -0.66995E-13         0.00000E+00
    0.50105E-07        -0.59085E-13         0.00000E+00
    0.50105E-07        -0.50855E-13         0.00000E+00
    0.50105E-07        -0.42310E-13         0.00000E+00
    0.50105E-07        -0.33451E-13         0.00000E+00
    0.50105E-07        -0.24283E-13         0.00000E+00
    0.50105E-07        -0.14809E-13         0.00000E+00
    0.50105E-07        -0.50313E-14         0.00000E+00
    0.50108E-07        -0.64047E-14         0.00000E+00
    0.50108E-07        -0.18660E-13         0.00000E+00
    0.50108E-07        -0.30164E-13         0.00000E+00
    0.50108E-07        -0.40935E-13         0.00000E+00
    0.50108E-07        -0.50992E-13         0.00000E+00
    0.50108E-07        -0.60352E-13         0.00000E+00
    0.50108E-07        -0.69034E-13         0.00000E+00
    0.50108E-07        -0.77055E-13         0.00000E+00
    0.50108E-07        -0.84434E-13         0.00000E+00
    0.50108E-07        -0.91188E-13         0.00000E+00
    0.50108E-07        -0.97333E-13         0.00000E+00
    0.50108E-07        -0.10289E-12         0.00000E+00
    0.50108E-07        -0.10787E-12         0.00000E+00
    0.50108E-07        -0.11228E-12         0.00000E+00
    0.50108E-07        -0.11616E-12         0.00000E+00
    0.50108E-07        -0.11951E-12         0.00000E+00
    0.50108E-07        -0.12235E-12         0.00000E+00
    0.50108E-07        -0.12468E-12         0.00000E+00
    0.50108E-07        -0.12654E-12         0.00000E+00
    0.50108E-07        -0.12792E-12         0.00000E+00
    0.50108E-07        -0.12885E-12         0.00000E+00
    0.50108E-07        -0.12934E-12         0.00000E+00
    0.50108E-07        -0.12939E-12         0.00000E+00
    0.50108E-07        -0.12903E-12         0.00000E+00
    0.50108E-07        -0.12827E-12         0.00000E+00
    0.50108E-07        -0.12710E-12         0.00000E+00
    0.50108E-07        -0.12556E-12         0.00000E+00
    0.50108E-07        -0.12364E-12         0.00000E+00
    0.50108E-07        -0.12137E-12         0.00000E+00
    0.50108E-07        -0.11874E-12         0.00000E+00
    0.50108E-07        -0.11577E-12         0.00000E+00
    0.50108E-07        -0.11246E-12         0.00000E+00
    0.50108E-07        -0.10884E-12         0.00000E+00
    0.50108E-07        -0.10489E-12         0.00000E+00
    0.50108E-07        -0.10064E-12         0.00000E+00
    0.50108E-07        -0.96089E-13         0.00000E+00
    0.50108E-07        -0.91244E-13         0.00000E+00
    0.50108E-07        -0.86114E-13         0.00000E+00
    0.50108E-07        -0.80703E-13         0.00000E+00
    0.50108E-07        -0.75018E-13         0.00000E+00
    0.50108E-07        -0.69066E-13         0.00000E+00
    0.50108E-07        -0.62851E-13         0.00000E+00
    0.50108E-07        -0.56378E-13         0.00000E+00
    0.50108E-07        -0.49652E-13         0.00000E+00
    0.50108E-07        -0.42677E-13         0.00000E+00
    0.50108E-07        -0.35457E-13         0.00000E+00
    0.50108E-07        -0.27995E-13         0.00000E+00
    0.50108E-07        -0.20295E-13         0.00000E+00
    0.50108E-07        -0.12360E-13         0.00000E+00
    0.50108E-07        -0.41927E-14         0.00000E+00
    0.50111E-07        -0.56610E-14         0.00000E+00
    0.50111E-07        -0.16455E-13         0.00000E+00
    0.50111E-07        -0.26535E-13         0.00000E+00
    0.50111E-07        -0.35922E-13         0.00000E+00
    0.50111E-07        -0.44637E-13         0.00000E+00
    0.50111E-07        -0.52700E-13         0.00000E+00
    0.50111E-07        -0.60131E-13         0.00000E+00
    0.50111E-07        -0.66950E-13         0.00000E+00
    0.50111E-07        -0.73176E-13         0.00000E+00
    0.50111E-07        -0.78830E-13         0.00000E+00
    0.50111E-07        -0.83928E-13         0.00000E+00
    0.50111E-07        -0.88491E-13         0.00000E+00
    0.50111E-07        -0.92537E-13         0.00000E+00
    0.50111E-07        -0.96081E-13         0.00000E+00
    0.50111E-07        -0.99144E-13         0.00000E+00
    0.50111E-07        -0.10174E-12         0.00000E+00
    0.50111E-07        -0.10389E-12         0.00000E+00
    0.50111E-07        -0.10560E-12         0.00000E+00
    0.50111E-07        -0.10689E-12         0.00000E+00
    0.50111E-07        -0.10779E-12         0.00000E+00
    0.50111E-07        -0.10829E-12         0.00000E+00
    0.50111E-07        -0.10842E-12         0.00000E+00
    0.50111E-07        -0.10819E-12         0.00000E+00
    0.50111E-07        -0.10761E-12         0.00000E+00
    0.50111E-07        -0.10670E-12         0.00000E+00
    0.50111E-07        -0.10547E-12         0.00000E+00
    0.50111E-07        -0.10392E-12         0.00000E+00
    0.50111E-07        -0.10208E-12         0.00000E+00
    0.50111E-07        -0.99952E-13         0.00000E+00
    0.50111E-07        -0.97544E-13         0.00000E+00
    0.50111E-07        -0.94868E-13         0.00000E+00
    0.50111E-07        -0.91935E-13         0.00000E+00
    0.50111E-07        -0.88752E-13         0.00000E+00
    0.50111E-07        -0.85330E-13         0.00000E+00
    0.50111E-07        -0.81675E-13         0.00000E+00
    0.50111E-07        -0.77796E-13         0.00000E+00
    0.50111E-07        -0.73700E-13         0.00000E+00
    0.50111E-07        -0.69393E-13         0.00000E+00
    0.50111E-07        -0.64883E-13         0.00000E+00
    0.50111E-07        -0.60176E-13         0.00000E+00
    0.50111E-07        -0.55276E-13         0.00000E+00
    0.50111E-07        -0.50190E-13         0.00000E+00
    0.50111E-07        -0.44922E-13         0.00000E+00
    0.50111E-07        -0.39477E-13         0.00000E+00
    0.50111E-07        -0.33858E-13         0.00000E+00
    0.50111E-07        -0.28070E-13         0.00000E+00
    0.50111E-07        -0.22117E-13         0.00000E+00
    0.50111E-07        -0.16001E-13         0.00000E+00
    0.50111E-07        -0.97242E-14         0.00000E+00
    0.50111E-07        -0.32903E-14         0.00000E+00
    0.50113E-07        -0.48486E-14         0.00000E+00
    0.50113E-07        -0.14046E-13         0.00000E+00
    0.50113E-07        -0.22570E-13         0.00000E+00
    0.50113E-07        -0.30444E-13         0.00000E+00
    0.50113E-07        -0.37692E-13         0.00000E+00
    0.50113E-07        -0.44337E-13         0.00000E+00
    0.50113E-07        -0.50400E-13         0.00000E+00
    0.50113E-07        -0.55905E-13         0.00000E+00
    0.50113E-07        -0.60872E-13         0.00000E+00
    0.50113E-07        -0.65324E-13         0.00000E+00
    0.50113E-07        -0.69280E-13         0.00000E+00
    0.50113E-07        -0.72763E-13         0.00000E+00
    0.50113E-07        -0.75790E-13         0.00000E+00
    0.50113E-07        -0.78383E-13         0.00000E+00
    0.50113E-07        -0.80559E-13         0.00000E+00
    0.50113E-07        -0.82338E-13         0.00000E+00
    0.50113E-07        -0.83736E-13         0.00000E+00
    0.50113E-07        -0.84773E-13         0.00000E+00
    0.50113E-07        -0.85463E-13         0.00000E+00
    0.50113E-07        -0.85824E-13         0.00000E+00
    0.50113E-07        -0.85871E-13         0.00000E+00
    0.50113E-07        -0.85620E-13         0.00000E+00
    0.50113E-07        -0.85085E-13         0.00000E+00
    0.50113E-07        -0.84280E-13         0.00000E+00
    0.50113E-07        -0.83219E-13         0.00000E+00
    0.50113E-07        -0.81915E-13         0.00000E+00
    0.50113E-07        -0.80380E-13         0.00000E+00
    0.50113E-07        -0.78626E-13         0.00000E+00
    0.50113E-07        -0.76664E-13         0.00000E+00
    0.50113E-07        -0.74505E-13         0.00000E+00
    0.50113E-07        -0.72160E-13         0.00000E+00
    0.50113E-07        -0.69639E-13         0.00000E+00
    0.50113E-07        -0.66949E-13         0.00000E+00
    0.50113E-07        -0.64102E-13         0.00000E+00
    0.50113E-07        -0.61103E-13         0.00000E+00
    0.50113E-07        -0.57963E-13         0.00000E+00
    0.50113E-07        -0.54687E-13         0.00000E+00
    0.50113E-07        -0.51282E-13         0.00000E+00
    0.50113E-07        -0.47755E-13         0.00000E+00
    0.50113E-07        -0.44113E-13         0.00000E+00
    0.50113E-07        -0.40359E-13         0.00000E+00
    0.50113E-07        -0.36501E-13         0.00000E+00
    0.50113E-07        -0.32541E-13         0.00000E+00
    0.50113E-07        -0.28485E-13         0.00000E+00
    0.50113E-07        -0.24337E-13         0.00000E+00
    0.50113E-07        -0.20099E-13         0.00000E+00
    0.50113E-07        -0.15776E-13         0.00000E+00
    0.50113E-07        -0.11370E-13         0.00000E+00
    0.50113E-07        -0.68835E-14         0.00000E+00
    0.50113E-07        -0.23186E-14         0.00000E+00
    0.50116E-07        -0.39558E-14         0.00000E+00
    0.50116E-07        -0.11398E-13         0.00000E+00
    0.50116E-07        -0.18211E-13         0.00000E+00
    0.50116E-07        -0.24423E-13         0.00000E+00
    0.50116E-07        -0.30059E-13         0.00000E+00
    0.50116E-07        -0.35146E-13         0.00000E+00
    0.50116E-07        -0.39707E-13         0.00000E+00
    0.50116E-07        -0.43769E-13         0.00000E+00
    0.50116E-07        -0.47356E-13         0.00000E+00
    0.50116E-07        -0.50491E-13         0.00000E+00
    0.50116E-07        -0.53196E-13         0.00000E+00
    0.50116E-07        -0.55496E-13         0.00000E+00
    0.50116E-07        -0.57412E-13         0.00000E+00
    0.50116E-07        -0.58965E-13         0.00000E+00
    0.50116E-07        -0.60175E-13         0.00000E+00
    0.50116E-07        -0.61064E-13         0.00000E+00
    0.50116E-07        -0.61650E-13         0.00000E+00
    0.50116E-07        -0.61952E-13         0.00000E+00
    0.50116E-07        -0.61989E-13         0.00000E+00
    0.50116E-07        -0.61777E-13         0.00000E+00
    0.50116E-07        -0.61335E-13         0.00000E+00
    0.50116E-07        -0.60677E-13         0.00000E+00
    0.50116E-07        -0.59819E-13         0.00000E+00
    0.50116E-07        -0.58777E-13         0.00000E+00
    0.50116E-07        -0.57564E-13         0.00000E+00
    0.50116E-07        -0.56194E-13         0.00000E+00
    0.50116E-07        -0.54681E-13         0.00000E+00
    0.50116E-07        -0.53036E-13         0.00000E+00
    0.50116E-07        -0.51270E-13         0.00000E+00
    0.50116E-07        -0.49397E-13         0.00000E+00
    0.50116E-07        -0.47424E-13         0.00000E+00
    0.50116E-07        -0.45364E-13         0.00000E+00
    0.50116E-07        -0.43224E-13         0.00000E+00
    0.50116E-07        -0.41014E-13         0.00000E+00
    0.50116E-07        -0.38742E-13         0.00000E+00
    0.50116E-07        -0.36415E-13         0.00000E+00
    0.50116E-07        -0.34041E-13         0.00000E+00
    0.50116E-07        -0.31627E-13         0.00000E+00
    0.50116E-07        -0.29178E-13         0.00000E+00
    0.50116E-07        -0.26700E-13         0.00000E+00
    0.50116E-07        -0.24198E-13         0.00000E+00
    0.50116E-07        -0.21678E-13         0.00000E+00
    0.50116E-07        -0.19143E-13         0.00000E+00
    0.50116E-07        -0.16597E-13         0.00000E+00
    0.50116E-07        -0.14045E-13         0.00000E+00
    0.50116E-07        -0.11488E-13         0.00000E+00
    0.50116E-07        -0.89299E-14         0.00000E+00
    0.50116E-07        -0.63732E-14         0.00000E+00
    0.50116E-07        -0.38197E-14         0.00000E+00
    0.50116E-07        -0.12712E-14         0.00000E+00
    0.50118E-07        -0.29682E-14         0.00000E+00
    0.50118E-07        -0.84691E-14         0.00000E+00
    0.50118E-07        -0.13392E-13         0.00000E+00
    0.50118E-07        -0.17766E-13         0.00000E+00
    0.50118E-07        -0.21622E-13         0.00000E+00
    0.50118E-07        -0.24989E-13         0.00000E+00
    0.50118E-07        -0.27895E-13         0.00000E+00
    0.50118E-07        -0.30367E-13         0.00000E+00
    0.50118E-07        -0.32433E-13         0.00000E+00
    0.50118E-07        -0.34120E-13         0.00000E+00
    0.50118E-07        -0.35452E-13         0.00000E+00
    0.50118E-07        -0.36455E-13         0.00000E+00
    0.50118E-07        -0.37152E-13         0.00000E+00
    0.50118E-07        -0.37568E-13         0.00000E+00
    0.50118E-07        -0.37725E-13         0.00000E+00
    0.50118E-07        -0.37644E-13         0.00000E+00
    0.50118E-07        -0.37347E-13         0.00000E+00
    0.50118E-07        -0.36854E-13         0.00000E+00
    0.50118E-07        -0.36185E-13         0.00000E+00
    0.50118E-07        -0.35358E-13         0.00000E+00
    0.50118E-07        -0.34391E-13         0.00000E+00
    0.50118E-07        -0.33301E-13         0.00000E+00
    0.50118E-07        -0.32104E-13         0.00000E+00
    0.50118E-07        -0.30817E-13         0.00000E+00
    0.50118E-07        -0.29454E-13         0.00000E+00
    0.50118E-07        -0.28029E-13         0.00000E+00
    0.50118E-07        -0.26556E-13         0.00000E+00
    0.50118E-07        -0.25046E-13         0.00000E+00
    0.50118E-07        -0.23513E-13         0.00000E+00
    0.50118E-07        -0.21967E-13         0.00000E+00
    0.50118E-07        -0.20418E-13         0.00000E+00
    0.50118E-07        -0.18877E-13         0.00000E+00
    0.50118E-07        -0.17353E-13         0.00000E+00
    0.50118E-07        -0.15854E-13         0.00000E+00
    0.50118E-07        -0.14388E-13         0.00000E+00
    0.50118E-07        -0.12963E-13         0.00000E+00
    0.50118E-07        -0.11586E-13         0.00000E+00
    0.50118E-07        -0.10262E-13         0.00000E+00
    0.50118E-07        -0.89968E-14         0.00000E+00
    0.50118E-07        -0.77964E-14         0.00000E+00
    0.50118E-07        -0.66652E-14         0.00000E+00
    0.50118E-07        -0.56072E-14         0.00000E+00
    0.50118E-07        -0.46262E-14         0.00000E+00
    0.50118E-07        -0.37254E-14         0.00000E+00
    0.50118E-07        -0.29079E-14         0.00000E+00
    0.50118E-07        -0.21759E-14         0.00000E+00
    0.50118E-07        -0.15318E-14         0.00000E+00
    0.50118E-07        -0.97715E-15         0.00000E+00
    0.50118E-07        -0.51347E-15         0.00000E+00
    0.50118E-07        -0.14190E-15         0.00000E+00
    0.50120E-07        -0.18690E-14         0.00000E+00
    0.50120E-07        -0.52107E-14         0.00000E+00
    0.50120E-07        -0.80314E-14         0.00000E+00
    0.50120E-07        -0.10366E-13         0.00000E+00
    0.50120E-07        -0.12247E-13         0.00000E+00
    0.50120E-07        -0.13707E-13         0.00000E+00
    0.50120E-07        -0.14780E-13         0.00000E+00
    0.50120E-07        -0.15494E-13         0.00000E+00
    0.50120E-07        -0.15882E-13         0.00000E+00
    0.50120E-07        -0.15971E-13         0.00000E+00
    0.50120E-07        -0.15791E-13         0.00000E+00
    0.50120E-07        -0.15369E-13         0.00000E+00
    0.50120E-07        -0.14730E-13         0.00000E+00
    0.50120E-07        -0.13902E-13         0.00000E+00
    0.50120E-07        -0.12908E-13         0.00000E+00
    0.50120E-07        -0.11771E-13         0.00000E+00
    0.50120E-07        -0.10516E-13         0.00000E+00
    0.50120E-07        -0.91625E-14         0.00000E+00
    0.50120E-07        -0.77324E-14         0.00000E+00
    0.50120E-07        -0.62452E-14         0.00000E+00
    0.50120E-07        -0.47199E-14         0.00000E+00
    0.50120E-07        -0.31744E-14         0.00000E+00
    0.50120E-07        -0.16258E-14         0.00000E+00
    0.50120E-07        -0.90325E-16         0.00000E+00
    0.50120E-07         0.14168E-14         0.00000E+00
    0.50120E-07         0.28812E-14         0.00000E+00
    0.50120E-07         0.42893E-14         0.00000E+00
    0.50120E-07         0.56284E-14         0.00000E+00
    0.50120E-07         0.68866E-14         0.00000E+00
    0.50120E-07         0.80528E-14         0.00000E+00
    0.50120E-07         0.91167E-14         0.00000E+00
    0.50120E-07         0.10069E-13         0.00000E+00
    0.50120E-07         0.10900E-13         0.00000E+00
    0.50120E-07         0.11603E-13         0.00000E+00
    0.50120E-07         0.12169E-13         0.00000E+00
    0.50120E-07         0.12592E-13         0.00000E+00
    0.50120E-07         0.12867E-13         0.00000E+00
    0.50120E-07         0.12986E-13         0.00000E+00
    0.50120E-07         0.12946E-13         0.00000E+00
    0.50120E-07         0.12743E-13         0.00000E+00
    0.50120E-07         0.12371E-13         0.00000E+00
    0.50120E-07         0.11828E-13         0.00000E+00
    0.50120E-07         0.11112E-13         0.00000E+00
    0.50120E-07         0.10219E-13         0.00000E+00
    0.50120E-07         0.91479E-14         0.00000E+00
    0.50120E-07         0.78970E-14         0.00000E+00
    0.50120E-07         0.64650E-14         0.00000E+00
    0.50120E-07         0.48512E-14         0.00000E+00
    0.50120E-07         0.30548E-14         0.00000E+00
    0.50120E-07         0.10758E-14         0.00000E+00
    0.50122E-07        -0.63889E-15         0.00000E+00
    0.50122E-07        -0.15659E-14         0.00000E+00
    0.50122E-07        -0.20391E-14         0.00000E+00
    0.50122E-07        -0.20974E-14         0.00000E+00
    0.50122E-07        -0.17787E-14         0.00000E+00
    0.50122E-07        -0.11197E-14         0.00000E+00
    0.50122E-07        -0.15620E-15         0.00000E+00
    0.50122E-07         0.10772E-14         0.00000E+00
    0.50122E-07         0.25471E-14         0.00000E+00
    0.50122E-07         0.42210E-14         0.00000E+00
    0.50122E-07         0.60678E-14         0.00000E+00
    0.50122E-07         0.80576E-14         0.00000E+00
    0.50122E-07         0.10161E-13         0.00000E+00
    0.50122E-07         0.12351E-13         0.00000E+00
    0.50122E-07         0.14601E-13         0.00000E+00
    0.50122E-07         0.16885E-13         0.00000E+00
    0.50122E-07         0.19180E-13         0.00000E+00
    0.50122E-07         0.21461E-13         0.00000E+00
    0.50122E-07         0.23708E-13         0.00000E+00
    0.50122E-07         0.25899E-13         0.00000E+00
    0.50122E-07         0.28015E-13         0.00000E+00
    0.50122E-07         0.30037E-13         0.00000E+00
    0.50122E-07         0.31947E-13         0.00000E+00
    0.50122E-07         0.33729E-13         0.00000E+00
    0.50122E-07         0.35368E-13         0.00000E+00
    0.50122E-07         0.36848E-13         0.00000E+00
    0.50122E-07         0.38157E-13         0.00000E+00
    0.50122E-07         0.39282E-13         0.00000E+00
    0.50122E-07         0.40212E-13         0.00000E+00
    0.50122E-07         0.40935E-13         0.00000E+00
    0.50122E-07         0.41442E-13         0.00000E+00
    0.50122E-07         0.41724E-13         0.00000E+00
    0.50122E-07         0.41773E-13         0.00000E+00
    0.50122E-07         0.41581E-13         0.00000E+00
    0.50122E-07         0.41143E-13         0.00000E+00
    0.50122E-07         0.40451E-13         0.00000E+00
    0.50122E-07         0.39501E-13         0.00000E+00
    0.50122E-07         0.38288E-13         0.00000E+00
    0.50122E-07         0.36809E-13         0.00000E+00
    0.50122E-07         0.35060E-13         0.00000E+00
    0.50122E-07         0.33039E-13         0.00000E+00
    0.50122E-07         0.30743E-13         0.00000E+00
    0.50122E-07         0.28172E-13         0.00000E+00
    0.50122E-07         0.25322E-13         0.00000E+00
    0.50122E-07         0.22195E-13         0.00000E+00
    0.50122E-07         0.18789E-13         0.00000E+00
    0.50122E-07         0.15105E-13         0.00000E+00
    0.50122E-07         0.11143E-13         0.00000E+00
    0.50122E-07         0.69038E-14         0.00000E+00
    0.50122E-07         0.23879E-14         0.00000E+00
    0.50124E-07         0.74415E-15         0.00000E+00
    0.50124E-07         0.25285E-14         0.00000E+00
    0.50124E-07         0.46866E-14         0.00000E+00
    0.50124E-07         0.71745E-14         0.00000E+00
    0.50124E-07         0.99497E-14         0.00000E+00
    0.50124E-07         0.12971E-13         0.00000E+00
    0.50124E-07         0.16198E-13         0.00000E+00
    0.50124E-07         0.19593E-13         0.00000E+00
    0.50124E-07         0.23120E-13         0.00000E+00
    0.50124E-07         0.26741E-13         0.00000E+00
    0.50124E-07         0.30424E-13         0.00000E+00
    0.50124E-07         0.34135E-13         0.00000E+00
    0.50124E-07         0.37845E-13         0.00000E+00
    0.50124E-07         0.41521E-13         0.00000E+00
    0.50124E-07         0.45138E-13         0.00000E+00
    0.50124E-07         0.48666E-13         0.00000E+00
    0.50124E-07         0.52082E-13         0.00000E+00
    0.50124E-07         0.55360E-13         0.00000E+00
    0.50124E-07         0.58478E-13         0.00000E+00
    0.50124E-07         0.61415E-13         0.00000E+00
    0.50124E-07         0.64149E-13         0.00000E+00
    0.50124E-07         0.66663E-13         0.00000E+00
    0.50124E-07         0.68938E-13         0.00000E+00
    0.50124E-07         0.70957E-13         0.00000E+00
    0.50124E-07         0.72707E-13         0.00000E+00
    0.50124E-07         0.74171E-13         0.00000E+00
    0.50124E-07         0.75338E-13         0.00000E+00
    0.50124E-07         0.76195E-13         0.00000E+00
    0.50123E-07         0.76731E-13         0.00000E+00
    0.50123E-07         0.76937E-13         0.00000E+00
    0.50123E-07         0.76803E-13         0.00000E+00
    0.50123E-07         0.76322E-13         0.00000E+00
    0.50123E-07         0.75486E-13         0.00000E+00
    0.50123E-07         0.74289E-13         0.00000E+00
    0.50123E-07         0.72726E-13         0.00000E+00
    0.50123E-07         0.70792E-13         0.00000E+00
    0.50123E-07         0.68484E-13         0.00000E+00
    0.50123E-07         0.65798E-13         0.00000E+00
    0.50123E-07         0.62732E-13         0.00000E+00
    0.50123E-07         0.59284E-13         0.00000E+00
    0.50123E-07         0.55453E-13         0.00000E+00
    0.50123E-07         0.51239E-13         0.00000E+00
    0.50123E-07         0.46641E-13         0.00000E+00
    0.50123E-07         0.41659E-13         0.00000E+00
    0.50123E-07         0.36296E-13         0.00000E+00
    0.50123E-07         0.30551E-13         0.00000E+00
    0.50123E-07         0.24427E-13         0.00000E+00
    0.50123E-07         0.17926E-13         0.00000E+00
    0.50123E-07         0.11049E-13         0.00000E+00
    0.50123E-07         0.37995E-14         0.00000E+00
    0.50125E-07         0.23037E-14         0.00000E+00
    0.50125E-07         0.71404E-14         0.00000E+00
    0.50125E-07         0.12254E-13         0.00000E+00
    0.50125E-07         0.17594E-13         0.00000E+00
    0.50125E-07         0.23115E-13         0.00000E+00
    0.50125E-07         0.28769E-13         0.00000E+00
    0.50125E-07         0.34513E-13         0.00000E+00
    0.50125E-07         0.40305E-13         0.00000E+00
    0.50125E-07         0.46105E-13         0.00000E+00
    0.50125E-07         0.51873E-13         0.00000E+00
    0.50125E-07         0.57573E-13         0.00000E+00
    0.50125E-07         0.63171E-13         0.00000E+00
    0.50125E-07         0.68632E-13         0.00000E+00
    0.50125E-07         0.73926E-13         0.00000E+00
    0.50125E-07         0.79021E-13         0.00000E+00
    0.50125E-07         0.83891E-13         0.00000E+00
    0.50125E-07         0.88509E-13         0.00000E+00
    0.50125E-07         0.92850E-13         0.00000E+00
    0.50125E-07         0.96890E-13         0.00000E+00
    0.50125E-07         0.10061E-12         0.00000E+00
    0.50125E-07         0.10398E-12         0.00000E+00
    0.50125E-07         0.10699E-12         0.00000E+00
    0.50125E-07         0.10963E-12         0.00000E+00
    0.50125E-07         0.11187E-12         0.00000E+00
    0.50125E-07         0.11370E-12         0.00000E+00
    0.50125E-07         0.11510E-12         0.00000E+00
    0.50125E-07         0.11607E-12         0.00000E+00
    0.50125E-07         0.11659E-12         0.00000E+00
    0.50125E-07         0.11666E-12         0.00000E+00
    0.50125E-07         0.11626E-12         0.00000E+00
    0.50125E-07         0.11539E-12         0.00000E+00
    0.50125E-07         0.11404E-12         0.00000E+00
    0.50125E-07         0.11221E-12         0.00000E+00
    0.50125E-07         0.10988E-12         0.00000E+00
    0.50125E-07         0.10706E-12         0.00000E+00
    0.50125E-07         0.10375E-12         0.00000E+00
    0.50125E-07         0.99939E-13         0.00000E+00
    0.50125E-07         0.95627E-13         0.00000E+00
    0.50125E-07         0.90815E-13         0.00000E+00
    0.50125E-07         0.85503E-13         0.00000E+00
    0.50125E-07         0.79692E-13         0.00000E+00
    0.50125E-07         0.73383E-13         0.00000E+00
    0.50125E-07         0.66579E-13         0.00000E+00
    0.50125E-07         0.59280E-13         0.00000E+00
    0.50125E-07         0.51491E-13         0.00000E+00
    0.50125E-07         0.43215E-13         0.00000E+00
    0.50125E-07         0.34455E-13         0.00000E+00
    0.50125E-07         0.25215E-13         0.00000E+00
    0.50125E-07         0.15500E-13         0.00000E+00
    0.50125E-07         0.53136E-14         0.00000E+00
    0.50127E-07         0.40640E-14         0.00000E+00
    0.50127E-07         0.12338E-13         0.00000E+00
    0.50127E-07         0.20770E-13         0.00000E+00
    0.50127E-07         0.29304E-13         0.00000E+00
    0.50127E-07         0.37888E-13         0.00000E+00
    0.50127E-07         0.46471E-13         0.00000E+00
    0.50127E-07         0.55006E-13         0.00000E+00
    0.50127E-07         0.63447E-13         0.00000E+00
    0.50127E-07         0.71750E-13         0.00000E+00
    0.50127E-07         0.79874E-13         0.00000E+00
    0.50127E-07         0.87780E-13         0.00000E+00
    0.50127E-07         0.95430E-13         0.00000E+00
    0.50127E-07         0.10279E-12         0.00000E+00
    0.50127E-07         0.10983E-12         0.00000E+00
    0.50127E-07         0.11651E-12         0.00000E+00
    0.50127E-07         0.12282E-12         0.00000E+00
    0.50127E-07         0.12871E-12         0.00000E+00
    0.50127E-07         0.13417E-12         0.00000E+00
    0.50127E-07         0.13917E-12         0.00000E+00
    0.50127E-07         0.14370E-12         0.00000E+00
    0.50127E-07         0.14772E-12         0.00000E+00
    0.50127E-07         0.15123E-12         0.00000E+00
    0.50127E-07         0.15420E-12         0.00000E+00
    0.50127E-07         0.15663E-12         0.00000E+00
    0.50127E-07         0.15850E-12         0.00000E+00
    0.50127E-07         0.15979E-12         0.00000E+00
    0.50127E-07         0.16049E-12         0.00000E+00
    0.50127E-07         0.16061E-12         0.00000E+00
    0.50127E-07         0.16012E-12         0.00000E+00
    0.50127E-07         0.15902E-12         0.00000E+00
    0.50127E-07         0.15730E-12         0.00000E+00
    0.50127E-07         0.15497E-12         0.00000E+00
    0.50127E-07         0.15201E-12         0.00000E+00
    0.50127E-07         0.14843E-12         0.00000E+00
    0.50127E-07         0.14421E-12         0.00000E+00
    0.50127E-07         0.13937E-12         0.00000E+00
    0.50127E-07         0.13391E-12         0.00000E+00
    0.50126E-07         0.12781E-12         0.00000E+00
    0.50126E-07         0.12109E-12         0.00000E+00
    0.50126E-07         0.11374E-12         0.00000E+00
    0.50126E-07         0.10577E-12         0.00000E+00
    0.50126E-07         0.97192E-13         0.00000E+00
    0.50126E-07         0.87996E-13         0.00000E+00
    0.50126E-07         0.78193E-13         0.00000E+00
    0.50126E-07         0.67787E-13         0.00000E+00
    0.50126E-07         0.56784E-13         0.00000E+00
    0.50126E-07         0.45190E-13         0.00000E+00
    0.50126E-07         0.33012E-13         0.00000E+00
    0.50126E-07         0.20257E-13         0.00000E+00
    0.50126E-07         0.69298E-14         0.00000E+00
    0.50128E-07         0.60477E-14         0.00000E+00
    0.50128E-07         0.18186E-13         0.00000E+00
    0.50128E-07         0.30333E-13         0.00000E+00
    0.50128E-07         0.42429E-13         0.00000E+00
    0.50128E-07         0.54417E-13         0.00000E+00
    0.50128E-07         0.66242E-13         0.00000E+00
    0.50128E-07         0.77853E-13         0.00000E+00
    0.50128E-07         0.89201E-13         0.00000E+00
    0.50128E-07         0.10024E-12         0.00000E+00
    0.50128E-07         0.11093E-12         0.00000E+00
    0.50128E-07         0.12122E-12         0.00000E+00
    0.50128E-07         0.13109E-12         0.00000E+00
    0.50128E-07         0.14049E-12         0.00000E+00
    0.50128E-07         0.14939E-12         0.00000E+00
    0.50128E-07         0.15776E-12         0.00000E+00
    0.50128E-07         0.16557E-12         0.00000E+00
    0.50128E-07         0.17280E-12         0.00000E+00
    0.50128E-07         0.17942E-12         0.00000E+00
    0.50128E-07         0.18540E-12         0.00000E+00
    0.50128E-07         0.19074E-12         0.00000E+00
    0.50128E-07         0.19541E-12         0.00000E+00
    0.50128E-07         0.19939E-12         0.00000E+00
    0.50128E-07         0.20267E-12         0.00000E+00
    0.50128E-07         0.20524E-12         0.00000E+00
    0.50128E-07         0.20708E-12         0.00000E+00
    0.50128E-07         0.20819E-12         0.00000E+00
    0.50128E-07         0.20855E-12         0.00000E+00
    0.50128E-07         0.20817E-12         0.00000E+00
    0.50128E-07         0.20702E-12         0.00000E+00
    0.50128E-07         0.20512E-12         0.00000E+00
    0.50128E-07         0.20244E-12         0.00000E+00
    0.50128E-07         0.19900E-12         0.00000E+00
    0.50128E-07         0.19480E-12         0.00000E+00
    0.50128E-07         0.18982E-12         0.00000E+00
    0.50128E-07         0.18407E-12         0.00000E+00
    0.50128E-07         0.17756E-12         0.00000E+00
    0.50128E-07         0.17028E-12         0.00000E+00
    0.50128E-07         0.16225E-12         0.00000E+00
    0.50128E-07         0.15345E-12         0.00000E+00
    0.50128E-07         0.14391E-12         0.00000E+00
    0.50128E-07         0.13362E-12         0.00000E+00
    0.50128E-07         0.12259E-12         0.00000E+00
    0.50128E-07         0.11082E-12         0.00000E+00
    0.50128E-07         0.98333E-13         0.00000E+00
    0.50128E-07         0.85127E-13         0.00000E+00
    0.50128E-07         0.71212E-13         0.00000E+00
    0.50128E-07         0.56597E-13         0.00000E+00
    0.50128E-07         0.41290E-13         0.00000E+00
    0.50128E-07         0.25302E-13         0.00000E+00
    0.50128E-07         0.86427E-14         0.00000E+00
    0.50129E-07         0.82726E-14         0.00000E+00
    0.50129E-07         0.24730E-13         0.00000E+00
    0.50129E-07         0.41011E-13         0.00000E+00
    0.50129E-07         0.57052E-13         0.00000E+00
    0.50129E-07         0.72792E-13         0.00000E+00
    0.50129E-07         0.88173E-13         0.00000E+00
    0.50129E-07         0.10314E-12         0.00000E+00
    0.50129E-07         0.11765E-12         0.00000E+00
    0.50129E-07         0.13164E-12         0.00000E+00
    0.50129E-07         0.14509E-12         0.00000E+00
    0.50129E-07         0.15793E-12         0.00000E+00
    0.50129E-07         0.17015E-12         0.00000E+00
    0.50129E-07         0.18170E-12         0.00000E+00
    0.50129E-07         0.19255E-12         0.00000E+00
    0.50129E-07         0.20267E-12         0.00000E+00
    0.50129E-07         0.21204E-12         0.00000E+00
    0.50129E-07         0.22063E-12         0.00000E+00
    0.50129E-07         0.22842E-12         0.00000E+00
    0.50129E-07         0.23539E-12         0.00000E+00
    0.50129E-07         0.24152E-12         0.00000E+00
    0.50129E-07         0.24680E-12         0.00000E+00
    0.50129E-07         0.25121E-12         0.00000E+00
    0.50129E-07         0.25474E-12         0.00000E+00
    0.50129E-07         0.25739E-12         0.00000E+00
    0.50129E-07         0.25913E-12         0.00000E+00
    0.50129E-07         0.25997E-12         0.00000E+00
    0.50129E-07         0.25990E-12         0.00000E+00
    0.50129E-07         0.25891E-12         0.00000E+00
    0.50129E-07         0.25701E-12         0.00000E+00
    0.50129E-07         0.25419E-12         0.00000E+00
    0.50129E-07         0.25044E-12         0.00000E+00
    0.50129E-07         0.24578E-12         0.00000E+00
    0.50129E-07         0.24020E-12         0.00000E+00
    0.50129E-07         0.23370E-12         0.00000E+00
    0.50129E-07         0.22629E-12         0.00000E+00
    0.50129E-07         0.21797E-12         0.00000E+00
    0.50129E-07         0.20875E-12         0.00000E+00
    0.50129E-07         0.19864E-12         0.00000E+00
    0.50129E-07         0.18763E-12         0.00000E+00
    0.50129E-07         0.17574E-12         0.00000E+00
    0.50129E-07         0.16297E-12         0.00000E+00
    0.50129E-07         0.14935E-12         0.00000E+00
    0.50129E-07         0.13486E-12         0.00000E+00
    0.50129E-07         0.11953E-12         0.00000E+00
    0.50129E-07         0.10337E-12         0.00000E+00
    0.50129E-07         0.86379E-13         0.00000E+00
    0.50129E-07         0.68580E-13         0.00000E+00
    0.50129E-07         0.49982E-13         0.00000E+00
    0.50129E-07         0.30597E-13         0.00000E+00
    0.50129E-07         0.10439E-13         0.00000E+00
    0.50130E-07         0.10747E-13         0.00000E+00
    0.50130E-07         0.31988E-13         0.00000E+00
    0.50130E-07         0.52822E-13         0.00000E+00
    0.50130E-07         0.73181E-13         0.00000E+00
    0.50130E-07         0.93004E-13         0.00000E+00
    0.50130E-07         0.11223E-12         0.00000E+00
    0.50130E-07         0.13081E-12         0.00000E+00
    0.50130E-07         0.14869E-12         0.00000E+00
    0.50130E-07         0.16582E-12         0.00000E+00
    0.50130E-07         0.18216E-12         0.00000E+00
    0.50130E-07         0.19768E-12         0.00000E+00
    0.50130E-07         0.21233E-12         0.00000E+00
    0.50130E-07         0.22609E-12         0.00000E+00
    0.50130E-07         0.23893E-12         0.00000E+00
    0.50130E-07         0.25083E-12         0.00000E+00
    0.50130E-07         0.26175E-12         0.00000E+00
    0.50130E-07         0.27168E-12         0.00000E+00
    0.50130E-07         0.28061E-12         0.00000E+00
    0.50130E-07         0.28851E-12         0.00000E+00
    0.50130E-07         0.29538E-12         0.00000E+00
    0.50130E-07         0.30120E-12         0.00000E+00
    0.50130E-07         0.30596E-12         0.00000E+00
    0.50130E-07         0.30966E-12         0.00000E+00
    0.50130E-07         0.31228E-12         0.00000E+00
    0.50130E-07         0.31384E-12         0.00000E+00
    0.50130E-07         0.31431E-12         0.00000E+00
    0.50130E-07         0.31370E-12         0.00000E+00
    0.50130E-07         0.31202E-12         0.00000E+00
    0.50130E-07         0.30925E-12         0.00000E+00
    0.50130E-07         0.30541E-12         0.00000E+00
    0.50130E-07         0.30049E-12         0.00000E+00
    0.50130E-07         0.29450E-12         0.00000E+00
    0.50130E-07         0.28745E-12         0.00000E+00
    0.50130E-07         0.27933E-12         0.00000E+00
    0.50130E-07         0.27015E-12         0.00000E+00
    0.50130E-07         0.25993E-12         0.00000E+00
    0.50130E-07         0.24866E-12         0.00000E+00
    0.50130E-07         0.23636E-12         0.00000E+00
    0.50130E-07         0.22304E-12         0.00000E+00
    0.50130E-07         0.20871E-12         0.00000E+00
    0.50130E-07         0.19337E-12         0.00000E+00
    0.50130E-07         0.17704E-12         0.00000E+00
    0.50130E-07         0.15973E-12         0.00000E+00
    0.50130E-07         0.14145E-12         0.00000E+00
    0.50130E-07         0.12223E-12         0.00000E+00
    0.50130E-07         0.10206E-12         0.00000E+00
    0.50130E-07         0.80965E-13         0.00000E+00
    0.50130E-07         0.58963E-13         0.00000E+00
    0.50130E-07         0.36067E-13         0.00000E+00
    0.50130E-07         0.12294E-13         0.00000E+00
    0.50131E-07         0.13462E-13         0.00000E+00
    0.50131E-07         0.39924E-13         0.00000E+00
    0.50131E-07         0.65692E-13         0.00000E+00
    0.50131E-07         0.90696E-13         0.00000E+00
    0.50131E-07         0.11488E-12         0.00000E+00
    0.50131E-07         0.13817E-12         0.00000E+00
    0.50131E-07         0.16054E-12         0.00000E+00
    0.50131E-07         0.18193E-12         0.00000E+00
    0.50131E-07         0.20229E-12         0.00000E+00
    0.50131E-07         0.22160E-12         0.00000E+00
    0.50131E-07         0.23982E-12         0.00000E+00
    0.50131E-07         0.25691E-12         0.00000E+00
    0.50131E-07         0.27286E-12         0.00000E+00
    0.50131E-07         0.28765E-12         0.00000E+00
    0.50131E-07         0.30124E-12         0.00000E+00
    0.50131E-07         0.31364E-12         0.00000E+00
    0.50131E-07         0.32482E-12         0.00000E+00
    0.50131E-07         0.33478E-12         0.00000E+00
    0.50131E-07         0.34350E-12         0.00000E+00
    0.50131E-07         0.35098E-12         0.00000E+00
    0.50131E-07         0.35722E-12         0.00000E+00
    0.50131E-07         0.36221E-12         0.00000E+00
    0.50131E-07         0.36595E-12         0.00000E+00
    0.50131E-07         0.36844E-12         0.00000E+00
    0.50131E-07         0.36968E-12         0.00000E+00
    0.50131E-07         0.36968E-12         0.00000E+00
    0.50131E-07         0.36844E-12         0.00000E+00
    0.50131E-07         0.36596E-12         0.00000E+00
    0.50131E-07         0.36224E-12         0.00000E+00
    0.50131E-07         0.35730E-12         0.00000E+00
    0.50131E-07         0.35113E-12         0.00000E+00
    0.50131E-07         0.34375E-12         0.00000E+00
    0.50131E-07         0.33516E-12         0.00000E+00
    0.50131E-07         0.32537E-12         0.00000E+00
    0.50131E-07         0.31438E-12         0.00000E+00
    0.50131E-07         0.30221E-12         0.00000E+00
    0.50131E-07         0.28887E-12         0.00000E+00
    0.50131E-07         0.27437E-12         0.00000E+00
    0.50131E-07         0.25871E-12         0.00000E+00
    0.50131E-07         0.24191E-12         0.00000E+00
    0.50131E-07         0.22398E-12         0.00000E+00
    0.50131E-07         0.20493E-12         0.00000E+00
    0.50131E-07         0.18478E-12         0.00000E+00
    0.50131E-07         0.16354E-12         0.00000E+00
    0.50131E-07         0.14123E-12         0.00000E+00
    0.50131E-07         0.11786E-12         0.00000E+00
    0.50131E-07         0.93454E-13         0.00000E+00
    0.50131E-07         0.68023E-13         0.00000E+00
    0.50131E-07         0.41587E-13         0.00000E+00
    0.50131E-07         0.14166E-13         0.00000E+00
    0.50132E-07         0.16382E-13         0.00000E+00
    0.50132E-07         0.48423E-13         0.00000E+00
    0.50132E-07         0.79410E-13         0.00000E+00
    0.50132E-07         0.10928E-12         0.00000E+00
    0.50132E-07         0.13797E-12         0.00000E+00
    0.50132E-07         0.16544E-12         0.00000E+00
    0.50132E-07         0.19164E-12         0.00000E+00
    0.50132E-07         0.21654E-12         0.00000E+00
    0.50132E-07         0.24010E-12         0.00000E+00
    0.50132E-07         0.26229E-12         0.00000E+00
    0.50132E-07         0.28309E-12         0.00000E+00
    0.50132E-07         0.30249E-12         0.00000E+00
    0.50132E-07         0.32047E-12         0.00000E+00
    0.50132E-07         0.33701E-12         0.00000E+00
    0.50132E-07         0.35212E-12         0.00000E+00
    0.50132E-07         0.36578E-12         0.00000E+00
    0.50132E-07         0.37800E-12         0.00000E+00
    0.50132E-07         0.38878E-12         0.00000E+00
    0.50132E-07         0.39811E-12         0.00000E+00
    0.50132E-07         0.40601E-12         0.00000E+00
    0.50132E-07         0.41247E-12         0.00000E+00
    0.50132E-07         0.41751E-12         0.00000E+00
    0.50132E-07         0.42113E-12         0.00000E+00
    0.50132E-07         0.42333E-12         0.00000E+00
    0.50132E-07         0.42414E-12         0.00000E+00
    0.50131E-07         0.42354E-12         0.00000E+00
    0.50131E-07         0.42157E-12         0.00000E+00
    0.50131E-07         0.41821E-12         0.00000E+00
    0.50131E-07         0.41349E-12         0.00000E+00
    0.50131E-07         0.40740E-12         0.00000E+00
    0.50131E-07         0.39997E-12         0.00000E+00
    0.50131E-07         0.39120E-12         0.00000E+00
    0.50131E-07         0.38110E-12         0.00000E+00
    0.50131E-07         0.36967E-12         0.00000E+00
    0.50131E-07         0.35693E-12         0.00000E+00
    0.50131E-07         0.34289E-12         0.00000E+00
    0.50131E-07         0.32756E-12         0.00000E+00
    0.50131E-07         0.31094E-12         0.00000E+00
    0.50131E-07         0.29305E-12         0.00000E+00
    0.50131E-07         0.27390E-12         0.00000E+00
    0.50131E-07         0.25349E-12         0.00000E+00
    0.50131E-07         0.23185E-12         0.00000E+00
    0.50131E-07         0.20899E-12         0.00000E+00
    0.50131E-07         0.18491E-12         0.00000E+00
    0.50131E-07         0.15964E-12         0.00000E+00
    0.50131E-07         0.13320E-12         0.00000E+00
    0.50131E-07         0.10559E-12         0.00000E+00
    0.50131E-07         0.76838E-13         0.00000E+00
    0.50131E-07         0.46966E-13         0.00000E+00
    0.50131E-07         0.15995E-13         0.00000E+00
    0.50132E-07         0.19430E-13         0.00000E+00
    0.50132E-07         0.57242E-13         0.00000E+00
    0.50132E-07         0.93553E-13         0.00000E+00
    0.50132E-07         0.12831E-12         0.00000E+00
    0.50132E-07         0.16147E-12         0.00000E+00
    0.50132E-07         0.19300E-12         0.00000E+00
    0.50132E-07         0.22286E-12         0.00000E+00
    0.50132E-07         0.25104E-12         0.00000E+00
    0.50132E-07         0.27751E-12         0.00000E+00
    0.50132E-07         0.30228E-12         0.00000E+00
    0.50132E-07         0.32533E-12         0.00000E+00
    0.50132E-07         0.34667E-12         0.00000E+00
    0.50132E-07         0.36630E-12         0.00000E+00
    0.50132E-07         0.38422E-12         0.00000E+00
    0.50132E-07         0.40045E-12         0.00000E+00
    0.50132E-07         0.41501E-12         0.00000E+00
    0.50132E-07         0.42789E-12         0.00000E+00
    0.50132E-07         0.43914E-12         0.00000E+00
    0.50132E-07         0.44875E-12         0.00000E+00
    0.50132E-07         0.45675E-12         0.00000E+00
    0.50132E-07         0.46315E-12         0.00000E+00
    0.50132E-07         0.46798E-12         0.00000E+00
    0.50132E-07         0.47125E-12         0.00000E+00
    0.50132E-07         0.47299E-12         0.00000E+00
    0.50132E-07         0.47320E-12         0.00000E+00
    0.50132E-07         0.47190E-12         0.00000E+00
    0.50132E-07         0.46912E-12         0.00000E+00
    0.50132E-07         0.46485E-12         0.00000E+00
    0.50132E-07         0.45913E-12         0.00000E+00
    0.50132E-07         0.45195E-12         0.00000E+00
    0.50132E-07         0.44334E-12         0.00000E+00
    0.50132E-07         0.43329E-12         0.00000E+00
    0.50132E-07         0.42183E-12         0.00000E+00
    0.50132E-07         0.40895E-12         0.00000E+00
    0.50132E-07         0.39468E-12         0.00000E+00
    0.50132E-07         0.37900E-12         0.00000E+00
    0.50132E-07         0.36194E-12         0.00000E+00
    0.50132E-07         0.34349E-12         0.00000E+00
    0.50132E-07         0.32368E-12         0.00000E+00
    0.50132E-07         0.30249E-12         0.00000E+00
    0.50132E-07         0.27994E-12         0.00000E+00
    0.50132E-07         0.25605E-12         0.00000E+00
    0.50132E-07         0.23081E-12         0.00000E+00
    0.50132E-07         0.20424E-12         0.00000E+00
    0.50132E-07         0.17635E-12         0.00000E+00
    0.50132E-07         0.14716E-12         0.00000E+00
    0.50132E-07         0.11668E-12         0.00000E+00
    0.50132E-07         0.84926E-13         0.00000E+00
    0.50132E-07         0.51921E-13         0.00000E+00
    0.50132E-07         0.17687E-13         0.00000E+00
    0.50132E-07         0.22473E-13         0.00000E+00
    0.50132E-07         0.65954E-13         0.00000E+00
    0.50132E-07         0.10738E-12         0.00000E+00
    0.50132E-07         0.14672E-12         0.00000E+00
    0.50132E-07         0.18396E-12         0.00000E+00
    0.50132E-07         0.21907E-12         0.00000E+00
    0.50132E-07         0.25206E-12         0.00000E+00
    0.50132E-07         0.28293E-12         0.00000E+00
    0.50132E-07         0.31170E-12         0.00000E+00
    0.50132E-07         0.33838E-12         0.00000E+00
    0.50132E-07         0.36300E-12         0.00000E+00
    0.50132E-07         0.38559E-12         0.00000E+00
    0.50132E-07         0.40618E-12         0.00000E+00
    0.50132E-07         0.42481E-12         0.00000E+00
    0.50132E-07         0.44151E-12         0.00000E+00
    0.50132E-07         0.45632E-12         0.00000E+00
    0.50132E-07         0.46929E-12         0.00000E+00
    0.50132E-07         0.48044E-12         0.00000E+00
    0.50132E-07         0.48983E-12         0.00000E+00
    0.50132E-07         0.49748E-12         0.00000E+00
    0.50132E-07         0.50343E-12         0.00000E+00
    0.50132E-07         0.50771E-12         0.00000E+00
    0.50132E-07         0.51037E-12         0.00000E+00
    0.50132E-07         0.51142E-12         0.00000E+00
    0.50132E-07         0.51089E-12         0.00000E+00
    0.50132E-07         0.50881E-12         0.00000E+00
    0.50132E-07         0.50520E-12         0.00000E+00
    0.50132E-07         0.50008E-12         0.00000E+00
    0.50132E-07         0.49347E-12         0.00000E+00
    0.50132E-07         0.48538E-12         0.00000E+00
    0.50132E-07         0.47581E-12         0.00000E+00
    0.50132E-07         0.46479E-12         0.00000E+00
    0.50132E-07         0.45232E-12         0.00000E+00
    0.50132E-07         0.43839E-12         0.00000E+00
    0.50132E-07         0.42302E-12         0.00000E+00
    0.50132E-07         0.40621E-12         0.00000E+00
    0.50132E-07         0.38795E-12         0.00000E+00
    0.50132E-07         0.36825E-12         0.00000E+00
    0.50132E-07         0.34709E-12         0.00000E+00
    0.50132E-07         0.32450E-12         0.00000E+00
    0.50132E-07         0.30045E-12         0.00000E+00
    0.50132E-07         0.27494E-12         0.00000E+00
    0.50132E-07         0.24799E-12         0.00000E+00
    0.50132E-07         0.21959E-12         0.00000E+00
    0.50132E-07         0.18974E-12         0.00000E+00
    0.50132E-07         0.15845E-12         0.00000E+00
    0.50132E-07         0.12573E-12         0.00000E+00
    0.50132E-07         0.91593E-13         0.00000E+00
    0.50132E-07         0.56046E-13         0.00000E+00
    0.50132E-07         0.19113E-13         0.00000E+00
    0.50133E-07         0.25269E-13         0.00000E+00
    0.50133E-07         0.73838E-13         0.00000E+00
    0.50133E-07         0.11966E-12         0.00000E+00
    0.50133E-07         0.16274E-12         0.00000E+00
    0.50133E-07         0.20310E-12         0.00000E+00
    0.50133E-07         0.24077E-12         0.00000E+00
    0.50133E-07         0.27579E-12         0.00000E+00
    0.50132E-07         0.30821E-12         0.00000E+00
    0.50132E-07         0.33809E-12         0.00000E+00
    0.50132E-07         0.36550E-12         0.00000E+00
    0.50132E-07         0.39051E-12         0.00000E+00
    0.50132E-07         0.41320E-12         0.00000E+00
    0.50132E-07         0.43363E-12         0.00000E+00
    0.50132E-07         0.45188E-12         0.00000E+00
    0.50132E-07         0.46804E-12         0.00000E+00
    0.50132E-07         0.48217E-12         0.00000E+00
    0.50132E-07         0.49434E-12         0.00000E+00
    0.50132E-07         0.50463E-12         0.00000E+00
    0.50132E-07         0.51310E-12         0.00000E+00
    0.50132E-07         0.51980E-12         0.00000E+00
    0.50132E-07         0.52479E-12         0.00000E+00
    0.50132E-07         0.52813E-12         0.00000E+00
    0.50132E-07         0.52987E-12         0.00000E+00
    0.50132E-07         0.53003E-12         0.00000E+00
    0.50132E-07         0.52866E-12         0.00000E+00
    0.50132E-07         0.52579E-12         0.00000E+00
    0.50132E-07         0.52145E-12         0.00000E+00
    0.50132E-07         0.51566E-12         0.00000E+00
    0.50132E-07         0.50844E-12         0.00000E+00
    0.50132E-07         0.49980E-12         0.00000E+00
    0.50132E-07         0.48975E-12         0.00000E+00
    0.50132E-07         0.47829E-12         0.00000E+00
    0.50132E-07         0.46542E-12         0.00000E+00
    0.50132E-07         0.45115E-12         0.00000E+00
    0.50132E-07         0.43546E-12         0.00000E+00
    0.50132E-07         0.41835E-12         0.00000E+00
    0.50132E-07         0.39980E-12         0.00000E+00
    0.50132E-07         0.37979E-12         0.00000E+00
    0.50132E-07         0.35832E-12         0.00000E+00
    0.50132E-07         0.33535E-12         0.00000E+00
    0.50132E-07         0.31087E-12         0.00000E+00
    0.50132E-07         0.28487E-12         0.00000E+00
    0.50132E-07         0.25732E-12         0.00000E+00
    0.50132E-07         0.22820E-12         0.00000E+00
    0.50132E-07         0.19751E-12         0.00000E+00
    0.50132E-07         0.16522E-12         0.00000E+00
    0.50132E-07         0.13134E-12         0.00000E+00
    0.50132E-07         0.95849E-13         0.00000E+00
    0.50132E-07         0.58760E-13         0.00000E+00
    0.50132E-07         0.20080E-13         0.00000E+00
    0.50132E-07         0.27465E-13         0.00000E+00
    0.50132E-07         0.79705E-13         0.00000E+00
    0.50132E-07         0.12832E-12         0.00000E+00
    0.50132E-07         0.17340E-12         0.00000E+00
    0.50132E-07         0.21503E-12         0.00000E+00
    0.50132E-07         0.25331E-12         0.00000E+00
    0.50132E-07         0.28837E-12         0.00000E+00
    0.50132E-07         0.32033E-12         0.00000E+00
    0.50132E-07         0.34933E-12         0.00000E+00
    0.50132E-07         0.37551E-12         0.00000E+00
    0.50132E-07         0.39902E-12         0.00000E+00
    0.50132E-07         0.42001E-12         0.00000E+00
    0.50132E-07         0.43860E-12         0.00000E+00
    0.50132E-07         0.45493E-12         0.00000E+00
    0.50132E-07         0.46913E-12         0.00000E+00
    0.50132E-07         0.48130E-12         0.00000E+00
    0.50132E-07         0.49156E-12         0.00000E+00
    0.50132E-07         0.50001E-12         0.00000E+00
    0.50132E-07         0.50673E-12         0.00000E+00
    0.50132E-07         0.51181E-12         0.00000E+00
    0.50132E-07         0.51532E-12         0.00000E+00
    0.50132E-07         0.51732E-12         0.00000E+00
    0.50132E-07         0.51788E-12         0.00000E+00
    0.50132E-07         0.51704E-12         0.00000E+00
    0.50132E-07         0.51485E-12         0.00000E+00
    0.50132E-07         0.51133E-12         0.00000E+00
    0.50132E-07         0.50653E-12         0.00000E+00
    0.50132E-07         0.50046E-12         0.00000E+00
    0.50132E-07         0.49314E-12         0.00000E+00
    0.50132E-07         0.48457E-12         0.00000E+00
    0.50132E-07         0.47477E-12         0.00000E+00
    0.50132E-07         0.46373E-12         0.00000E+00
    0.50132E-07         0.45144E-12         0.00000E+00
    0.50132E-07         0.43788E-12         0.00000E+00
    0.50132E-07         0.42305E-12         0.00000E+00
    0.50132E-07         0.40690E-12         0.00000E+00
    0.50133E-07         0.38942E-12         0.00000E+00
    0.50133E-07         0.37057E-12         0.00000E+00
    0.50133E-07         0.35030E-12         0.00000E+00
    0.50133E-07         0.32857E-12         0.00000E+00
    0.50133E-07         0.30534E-12         0.00000E+00
    0.50133E-07         0.28054E-12         0.00000E+00
    0.50133E-07         0.25414E-12         0.00000E+00
    0.50133E-07         0.22607E-12         0.00000E+00
    0.50133E-07         0.19629E-12         0.00000E+00
    0.50133E-07         0.16475E-12         0.00000E+00
    0.50133E-07         0.13141E-12         0.00000E+00
    0.50133E-07         0.96253E-13         0.00000E+00
    0.50133E-07         0.59240E-13         0.00000E+00
    0.50133E-07         0.20351E-13         0.00000E+00
    0.50132E-07         0.28192E-13         0.00000E+00
    0.50132E-07         0.81232E-13         0.00000E+00
    0.50132E-07         0.12960E-12         0.00000E+00
    0.50132E-07         0.17341E-12         0.00000E+00
    0.50132E-07         0.21287E-12         0.00000E+00
    0.50132E-07         0.24826E-12         0.00000E+00
    0.50132E-07         0.27986E-12         0.00000E+00
    0.50132E-07         0.30798E-12         0.00000E+00
    0.50132E-07         0.33289E-12         0.00000E+00
    0.50132E-07         0.35487E-12         0.00000E+00
    0.50132E-07         0.37416E-12         0.00000E+00
    0.50132E-07         0.39098E-12         0.00000E+00
    0.50132E-07         0.40555E-12         0.00000E+00
    0.50132E-07         0.41804E-12         0.00000E+00
    0.50132E-07         0.42862E-12         0.00000E+00
    0.50132E-07         0.43744E-12         0.00000E+00
    0.50132E-07         0.44463E-12         0.00000E+00
    0.50132E-07         0.45030E-12         0.00000E+00
    0.50132E-07         0.45455E-12         0.00000E+00
    0.50132E-07         0.45747E-12         0.00000E+00
    0.50132E-07         0.45914E-12         0.00000E+00
    0.50132E-07         0.45963E-12         0.00000E+00
    0.50132E-07         0.45900E-12         0.00000E+00
    0.50132E-07         0.45728E-12         0.00000E+00
    0.50132E-07         0.45454E-12         0.00000E+00
    0.50132E-07         0.45079E-12         0.00000E+00
    0.50132E-07         0.44606E-12         0.00000E+00
    0.50132E-07         0.44037E-12         0.00000E+00
    0.50132E-07         0.43374E-12         0.00000E+00
    0.50132E-07         0.42616E-12         0.00000E+00
    0.50132E-07         0.41765E-12         0.00000E+00
    0.50132E-07         0.40817E-12         0.00000E+00
    0.50132E-07         0.39774E-12         0.00000E+00
    0.50132E-07         0.38631E-12         0.00000E+00
    0.50132E-07         0.37386E-12         0.00000E+00
    0.50132E-07         0.36036E-12         0.00000E+00
    0.50132E-07         0.34576E-12         0.00000E+00
    0.50132E-07         0.33001E-12         0.00000E+00
    0.50132E-07         0.31304E-12         0.00000E+00
    0.50132E-07         0.29478E-12         0.00000E+00
    0.50132E-07         0.27515E-12         0.00000E+00
    0.50132E-07         0.25406E-12         0.00000E+00
    0.50133E-07         0.23140E-12         0.00000E+00
    0.50133E-07         0.20707E-12         0.00000E+00
    0.50133E-07         0.18094E-12         0.00000E+00
    0.50133E-07         0.15289E-12         0.00000E+00
    0.50133E-07         0.12280E-12         0.00000E+00
    0.50133E-07         0.90566E-13         0.00000E+00
    0.50133E-07         0.56102E-13         0.00000E+00
    0.50133E-07         0.19388E-13         0.00000E+00
    0.50131E-07         0.26809E-13         0.00000E+00
    0.50131E-07         0.74776E-13         0.00000E+00
    0.50131E-07         0.11591E-12         0.00000E+00
    0.50131E-07         0.15121E-12         0.00000E+00
    0.50131E-07         0.18155E-12         0.00000E+00
    0.50131E-07         0.20764E-12         0.00000E+00
    0.50131E-07         0.23007E-12         0.00000E+00
    0.50131E-07         0.24934E-12         0.00000E+00
    0.50131E-07         0.26587E-12         0.00000E+00
    0.50131E-07         0.28002E-12         0.00000E+00
    0.50132E-07         0.29206E-12         0.00000E+00
    0.50132E-07         0.30226E-12         0.00000E+00
    0.50132E-07         0.31082E-12         0.00000E+00
    0.50132E-07         0.31791E-12         0.00000E+00
    0.50132E-07         0.32370E-12         0.00000E+00
    0.50132E-07         0.32830E-12         0.00000E+00
    0.50132E-07         0.33184E-12         0.00000E+00
    0.50132E-07         0.33439E-12         0.00000E+00
    0.50132E-07         0.33605E-12         0.00000E+00
    0.50132E-07         0.33689E-12         0.00000E+00
    0.50132E-07         0.33695E-12         0.00000E+00
    0.50132E-07         0.33630E-12         0.00000E+00
    0.50132E-07         0.33497E-12         0.00000E+00
    0.50132E-07         0.33300E-12         0.00000E+00
    0.50132E-07         0.33041E-12         0.00000E+00
    0.50132E-07         0.32723E-12         0.00000E+00
    0.50132E-07         0.32348E-12         0.00000E+00
    0.50132E-07         0.31916E-12         0.00000E+00
    0.50132E-07         0.31428E-12         0.00000E+00
    0.50132E-07         0.30884E-12         0.00000E+00
    0.50132E-07         0.30285E-12         0.00000E+00
    0.50132E-07         0.29628E-12         0.00000E+00
    0.50132E-07         0.28913E-12         0.00000E+00
    0.50132E-07         0.28137E-12         0.00000E+00
    0.50132E-07         0.27298E-12         0.00000E+00
    0.50132E-07         0.26393E-12         0.00000E+00
    0.50132E-07         0.25416E-12         0.00000E+00
    0.50132E-07         0.24364E-12         0.00000E+00
    0.50132E-07         0.23230E-12         0.00000E+00
    0.50132E-07         0.22007E-12         0.00000E+00
    0.50132E-07         0.20686E-12         0.00000E+00
    0.50132E-07         0.19257E-12         0.00000E+00
    0.50132E-07         0.17706E-12         0.00000E+00
    0.50132E-07         0.16019E-12         0.00000E+00
    0.50132E-07         0.14177E-12         0.00000E+00
    0.50132E-07         0.12159E-12         0.00000E+00
    0.50132E-07         0.99375E-13         0.00000E+00
    0.50132E-07         0.74808E-13         0.00000E+00
    0.50132E-07         0.47503E-13         0.00000E+00
    0.50132E-07         0.17001E-13         0.00000E+00
    0.50130E-07         0.12799E-13         0.00000E+00
    0.50130E-07         0.34520E-13         0.00000E+00
    0.50130E-07         0.52014E-13         0.00000E+00
    0.50130E-07         0.66262E-13         0.00000E+00
    0.50131E-07         0.77969E-13         0.00000E+00
    0.50131E-07         0.87653E-13         0.00000E+00
    0.50131E-07         0.95700E-13         0.00000E+00
    0.50131E-07         0.10240E-12         0.00000E+00
    0.50131E-07         0.10799E-12         0.00000E+00
    0.50131E-07         0.11264E-12         0.00000E+00
    0.50131E-07         0.11649E-12         0.00000E+00
    0.50131E-07         0.11966E-12         0.00000E+00
    0.50131E-07         0.12224E-12         0.00000E+00
    0.50131E-07         0.12430E-12         0.00000E+00
    0.50131E-07         0.12591E-12         0.00000E+00
    0.50131E-07         0.12712E-12         0.00000E+00
    0.50131E-07         0.12796E-12         0.00000E+00
    0.50131E-07         0.12848E-12         0.00000E+00
    0.50131E-07         0.12871E-12         0.00000E+00
    0.50131E-07         0.12867E-12         0.00000E+00
    0.50131E-07         0.12838E-12         0.00000E+00
    0.50131E-07         0.12786E-12         0.00000E+00
    0.50131E-07         0.12713E-12         0.00000E+00
    0.50131E-07         0.12619E-12         0.00000E+00
    0.50131E-07         0.12506E-12         0.00000E+00
    0.50132E-07         0.12374E-12         0.00000E+00
    0.50132E-07         0.12225E-12         0.00000E+00
    0.50132E-07         0.12057E-12         0.00000E+00
    0.50132E-07         0.11872E-12         0.00000E+00
    0.50132E-07         0.11669E-12         0.00000E+00
    0.50132E-07         0.11449E-12         0.00000E+00
    0.50132E-07         0.11210E-12         0.00000E+00
    0.50132E-07         0.10953E-12         0.00000E+00
    0.50132E-07         0.10676E-12         0.00000E+00
    0.50132E-07         0.10378E-12         0.00000E+00
    0.50132E-07         0.10059E-12         0.00000E+00
    0.50132E-07         0.97157E-13         0.00000E+00
    0.50132E-07         0.93467E-13         0.00000E+00
    0.50132E-07         0.89495E-13         0.00000E+00
    0.50132E-07         0.85208E-13         0.00000E+00
    0.50132E-07         0.80569E-13         0.00000E+00
    0.50132E-07         0.75528E-13         0.00000E+00
    0.50132E-07         0.70025E-13         0.00000E+00
    0.50132E-07         0.63982E-13         0.00000E+00
    0.50132E-07         0.57300E-13         0.00000E+00
    0.50132E-07         0.49848E-13         0.00000E+00
    0.50132E-07         0.41454E-13         0.00000E+00
    0.50132E-07         0.31880E-13         0.00000E+00
    0.50132E-07         0.20801E-13         0.00000E+00
    0.50132E-07         0.77545E-14         0.00000E+00
POINT_DATA       5151
VECTORS vDarcyNodal double 
    0.49871E-07         0.00000E+00         0.00000E+00
    0.49871E-07         0.00000E+00         0.00000E+00
    0.49871E-07         0.00000E+00         0.00000E+00
    0.49870E-07         0.00000E+00         0.00000E+00
    0.49870E-07         0.00000E+00         0.00000E+00
    0.49870E-07         0.00000E+00         0.00000E+00
    0.49870E-07         0.00000E+00         0.00000E+00
    0.49870E-07         0.00000E+00         0.00000E+00
    0.49870E-07         0.00000E+00         0.00000E+00
    0.49870E-07         0.00000E+00         0.00000E+00
    0.49870E-07         0.00000E+00         0.00000E+00
    0.49870E-07         0.00000E+00         0.00000E+00
    0.49870E-07         0.00000E+00         0.00000E+00
    0.49870E-07         0.00000E+00         0.00000E+00
    0.49870E-07         0.00000E+00         0.00000E+00
    0.49870E-07         0.00000E+00         0.00000E+00
    0.49870E-07         0.00000E+00         0.00000E+00
    0.49870E-07         0.00000E+00         0.00000E+00
    0.49870E-07         0.00000E+00         0.00000E+00
    0.49870E-07         0.00000E+00         0.00000E+00
    0.49870E-07         0.00000E+00         0.00000E+00
    0.49870E-07         0.00000E+00         0.00000E+00
    0.49870E-07         0.00000E+00         0.00000E+00
    0.49870E-07         0.00000E+00         0.00000E+00
    0.49870E-07         0.00000E+00         0.00000E+00
    0.49869E-07         0.00000E+00         0.00000E+00
    0.49869E-07         0.00000E+00         0.00000E+00
    0.49869E-07         0.00000E+00         0.00000E+00
    0.49869E-07         0.00000E+00         0.00000E+00
    0.49869E-07         0.00000E+00         0.00000E+00
    0.49869E-07         0.00000E+00         0.00000E+00
    0.49869E-07         0.00000E+00         0.00000E+00
    0.49869E-07         0.00000E+00         0.00000E+00
    0.49869E-07         0.00000E+00         0.00000E+00
    0.49869E-07         0.00000E+00         0.00000E+00
    0.49869E-07         0.00000E+00         0.00000E+00
    0.49869E-07         0.00000E+00         0.00000E+00
    0.49869E-07         0.00000E+00         0.00000E+00
    0.49869E-07         0.00000E+00         0.00000E+00
    0.49869E-07         0.00000E+00         0.00000E+00
    0.49869E-07         0.00000E+00         0.00000E+00
    0.49869E-07         0.00000E+00         0.00000E+00
    0.49869E-07         0.00000E+00         0.00000E+00
    0.49869E-07         0.00000E+00         0.00000E+00
    0.49869E-07         0.00000E+00         0.00000E+00
    0.49869E-07         0.00000E+00         0.00000E+00
    0.49869E-07         0.00000E+00         0.00000E+00
    0.49869E-07         0.00000E+00         0.00000E+00
    0.49869E-07         0.00000E+00         0.00000E+00
    0.49869E-07         0.00000E+00         0.00000E+00
    0.49869E-07         0.00000E+00         0.00000E+00
    0.49870E-07         0.24952E-13         0.00000E+00
    0.49870E-07         0.46131E-13         0.00000E+00
    0.49870E-07         0.84374E-13         0.00000E+00
    0.49870E-07         0.11534E-12         0.00000E+00
    0.49870E-07         0.14068E-12         0.00000E+00
    0.49870E-07         0.16156E-12         0.00000E+00
    0.49870E-07         0.17889E-12         0.00000E+00
    0.49870E-07         0.19331E-12         0.00000E+00
    0.49870E-07         0.20534E-12         0.00000E+00
    0.49870E-07         0.21536E-12         0.00000E+00
    0.49870E-07         0.22370E-12         0.00000E+00
    0.49870E-07         0.23059E-12         0.00000E+00
    0.49870E-07         0.23624E-12         0.00000E+00
    0.49870E-07         0.24080E-12         0.00000E+00
    0.49870E-07         0.24442E-12         0.00000E+00
    0.49870E-07         0.24721E-12         0.00000E+00
    0.49870E-07         0.24924E-12         0.00000E+00
    0.49870E-07         0.25061E-12         0.00000E+00
    0.49870E-07         0.25138E-12         0.00000E+00
    0.49870E-07         0.25159E-12         0.00000E+00
    0.49869E-07         0.25130E-12         0.00000E+00
    0.49869E-07         0.25054E-12         0.00000E+00
    0.49869E-07         0.24934E-12         0.00000E+00
    0.49869E-07         0.24774E-12         0.00000E+00
    0.49869E-07         0.24574E-12         0.00000E+00
    0.49869E-07         0.24337E-12         0.00000E+00
    0.49869E-07         0.24064E-12         0.00000E+00
    0.49869E-07         0.23756E-12         0.00000E+00
    0.49869E-07         0.23413E-12         0.00000E+00
    0.49869E-07         0.23036E-12         0.00000E+00
    0.49869E-07         0.22623E-12         0.00000E+00
    0.49869E-07         0.22176E-12         0.00000E+00
    0.49869E-07         0.21692E-12         0.00000E+00
    0.49869E-07         0.21170E-12         0.00000E+00
    0.49869E-07         0.20608E-12         0.00000E+00
    0.49869E-07         0.20005E-12         0.00000E+00
    0.49869E-07         0.19357E-12         0.00000E+00
    0.49869E-07         0.18660E-12         0.00000E+00
    0.49869E-07         0.17911E-12         0.00000E+00
    0.49869E-07         0.17102E-12         0.00000E+00
    0.49869E-07         0.16228E-12         0.00000E+00
    0.49869E-07         0.15281E-12         0.00000E+00
    0.49869E-07         0.14248E-12         0.00000E+00
    0.49869E-07         0.13117E-12         0.00000E+00
    0.49869E-07         0.11871E-12         0.00000E+00
    0.49869E-07         0.10487E-12         0.00000E+00
    0.49869E-07         0.89354E-13         0.00000E+00
    0.49869E-07         0.71762E-13         0.00000E+00
    0.49869E-07         0.51547E-13         0.00000E+00
    0.49869E-07         0.27937E-13         0.00000E+00
    0.49869E-07         0.15171E-13         0.00000E+00
    0.49869E-07         0.27342E-13         0.00000E+00
    0.49869E-07         0.52957E-13         0.00000E+00
    0.49869E-07         0.10165E-12         0.00000E+00
    0.49869E-07         0.14528E-12         0.00000E+00
    0.49869E-07         0.18404E-12         0.00000E+00
    0.49869E-07         0.21827E-12         0.00000E+00
    0.49869E-07         0.24835E-12         0.00000E+00
    0.49869E-07         0.27471E-12         0.00000E+00
    0.49869E-07         0.29771E-12         0.00000E+00
    0.49869E-07         0.31772E-12         0.00000E+00
    0.49869E-07         0.33504E-12         0.00000E+00
    0.49869E-07         0.34995E-12         0.00000E+00
    0.49869E-07         0.36271E-12         0.00000E+00
    0.49869E-07         0.37352E-12         0.00000E+00
    0.49869E-07         0.38257E-12         0.00000E+00
    0.49869E-07         0.39003E-12         0.00000E+00
    0.49869E-07         0.39603E-12         0.00000E+00
    0.49869E-07         0.40070E-12         0.00000E+00
    0.49869E-07         0.40414E-12         0.00000E+00
    0.49869E-07         0.40644E-12         0.00000E+00
    0.49869E-07         0.40769E-12         0.00000E+00
    0.49869E-07         0.40795E-12         0.00000E+00
    0.49869E-07         0.40728E-12         0.00000E+00
    0.49869E-07         0.40573E-12         0.00000E+00
    0.49869E-07         0.40333E-12         0.00000E+00
    0.49869E-07         0.40012E-12         0.00000E+00
    0.49869E-07         0.39612E-12         0.00000E+00
    0.49869E-07         0.39136E-12         0.00000E+00
    0.49869E-07         0.38584E-12         0.00000E+00
    0.49869E-07         0.37957E-12         0.00000E+00
    0.49869E-07         0.37255E-12         0.00000E+00
    0.49869E-07         0.36476E-12         0.00000E+00
    0.49869E-07         0.35621E-12         0.00000E+00
    0.49869E-07         0.34686E-12         0.00000E+00
    0.49869E-07         0.33669E-12         0.00000E+00
    0.49869E-07         0.32567E-12         0.00000E+00
    0.49869E-07         0.31374E-12         0.00000E+00
    0.49869E-07         0.30087E-12         0.00000E+00
    0.49869E-07         0.28697E-12         0.00000E+00
    0.49869E-07         0.27198E-12         0.00000E+00
    0.49869E-07         0.25581E-12         0.00000E+00
    0.49869E-07         0.23835E-12         0.00000E+00
    0.49869E-07         0.21948E-12         0.00000E+00
    0.49869E-07         0.19908E-12         0.00000E+00
    0.49869E-07         0.17698E-12         0.00000E+00
    0.49869E-07         0.15301E-12         0.00000E+00
    0.49869E-07         0.12701E-12         0.00000E+00
    0.49869E-07         0.98784E-13         0.00000E+00
    0.49869E-07         0.68203E-13         0.00000E+00
    0.49869E-07         0.35212E-13         0.00000E+00
    0.49869E-07         0.18114E-13         0.00000E+00
    0.49869E-07         0.27707E-13         0.00000E+00
    0.49869E-07         0.53883E-13         0.00000E+00
    0.49869E-07         0.10423E-12         0.00000E+00
    0.49869E-07         0.15063E-12         0.00000E+00
    0.49869E-07         0.19323E-12         0.00000E+00
    0.49869E-07         0.23216E-12         0.00000E+00
    0.49869E-07         0.26758E-12         0.00000E+00
    0.49869E-07         0.29964E-12         0.00000E+00
    0.49869E-07         0.32853E-12         0.00000E+00
    0.49869E-07         0.35442E-12         0.00000E+00
    0.49869E-07         0.37752E-12         0.00000E+00
    0.49869E-07         0.39800E-12         0.00000E+00
    0.49869E-07         0.41603E-12         0.00000E+00
    0.49869E-07         0.43178E-12         0.00000E+00
    0.49869E-07         0.44539E-12         0.00000E+00
    0.49869E-07         0.45701E-12         0.00000E+00
    0.49869E-07         0.46676E-12         0.00000E+00
    0.49869E-07         0.47477E-12         0.00000E+00
    0.49869E-07         0.48114E-12         0.00000E+00
    0.49869E-07         0.48595E-12         0.00000E+00
    0.49869E-07         0.48929E-12         0.00000E+00
    0.49869E-07         0.49125E-12         0.00000E+00
    0.49869E-07         0.49187E-12         0.00000E+00
    0.49869E-07         0.49121E-12         0.00000E+00
    0.49869E-07         0.48933E-12         0.00000E+00
    0.49869E-07         0.48626E-12         0.00000E+00
    0.49869E-07         0.48204E-12         0.00000E+00
    0.49869E-07         0.47668E-12         0.00000E+00
    0.49869E-07         0.47020E-12         0.00000E+00
    0.49869E-07         0.46263E-12         0.00000E+00
    0.49869E-07         0.45394E-12         0.00000E+00
    0.49869E-07         0.44416E-12         0.00000E+00
    0.49869E-07         0.43326E-12         0.00000E+00
    0.49869E-07         0.42124E-12         0.00000E+00
    0.49869E-07         0.40806E-12         0.00000E+00
    0.49869E-07         0.39370E-12         0.00000E+00
    0.49869E-07         0.37812E-12         0.00000E+00
    0.49869E-07         0.36128E-12         0.00000E+00
    0.49869E-07         0.34314E-12         0.00000E+00
    0.49868E-07         0.32362E-12         0.00000E+00
    0.49868E-07         0.30268E-12         0.00000E+00
    0.49868E-07         0.28025E-12         0.00000E+00
    0.49868E-07         0.25625E-12         0.00000E+00
    0.49868E-07         0.23062E-12         0.00000E+00
    0.49868E-07         0.20327E-12         0.00000E+00
    0.49868E-07         0.17415E-12         0.00000E+00
    0.49868E-07         0.14318E-12         0.00000E+00
    0.49868E-07         0.11033E-12         0.00000E+00
    0.49868E-07         0.75539E-13         0.00000E+00
    0.49868E-07         0.38773E-13         0.00000E+00
    0.49868E-07         0.19889E-13         0.00000E+00
    0.49869E-07         0.25986E-13         0.00000E+00
    0.49869E-07         0.50880E-13         0.00000E+00
    0.49869E-07         0.99141E-13         0.00000E+00
    0.49869E-07         0.14436E-12         0.00000E+00
    0.49869E-07         0.18657E-12         0.00000E+00
    0.49869E-07         0.22583E-12         0.00000E+00
    0.49869E-07         0.26219E-12         0.00000E+00
    0.49869E-07         0.29574E-12         0.00000E+00
    0.49869E-07         0.32655E-12         0.00000E+00
    0.49869E-07         0.35471E-12         0.00000E+00
    0.49869E-07         0.38031E-12         0.00000E+00
    0.49869E-07         0.40346E-12         0.00000E+00
    0.49869E-07         0.42425E-12         0.00000E+00
    0.49869E-07         0.44278E-12         0.00000E+00
    0.49869E-07         0.45914E-12         0.00000E+00
    0.49869E-07         0.47343E-12         0.00000E+00
    0.49869E-07         0.48574E-12         0.00000E+00
    0.49869E-07         0.49615E-12         0.00000E+00
    0.49869E-07         0.50474E-12         0.00000E+00
    0.49869E-07         0.51159E-12         0.00000E+00
    0.49869E-07         0.51675E-12         0.00000E+00
    0.49869E-07         0.52030E-12         0.00000E+00
    0.49869E-07         0.52228E-12         0.00000E+00
    0.49869E-07         0.52276E-12         0.00000E+00
    0.49869E-07         0.52175E-12         0.00000E+00
    0.49869E-07         0.51932E-12         0.00000E+00
    0.49869E-07         0.51548E-12         0.00000E+00
    0.49869E-07         0.51026E-12         0.00000E+00
    0.49869E-07         0.50369E-12         0.00000E+00
    0.49869E-07         0.49576E-12         0.00000E+00
    0.49869E-07         0.48651E-12         0.00000E+00
    0.49869E-07         0.47592E-12         0.00000E+00
    0.49869E-07         0.46400E-12         0.00000E+00
    0.49869E-07         0.45075E-12         0.00000E+00
    0.49869E-07         0.43614E-12         0.00000E+00
    0.49869E-07         0.42017E-12         0.00000E+00
    0.49869E-07         0.40281E-12         0.00000E+00
    0.49869E-07         0.38406E-12         0.00000E+00
    0.49869E-07         0.36387E-12         0.00000E+00
    0.49869E-07         0.34222E-12         0.00000E+00
    0.49869E-07         0.31908E-12         0.00000E+00
    0.49869E-07         0.29443E-12         0.00000E+00
    0.49869E-07         0.26823E-12         0.00000E+00
    0.49869E-07         0.24045E-12         0.00000E+00
    0.49869E-07         0.21106E-12         0.00000E+00
    0.49869E-07         0.18004E-12         0.00000E+00
    0.49869E-07         0.14737E-12         0.00000E+00
    0.49869E-07         0.11304E-12         0.00000E+00
    0.49869E-07         0.77021E-13         0.00000E+00
    0.49869E-07         0.39319E-13         0.00000E+00
    0.49869E-07         0.20048E-13         0.00000E+00
    0.49869E-07         0.23489E-13         0.00000E+00
    0.49869E-07         0.46148E-13         0.00000E+00
    0.49869E-07         0.90314E-13         0.00000E+00
    0.49869E-07         0.13216E-12         0.00000E+00
    0.49869E-07         0.17168E-12         0.00000E+00
    0.49869E-07         0.20887E-12         0.00000E+00
    0.49869E-07         0.24373E-12         0.00000E+00
    0.49869E-07         0.27629E-12         0.00000E+00
    0.49869E-07         0.30657E-12         0.00000E+00
    0.49869E-07         0.33460E-12         0.00000E+00
    0.49869E-07         0.36042E-12         0.00000E+00
    0.49869E-07         0.38407E-12         0.00000E+00
    0.49869E-07         0.40561E-12         0.00000E+00
    0.49869E-07         0.42507E-12         0.00000E+00
    0.49869E-07         0.44252E-12         0.00000E+00
    0.49869E-07         0.45799E-12         0.00000E+00
    0.49869E-07         0.47156E-12         0.00000E+00
    0.49869E-07         0.48326E-12         0.00000E+00
    0.49869E-07         0.49314E-12         0.00000E+00
    0.49869E-07         0.50126E-12         0.00000E+00
    0.49869E-07         0.50766E-12         0.00000E+00
    0.49869E-07         0.51238E-12         0.00000E+00
    0.49869E-07         0.51546E-12         0.00000E+00
    0.49869E-07         0.51693E-12         0.00000E+00
    0.49869E-07         0.51684E-12         0.00000E+00
    0.49869E-07         0.51520E-12         0.00000E+00
    0.49869E-07         0.51205E-12         0.00000E+00
    0.49869E-07         0.50740E-12         0.00000E+00
    0.49869E-07         0.50129E-12         0.00000E+00
    0.49869E-07         0.49371E-12         0.00000E+00
    0.49869E-07         0.48469E-12         0.00000E+00
    0.49869E-07         0.47423E-12         0.00000E+00
    0.49869E-07         0.46234E-12         0.00000E+00
    0.49869E-07         0.44902E-12         0.00000E+00
    0.49869E-07         0.43427E-12         0.00000E+00
    0.49869E-07         0.41809E-12         0.00000E+00
    0.49869E-07         0.40047E-12         0.00000E+00
    0.49869E-07         0.38142E-12         0.00000E+00
    0.49869E-07         0.36092E-12         0.00000E+00
    0.49869E-07         0.33896E-12         0.00000E+00
    0.49869E-07         0.31554E-12         0.00000E+00
    0.49869E-07         0.29065E-12         0.00000E+00
    0.49869E-07         0.26428E-12         0.00000E+00
    0.49869E-07         0.23643E-12         0.00000E+00
    0.49869E-07         0.20709E-12         0.00000E+00
    0.49869E-07         0.17626E-12         0.00000E+00
    0.49869E-07         0.14395E-12         0.00000E+00
    0.49869E-07         0.11015E-12         0.00000E+00
    0.49869E-07         0.74874E-13         0.00000E+00
    0.49869E-07         0.38141E-13         0.00000E+00
    0.49869E-07         0.19411E-13         0.00000E+00
    0.49869E-07         0.20600E-13         0.00000E+00
    0.49869E-07         0.40598E-13         0.00000E+00
    0.49869E-07         0.79735E-13         0.00000E+00
    0.49869E-07         0.11714E-12         0.00000E+00
    0.49869E-07         0.15276E-12         0.00000E+00
    0.49869E-07         0.18658E-12         0.00000E+00
    0.49869E-07         0.21857E-12         0.00000E+00
    0.49869E-07         0.24871E-12         0.00000E+00
    0.49869E-07         0.27700E-12         0.00000E+00
    0.49869E-07         0.30344E-12         0.00000E+00
    0.49869E-07         0.32802E-12         0.00000E+00
    0.49869E-07         0.35076E-12         0.00000E+00
    0.49869E-07         0.37167E-12         0.00000E+00
    0.49869E-07         0.39077E-12         0.00000E+00
    0.49869E-07         0.40807E-12         0.00000E+00
    0.49869E-07         0.42360E-12         0.00000E+00
    0.49869E-07         0.43738E-12         0.00000E+00
    0.49869E-07         0.44944E-12         0.00000E+00
    0.49869E-07         0.45979E-12         0.00000E+00
    0.49869E-07         0.46848E-12         0.00000E+00
    0.49869E-07         0.47551E-12         0.00000E+00
    0.49869E-07         0.48093E-12         0.00000E+00
    0.49869E-07         0.48474E-12         0.00000E+00
    0.49869E-07         0.48698E-12         0.00000E+00
    0.49869E-07         0.48766E-12         0.00000E+00
    0.49869E-07         0.48681E-12         0.00000E+00
    0.49869E-07         0.48445E-12         0.00000E+00
    0.49869E-07         0.48058E-12         0.00000E+00
    0.49869E-07         0.47524E-12         0.00000E+00
    0.49869E-07         0.46842E-12         0.00000E+00
    0.49869E-07         0.46016E-12         0.00000E+00
    0.49869E-07         0.45044E-12         0.00000E+00
    0.49869E-07         0.43929E-12         0.00000E+00
    0.49869E-07         0.42671E-12         0.00000E+00
    0.49869E-07         0.41271E-12         0.00000E+00
    0.49869E-07         0.39730E-12         0.00000E+00
    0.49869E-07         0.38047E-12         0.00000E+00
    0.49869E-07         0.36224E-12         0.00000E+00
    0.49869E-07         0.34261E-12         0.00000E+00
    0.49869E-07         0.32158E-12         0.00000E+00
    0.49869E-07         0.29915E-12         0.00000E+00
    0.49869E-07         0.27534E-12         0.00000E+00
    0.49869E-07         0.25014E-12         0.00000E+00
    0.49869E-07         0.22357E-12         0.00000E+00
    0.49869E-07         0.19563E-12         0.00000E+00
    0.49869E-07         0.16633E-12         0.00000E+00
    0.49869E-07         0.13568E-12         0.00000E+00
    0.49869E-07         0.10371E-12         0.00000E+00
    0.49869E-07         0.70414E-13         0.00000E+00
    0.49869E-07         0.35826E-13         0.00000E+00
    0.49869E-07         0.18210E-13         0.00000E+00
    0.49869E-07         0.17623E-13         0.00000E+00
    0.49869E-07         0.34819E-13         0.00000E+00
    0.49869E-07         0.68592E-13         0.00000E+00
    0.49869E-07         0.10110E-12         0.00000E+00
    0.49869E-07         0.13229E-12         0.00000E+00
    0.49869E-07         0.16211E-12         0.00000E+00
    0.49869E-07         0.19052E-12         0.00000E+00
    0.49869E-07         0.21749E-12         0.00000E+00
    0.49869E-07         0.24299E-12         0.00000E+00
    0.49869E-07         0.26699E-12         0.00000E+00
    0.49869E-07         0.28948E-12         0.00000E+00
    0.49869E-07         0.31045E-12         0.00000E+00
    0.49869E-07         0.32988E-12         0.00000E+00
    0.49869E-07         0.34777E-12         0.00000E+00
    0.49869E-07         0.36412E-12         0.00000E+00
    0.49869E-07         0.37893E-12         0.00000E+00
    0.49869E-07         0.39220E-12         0.00000E+00
    0.49869E-07         0.40394E-12         0.00000E+00
    0.49869E-07         0.41415E-12         0.00000E+00
    0.49869E-07         0.42286E-12         0.00000E+00
    0.49869E-07         0.43005E-12         0.00000E+00
    0.49869E-07         0.43575E-12         0.00000E+00
    0.49869E-07         0.43997E-12         0.00000E+00
    0.49869E-07         0.44272E-12         0.00000E+00
    0.49869E-07         0.44401E-12         0.00000E+00
    0.49869E-07         0.44385E-12         0.00000E+00
    0.49869E-07         0.44225E-12         0.00000E+00
    0.49869E-07         0.43923E-12         0.00000E+00
    0.49869E-07         0.43479E-12         0.00000E+00
    0.49869E-07         0.42895E-12         0.00000E+00
    0.49869E-07         0.42172E-12         0.00000E+00
    0.49869E-07         0.41311E-12         0.00000E+00
    0.49869E-07         0.40312E-12         0.00000E+00
    0.49869E-07         0.39177E-12         0.00000E+00
    0.49869E-07         0.37907E-12         0.00000E+00
    0.49869E-07         0.36502E-12         0.00000E+00
    0.49869E-07         0.34963E-12         0.00000E+00
    0.49869E-07         0.33292E-12         0.00000E+00
    0.49869E-07         0.31488E-12         0.00000E+00
    0.49869E-07         0.29554E-12         0.00000E+00
    0.49869E-07         0.27490E-12         0.00000E+00
    0.49869E-07         0.25298E-12         0.00000E+00
    0.49869E-07         0.22977E-12         0.00000E+00
    0.49869E-07         0.20531E-12         0.00000E+00
    0.49869E-07         0.17959E-12         0.00000E+00
    0.49869E-07         0.15264E-12         0.00000E+00
    0.49869E-07         0.12446E-12         0.00000E+00
    0.49869E-07         0.95092E-13         0.00000E+00
    0.49869E-07         0.64538E-13         0.00000E+00
    0.49869E-07         0.32823E-13         0.00000E+00
    0.49869E-07         0.16678E-13         0.00000E+00
    0.49870E-07         0.14722E-13         0.00000E+00
    0.49870E-07         0.29156E-13         0.00000E+00
    0.49870E-07         0.57600E-13         0.00000E+00
    0.49870E-07         0.85160E-13         0.00000E+00
    0.49870E-07         0.11177E-12         0.00000E+00
    0.49870E-07         0.13739E-12         0.00000E+00
    0.49870E-07         0.16195E-12         0.00000E+00
    0.49870E-07         0.18541E-12         0.00000E+00
    0.49870E-07         0.20773E-12         0.00000E+00
    0.49870E-07         0.22889E-12         0.00000E+00
    0.49870E-07         0.24883E-12         0.00000E+00
    0.49870E-07         0.26755E-12         0.00000E+00
    0.49870E-07         0.28502E-12         0.00000E+00
    0.49870E-07         0.30121E-12         0.00000E+00
    0.49870E-07         0.31612E-12         0.00000E+00
    0.49870E-07         0.32973E-12         0.00000E+00
    0.49870E-07         0.34203E-12         0.00000E+00
    0.49870E-07         0.35301E-12         0.00000E+00
    0.49870E-07         0.36267E-12         0.00000E+00
    0.49870E-07         0.37100E-12         0.00000E+00
    0.49870E-07         0.37801E-12         0.00000E+00
    0.49870E-07         0.38369E-12         0.00000E+00
    0.49870E-07         0.38805E-12         0.00000E+00
    0.49870E-07         0.39109E-12         0.00000E+00
    0.49870E-07         0.39280E-12         0.00000E+00
    0.49870E-07         0.39321E-12         0.00000E+00
    0.49870E-07         0.39230E-12         0.00000E+00
    0.49870E-07         0.39009E-12         0.00000E+00
    0.49870E-07         0.38659E-12         0.00000E+00
    0.49870E-07         0.38180E-12         0.00000E+00
    0.49870E-07         0.37572E-12         0.00000E+00
    0.49870E-07         0.36837E-12         0.00000E+00
    0.49870E-07         0.35975E-12         0.00000E+00
    0.49870E-07         0.34987E-12         0.00000E+00
    0.49870E-07         0.33875E-12         0.00000E+00
    0.49870E-07         0.32638E-12         0.00000E+00
    0.49870E-07         0.31278E-12         0.00000E+00
    0.49870E-07         0.29796E-12         0.00000E+00
    0.49870E-07         0.28193E-12         0.00000E+00
    0.49870E-07         0.26470E-12         0.00000E+00
    0.49870E-07         0.24629E-12         0.00000E+00
    0.49870E-07         0.22670E-12         0.00000E+00
    0.49870E-07         0.20594E-12         0.00000E+00
    0.49870E-07         0.18404E-12         0.00000E+00
    0.49870E-07         0.16101E-12         0.00000E+00
    0.49870E-07         0.13686E-12         0.00000E+00
    0.49870E-07         0.11161E-12         0.00000E+00
    0.49870E-07         0.85276E-13         0.00000E+00
    0.49870E-07         0.57879E-13         0.00000E+00
    0.49870E-07         0.29437E-13         0.00000E+00
    0.49870E-07         0.14958E-13         0.00000E+00
    0.49870E-07         0.11994E-13         0.00000E+00
    0.49870E-07         0.23813E-13         0.00000E+00
    0.49870E-07         0.47180E-13         0.00000E+00
    0.49870E-07         0.69971E-13         0.00000E+00
    0.49870E-07         0.92122E-13         0.00000E+00
    0.49870E-07         0.11357E-12         0.00000E+00
    0.49870E-07         0.13427E-12         0.00000E+00
    0.49870E-07         0.15417E-12         0.00000E+00
    0.49870E-07         0.17321E-12         0.00000E+00
    0.49870E-07         0.19137E-12         0.00000E+00
    0.49870E-07         0.20859E-12         0.00000E+00
    0.49870E-07         0.22485E-12         0.00000E+00
    0.49870E-07         0.24012E-12         0.00000E+00
    0.49870E-07         0.25437E-12         0.00000E+00
    0.49870E-07         0.26758E-12         0.00000E+00
    0.49870E-07         0.27972E-12         0.00000E+00
    0.49870E-07         0.29077E-12         0.00000E+00
    0.49870E-07         0.30073E-12         0.00000E+00
    0.49870E-07         0.30957E-12         0.00000E+00
    0.49870E-07         0.31729E-12         0.00000E+00
    0.49870E-07         0.32388E-12         0.00000E+00
    0.49870E-07         0.32932E-12         0.00000E+00
    0.49870E-07         0.33362E-12         0.00000E+00
    0.49870E-07         0.33677E-12         0.00000E+00
    0.49870E-07         0.33876E-12         0.00000E+00
    0.49870E-07         0.33960E-12         0.00000E+00
    0.49870E-07         0.33929E-12         0.00000E+00
    0.49870E-07         0.33782E-12         0.00000E+00
    0.49870E-07         0.33520E-12         0.00000E+00
    0.49871E-07         0.33143E-12         0.00000E+00
    0.49871E-07         0.32651E-12         0.00000E+00
    0.49871E-07         0.32046E-12         0.00000E+00
    0.49871E-07         0.31327E-12         0.00000E+00
    0.49871E-07         0.30494E-12         0.00000E+00
    0.49871E-07         0.29550E-12         0.00000E+00
    0.49871E-07         0.28494E-12         0.00000E+00
    0.49871E-07         0.27327E-12         0.00000E+00
    0.49871E-07         0.26051E-12         0.00000E+00
    0.49871E-07         0.24666E-12         0.00000E+00
    0.49871E-07         0.23172E-12         0.00000E+00
    0.49871E-07         0.21573E-12         0.00000E+00
    0.49871E-07         0.19867E-12         0.00000E+00
    0.49871E-07         0.18058E-12         0.00000E+00
    0.49871E-07         0.16145E-12         0.00000E+00
    0.49871E-07         0.14131E-12         0.00000E+00
    0.49871E-07         0.12016E-12         0.00000E+00
    0.49871E-07         0.98034E-13         0.00000E+00
    0.49871E-07         0.74933E-13         0.00000E+00
    0.49871E-07         0.50879E-13         0.00000E+00
    0.49871E-07         0.25887E-13         0.00000E+00
    0.49871E-07         0.13158E-13         0.00000E+00
    0.49871E-07         0.94913E-14         0.00000E+00
    0.49871E-07         0.18895E-13         0.00000E+00
    0.49871E-07         0.37556E-13         0.00000E+00
    0.49871E-07         0.55889E-13         0.00000E+00
    0.49871E-07         0.73831E-13         0.00000E+00
    0.49871E-07         0.91323E-13         0.00000E+00
    0.49871E-07         0.10831E-12         0.00000E+00
    0.49871E-07         0.12474E-12         0.00000E+00
    0.49871E-07         0.14057E-12         0.00000E+00
    0.49871E-07         0.15575E-12         0.00000E+00
    0.49871E-07         0.17025E-12         0.00000E+00
    0.49871E-07         0.18402E-12         0.00000E+00
    0.49871E-07         0.19702E-12         0.00000E+00
    0.49871E-07         0.20924E-12         0.00000E+00
    0.49871E-07         0.22064E-12         0.00000E+00
    0.49871E-07         0.23119E-12         0.00000E+00
    0.49871E-07         0.24087E-12         0.00000E+00
    0.49871E-07         0.24966E-12         0.00000E+00
    0.49871E-07         0.25754E-12         0.00000E+00
    0.49871E-07         0.26449E-12         0.00000E+00
    0.49871E-07         0.27051E-12         0.00000E+00
    0.49871E-07         0.27557E-12         0.00000E+00
    0.49871E-07         0.27967E-12         0.00000E+00
    0.49871E-07         0.28279E-12         0.00000E+00
    0.49871E-07         0.28494E-12         0.00000E+00
    0.49871E-07         0.28610E-12         0.00000E+00
    0.49871E-07         0.28627E-12         0.00000E+00
    0.49871E-07         0.28544E-12         0.00000E+00
    0.49871E-07         0.28362E-12         0.00000E+00
    0.49871E-07         0.28081E-12         0.00000E+00
    0.49871E-07         0.27700E-12         0.00000E+00
    0.49871E-07         0.27219E-12         0.00000E+00
    0.49871E-07         0.26639E-12         0.00000E+00
    0.49871E-07         0.25960E-12         0.00000E+00
    0.49871E-07         0.25183E-12         0.00000E+00
    0.49871E-07         0.24307E-12         0.00000E+00
    0.49871E-07         0.23335E-12         0.00000E+00
    0.49871E-07         0.22265E-12         0.00000E+00
    0.49871E-07         0.21100E-12         0.00000E+00
    0.49871E-07         0.19839E-12         0.00000E+00
    0.49871E-07         0.18485E-12         0.00000E+00
    0.49871E-07         0.17037E-12         0.00000E+00
    0.49871E-07         0.15497E-12         0.00000E+00
    0.49871E-07         0.13865E-12         0.00000E+00
    0.49871E-07         0.12144E-12         0.00000E+00
    0.49871E-07         0.10334E-12         0.00000E+00
    0.49871E-07         0.84363E-13         0.00000E+00
    0.49871E-07         0.64526E-13         0.00000E+00
    0.49871E-07         0.43839E-13         0.00000E+00
    0.49872E-07         0.22319E-13         0.00000E+00
    0.49872E-07         0.11351E-13         0.00000E+00
    0.49872E-07         0.72307E-14         0.00000E+00
    0.49872E-07         0.14444E-13         0.00000E+00
    0.49872E-07         0.28822E-13         0.00000E+00
    0.49872E-07         0.43070E-13         0.00000E+00
    0.49872E-07         0.57131E-13         0.00000E+00
    0.49872E-07         0.70947E-13         0.00000E+00
    0.49872E-07         0.84466E-13         0.00000E+00
    0.49872E-07         0.97637E-13         0.00000E+00
    0.49872E-07         0.11041E-12         0.00000E+00
    0.49872E-07         0.12275E-12         0.00000E+00
    0.49872E-07         0.13461E-12         0.00000E+00
    0.49872E-07         0.14595E-12         0.00000E+00
    0.49872E-07         0.15674E-12         0.00000E+00
    0.49872E-07         0.16694E-12         0.00000E+00
    0.49872E-07         0.17653E-12         0.00000E+00
    0.49872E-07         0.18546E-12         0.00000E+00
    0.49872E-07         0.19373E-12         0.00000E+00
    0.49872E-07         0.20129E-12         0.00000E+00
    0.49872E-07         0.20815E-12         0.00000E+00
    0.49872E-07         0.21426E-12         0.00000E+00
    0.49872E-07         0.21962E-12         0.00000E+00
    0.49872E-07         0.22420E-12         0.00000E+00
    0.49872E-07         0.22800E-12         0.00000E+00
    0.49872E-07         0.23101E-12         0.00000E+00
    0.49872E-07         0.23320E-12         0.00000E+00
    0.49872E-07         0.23458E-12         0.00000E+00
    0.49872E-07         0.23513E-12         0.00000E+00
    0.49872E-07         0.23485E-12         0.00000E+00
    0.49872E-07         0.23373E-12         0.00000E+00
    0.49872E-07         0.23178E-12         0.00000E+00
    0.49872E-07         0.22897E-12         0.00000E+00
    0.49872E-07         0.22533E-12         0.00000E+00
    0.49872E-07         0.22083E-12         0.00000E+00
    0.49872E-07         0.21549E-12         0.00000E+00
    0.49872E-07         0.20931E-12         0.00000E+00
    0.49872E-07         0.20229E-12         0.00000E+00
    0.49872E-07         0.19443E-12         0.00000E+00
    0.49872E-07         0.18573E-12         0.00000E+00
    0.49872E-07         0.17621E-12         0.00000E+00
    0.49872E-07         0.16586E-12         0.00000E+00
    0.49872E-07         0.15470E-12         0.00000E+00
    0.49872E-07         0.14272E-12         0.00000E+00
    0.49873E-07         0.12995E-12         0.00000E+00
    0.49873E-07         0.11638E-12         0.00000E+00
    0.49873E-07         0.10203E-12         0.00000E+00
    0.49873E-07         0.86898E-13         0.00000E+00
    0.49873E-07         0.71004E-13         0.00000E+00
    0.49873E-07         0.54355E-13         0.00000E+00
    0.49873E-07         0.36961E-13         0.00000E+00
    0.49873E-07         0.18832E-13         0.00000E+00
    0.49873E-07         0.95856E-14         0.00000E+00
    0.49873E-07         0.52107E-14         0.00000E+00
    0.49873E-07         0.10459E-13         0.00000E+00
    0.49873E-07         0.20986E-13         0.00000E+00
    0.49873E-07         0.31544E-13         0.00000E+00
    0.49873E-07         0.42077E-13         0.00000E+00
    0.49873E-07         0.52535E-13         0.00000E+00
    0.49873E-07         0.62867E-13         0.00000E+00
    0.49873E-07         0.73027E-13         0.00000E+00
    0.49873E-07         0.82969E-13         0.00000E+00
    0.49873E-07         0.92651E-13         0.00000E+00
    0.49873E-07         0.10203E-12         0.00000E+00
    0.49873E-07         0.11108E-12         0.00000E+00
    0.49873E-07         0.11975E-12         0.00000E+00
    0.49873E-07         0.12801E-12         0.00000E+00
    0.49873E-07         0.13584E-12         0.00000E+00
    0.49873E-07         0.14320E-12         0.00000E+00
    0.49873E-07         0.15007E-12         0.00000E+00
    0.49873E-07         0.15641E-12         0.00000E+00
    0.49873E-07         0.16222E-12         0.00000E+00
    0.49873E-07         0.16746E-12         0.00000E+00
    0.49874E-07         0.17212E-12         0.00000E+00
    0.49874E-07         0.17618E-12         0.00000E+00
    0.49874E-07         0.17962E-12         0.00000E+00
    0.49874E-07         0.18243E-12         0.00000E+00
    0.49874E-07         0.18460E-12         0.00000E+00
    0.49874E-07         0.18611E-12         0.00000E+00
    0.49874E-07         0.18695E-12         0.00000E+00
    0.49874E-07         0.18712E-12         0.00000E+00
    0.49874E-07         0.18660E-12         0.00000E+00
    0.49874E-07         0.18540E-12         0.00000E+00
    0.49874E-07         0.18350E-12         0.00000E+00
    0.49874E-07         0.18090E-12         0.00000E+00
    0.49874E-07         0.17760E-12         0.00000E+00
    0.49874E-07         0.17360E-12         0.00000E+00
    0.49874E-07         0.16889E-12         0.00000E+00
    0.49874E-07         0.16348E-12         0.00000E+00
    0.49874E-07         0.15736E-12         0.00000E+00
    0.49874E-07         0.15055E-12         0.00000E+00
    0.49874E-07         0.14303E-12         0.00000E+00
    0.49874E-07         0.13481E-12         0.00000E+00
    0.49874E-07         0.12591E-12         0.00000E+00
    0.49874E-07         0.11631E-12         0.00000E+00
    0.49874E-07         0.10603E-12         0.00000E+00
    0.49874E-07         0.95078E-13         0.00000E+00
    0.49874E-07         0.83451E-13         0.00000E+00
    0.49874E-07         0.71159E-13         0.00000E+00
    0.49874E-07         0.58209E-13         0.00000E+00
    0.49874E-07         0.44609E-13         0.00000E+00
    0.49874E-07         0.30366E-13         0.00000E+00
    0.49874E-07         0.15488E-13         0.00000E+00
    0.49874E-07         0.78912E-14         0.00000E+00
    0.49875E-07         0.34172E-14         0.00000E+00
    0.49875E-07         0.69161E-14         0.00000E+00
    0.49875E-07         0.14006E-13         0.00000E+00
    0.49875E-07         0.21256E-13         0.00000E+00
    0.49875E-07         0.28615E-13         0.00000E+00
    0.49875E-07         0.36038E-13         0.00000E+00
    0.49875E-07         0.43476E-13         0.00000E+00
    0.49875E-07         0.50888E-13         0.00000E+00
    0.49875E-07         0.58232E-13         0.00000E+00
    0.49875E-07         0.65467E-13         0.00000E+00
    0.49875E-07         0.72557E-13         0.00000E+00
    0.49875E-07         0.79464E-13         0.00000E+00
    0.49875E-07         0.86156E-13         0.00000E+00
    0.49875E-07         0.92599E-13         0.00000E+00
    0.49875E-07         0.98763E-13         0.00000E+00
    0.49875E-07         0.10462E-12         0.00000E+00
    0.49875E-07         0.11014E-12         0.00000E+00
    0.49875E-07         0.11531E-12         0.00000E+00
    0.49875E-07         0.12009E-12         0.00000E+00
    0.49875E-07         0.12446E-12         0.00000E+00
    0.49875E-07         0.12842E-12         0.00000E+00
    0.49875E-07         0.13192E-12         0.00000E+00
    0.49875E-07         0.13497E-12         0.00000E+00
    0.49875E-07         0.13754E-12         0.00000E+00
    0.49875E-07         0.13961E-12         0.00000E+00
    0.49875E-07         0.14119E-12         0.00000E+00
    0.49875E-07         0.14224E-12         0.00000E+00
    0.49875E-07         0.14277E-12         0.00000E+00
    0.49875E-07         0.14276E-12         0.00000E+00
    0.49875E-07         0.14221E-12         0.00000E+00
    0.49875E-07         0.14110E-12         0.00000E+00
    0.49875E-07         0.13944E-12         0.00000E+00
    0.49875E-07         0.13721E-12         0.00000E+00
    0.49875E-07         0.13442E-12         0.00000E+00
    0.49875E-07         0.13106E-12         0.00000E+00
    0.49875E-07         0.12712E-12         0.00000E+00
    0.49875E-07         0.12261E-12         0.00000E+00
    0.49875E-07         0.11752E-12         0.00000E+00
    0.49875E-07         0.11186E-12         0.00000E+00
    0.49875E-07         0.10563E-12         0.00000E+00
    0.49875E-07         0.98820E-13         0.00000E+00
    0.49875E-07         0.91444E-13         0.00000E+00
    0.49875E-07         0.83500E-13         0.00000E+00
    0.49875E-07         0.74991E-13         0.00000E+00
    0.49875E-07         0.65922E-13         0.00000E+00
    0.49875E-07         0.56296E-13         0.00000E+00
    0.49875E-07         0.46118E-13         0.00000E+00
    0.49875E-07         0.35393E-13         0.00000E+00
    0.49875E-07         0.24126E-13         0.00000E+00
    0.49875E-07         0.12321E-13         0.00000E+00
    0.49875E-07         0.62856E-14         0.00000E+00
    0.49876E-07         0.18291E-14         0.00000E+00
    0.49876E-07         0.37750E-14         0.00000E+00
    0.49876E-07         0.78099E-14         0.00000E+00
    0.49876E-07         0.12108E-13         0.00000E+00
    0.49876E-07         0.16627E-13         0.00000E+00
    0.49876E-07         0.21321E-13         0.00000E+00
    0.49876E-07         0.26152E-13         0.00000E+00
    0.49876E-07         0.31078E-13         0.00000E+00
    0.49876E-07         0.36061E-13         0.00000E+00
    0.49876E-07         0.41065E-13         0.00000E+00
    0.49876E-07         0.46056E-13         0.00000E+00
    0.49876E-07         0.50998E-13         0.00000E+00
    0.49876E-07         0.55861E-13         0.00000E+00
    0.49876E-07         0.60614E-13         0.00000E+00
    0.49876E-07         0.65228E-13         0.00000E+00
    0.49876E-07         0.69675E-13         0.00000E+00
    0.49876E-07         0.73929E-13         0.00000E+00
    0.49876E-07         0.77967E-13         0.00000E+00
    0.49876E-07         0.81764E-13         0.00000E+00
    0.49876E-07         0.85299E-13         0.00000E+00
    0.49876E-07         0.88552E-13         0.00000E+00
    0.49876E-07         0.91503E-13         0.00000E+00
    0.49876E-07         0.94135E-13         0.00000E+00
    0.49876E-07         0.96431E-13         0.00000E+00
    0.49876E-07         0.98377E-13         0.00000E+00
    0.49876E-07         0.99957E-13         0.00000E+00
    0.49876E-07         0.10116E-12         0.00000E+00
    0.49876E-07         0.10197E-12         0.00000E+00
    0.49876E-07         0.10239E-12         0.00000E+00
    0.49876E-07         0.10239E-12         0.00000E+00
    0.49876E-07         0.10198E-12         0.00000E+00
    0.49876E-07         0.10113E-12         0.00000E+00
    0.49876E-07         0.99861E-13         0.00000E+00
    0.49876E-07         0.98149E-13         0.00000E+00
    0.49876E-07         0.95994E-13         0.00000E+00
    0.49876E-07         0.93392E-13         0.00000E+00
    0.49876E-07         0.90339E-13         0.00000E+00
    0.49876E-07         0.86834E-13         0.00000E+00
    0.49876E-07         0.82873E-13         0.00000E+00
    0.49876E-07         0.78457E-13         0.00000E+00
    0.49876E-07         0.73584E-13         0.00000E+00
    0.49876E-07         0.68254E-13         0.00000E+00
    0.49876E-07         0.62469E-13         0.00000E+00
    0.49877E-07         0.56228E-13         0.00000E+00
    0.49877E-07         0.49535E-13         0.00000E+00
    0.49877E-07         0.42390E-13         0.00000E+00
    0.49877E-07         0.34796E-13         0.00000E+00
    0.49877E-07         0.26756E-13         0.00000E+00
    0.49877E-07         0.18273E-13         0.00000E+00
    0.49877E-07         0.93487E-14         0.00000E+00
    0.49877E-07         0.47771E-14         0.00000E+00
    0.49878E-07         0.42291E-15         0.00000E+00
    0.49878E-07         0.99095E-15         0.00000E+00
    0.49878E-07         0.23116E-14         0.00000E+00
    0.49878E-07         0.39815E-14         0.00000E+00
    0.49878E-07         0.59614E-14         0.00000E+00
    0.49878E-07         0.82130E-14         0.00000E+00
    0.49878E-07         0.10700E-13         0.00000E+00
    0.49878E-07         0.13385E-13         0.00000E+00
    0.49878E-07         0.16235E-13         0.00000E+00
    0.49878E-07         0.19216E-13         0.00000E+00
    0.49878E-07         0.22297E-13         0.00000E+00
    0.49878E-07         0.25445E-13         0.00000E+00
    0.49878E-07         0.28632E-13         0.00000E+00
    0.49878E-07         0.31829E-13         0.00000E+00
    0.49878E-07         0.35010E-13         0.00000E+00
    0.49878E-07         0.38147E-13         0.00000E+00
    0.49878E-07         0.41217E-13         0.00000E+00
    0.49878E-07         0.44197E-13         0.00000E+00
    0.49878E-07         0.47063E-13         0.00000E+00
    0.49878E-07         0.49794E-13         0.00000E+00
    0.49878E-07         0.52372E-13         0.00000E+00
    0.49878E-07         0.54776E-13         0.00000E+00
    0.49878E-07         0.56991E-13         0.00000E+00
    0.49878E-07         0.58997E-13         0.00000E+00
    0.49878E-07         0.60782E-13         0.00000E+00
    0.49878E-07         0.62329E-13         0.00000E+00
    0.49878E-07         0.63626E-13         0.00000E+00
    0.49878E-07         0.64661E-13         0.00000E+00
    0.49878E-07         0.65421E-13         0.00000E+00
    0.49878E-07         0.65897E-13         0.00000E+00
    0.49878E-07         0.66079E-13         0.00000E+00
    0.49878E-07         0.65958E-13         0.00000E+00
    0.49878E-07         0.65526E-13         0.00000E+00
    0.49878E-07         0.64777E-13         0.00000E+00
    0.49878E-07         0.63704E-13         0.00000E+00
    0.49878E-07         0.62302E-13         0.00000E+00
    0.49878E-07         0.60567E-13         0.00000E+00
    0.49878E-07         0.58493E-13         0.00000E+00
    0.49878E-07         0.56078E-13         0.00000E+00
    0.49878E-07         0.53319E-13         0.00000E+00
    0.49878E-07         0.50214E-13         0.00000E+00
    0.49878E-07         0.46761E-13         0.00000E+00
    0.49878E-07         0.42959E-13         0.00000E+00
    0.49878E-07         0.38807E-13         0.00000E+00
    0.49878E-07         0.34306E-13         0.00000E+00
    0.49878E-07         0.29455E-13         0.00000E+00
    0.49878E-07         0.24256E-13         0.00000E+00
    0.49878E-07         0.18708E-13         0.00000E+00
    0.49878E-07         0.12814E-13         0.00000E+00
    0.49878E-07         0.65739E-14         0.00000E+00
    0.49878E-07         0.33679E-14         0.00000E+00
    0.49880E-07        -0.82524E-15         0.00000E+00
    0.49880E-07        -0.14820E-14         0.00000E+00
    0.49880E-07        -0.25765E-14         0.00000E+00
    0.49880E-07        -0.32507E-14         0.00000E+00
    0.49880E-07        -0.35392E-14         0.00000E+00
    0.49880E-07        -0.34758E-14         0.00000E+00
    0.49880E-07        -0.30935E-14         0.00000E+00
    0.49880E-07        -0.24242E-14         0.00000E+00
    0.49880E-07        -0.14990E-14         0.00000E+00
    0.49880E-07        -0.34798E-15         0.00000E+00
    0.49880E-07         0.99976E-15         0.00000E+00
    0.49880E-07         0.25161E-14         0.00000E+00
    0.49880E-07         0.41738E-14         0.00000E+00
    0.49880E-07         0.59469E-14         0.00000E+00
    0.49880E-07         0.78102E-14         0.00000E+00
    0.49880E-07         0.97396E-14         0.00000E+00
    0.49880E-07         0.11712E-13         0.00000E+00
    0.49880E-07         0.13705E-13         0.00000E+00
    0.49880E-07         0.15699E-13         0.00000E+00
    0.49880E-07         0.17672E-13         0.00000E+00
    0.49880E-07         0.19605E-13         0.00000E+00
    0.49880E-07         0.21482E-13         0.00000E+00
    0.49880E-07         0.23283E-13         0.00000E+00
    0.49880E-07         0.24994E-13         0.00000E+00
    0.49880E-07         0.26598E-13         0.00000E+00
    0.49880E-07         0.28082E-13         0.00000E+00
    0.49880E-07         0.29432E-13         0.00000E+00
    0.49880E-07         0.30636E-13         0.00000E+00
    0.49880E-07         0.31681E-13         0.00000E+00
    0.49880E-07         0.32556E-13         0.00000E+00
    0.49880E-07         0.33252E-13         0.00000E+00
    0.49880E-07         0.33760E-13         0.00000E+00
    0.49880E-07         0.34070E-13         0.00000E+00
    0.49880E-07         0.34175E-13         0.00000E+00
    0.49880E-07         0.34067E-13         0.00000E+00
    0.49880E-07         0.33741E-13         0.00000E+00
    0.49880E-07         0.33190E-13         0.00000E+00
    0.49880E-07         0.32410E-13         0.00000E+00
    0.49880E-07         0.31396E-13         0.00000E+00
    0.49880E-07         0.30143E-13         0.00000E+00
    0.49880E-07         0.28648E-13         0.00000E+00
    0.49880E-07         0.26909E-13         0.00000E+00
    0.49880E-07         0.24924E-13         0.00000E+00
    0.49880E-07         0.22689E-13         0.00000E+00
    0.49880E-07         0.20204E-13         0.00000E+00
    0.49880E-07         0.17467E-13         0.00000E+00
    0.49880E-07         0.14478E-13         0.00000E+00
    0.49880E-07         0.11236E-13         0.00000E+00
    0.49880E-07         0.77408E-14         0.00000E+00
    0.49880E-07         0.39931E-14         0.00000E+00
    0.49880E-07         0.20561E-14         0.00000E+00
    0.49882E-07        -0.19379E-14         0.00000E+00
    0.49882E-07        -0.36877E-14         0.00000E+00
    0.49882E-07        -0.69390E-14         0.00000E+00
    0.49882E-07        -0.97098E-14         0.00000E+00
    0.49882E-07        -0.12030E-13         0.00000E+00
    0.49882E-07        -0.13931E-13         0.00000E+00
    0.49882E-07        -0.15440E-13         0.00000E+00
    0.49882E-07        -0.16587E-13         0.00000E+00
    0.49882E-07        -0.17399E-13         0.00000E+00
    0.49882E-07        -0.17903E-13         0.00000E+00
    0.49882E-07        -0.18126E-13         0.00000E+00
    0.49882E-07        -0.18093E-13         0.00000E+00
    0.49882E-07        -0.17828E-13         0.00000E+00
    0.49882E-07        -0.17356E-13         0.00000E+00
    0.49882E-07        -0.16699E-13         0.00000E+00
    0.49882E-07        -0.15880E-13         0.00000E+00
    0.49882E-07        -0.14920E-13         0.00000E+00
    0.49882E-07        -0.13841E-13         0.00000E+00
    0.49882E-07        -0.12660E-13         0.00000E+00
    0.49882E-07        -0.11398E-13         0.00000E+00
    0.49882E-07        -0.10073E-13         0.00000E+00
    0.49882E-07        -0.87015E-14         0.00000E+00
    0.49882E-07        -0.73003E-14         0.00000E+00
    0.49882E-07        -0.58851E-14         0.00000E+00
    0.49882E-07        -0.44707E-14         0.00000E+00
    0.49882E-07        -0.30711E-14         0.00000E+00
    0.49882E-07        -0.16998E-14         0.00000E+00
    0.49882E-07        -0.36933E-15         0.00000E+00
    0.49882E-07         0.90857E-15         0.00000E+00
    0.49882E-07         0.21228E-14         0.00000E+00
    0.49882E-07         0.32629E-14         0.00000E+00
    0.49882E-07         0.43194E-14         0.00000E+00
    0.49882E-07         0.52830E-14         0.00000E+00
    0.49882E-07         0.61456E-14         0.00000E+00
    0.49882E-07         0.68993E-14         0.00000E+00
    0.49882E-07         0.75371E-14         0.00000E+00
    0.49882E-07         0.80525E-14         0.00000E+00
    0.49882E-07         0.84396E-14         0.00000E+00
    0.49882E-07         0.86929E-14         0.00000E+00
    0.49882E-07         0.88075E-14         0.00000E+00
    0.49882E-07         0.87793E-14         0.00000E+00
    0.49882E-07         0.86043E-14         0.00000E+00
    0.49882E-07         0.82790E-14         0.00000E+00
    0.49882E-07         0.78007E-14         0.00000E+00
    0.49882E-07         0.71666E-14         0.00000E+00
    0.49882E-07         0.63746E-14         0.00000E+00
    0.49882E-07         0.54230E-14         0.00000E+00
    0.49882E-07         0.43103E-14         0.00000E+00
    0.49882E-07         0.30352E-14         0.00000E+00
    0.49882E-07         0.15971E-14         0.00000E+00
    0.49882E-07         0.83726E-15         0.00000E+00
    0.49884E-07        -0.29355E-14         0.00000E+00
    0.49884E-07        -0.56657E-14         0.00000E+00
    0.49884E-07        -0.10853E-13         0.00000E+00
    0.49884E-07        -0.15507E-13         0.00000E+00
    0.49884E-07        -0.19656E-13         0.00000E+00
    0.49884E-07        -0.23325E-13         0.00000E+00
    0.49884E-07        -0.26540E-13         0.00000E+00
    0.49884E-07        -0.29327E-13         0.00000E+00
    0.49884E-07        -0.31710E-13         0.00000E+00
    0.49884E-07        -0.33713E-13         0.00000E+00
    0.49884E-07        -0.35361E-13         0.00000E+00
    0.49884E-07        -0.36676E-13         0.00000E+00
    0.49884E-07        -0.37680E-13         0.00000E+00
    0.49884E-07        -0.38396E-13         0.00000E+00
    0.49884E-07        -0.38844E-13         0.00000E+00
    0.49884E-07        -0.39044E-13         0.00000E+00
    0.49884E-07        -0.39017E-13         0.00000E+00
    0.49884E-07        -0.38781E-13         0.00000E+00
    0.49884E-07        -0.38355E-13         0.00000E+00
    0.49884E-07        -0.37756E-13         0.00000E+00
    0.49884E-07        -0.37002E-13         0.00000E+00
    0.49884E-07        -0.36108E-13         0.00000E+00
    0.49884E-07        -0.35091E-13         0.00000E+00
    0.49884E-07        -0.33965E-13         0.00000E+00
    0.49884E-07        -0.32744E-13         0.00000E+00
    0.49884E-07        -0.31443E-13         0.00000E+00
    0.49884E-07        -0.30073E-13         0.00000E+00
    0.49884E-07        -0.28648E-13         0.00000E+00
    0.49884E-07        -0.27179E-13         0.00000E+00
    0.49884E-07        -0.25677E-13         0.00000E+00
    0.49884E-07        -0.24152E-13         0.00000E+00
    0.49884E-07        -0.22614E-13         0.00000E+00
    0.49884E-07        -0.21072E-13         0.00000E+00
    0.49884E-07        -0.19536E-13         0.00000E+00
    0.49884E-07        -0.18012E-13         0.00000E+00
    0.49884E-07        -0.16509E-13         0.00000E+00
    0.49884E-07        -0.15033E-13         0.00000E+00
    0.49884E-07        -0.13591E-13         0.00000E+00
    0.49884E-07        -0.12189E-13         0.00000E+00
    0.49884E-07        -0.10831E-13         0.00000E+00
    0.49884E-07        -0.95243E-14         0.00000E+00
    0.49884E-07        -0.82718E-14         0.00000E+00
    0.49884E-07        -0.70780E-14         0.00000E+00
    0.49884E-07        -0.59466E-14         0.00000E+00
    0.49884E-07        -0.48808E-14         0.00000E+00
    0.49884E-07        -0.38835E-14         0.00000E+00
    0.49884E-07        -0.29574E-14         0.00000E+00
    0.49884E-07        -0.21045E-14         0.00000E+00
    0.49884E-07        -0.13266E-14         0.00000E+00
    0.49884E-07        -0.62544E-15         0.00000E+00
    0.49884E-07        -0.29419E-15         0.00000E+00
    0.49886E-07        -0.38357E-14         0.00000E+00
    0.49886E-07        -0.74510E-14         0.00000E+00
    0.49886E-07        -0.14386E-13         0.00000E+00
    0.49886E-07        -0.20742E-13         0.00000E+00
    0.49886E-07        -0.26543E-13         0.00000E+00
    0.49886E-07        -0.31812E-13         0.00000E+00
    0.49886E-07        -0.36572E-13         0.00000E+00
    0.49886E-07        -0.40845E-13         0.00000E+00
    0.49886E-07        -0.44654E-13         0.00000E+00
    0.49886E-07        -0.48019E-13         0.00000E+00
    0.49886E-07        -0.50963E-13         0.00000E+00
    0.49886E-07        -0.53506E-13         0.00000E+00
    0.49886E-07        -0.55669E-13         0.00000E+00
    0.49886E-07        -0.57470E-13         0.00000E+00
    0.49886E-07        -0.58929E-13         0.00000E+00
    0.49886E-07        -0.60065E-13         0.00000E+00
    0.49886E-07        -0.60895E-13         0.00000E+00
    0.49886E-07        -0.61438E-13         0.00000E+00
    0.49886E-07        -0.61711E-13         0.00000E+00
    0.49886E-07        -0.61728E-13         0.00000E+00
    0.49886E-07        -0.61508E-13         0.00000E+00
    0.49886E-07        -0.61064E-13         0.00000E+00
    0.49886E-07        -0.60411E-13         0.00000E+00
    0.49886E-07        -0.59564E-13         0.00000E+00
    0.49886E-07        -0.58536E-13         0.00000E+00
    0.49886E-07        -0.57341E-13         0.00000E+00
    0.49886E-07        -0.55989E-13         0.00000E+00
    0.49886E-07        -0.54494E-13         0.00000E+00
    0.49886E-07        -0.52867E-13         0.00000E+00
    0.49886E-07        -0.51118E-13         0.00000E+00
    0.49886E-07        -0.49257E-13         0.00000E+00
    0.49886E-07        -0.47295E-13         0.00000E+00
    0.49886E-07        -0.45240E-13         0.00000E+00
    0.49886E-07        -0.43101E-13         0.00000E+00
    0.49886E-07        -0.40887E-13         0.00000E+00
    0.49886E-07        -0.38604E-13         0.00000E+00
    0.49886E-07        -0.36260E-13         0.00000E+00
    0.49886E-07        -0.33862E-13         0.00000E+00
    0.49886E-07        -0.31415E-13         0.00000E+00
    0.49886E-07        -0.28926E-13         0.00000E+00
    0.49886E-07        -0.26400E-13         0.00000E+00
    0.49886E-07        -0.23843E-13         0.00000E+00
    0.49886E-07        -0.21257E-13         0.00000E+00
    0.49886E-07        -0.18648E-13         0.00000E+00
    0.49886E-07        -0.16020E-13         0.00000E+00
    0.49886E-07        -0.13375E-13         0.00000E+00
    0.49886E-07        -0.10717E-13         0.00000E+00
    0.49886E-07        -0.80479E-14         0.00000E+00
    0.49886E-07        -0.53708E-14         0.00000E+00
    0.49886E-07        -0.26876E-14         0.00000E+00
    0.49886E-07        -0.13447E-14         0.00000E+00
    0.49888E-07        -0.46538E-14         0.00000E+00
    0.49888E-07        -0.90734E-14         0.00000E+00
    0.49888E-07        -0.17597E-13         0.00000E+00
    0.49888E-07        -0.25500E-13         0.00000E+00
    0.49888E-07        -0.32804E-13         0.00000E+00
    0.49888E-07        -0.39528E-13         0.00000E+00
    0.49888E-07        -0.45693E-13         0.00000E+00
    0.49888E-07        -0.51320E-13         0.00000E+00
    0.49888E-07        -0.56427E-13         0.00000E+00
    0.49888E-07        -0.61035E-13         0.00000E+00
    0.49888E-07        -0.65162E-13         0.00000E+00
    0.49888E-07        -0.68827E-13         0.00000E+00
    0.49888E-07        -0.72048E-13         0.00000E+00
    0.49888E-07        -0.74843E-13         0.00000E+00
    0.49888E-07        -0.77230E-13         0.00000E+00
    0.49888E-07        -0.79226E-13         0.00000E+00
    0.49888E-07        -0.80846E-13         0.00000E+00
    0.49888E-07        -0.82107E-13         0.00000E+00
    0.49888E-07        -0.83026E-13         0.00000E+00
    0.49888E-07        -0.83616E-13         0.00000E+00
    0.49888E-07        -0.83892E-13         0.00000E+00
    0.49888E-07        -0.83870E-13         0.00000E+00
    0.49888E-07        -0.83561E-13         0.00000E+00
    0.49888E-07        -0.82981E-13         0.00000E+00
    0.49888E-07        -0.82141E-13         0.00000E+00
    0.49888E-07        -0.81054E-13         0.00000E+00
    0.49888E-07        -0.79732E-13         0.00000E+00
    0.49888E-07        -0.78185E-13         0.00000E+00
    0.49888E-07        -0.76425E-13         0.00000E+00
    0.49888E-07        -0.74462E-13         0.00000E+00
    0.49888E-07        -0.72307E-13         0.00000E+00
    0.49888E-07        -0.69967E-13         0.00000E+00
    0.49888E-07        -0.67453E-13         0.00000E+00
    0.49888E-07        -0.64773E-13         0.00000E+00
    0.49888E-07        -0.61935E-13         0.00000E+00
    0.49888E-07        -0.58947E-13         0.00000E+00
    0.49888E-07        -0.55815E-13         0.00000E+00
    0.49888E-07        -0.52547E-13         0.00000E+00
    0.49888E-07        -0.49149E-13         0.00000E+00
    0.49888E-07        -0.45626E-13         0.00000E+00
    0.49888E-07        -0.41985E-13         0.00000E+00
    0.49888E-07        -0.38230E-13         0.00000E+00
    0.49888E-07        -0.34367E-13         0.00000E+00
    0.49888E-07        -0.30399E-13         0.00000E+00
    0.49888E-07        -0.26331E-13         0.00000E+00
    0.49888E-07        -0.22166E-13         0.00000E+00
    0.49888E-07        -0.17908E-13         0.00000E+00
    0.49888E-07        -0.13560E-13         0.00000E+00
    0.49888E-07        -0.91237E-14         0.00000E+00
    0.49888E-07        -0.46023E-14         0.00000E+00
    0.49888E-07        -0.23206E-14         0.00000E+00
    0.49891E-07        -0.54024E-14         0.00000E+00
    0.49891E-07        -0.10558E-13         0.00000E+00
    0.49891E-07        -0.20535E-13         0.00000E+00
    0.49891E-07        -0.29853E-13         0.00000E+00
    0.49891E-07        -0.38530E-13         0.00000E+00
    0.49891E-07        -0.46586E-13         0.00000E+00
    0.49891E-07        -0.54037E-13         0.00000E+00
    0.49891E-07        -0.60901E-13         0.00000E+00
    0.49891E-07        -0.67198E-13         0.00000E+00
    0.49891E-07        -0.72943E-13         0.00000E+00
    0.49891E-07        -0.78154E-13         0.00000E+00
    0.49891E-07        -0.82848E-13         0.00000E+00
    0.49891E-07        -0.87041E-13         0.00000E+00
    0.49891E-07        -0.90749E-13         0.00000E+00
    0.49891E-07        -0.93989E-13         0.00000E+00
    0.49891E-07        -0.96775E-13         0.00000E+00
    0.49891E-07        -0.99123E-13         0.00000E+00
    0.49891E-07        -0.10105E-12         0.00000E+00
    0.49891E-07        -0.10256E-12         0.00000E+00
    0.49891E-07        -0.10368E-12         0.00000E+00
    0.49891E-07        -0.10442E-12         0.00000E+00
    0.49891E-07        -0.10479E-12         0.00000E+00
    0.49891E-07        -0.10481E-12         0.00000E+00
    0.49891E-07        -0.10448E-12         0.00000E+00
    0.49891E-07        -0.10382E-12         0.00000E+00
    0.49891E-07        -0.10284E-12         0.00000E+00
    0.49891E-07        -0.10156E-12         0.00000E+00
    0.49891E-07        -0.99973E-13         0.00000E+00
    0.49891E-07        -0.98100E-13         0.00000E+00
    0.49891E-07        -0.95950E-13         0.00000E+00
    0.49891E-07        -0.93532E-13         0.00000E+00
    0.49891E-07        -0.90855E-13         0.00000E+00
    0.49891E-07        -0.87928E-13         0.00000E+00
    0.49891E-07        -0.84758E-13         0.00000E+00
    0.49891E-07        -0.81354E-13         0.00000E+00
    0.49891E-07        -0.77724E-13         0.00000E+00
    0.49891E-07        -0.73874E-13         0.00000E+00
    0.49891E-07        -0.69811E-13         0.00000E+00
    0.49891E-07        -0.65541E-13         0.00000E+00
    0.49891E-07        -0.61071E-13         0.00000E+00
    0.49891E-07        -0.56405E-13         0.00000E+00
    0.49891E-07        -0.51550E-13         0.00000E+00
    0.49891E-07        -0.46510E-13         0.00000E+00
    0.49891E-07        -0.41289E-13         0.00000E+00
    0.49891E-07        -0.35892E-13         0.00000E+00
    0.49891E-07        -0.30322E-13         0.00000E+00
    0.49891E-07        -0.24583E-13         0.00000E+00
    0.49891E-07        -0.18678E-13         0.00000E+00
    0.49891E-07        -0.12610E-13         0.00000E+00
    0.49891E-07        -0.63822E-14         0.00000E+00
    0.49891E-07        -0.32282E-14         0.00000E+00
    0.49893E-07        -0.60922E-14         0.00000E+00
    0.49893E-07        -0.11926E-13         0.00000E+00
    0.49893E-07        -0.23241E-13         0.00000E+00
    0.49893E-07        -0.33861E-13         0.00000E+00
    0.49893E-07        -0.43802E-13         0.00000E+00
    0.49893E-07        -0.53081E-13         0.00000E+00
    0.49893E-07        -0.61715E-13         0.00000E+00
    0.49893E-07        -0.69718E-13         0.00000E+00
    0.49893E-07        -0.77108E-13         0.00000E+00
    0.49893E-07        -0.83899E-13         0.00000E+00
    0.49893E-07        -0.90107E-13         0.00000E+00
    0.49893E-07        -0.95748E-13         0.00000E+00
    0.49893E-07        -0.10084E-12         0.00000E+00
    0.49893E-07        -0.10538E-12         0.00000E+00
    0.49893E-07        -0.10941E-12         0.00000E+00
    0.49893E-07        -0.11293E-12         0.00000E+00
    0.49893E-07        -0.11595E-12         0.00000E+00
    0.49893E-07        -0.11849E-12         0.00000E+00
    0.49893E-07        -0.12055E-12         0.00000E+00
    0.49893E-07        -0.12217E-12         0.00000E+00
    0.49893E-07        -0.12334E-12         0.00000E+00
    0.49893E-07        -0.12407E-12         0.00000E+00
    0.49893E-07        -0.12439E-12         0.00000E+00
    0.49893E-07        -0.12430E-12         0.00000E+00
    0.49893E-07        -0.12382E-12         0.00000E+00
    0.49893E-07        -0.12294E-12         0.00000E+00
    0.49893E-07        -0.12169E-12         0.00000E+00
    0.49893E-07        -0.12008E-12         0.00000E+00
    0.49893E-07        -0.11811E-12         0.00000E+00
    0.49893E-07        -0.11579E-12         0.00000E+00
    0.49893E-07        -0.11314E-12         0.00000E+00
    0.49893E-07        -0.11016E-12         0.00000E+00
    0.49893E-07        -0.10686E-12         0.00000E+00
    0.49893E-07        -0.10324E-12         0.00000E+00
    0.49893E-07        -0.99320E-13         0.00000E+00
    0.49893E-07        -0.95102E-13         0.00000E+00
    0.49893E-07        -0.90594E-13         0.00000E+00
    0.49893E-07        -0.85801E-13         0.00000E+00
    0.49893E-07        -0.80730E-13         0.00000E+00
    0.49893E-07        -0.75388E-13         0.00000E+00
    0.49893E-07        -0.69778E-13         0.00000E+00
    0.49893E-07        -0.63907E-13         0.00000E+00
    0.49893E-07        -0.57780E-13         0.00000E+00
    0.49893E-07        -0.51400E-13         0.00000E+00
    0.49893E-07        -0.44772E-13         0.00000E+00
    0.49893E-07        -0.37900E-13         0.00000E+00
    0.49893E-07        -0.30788E-13         0.00000E+00
    0.49893E-07        -0.23439E-13         0.00000E+00
    0.49893E-07        -0.15855E-13         0.00000E+00
    0.49893E-07        -0.80389E-14         0.00000E+00
    0.49893E-07        -0.40734E-14         0.00000E+00
    0.49896E-07        -0.67315E-14         0.00000E+00
    0.49896E-07        -0.13193E-13         0.00000E+00
    0.49896E-07        -0.25747E-13         0.00000E+00
    0.49896E-07        -0.37572E-13         0.00000E+00
    0.49896E-07        -0.48683E-13         0.00000E+00
    0.49896E-07        -0.59094E-13         0.00000E+00
    0.49896E-07        -0.68820E-13         0.00000E+00
    0.49896E-07        -0.77876E-13         0.00000E+00
    0.49896E-07        -0.86275E-13         0.00000E+00
    0.49896E-07        -0.94033E-13         0.00000E+00
    0.49896E-07        -0.10116E-12         0.00000E+00
    0.49896E-07        -0.10768E-12         0.00000E+00
    0.49896E-07        -0.11359E-12         0.00000E+00
    0.49896E-07        -0.11892E-12         0.00000E+00
    0.49896E-07        -0.12367E-12         0.00000E+00
    0.49896E-07        -0.12786E-12         0.00000E+00
    0.49896E-07        -0.13150E-12         0.00000E+00
    0.49896E-07        -0.13461E-12         0.00000E+00
    0.49896E-07        -0.13719E-12         0.00000E+00
    0.49896E-07        -0.13926E-12         0.00000E+00
    0.49896E-07        -0.14083E-12         0.00000E+00
    0.49896E-07        -0.14191E-12         0.00000E+00
    0.49896E-07        -0.14251E-12         0.00000E+00
    0.49896E-07        -0.14264E-12         0.00000E+00
    0.49896E-07        -0.14232E-12         0.00000E+00
    0.49896E-07        -0.14155E-12         0.00000E+00
    0.49896E-07        -0.14034E-12         0.00000E+00
    0.49896E-07        -0.13870E-12         0.00000E+00
    0.49896E-07        -0.13665E-12         0.00000E+00
    0.49896E-07        -0.13418E-12         0.00000E+00
    0.49896E-07        -0.13131E-12         0.00000E+00
    0.49896E-07        -0.12805E-12         0.00000E+00
    0.49896E-07        -0.12441E-12         0.00000E+00
    0.49896E-07        -0.12038E-12         0.00000E+00
    0.49896E-07        -0.11599E-12         0.00000E+00
    0.49896E-07        -0.11123E-12         0.00000E+00
    0.49896E-07        -0.10611E-12         0.00000E+00
    0.49896E-07        -0.10065E-12         0.00000E+00
    0.49896E-07        -0.94839E-13         0.00000E+00
    0.49896E-07        -0.88690E-13         0.00000E+00
    0.49896E-07        -0.82207E-13         0.00000E+00
    0.49896E-07        -0.75396E-13         0.00000E+00
    0.49896E-07        -0.68261E-13         0.00000E+00
    0.49896E-07        -0.60806E-13         0.00000E+00
    0.49896E-07        -0.53037E-13         0.00000E+00
    0.49896E-07        -0.44956E-13         0.00000E+00
    0.49896E-07        -0.36567E-13         0.00000E+00
    0.49896E-07        -0.27873E-13         0.00000E+00
    0.49896E-07        -0.18878E-13         0.00000E+00
    0.49896E-07        -0.95831E-14         0.00000E+00
    0.49896E-07        -0.48614E-14         0.00000E+00
    0.49899E-07        -0.73273E-14         0.00000E+00
    0.49899E-07        -0.14373E-13         0.00000E+00
    0.49899E-07        -0.28081E-13         0.00000E+00
    0.49899E-07        -0.41027E-13         0.00000E+00
    0.49899E-07        -0.53225E-13         0.00000E+00
    0.49899E-07        -0.64687E-13         0.00000E+00
    0.49899E-07        -0.75428E-13         0.00000E+00
    0.49899E-07        -0.85461E-13         0.00000E+00
    0.49899E-07        -0.94797E-13         0.00000E+00
    0.49899E-07        -0.10345E-12         0.00000E+00
    0.49899E-07        -0.11143E-12         0.00000E+00
    0.49899E-07        -0.11876E-12         0.00000E+00
    0.49899E-07        -0.12544E-12         0.00000E+00
    0.49899E-07        -0.13149E-12         0.00000E+00
    0.49899E-07        -0.13691E-12         0.00000E+00
    0.49899E-07        -0.14173E-12         0.00000E+00
    0.49899E-07        -0.14595E-12         0.00000E+00
    0.49899E-07        -0.14958E-12         0.00000E+00
    0.49899E-07        -0.15264E-12         0.00000E+00
    0.49899E-07        -0.15514E-12         0.00000E+00
    0.49899E-07        -0.15708E-12         0.00000E+00
    0.49899E-07        -0.15847E-12         0.00000E+00
    0.49899E-07        -0.15934E-12         0.00000E+00
    0.49899E-07        -0.15968E-12         0.00000E+00
    0.49899E-07        -0.15951E-12         0.00000E+00
    0.49899E-07        -0.15883E-12         0.00000E+00
    0.49899E-07        -0.15766E-12         0.00000E+00
    0.49899E-07        -0.15600E-12         0.00000E+00
    0.49899E-07        -0.15387E-12         0.00000E+00
    0.49899E-07        -0.15127E-12         0.00000E+00
    0.49899E-07        -0.14820E-12         0.00000E+00
    0.49899E-07        -0.14469E-12         0.00000E+00
    0.49899E-07        -0.14072E-12         0.00000E+00
    0.49899E-07        -0.13632E-12         0.00000E+00
    0.49899E-07        -0.13149E-12         0.00000E+00
    0.49899E-07        -0.12623E-12         0.00000E+00
    0.49899E-07        -0.12056E-12         0.00000E+00
    0.49899E-07        -0.11447E-12         0.00000E+00
    0.49899E-07        -0.10797E-12         0.00000E+00
    0.49899E-07        -0.10108E-12         0.00000E+00
    0.49899E-07        -0.93784E-13         0.00000E+00
    0.49899E-07        -0.86099E-13         0.00000E+00
    0.49899E-07        -0.78028E-13         0.00000E+00
    0.49899E-07        -0.69574E-13         0.00000E+00
    0.49899E-07        -0.60742E-13         0.00000E+00
    0.49899E-07        -0.51535E-13         0.00000E+00
    0.49899E-07        -0.41957E-13         0.00000E+00
    0.49899E-07        -0.32011E-13         0.00000E+00
    0.49899E-07        -0.21699E-13         0.00000E+00
    0.49899E-07        -0.11025E-13         0.00000E+00
    0.49899E-07        -0.55972E-14         0.00000E+00
    0.49902E-07        -0.78850E-14         0.00000E+00
    0.49902E-07        -0.15478E-13         0.00000E+00
    0.49902E-07        -0.30264E-13         0.00000E+00
    0.49902E-07        -0.44257E-13         0.00000E+00
    0.49902E-07        -0.57470E-13         0.00000E+00
    0.49902E-07        -0.69913E-13         0.00000E+00
    0.49902E-07        -0.81600E-13         0.00000E+00
    0.49902E-07        -0.92543E-13         0.00000E+00
    0.49902E-07        -0.10275E-12         0.00000E+00
    0.49902E-07        -0.11224E-12         0.00000E+00
    0.49902E-07        -0.12102E-12         0.00000E+00
    0.49902E-07        -0.12910E-12         0.00000E+00
    0.49902E-07        -0.13649E-12         0.00000E+00
    0.49902E-07        -0.14321E-12         0.00000E+00
    0.49902E-07        -0.14926E-12         0.00000E+00
    0.49902E-07        -0.15466E-12         0.00000E+00
    0.49902E-07        -0.15942E-12         0.00000E+00
    0.49902E-07        -0.16354E-12         0.00000E+00
    0.49902E-07        -0.16704E-12         0.00000E+00
    0.49902E-07        -0.16993E-12         0.00000E+00
    0.49902E-07        -0.17221E-12         0.00000E+00
    0.49902E-07        -0.17391E-12         0.00000E+00
    0.49902E-07        -0.17502E-12         0.00000E+00
    0.49902E-07        -0.17555E-12         0.00000E+00
    0.49902E-07        -0.17552E-12         0.00000E+00
    0.49902E-07        -0.17493E-12         0.00000E+00
    0.49902E-07        -0.17380E-12         0.00000E+00
    0.49902E-07        -0.17213E-12         0.00000E+00
    0.49902E-07        -0.16992E-12         0.00000E+00
    0.49902E-07        -0.16719E-12         0.00000E+00
    0.49902E-07        -0.16395E-12         0.00000E+00
    0.49902E-07        -0.16019E-12         0.00000E+00
    0.49902E-07        -0.15594E-12         0.00000E+00
    0.49902E-07        -0.15119E-12         0.00000E+00
    0.49902E-07        -0.14595E-12         0.00000E+00
    0.49902E-07        -0.14023E-12         0.00000E+00
    0.49902E-07        -0.13403E-12         0.00000E+00
    0.49902E-07        -0.12736E-12         0.00000E+00
    0.49902E-07        -0.12023E-12         0.00000E+00
    0.49902E-07        -0.11264E-12         0.00000E+00
    0.49902E-07        -0.10459E-12         0.00000E+00
    0.49902E-07        -0.96090E-13         0.00000E+00
    0.49902E-07        -0.87146E-13         0.00000E+00
    0.49902E-07        -0.77761E-13         0.00000E+00
    0.49902E-07        -0.67938E-13         0.00000E+00
    0.49902E-07        -0.57680E-13         0.00000E+00
    0.49902E-07        -0.46992E-13         0.00000E+00
    0.49902E-07        -0.35876E-13         0.00000E+00
    0.49902E-07        -0.24335E-13         0.00000E+00
    0.49902E-07        -0.12372E-13         0.00000E+00
    0.49902E-07        -0.62850E-14         0.00000E+00
    0.49905E-07        -0.84089E-14         0.00000E+00
    0.49905E-07        -0.16515E-13         0.00000E+00
    0.49905E-07        -0.32314E-13         0.00000E+00
    0.49905E-07        -0.47289E-13         0.00000E+00
    0.49905E-07        -0.61452E-13         0.00000E+00
    0.49905E-07        -0.74814E-13         0.00000E+00
    0.49905E-07        -0.87385E-13         0.00000E+00
    0.49905E-07        -0.99178E-13         0.00000E+00
    0.49905E-07        -0.11020E-12         0.00000E+00
    0.49905E-07        -0.12047E-12         0.00000E+00
    0.49905E-07        -0.12999E-12         0.00000E+00
    0.49905E-07        -0.13877E-12         0.00000E+00
    0.49905E-07        -0.14683E-12         0.00000E+00
    0.49905E-07        -0.15417E-12         0.00000E+00
    0.49905E-07        -0.16081E-12         0.00000E+00
    0.49905E-07        -0.16675E-12         0.00000E+00
    0.49905E-07        -0.17201E-12         0.00000E+00
    0.49905E-07        -0.17658E-12         0.00000E+00
    0.49905E-07        -0.18050E-12         0.00000E+00
    0.49905E-07        -0.18375E-12         0.00000E+00
    0.49905E-07        -0.18636E-12         0.00000E+00
    0.49905E-07        -0.18833E-12         0.00000E+00
    0.49905E-07        -0.18966E-12         0.00000E+00
    0.49905E-07        -0.19038E-12         0.00000E+00
    0.49905E-07        -0.19048E-12         0.00000E+00
    0.49905E-07        -0.18998E-12         0.00000E+00
    0.49905E-07        -0.18888E-12         0.00000E+00
    0.49905E-07        -0.18719E-12         0.00000E+00
    0.49905E-07        -0.18492E-12         0.00000E+00
    0.49905E-07        -0.18207E-12         0.00000E+00
    0.49905E-07        -0.17866E-12         0.00000E+00
    0.49905E-07        -0.17468E-12         0.00000E+00
    0.49905E-07        -0.17015E-12         0.00000E+00
    0.49905E-07        -0.16508E-12         0.00000E+00
    0.49905E-07        -0.15946E-12         0.00000E+00
    0.49905E-07        -0.15330E-12         0.00000E+00
    0.49905E-07        -0.14662E-12         0.00000E+00
    0.49905E-07        -0.13941E-12         0.00000E+00
    0.49905E-07        -0.13168E-12         0.00000E+00
    0.49905E-07        -0.12344E-12         0.00000E+00
    0.49905E-07        -0.11469E-12         0.00000E+00
    0.49905E-07        -0.10543E-12         0.00000E+00
    0.49905E-07        -0.95672E-13         0.00000E+00
    0.49905E-07        -0.85416E-13         0.00000E+00
    0.49905E-07        -0.74667E-13         0.00000E+00
    0.49905E-07        -0.63428E-13         0.00000E+00
    0.49905E-07        -0.51703E-13         0.00000E+00
    0.49905E-07        -0.39493E-13         0.00000E+00
    0.49905E-07        -0.26802E-13         0.00000E+00
    0.49905E-07        -0.13633E-13         0.00000E+00
    0.49905E-07        -0.69287E-14         0.00000E+00
    0.49908E-07        -0.89024E-14         0.00000E+00
    0.49908E-07        -0.17492E-13         0.00000E+00
    0.49908E-07        -0.34243E-13         0.00000E+00
    0.49908E-07        -0.50141E-13         0.00000E+00
    0.49908E-07        -0.65197E-13         0.00000E+00
    0.49908E-07        -0.79421E-13         0.00000E+00
    0.49908E-07        -0.92823E-13         0.00000E+00
    0.49908E-07        -0.10541E-12         0.00000E+00
    0.49908E-07        -0.11720E-12         0.00000E+00
    0.49908E-07        -0.12820E-12         0.00000E+00
    0.49908E-07        -0.13841E-12         0.00000E+00
    0.49908E-07        -0.14785E-12         0.00000E+00
    0.49908E-07        -0.15653E-12         0.00000E+00
    0.49908E-07        -0.16446E-12         0.00000E+00
    0.49908E-07        -0.17164E-12         0.00000E+00
    0.49908E-07        -0.17808E-12         0.00000E+00
    0.49908E-07        -0.18381E-12         0.00000E+00
    0.49908E-07        -0.18881E-12         0.00000E+00
    0.49908E-07        -0.19311E-12         0.00000E+00
    0.49908E-07        -0.19670E-12         0.00000E+00
    0.49908E-07        -0.19961E-12         0.00000E+00
    0.49908E-07        -0.20183E-12         0.00000E+00
    0.49908E-07        -0.20338E-12         0.00000E+00
    0.49908E-07        -0.20427E-12         0.00000E+00
    0.49908E-07        -0.20449E-12         0.00000E+00
    0.49908E-07        -0.20406E-12         0.00000E+00
    0.49908E-07        -0.20299E-12         0.00000E+00
    0.49908E-07        -0.20129E-12         0.00000E+00
    0.49908E-07        -0.19895E-12         0.00000E+00
    0.49908E-07        -0.19600E-12         0.00000E+00
    0.49908E-07        -0.19242E-12         0.00000E+00
    0.49908E-07        -0.18824E-12         0.00000E+00
    0.49908E-07        -0.18346E-12         0.00000E+00
    0.49908E-07        -0.17807E-12         0.00000E+00
    0.49908E-07        -0.17210E-12         0.00000E+00
    0.49908E-07        -0.16554E-12         0.00000E+00
    0.49908E-07        -0.15840E-12         0.00000E+00
    0.49908E-07        -0.15069E-12         0.00000E+00
    0.49908E-07        -0.14240E-12         0.00000E+00
    0.49908E-07        -0.13355E-12         0.00000E+00
    0.49908E-07        -0.12414E-12         0.00000E+00
    0.49908E-07        -0.11417E-12         0.00000E+00
    0.49908E-07        -0.10365E-12         0.00000E+00
    0.49908E-07        -0.92584E-13         0.00000E+00
    0.49908E-07        -0.80968E-13         0.00000E+00
    0.49908E-07        -0.68810E-13         0.00000E+00
    0.49908E-07        -0.56113E-13         0.00000E+00
    0.49908E-07        -0.42880E-13         0.00000E+00
    0.49908E-07        -0.29112E-13         0.00000E+00
    0.49908E-07        -0.14814E-13         0.00000E+00
    0.49908E-07        -0.75316E-14         0.00000E+00
    0.49911E-07        -0.93682E-14         0.00000E+00
    0.49911E-07        -0.18414E-13         0.00000E+00
    0.49911E-07        -0.36062E-13         0.00000E+00
    0.49911E-07        -0.52830E-13         0.00000E+00
    0.49911E-07        -0.68727E-13         0.00000E+00
    0.49911E-07        -0.83761E-13         0.00000E+00
    0.49911E-07        -0.97943E-13         0.00000E+00
    0.49911E-07        -0.11128E-12         0.00000E+00
    0.49911E-07        -0.12379E-12         0.00000E+00
    0.49911E-07        -0.13547E-12         0.00000E+00
    0.49911E-07        -0.14633E-12         0.00000E+00
    0.49911E-07        -0.15639E-12         0.00000E+00
    0.49911E-07        -0.16565E-12         0.00000E+00
    0.49911E-07        -0.17412E-12         0.00000E+00
    0.49911E-07        -0.18181E-12         0.00000E+00
    0.49911E-07        -0.18873E-12         0.00000E+00
    0.49911E-07        -0.19489E-12         0.00000E+00
    0.49911E-07        -0.20029E-12         0.00000E+00
    0.49911E-07        -0.20494E-12         0.00000E+00
    0.49911E-07        -0.20886E-12         0.00000E+00
    0.49911E-07        -0.21204E-12         0.00000E+00
    0.49911E-07        -0.21451E-12         0.00000E+00
    0.49911E-07        -0.21625E-12         0.00000E+00
    0.49911E-07        -0.21729E-12         0.00000E+00
    0.49911E-07        -0.21763E-12         0.00000E+00
    0.49911E-07        -0.21727E-12         0.00000E+00
    0.49911E-07        -0.21623E-12         0.00000E+00
    0.49911E-07        -0.21451E-12         0.00000E+00
    0.49911E-07        -0.21211E-12         0.00000E+00
    0.49911E-07        -0.20905E-12         0.00000E+00
    0.49911E-07        -0.20533E-12         0.00000E+00
    0.49911E-07        -0.20095E-12         0.00000E+00
    0.49911E-07        -0.19593E-12         0.00000E+00
    0.49911E-07        -0.19026E-12         0.00000E+00
    0.49911E-07        -0.18395E-12         0.00000E+00
    0.49911E-07        -0.17701E-12         0.00000E+00
    0.49911E-07        -0.16945E-12         0.00000E+00
    0.49911E-07        -0.16126E-12         0.00000E+00
    0.49911E-07        -0.15245E-12         0.00000E+00
    0.49911E-07        -0.14303E-12         0.00000E+00
    0.49911E-07        -0.13300E-12         0.00000E+00
    0.49911E-07        -0.12237E-12         0.00000E+00
    0.49911E-07        -0.11113E-12         0.00000E+00
    0.49911E-07        -0.99300E-13         0.00000E+00
    0.49911E-07        -0.86873E-13         0.00000E+00
    0.49911E-07        -0.73854E-13         0.00000E+00
    0.49911E-07        -0.60247E-13         0.00000E+00
    0.49911E-07        -0.46054E-13         0.00000E+00
    0.49911E-07        -0.31277E-13         0.00000E+00
    0.49911E-07        -0.15920E-13         0.00000E+00
    0.49911E-07        -0.80966E-14         0.00000E+00
    0.49914E-07        -0.98084E-14         0.00000E+00
    0.49914E-07        -0.19285E-13         0.00000E+00
    0.49914E-07        -0.37781E-13         0.00000E+00
    0.49914E-07        -0.55369E-13         0.00000E+00
    0.49914E-07        -0.72058E-13         0.00000E+00
    0.49914E-07        -0.87856E-13         0.00000E+00
    0.49914E-07        -0.10277E-12         0.00000E+00
    0.49914E-07        -0.11682E-12         0.00000E+00
    0.49914E-07        -0.12999E-12         0.00000E+00
    0.49914E-07        -0.14232E-12         0.00000E+00
    0.49914E-07        -0.15379E-12         0.00000E+00
    0.49914E-07        -0.16443E-12         0.00000E+00
    0.49914E-07        -0.17423E-12         0.00000E+00
    0.49914E-07        -0.18322E-12         0.00000E+00
    0.49914E-07        -0.19138E-12         0.00000E+00
    0.49914E-07        -0.19875E-12         0.00000E+00
    0.49914E-07        -0.20531E-12         0.00000E+00
    0.49914E-07        -0.21108E-12         0.00000E+00
    0.49914E-07        -0.21607E-12         0.00000E+00
    0.49914E-07        -0.22028E-12         0.00000E+00
    0.49914E-07        -0.22373E-12         0.00000E+00
    0.49914E-07        -0.22641E-12         0.00000E+00
    0.49914E-07        -0.22834E-12         0.00000E+00
    0.49914E-07        -0.22952E-12         0.00000E+00
    0.49914E-07        -0.22997E-12         0.00000E+00
    0.49914E-07        -0.22967E-12         0.00000E+00
    0.49914E-07        -0.22866E-12         0.00000E+00
    0.49914E-07        -0.22692E-12         0.00000E+00
    0.49914E-07        -0.22446E-12         0.00000E+00
    0.49915E-07        -0.22130E-12         0.00000E+00
    0.49915E-07        -0.21744E-12         0.00000E+00
    0.49915E-07        -0.21288E-12         0.00000E+00
    0.49915E-07        -0.20763E-12         0.00000E+00
    0.49915E-07        -0.20169E-12         0.00000E+00
    0.49915E-07        -0.19507E-12         0.00000E+00
    0.49915E-07        -0.18777E-12         0.00000E+00
    0.49915E-07        -0.17980E-12         0.00000E+00
    0.49915E-07        -0.17117E-12         0.00000E+00
    0.49915E-07        -0.16187E-12         0.00000E+00
    0.49915E-07        -0.15192E-12         0.00000E+00
    0.49915E-07        -0.14131E-12         0.00000E+00
    0.49915E-07        -0.13005E-12         0.00000E+00
    0.49915E-07        -0.11815E-12         0.00000E+00
    0.49915E-07        -0.10560E-12         0.00000E+00
    0.49915E-07        -0.92409E-13         0.00000E+00
    0.49915E-07        -0.78583E-13         0.00000E+00
    0.49915E-07        -0.64122E-13         0.00000E+00
    0.49915E-07        -0.49029E-13         0.00000E+00
    0.49915E-07        -0.33307E-13         0.00000E+00
    0.49915E-07        -0.16958E-13         0.00000E+00
    0.49915E-07        -0.86263E-14         0.00000E+00
    0.49918E-07        -0.10225E-13         0.00000E+00
    0.49918E-07        -0.20108E-13         0.00000E+00
    0.49918E-07        -0.39405E-13         0.00000E+00
    0.49918E-07        -0.57767E-13         0.00000E+00
    0.49918E-07        -0.75203E-13         0.00000E+00
    0.49918E-07        -0.91721E-13         0.00000E+00
    0.49918E-07        -0.10733E-12         0.00000E+00
    0.49918E-07        -0.12203E-12         0.00000E+00
    0.49918E-07        -0.13585E-12         0.00000E+00
    0.49918E-07        -0.14877E-12         0.00000E+00
    0.49918E-07        -0.16082E-12         0.00000E+00
    0.49918E-07        -0.17200E-12         0.00000E+00
    0.49918E-07        -0.18232E-12         0.00000E+00
    0.49918E-07        -0.19178E-12         0.00000E+00
    0.49918E-07        -0.20039E-12         0.00000E+00
    0.49918E-07        -0.20817E-12         0.00000E+00
    0.49918E-07        -0.21511E-12         0.00000E+00
    0.49918E-07        -0.22123E-12         0.00000E+00
    0.49918E-07        -0.22653E-12         0.00000E+00
    0.49918E-07        -0.23103E-12         0.00000E+00
    0.49918E-07        -0.23471E-12         0.00000E+00
    0.49918E-07        -0.23760E-12         0.00000E+00
    0.49918E-07        -0.23970E-12         0.00000E+00
    0.49918E-07        -0.24102E-12         0.00000E+00
    0.49918E-07        -0.24156E-12         0.00000E+00
    0.49918E-07        -0.24132E-12         0.00000E+00
    0.49918E-07        -0.24033E-12         0.00000E+00
    0.49918E-07        -0.23857E-12         0.00000E+00
    0.49918E-07        -0.23606E-12         0.00000E+00
    0.49918E-07        -0.23281E-12         0.00000E+00
    0.49918E-07        -0.22881E-12         0.00000E+00
    0.49918E-07        -0.22407E-12         0.00000E+00
    0.49918E-07        -0.21861E-12         0.00000E+00
    0.49918E-07        -0.21241E-12         0.00000E+00
    0.49918E-07        -0.20550E-12         0.00000E+00
    0.49918E-07        -0.19787E-12         0.00000E+00
    0.49918E-07        -0.18952E-12         0.00000E+00
    0.49918E-07        -0.18047E-12         0.00000E+00
    0.49918E-07        -0.17071E-12         0.00000E+00
    0.49918E-07        -0.16026E-12         0.00000E+00
    0.49918E-07        -0.14910E-12         0.00000E+00
    0.49918E-07        -0.13726E-12         0.00000E+00
    0.49918E-07        -0.12472E-12         0.00000E+00
    0.49918E-07        -0.11150E-12         0.00000E+00
    0.49918E-07        -0.97600E-13         0.00000E+00
    0.49918E-07        -0.83017E-13         0.00000E+00
    0.49918E-07        -0.67756E-13         0.00000E+00
    0.49918E-07        -0.51819E-13         0.00000E+00
    0.49918E-07        -0.35210E-13         0.00000E+00
    0.49918E-07        -0.17930E-13         0.00000E+00
    0.49918E-07        -0.91229E-14         0.00000E+00
    0.49921E-07        -0.10618E-13         0.00000E+00
    0.49921E-07        -0.20886E-13         0.00000E+00
    0.49921E-07        -0.40939E-13         0.00000E+00
    0.49921E-07        -0.60032E-13         0.00000E+00
    0.49921E-07        -0.78173E-13         0.00000E+00
    0.49921E-07        -0.95369E-13         0.00000E+00
    0.49921E-07        -0.11163E-12         0.00000E+00
    0.49921E-07        -0.12696E-12         0.00000E+00
    0.49921E-07        -0.14137E-12         0.00000E+00
    0.49921E-07        -0.15486E-12         0.00000E+00
    0.49921E-07        -0.16745E-12         0.00000E+00
    0.49921E-07        -0.17914E-12         0.00000E+00
    0.49921E-07        -0.18993E-12         0.00000E+00
    0.49921E-07        -0.19985E-12         0.00000E+00
    0.49921E-07        -0.20888E-12         0.00000E+00
    0.49921E-07        -0.21704E-12         0.00000E+00
    0.49921E-07        -0.22434E-12         0.00000E+00
    0.49921E-07        -0.23079E-12         0.00000E+00
    0.49921E-07        -0.23638E-12         0.00000E+00
    0.49921E-07        -0.24113E-12         0.00000E+00
    0.49921E-07        -0.24504E-12         0.00000E+00
    0.49921E-07        -0.24812E-12         0.00000E+00
    0.49921E-07        -0.25038E-12         0.00000E+00
    0.49921E-07        -0.25182E-12         0.00000E+00
    0.49921E-07        -0.25245E-12         0.00000E+00
    0.49921E-07        -0.25227E-12         0.00000E+00
    0.49921E-07        -0.25129E-12         0.00000E+00
    0.49921E-07        -0.24952E-12         0.00000E+00
    0.49921E-07        -0.24695E-12         0.00000E+00
    0.49921E-07        -0.24361E-12         0.00000E+00
    0.49921E-07        -0.23948E-12         0.00000E+00
    0.49921E-07        -0.23458E-12         0.00000E+00
    0.49921E-07        -0.22891E-12         0.00000E+00
    0.49921E-07        -0.22248E-12         0.00000E+00
    0.49921E-07        -0.21529E-12         0.00000E+00
    0.49921E-07        -0.20734E-12         0.00000E+00
    0.49921E-07        -0.19864E-12         0.00000E+00
    0.49921E-07        -0.18919E-12         0.00000E+00
    0.49921E-07        -0.17900E-12         0.00000E+00
    0.49921E-07        -0.16808E-12         0.00000E+00
    0.49921E-07        -0.15641E-12         0.00000E+00
    0.49921E-07        -0.14402E-12         0.00000E+00
    0.49921E-07        -0.13089E-12         0.00000E+00
    0.49921E-07        -0.11704E-12         0.00000E+00
    0.49921E-07        -0.10247E-12         0.00000E+00
    0.49921E-07        -0.87174E-13         0.00000E+00
    0.49921E-07        -0.71162E-13         0.00000E+00
    0.49921E-07        -0.54435E-13         0.00000E+00
    0.49921E-07        -0.36994E-13         0.00000E+00
    0.49921E-07        -0.18842E-13         0.00000E+00
    0.49921E-07        -0.95884E-14         0.00000E+00
    0.49925E-07        -0.10990E-13         0.00000E+00
    0.49925E-07        -0.21621E-13         0.00000E+00
    0.49925E-07        -0.42388E-13         0.00000E+00
    0.49925E-07        -0.62171E-13         0.00000E+00
    0.49925E-07        -0.80976E-13         0.00000E+00
    0.49925E-07        -0.98811E-13         0.00000E+00
    0.49925E-07        -0.11568E-12         0.00000E+00
    0.49925E-07        -0.13160E-12         0.00000E+00
    0.49925E-07        -0.14657E-12         0.00000E+00
    0.49925E-07        -0.16060E-12         0.00000E+00
    0.49925E-07        -0.17369E-12         0.00000E+00
    0.49925E-07        -0.18586E-12         0.00000E+00
    0.49925E-07        -0.19711E-12         0.00000E+00
    0.49925E-07        -0.20744E-12         0.00000E+00
    0.49925E-07        -0.21687E-12         0.00000E+00
    0.49925E-07        -0.22539E-12         0.00000E+00
    0.49925E-07        -0.23303E-12         0.00000E+00
    0.49925E-07        -0.23977E-12         0.00000E+00
    0.49925E-07        -0.24564E-12         0.00000E+00
    0.49925E-07        -0.25063E-12         0.00000E+00
    0.49925E-07        -0.25475E-12         0.00000E+00
    0.49925E-07        -0.25801E-12         0.00000E+00
    0.49925E-07        -0.26042E-12         0.00000E+00
    0.49925E-07        -0.26197E-12         0.00000E+00
    0.49925E-07        -0.26268E-12         0.00000E+00
    0.49925E-07        -0.26255E-12         0.00000E+00
    0.49925E-07        -0.26159E-12         0.00000E+00
    0.49925E-07        -0.25979E-12         0.00000E+00
    0.49925E-07        -0.25718E-12         0.00000E+00
    0.49925E-07        -0.25374E-12         0.00000E+00
    0.49925E-07        -0.24950E-12         0.00000E+00
    0.49925E-07        -0.24444E-12         0.00000E+00
    0.49925E-07        -0.23858E-12         0.00000E+00
    0.49925E-07        -0.23192E-12         0.00000E+00
    0.49925E-07        -0.22447E-12         0.00000E+00
    0.49925E-07        -0.21622E-12         0.00000E+00
    0.49925E-07        -0.20719E-12         0.00000E+00
    0.49925E-07        -0.19737E-12         0.00000E+00
    0.49925E-07        -0.18678E-12         0.00000E+00
    0.49925E-07        -0.17541E-12         0.00000E+00
    0.49925E-07        -0.16326E-12         0.00000E+00
    0.49925E-07        -0.15035E-12         0.00000E+00
    0.49925E-07        -0.13667E-12         0.00000E+00
    0.49925E-07        -0.12223E-12         0.00000E+00
    0.49925E-07        -0.10703E-12         0.00000E+00
    0.49925E-07        -0.91069E-13         0.00000E+00
    0.49925E-07        -0.74354E-13         0.00000E+00
    0.49925E-07        -0.56885E-13         0.00000E+00
    0.49925E-07        -0.38665E-13         0.00000E+00
    0.49925E-07        -0.19696E-13         0.00000E+00
    0.49925E-07        -0.10024E-13         0.00000E+00
    0.49929E-07        -0.11341E-13         0.00000E+00
    0.49929E-07        -0.22314E-13         0.00000E+00
    0.49929E-07        -0.43755E-13         0.00000E+00
    0.49929E-07        -0.64187E-13         0.00000E+00
    0.49929E-07        -0.83619E-13         0.00000E+00
    0.49929E-07        -0.10206E-12         0.00000E+00
    0.49929E-07        -0.11951E-12         0.00000E+00
    0.49929E-07        -0.13598E-12         0.00000E+00
    0.49929E-07        -0.15147E-12         0.00000E+00
    0.49929E-07        -0.16600E-12         0.00000E+00
    0.49929E-07        -0.17957E-12         0.00000E+00
    0.49929E-07        -0.19219E-12         0.00000E+00
    0.49929E-07        -0.20385E-12         0.00000E+00
    0.49929E-07        -0.21458E-12         0.00000E+00
    0.49929E-07        -0.22438E-12         0.00000E+00
    0.49929E-07        -0.23324E-12         0.00000E+00
    0.49929E-07        -0.24119E-12         0.00000E+00
    0.49929E-07        -0.24822E-12         0.00000E+00
    0.49929E-07        -0.25434E-12         0.00000E+00
    0.49929E-07        -0.25955E-12         0.00000E+00
    0.49929E-07        -0.26387E-12         0.00000E+00
    0.49929E-07        -0.26730E-12         0.00000E+00
    0.49929E-07        -0.26984E-12         0.00000E+00
    0.49929E-07        -0.27150E-12         0.00000E+00
    0.49929E-07        -0.27228E-12         0.00000E+00
    0.49929E-07        -0.27220E-12         0.00000E+00
    0.49929E-07        -0.27125E-12         0.00000E+00
    0.49929E-07        -0.26944E-12         0.00000E+00
    0.49929E-07        -0.26677E-12         0.00000E+00
    0.49929E-07        -0.26325E-12         0.00000E+00
    0.49929E-07        -0.25889E-12         0.00000E+00
    0.49929E-07        -0.25369E-12         0.00000E+00
    0.49929E-07        -0.24765E-12         0.00000E+00
    0.49929E-07        -0.24077E-12         0.00000E+00
    0.49929E-07        -0.23307E-12         0.00000E+00
    0.49929E-07        -0.22455E-12         0.00000E+00
    0.49929E-07        -0.21520E-12         0.00000E+00
    0.49929E-07        -0.20504E-12         0.00000E+00
    0.49929E-07        -0.19406E-12         0.00000E+00
    0.49929E-07        -0.18227E-12         0.00000E+00
    0.49929E-07        -0.16968E-12         0.00000E+00
    0.49929E-07        -0.15628E-12         0.00000E+00
    0.49929E-07        -0.14209E-12         0.00000E+00
    0.49929E-07        -0.12709E-12         0.00000E+00
    0.49929E-07        -0.11130E-12         0.00000E+00
    0.49929E-07        -0.94715E-13         0.00000E+00
    0.49929E-07        -0.77341E-13         0.00000E+00
    0.49929E-07        -0.59178E-13         0.00000E+00
    0.49929E-07        -0.40229E-13         0.00000E+00
    0.49929E-07        -0.20495E-13         0.00000E+00
    0.49929E-07        -0.10432E-13         0.00000E+00
    0.49932E-07        -0.11671E-13         0.00000E+00
    0.49932E-07        -0.22967E-13         0.00000E+00
    0.49932E-07        -0.45042E-13         0.00000E+00
    0.49932E-07        -0.66086E-13         0.00000E+00
    0.49932E-07        -0.86106E-13         0.00000E+00
    0.49932E-07        -0.10511E-12         0.00000E+00
    0.49932E-07        -0.12310E-12         0.00000E+00
    0.49932E-07        -0.14009E-12         0.00000E+00
    0.49932E-07        -0.15608E-12         0.00000E+00
    0.49932E-07        -0.17108E-12         0.00000E+00
    0.49932E-07        -0.18509E-12         0.00000E+00
    0.49932E-07        -0.19813E-12         0.00000E+00
    0.49932E-07        -0.21019E-12         0.00000E+00
    0.49932E-07        -0.22129E-12         0.00000E+00
    0.49932E-07        -0.23143E-12         0.00000E+00
    0.49932E-07        -0.24061E-12         0.00000E+00
    0.49932E-07        -0.24885E-12         0.00000E+00
    0.49932E-07        -0.25614E-12         0.00000E+00
    0.49932E-07        -0.26250E-12         0.00000E+00
    0.49932E-07        -0.26793E-12         0.00000E+00
    0.49932E-07        -0.27243E-12         0.00000E+00
    0.49932E-07        -0.27601E-12         0.00000E+00
    0.49932E-07        -0.27868E-12         0.00000E+00
    0.49932E-07        -0.28043E-12         0.00000E+00
    0.49932E-07        -0.28128E-12         0.00000E+00
    0.49932E-07        -0.28124E-12         0.00000E+00
    0.49932E-07        -0.28030E-12         0.00000E+00
    0.49932E-07        -0.27847E-12         0.00000E+00
    0.49932E-07        -0.27575E-12         0.00000E+00
    0.49932E-07        -0.27216E-12         0.00000E+00
    0.49932E-07        -0.26769E-12         0.00000E+00
    0.49932E-07        -0.26234E-12         0.00000E+00
    0.49932E-07        -0.25613E-12         0.00000E+00
    0.49932E-07        -0.24906E-12         0.00000E+00
    0.49932E-07        -0.24113E-12         0.00000E+00
    0.49932E-07        -0.23234E-12         0.00000E+00
    0.49932E-07        -0.22270E-12         0.00000E+00
    0.49932E-07        -0.21221E-12         0.00000E+00
    0.49932E-07        -0.20087E-12         0.00000E+00
    0.49932E-07        -0.18870E-12         0.00000E+00
    0.49932E-07        -0.17568E-12         0.00000E+00
    0.49932E-07        -0.16183E-12         0.00000E+00
    0.49932E-07        -0.14715E-12         0.00000E+00
    0.49932E-07        -0.13163E-12         0.00000E+00
    0.49932E-07        -0.11529E-12         0.00000E+00
    0.49932E-07        -0.98124E-13         0.00000E+00
    0.49932E-07        -0.80133E-13         0.00000E+00
    0.49932E-07        -0.61322E-13         0.00000E+00
    0.49932E-07        -0.41691E-13         0.00000E+00
    0.49932E-07        -0.21242E-13         0.00000E+00
    0.49932E-07        -0.10813E-13         0.00000E+00
    0.49936E-07        -0.11982E-13         0.00000E+00
    0.49936E-07        -0.23581E-13         0.00000E+00
    0.49936E-07        -0.46251E-13         0.00000E+00
    0.49936E-07        -0.67869E-13         0.00000E+00
    0.49936E-07        -0.88442E-13         0.00000E+00
    0.49936E-07        -0.10798E-12         0.00000E+00
    0.49936E-07        -0.12648E-12         0.00000E+00
    0.49936E-07        -0.14395E-12         0.00000E+00
    0.49936E-07        -0.16040E-12         0.00000E+00
    0.49936E-07        -0.17584E-12         0.00000E+00
    0.49936E-07        -0.19028E-12         0.00000E+00
    0.49936E-07        -0.20370E-12         0.00000E+00
    0.49936E-07        -0.21614E-12         0.00000E+00
    0.49936E-07        -0.22758E-12         0.00000E+00
    0.49936E-07        -0.23804E-12         0.00000E+00
    0.49936E-07        -0.24752E-12         0.00000E+00
    0.49936E-07        -0.25603E-12         0.00000E+00
    0.49936E-07        -0.26357E-12         0.00000E+00
    0.49936E-07        -0.27015E-12         0.00000E+00
    0.49936E-07        -0.27577E-12         0.00000E+00
    0.49936E-07        -0.28044E-12         0.00000E+00
    0.49936E-07        -0.28416E-12         0.00000E+00
    0.49936E-07        -0.28694E-12         0.00000E+00
    0.49936E-07        -0.28879E-12         0.00000E+00
    0.49936E-07        -0.28971E-12         0.00000E+00
    0.49936E-07        -0.28970E-12         0.00000E+00
    0.49936E-07        -0.28876E-12         0.00000E+00
    0.49936E-07        -0.28691E-12         0.00000E+00
    0.49936E-07        -0.28415E-12         0.00000E+00
    0.49936E-07        -0.28048E-12         0.00000E+00
    0.49936E-07        -0.27591E-12         0.00000E+00
    0.49936E-07        -0.27043E-12         0.00000E+00
    0.49936E-07        -0.26406E-12         0.00000E+00
    0.49936E-07        -0.25680E-12         0.00000E+00
    0.49936E-07        -0.24865E-12         0.00000E+00
    0.49936E-07        -0.23961E-12         0.00000E+00
    0.49936E-07        -0.22970E-12         0.00000E+00
    0.49936E-07        -0.21890E-12         0.00000E+00
    0.49936E-07        -0.20723E-12         0.00000E+00
    0.49936E-07        -0.19469E-12         0.00000E+00
    0.49936E-07        -0.18128E-12         0.00000E+00
    0.49936E-07        -0.16701E-12         0.00000E+00
    0.49936E-07        -0.15187E-12         0.00000E+00
    0.49936E-07        -0.13587E-12         0.00000E+00
    0.49936E-07        -0.11902E-12         0.00000E+00
    0.49936E-07        -0.10130E-12         0.00000E+00
    0.49936E-07        -0.82739E-13         0.00000E+00
    0.49936E-07        -0.63321E-13         0.00000E+00
    0.49936E-07        -0.43054E-13         0.00000E+00
    0.49936E-07        -0.21938E-13         0.00000E+00
    0.49936E-07        -0.11169E-13         0.00000E+00
    0.49940E-07        -0.12273E-13         0.00000E+00
    0.49940E-07        -0.24156E-13         0.00000E+00
    0.49940E-07        -0.47385E-13         0.00000E+00
    0.49940E-07        -0.69541E-13         0.00000E+00
    0.49940E-07        -0.90631E-13         0.00000E+00
    0.49940E-07        -0.11066E-12         0.00000E+00
    0.49940E-07        -0.12964E-12         0.00000E+00
    0.49940E-07        -0.14757E-12         0.00000E+00
    0.49940E-07        -0.16445E-12         0.00000E+00
    0.49940E-07        -0.18030E-12         0.00000E+00
    0.49940E-07        -0.19512E-12         0.00000E+00
    0.49940E-07        -0.20892E-12         0.00000E+00
    0.49940E-07        -0.22170E-12         0.00000E+00
    0.49940E-07        -0.23346E-12         0.00000E+00
    0.49940E-07        -0.24422E-12         0.00000E+00
    0.49940E-07        -0.25398E-12         0.00000E+00
    0.49940E-07        -0.26274E-12         0.00000E+00
    0.49940E-07        -0.27050E-12         0.00000E+00
    0.49940E-07        -0.27729E-12         0.00000E+00
    0.49940E-07        -0.28309E-12         0.00000E+00
    0.49940E-07        -0.28792E-12         0.00000E+00
    0.49940E-07        -0.29177E-12         0.00000E+00
    0.49940E-07        -0.29466E-12         0.00000E+00
    0.49940E-07        -0.29659E-12         0.00000E+00
    0.49940E-07        -0.29756E-12         0.00000E+00
    0.49940E-07        -0.29759E-12         0.00000E+00
    0.49940E-07        -0.29666E-12         0.00000E+00
    0.49940E-07        -0.29479E-12         0.00000E+00
    0.49940E-07        -0.29199E-12         0.00000E+00
    0.49940E-07        -0.28824E-12         0.00000E+00
    0.49940E-07        -0.28357E-12         0.00000E+00
    0.49940E-07        -0.27797E-12         0.00000E+00
    0.49940E-07        -0.27145E-12         0.00000E+00
    0.49940E-07        -0.26402E-12         0.00000E+00
    0.49940E-07        -0.25566E-12         0.00000E+00
    0.49940E-07        -0.24639E-12         0.00000E+00
    0.49940E-07        -0.23622E-12         0.00000E+00
    0.49940E-07        -0.22514E-12         0.00000E+00
    0.49940E-07        -0.21316E-12         0.00000E+00
    0.49940E-07        -0.20028E-12         0.00000E+00
    0.49940E-07        -0.18650E-12         0.00000E+00
    0.49940E-07        -0.17183E-12         0.00000E+00
    0.49940E-07        -0.15627E-12         0.00000E+00
    0.49940E-07        -0.13982E-12         0.00000E+00
    0.49940E-07        -0.12248E-12         0.00000E+00
    0.49940E-07        -0.10426E-12         0.00000E+00
    0.49940E-07        -0.85163E-13         0.00000E+00
    0.49940E-07        -0.65182E-13         0.00000E+00
    0.49940E-07        -0.44323E-13         0.00000E+00
    0.49940E-07        -0.22587E-13         0.00000E+00
    0.49940E-07        -0.11500E-13         0.00000E+00
    0.49944E-07        -0.12545E-13         0.00000E+00
    0.49944E-07        -0.24694E-13         0.00000E+00
    0.49944E-07        -0.48444E-13         0.00000E+00
    0.49944E-07        -0.71102E-13         0.00000E+00
    0.49944E-07        -0.92674E-13         0.00000E+00
    0.49944E-07        -0.11317E-12         0.00000E+00
    0.49944E-07        -0.13259E-12         0.00000E+00
    0.49944E-07        -0.15094E-12         0.00000E+00
    0.49944E-07        -0.16823E-12         0.00000E+00
    0.49944E-07        -0.18446E-12         0.00000E+00
    0.49944E-07        -0.19964E-12         0.00000E+00
    0.49944E-07        -0.21378E-12         0.00000E+00
    0.49944E-07        -0.22688E-12         0.00000E+00
    0.49944E-07        -0.23894E-12         0.00000E+00
    0.49944E-07        -0.24998E-12         0.00000E+00
    0.49944E-07        -0.25999E-12         0.00000E+00
    0.49944E-07        -0.26899E-12         0.00000E+00
    0.49944E-07        -0.27697E-12         0.00000E+00
    0.49944E-07        -0.28394E-12         0.00000E+00
    0.49944E-07        -0.28991E-12         0.00000E+00
    0.49944E-07        -0.29488E-12         0.00000E+00
    0.49944E-07        -0.29886E-12         0.00000E+00
    0.49944E-07        -0.30185E-12         0.00000E+00
    0.49944E-07        -0.30385E-12         0.00000E+00
    0.49944E-07        -0.30488E-12         0.00000E+00
    0.49944E-07        -0.30493E-12         0.00000E+00
    0.49944E-07        -0.30401E-12         0.00000E+00
    0.49944E-07        -0.30212E-12         0.00000E+00
    0.49944E-07        -0.29927E-12         0.00000E+00
    0.49944E-07        -0.29546E-12         0.00000E+00
    0.49944E-07        -0.29070E-12         0.00000E+00
    0.49944E-07        -0.28499E-12         0.00000E+00
    0.49944E-07        -0.27833E-12         0.00000E+00
    0.49944E-07        -0.27072E-12         0.00000E+00
    0.49944E-07        -0.26218E-12         0.00000E+00
    0.49944E-07        -0.25269E-12         0.00000E+00
    0.49944E-07        -0.24228E-12         0.00000E+00
    0.49944E-07        -0.23094E-12         0.00000E+00
    0.49944E-07        -0.21866E-12         0.00000E+00
    0.49944E-07        -0.20547E-12         0.00000E+00
    0.49944E-07        -0.19135E-12         0.00000E+00
    0.49944E-07        -0.17631E-12         0.00000E+00
    0.49944E-07        -0.16035E-12         0.00000E+00
    0.49944E-07        -0.14348E-12         0.00000E+00
    0.49944E-07        -0.12570E-12         0.00000E+00
    0.49944E-07        -0.10701E-12         0.00000E+00
    0.49944E-07        -0.87414E-13         0.00000E+00
    0.49944E-07        -0.66909E-13         0.00000E+00
    0.49944E-07        -0.45500E-13         0.00000E+00
    0.49944E-07        -0.23188E-13         0.00000E+00
    0.49944E-07        -0.11807E-13         0.00000E+00
    0.49948E-07        -0.12799E-13         0.00000E+00
    0.49948E-07        -0.25194E-13         0.00000E+00
    0.49948E-07        -0.49429E-13         0.00000E+00
    0.49948E-07        -0.72554E-13         0.00000E+00
    0.49948E-07        -0.94575E-13         0.00000E+00
    0.49948E-07        -0.11550E-12         0.00000E+00
    0.49948E-07        -0.13533E-12         0.00000E+00
    0.49948E-07        -0.15408E-12         0.00000E+00
    0.49948E-07        -0.17174E-12         0.00000E+00
    0.49948E-07        -0.18833E-12         0.00000E+00
    0.49948E-07        -0.20385E-12         0.00000E+00
    0.49948E-07        -0.21830E-12         0.00000E+00
    0.49948E-07        -0.23169E-12         0.00000E+00
    0.49948E-07        -0.24404E-12         0.00000E+00
    0.49948E-07        -0.25533E-12         0.00000E+00
    0.49948E-07        -0.26558E-12         0.00000E+00
    0.49948E-07        -0.27479E-12         0.00000E+00
    0.49948E-07        -0.28296E-12         0.00000E+00
    0.49948E-07        -0.29011E-12         0.00000E+00
    0.49948E-07        -0.29623E-12         0.00000E+00
    0.49948E-07        -0.30134E-12         0.00000E+00
    0.49948E-07        -0.30543E-12         0.00000E+00
    0.49948E-07        -0.30851E-12         0.00000E+00
    0.49948E-07        -0.31058E-12         0.00000E+00
    0.49948E-07        -0.31166E-12         0.00000E+00
    0.49948E-07        -0.31173E-12         0.00000E+00
    0.49948E-07        -0.31082E-12         0.00000E+00
    0.49948E-07        -0.30891E-12         0.00000E+00
    0.49948E-07        -0.30602E-12         0.00000E+00
    0.49948E-07        -0.30215E-12         0.00000E+00
    0.49948E-07        -0.29730E-12         0.00000E+00
    0.49948E-07        -0.29148E-12         0.00000E+00
    0.49948E-07        -0.28469E-12         0.00000E+00
    0.49948E-07        -0.27693E-12         0.00000E+00
    0.49948E-07        -0.26821E-12         0.00000E+00
    0.49948E-07        -0.25853E-12         0.00000E+00
    0.49948E-07        -0.24789E-12         0.00000E+00
    0.49948E-07        -0.23630E-12         0.00000E+00
    0.49948E-07        -0.22376E-12         0.00000E+00
    0.49948E-07        -0.21026E-12         0.00000E+00
    0.49948E-07        -0.19583E-12         0.00000E+00
    0.49948E-07        -0.18045E-12         0.00000E+00
    0.49948E-07        -0.16413E-12         0.00000E+00
    0.49948E-07        -0.14687E-12         0.00000E+00
    0.49948E-07        -0.12868E-12         0.00000E+00
    0.49948E-07        -0.10955E-12         0.00000E+00
    0.49948E-07        -0.89494E-13         0.00000E+00
    0.49948E-07        -0.68505E-13         0.00000E+00
    0.49948E-07        -0.46588E-13         0.00000E+00
    0.49948E-07        -0.23744E-13         0.00000E+00
    0.49948E-07        -0.12090E-13         0.00000E+00
    0.49952E-07        -0.13034E-13         0.00000E+00
    0.49952E-07        -0.25658E-13         0.00000E+00
    0.49952E-07        -0.50342E-13         0.00000E+00
    0.49952E-07        -0.73899E-13         0.00000E+00
    0.49952E-07        -0.96336E-13         0.00000E+00
    0.49952E-07        -0.11766E-12         0.00000E+00
    0.49952E-07        -0.13787E-12         0.00000E+00
    0.49952E-07        -0.15698E-12         0.00000E+00
    0.49952E-07        -0.17499E-12         0.00000E+00
    0.49952E-07        -0.19190E-12         0.00000E+00
    0.49952E-07        -0.20773E-12         0.00000E+00
    0.49952E-07        -0.22248E-12         0.00000E+00
    0.49952E-07        -0.23615E-12         0.00000E+00
    0.49952E-07        -0.24874E-12         0.00000E+00
    0.49952E-07        -0.26027E-12         0.00000E+00
    0.49952E-07        -0.27074E-12         0.00000E+00
    0.49952E-07        -0.28015E-12         0.00000E+00
    0.49952E-07        -0.28850E-12         0.00000E+00
    0.49952E-07        -0.29581E-12         0.00000E+00
    0.49952E-07        -0.30208E-12         0.00000E+00
    0.49952E-07        -0.30730E-12         0.00000E+00
    0.49952E-07        -0.31150E-12         0.00000E+00
    0.49952E-07        -0.31466E-12         0.00000E+00
    0.49952E-07        -0.31680E-12         0.00000E+00
    0.49952E-07        -0.31791E-12         0.00000E+00
    0.49952E-07        -0.31801E-12         0.00000E+00
    0.49952E-07        -0.31710E-12         0.00000E+00
    0.49952E-07        -0.31518E-12         0.00000E+00
    0.49952E-07        -0.31225E-12         0.00000E+00
    0.49952E-07        -0.30832E-12         0.00000E+00
    0.49952E-07        -0.30339E-12         0.00000E+00
    0.49952E-07        -0.29747E-12         0.00000E+00
    0.49952E-07        -0.29055E-12         0.00000E+00
    0.49952E-07        -0.28265E-12         0.00000E+00
    0.49952E-07        -0.27377E-12         0.00000E+00
    0.49952E-07        -0.26390E-12         0.00000E+00
    0.49952E-07        -0.25306E-12         0.00000E+00
    0.49952E-07        -0.24124E-12         0.00000E+00
    0.49952E-07        -0.22845E-12         0.00000E+00
    0.49952E-07        -0.21469E-12         0.00000E+00
    0.49952E-07        -0.19996E-12         0.00000E+00
    0.49952E-07        -0.18427E-12         0.00000E+00
    0.49952E-07        -0.16761E-12         0.00000E+00
    0.49952E-07        -0.14999E-12         0.00000E+00
    0.49952E-07        -0.13142E-12         0.00000E+00
    0.49952E-07        -0.11189E-12         0.00000E+00
    0.49952E-07        -0.91410E-13         0.00000E+00
    0.49952E-07        -0.69975E-13         0.00000E+00
    0.49952E-07        -0.47590E-13         0.00000E+00
    0.49952E-07        -0.24255E-13         0.00000E+00
    0.49952E-07        -0.12351E-13         0.00000E+00
    0.49956E-07        -0.13250E-13         0.00000E+00
    0.49956E-07        -0.26085E-13         0.00000E+00
    0.49956E-07        -0.51182E-13         0.00000E+00
    0.49956E-07        -0.75137E-13         0.00000E+00
    0.49956E-07        -0.97956E-13         0.00000E+00
    0.49956E-07        -0.11964E-12         0.00000E+00
    0.49956E-07        -0.14021E-12         0.00000E+00
    0.49956E-07        -0.15965E-12         0.00000E+00
    0.49956E-07        -0.17798E-12         0.00000E+00
    0.49956E-07        -0.19519E-12         0.00000E+00
    0.49956E-07        -0.21131E-12         0.00000E+00
    0.49956E-07        -0.22632E-12         0.00000E+00
    0.49956E-07        -0.24024E-12         0.00000E+00
    0.49956E-07        -0.25307E-12         0.00000E+00
    0.49956E-07        -0.26482E-12         0.00000E+00
    0.49956E-07        -0.27548E-12         0.00000E+00
    0.49956E-07        -0.28507E-12         0.00000E+00
    0.49956E-07        -0.29359E-12         0.00000E+00
    0.49956E-07        -0.30105E-12         0.00000E+00
    0.49956E-07        -0.30744E-12         0.00000E+00
    0.49956E-07        -0.31278E-12         0.00000E+00
    0.49956E-07        -0.31707E-12         0.00000E+00
    0.49956E-07        -0.32031E-12         0.00000E+00
    0.49956E-07        -0.32250E-12         0.00000E+00
    0.49956E-07        -0.32366E-12         0.00000E+00
    0.49956E-07        -0.32378E-12         0.00000E+00
    0.49956E-07        -0.32286E-12         0.00000E+00
    0.49956E-07        -0.32092E-12         0.00000E+00
    0.49956E-07        -0.31796E-12         0.00000E+00
    0.49956E-07        -0.31398E-12         0.00000E+00
    0.49956E-07        -0.30897E-12         0.00000E+00
    0.49956E-07        -0.30296E-12         0.00000E+00
    0.49956E-07        -0.29593E-12         0.00000E+00
    0.49956E-07        -0.28790E-12         0.00000E+00
    0.49956E-07        -0.27887E-12         0.00000E+00
    0.49956E-07        -0.26883E-12         0.00000E+00
    0.49956E-07        -0.25780E-12         0.00000E+00
    0.49956E-07        -0.24577E-12         0.00000E+00
    0.49956E-07        -0.23275E-12         0.00000E+00
    0.49956E-07        -0.21874E-12         0.00000E+00
    0.49956E-07        -0.20374E-12         0.00000E+00
    0.49956E-07        -0.18776E-12         0.00000E+00
    0.49956E-07        -0.17080E-12         0.00000E+00
    0.49956E-07        -0.15285E-12         0.00000E+00
    0.49956E-07        -0.13393E-12         0.00000E+00
    0.49956E-07        -0.11403E-12         0.00000E+00
    0.49956E-07        -0.93164E-13         0.00000E+00
    0.49956E-07        -0.71321E-13         0.00000E+00
    0.49956E-07        -0.48507E-13         0.00000E+00
    0.49956E-07        -0.24724E-13         0.00000E+00
    0.49956E-07        -0.12590E-13         0.00000E+00
    0.49960E-07        -0.13448E-13         0.00000E+00
    0.49960E-07        -0.26475E-13         0.00000E+00
    0.49960E-07        -0.51951E-13         0.00000E+00
    0.49960E-07        -0.76270E-13         0.00000E+00
    0.49960E-07        -0.99438E-13         0.00000E+00
    0.49960E-07        -0.12146E-12         0.00000E+00
    0.49960E-07        -0.14234E-12         0.00000E+00
    0.49960E-07        -0.16209E-12         0.00000E+00
    0.49960E-07        -0.18071E-12         0.00000E+00
    0.49960E-07        -0.19820E-12         0.00000E+00
    0.49960E-07        -0.21457E-12         0.00000E+00
    0.49960E-07        -0.22983E-12         0.00000E+00
    0.49960E-07        -0.24398E-12         0.00000E+00
    0.49960E-07        -0.25702E-12         0.00000E+00
    0.49960E-07        -0.26896E-12         0.00000E+00
    0.49960E-07        -0.27981E-12         0.00000E+00
    0.49960E-07        -0.28957E-12         0.00000E+00
    0.49960E-07        -0.29824E-12         0.00000E+00
    0.49960E-07        -0.30583E-12         0.00000E+00
    0.49960E-07        -0.31234E-12         0.00000E+00
    0.49960E-07        -0.31778E-12         0.00000E+00
    0.49960E-07        -0.32215E-12         0.00000E+00
    0.49960E-07        -0.32546E-12         0.00000E+00
    0.49961E-07        -0.32770E-12         0.00000E+00
    0.49961E-07        -0.32889E-12         0.00000E+00
    0.49961E-07        -0.32903E-12         0.00000E+00
    0.49961E-07        -0.32812E-12         0.00000E+00
    0.49961E-07        -0.32616E-12         0.00000E+00
    0.49961E-07        -0.32317E-12         0.00000E+00
    0.49961E-07        -0.31913E-12         0.00000E+00
    0.49961E-07        -0.31406E-12         0.00000E+00
    0.49961E-07        -0.30796E-12         0.00000E+00
    0.49961E-07        -0.30083E-12         0.00000E+00
    0.49961E-07        -0.29268E-12         0.00000E+00
    0.49961E-07        -0.28351E-12         0.00000E+00
    0.49961E-07        -0.27332E-12         0.00000E+00
    0.49961E-07        -0.26211E-12         0.00000E+00
    0.49961E-07        -0.24989E-12         0.00000E+00
    0.49961E-07        -0.23666E-12         0.00000E+00
    0.49961E-07        -0.22243E-12         0.00000E+00
    0.49961E-07        -0.20718E-12         0.00000E+00
    0.49961E-07        -0.19094E-12         0.00000E+00
    0.49961E-07        -0.17370E-12         0.00000E+00
    0.49961E-07        -0.15545E-12         0.00000E+00
    0.49961E-07        -0.13622E-12         0.00000E+00
    0.49961E-07        -0.11598E-12         0.00000E+00
    0.49961E-07        -0.94760E-13         0.00000E+00
    0.49961E-07        -0.72545E-13         0.00000E+00
    0.49961E-07        -0.49341E-13         0.00000E+00
    0.49961E-07        -0.25150E-13         0.00000E+00
    0.49961E-07        -0.12808E-13         0.00000E+00
    0.49965E-07        -0.13627E-13         0.00000E+00
    0.49965E-07        -0.26830E-13         0.00000E+00
    0.49965E-07        -0.52649E-13         0.00000E+00
    0.49965E-07        -0.77298E-13         0.00000E+00
    0.49965E-07        -0.10078E-12         0.00000E+00
    0.49965E-07        -0.12311E-12         0.00000E+00
    0.49965E-07        -0.14428E-12         0.00000E+00
    0.49965E-07        -0.16430E-12         0.00000E+00
    0.49965E-07        -0.18318E-12         0.00000E+00
    0.49965E-07        -0.20092E-12         0.00000E+00
    0.49965E-07        -0.21753E-12         0.00000E+00
    0.49965E-07        -0.23301E-12         0.00000E+00
    0.49965E-07        -0.24736E-12         0.00000E+00
    0.49965E-07        -0.26060E-12         0.00000E+00
    0.49965E-07        -0.27272E-12         0.00000E+00
    0.49965E-07        -0.28373E-12         0.00000E+00
    0.49965E-07        -0.29364E-12         0.00000E+00
    0.49965E-07        -0.30245E-12         0.00000E+00
    0.49965E-07        -0.31016E-12         0.00000E+00
    0.49965E-07        -0.31677E-12         0.00000E+00
    0.49965E-07        -0.32230E-12         0.00000E+00
    0.49965E-07        -0.32675E-12         0.00000E+00
    0.49965E-07        -0.33012E-12         0.00000E+00
    0.49965E-07        -0.33241E-12         0.00000E+00
    0.49965E-07        -0.33363E-12         0.00000E+00
    0.49965E-07        -0.33378E-12         0.00000E+00
    0.49965E-07        -0.33287E-12         0.00000E+00
    0.49965E-07        -0.33090E-12         0.00000E+00
    0.49965E-07        -0.32787E-12         0.00000E+00
    0.49965E-07        -0.32379E-12         0.00000E+00
    0.49965E-07        -0.31866E-12         0.00000E+00
    0.49965E-07        -0.31248E-12         0.00000E+00
    0.49965E-07        -0.30526E-12         0.00000E+00
    0.49965E-07        -0.29700E-12         0.00000E+00
    0.49965E-07        -0.28770E-12         0.00000E+00
    0.49965E-07        -0.27737E-12         0.00000E+00
    0.49965E-07        -0.26601E-12         0.00000E+00
    0.49965E-07        -0.25362E-12         0.00000E+00
    0.49965E-07        -0.24020E-12         0.00000E+00
    0.49965E-07        -0.22576E-12         0.00000E+00
    0.49965E-07        -0.21029E-12         0.00000E+00
    0.49965E-07        -0.19381E-12         0.00000E+00
    0.49965E-07        -0.17631E-12         0.00000E+00
    0.49965E-07        -0.15780E-12         0.00000E+00
    0.49965E-07        -0.13828E-12         0.00000E+00
    0.49965E-07        -0.11774E-12         0.00000E+00
    0.49965E-07        -0.96199E-13         0.00000E+00
    0.49965E-07        -0.73649E-13         0.00000E+00
    0.49965E-07        -0.50093E-13         0.00000E+00
    0.49965E-07        -0.25534E-13         0.00000E+00
    0.49965E-07        -0.13004E-13         0.00000E+00
    0.49969E-07        -0.13789E-13         0.00000E+00
    0.49969E-07        -0.27148E-13         0.00000E+00
    0.49969E-07        -0.53276E-13         0.00000E+00
    0.49969E-07        -0.78221E-13         0.00000E+00
    0.49969E-07        -0.10199E-12         0.00000E+00
    0.49969E-07        -0.12459E-12         0.00000E+00
    0.49969E-07        -0.14602E-12         0.00000E+00
    0.49969E-07        -0.16629E-12         0.00000E+00
    0.49969E-07        -0.18540E-12         0.00000E+00
    0.49969E-07        -0.20337E-12         0.00000E+00
    0.49969E-07        -0.22019E-12         0.00000E+00
    0.49969E-07        -0.23586E-12         0.00000E+00
    0.49969E-07        -0.25040E-12         0.00000E+00
    0.49969E-07        -0.26381E-12         0.00000E+00
    0.49969E-07        -0.27609E-12         0.00000E+00
    0.49969E-07        -0.28725E-12         0.00000E+00
    0.49969E-07        -0.29729E-12         0.00000E+00
    0.49969E-07        -0.30622E-12         0.00000E+00
    0.49969E-07        -0.31403E-12         0.00000E+00
    0.49969E-07        -0.32075E-12         0.00000E+00
    0.49969E-07        -0.32636E-12         0.00000E+00
    0.49969E-07        -0.33087E-12         0.00000E+00
    0.49969E-07        -0.33429E-12         0.00000E+00
    0.49969E-07        -0.33662E-12         0.00000E+00
    0.49969E-07        -0.33787E-12         0.00000E+00
    0.49969E-07        -0.33804E-12         0.00000E+00
    0.49969E-07        -0.33713E-12         0.00000E+00
    0.49969E-07        -0.33514E-12         0.00000E+00
    0.49969E-07        -0.33208E-12         0.00000E+00
    0.49969E-07        -0.32796E-12         0.00000E+00
    0.49969E-07        -0.32277E-12         0.00000E+00
    0.49969E-07        -0.31653E-12         0.00000E+00
    0.49969E-07        -0.30922E-12         0.00000E+00
    0.49969E-07        -0.30086E-12         0.00000E+00
    0.49969E-07        -0.29145E-12         0.00000E+00
    0.49969E-07        -0.28099E-12         0.00000E+00
    0.49969E-07        -0.26949E-12         0.00000E+00
    0.49969E-07        -0.25694E-12         0.00000E+00
    0.49969E-07        -0.24336E-12         0.00000E+00
    0.49969E-07        -0.22873E-12         0.00000E+00
    0.49969E-07        -0.21307E-12         0.00000E+00
    0.49969E-07        -0.19638E-12         0.00000E+00
    0.49969E-07        -0.17865E-12         0.00000E+00
    0.49969E-07        -0.15990E-12         0.00000E+00
    0.49969E-07        -0.14012E-12         0.00000E+00
    0.49969E-07        -0.11931E-12         0.00000E+00
    0.49969E-07        -0.97485E-13         0.00000E+00
    0.49969E-07        -0.74635E-13         0.00000E+00
    0.49969E-07        -0.50765E-13         0.00000E+00
    0.49969E-07        -0.25877E-13         0.00000E+00
    0.49969E-07        -0.13178E-13         0.00000E+00
    0.49973E-07        -0.13932E-13         0.00000E+00
    0.49973E-07        -0.27431E-13         0.00000E+00
    0.49973E-07        -0.53832E-13         0.00000E+00
    0.49973E-07        -0.79040E-13         0.00000E+00
    0.49973E-07        -0.10306E-12         0.00000E+00
    0.49973E-07        -0.12590E-12         0.00000E+00
    0.49973E-07        -0.14756E-12         0.00000E+00
    0.49973E-07        -0.16805E-12         0.00000E+00
    0.49973E-07        -0.18737E-12         0.00000E+00
    0.49973E-07        -0.20553E-12         0.00000E+00
    0.49973E-07        -0.22254E-12         0.00000E+00
    0.49973E-07        -0.23839E-12         0.00000E+00
    0.49973E-07        -0.25309E-12         0.00000E+00
    0.49973E-07        -0.26665E-12         0.00000E+00
    0.49973E-07        -0.27907E-12         0.00000E+00
    0.49973E-07        -0.29036E-12         0.00000E+00
    0.49973E-07        -0.30052E-12         0.00000E+00
    0.49973E-07        -0.30955E-12         0.00000E+00
    0.49973E-07        -0.31746E-12         0.00000E+00
    0.49973E-07        -0.32426E-12         0.00000E+00
    0.49973E-07        -0.32994E-12         0.00000E+00
    0.49973E-07        -0.33451E-12         0.00000E+00
    0.49973E-07        -0.33798E-12         0.00000E+00
    0.49973E-07        -0.34035E-12         0.00000E+00
    0.49973E-07        -0.34162E-12         0.00000E+00
    0.49973E-07        -0.34180E-12         0.00000E+00
    0.49973E-07        -0.34088E-12         0.00000E+00
    0.49973E-07        -0.33889E-12         0.00000E+00
    0.49973E-07        -0.33580E-12         0.00000E+00
    0.49973E-07        -0.33164E-12         0.00000E+00
    0.49973E-07        -0.32641E-12         0.00000E+00
    0.49973E-07        -0.32010E-12         0.00000E+00
    0.49973E-07        -0.31272E-12         0.00000E+00
    0.49973E-07        -0.30427E-12         0.00000E+00
    0.49973E-07        -0.29476E-12         0.00000E+00
    0.49973E-07        -0.28419E-12         0.00000E+00
    0.49973E-07        -0.27256E-12         0.00000E+00
    0.49973E-07        -0.25988E-12         0.00000E+00
    0.49973E-07        -0.24614E-12         0.00000E+00
    0.49973E-07        -0.23136E-12         0.00000E+00
    0.49973E-07        -0.21552E-12         0.00000E+00
    0.49973E-07        -0.19864E-12         0.00000E+00
    0.49973E-07        -0.18071E-12         0.00000E+00
    0.49973E-07        -0.16175E-12         0.00000E+00
    0.49973E-07        -0.14174E-12         0.00000E+00
    0.49973E-07        -0.12070E-12         0.00000E+00
    0.49973E-07        -0.98618E-13         0.00000E+00
    0.49973E-07        -0.75504E-13         0.00000E+00
    0.49973E-07        -0.51357E-13         0.00000E+00
    0.49973E-07        -0.26179E-13         0.00000E+00
    0.49973E-07        -0.13333E-13         0.00000E+00
    0.49978E-07        -0.14057E-13         0.00000E+00
    0.49978E-07        -0.27678E-13         0.00000E+00
    0.49978E-07        -0.54317E-13         0.00000E+00
    0.49978E-07        -0.79754E-13         0.00000E+00
    0.49978E-07        -0.10399E-12         0.00000E+00
    0.49978E-07        -0.12704E-12         0.00000E+00
    0.49978E-07        -0.14891E-12         0.00000E+00
    0.49978E-07        -0.16959E-12         0.00000E+00
    0.49978E-07        -0.18909E-12         0.00000E+00
    0.49978E-07        -0.20742E-12         0.00000E+00
    0.49978E-07        -0.22459E-12         0.00000E+00
    0.49978E-07        -0.24059E-12         0.00000E+00
    0.49978E-07        -0.25544E-12         0.00000E+00
    0.49978E-07        -0.26913E-12         0.00000E+00
    0.49978E-07        -0.28167E-12         0.00000E+00
    0.49978E-07        -0.29307E-12         0.00000E+00
    0.49978E-07        -0.30333E-12         0.00000E+00
    0.49978E-07        -0.31246E-12         0.00000E+00
    0.49978E-07        -0.32045E-12         0.00000E+00
    0.49978E-07        -0.32731E-12         0.00000E+00
    0.49978E-07        -0.33306E-12         0.00000E+00
    0.49978E-07        -0.33768E-12         0.00000E+00
    0.49978E-07        -0.34119E-12         0.00000E+00
    0.49978E-07        -0.34359E-12         0.00000E+00
    0.49978E-07        -0.34488E-12         0.00000E+00
    0.49978E-07        -0.34506E-12         0.00000E+00
    0.49978E-07        -0.34415E-12         0.00000E+00
    0.49978E-07        -0.34214E-12         0.00000E+00
    0.49978E-07        -0.33904E-12         0.00000E+00
    0.49978E-07        -0.33484E-12         0.00000E+00
    0.49978E-07        -0.32956E-12         0.00000E+00
    0.49978E-07        -0.32320E-12         0.00000E+00
    0.49978E-07        -0.31575E-12         0.00000E+00
    0.49978E-07        -0.30723E-12         0.00000E+00
    0.49978E-07        -0.29764E-12         0.00000E+00
    0.49978E-07        -0.28697E-12         0.00000E+00
    0.49978E-07        -0.27523E-12         0.00000E+00
    0.49978E-07        -0.26243E-12         0.00000E+00
    0.49978E-07        -0.24856E-12         0.00000E+00
    0.49978E-07        -0.23363E-12         0.00000E+00
    0.49978E-07        -0.21765E-12         0.00000E+00
    0.49978E-07        -0.20060E-12         0.00000E+00
    0.49978E-07        -0.18250E-12         0.00000E+00
    0.49978E-07        -0.16335E-12         0.00000E+00
    0.49978E-07        -0.14315E-12         0.00000E+00
    0.49978E-07        -0.12190E-12         0.00000E+00
    0.49978E-07        -0.99601E-13         0.00000E+00
    0.49978E-07        -0.76258E-13         0.00000E+00
    0.49978E-07        -0.51871E-13         0.00000E+00
    0.49978E-07        -0.26441E-13         0.00000E+00
    0.49978E-07        -0.13466E-13         0.00000E+00
    0.49982E-07        -0.14164E-13         0.00000E+00
    0.49982E-07        -0.27889E-13         0.00000E+00
    0.49982E-07        -0.54732E-13         0.00000E+00
    0.49982E-07        -0.80364E-13         0.00000E+00
    0.49982E-07        -0.10479E-12         0.00000E+00
    0.49982E-07        -0.12802E-12         0.00000E+00
    0.49982E-07        -0.15005E-12         0.00000E+00
    0.49982E-07        -0.17090E-12         0.00000E+00
    0.49982E-07        -0.19056E-12         0.00000E+00
    0.49982E-07        -0.20903E-12         0.00000E+00
    0.49982E-07        -0.22634E-12         0.00000E+00
    0.49982E-07        -0.24247E-12         0.00000E+00
    0.49982E-07        -0.25743E-12         0.00000E+00
    0.49982E-07        -0.27124E-12         0.00000E+00
    0.49982E-07        -0.28388E-12         0.00000E+00
    0.49982E-07        -0.29538E-12         0.00000E+00
    0.49982E-07        -0.30572E-12         0.00000E+00
    0.49982E-07        -0.31493E-12         0.00000E+00
    0.49982E-07        -0.32299E-12         0.00000E+00
    0.49982E-07        -0.32992E-12         0.00000E+00
    0.49982E-07        -0.33571E-12         0.00000E+00
    0.49982E-07        -0.34038E-12         0.00000E+00
    0.49982E-07        -0.34392E-12         0.00000E+00
    0.49982E-07        -0.34634E-12         0.00000E+00
    0.49982E-07        -0.34765E-12         0.00000E+00
    0.49982E-07        -0.34784E-12         0.00000E+00
    0.49982E-07        -0.34693E-12         0.00000E+00
    0.49982E-07        -0.34491E-12         0.00000E+00
    0.49982E-07        -0.34178E-12         0.00000E+00
    0.49982E-07        -0.33756E-12         0.00000E+00
    0.49982E-07        -0.33224E-12         0.00000E+00
    0.49982E-07        -0.32583E-12         0.00000E+00
    0.49982E-07        -0.31833E-12         0.00000E+00
    0.49982E-07        -0.30975E-12         0.00000E+00
    0.49982E-07        -0.30008E-12         0.00000E+00
    0.49982E-07        -0.28933E-12         0.00000E+00
    0.49982E-07        -0.27750E-12         0.00000E+00
    0.49982E-07        -0.26459E-12         0.00000E+00
    0.49982E-07        -0.25061E-12         0.00000E+00
    0.49982E-07        -0.23557E-12         0.00000E+00
    0.49982E-07        -0.21945E-12         0.00000E+00
    0.49982E-07        -0.20227E-12         0.00000E+00
    0.49982E-07        -0.18402E-12         0.00000E+00
    0.49982E-07        -0.16471E-12         0.00000E+00
    0.49982E-07        -0.14434E-12         0.00000E+00
    0.49982E-07        -0.12292E-12         0.00000E+00
    0.49982E-07        -0.10043E-12         0.00000E+00
    0.49982E-07        -0.76896E-13         0.00000E+00
    0.49982E-07        -0.52306E-13         0.00000E+00
    0.49982E-07        -0.26663E-13         0.00000E+00
    0.49982E-07        -0.13580E-13         0.00000E+00
    0.49986E-07        -0.14253E-13         0.00000E+00
    0.49986E-07        -0.28063E-13         0.00000E+00
    0.49986E-07        -0.55075E-13         0.00000E+00
    0.49986E-07        -0.80870E-13         0.00000E+00
    0.49986E-07        -0.10545E-12         0.00000E+00
    0.49986E-07        -0.12883E-12         0.00000E+00
    0.49986E-07        -0.15100E-12         0.00000E+00
    0.49986E-07        -0.17198E-12         0.00000E+00
    0.49986E-07        -0.19177E-12         0.00000E+00
    0.49986E-07        -0.21037E-12         0.00000E+00
    0.49986E-07        -0.22778E-12         0.00000E+00
    0.49986E-07        -0.24402E-12         0.00000E+00
    0.49986E-07        -0.25908E-12         0.00000E+00
    0.49986E-07        -0.27298E-12         0.00000E+00
    0.49986E-07        -0.28571E-12         0.00000E+00
    0.49986E-07        -0.29729E-12         0.00000E+00
    0.49986E-07        -0.30770E-12         0.00000E+00
    0.49986E-07        -0.31697E-12         0.00000E+00
    0.49986E-07        -0.32509E-12         0.00000E+00
    0.49986E-07        -0.33206E-12         0.00000E+00
    0.49986E-07        -0.33790E-12         0.00000E+00
    0.49986E-07        -0.34260E-12         0.00000E+00
    0.49986E-07        -0.34617E-12         0.00000E+00
    0.49986E-07        -0.34861E-12         0.00000E+00
    0.49986E-07        -0.34993E-12         0.00000E+00
    0.49986E-07        -0.35013E-12         0.00000E+00
    0.49986E-07        -0.34921E-12         0.00000E+00
    0.49986E-07        -0.34718E-12         0.00000E+00
    0.49986E-07        -0.34404E-12         0.00000E+00
    0.49986E-07        -0.33980E-12         0.00000E+00
    0.49986E-07        -0.33445E-12         0.00000E+00
    0.49986E-07        -0.32800E-12         0.00000E+00
    0.49986E-07        -0.32045E-12         0.00000E+00
    0.49986E-07        -0.31181E-12         0.00000E+00
    0.49986E-07        -0.30208E-12         0.00000E+00
    0.49986E-07        -0.29126E-12         0.00000E+00
    0.49986E-07        -0.27936E-12         0.00000E+00
    0.49986E-07        -0.26637E-12         0.00000E+00
    0.49986E-07        -0.25230E-12         0.00000E+00
    0.49986E-07        -0.23715E-12         0.00000E+00
    0.49986E-07        -0.22093E-12         0.00000E+00
    0.49986E-07        -0.20363E-12         0.00000E+00
    0.49986E-07        -0.18526E-12         0.00000E+00
    0.49986E-07        -0.16583E-12         0.00000E+00
    0.49986E-07        -0.14532E-12         0.00000E+00
    0.49986E-07        -0.12375E-12         0.00000E+00
    0.49986E-07        -0.10112E-12         0.00000E+00
    0.49986E-07        -0.77420E-13         0.00000E+00
    0.49986E-07        -0.52662E-13         0.00000E+00
    0.49986E-07        -0.26845E-13         0.00000E+00
    0.49986E-07        -0.13672E-13         0.00000E+00
    0.49991E-07        -0.14323E-13         0.00000E+00
    0.49991E-07        -0.28202E-13         0.00000E+00
    0.49991E-07        -0.55348E-13         0.00000E+00
    0.49991E-07        -0.81271E-13         0.00000E+00
    0.49991E-07        -0.10598E-12         0.00000E+00
    0.49991E-07        -0.12947E-12         0.00000E+00
    0.49991E-07        -0.15176E-12         0.00000E+00
    0.49991E-07        -0.17284E-12         0.00000E+00
    0.49991E-07        -0.19273E-12         0.00000E+00
    0.49991E-07        -0.21142E-12         0.00000E+00
    0.49991E-07        -0.22892E-12         0.00000E+00
    0.49991E-07        -0.24525E-12         0.00000E+00
    0.49991E-07        -0.26039E-12         0.00000E+00
    0.49991E-07        -0.27436E-12         0.00000E+00
    0.49991E-07        -0.28716E-12         0.00000E+00
    0.49991E-07        -0.29879E-12         0.00000E+00
    0.49991E-07        -0.30926E-12         0.00000E+00
    0.49991E-07        -0.31858E-12         0.00000E+00
    0.49991E-07        -0.32674E-12         0.00000E+00
    0.49991E-07        -0.33375E-12         0.00000E+00
    0.49991E-07        -0.33962E-12         0.00000E+00
    0.49991E-07        -0.34435E-12         0.00000E+00
    0.49991E-07        -0.34794E-12         0.00000E+00
    0.49991E-07        -0.35040E-12         0.00000E+00
    0.49991E-07        -0.35173E-12         0.00000E+00
    0.49991E-07        -0.35193E-12         0.00000E+00
    0.49991E-07        -0.35101E-12         0.00000E+00
    0.49991E-07        -0.34897E-12         0.00000E+00
    0.49991E-07        -0.34582E-12         0.00000E+00
    0.49991E-07        -0.34156E-12         0.00000E+00
    0.49991E-07        -0.33618E-12         0.00000E+00
    0.49991E-07        -0.32970E-12         0.00000E+00
    0.49991E-07        -0.32212E-12         0.00000E+00
    0.49991E-07        -0.31343E-12         0.00000E+00
    0.49991E-07        -0.30365E-12         0.00000E+00
    0.49991E-07        -0.29278E-12         0.00000E+00
    0.49991E-07        -0.28082E-12         0.00000E+00
    0.49991E-07        -0.26776E-12         0.00000E+00
    0.49991E-07        -0.25362E-12         0.00000E+00
    0.49991E-07        -0.23840E-12         0.00000E+00
    0.49991E-07        -0.22209E-12         0.00000E+00
    0.49991E-07        -0.20470E-12         0.00000E+00
    0.49991E-07        -0.18624E-12         0.00000E+00
    0.49991E-07        -0.16670E-12         0.00000E+00
    0.49991E-07        -0.14609E-12         0.00000E+00
    0.49991E-07        -0.12440E-12         0.00000E+00
    0.49991E-07        -0.10165E-12         0.00000E+00
    0.49991E-07        -0.77829E-13         0.00000E+00
    0.49991E-07        -0.52941E-13         0.00000E+00
    0.49991E-07        -0.26988E-13         0.00000E+00
    0.49991E-07        -0.13745E-13         0.00000E+00
    0.49995E-07        -0.14375E-13         0.00000E+00
    0.49995E-07        -0.28305E-13         0.00000E+00
    0.49995E-07        -0.55549E-13         0.00000E+00
    0.49995E-07        -0.81567E-13         0.00000E+00
    0.49995E-07        -0.10636E-12         0.00000E+00
    0.49995E-07        -0.12994E-12         0.00000E+00
    0.49995E-07        -0.15231E-12         0.00000E+00
    0.49995E-07        -0.17347E-12         0.00000E+00
    0.49995E-07        -0.19343E-12         0.00000E+00
    0.49995E-07        -0.21219E-12         0.00000E+00
    0.49995E-07        -0.22976E-12         0.00000E+00
    0.49995E-07        -0.24615E-12         0.00000E+00
    0.49995E-07        -0.26135E-12         0.00000E+00
    0.49995E-07        -0.27537E-12         0.00000E+00
    0.49995E-07        -0.28821E-12         0.00000E+00
    0.49995E-07        -0.29989E-12         0.00000E+00
    0.49995E-07        -0.31040E-12         0.00000E+00
    0.49995E-07        -0.31975E-12         0.00000E+00
    0.49995E-07        -0.32795E-12         0.00000E+00
    0.49995E-07        -0.33499E-12         0.00000E+00
    0.49995E-07        -0.34088E-12         0.00000E+00
    0.49995E-07        -0.34563E-12         0.00000E+00
    0.49995E-07        -0.34923E-12         0.00000E+00
    0.49995E-07        -0.35170E-12         0.00000E+00
    0.49995E-07        -0.35304E-12         0.00000E+00
    0.49995E-07        -0.35324E-12         0.00000E+00
    0.49995E-07        -0.35232E-12         0.00000E+00
    0.49995E-07        -0.35028E-12         0.00000E+00
    0.49995E-07        -0.34711E-12         0.00000E+00
    0.49995E-07        -0.34283E-12         0.00000E+00
    0.49995E-07        -0.33744E-12         0.00000E+00
    0.49995E-07        -0.33093E-12         0.00000E+00
    0.49995E-07        -0.32332E-12         0.00000E+00
    0.49995E-07        -0.31461E-12         0.00000E+00
    0.49995E-07        -0.30479E-12         0.00000E+00
    0.49995E-07        -0.29388E-12         0.00000E+00
    0.49995E-07        -0.28187E-12         0.00000E+00
    0.49995E-07        -0.26877E-12         0.00000E+00
    0.49995E-07        -0.25457E-12         0.00000E+00
    0.49995E-07        -0.23929E-12         0.00000E+00
    0.49995E-07        -0.22293E-12         0.00000E+00
    0.49995E-07        -0.20547E-12         0.00000E+00
    0.49995E-07        -0.18694E-12         0.00000E+00
    0.49995E-07        -0.16733E-12         0.00000E+00
    0.49995E-07        -0.14664E-12         0.00000E+00
    0.49995E-07        -0.12487E-12         0.00000E+00
    0.49995E-07        -0.10204E-12         0.00000E+00
    0.49995E-07        -0.78124E-13         0.00000E+00
    0.49995E-07        -0.53142E-13         0.00000E+00
    0.49995E-07        -0.27090E-13         0.00000E+00
    0.49995E-07        -0.13797E-13         0.00000E+00
    0.49999E-07        -0.14409E-13         0.00000E+00
    0.49999E-07        -0.28371E-13         0.00000E+00
    0.49999E-07        -0.55679E-13         0.00000E+00
    0.49999E-07        -0.81758E-13         0.00000E+00
    0.49999E-07        -0.10661E-12         0.00000E+00
    0.49999E-07        -0.13025E-12         0.00000E+00
    0.49999E-07        -0.15267E-12         0.00000E+00
    0.49999E-07        -0.17388E-12         0.00000E+00
    0.49999E-07        -0.19388E-12         0.00000E+00
    0.49999E-07        -0.21269E-12         0.00000E+00
    0.49999E-07        -0.23030E-12         0.00000E+00
    0.49999E-07        -0.24672E-12         0.00000E+00
    0.49999E-07        -0.26195E-12         0.00000E+00
    0.49999E-07        -0.27601E-12         0.00000E+00
    0.49999E-07        -0.28888E-12         0.00000E+00
    0.49999E-07        -0.30059E-12         0.00000E+00
    0.49999E-07        -0.31112E-12         0.00000E+00
    0.49999E-07        -0.32050E-12         0.00000E+00
    0.49999E-07        -0.32871E-12         0.00000E+00
    0.49999E-07        -0.33577E-12         0.00000E+00
    0.49999E-07        -0.34167E-12         0.00000E+00
    0.49999E-07        -0.34643E-12         0.00000E+00
    0.49999E-07        -0.35004E-12         0.00000E+00
    0.49999E-07        -0.35252E-12         0.00000E+00
    0.49999E-07        -0.35385E-12         0.00000E+00
    0.49999E-07        -0.35406E-12         0.00000E+00
    0.49999E-07        -0.35314E-12         0.00000E+00
    0.49999E-07        -0.35109E-12         0.00000E+00
    0.49999E-07        -0.34791E-12         0.00000E+00
    0.49999E-07        -0.34362E-12         0.00000E+00
    0.49999E-07        -0.33822E-12         0.00000E+00
    0.49999E-07        -0.33170E-12         0.00000E+00
    0.49999E-07        -0.32407E-12         0.00000E+00
    0.49999E-07        -0.31534E-12         0.00000E+00
    0.49999E-07        -0.30550E-12         0.00000E+00
    0.49999E-07        -0.29456E-12         0.00000E+00
    0.49999E-07        -0.28252E-12         0.00000E+00
    0.49999E-07        -0.26939E-12         0.00000E+00
    0.49999E-07        -0.25516E-12         0.00000E+00
    0.49999E-07        -0.23985E-12         0.00000E+00
    0.49999E-07        -0.22344E-12         0.00000E+00
    0.49999E-07        -0.20595E-12         0.00000E+00
    0.49999E-07        -0.18737E-12         0.00000E+00
    0.49999E-07        -0.16772E-12         0.00000E+00
    0.49999E-07        -0.14698E-12         0.00000E+00
    0.49999E-07        -0.12516E-12         0.00000E+00
    0.49999E-07        -0.10227E-12         0.00000E+00
    0.49999E-07        -0.78304E-13         0.00000E+00
    0.49999E-07        -0.53264E-13         0.00000E+00
    0.49999E-07        -0.27152E-13         0.00000E+00
    0.49999E-07        -0.13829E-13         0.00000E+00
    0.50004E-07        -0.14424E-13         0.00000E+00
    0.50004E-07        -0.28401E-13         0.00000E+00
    0.50004E-07        -0.55737E-13         0.00000E+00
    0.50004E-07        -0.81842E-13         0.00000E+00
    0.50004E-07        -0.10672E-12         0.00000E+00
    0.50004E-07        -0.13038E-12         0.00000E+00
    0.50004E-07        -0.15282E-12         0.00000E+00
    0.50004E-07        -0.17405E-12         0.00000E+00
    0.50004E-07        -0.19408E-12         0.00000E+00
    0.50004E-07        -0.21290E-12         0.00000E+00
    0.50004E-07        -0.23053E-12         0.00000E+00
    0.50004E-07        -0.24696E-12         0.00000E+00
    0.50004E-07        -0.26221E-12         0.00000E+00
    0.50004E-07        -0.27628E-12         0.00000E+00
    0.50004E-07        -0.28916E-12         0.00000E+00
    0.50004E-07        -0.30088E-12         0.00000E+00
    0.50004E-07        -0.31142E-12         0.00000E+00
    0.50004E-07        -0.32080E-12         0.00000E+00
    0.50004E-07        -0.32902E-12         0.00000E+00
    0.50004E-07        -0.33608E-12         0.00000E+00
    0.50004E-07        -0.34199E-12         0.00000E+00
    0.50004E-07        -0.34675E-12         0.00000E+00
    0.50004E-07        -0.35037E-12         0.00000E+00
    0.50004E-07        -0.35284E-12         0.00000E+00
    0.50004E-07        -0.35418E-12         0.00000E+00
    0.50004E-07        -0.35438E-12         0.00000E+00
    0.50004E-07        -0.35346E-12         0.00000E+00
    0.50004E-07        -0.35140E-12         0.00000E+00
    0.50004E-07        -0.34823E-12         0.00000E+00
    0.50004E-07        -0.34393E-12         0.00000E+00
    0.50004E-07        -0.33852E-12         0.00000E+00
    0.50004E-07        -0.33199E-12         0.00000E+00
    0.50004E-07        -0.32436E-12         0.00000E+00
    0.50004E-07        -0.31561E-12         0.00000E+00
    0.50004E-07        -0.30577E-12         0.00000E+00
    0.50004E-07        -0.29482E-12         0.00000E+00
    0.50004E-07        -0.28277E-12         0.00000E+00
    0.50004E-07        -0.26962E-12         0.00000E+00
    0.50004E-07        -0.25538E-12         0.00000E+00
    0.50004E-07        -0.24005E-12         0.00000E+00
    0.50004E-07        -0.22363E-12         0.00000E+00
    0.50004E-07        -0.20612E-12         0.00000E+00
    0.50004E-07        -0.18753E-12         0.00000E+00
    0.50004E-07        -0.16786E-12         0.00000E+00
    0.50004E-07        -0.14710E-12         0.00000E+00
    0.50004E-07        -0.12527E-12         0.00000E+00
    0.50004E-07        -0.10236E-12         0.00000E+00
    0.50004E-07        -0.78369E-13         0.00000E+00
    0.50004E-07        -0.53308E-13         0.00000E+00
    0.50004E-07        -0.27175E-13         0.00000E+00
    0.50004E-07        -0.13840E-13         0.00000E+00
    0.50008E-07        -0.14420E-13         0.00000E+00
    0.50008E-07        -0.28393E-13         0.00000E+00
    0.50008E-07        -0.55722E-13         0.00000E+00
    0.50008E-07        -0.81820E-13         0.00000E+00
    0.50008E-07        -0.10669E-12         0.00000E+00
    0.50008E-07        -0.13034E-12         0.00000E+00
    0.50008E-07        -0.15278E-12         0.00000E+00
    0.50008E-07        -0.17400E-12         0.00000E+00
    0.50008E-07        -0.19401E-12         0.00000E+00
    0.50008E-07        -0.21283E-12         0.00000E+00
    0.50008E-07        -0.23045E-12         0.00000E+00
    0.50008E-07        -0.24688E-12         0.00000E+00
    0.50008E-07        -0.26212E-12         0.00000E+00
    0.50008E-07        -0.27617E-12         0.00000E+00
    0.50008E-07        -0.28905E-12         0.00000E+00
    0.50008E-07        -0.30076E-12         0.00000E+00
    0.50008E-07        -0.31130E-12         0.00000E+00
    0.50008E-07        -0.32067E-12         0.00000E+00
    0.50008E-07        -0.32888E-12         0.00000E+00
    0.50008E-07        -0.33594E-12         0.00000E+00
    0.50008E-07        -0.34184E-12         0.00000E+00
    0.50008E-07        -0.34660E-12         0.00000E+00
    0.50008E-07        -0.35021E-12         0.00000E+00
    0.50008E-07        -0.35268E-12         0.00000E+00
    0.50008E-07        -0.35401E-12         0.00000E+00
    0.50008E-07        -0.35421E-12         0.00000E+00
    0.50008E-07        -0.35328E-12         0.00000E+00
    0.50008E-07        -0.35123E-12         0.00000E+00
    0.50008E-07        -0.34805E-12         0.00000E+00
    0.50008E-07        -0.34375E-12         0.00000E+00
    0.50008E-07        -0.33834E-12         0.00000E+00
    0.50008E-07        -0.33182E-12         0.00000E+00
    0.50008E-07        -0.32418E-12         0.00000E+00
    0.50008E-07        -0.31544E-12         0.00000E+00
    0.50008E-07        -0.30559E-12         0.00000E+00
    0.50008E-07        -0.29465E-12         0.00000E+00
    0.50008E-07        -0.28260E-12         0.00000E+00
    0.50008E-07        -0.26946E-12         0.00000E+00
    0.50008E-07        -0.25523E-12         0.00000E+00
    0.50008E-07        -0.23991E-12         0.00000E+00
    0.50008E-07        -0.22350E-12         0.00000E+00
    0.50008E-07        -0.20600E-12         0.00000E+00
    0.50008E-07        -0.18742E-12         0.00000E+00
    0.50008E-07        -0.16775E-12         0.00000E+00
    0.50008E-07        -0.14701E-12         0.00000E+00
    0.50008E-07        -0.12519E-12         0.00000E+00
    0.50008E-07        -0.10229E-12         0.00000E+00
    0.50008E-07        -0.78318E-13         0.00000E+00
    0.50008E-07        -0.53273E-13         0.00000E+00
    0.50008E-07        -0.27157E-13         0.00000E+00
    0.50008E-07        -0.13831E-13         0.00000E+00
    0.50013E-07        -0.14398E-13         0.00000E+00
    0.50013E-07        -0.28349E-13         0.00000E+00
    0.50013E-07        -0.55635E-13         0.00000E+00
    0.50013E-07        -0.81690E-13         0.00000E+00
    0.50013E-07        -0.10652E-12         0.00000E+00
    0.50013E-07        -0.13013E-12         0.00000E+00
    0.50013E-07        -0.15253E-12         0.00000E+00
    0.50013E-07        -0.17371E-12         0.00000E+00
    0.50013E-07        -0.19369E-12         0.00000E+00
    0.50013E-07        -0.21247E-12         0.00000E+00
    0.50013E-07        -0.23006E-12         0.00000E+00
    0.50013E-07        -0.24646E-12         0.00000E+00
    0.50013E-07        -0.26167E-12         0.00000E+00
    0.50013E-07        -0.27569E-12         0.00000E+00
    0.50013E-07        -0.28855E-12         0.00000E+00
    0.50013E-07        -0.30023E-12         0.00000E+00
    0.50013E-07        -0.31074E-12         0.00000E+00
    0.50013E-07        -0.32010E-12         0.00000E+00
    0.50013E-07        -0.32829E-12         0.00000E+00
    0.50013E-07        -0.33533E-12         0.00000E+00
    0.50013E-07        -0.34121E-12         0.00000E+00
    0.50013E-07        -0.34596E-12         0.00000E+00
    0.50013E-07        -0.34956E-12         0.00000E+00
    0.50013E-07        -0.35202E-12         0.00000E+00
    0.50013E-07        -0.35334E-12         0.00000E+00
    0.50013E-07        -0.35354E-12         0.00000E+00
    0.50013E-07        -0.35261E-12         0.00000E+00
    0.50013E-07        -0.35055E-12         0.00000E+00
    0.50013E-07        -0.34738E-12         0.00000E+00
    0.50013E-07        -0.34308E-12         0.00000E+00
    0.50013E-07        -0.33768E-12         0.00000E+00
    0.50013E-07        -0.33116E-12         0.00000E+00
    0.50013E-07        -0.32354E-12         0.00000E+00
    0.50013E-07        -0.31481E-12         0.00000E+00
    0.50013E-07        -0.30498E-12         0.00000E+00
    0.50013E-07        -0.29405E-12         0.00000E+00
    0.50013E-07        -0.28203E-12         0.00000E+00
    0.50013E-07        -0.26891E-12         0.00000E+00
    0.50013E-07        -0.25471E-12         0.00000E+00
    0.50013E-07        -0.23941E-12         0.00000E+00
    0.50013E-07        -0.22303E-12         0.00000E+00
    0.50013E-07        -0.20557E-12         0.00000E+00
    0.50013E-07        -0.18702E-12         0.00000E+00
    0.50013E-07        -0.16740E-12         0.00000E+00
    0.50013E-07        -0.14670E-12         0.00000E+00
    0.50013E-07        -0.12492E-12         0.00000E+00
    0.50013E-07        -0.10207E-12         0.00000E+00
    0.50013E-07        -0.78150E-13         0.00000E+00
    0.50013E-07        -0.53158E-13         0.00000E+00
    0.50013E-07        -0.27098E-13         0.00000E+00
    0.50013E-07        -0.13801E-13         0.00000E+00
    0.50017E-07        -0.14357E-13         0.00000E+00
    0.50017E-07        -0.28268E-13         0.00000E+00
    0.50017E-07        -0.55474E-13         0.00000E+00
    0.50017E-07        -0.81452E-13         0.00000E+00
    0.50017E-07        -0.10621E-12         0.00000E+00
    0.50017E-07        -0.12975E-12         0.00000E+00
    0.50017E-07        -0.15207E-12         0.00000E+00
    0.50017E-07        -0.17319E-12         0.00000E+00
    0.50017E-07        -0.19311E-12         0.00000E+00
    0.50017E-07        -0.21183E-12         0.00000E+00
    0.50017E-07        -0.22936E-12         0.00000E+00
    0.50017E-07        -0.24570E-12         0.00000E+00
    0.50017E-07        -0.26086E-12         0.00000E+00
    0.50017E-07        -0.27484E-12         0.00000E+00
    0.50017E-07        -0.28764E-12         0.00000E+00
    0.50017E-07        -0.29928E-12         0.00000E+00
    0.50017E-07        -0.30976E-12         0.00000E+00
    0.50017E-07        -0.31908E-12         0.00000E+00
    0.50017E-07        -0.32724E-12         0.00000E+00
    0.50017E-07        -0.33425E-12         0.00000E+00
    0.50017E-07        -0.34011E-12         0.00000E+00
    0.50017E-07        -0.34483E-12         0.00000E+00
    0.50017E-07        -0.34841E-12         0.00000E+00
    0.50017E-07        -0.35086E-12         0.00000E+00
    0.50017E-07        -0.35217E-12         0.00000E+00
    0.50017E-07        -0.35236E-12         0.00000E+00
    0.50017E-07        -0.35143E-12         0.00000E+00
    0.50017E-07        -0.34937E-12         0.00000E+00
    0.50017E-07        -0.34620E-12         0.00000E+00
    0.50017E-07        -0.34192E-12         0.00000E+00
    0.50017E-07        -0.33653E-12         0.00000E+00
    0.50017E-07        -0.33003E-12         0.00000E+00
    0.50017E-07        -0.32242E-12         0.00000E+00
    0.50017E-07        -0.31372E-12         0.00000E+00
    0.50017E-07        -0.30392E-12         0.00000E+00
    0.50017E-07        -0.29303E-12         0.00000E+00
    0.50017E-07        -0.28104E-12         0.00000E+00
    0.50017E-07        -0.26797E-12         0.00000E+00
    0.50017E-07        -0.25381E-12         0.00000E+00
    0.50017E-07        -0.23856E-12         0.00000E+00
    0.50017E-07        -0.22224E-12         0.00000E+00
    0.50017E-07        -0.20483E-12         0.00000E+00
    0.50017E-07        -0.18635E-12         0.00000E+00
    0.50017E-07        -0.16680E-12         0.00000E+00
    0.50017E-07        -0.14617E-12         0.00000E+00
    0.50017E-07        -0.12447E-12         0.00000E+00
    0.50017E-07        -0.10170E-12         0.00000E+00
    0.50017E-07        -0.77864E-13         0.00000E+00
    0.50017E-07        -0.52963E-13         0.00000E+00
    0.50017E-07        -0.26998E-13         0.00000E+00
    0.50017E-07        -0.13750E-13         0.00000E+00
    0.50021E-07        -0.14296E-13         0.00000E+00
    0.50021E-07        -0.28148E-13         0.00000E+00
    0.50021E-07        -0.55238E-13         0.00000E+00
    0.50021E-07        -0.81105E-13         0.00000E+00
    0.50021E-07        -0.10575E-12         0.00000E+00
    0.50021E-07        -0.12919E-12         0.00000E+00
    0.50021E-07        -0.15141E-12         0.00000E+00
    0.50021E-07        -0.17244E-12         0.00000E+00
    0.50021E-07        -0.19226E-12         0.00000E+00
    0.50021E-07        -0.21089E-12         0.00000E+00
    0.50021E-07        -0.22834E-12         0.00000E+00
    0.50021E-07        -0.24460E-12         0.00000E+00
    0.50021E-07        -0.25969E-12         0.00000E+00
    0.50021E-07        -0.27360E-12         0.00000E+00
    0.50021E-07        -0.28634E-12         0.00000E+00
    0.50021E-07        -0.29792E-12         0.00000E+00
    0.50021E-07        -0.30834E-12         0.00000E+00
    0.50021E-07        -0.31761E-12         0.00000E+00
    0.50021E-07        -0.32572E-12         0.00000E+00
    0.50021E-07        -0.33269E-12         0.00000E+00
    0.50021E-07        -0.33852E-12         0.00000E+00
    0.50021E-07        -0.34321E-12         0.00000E+00
    0.50021E-07        -0.34676E-12         0.00000E+00
    0.50021E-07        -0.34919E-12         0.00000E+00
    0.50021E-07        -0.35049E-12         0.00000E+00
    0.50021E-07        -0.35067E-12         0.00000E+00
    0.50021E-07        -0.34974E-12         0.00000E+00
    0.50021E-07        -0.34768E-12         0.00000E+00
    0.50021E-07        -0.34452E-12         0.00000E+00
    0.50021E-07        -0.34025E-12         0.00000E+00
    0.50021E-07        -0.33488E-12         0.00000E+00
    0.50021E-07        -0.32840E-12         0.00000E+00
    0.50021E-07        -0.32083E-12         0.00000E+00
    0.50021E-07        -0.31217E-12         0.00000E+00
    0.50021E-07        -0.30241E-12         0.00000E+00
    0.50021E-07        -0.29156E-12         0.00000E+00
    0.50021E-07        -0.27963E-12         0.00000E+00
    0.50021E-07        -0.26662E-12         0.00000E+00
    0.50021E-07        -0.25252E-12         0.00000E+00
    0.50021E-07        -0.23735E-12         0.00000E+00
    0.50021E-07        -0.22111E-12         0.00000E+00
    0.50021E-07        -0.20379E-12         0.00000E+00
    0.50021E-07        -0.18540E-12         0.00000E+00
    0.50021E-07        -0.16594E-12         0.00000E+00
    0.50021E-07        -0.14541E-12         0.00000E+00
    0.50021E-07        -0.12382E-12         0.00000E+00
    0.50021E-07        -0.10117E-12         0.00000E+00
    0.50021E-07        -0.77459E-13         0.00000E+00
    0.50021E-07        -0.52687E-13         0.00000E+00
    0.50021E-07        -0.26857E-13         0.00000E+00
    0.50021E-07        -0.13678E-13         0.00000E+00
    0.50026E-07        -0.14217E-13         0.00000E+00
    0.50026E-07        -0.27991E-13         0.00000E+00
    0.50026E-07        -0.54928E-13         0.00000E+00
    0.50026E-07        -0.80647E-13         0.00000E+00
    0.50026E-07        -0.10515E-12         0.00000E+00
    0.50026E-07        -0.12845E-12         0.00000E+00
    0.50026E-07        -0.15054E-12         0.00000E+00
    0.50026E-07        -0.17144E-12         0.00000E+00
    0.50026E-07        -0.19115E-12         0.00000E+00
    0.50026E-07        -0.20966E-12         0.00000E+00
    0.50026E-07        -0.22700E-12         0.00000E+00
    0.50026E-07        -0.24316E-12         0.00000E+00
    0.50026E-07        -0.25815E-12         0.00000E+00
    0.50026E-07        -0.27197E-12         0.00000E+00
    0.50026E-07        -0.28463E-12         0.00000E+00
    0.50026E-07        -0.29613E-12         0.00000E+00
    0.50026E-07        -0.30648E-12         0.00000E+00
    0.50026E-07        -0.31568E-12         0.00000E+00
    0.50026E-07        -0.32374E-12         0.00000E+00
    0.50026E-07        -0.33065E-12         0.00000E+00
    0.50026E-07        -0.33644E-12         0.00000E+00
    0.50026E-07        -0.34109E-12         0.00000E+00
    0.50026E-07        -0.34461E-12         0.00000E+00
    0.50026E-07        -0.34702E-12         0.00000E+00
    0.50026E-07        -0.34830E-12         0.00000E+00
    0.50026E-07        -0.34847E-12         0.00000E+00
    0.50026E-07        -0.34753E-12         0.00000E+00
    0.50026E-07        -0.34548E-12         0.00000E+00
    0.50026E-07        -0.34233E-12         0.00000E+00
    0.50026E-07        -0.33808E-12         0.00000E+00
    0.50026E-07        -0.33273E-12         0.00000E+00
    0.50026E-07        -0.32629E-12         0.00000E+00
    0.50026E-07        -0.31876E-12         0.00000E+00
    0.50026E-07        -0.31014E-12         0.00000E+00
    0.50026E-07        -0.30044E-12         0.00000E+00
    0.50026E-07        -0.28966E-12         0.00000E+00
    0.50026E-07        -0.27780E-12         0.00000E+00
    0.50026E-07        -0.26486E-12         0.00000E+00
    0.50026E-07        -0.25086E-12         0.00000E+00
    0.50026E-07        -0.23578E-12         0.00000E+00
    0.50026E-07        -0.21964E-12         0.00000E+00
    0.50026E-07        -0.20243E-12         0.00000E+00
    0.50026E-07        -0.18416E-12         0.00000E+00
    0.50026E-07        -0.16483E-12         0.00000E+00
    0.50026E-07        -0.14444E-12         0.00000E+00
    0.50026E-07        -0.12299E-12         0.00000E+00
    0.50026E-07        -0.10049E-12         0.00000E+00
    0.50026E-07        -0.76934E-13         0.00000E+00
    0.50026E-07        -0.52329E-13         0.00000E+00
    0.50026E-07        -0.26674E-13         0.00000E+00
    0.50026E-07        -0.13584E-13         0.00000E+00
    0.50030E-07        -0.14118E-13         0.00000E+00
    0.50030E-07        -0.27795E-13         0.00000E+00
    0.50030E-07        -0.54542E-13         0.00000E+00
    0.50030E-07        -0.80077E-13         0.00000E+00
    0.50030E-07        -0.10441E-12         0.00000E+00
    0.50030E-07        -0.12753E-12         0.00000E+00
    0.50030E-07        -0.14946E-12         0.00000E+00
    0.50030E-07        -0.17021E-12         0.00000E+00
    0.50030E-07        -0.18976E-12         0.00000E+00
    0.50030E-07        -0.20814E-12         0.00000E+00
    0.50030E-07        -0.22534E-12         0.00000E+00
    0.50030E-07        -0.24137E-12         0.00000E+00
    0.50030E-07        -0.25624E-12         0.00000E+00
    0.50030E-07        -0.26995E-12         0.00000E+00
    0.50030E-07        -0.28251E-12         0.00000E+00
    0.50030E-07        -0.29391E-12         0.00000E+00
    0.50030E-07        -0.30417E-12         0.00000E+00
    0.50030E-07        -0.31329E-12         0.00000E+00
    0.50030E-07        -0.32128E-12         0.00000E+00
    0.50030E-07        -0.32813E-12         0.00000E+00
    0.50030E-07        -0.33386E-12         0.00000E+00
    0.50030E-07        -0.33847E-12         0.00000E+00
    0.50030E-07        -0.34195E-12         0.00000E+00
    0.50030E-07        -0.34433E-12         0.00000E+00
    0.50030E-07        -0.34559E-12         0.00000E+00
    0.50030E-07        -0.34575E-12         0.00000E+00
    0.50030E-07        -0.34480E-12         0.00000E+00
    0.50030E-07        -0.34276E-12         0.00000E+00
    0.50030E-07        -0.33962E-12         0.00000E+00
    0.50030E-07        -0.33539E-12         0.00000E+00
    0.50030E-07        -0.33008E-12         0.00000E+00
    0.50030E-07        -0.32368E-12         0.00000E+00
    0.50030E-07        -0.31620E-12         0.00000E+00
    0.50030E-07        -0.30764E-12         0.00000E+00
    0.50030E-07        -0.29801E-12         0.00000E+00
    0.50030E-07        -0.28731E-12         0.00000E+00
    0.50030E-07        -0.27554E-12         0.00000E+00
    0.50030E-07        -0.26270E-12         0.00000E+00
    0.50030E-07        -0.24880E-12         0.00000E+00
    0.50030E-07        -0.23384E-12         0.00000E+00
    0.50030E-07        -0.21782E-12         0.00000E+00
    0.50030E-07        -0.20075E-12         0.00000E+00
    0.50030E-07        -0.18263E-12         0.00000E+00
    0.50030E-07        -0.16345E-12         0.00000E+00
    0.50030E-07        -0.14323E-12         0.00000E+00
    0.50030E-07        -0.12196E-12         0.00000E+00
    0.50030E-07        -0.99643E-13         0.00000E+00
    0.50030E-07        -0.76286E-13         0.00000E+00
    0.50030E-07        -0.51887E-13         0.00000E+00
    0.50030E-07        -0.26448E-13         0.00000E+00
    0.50030E-07        -0.13469E-13         0.00000E+00
    0.50034E-07        -0.13999E-13         0.00000E+00
    0.50034E-07        -0.27561E-13         0.00000E+00
    0.50034E-07        -0.54080E-13         0.00000E+00
    0.50034E-07        -0.79395E-13         0.00000E+00
    0.50034E-07        -0.10351E-12         0.00000E+00
    0.50034E-07        -0.12644E-12         0.00000E+00
    0.50034E-07        -0.14817E-12         0.00000E+00
    0.50034E-07        -0.16873E-12         0.00000E+00
    0.50034E-07        -0.18811E-12         0.00000E+00
    0.50034E-07        -0.20631E-12         0.00000E+00
    0.50034E-07        -0.22335E-12         0.00000E+00
    0.50034E-07        -0.23924E-12         0.00000E+00
    0.50034E-07        -0.25396E-12         0.00000E+00
    0.50034E-07        -0.26754E-12         0.00000E+00
    0.50034E-07        -0.27997E-12         0.00000E+00
    0.50034E-07        -0.29126E-12         0.00000E+00
    0.50034E-07        -0.30142E-12         0.00000E+00
    0.50034E-07        -0.31044E-12         0.00000E+00
    0.50034E-07        -0.31834E-12         0.00000E+00
    0.50034E-07        -0.32512E-12         0.00000E+00
    0.50034E-07        -0.33078E-12         0.00000E+00
    0.50034E-07        -0.33533E-12         0.00000E+00
    0.50034E-07        -0.33877E-12         0.00000E+00
    0.50034E-07        -0.34111E-12         0.00000E+00
    0.50034E-07        -0.34235E-12         0.00000E+00
    0.50034E-07        -0.34249E-12         0.00000E+00
    0.50034E-07        -0.34154E-12         0.00000E+00
    0.50034E-07        -0.33951E-12         0.00000E+00
    0.50034E-07        -0.33639E-12         0.00000E+00
    0.50034E-07        -0.33219E-12         0.00000E+00
    0.50034E-07        -0.32691E-12         0.00000E+00
    0.50034E-07        -0.32056E-12         0.00000E+00
    0.50034E-07        -0.31314E-12         0.00000E+00
    0.50034E-07        -0.30466E-12         0.00000E+00
    0.50034E-07        -0.29511E-12         0.00000E+00
    0.50034E-07        -0.28450E-12         0.00000E+00
    0.50034E-07        -0.27283E-12         0.00000E+00
    0.50034E-07        -0.26012E-12         0.00000E+00
    0.50034E-07        -0.24634E-12         0.00000E+00
    0.50034E-07        -0.23153E-12         0.00000E+00
    0.50034E-07        -0.21566E-12         0.00000E+00
    0.50034E-07        -0.19875E-12         0.00000E+00
    0.50034E-07        -0.18080E-12         0.00000E+00
    0.50034E-07        -0.16181E-12         0.00000E+00
    0.50034E-07        -0.14179E-12         0.00000E+00
    0.50034E-07        -0.12073E-12         0.00000E+00
    0.50034E-07        -0.98637E-13         0.00000E+00
    0.50034E-07        -0.75513E-13         0.00000E+00
    0.50034E-07        -0.51360E-13         0.00000E+00
    0.50034E-07        -0.26179E-13         0.00000E+00
    0.50034E-07        -0.13332E-13         0.00000E+00
    0.50039E-07        -0.13861E-13         0.00000E+00
    0.50039E-07        -0.27287E-13         0.00000E+00
    0.50039E-07        -0.53540E-13         0.00000E+00
    0.50039E-07        -0.78599E-13         0.00000E+00
    0.50039E-07        -0.10247E-12         0.00000E+00
    0.50039E-07        -0.12516E-12         0.00000E+00
    0.50039E-07        -0.14666E-12         0.00000E+00
    0.50039E-07        -0.16700E-12         0.00000E+00
    0.50039E-07        -0.18617E-12         0.00000E+00
    0.50039E-07        -0.20418E-12         0.00000E+00
    0.50039E-07        -0.22104E-12         0.00000E+00
    0.50039E-07        -0.23674E-12         0.00000E+00
    0.50039E-07        -0.25130E-12         0.00000E+00
    0.50039E-07        -0.26472E-12         0.00000E+00
    0.50039E-07        -0.27701E-12         0.00000E+00
    0.50039E-07        -0.28817E-12         0.00000E+00
    0.50039E-07        -0.29820E-12         0.00000E+00
    0.50039E-07        -0.30712E-12         0.00000E+00
    0.50039E-07        -0.31492E-12         0.00000E+00
    0.50039E-07        -0.32161E-12         0.00000E+00
    0.50039E-07        -0.32719E-12         0.00000E+00
    0.50039E-07        -0.33168E-12         0.00000E+00
    0.50039E-07        -0.33506E-12         0.00000E+00
    0.50039E-07        -0.33736E-12         0.00000E+00
    0.50039E-07        -0.33857E-12         0.00000E+00
    0.50039E-07        -0.33870E-12         0.00000E+00
    0.50039E-07        -0.33774E-12         0.00000E+00
    0.50039E-07        -0.33572E-12         0.00000E+00
    0.50039E-07        -0.33262E-12         0.00000E+00
    0.50039E-07        -0.32845E-12         0.00000E+00
    0.50039E-07        -0.32322E-12         0.00000E+00
    0.50039E-07        -0.31693E-12         0.00000E+00
    0.50039E-07        -0.30958E-12         0.00000E+00
    0.50039E-07        -0.30118E-12         0.00000E+00
    0.50039E-07        -0.29173E-12         0.00000E+00
    0.50039E-07        -0.28123E-12         0.00000E+00
    0.50039E-07        -0.26969E-12         0.00000E+00
    0.50039E-07        -0.25711E-12         0.00000E+00
    0.50039E-07        -0.24349E-12         0.00000E+00
    0.50039E-07        -0.22883E-12         0.00000E+00
    0.50039E-07        -0.21314E-12         0.00000E+00
    0.50039E-07        -0.19642E-12         0.00000E+00
    0.50039E-07        -0.17868E-12         0.00000E+00
    0.50039E-07        -0.15991E-12         0.00000E+00
    0.50039E-07        -0.14011E-12         0.00000E+00
    0.50039E-07        -0.11930E-12         0.00000E+00
    0.50039E-07        -0.97465E-13         0.00000E+00
    0.50039E-07        -0.74613E-13         0.00000E+00
    0.50039E-07        -0.50746E-13         0.00000E+00
    0.50039E-07        -0.25865E-13         0.00000E+00
    0.50039E-07        -0.13172E-13         0.00000E+00
    0.50043E-07        -0.13702E-13         0.00000E+00
    0.50043E-07        -0.26973E-13         0.00000E+00
    0.50043E-07        -0.52922E-13         0.00000E+00
    0.50043E-07        -0.77687E-13         0.00000E+00
    0.50043E-07        -0.10127E-12         0.00000E+00
    0.50043E-07        -0.12369E-12         0.00000E+00
    0.50043E-07        -0.14494E-12         0.00000E+00
    0.50043E-07        -0.16503E-12         0.00000E+00
    0.50043E-07        -0.18396E-12         0.00000E+00
    0.50043E-07        -0.20174E-12         0.00000E+00
    0.50043E-07        -0.21838E-12         0.00000E+00
    0.50043E-07        -0.23389E-12         0.00000E+00
    0.50043E-07        -0.24826E-12         0.00000E+00
    0.50043E-07        -0.26150E-12         0.00000E+00
    0.50043E-07        -0.27362E-12         0.00000E+00
    0.50043E-07        -0.28463E-12         0.00000E+00
    0.50043E-07        -0.29452E-12         0.00000E+00
    0.50043E-07        -0.30331E-12         0.00000E+00
    0.50043E-07        -0.31100E-12         0.00000E+00
    0.50043E-07        -0.31759E-12         0.00000E+00
    0.50043E-07        -0.32308E-12         0.00000E+00
    0.50043E-07        -0.32749E-12         0.00000E+00
    0.50043E-07        -0.33082E-12         0.00000E+00
    0.50043E-07        -0.33307E-12         0.00000E+00
    0.50043E-07        -0.33425E-12         0.00000E+00
    0.50043E-07        -0.33436E-12         0.00000E+00
    0.50043E-07        -0.33340E-12         0.00000E+00
    0.50043E-07        -0.33138E-12         0.00000E+00
    0.50043E-07        -0.32830E-12         0.00000E+00
    0.50043E-07        -0.32417E-12         0.00000E+00
    0.50043E-07        -0.31899E-12         0.00000E+00
    0.50043E-07        -0.31277E-12         0.00000E+00
    0.50043E-07        -0.30550E-12         0.00000E+00
    0.50043E-07        -0.29720E-12         0.00000E+00
    0.50043E-07        -0.28786E-12         0.00000E+00
    0.50043E-07        -0.27749E-12         0.00000E+00
    0.50043E-07        -0.26609E-12         0.00000E+00
    0.50043E-07        -0.25366E-12         0.00000E+00
    0.50043E-07        -0.24021E-12         0.00000E+00
    0.50043E-07        -0.22575E-12         0.00000E+00
    0.50043E-07        -0.21026E-12         0.00000E+00
    0.50043E-07        -0.19376E-12         0.00000E+00
    0.50043E-07        -0.17625E-12         0.00000E+00
    0.50043E-07        -0.15773E-12         0.00000E+00
    0.50043E-07        -0.13820E-12         0.00000E+00
    0.50043E-07        -0.11766E-12         0.00000E+00
    0.50043E-07        -0.96124E-13         0.00000E+00
    0.50043E-07        -0.73584E-13         0.00000E+00
    0.50043E-07        -0.50044E-13         0.00000E+00
    0.50043E-07        -0.25507E-13         0.00000E+00
    0.50043E-07        -0.12988E-13         0.00000E+00
    0.50047E-07        -0.13523E-13         0.00000E+00
    0.50047E-07        -0.26619E-13         0.00000E+00
    0.50047E-07        -0.52225E-13         0.00000E+00
    0.50047E-07        -0.76658E-13         0.00000E+00
    0.50047E-07        -0.99926E-13         0.00000E+00
    0.50047E-07        -0.12203E-12         0.00000E+00
    0.50047E-07        -0.14299E-12         0.00000E+00
    0.50047E-07        -0.16280E-12         0.00000E+00
    0.50047E-07        -0.18146E-12         0.00000E+00
    0.50047E-07        -0.19899E-12         0.00000E+00
    0.50047E-07        -0.21539E-12         0.00000E+00
    0.50047E-07        -0.23067E-12         0.00000E+00
    0.50047E-07        -0.24482E-12         0.00000E+00
    0.50047E-07        -0.25787E-12         0.00000E+00
    0.50047E-07        -0.26980E-12         0.00000E+00
    0.50047E-07        -0.28063E-12         0.00000E+00
    0.50047E-07        -0.29037E-12         0.00000E+00
    0.50047E-07        -0.29901E-12         0.00000E+00
    0.50047E-07        -0.30657E-12         0.00000E+00
    0.50047E-07        -0.31305E-12         0.00000E+00
    0.50047E-07        -0.31845E-12         0.00000E+00
    0.50047E-07        -0.32277E-12         0.00000E+00
    0.50047E-07        -0.32603E-12         0.00000E+00
    0.50047E-07        -0.32823E-12         0.00000E+00
    0.50047E-07        -0.32937E-12         0.00000E+00
    0.50047E-07        -0.32946E-12         0.00000E+00
    0.50047E-07        -0.32849E-12         0.00000E+00
    0.50047E-07        -0.32648E-12         0.00000E+00
    0.50047E-07        -0.32343E-12         0.00000E+00
    0.50047E-07        -0.31935E-12         0.00000E+00
    0.50047E-07        -0.31423E-12         0.00000E+00
    0.50047E-07        -0.30808E-12         0.00000E+00
    0.50047E-07        -0.30090E-12         0.00000E+00
    0.50047E-07        -0.29271E-12         0.00000E+00
    0.50047E-07        -0.28350E-12         0.00000E+00
    0.50047E-07        -0.27327E-12         0.00000E+00
    0.50047E-07        -0.26203E-12         0.00000E+00
    0.50047E-07        -0.24978E-12         0.00000E+00
    0.50047E-07        -0.23652E-12         0.00000E+00
    0.50047E-07        -0.22226E-12         0.00000E+00
    0.50047E-07        -0.20701E-12         0.00000E+00
    0.50047E-07        -0.19075E-12         0.00000E+00
    0.50047E-07        -0.17350E-12         0.00000E+00
    0.50047E-07        -0.15526E-12         0.00000E+00
    0.50047E-07        -0.13603E-12         0.00000E+00
    0.50047E-07        -0.11581E-12         0.00000E+00
    0.50047E-07        -0.94610E-13         0.00000E+00
    0.50047E-07        -0.72422E-13         0.00000E+00
    0.50047E-07        -0.49252E-13         0.00000E+00
    0.50047E-07        -0.25102E-13         0.00000E+00
    0.50047E-07        -0.12782E-13         0.00000E+00
    0.50051E-07        -0.13323E-13         0.00000E+00
    0.50051E-07        -0.26224E-13         0.00000E+00
    0.50051E-07        -0.51446E-13         0.00000E+00
    0.50051E-07        -0.75510E-13         0.00000E+00
    0.50051E-07        -0.98422E-13         0.00000E+00
    0.50051E-07        -0.12019E-12         0.00000E+00
    0.50051E-07        -0.14081E-12         0.00000E+00
    0.50051E-07        -0.16031E-12         0.00000E+00
    0.50051E-07        -0.17867E-12         0.00000E+00
    0.50051E-07        -0.19592E-12         0.00000E+00
    0.50051E-07        -0.21205E-12         0.00000E+00
    0.50051E-07        -0.22707E-12         0.00000E+00
    0.50051E-07        -0.24099E-12         0.00000E+00
    0.50051E-07        -0.25381E-12         0.00000E+00
    0.50051E-07        -0.26553E-12         0.00000E+00
    0.50051E-07        -0.27618E-12         0.00000E+00
    0.50051E-07        -0.28574E-12         0.00000E+00
    0.50051E-07        -0.29422E-12         0.00000E+00
    0.50051E-07        -0.30163E-12         0.00000E+00
    0.50051E-07        -0.30798E-12         0.00000E+00
    0.50051E-07        -0.31327E-12         0.00000E+00
    0.50051E-07        -0.31751E-12         0.00000E+00
    0.50051E-07        -0.32069E-12         0.00000E+00
    0.50051E-07        -0.32283E-12         0.00000E+00
    0.50051E-07        -0.32392E-12         0.00000E+00
    0.50051E-07        -0.32399E-12         0.00000E+00
    0.50051E-07        -0.32301E-12         0.00000E+00
    0.50051E-07        -0.32102E-12         0.00000E+00
    0.50051E-07        -0.31800E-12         0.00000E+00
    0.50051E-07        -0.31396E-12         0.00000E+00
    0.50051E-07        -0.30890E-12         0.00000E+00
    0.50051E-07        -0.30284E-12         0.00000E+00
    0.50051E-07        -0.29577E-12         0.00000E+00
    0.50051E-07        -0.28769E-12         0.00000E+00
    0.50051E-07        -0.27862E-12         0.00000E+00
    0.50051E-07        -0.26855E-12         0.00000E+00
    0.50051E-07        -0.25749E-12         0.00000E+00
    0.50051E-07        -0.24544E-12         0.00000E+00
    0.50051E-07        -0.23240E-12         0.00000E+00
    0.50051E-07        -0.21838E-12         0.00000E+00
    0.50051E-07        -0.20338E-12         0.00000E+00
    0.50051E-07        -0.18740E-12         0.00000E+00
    0.50051E-07        -0.17044E-12         0.00000E+00
    0.50051E-07        -0.15251E-12         0.00000E+00
    0.50051E-07        -0.13362E-12         0.00000E+00
    0.50051E-07        -0.11375E-12         0.00000E+00
    0.50051E-07        -0.92920E-13         0.00000E+00
    0.50051E-07        -0.71125E-13         0.00000E+00
    0.50051E-07        -0.48367E-13         0.00000E+00
    0.50051E-07        -0.24650E-13         0.00000E+00
    0.50051E-07        -0.12551E-13         0.00000E+00
    0.50055E-07        -0.13102E-13         0.00000E+00
    0.50055E-07        -0.25788E-13         0.00000E+00
    0.50055E-07        -0.50586E-13         0.00000E+00
    0.50055E-07        -0.74241E-13         0.00000E+00
    0.50055E-07        -0.96759E-13         0.00000E+00
    0.50055E-07        -0.11815E-12         0.00000E+00
    0.50055E-07        -0.13841E-12         0.00000E+00
    0.50055E-07        -0.15756E-12         0.00000E+00
    0.50055E-07        -0.17559E-12         0.00000E+00
    0.50055E-07        -0.19252E-12         0.00000E+00
    0.50055E-07        -0.20835E-12         0.00000E+00
    0.50055E-07        -0.22309E-12         0.00000E+00
    0.50055E-07        -0.23675E-12         0.00000E+00
    0.50055E-07        -0.24932E-12         0.00000E+00
    0.50055E-07        -0.26082E-12         0.00000E+00
    0.50055E-07        -0.27124E-12         0.00000E+00
    0.50055E-07        -0.28061E-12         0.00000E+00
    0.50055E-07        -0.28892E-12         0.00000E+00
    0.50055E-07        -0.29617E-12         0.00000E+00
    0.50055E-07        -0.30238E-12         0.00000E+00
    0.50055E-07        -0.30755E-12         0.00000E+00
    0.50055E-07        -0.31168E-12         0.00000E+00
    0.50055E-07        -0.31477E-12         0.00000E+00
    0.50055E-07        -0.31685E-12         0.00000E+00
    0.50055E-07        -0.31790E-12         0.00000E+00
    0.50055E-07        -0.31793E-12         0.00000E+00
    0.50055E-07        -0.31695E-12         0.00000E+00
    0.50055E-07        -0.31497E-12         0.00000E+00
    0.50055E-07        -0.31198E-12         0.00000E+00
    0.50055E-07        -0.30799E-12         0.00000E+00
    0.50055E-07        -0.30301E-12         0.00000E+00
    0.50055E-07        -0.29704E-12         0.00000E+00
    0.50055E-07        -0.29008E-12         0.00000E+00
    0.50055E-07        -0.28214E-12         0.00000E+00
    0.50055E-07        -0.27323E-12         0.00000E+00
    0.50055E-07        -0.26333E-12         0.00000E+00
    0.50055E-07        -0.25247E-12         0.00000E+00
    0.50055E-07        -0.24063E-12         0.00000E+00
    0.50055E-07        -0.22783E-12         0.00000E+00
    0.50055E-07        -0.21407E-12         0.00000E+00
    0.50055E-07        -0.19935E-12         0.00000E+00
    0.50055E-07        -0.18368E-12         0.00000E+00
    0.50055E-07        -0.16705E-12         0.00000E+00
    0.50055E-07        -0.14947E-12         0.00000E+00
    0.50055E-07        -0.13094E-12         0.00000E+00
    0.50055E-07        -0.11147E-12         0.00000E+00
    0.50055E-07        -0.91048E-13         0.00000E+00
    0.50055E-07        -0.69688E-13         0.00000E+00
    0.50055E-07        -0.47387E-13         0.00000E+00
    0.50055E-07        -0.24149E-13         0.00000E+00
    0.50055E-07        -0.12296E-13         0.00000E+00
    0.50059E-07        -0.12860E-13         0.00000E+00
    0.50059E-07        -0.25309E-13         0.00000E+00
    0.50059E-07        -0.49642E-13         0.00000E+00
    0.50059E-07        -0.72849E-13         0.00000E+00
    0.50059E-07        -0.94935E-13         0.00000E+00
    0.50059E-07        -0.11591E-12         0.00000E+00
    0.50059E-07        -0.13577E-12         0.00000E+00
    0.50059E-07        -0.15454E-12         0.00000E+00
    0.50059E-07        -0.17221E-12         0.00000E+00
    0.50059E-07        -0.18880E-12         0.00000E+00
    0.50059E-07        -0.20430E-12         0.00000E+00
    0.50059E-07        -0.21873E-12         0.00000E+00
    0.50059E-07        -0.23209E-12         0.00000E+00
    0.50059E-07        -0.24439E-12         0.00000E+00
    0.50059E-07        -0.25564E-12         0.00000E+00
    0.50059E-07        -0.26583E-12         0.00000E+00
    0.50059E-07        -0.27498E-12         0.00000E+00
    0.50059E-07        -0.28309E-12         0.00000E+00
    0.50059E-07        -0.29017E-12         0.00000E+00
    0.50059E-07        -0.29622E-12         0.00000E+00
    0.50059E-07        -0.30126E-12         0.00000E+00
    0.50059E-07        -0.30527E-12         0.00000E+00
    0.50059E-07        -0.30828E-12         0.00000E+00
    0.50059E-07        -0.31028E-12         0.00000E+00
    0.50059E-07        -0.31128E-12         0.00000E+00
    0.50059E-07        -0.31128E-12         0.00000E+00
    0.50059E-07        -0.31029E-12         0.00000E+00
    0.50059E-07        -0.30832E-12         0.00000E+00
    0.50059E-07        -0.30537E-12         0.00000E+00
    0.50059E-07        -0.30144E-12         0.00000E+00
    0.50059E-07        -0.29654E-12         0.00000E+00
    0.50059E-07        -0.29067E-12         0.00000E+00
    0.50059E-07        -0.28384E-12         0.00000E+00
    0.50059E-07        -0.27604E-12         0.00000E+00
    0.50059E-07        -0.26729E-12         0.00000E+00
    0.50059E-07        -0.25759E-12         0.00000E+00
    0.50059E-07        -0.24694E-12         0.00000E+00
    0.50059E-07        -0.23535E-12         0.00000E+00
    0.50059E-07        -0.22281E-12         0.00000E+00
    0.50059E-07        -0.20934E-12         0.00000E+00
    0.50059E-07        -0.19493E-12         0.00000E+00
    0.50059E-07        -0.17959E-12         0.00000E+00
    0.50059E-07        -0.16332E-12         0.00000E+00
    0.50059E-07        -0.14612E-12         0.00000E+00
    0.50059E-07        -0.12800E-12         0.00000E+00
    0.50059E-07        -0.10895E-12         0.00000E+00
    0.50059E-07        -0.88988E-13         0.00000E+00
    0.50059E-07        -0.68107E-13         0.00000E+00
    0.50059E-07        -0.46309E-13         0.00000E+00
    0.50059E-07        -0.23598E-13         0.00000E+00
    0.50059E-07        -0.12014E-13         0.00000E+00
    0.50063E-07        -0.12596E-13         0.00000E+00
    0.50063E-07        -0.24787E-13         0.00000E+00
    0.50063E-07        -0.48614E-13         0.00000E+00
    0.50063E-07        -0.71331E-13         0.00000E+00
    0.50063E-07        -0.92945E-13         0.00000E+00
    0.50063E-07        -0.11346E-12         0.00000E+00
    0.50063E-07        -0.13290E-12         0.00000E+00
    0.50063E-07        -0.15125E-12         0.00000E+00
    0.50063E-07        -0.16852E-12         0.00000E+00
    0.50063E-07        -0.18473E-12         0.00000E+00
    0.50063E-07        -0.19987E-12         0.00000E+00
    0.50063E-07        -0.21397E-12         0.00000E+00
    0.50063E-07        -0.22701E-12         0.00000E+00
    0.50063E-07        -0.23901E-12         0.00000E+00
    0.50063E-07        -0.24998E-12         0.00000E+00
    0.50063E-07        -0.25992E-12         0.00000E+00
    0.50063E-07        -0.26883E-12         0.00000E+00
    0.50063E-07        -0.27673E-12         0.00000E+00
    0.50063E-07        -0.28362E-12         0.00000E+00
    0.50063E-07        -0.28950E-12         0.00000E+00
    0.50063E-07        -0.29439E-12         0.00000E+00
    0.50063E-07        -0.29828E-12         0.00000E+00
    0.50063E-07        -0.30118E-12         0.00000E+00
    0.50063E-07        -0.30310E-12         0.00000E+00
    0.50063E-07        -0.30404E-12         0.00000E+00
    0.50063E-07        -0.30401E-12         0.00000E+00
    0.50063E-07        -0.30302E-12         0.00000E+00
    0.50063E-07        -0.30106E-12         0.00000E+00
    0.50063E-07        -0.29814E-12         0.00000E+00
    0.50063E-07        -0.29428E-12         0.00000E+00
    0.50063E-07        -0.28946E-12         0.00000E+00
    0.50063E-07        -0.28370E-12         0.00000E+00
    0.50063E-07        -0.27701E-12         0.00000E+00
    0.50063E-07        -0.26937E-12         0.00000E+00
    0.50063E-07        -0.26081E-12         0.00000E+00
    0.50063E-07        -0.25132E-12         0.00000E+00
    0.50063E-07        -0.24091E-12         0.00000E+00
    0.50063E-07        -0.22957E-12         0.00000E+00
    0.50063E-07        -0.21732E-12         0.00000E+00
    0.50063E-07        -0.20416E-12         0.00000E+00
    0.50063E-07        -0.19009E-12         0.00000E+00
    0.50063E-07        -0.17512E-12         0.00000E+00
    0.50063E-07        -0.15924E-12         0.00000E+00
    0.50063E-07        -0.14246E-12         0.00000E+00
    0.50063E-07        -0.12478E-12         0.00000E+00
    0.50063E-07        -0.10620E-12         0.00000E+00
    0.50063E-07        -0.86736E-13         0.00000E+00
    0.50063E-07        -0.66378E-13         0.00000E+00
    0.50063E-07        -0.45130E-13         0.00000E+00
    0.50063E-07        -0.22996E-13         0.00000E+00
    0.50063E-07        -0.11707E-13         0.00000E+00
    0.50067E-07        -0.12309E-13         0.00000E+00
    0.50067E-07        -0.24221E-13         0.00000E+00
    0.50067E-07        -0.47498E-13         0.00000E+00
    0.50067E-07        -0.69684E-13         0.00000E+00
    0.50067E-07        -0.90788E-13         0.00000E+00
    0.50067E-07        -0.11082E-12         0.00000E+00
    0.50067E-07        -0.12977E-12         0.00000E+00
    0.50067E-07        -0.14767E-12         0.00000E+00
    0.50067E-07        -0.16452E-12         0.00000E+00
    0.50067E-07        -0.18031E-12         0.00000E+00
    0.50067E-07        -0.19507E-12         0.00000E+00
    0.50067E-07        -0.20880E-12         0.00000E+00
    0.50067E-07        -0.22149E-12         0.00000E+00
    0.50067E-07        -0.23317E-12         0.00000E+00
    0.50067E-07        -0.24384E-12         0.00000E+00
    0.50067E-07        -0.25350E-12         0.00000E+00
    0.50067E-07        -0.26216E-12         0.00000E+00
    0.50067E-07        -0.26982E-12         0.00000E+00
    0.50067E-07        -0.27650E-12         0.00000E+00
    0.50067E-07        -0.28220E-12         0.00000E+00
    0.50067E-07        -0.28692E-12         0.00000E+00
    0.50067E-07        -0.29068E-12         0.00000E+00
    0.50067E-07        -0.29347E-12         0.00000E+00
    0.50067E-07        -0.29530E-12         0.00000E+00
    0.50067E-07        -0.29618E-12         0.00000E+00
    0.50067E-07        -0.29611E-12         0.00000E+00
    0.50067E-07        -0.29511E-12         0.00000E+00
    0.50067E-07        -0.29316E-12         0.00000E+00
    0.50067E-07        -0.29029E-12         0.00000E+00
    0.50067E-07        -0.28649E-12         0.00000E+00
    0.50067E-07        -0.28176E-12         0.00000E+00
    0.50067E-07        -0.27613E-12         0.00000E+00
    0.50067E-07        -0.26957E-12         0.00000E+00
    0.50067E-07        -0.26212E-12         0.00000E+00
    0.50067E-07        -0.25375E-12         0.00000E+00
    0.50067E-07        -0.24449E-12         0.00000E+00
    0.50067E-07        -0.23434E-12         0.00000E+00
    0.50067E-07        -0.22329E-12         0.00000E+00
    0.50067E-07        -0.21135E-12         0.00000E+00
    0.50067E-07        -0.19853E-12         0.00000E+00
    0.50067E-07        -0.18483E-12         0.00000E+00
    0.50067E-07        -0.17025E-12         0.00000E+00
    0.50067E-07        -0.15479E-12         0.00000E+00
    0.50067E-07        -0.13847E-12         0.00000E+00
    0.50067E-07        -0.12127E-12         0.00000E+00
    0.50067E-07        -0.10321E-12         0.00000E+00
    0.50067E-07        -0.84283E-13         0.00000E+00
    0.50067E-07        -0.64495E-13         0.00000E+00
    0.50067E-07        -0.43846E-13         0.00000E+00
    0.50067E-07        -0.22339E-13         0.00000E+00
    0.50067E-07        -0.11372E-13         0.00000E+00
    0.50071E-07        -0.12000E-13         0.00000E+00
    0.50071E-07        -0.23610E-13         0.00000E+00
    0.50071E-07        -0.46293E-13         0.00000E+00
    0.50071E-07        -0.67906E-13         0.00000E+00
    0.50071E-07        -0.88457E-13         0.00000E+00
    0.50071E-07        -0.10795E-12         0.00000E+00
    0.50071E-07        -0.12640E-12         0.00000E+00
    0.50071E-07        -0.14381E-12         0.00000E+00
    0.50071E-07        -0.16019E-12         0.00000E+00
    0.50071E-07        -0.17554E-12         0.00000E+00
    0.50071E-07        -0.18988E-12         0.00000E+00
    0.50071E-07        -0.20320E-12         0.00000E+00
    0.50071E-07        -0.21553E-12         0.00000E+00
    0.50071E-07        -0.22686E-12         0.00000E+00
    0.50071E-07        -0.23719E-12         0.00000E+00
    0.50071E-07        -0.24655E-12         0.00000E+00
    0.50071E-07        -0.25493E-12         0.00000E+00
    0.50071E-07        -0.26235E-12         0.00000E+00
    0.50071E-07        -0.26880E-12         0.00000E+00
    0.50071E-07        -0.27429E-12         0.00000E+00
    0.50071E-07        -0.27884E-12         0.00000E+00
    0.50071E-07        -0.28245E-12         0.00000E+00
    0.50071E-07        -0.28511E-12         0.00000E+00
    0.50071E-07        -0.28685E-12         0.00000E+00
    0.50071E-07        -0.28766E-12         0.00000E+00
    0.50071E-07        -0.28756E-12         0.00000E+00
    0.50071E-07        -0.28653E-12         0.00000E+00
    0.50071E-07        -0.28461E-12         0.00000E+00
    0.50071E-07        -0.28177E-12         0.00000E+00
    0.50071E-07        -0.27805E-12         0.00000E+00
    0.50071E-07        -0.27342E-12         0.00000E+00
    0.50071E-07        -0.26791E-12         0.00000E+00
    0.50071E-07        -0.26152E-12         0.00000E+00
    0.50071E-07        -0.25425E-12         0.00000E+00
    0.50071E-07        -0.24611E-12         0.00000E+00
    0.50071E-07        -0.23709E-12         0.00000E+00
    0.50071E-07        -0.22721E-12         0.00000E+00
    0.50071E-07        -0.21647E-12         0.00000E+00
    0.50071E-07        -0.20487E-12         0.00000E+00
    0.50071E-07        -0.19242E-12         0.00000E+00
    0.50071E-07        -0.17912E-12         0.00000E+00
    0.50071E-07        -0.16497E-12         0.00000E+00
    0.50071E-07        -0.14998E-12         0.00000E+00
    0.50071E-07        -0.13414E-12         0.00000E+00
    0.50071E-07        -0.11747E-12         0.00000E+00
    0.50071E-07        -0.99963E-13         0.00000E+00
    0.50071E-07        -0.81623E-13         0.00000E+00
    0.50071E-07        -0.62452E-13         0.00000E+00
    0.50071E-07        -0.42453E-13         0.00000E+00
    0.50071E-07        -0.21627E-13         0.00000E+00
    0.50071E-07        -0.11008E-13         0.00000E+00
    0.50075E-07        -0.11668E-13         0.00000E+00
    0.50075E-07        -0.22953E-13         0.00000E+00
    0.50075E-07        -0.44997E-13         0.00000E+00
    0.50075E-07        -0.65993E-13         0.00000E+00
    0.50075E-07        -0.85948E-13         0.00000E+00
    0.50075E-07        -0.10487E-12         0.00000E+00
    0.50075E-07        -0.12277E-12         0.00000E+00
    0.50075E-07        -0.13965E-12         0.00000E+00
    0.50075E-07        -0.15553E-12         0.00000E+00
    0.50075E-07        -0.17040E-12         0.00000E+00
    0.50075E-07        -0.18428E-12         0.00000E+00
    0.50075E-07        -0.19718E-12         0.00000E+00
    0.50075E-07        -0.20910E-12         0.00000E+00
    0.50075E-07        -0.22005E-12         0.00000E+00
    0.50075E-07        -0.23003E-12         0.00000E+00
    0.50075E-07        -0.23906E-12         0.00000E+00
    0.50075E-07        -0.24714E-12         0.00000E+00
    0.50075E-07        -0.25428E-12         0.00000E+00
    0.50075E-07        -0.26049E-12         0.00000E+00
    0.50075E-07        -0.26577E-12         0.00000E+00
    0.50075E-07        -0.27012E-12         0.00000E+00
    0.50075E-07        -0.27356E-12         0.00000E+00
    0.50075E-07        -0.27610E-12         0.00000E+00
    0.50075E-07        -0.27773E-12         0.00000E+00
    0.50075E-07        -0.27847E-12         0.00000E+00
    0.50075E-07        -0.27832E-12         0.00000E+00
    0.50075E-07        -0.27728E-12         0.00000E+00
    0.50075E-07        -0.27537E-12         0.00000E+00
    0.50075E-07        -0.27258E-12         0.00000E+00
    0.50075E-07        -0.26893E-12         0.00000E+00
    0.50075E-07        -0.26441E-12         0.00000E+00
    0.50075E-07        -0.25904E-12         0.00000E+00
    0.50075E-07        -0.25282E-12         0.00000E+00
    0.50075E-07        -0.24575E-12         0.00000E+00
    0.50075E-07        -0.23784E-12         0.00000E+00
    0.50075E-07        -0.22910E-12         0.00000E+00
    0.50075E-07        -0.21951E-12         0.00000E+00
    0.50075E-07        -0.20911E-12         0.00000E+00
    0.50075E-07        -0.19787E-12         0.00000E+00
    0.50075E-07        -0.18582E-12         0.00000E+00
    0.50075E-07        -0.17295E-12         0.00000E+00
    0.50075E-07        -0.15926E-12         0.00000E+00
    0.50075E-07        -0.14477E-12         0.00000E+00
    0.50075E-07        -0.12947E-12         0.00000E+00
    0.50075E-07        -0.11336E-12         0.00000E+00
    0.50075E-07        -0.96451E-13         0.00000E+00
    0.50075E-07        -0.78745E-13         0.00000E+00
    0.50075E-07        -0.60242E-13         0.00000E+00
    0.50075E-07        -0.40946E-13         0.00000E+00
    0.50075E-07        -0.20857E-13         0.00000E+00
    0.50075E-07        -0.10615E-13         0.00000E+00
    0.50078E-07        -0.11311E-13         0.00000E+00
    0.50078E-07        -0.22248E-13         0.00000E+00
    0.50078E-07        -0.43606E-13         0.00000E+00
    0.50078E-07        -0.63939E-13         0.00000E+00
    0.50078E-07        -0.83255E-13         0.00000E+00
    0.50078E-07        -0.10156E-12         0.00000E+00
    0.50078E-07        -0.11887E-12         0.00000E+00
    0.50078E-07        -0.13519E-12         0.00000E+00
    0.50078E-07        -0.15052E-12         0.00000E+00
    0.50078E-07        -0.16488E-12         0.00000E+00
    0.50078E-07        -0.17827E-12         0.00000E+00
    0.50078E-07        -0.19070E-12         0.00000E+00
    0.50078E-07        -0.20218E-12         0.00000E+00
    0.50078E-07        -0.21272E-12         0.00000E+00
    0.50078E-07        -0.22233E-12         0.00000E+00
    0.50078E-07        -0.23100E-12         0.00000E+00
    0.50078E-07        -0.23876E-12         0.00000E+00
    0.50078E-07        -0.24561E-12         0.00000E+00
    0.50078E-07        -0.25154E-12         0.00000E+00
    0.50078E-07        -0.25659E-12         0.00000E+00
    0.50078E-07        -0.26074E-12         0.00000E+00
    0.50078E-07        -0.26400E-12         0.00000E+00
    0.50078E-07        -0.26639E-12         0.00000E+00
    0.50078E-07        -0.26791E-12         0.00000E+00
    0.50078E-07        -0.26857E-12         0.00000E+00
    0.50078E-07        -0.26837E-12         0.00000E+00
    0.50078E-07        -0.26731E-12         0.00000E+00
    0.50078E-07        -0.26541E-12         0.00000E+00
    0.50078E-07        -0.26267E-12         0.00000E+00
    0.50078E-07        -0.25910E-12         0.00000E+00
    0.50078E-07        -0.25470E-12         0.00000E+00
    0.50078E-07        -0.24948E-12         0.00000E+00
    0.50078E-07        -0.24344E-12         0.00000E+00
    0.50078E-07        -0.23659E-12         0.00000E+00
    0.50078E-07        -0.22893E-12         0.00000E+00
    0.50078E-07        -0.22047E-12         0.00000E+00
    0.50078E-07        -0.21122E-12         0.00000E+00
    0.50078E-07        -0.20116E-12         0.00000E+00
    0.50078E-07        -0.19032E-12         0.00000E+00
    0.50078E-07        -0.17870E-12         0.00000E+00
    0.50078E-07        -0.16629E-12         0.00000E+00
    0.50078E-07        -0.15311E-12         0.00000E+00
    0.50078E-07        -0.13915E-12         0.00000E+00
    0.50078E-07        -0.12442E-12         0.00000E+00
    0.50078E-07        -0.10892E-12         0.00000E+00
    0.50078E-07        -0.92664E-13         0.00000E+00
    0.50078E-07        -0.75641E-13         0.00000E+00
    0.50078E-07        -0.57859E-13         0.00000E+00
    0.50078E-07        -0.39320E-13         0.00000E+00
    0.50078E-07        -0.20026E-13         0.00000E+00
    0.50078E-07        -0.10191E-13         0.00000E+00
    0.50082E-07        -0.10929E-13         0.00000E+00
    0.50082E-07        -0.21493E-13         0.00000E+00
    0.50082E-07        -0.42117E-13         0.00000E+00
    0.50082E-07        -0.61739E-13         0.00000E+00
    0.50082E-07        -0.80370E-13         0.00000E+00
    0.50082E-07        -0.98018E-13         0.00000E+00
    0.50082E-07        -0.11469E-12         0.00000E+00
    0.50082E-07        -0.13040E-12         0.00000E+00
    0.50082E-07        -0.14515E-12         0.00000E+00
    0.50082E-07        -0.15895E-12         0.00000E+00
    0.50082E-07        -0.17182E-12         0.00000E+00
    0.50082E-07        -0.18375E-12         0.00000E+00
    0.50082E-07        -0.19477E-12         0.00000E+00
    0.50082E-07        -0.20487E-12         0.00000E+00
    0.50082E-07        -0.21406E-12         0.00000E+00
    0.50082E-07        -0.22236E-12         0.00000E+00
    0.50082E-07        -0.22976E-12         0.00000E+00
    0.50082E-07        -0.23629E-12         0.00000E+00
    0.50082E-07        -0.24194E-12         0.00000E+00
    0.50082E-07        -0.24673E-12         0.00000E+00
    0.50082E-07        -0.25065E-12         0.00000E+00
    0.50082E-07        -0.25373E-12         0.00000E+00
    0.50082E-07        -0.25596E-12         0.00000E+00
    0.50082E-07        -0.25736E-12         0.00000E+00
    0.50082E-07        -0.25792E-12         0.00000E+00
    0.50082E-07        -0.25767E-12         0.00000E+00
    0.50082E-07        -0.25659E-12         0.00000E+00
    0.50082E-07        -0.25471E-12         0.00000E+00
    0.50082E-07        -0.25202E-12         0.00000E+00
    0.50082E-07        -0.24854E-12         0.00000E+00
    0.50082E-07        -0.24426E-12         0.00000E+00
    0.50082E-07        -0.23920E-12         0.00000E+00
    0.50082E-07        -0.23335E-12         0.00000E+00
    0.50082E-07        -0.22674E-12         0.00000E+00
    0.50082E-07        -0.21935E-12         0.00000E+00
    0.50082E-07        -0.21120E-12         0.00000E+00
    0.50082E-07        -0.20228E-12         0.00000E+00
    0.50082E-07        -0.19262E-12         0.00000E+00
    0.50082E-07        -0.18220E-12         0.00000E+00
    0.50082E-07        -0.17103E-12         0.00000E+00
    0.50082E-07        -0.15913E-12         0.00000E+00
    0.50082E-07        -0.14648E-12         0.00000E+00
    0.50082E-07        -0.13310E-12         0.00000E+00
    0.50082E-07        -0.11899E-12         0.00000E+00
    0.50082E-07        -0.10415E-12         0.00000E+00
    0.50082E-07        -0.88585E-13         0.00000E+00
    0.50082E-07        -0.72298E-13         0.00000E+00
    0.50082E-07        -0.55292E-13         0.00000E+00
    0.50082E-07        -0.37569E-13         0.00000E+00
    0.50082E-07        -0.19131E-13         0.00000E+00
    0.50082E-07        -0.97336E-14         0.00000E+00
    0.50085E-07        -0.10522E-13         0.00000E+00
    0.50085E-07        -0.20686E-13         0.00000E+00
    0.50085E-07        -0.40525E-13         0.00000E+00
    0.50085E-07        -0.59388E-13         0.00000E+00
    0.50085E-07        -0.77285E-13         0.00000E+00
    0.50085E-07        -0.94225E-13         0.00000E+00
    0.50085E-07        -0.11022E-12         0.00000E+00
    0.50085E-07        -0.12527E-12         0.00000E+00
    0.50085E-07        -0.13940E-12         0.00000E+00
    0.50085E-07        -0.15261E-12         0.00000E+00
    0.50085E-07        -0.16491E-12         0.00000E+00
    0.50085E-07        -0.17631E-12         0.00000E+00
    0.50085E-07        -0.18682E-12         0.00000E+00
    0.50085E-07        -0.19644E-12         0.00000E+00
    0.50085E-07        -0.20520E-12         0.00000E+00
    0.50085E-07        -0.21308E-12         0.00000E+00
    0.50085E-07        -0.22011E-12         0.00000E+00
    0.50085E-07        -0.22629E-12         0.00000E+00
    0.50085E-07        -0.23164E-12         0.00000E+00
    0.50085E-07        -0.23615E-12         0.00000E+00
    0.50085E-07        -0.23983E-12         0.00000E+00
    0.50085E-07        -0.24270E-12         0.00000E+00
    0.50085E-07        -0.24477E-12         0.00000E+00
    0.50085E-07        -0.24603E-12         0.00000E+00
    0.50085E-07        -0.24650E-12         0.00000E+00
    0.50085E-07        -0.24618E-12         0.00000E+00
    0.50085E-07        -0.24508E-12         0.00000E+00
    0.50085E-07        -0.24322E-12         0.00000E+00
    0.50085E-07        -0.24058E-12         0.00000E+00
    0.50085E-07        -0.23719E-12         0.00000E+00
    0.50085E-07        -0.23304E-12         0.00000E+00
    0.50085E-07        -0.22815E-12         0.00000E+00
    0.50085E-07        -0.22252E-12         0.00000E+00
    0.50085E-07        -0.21615E-12         0.00000E+00
    0.50085E-07        -0.20905E-12         0.00000E+00
    0.50085E-07        -0.20123E-12         0.00000E+00
    0.50085E-07        -0.19268E-12         0.00000E+00
    0.50085E-07        -0.18343E-12         0.00000E+00
    0.50085E-07        -0.17346E-12         0.00000E+00
    0.50085E-07        -0.16279E-12         0.00000E+00
    0.50085E-07        -0.15142E-12         0.00000E+00
    0.50085E-07        -0.13936E-12         0.00000E+00
    0.50085E-07        -0.12660E-12         0.00000E+00
    0.50085E-07        -0.11315E-12         0.00000E+00
    0.50085E-07        -0.99016E-13         0.00000E+00
    0.50085E-07        -0.84200E-13         0.00000E+00
    0.50085E-07        -0.68705E-13         0.00000E+00
    0.50085E-07        -0.52533E-13         0.00000E+00
    0.50085E-07        -0.35687E-13         0.00000E+00
    0.50085E-07        -0.18169E-13         0.00000E+00
    0.50085E-07        -0.92423E-14         0.00000E+00
    0.50089E-07        -0.10086E-13         0.00000E+00
    0.50089E-07        -0.19825E-13         0.00000E+00
    0.50089E-07        -0.38825E-13         0.00000E+00
    0.50089E-07        -0.56876E-13         0.00000E+00
    0.50089E-07        -0.73988E-13         0.00000E+00
    0.50089E-07        -0.90172E-13         0.00000E+00
    0.50089E-07        -0.10544E-12         0.00000E+00
    0.50089E-07        -0.11979E-12         0.00000E+00
    0.50089E-07        -0.13325E-12         0.00000E+00
    0.50089E-07        -0.14583E-12         0.00000E+00
    0.50089E-07        -0.15752E-12         0.00000E+00
    0.50089E-07        -0.16834E-12         0.00000E+00
    0.50089E-07        -0.17831E-12         0.00000E+00
    0.50089E-07        -0.18743E-12         0.00000E+00
    0.50089E-07        -0.19570E-12         0.00000E+00
    0.50089E-07        -0.20315E-12         0.00000E+00
    0.50089E-07        -0.20977E-12         0.00000E+00
    0.50089E-07        -0.21558E-12         0.00000E+00
    0.50089E-07        -0.22059E-12         0.00000E+00
    0.50089E-07        -0.22481E-12         0.00000E+00
    0.50089E-07        -0.22823E-12         0.00000E+00
    0.50089E-07        -0.23088E-12         0.00000E+00
    0.50089E-07        -0.23276E-12         0.00000E+00
    0.50089E-07        -0.23388E-12         0.00000E+00
    0.50089E-07        -0.23424E-12         0.00000E+00
    0.50089E-07        -0.23386E-12         0.00000E+00
    0.50089E-07        -0.23273E-12         0.00000E+00
    0.50089E-07        -0.23088E-12         0.00000E+00
    0.50089E-07        -0.22830E-12         0.00000E+00
    0.50089E-07        -0.22501E-12         0.00000E+00
    0.50089E-07        -0.22100E-12         0.00000E+00
    0.50089E-07        -0.21629E-12         0.00000E+00
    0.50089E-07        -0.21088E-12         0.00000E+00
    0.50089E-07        -0.20478E-12         0.00000E+00
    0.50089E-07        -0.19799E-12         0.00000E+00
    0.50089E-07        -0.19052E-12         0.00000E+00
    0.50089E-07        -0.18238E-12         0.00000E+00
    0.50089E-07        -0.17356E-12         0.00000E+00
    0.50089E-07        -0.16409E-12         0.00000E+00
    0.50089E-07        -0.15395E-12         0.00000E+00
    0.50089E-07        -0.14315E-12         0.00000E+00
    0.50089E-07        -0.13171E-12         0.00000E+00
    0.50089E-07        -0.11961E-12         0.00000E+00
    0.50089E-07        -0.10688E-12         0.00000E+00
    0.50089E-07        -0.93503E-13         0.00000E+00
    0.50089E-07        -0.79490E-13         0.00000E+00
    0.50089E-07        -0.64844E-13         0.00000E+00
    0.50089E-07        -0.49568E-13         0.00000E+00
    0.50089E-07        -0.33664E-13         0.00000E+00
    0.50089E-07        -0.17135E-13         0.00000E+00
    0.50089E-07        -0.87145E-14         0.00000E+00
    0.50092E-07        -0.96216E-14         0.00000E+00
    0.50092E-07        -0.18905E-13         0.00000E+00
    0.50092E-07        -0.37009E-13         0.00000E+00
    0.50092E-07        -0.54192E-13         0.00000E+00
    0.50092E-07        -0.70465E-13         0.00000E+00
    0.50092E-07        -0.85839E-13         0.00000E+00
    0.50092E-07        -0.10033E-12         0.00000E+00
    0.50092E-07        -0.11393E-12         0.00000E+00
    0.50092E-07        -0.12668E-12         0.00000E+00
    0.50092E-07        -0.13856E-12         0.00000E+00
    0.50092E-07        -0.14961E-12         0.00000E+00
    0.50092E-07        -0.15981E-12         0.00000E+00
    0.50092E-07        -0.16920E-12         0.00000E+00
    0.50092E-07        -0.17777E-12         0.00000E+00
    0.50092E-07        -0.18553E-12         0.00000E+00
    0.50092E-07        -0.19250E-12         0.00000E+00
    0.50092E-07        -0.19869E-12         0.00000E+00
    0.50092E-07        -0.20411E-12         0.00000E+00
    0.50092E-07        -0.20875E-12         0.00000E+00
    0.50092E-07        -0.21265E-12         0.00000E+00
    0.50092E-07        -0.21579E-12         0.00000E+00
    0.50092E-07        -0.21820E-12         0.00000E+00
    0.50092E-07        -0.21988E-12         0.00000E+00
    0.50092E-07        -0.22084E-12         0.00000E+00
    0.50092E-07        -0.22109E-12         0.00000E+00
    0.50092E-07        -0.22064E-12         0.00000E+00
    0.50092E-07        -0.21949E-12         0.00000E+00
    0.50092E-07        -0.21765E-12         0.00000E+00
    0.50092E-07        -0.21513E-12         0.00000E+00
    0.50092E-07        -0.21193E-12         0.00000E+00
    0.50092E-07        -0.20808E-12         0.00000E+00
    0.50092E-07        -0.20356E-12         0.00000E+00
    0.50092E-07        -0.19839E-12         0.00000E+00
    0.50092E-07        -0.19257E-12         0.00000E+00
    0.50092E-07        -0.18612E-12         0.00000E+00
    0.50092E-07        -0.17903E-12         0.00000E+00
    0.50092E-07        -0.17131E-12         0.00000E+00
    0.50092E-07        -0.16297E-12         0.00000E+00
    0.50092E-07        -0.15402E-12         0.00000E+00
    0.50092E-07        -0.14445E-12         0.00000E+00
    0.50092E-07        -0.13427E-12         0.00000E+00
    0.50092E-07        -0.12350E-12         0.00000E+00
    0.50092E-07        -0.11212E-12         0.00000E+00
    0.50092E-07        -0.10015E-12         0.00000E+00
    0.50092E-07        -0.87584E-13         0.00000E+00
    0.50092E-07        -0.74434E-13         0.00000E+00
    0.50092E-07        -0.60701E-13         0.00000E+00
    0.50092E-07        -0.46386E-13         0.00000E+00
    0.50092E-07        -0.31494E-13         0.00000E+00
    0.50092E-07        -0.16026E-13         0.00000E+00
    0.50092E-07        -0.81479E-14         0.00000E+00
    0.50095E-07        -0.91257E-14         0.00000E+00
    0.50095E-07        -0.17924E-13         0.00000E+00
    0.50095E-07        -0.35070E-13         0.00000E+00
    0.50095E-07        -0.51325E-13         0.00000E+00
    0.50095E-07        -0.66700E-13         0.00000E+00
    0.50095E-07        -0.81207E-13         0.00000E+00
    0.50095E-07        -0.94858E-13         0.00000E+00
    0.50095E-07        -0.10766E-12         0.00000E+00
    0.50095E-07        -0.11964E-12         0.00000E+00
    0.50095E-07        -0.13079E-12         0.00000E+00
    0.50095E-07        -0.14113E-12         0.00000E+00
    0.50095E-07        -0.15068E-12         0.00000E+00
    0.50095E-07        -0.15944E-12         0.00000E+00
    0.50095E-07        -0.16742E-12         0.00000E+00
    0.50095E-07        -0.17463E-12         0.00000E+00
    0.50095E-07        -0.18110E-12         0.00000E+00
    0.50095E-07        -0.18681E-12         0.00000E+00
    0.50095E-07        -0.19180E-12         0.00000E+00
    0.50095E-07        -0.19606E-12         0.00000E+00
    0.50095E-07        -0.19961E-12         0.00000E+00
    0.50095E-07        -0.20245E-12         0.00000E+00
    0.50095E-07        -0.20460E-12         0.00000E+00
    0.50095E-07        -0.20607E-12         0.00000E+00
    0.50095E-07        -0.20686E-12         0.00000E+00
    0.50095E-07        -0.20698E-12         0.00000E+00
    0.50095E-07        -0.20645E-12         0.00000E+00
    0.50095E-07        -0.20526E-12         0.00000E+00
    0.50095E-07        -0.20344E-12         0.00000E+00
    0.50095E-07        -0.20098E-12         0.00000E+00
    0.50095E-07        -0.19790E-12         0.00000E+00
    0.50095E-07        -0.19420E-12         0.00000E+00
    0.50095E-07        -0.18989E-12         0.00000E+00
    0.50095E-07        -0.18498E-12         0.00000E+00
    0.50095E-07        -0.17947E-12         0.00000E+00
    0.50095E-07        -0.17338E-12         0.00000E+00
    0.50095E-07        -0.16669E-12         0.00000E+00
    0.50095E-07        -0.15944E-12         0.00000E+00
    0.50095E-07        -0.15161E-12         0.00000E+00
    0.50095E-07        -0.14321E-12         0.00000E+00
    0.50095E-07        -0.13425E-12         0.00000E+00
    0.50095E-07        -0.12474E-12         0.00000E+00
    0.50095E-07        -0.11468E-12         0.00000E+00
    0.50095E-07        -0.10407E-12         0.00000E+00
    0.50095E-07        -0.92920E-13         0.00000E+00
    0.50095E-07        -0.81231E-13         0.00000E+00
    0.50095E-07        -0.69008E-13         0.00000E+00
    0.50095E-07        -0.56253E-13         0.00000E+00
    0.50095E-07        -0.42971E-13         0.00000E+00
    0.50095E-07        -0.29164E-13         0.00000E+00
    0.50095E-07        -0.14835E-13         0.00000E+00
    0.50095E-07        -0.75399E-14         0.00000E+00
    0.50098E-07        -0.85956E-14         0.00000E+00
    0.50098E-07        -0.16874E-13         0.00000E+00
    0.50098E-07        -0.32997E-13         0.00000E+00
    0.50098E-07        -0.48258E-13         0.00000E+00
    0.50098E-07        -0.62670E-13         0.00000E+00
    0.50098E-07        -0.76248E-13         0.00000E+00
    0.50098E-07        -0.89002E-13         0.00000E+00
    0.50098E-07        -0.10095E-12         0.00000E+00
    0.50098E-07        -0.11210E-12         0.00000E+00
    0.50098E-07        -0.12246E-12         0.00000E+00
    0.50098E-07        -0.13205E-12         0.00000E+00
    0.50098E-07        -0.14088E-12         0.00000E+00
    0.50098E-07        -0.14897E-12         0.00000E+00
    0.50098E-07        -0.15632E-12         0.00000E+00
    0.50098E-07        -0.16294E-12         0.00000E+00
    0.50098E-07        -0.16885E-12         0.00000E+00
    0.50098E-07        -0.17406E-12         0.00000E+00
    0.50098E-07        -0.17859E-12         0.00000E+00
    0.50098E-07        -0.18243E-12         0.00000E+00
    0.50098E-07        -0.18561E-12         0.00000E+00
    0.50098E-07        -0.18812E-12         0.00000E+00
    0.50098E-07        -0.18999E-12         0.00000E+00
    0.50098E-07        -0.19123E-12         0.00000E+00
    0.50098E-07        -0.19184E-12         0.00000E+00
    0.50098E-07        -0.19182E-12         0.00000E+00
    0.50098E-07        -0.19121E-12         0.00000E+00
    0.50098E-07        -0.18999E-12         0.00000E+00
    0.50098E-07        -0.18818E-12         0.00000E+00
    0.50098E-07        -0.18579E-12         0.00000E+00
    0.50098E-07        -0.18283E-12         0.00000E+00
    0.50098E-07        -0.17930E-12         0.00000E+00
    0.50098E-07        -0.17521E-12         0.00000E+00
    0.50098E-07        -0.17058E-12         0.00000E+00
    0.50098E-07        -0.16540E-12         0.00000E+00
    0.50098E-07        -0.15969E-12         0.00000E+00
    0.50098E-07        -0.15344E-12         0.00000E+00
    0.50098E-07        -0.14668E-12         0.00000E+00
    0.50098E-07        -0.13940E-12         0.00000E+00
    0.50098E-07        -0.13160E-12         0.00000E+00
    0.50098E-07        -0.12330E-12         0.00000E+00
    0.50098E-07        -0.11451E-12         0.00000E+00
    0.50098E-07        -0.10521E-12         0.00000E+00
    0.50098E-07        -0.95430E-13         0.00000E+00
    0.50098E-07        -0.85161E-13         0.00000E+00
    0.50098E-07        -0.74411E-13         0.00000E+00
    0.50098E-07        -0.63182E-13         0.00000E+00
    0.50098E-07        -0.51479E-13         0.00000E+00
    0.50098E-07        -0.39306E-13         0.00000E+00
    0.50098E-07        -0.26664E-13         0.00000E+00
    0.50098E-07        -0.13557E-13         0.00000E+00
    0.50098E-07        -0.68875E-14         0.00000E+00
    0.50101E-07        -0.80279E-14         0.00000E+00
    0.50101E-07        -0.15749E-13         0.00000E+00
    0.50101E-07        -0.30774E-13         0.00000E+00
    0.50101E-07        -0.44969E-13         0.00000E+00
    0.50101E-07        -0.58349E-13         0.00000E+00
    0.50101E-07        -0.70927E-13         0.00000E+00
    0.50101E-07        -0.82719E-13         0.00000E+00
    0.50101E-07        -0.93737E-13         0.00000E+00
    0.50101E-07        -0.10400E-12         0.00000E+00
    0.50101E-07        -0.11351E-12         0.00000E+00
    0.50101E-07        -0.12229E-12         0.00000E+00
    0.50101E-07        -0.13036E-12         0.00000E+00
    0.50101E-07        -0.13772E-12         0.00000E+00
    0.50101E-07        -0.14438E-12         0.00000E+00
    0.50101E-07        -0.15037E-12         0.00000E+00
    0.50101E-07        -0.15569E-12         0.00000E+00
    0.50101E-07        -0.16035E-12         0.00000E+00
    0.50101E-07        -0.16438E-12         0.00000E+00
    0.50101E-07        -0.16777E-12         0.00000E+00
    0.50101E-07        -0.17054E-12         0.00000E+00
    0.50101E-07        -0.17271E-12         0.00000E+00
    0.50101E-07        -0.17428E-12         0.00000E+00
    0.50101E-07        -0.17527E-12         0.00000E+00
    0.50101E-07        -0.17567E-12         0.00000E+00
    0.50101E-07        -0.17552E-12         0.00000E+00
    0.50101E-07        -0.17481E-12         0.00000E+00
    0.50101E-07        -0.17355E-12         0.00000E+00
    0.50101E-07        -0.17176E-12         0.00000E+00
    0.50101E-07        -0.16945E-12         0.00000E+00
    0.50101E-07        -0.16661E-12         0.00000E+00
    0.50101E-07        -0.16327E-12         0.00000E+00
    0.50101E-07        -0.15943E-12         0.00000E+00
    0.50101E-07        -0.15509E-12         0.00000E+00
    0.50101E-07        -0.15027E-12         0.00000E+00
    0.50101E-07        -0.14497E-12         0.00000E+00
    0.50101E-07        -0.13920E-12         0.00000E+00
    0.50101E-07        -0.13296E-12         0.00000E+00
    0.50101E-07        -0.12627E-12         0.00000E+00
    0.50101E-07        -0.11913E-12         0.00000E+00
    0.50101E-07        -0.11154E-12         0.00000E+00
    0.50101E-07        -0.10351E-12         0.00000E+00
    0.50101E-07        -0.95042E-13         0.00000E+00
    0.50101E-07        -0.86147E-13         0.00000E+00
    0.50101E-07        -0.76826E-13         0.00000E+00
    0.50101E-07        -0.67085E-13         0.00000E+00
    0.50101E-07        -0.56926E-13         0.00000E+00
    0.50101E-07        -0.46353E-13         0.00000E+00
    0.50101E-07        -0.35370E-13         0.00000E+00
    0.50101E-07        -0.23980E-13         0.00000E+00
    0.50101E-07        -0.12185E-13         0.00000E+00
    0.50101E-07        -0.61873E-14         0.00000E+00
    0.50104E-07        -0.74181E-14         0.00000E+00
    0.50104E-07        -0.14541E-13         0.00000E+00
    0.50104E-07        -0.28385E-13         0.00000E+00
    0.50104E-07        -0.41433E-13         0.00000E+00
    0.50104E-07        -0.53701E-13         0.00000E+00
    0.50104E-07        -0.65203E-13         0.00000E+00
    0.50104E-07        -0.75957E-13         0.00000E+00
    0.50104E-07        -0.85976E-13         0.00000E+00
    0.50104E-07        -0.95277E-13         0.00000E+00
    0.50104E-07        -0.10387E-12         0.00000E+00
    0.50104E-07        -0.11178E-12         0.00000E+00
    0.50104E-07        -0.11902E-12         0.00000E+00
    0.50104E-07        -0.12559E-12         0.00000E+00
    0.50104E-07        -0.13152E-12         0.00000E+00
    0.50104E-07        -0.13682E-12         0.00000E+00
    0.50104E-07        -0.14150E-12         0.00000E+00
    0.50104E-07        -0.14558E-12         0.00000E+00
    0.50104E-07        -0.14906E-12         0.00000E+00
    0.50104E-07        -0.15197E-12         0.00000E+00
    0.50104E-07        -0.15431E-12         0.00000E+00
    0.50104E-07        -0.15609E-12         0.00000E+00
    0.50104E-07        -0.15734E-12         0.00000E+00
    0.50104E-07        -0.15806E-12         0.00000E+00
    0.50104E-07        -0.15825E-12         0.00000E+00
    0.50104E-07        -0.15794E-12         0.00000E+00
    0.50104E-07        -0.15713E-12         0.00000E+00
    0.50104E-07        -0.15584E-12         0.00000E+00
    0.50104E-07        -0.15407E-12         0.00000E+00
    0.50104E-07        -0.15183E-12         0.00000E+00
    0.50104E-07        -0.14914E-12         0.00000E+00
    0.50104E-07        -0.14600E-12         0.00000E+00
    0.50104E-07        -0.14242E-12         0.00000E+00
    0.50104E-07        -0.13840E-12         0.00000E+00
    0.50104E-07        -0.13397E-12         0.00000E+00
    0.50104E-07        -0.12911E-12         0.00000E+00
    0.50104E-07        -0.12386E-12         0.00000E+00
    0.50104E-07        -0.11820E-12         0.00000E+00
    0.50104E-07        -0.11214E-12         0.00000E+00
    0.50104E-07        -0.10570E-12         0.00000E+00
    0.50104E-07        -0.98873E-13         0.00000E+00
    0.50104E-07        -0.91672E-13         0.00000E+00
    0.50104E-07        -0.84100E-13         0.00000E+00
    0.50104E-07        -0.76163E-13         0.00000E+00
    0.50104E-07        -0.67864E-13         0.00000E+00
    0.50104E-07        -0.59209E-13         0.00000E+00
    0.50104E-07        -0.50201E-13         0.00000E+00
    0.50104E-07        -0.40844E-13         0.00000E+00
    0.50104E-07        -0.31141E-13         0.00000E+00
    0.50104E-07        -0.21096E-13         0.00000E+00
    0.50104E-07        -0.10712E-13         0.00000E+00
    0.50104E-07        -0.54354E-14         0.00000E+00
    0.50107E-07        -0.67607E-14         0.00000E+00
    0.50107E-07        -0.13238E-13         0.00000E+00
    0.50107E-07        -0.25808E-13         0.00000E+00
    0.50107E-07        -0.37618E-13         0.00000E+00
    0.50107E-07        -0.48683E-13         0.00000E+00
    0.50107E-07        -0.59023E-13         0.00000E+00
    0.50107E-07        -0.68653E-13         0.00000E+00
    0.50107E-07        -0.77592E-13         0.00000E+00
    0.50107E-07        -0.85856E-13         0.00000E+00
    0.50107E-07        -0.93461E-13         0.00000E+00
    0.50107E-07        -0.10042E-12         0.00000E+00
    0.50107E-07        -0.10676E-12         0.00000E+00
    0.50107E-07        -0.11249E-12         0.00000E+00
    0.50107E-07        -0.11762E-12         0.00000E+00
    0.50107E-07        -0.12217E-12         0.00000E+00
    0.50107E-07        -0.12616E-12         0.00000E+00
    0.50107E-07        -0.12960E-12         0.00000E+00
    0.50107E-07        -0.13250E-12         0.00000E+00
    0.50107E-07        -0.13488E-12         0.00000E+00
    0.50107E-07        -0.13675E-12         0.00000E+00
    0.50107E-07        -0.13813E-12         0.00000E+00
    0.50107E-07        -0.13903E-12         0.00000E+00
    0.50107E-07        -0.13945E-12         0.00000E+00
    0.50107E-07        -0.13942E-12         0.00000E+00
    0.50107E-07        -0.13894E-12         0.00000E+00
    0.50107E-07        -0.13803E-12         0.00000E+00
    0.50107E-07        -0.13670E-12         0.00000E+00
    0.50107E-07        -0.13496E-12         0.00000E+00
    0.50107E-07        -0.13281E-12         0.00000E+00
    0.50107E-07        -0.13027E-12         0.00000E+00
    0.50107E-07        -0.12735E-12         0.00000E+00
    0.50107E-07        -0.12405E-12         0.00000E+00
    0.50107E-07        -0.12039E-12         0.00000E+00
    0.50107E-07        -0.11638E-12         0.00000E+00
    0.50107E-07        -0.11201E-12         0.00000E+00
    0.50107E-07        -0.10731E-12         0.00000E+00
    0.50107E-07        -0.10227E-12         0.00000E+00
    0.50107E-07        -0.96906E-13         0.00000E+00
    0.50107E-07        -0.91223E-13         0.00000E+00
    0.50107E-07        -0.85226E-13         0.00000E+00
    0.50107E-07        -0.78922E-13         0.00000E+00
    0.50107E-07        -0.72315E-13         0.00000E+00
    0.50107E-07        -0.65411E-13         0.00000E+00
    0.50107E-07        -0.58216E-13         0.00000E+00
    0.50107E-07        -0.50732E-13         0.00000E+00
    0.50107E-07        -0.42964E-13         0.00000E+00
    0.50107E-07        -0.34917E-13         0.00000E+00
    0.50107E-07        -0.26593E-13         0.00000E+00
    0.50107E-07        -0.17996E-13         0.00000E+00
    0.50107E-07        -0.91284E-14         0.00000E+00
    0.50107E-07        -0.46273E-14         0.00000E+00
    0.50110E-07        -0.60487E-14         0.00000E+00
    0.50110E-07        -0.11827E-13         0.00000E+00
    0.50110E-07        -0.23016E-13         0.00000E+00
    0.50110E-07        -0.33482E-13         0.00000E+00
    0.50110E-07        -0.43244E-13         0.00000E+00
    0.50110E-07        -0.52321E-13         0.00000E+00
    0.50110E-07        -0.60732E-13         0.00000E+00
    0.50110E-07        -0.68497E-13         0.00000E+00
    0.50110E-07        -0.75634E-13         0.00000E+00
    0.50110E-07        -0.82161E-13         0.00000E+00
    0.50110E-07        -0.88097E-13         0.00000E+00
    0.50110E-07        -0.93459E-13         0.00000E+00
    0.50110E-07        -0.98265E-13         0.00000E+00
    0.50110E-07        -0.10253E-12         0.00000E+00
    0.50110E-07        -0.10627E-12         0.00000E+00
    0.50110E-07        -0.10951E-12         0.00000E+00
    0.50110E-07        -0.11226E-12         0.00000E+00
    0.50110E-07        -0.11453E-12         0.00000E+00
    0.50110E-07        -0.11634E-12         0.00000E+00
    0.50110E-07        -0.11771E-12         0.00000E+00
    0.50110E-07        -0.11864E-12         0.00000E+00
    0.50110E-07        -0.11916E-12         0.00000E+00
    0.50110E-07        -0.11928E-12         0.00000E+00
    0.50110E-07        -0.11901E-12         0.00000E+00
    0.50110E-07        -0.11835E-12         0.00000E+00
    0.50110E-07        -0.11734E-12         0.00000E+00
    0.50110E-07        -0.11596E-12         0.00000E+00
    0.50110E-07        -0.11425E-12         0.00000E+00
    0.50110E-07        -0.11220E-12         0.00000E+00
    0.50110E-07        -0.10984E-12         0.00000E+00
    0.50110E-07        -0.10716E-12         0.00000E+00
    0.50110E-07        -0.10418E-12         0.00000E+00
    0.50110E-07        -0.10091E-12         0.00000E+00
    0.50110E-07        -0.97352E-13         0.00000E+00
    0.50109E-07        -0.93521E-13         0.00000E+00
    0.50109E-07        -0.89422E-13         0.00000E+00
    0.50109E-07        -0.85063E-13         0.00000E+00
    0.50109E-07        -0.80451E-13         0.00000E+00
    0.50109E-07        -0.75593E-13         0.00000E+00
    0.50109E-07        -0.70495E-13         0.00000E+00
    0.50109E-07        -0.65163E-13         0.00000E+00
    0.50109E-07        -0.59602E-13         0.00000E+00
    0.50109E-07        -0.53817E-13         0.00000E+00
    0.50109E-07        -0.47814E-13         0.00000E+00
    0.50109E-07        -0.41597E-13         0.00000E+00
    0.50109E-07        -0.35169E-13         0.00000E+00
    0.50109E-07        -0.28535E-13         0.00000E+00
    0.50109E-07        -0.21697E-13         0.00000E+00
    0.50109E-07        -0.14660E-13         0.00000E+00
    0.50109E-07        -0.74247E-14         0.00000E+00
    0.50109E-07        -0.37581E-14         0.00000E+00
    0.50112E-07        -0.52733E-14         0.00000E+00
    0.50112E-07        -0.10289E-13         0.00000E+00
    0.50112E-07        -0.19974E-13         0.00000E+00
    0.50112E-07        -0.28976E-13         0.00000E+00
    0.50112E-07        -0.37316E-13         0.00000E+00
    0.50112E-07        -0.45016E-13         0.00000E+00
    0.50112E-07        -0.52099E-13         0.00000E+00
    0.50112E-07        -0.58584E-13         0.00000E+00
    0.50112E-07        -0.64492E-13         0.00000E+00
    0.50112E-07        -0.69844E-13         0.00000E+00
    0.50112E-07        -0.74661E-13         0.00000E+00
    0.50112E-07        -0.78961E-13         0.00000E+00
    0.50112E-07        -0.82763E-13         0.00000E+00
    0.50112E-07        -0.86087E-13         0.00000E+00
    0.50112E-07        -0.88951E-13         0.00000E+00
    0.50112E-07        -0.91372E-13         0.00000E+00
    0.50112E-07        -0.93369E-13         0.00000E+00
    0.50112E-07        -0.94957E-13         0.00000E+00
    0.50112E-07        -0.96153E-13         0.00000E+00
    0.50112E-07        -0.96974E-13         0.00000E+00
    0.50112E-07        -0.97434E-13         0.00000E+00
    0.50112E-07        -0.97549E-13         0.00000E+00
    0.50112E-07        -0.97333E-13         0.00000E+00
    0.50112E-07        -0.96800E-13         0.00000E+00
    0.50112E-07        -0.95963E-13         0.00000E+00
    0.50112E-07        -0.94835E-13         0.00000E+00
    0.50112E-07        -0.93429E-13         0.00000E+00
    0.50112E-07        -0.91757E-13         0.00000E+00
    0.50112E-07        -0.89829E-13         0.00000E+00
    0.50112E-07        -0.87658E-13         0.00000E+00
    0.50112E-07        -0.85252E-13         0.00000E+00
    0.50112E-07        -0.82623E-13         0.00000E+00
    0.50112E-07        -0.79779E-13         0.00000E+00
    0.50112E-07        -0.76730E-13         0.00000E+00
    0.50112E-07        -0.73484E-13         0.00000E+00
    0.50112E-07        -0.70049E-13         0.00000E+00
    0.50112E-07        -0.66432E-13         0.00000E+00
    0.50112E-07        -0.62642E-13         0.00000E+00
    0.50112E-07        -0.58684E-13         0.00000E+00
    0.50112E-07        -0.54564E-13         0.00000E+00
    0.50112E-07        -0.50289E-13         0.00000E+00
    0.50112E-07        -0.45864E-13         0.00000E+00
    0.50112E-07        -0.41294E-13         0.00000E+00
    0.50112E-07        -0.36584E-13         0.00000E+00
    0.50112E-07        -0.31738E-13         0.00000E+00
    0.50112E-07        -0.26760E-13         0.00000E+00
    0.50112E-07        -0.21653E-13         0.00000E+00
    0.50112E-07        -0.16420E-13         0.00000E+00
    0.50112E-07        -0.11065E-13         0.00000E+00
    0.50112E-07        -0.55899E-14         0.00000E+00
    0.50112E-07        -0.28226E-14         0.00000E+00
    0.50115E-07        -0.44239E-14         0.00000E+00
    0.50115E-07        -0.86051E-14         0.00000E+00
    0.50115E-07        -0.16641E-13         0.00000E+00
    0.50115E-07        -0.24038E-13         0.00000E+00
    0.50115E-07        -0.30821E-13         0.00000E+00
    0.50115E-07        -0.37013E-13         0.00000E+00
    0.50115E-07        -0.42638E-13         0.00000E+00
    0.50115E-07        -0.47721E-13         0.00000E+00
    0.50115E-07        -0.52285E-13         0.00000E+00
    0.50115E-07        -0.56351E-13         0.00000E+00
    0.50115E-07        -0.59943E-13         0.00000E+00
    0.50115E-07        -0.63083E-13         0.00000E+00
    0.50115E-07        -0.65790E-13         0.00000E+00
    0.50114E-07        -0.68086E-13         0.00000E+00
    0.50114E-07        -0.69991E-13         0.00000E+00
    0.50114E-07        -0.71525E-13         0.00000E+00
    0.50114E-07        -0.72705E-13         0.00000E+00
    0.50114E-07        -0.73552E-13         0.00000E+00
    0.50114E-07        -0.74082E-13         0.00000E+00
    0.50114E-07        -0.74313E-13         0.00000E+00
    0.50114E-07        -0.74261E-13         0.00000E+00
    0.50114E-07        -0.73942E-13         0.00000E+00
    0.50114E-07        -0.73372E-13         0.00000E+00
    0.50114E-07        -0.72566E-13         0.00000E+00
    0.50114E-07        -0.71537E-13         0.00000E+00
    0.50114E-07        -0.70299E-13         0.00000E+00
    0.50114E-07        -0.68865E-13         0.00000E+00
    0.50114E-07        -0.67248E-13         0.00000E+00
    0.50114E-07        -0.65460E-13         0.00000E+00
    0.50114E-07        -0.63511E-13         0.00000E+00
    0.50114E-07        -0.61413E-13         0.00000E+00
    0.50114E-07        -0.59176E-13         0.00000E+00
    0.50114E-07        -0.56809E-13         0.00000E+00
    0.50114E-07        -0.54321E-13         0.00000E+00
    0.50114E-07        -0.51721E-13         0.00000E+00
    0.50114E-07        -0.49017E-13         0.00000E+00
    0.50114E-07        -0.46217E-13         0.00000E+00
    0.50114E-07        -0.43327E-13         0.00000E+00
    0.50114E-07        -0.40354E-13         0.00000E+00
    0.50114E-07        -0.37304E-13         0.00000E+00
    0.50114E-07        -0.34183E-13         0.00000E+00
    0.50114E-07        -0.30996E-13         0.00000E+00
    0.50114E-07        -0.27748E-13         0.00000E+00
    0.50114E-07        -0.24442E-13         0.00000E+00
    0.50114E-07        -0.21084E-13         0.00000E+00
    0.50114E-07        -0.17677E-13         0.00000E+00
    0.50114E-07        -0.14223E-13         0.00000E+00
    0.50114E-07        -0.10726E-13         0.00000E+00
    0.50114E-07        -0.71885E-14         0.00000E+00
    0.50114E-07        -0.36121E-14         0.00000E+00
    0.50114E-07        -0.18146E-14         0.00000E+00
    0.50117E-07        -0.34876E-14         0.00000E+00
    0.50117E-07        -0.67484E-14         0.00000E+00
    0.50117E-07        -0.12968E-13         0.00000E+00
    0.50117E-07        -0.18596E-13         0.00000E+00
    0.50117E-07        -0.23662E-13         0.00000E+00
    0.50117E-07        -0.28192E-13         0.00000E+00
    0.50117E-07        -0.32215E-13         0.00000E+00
    0.50117E-07        -0.35756E-13         0.00000E+00
    0.50117E-07        -0.38841E-13         0.00000E+00
    0.50117E-07        -0.41495E-13         0.00000E+00
    0.50117E-07        -0.43744E-13         0.00000E+00
    0.50117E-07        -0.45610E-13         0.00000E+00
    0.50117E-07        -0.47118E-13         0.00000E+00
    0.50117E-07        -0.48291E-13         0.00000E+00
    0.50117E-07        -0.49149E-13         0.00000E+00
    0.50117E-07        -0.49715E-13         0.00000E+00
    0.50117E-07        -0.50008E-13         0.00000E+00
    0.50117E-07        -0.50050E-13         0.00000E+00
    0.50117E-07        -0.49859E-13         0.00000E+00
    0.50117E-07        -0.49453E-13         0.00000E+00
    0.50117E-07        -0.48851E-13         0.00000E+00
    0.50117E-07        -0.48069E-13         0.00000E+00
    0.50117E-07        -0.47123E-13         0.00000E+00
    0.50117E-07        -0.46030E-13         0.00000E+00
    0.50117E-07        -0.44804E-13         0.00000E+00
    0.50117E-07        -0.43460E-13         0.00000E+00
    0.50117E-07        -0.42010E-13         0.00000E+00
    0.50117E-07        -0.40468E-13         0.00000E+00
    0.50117E-07        -0.38846E-13         0.00000E+00
    0.50117E-07        -0.37156E-13         0.00000E+00
    0.50117E-07        -0.35407E-13         0.00000E+00
    0.50117E-07        -0.33612E-13         0.00000E+00
    0.50117E-07        -0.31779E-13         0.00000E+00
    0.50117E-07        -0.29917E-13         0.00000E+00
    0.50117E-07        -0.28034E-13         0.00000E+00
    0.50117E-07        -0.26139E-13         0.00000E+00
    0.50117E-07        -0.24239E-13         0.00000E+00
    0.50117E-07        -0.22341E-13         0.00000E+00
    0.50117E-07        -0.20450E-13         0.00000E+00
    0.50117E-07        -0.18573E-13         0.00000E+00
    0.50117E-07        -0.16715E-13         0.00000E+00
    0.50117E-07        -0.14880E-13         0.00000E+00
    0.50117E-07        -0.13073E-13         0.00000E+00
    0.50117E-07        -0.11298E-13         0.00000E+00
    0.50117E-07        -0.95575E-14         0.00000E+00
    0.50117E-07        -0.78556E-14         0.00000E+00
    0.50117E-07        -0.61946E-14         0.00000E+00
    0.50117E-07        -0.45769E-14         0.00000E+00
    0.50117E-07        -0.30044E-14         0.00000E+00
    0.50117E-07        -0.14788E-14         0.00000E+00
    0.50117E-07        -0.72786E-15         0.00000E+00
    0.50119E-07        -0.24488E-14         0.00000E+00
    0.50119E-07        -0.46889E-14         0.00000E+00
    0.50119E-07        -0.88932E-14         0.00000E+00
    0.50119E-07        -0.12562E-13         0.00000E+00
    0.50119E-07        -0.15727E-13         0.00000E+00
    0.50119E-07        -0.18419E-13         0.00000E+00
    0.50119E-07        -0.20669E-13         0.00000E+00
    0.50119E-07        -0.22506E-13         0.00000E+00
    0.50119E-07        -0.23960E-13         0.00000E+00
    0.50119E-07        -0.25058E-13         0.00000E+00
    0.50119E-07        -0.25828E-13         0.00000E+00
    0.50119E-07        -0.26296E-13         0.00000E+00
    0.50119E-07        -0.26489E-13         0.00000E+00
    0.50119E-07        -0.26430E-13         0.00000E+00
    0.50119E-07        -0.26144E-13         0.00000E+00
    0.50119E-07        -0.25654E-13         0.00000E+00
    0.50119E-07        -0.24983E-13         0.00000E+00
    0.50119E-07        -0.24151E-13         0.00000E+00
    0.50119E-07        -0.23180E-13         0.00000E+00
    0.50119E-07        -0.22089E-13         0.00000E+00
    0.50119E-07        -0.20897E-13         0.00000E+00
    0.50119E-07        -0.19622E-13         0.00000E+00
    0.50119E-07        -0.18282E-13         0.00000E+00
    0.50119E-07        -0.16891E-13         0.00000E+00
    0.50119E-07        -0.15467E-13         0.00000E+00
    0.50119E-07        -0.14024E-13         0.00000E+00
    0.50119E-07        -0.12575E-13         0.00000E+00
    0.50119E-07        -0.11134E-13         0.00000E+00
    0.50119E-07        -0.97132E-14         0.00000E+00
    0.50119E-07        -0.83240E-14         0.00000E+00
    0.50119E-07        -0.69773E-14         0.00000E+00
    0.50119E-07        -0.56832E-14         0.00000E+00
    0.50119E-07        -0.44513E-14         0.00000E+00
    0.50119E-07        -0.32902E-14         0.00000E+00
    0.50119E-07        -0.22080E-14         0.00000E+00
    0.50119E-07        -0.12121E-14         0.00000E+00
    0.50119E-07        -0.30949E-15         0.00000E+00
    0.50119E-07         0.49375E-15         0.00000E+00
    0.50119E-07         0.11919E-14         0.00000E+00
    0.50119E-07         0.17799E-14         0.00000E+00
    0.50119E-07         0.22532E-14         0.00000E+00
    0.50119E-07         0.26076E-14         0.00000E+00
    0.50119E-07         0.28396E-14         0.00000E+00
    0.50119E-07         0.29460E-14         0.00000E+00
    0.50119E-07         0.29242E-14         0.00000E+00
    0.50119E-07         0.27718E-14         0.00000E+00
    0.50119E-07         0.24869E-14         0.00000E+00
    0.50119E-07         0.20680E-14         0.00000E+00
    0.50119E-07         0.15138E-14         0.00000E+00
    0.50119E-07         0.82340E-15         0.00000E+00
    0.50119E-07         0.44407E-15         0.00000E+00
    0.50121E-07        -0.12893E-14         0.00000E+00
    0.50121E-07        -0.23909E-14         0.00000E+00
    0.50121E-07        -0.43489E-14         0.00000E+00
    0.50121E-07        -0.58350E-14         0.00000E+00
    0.50121E-07        -0.68853E-14         0.00000E+00
    0.50121E-07        -0.75348E-14         0.00000E+00
    0.50121E-07        -0.78178E-14         0.00000E+00
    0.50121E-07        -0.77675E-14         0.00000E+00
    0.50121E-07        -0.74162E-14         0.00000E+00
    0.50121E-07        -0.67951E-14         0.00000E+00
    0.50121E-07        -0.59345E-14         0.00000E+00
    0.50121E-07        -0.48635E-14         0.00000E+00
    0.50121E-07        -0.36105E-14         0.00000E+00
    0.50121E-07        -0.22025E-14         0.00000E+00
    0.50121E-07        -0.66557E-15         0.00000E+00
    0.50121E-07         0.97513E-15         0.00000E+00
    0.50121E-07         0.26957E-14         0.00000E+00
    0.50121E-07         0.44731E-14         0.00000E+00
    0.50121E-07         0.62854E-14         0.00000E+00
    0.50121E-07         0.81118E-14         0.00000E+00
    0.50121E-07         0.99323E-14         0.00000E+00
    0.50121E-07         0.11728E-13         0.00000E+00
    0.50121E-07         0.13481E-13         0.00000E+00
    0.50121E-07         0.15175E-13         0.00000E+00
    0.50121E-07         0.16794E-13         0.00000E+00
    0.50121E-07         0.18322E-13         0.00000E+00
    0.50121E-07         0.19746E-13         0.00000E+00
    0.50121E-07         0.21052E-13         0.00000E+00
    0.50121E-07         0.22228E-13         0.00000E+00
    0.50121E-07         0.23263E-13         0.00000E+00
    0.50121E-07         0.24147E-13         0.00000E+00
    0.50121E-07         0.24869E-13         0.00000E+00
    0.50121E-07         0.25420E-13         0.00000E+00
    0.50121E-07         0.25793E-13         0.00000E+00
    0.50121E-07         0.25980E-13         0.00000E+00
    0.50121E-07         0.25974E-13         0.00000E+00
    0.50121E-07         0.25769E-13         0.00000E+00
    0.50121E-07         0.25359E-13         0.00000E+00
    0.50121E-07         0.24741E-13         0.00000E+00
    0.50121E-07         0.23909E-13         0.00000E+00
    0.50121E-07         0.22860E-13         0.00000E+00
    0.50121E-07         0.21592E-13         0.00000E+00
    0.50121E-07         0.20101E-13         0.00000E+00
    0.50121E-07         0.18385E-13         0.00000E+00
    0.50121E-07         0.16443E-13         0.00000E+00
    0.50121E-07         0.14273E-13         0.00000E+00
    0.50121E-07         0.11875E-13         0.00000E+00
    0.50121E-07         0.92482E-14         0.00000E+00
    0.50121E-07         0.63922E-14         0.00000E+00
    0.50121E-07         0.33072E-14         0.00000E+00
    0.50121E-07         0.17075E-14         0.00000E+00
    0.50123E-07         0.11537E-16         0.00000E+00
    0.50123E-07         0.18609E-15         0.00000E+00
    0.50123E-07         0.74392E-15         0.00000E+00
    0.50123E-07         0.16985E-14         0.00000E+00
    0.50123E-07         0.30092E-14         0.00000E+00
    0.50123E-07         0.46365E-14         0.00000E+00
    0.50123E-07         0.65419E-14         0.00000E+00
    0.50123E-07         0.86885E-14         0.00000E+00
    0.50123E-07         0.11040E-13         0.00000E+00
    0.50123E-07         0.13563E-13         0.00000E+00
    0.50123E-07         0.16223E-13         0.00000E+00
    0.50123E-07         0.18989E-13         0.00000E+00
    0.50123E-07         0.21829E-13         0.00000E+00
    0.50123E-07         0.24715E-13         0.00000E+00
    0.50123E-07         0.27618E-13         0.00000E+00
    0.50123E-07         0.30512E-13         0.00000E+00
    0.50123E-07         0.33370E-13         0.00000E+00
    0.50123E-07         0.36168E-13         0.00000E+00
    0.50123E-07         0.38884E-13         0.00000E+00
    0.50123E-07         0.41496E-13         0.00000E+00
    0.50123E-07         0.43982E-13         0.00000E+00
    0.50123E-07         0.46324E-13         0.00000E+00
    0.50123E-07         0.48502E-13         0.00000E+00
    0.50123E-07         0.50501E-13         0.00000E+00
    0.50123E-07         0.52303E-13         0.00000E+00
    0.50123E-07         0.53894E-13         0.00000E+00
    0.50123E-07         0.55260E-13         0.00000E+00
    0.50123E-07         0.56388E-13         0.00000E+00
    0.50123E-07         0.57266E-13         0.00000E+00
    0.50123E-07         0.57884E-13         0.00000E+00
    0.50123E-07         0.58231E-13         0.00000E+00
    0.50123E-07         0.58298E-13         0.00000E+00
    0.50123E-07         0.58077E-13         0.00000E+00
    0.50123E-07         0.57562E-13         0.00000E+00
    0.50123E-07         0.56744E-13         0.00000E+00
    0.50123E-07         0.55620E-13         0.00000E+00
    0.50123E-07         0.54183E-13         0.00000E+00
    0.50123E-07         0.52430E-13         0.00000E+00
    0.50123E-07         0.50357E-13         0.00000E+00
    0.50123E-07         0.47960E-13         0.00000E+00
    0.50123E-07         0.45239E-13         0.00000E+00
    0.50123E-07         0.42191E-13         0.00000E+00
    0.50123E-07         0.38814E-13         0.00000E+00
    0.50123E-07         0.35109E-13         0.00000E+00
    0.50123E-07         0.31075E-13         0.00000E+00
    0.50123E-07         0.26711E-13         0.00000E+00
    0.50123E-07         0.22020E-13         0.00000E+00
    0.50123E-07         0.17000E-13         0.00000E+00
    0.50123E-07         0.11655E-13         0.00000E+00
    0.50123E-07         0.59845E-14         0.00000E+00
    0.50123E-07         0.30683E-14         0.00000E+00
    0.50124E-07         0.14768E-14         0.00000E+00
    0.50124E-07         0.30866E-14         0.00000E+00
    0.50124E-07         0.64712E-14         0.00000E+00
    0.50124E-07         0.10163E-13         0.00000E+00
    0.50124E-07         0.14115E-13         0.00000E+00
    0.50124E-07         0.18284E-13         0.00000E+00
    0.50124E-07         0.22627E-13         0.00000E+00
    0.50124E-07         0.27103E-13         0.00000E+00
    0.50124E-07         0.31672E-13         0.00000E+00
    0.50124E-07         0.36297E-13         0.00000E+00
    0.50124E-07         0.40942E-13         0.00000E+00
    0.50124E-07         0.45570E-13         0.00000E+00
    0.50124E-07         0.50151E-13         0.00000E+00
    0.50124E-07         0.54651E-13         0.00000E+00
    0.50124E-07         0.59041E-13         0.00000E+00
    0.50124E-07         0.63292E-13         0.00000E+00
    0.50124E-07         0.67378E-13         0.00000E+00
    0.50124E-07         0.71274E-13         0.00000E+00
    0.50124E-07         0.74954E-13         0.00000E+00
    0.50124E-07         0.78397E-13         0.00000E+00
    0.50124E-07         0.81582E-13         0.00000E+00
    0.50124E-07         0.84488E-13         0.00000E+00
    0.50124E-07         0.87098E-13         0.00000E+00
    0.50124E-07         0.89394E-13         0.00000E+00
    0.50124E-07         0.91361E-13         0.00000E+00
    0.50124E-07         0.92984E-13         0.00000E+00
    0.50124E-07         0.94249E-13         0.00000E+00
    0.50124E-07         0.95145E-13         0.00000E+00
    0.50124E-07         0.95660E-13         0.00000E+00
    0.50124E-07         0.95784E-13         0.00000E+00
    0.50124E-07         0.95509E-13         0.00000E+00
    0.50124E-07         0.94827E-13         0.00000E+00
    0.50124E-07         0.93730E-13         0.00000E+00
    0.50124E-07         0.92213E-13         0.00000E+00
    0.50124E-07         0.90271E-13         0.00000E+00
    0.50124E-07         0.87898E-13         0.00000E+00
    0.50124E-07         0.85093E-13         0.00000E+00
    0.50124E-07         0.81852E-13         0.00000E+00
    0.50124E-07         0.78173E-13         0.00000E+00
    0.50124E-07         0.74055E-13         0.00000E+00
    0.50124E-07         0.69498E-13         0.00000E+00
    0.50124E-07         0.64501E-13         0.00000E+00
    0.50124E-07         0.59065E-13         0.00000E+00
    0.50124E-07         0.53191E-13         0.00000E+00
    0.50124E-07         0.46880E-13         0.00000E+00
    0.50124E-07         0.40136E-13         0.00000E+00
    0.50124E-07         0.32959E-13         0.00000E+00
    0.50124E-07         0.25352E-13         0.00000E+00
    0.50124E-07         0.17320E-13         0.00000E+00
    0.50124E-07         0.88640E-14         0.00000E+00
    0.50124E-07         0.45307E-14         0.00000E+00
    0.50126E-07         0.31307E-14         0.00000E+00
    0.50126E-07         0.63575E-14         0.00000E+00
    0.50126E-07         0.12923E-13         0.00000E+00
    0.50126E-07         0.19685E-13         0.00000E+00
    0.50126E-07         0.26594E-13         0.00000E+00
    0.50126E-07         0.33600E-13         0.00000E+00
    0.50126E-07         0.40655E-13         0.00000E+00
    0.50126E-07         0.47715E-13         0.00000E+00
    0.50126E-07         0.54737E-13         0.00000E+00
    0.50126E-07         0.61680E-13         0.00000E+00
    0.50126E-07         0.68505E-13         0.00000E+00
    0.50126E-07         0.75174E-13         0.00000E+00
    0.50126E-07         0.81652E-13         0.00000E+00
    0.50126E-07         0.87907E-13         0.00000E+00
    0.50126E-07         0.93906E-13         0.00000E+00
    0.50126E-07         0.99621E-13         0.00000E+00
    0.50126E-07         0.10502E-12         0.00000E+00
    0.50126E-07         0.11009E-12         0.00000E+00
    0.50126E-07         0.11479E-12         0.00000E+00
    0.50126E-07         0.11910E-12         0.00000E+00
    0.50126E-07         0.12301E-12         0.00000E+00
    0.50126E-07         0.12649E-12         0.00000E+00
    0.50126E-07         0.12952E-12         0.00000E+00
    0.50126E-07         0.13210E-12         0.00000E+00
    0.50126E-07         0.13420E-12         0.00000E+00
    0.50126E-07         0.13581E-12         0.00000E+00
    0.50126E-07         0.13692E-12         0.00000E+00
    0.50126E-07         0.13752E-12         0.00000E+00
    0.50126E-07         0.13760E-12         0.00000E+00
    0.50126E-07         0.13714E-12         0.00000E+00
    0.50126E-07         0.13615E-12         0.00000E+00
    0.50126E-07         0.13461E-12         0.00000E+00
    0.50126E-07         0.13252E-12         0.00000E+00
    0.50126E-07         0.12988E-12         0.00000E+00
    0.50126E-07         0.12668E-12         0.00000E+00
    0.50126E-07         0.12292E-12         0.00000E+00
    0.50126E-07         0.11860E-12         0.00000E+00
    0.50126E-07         0.11371E-12         0.00000E+00
    0.50126E-07         0.10827E-12         0.00000E+00
    0.50126E-07         0.10226E-12         0.00000E+00
    0.50126E-07         0.95698E-13         0.00000E+00
    0.50126E-07         0.88575E-13         0.00000E+00
    0.50126E-07         0.80897E-13         0.00000E+00
    0.50126E-07         0.72668E-13         0.00000E+00
    0.50126E-07         0.63891E-13         0.00000E+00
    0.50126E-07         0.54571E-13         0.00000E+00
    0.50126E-07         0.44711E-13         0.00000E+00
    0.50126E-07         0.34318E-13         0.00000E+00
    0.50126E-07         0.23395E-13         0.00000E+00
    0.50126E-07         0.11950E-13         0.00000E+00
    0.50126E-07         0.60965E-14         0.00000E+00
    0.50127E-07         0.49974E-14         0.00000E+00
    0.50127E-07         0.10045E-13         0.00000E+00
    0.50127E-07         0.20186E-13         0.00000E+00
    0.50127E-07         0.30389E-13         0.00000E+00
    0.50127E-07         0.40598E-13         0.00000E+00
    0.50127E-07         0.50760E-13         0.00000E+00
    0.50127E-07         0.60823E-13         0.00000E+00
    0.50127E-07         0.70738E-13         0.00000E+00
    0.50127E-07         0.80459E-13         0.00000E+00
    0.50127E-07         0.89943E-13         0.00000E+00
    0.50127E-07         0.99148E-13         0.00000E+00
    0.50127E-07         0.10804E-12         0.00000E+00
    0.50127E-07         0.11657E-12         0.00000E+00
    0.50127E-07         0.12471E-12         0.00000E+00
    0.50127E-07         0.13244E-12         0.00000E+00
    0.50127E-07         0.13971E-12         0.00000E+00
    0.50127E-07         0.14651E-12         0.00000E+00
    0.50127E-07         0.15280E-12         0.00000E+00
    0.50127E-07         0.15856E-12         0.00000E+00
    0.50127E-07         0.16377E-12         0.00000E+00
    0.50127E-07         0.16841E-12         0.00000E+00
    0.50127E-07         0.17246E-12         0.00000E+00
    0.50127E-07         0.17591E-12         0.00000E+00
    0.50127E-07         0.17873E-12         0.00000E+00
    0.50127E-07         0.18093E-12         0.00000E+00
    0.50127E-07         0.18247E-12         0.00000E+00
    0.50127E-07         0.18336E-12         0.00000E+00
    0.50127E-07         0.18358E-12         0.00000E+00
    0.50127E-07         0.18312E-12         0.00000E+00
    0.50127E-07         0.18199E-12         0.00000E+00
    0.50127E-07         0.18017E-12         0.00000E+00
    0.50127E-07         0.17766E-12         0.00000E+00
    0.50127E-07         0.17446E-12         0.00000E+00
    0.50127E-07         0.17056E-12         0.00000E+00
    0.50127E-07         0.16596E-12         0.00000E+00
    0.50127E-07         0.16067E-12         0.00000E+00
    0.50127E-07         0.15468E-12         0.00000E+00
    0.50127E-07         0.14800E-12         0.00000E+00
    0.50127E-07         0.14063E-12         0.00000E+00
    0.50127E-07         0.13256E-12         0.00000E+00
    0.50127E-07         0.12382E-12         0.00000E+00
    0.50127E-07         0.11439E-12         0.00000E+00
    0.50127E-07         0.10429E-12         0.00000E+00
    0.50127E-07         0.93521E-13         0.00000E+00
    0.50127E-07         0.82088E-13         0.00000E+00
    0.50127E-07         0.70000E-13         0.00000E+00
    0.50127E-07         0.57263E-13         0.00000E+00
    0.50127E-07         0.43885E-13         0.00000E+00
    0.50127E-07         0.29873E-13         0.00000E+00
    0.50127E-07         0.15237E-13         0.00000E+00
    0.50127E-07         0.77632E-14         0.00000E+00
    0.50129E-07         0.70981E-14         0.00000E+00
    0.50129E-07         0.14189E-13         0.00000E+00
    0.50129E-07         0.28333E-13         0.00000E+00
    0.50129E-07         0.42373E-13         0.00000E+00
    0.50129E-07         0.56248E-13         0.00000E+00
    0.50129E-07         0.69899E-13         0.00000E+00
    0.50129E-07         0.83272E-13         0.00000E+00
    0.50129E-07         0.96316E-13         0.00000E+00
    0.50129E-07         0.10898E-12         0.00000E+00
    0.50129E-07         0.12123E-12         0.00000E+00
    0.50129E-07         0.13300E-12         0.00000E+00
    0.50129E-07         0.14428E-12         0.00000E+00
    0.50129E-07         0.15501E-12         0.00000E+00
    0.50129E-07         0.16516E-12         0.00000E+00
    0.50129E-07         0.17471E-12         0.00000E+00
    0.50129E-07         0.18362E-12         0.00000E+00
    0.50129E-07         0.19186E-12         0.00000E+00
    0.50129E-07         0.19942E-12         0.00000E+00
    0.50129E-07         0.20626E-12         0.00000E+00
    0.50129E-07         0.21238E-12         0.00000E+00
    0.50129E-07         0.21774E-12         0.00000E+00
    0.50129E-07         0.22234E-12         0.00000E+00
    0.50129E-07         0.22616E-12         0.00000E+00
    0.50128E-07         0.22918E-12         0.00000E+00
    0.50128E-07         0.23140E-12         0.00000E+00
    0.50128E-07         0.23280E-12         0.00000E+00
    0.50128E-07         0.23339E-12         0.00000E+00
    0.50128E-07         0.23314E-12         0.00000E+00
    0.50128E-07         0.23206E-12         0.00000E+00
    0.50128E-07         0.23015E-12         0.00000E+00
    0.50128E-07         0.22739E-12         0.00000E+00
    0.50128E-07         0.22379E-12         0.00000E+00
    0.50128E-07         0.21934E-12         0.00000E+00
    0.50128E-07         0.21406E-12         0.00000E+00
    0.50128E-07         0.20793E-12         0.00000E+00
    0.50128E-07         0.20096E-12         0.00000E+00
    0.50128E-07         0.19316E-12         0.00000E+00
    0.50128E-07         0.18453E-12         0.00000E+00
    0.50128E-07         0.17507E-12         0.00000E+00
    0.50128E-07         0.16480E-12         0.00000E+00
    0.50128E-07         0.15371E-12         0.00000E+00
    0.50128E-07         0.14181E-12         0.00000E+00
    0.50128E-07         0.12912E-12         0.00000E+00
    0.50128E-07         0.11563E-12         0.00000E+00
    0.50128E-07         0.10137E-12         0.00000E+00
    0.50128E-07         0.86339E-13         0.00000E+00
    0.50128E-07         0.70546E-13         0.00000E+00
    0.50128E-07         0.54002E-13         0.00000E+00
    0.50128E-07         0.36719E-13         0.00000E+00
    0.50128E-07         0.18708E-13         0.00000E+00
    0.50128E-07         0.95222E-14         0.00000E+00
    0.50130E-07         0.94472E-14         0.00000E+00
    0.50130E-07         0.18814E-13         0.00000E+00
    0.50130E-07         0.37408E-13         0.00000E+00
    0.50130E-07         0.55691E-13         0.00000E+00
    0.50130E-07         0.73597E-13         0.00000E+00
    0.50130E-07         0.91066E-13         0.00000E+00
    0.50130E-07         0.10804E-12         0.00000E+00
    0.50130E-07         0.12447E-12         0.00000E+00
    0.50130E-07         0.14031E-12         0.00000E+00
    0.50130E-07         0.15550E-12         0.00000E+00
    0.50130E-07         0.17001E-12         0.00000E+00
    0.50130E-07         0.18381E-12         0.00000E+00
    0.50130E-07         0.19684E-12         0.00000E+00
    0.50130E-07         0.20909E-12         0.00000E+00
    0.50130E-07         0.22052E-12         0.00000E+00
    0.50130E-07         0.23110E-12         0.00000E+00
    0.50130E-07         0.24081E-12         0.00000E+00
    0.50130E-07         0.24964E-12         0.00000E+00
    0.50130E-07         0.25755E-12         0.00000E+00
    0.50130E-07         0.26454E-12         0.00000E+00
    0.50130E-07         0.27058E-12         0.00000E+00
    0.50130E-07         0.27567E-12         0.00000E+00
    0.50130E-07         0.27980E-12         0.00000E+00
    0.50130E-07         0.28295E-12         0.00000E+00
    0.50130E-07         0.28512E-12         0.00000E+00
    0.50130E-07         0.28630E-12         0.00000E+00
    0.50130E-07         0.28648E-12         0.00000E+00
    0.50130E-07         0.28567E-12         0.00000E+00
    0.50130E-07         0.28386E-12         0.00000E+00
    0.50129E-07         0.28105E-12         0.00000E+00
    0.50129E-07         0.27725E-12         0.00000E+00
    0.50129E-07         0.27244E-12         0.00000E+00
    0.50129E-07         0.26664E-12         0.00000E+00
    0.50129E-07         0.25985E-12         0.00000E+00
    0.50129E-07         0.25207E-12         0.00000E+00
    0.50129E-07         0.24330E-12         0.00000E+00
    0.50129E-07         0.23357E-12         0.00000E+00
    0.50129E-07         0.22286E-12         0.00000E+00
    0.50129E-07         0.21119E-12         0.00000E+00
    0.50129E-07         0.19857E-12         0.00000E+00
    0.50129E-07         0.18501E-12         0.00000E+00
    0.50129E-07         0.17051E-12         0.00000E+00
    0.50129E-07         0.15509E-12         0.00000E+00
    0.50129E-07         0.13876E-12         0.00000E+00
    0.50129E-07         0.12153E-12         0.00000E+00
    0.50129E-07         0.10341E-12         0.00000E+00
    0.50129E-07         0.84414E-13         0.00000E+00
    0.50129E-07         0.64561E-13         0.00000E+00
    0.50129E-07         0.43860E-13         0.00000E+00
    0.50129E-07         0.22328E-13         0.00000E+00
    0.50129E-07         0.11355E-13         0.00000E+00
    0.50131E-07         0.12046E-13         0.00000E+00
    0.50131E-07         0.23921E-13         0.00000E+00
    0.50131E-07         0.47401E-13         0.00000E+00
    0.50131E-07         0.70312E-13         0.00000E+00
    0.50131E-07         0.92589E-13         0.00000E+00
    0.50131E-07         0.11417E-12         0.00000E+00
    0.50131E-07         0.13500E-12         0.00000E+00
    0.50131E-07         0.15502E-12         0.00000E+00
    0.50131E-07         0.17419E-12         0.00000E+00
    0.50131E-07         0.19247E-12         0.00000E+00
    0.50131E-07         0.20982E-12         0.00000E+00
    0.50131E-07         0.22620E-12         0.00000E+00
    0.50131E-07         0.24159E-12         0.00000E+00
    0.50131E-07         0.25594E-12         0.00000E+00
    0.50131E-07         0.26925E-12         0.00000E+00
    0.50131E-07         0.28148E-12         0.00000E+00
    0.50131E-07         0.29262E-12         0.00000E+00
    0.50131E-07         0.30266E-12         0.00000E+00
    0.50131E-07         0.31157E-12         0.00000E+00
    0.50131E-07         0.31935E-12         0.00000E+00
    0.50130E-07         0.32599E-12         0.00000E+00
    0.50130E-07         0.33148E-12         0.00000E+00
    0.50130E-07         0.33581E-12         0.00000E+00
    0.50130E-07         0.33899E-12         0.00000E+00
    0.50130E-07         0.34100E-12         0.00000E+00
    0.50130E-07         0.34185E-12         0.00000E+00
    0.50130E-07         0.34153E-12         0.00000E+00
    0.50130E-07         0.34005E-12         0.00000E+00
    0.50130E-07         0.33741E-12         0.00000E+00
    0.50130E-07         0.33361E-12         0.00000E+00
    0.50130E-07         0.32866E-12         0.00000E+00
    0.50130E-07         0.32256E-12         0.00000E+00
    0.50130E-07         0.31531E-12         0.00000E+00
    0.50130E-07         0.30693E-12         0.00000E+00
    0.50130E-07         0.29741E-12         0.00000E+00
    0.50130E-07         0.28678E-12         0.00000E+00
    0.50130E-07         0.27502E-12         0.00000E+00
    0.50130E-07         0.26217E-12         0.00000E+00
    0.50130E-07         0.24821E-12         0.00000E+00
    0.50130E-07         0.23318E-12         0.00000E+00
    0.50130E-07         0.21707E-12         0.00000E+00
    0.50130E-07         0.19990E-12         0.00000E+00
    0.50130E-07         0.18168E-12         0.00000E+00
    0.50130E-07         0.16243E-12         0.00000E+00
    0.50130E-07         0.14216E-12         0.00000E+00
    0.50130E-07         0.12088E-12         0.00000E+00
    0.50130E-07         0.98609E-13         0.00000E+00
    0.50130E-07         0.75367E-13         0.00000E+00
    0.50130E-07         0.51169E-13         0.00000E+00
    0.50130E-07         0.26032E-13         0.00000E+00
    0.50130E-07         0.13232E-13         0.00000E+00
    0.50131E-07         0.14877E-13         0.00000E+00
    0.50131E-07         0.29465E-13         0.00000E+00
    0.50131E-07         0.58215E-13         0.00000E+00
    0.50131E-07         0.86076E-13         0.00000E+00
    0.50131E-07         0.11298E-12         0.00000E+00
    0.50131E-07         0.13888E-12         0.00000E+00
    0.50131E-07         0.16372E-12         0.00000E+00
    0.50131E-07         0.18745E-12         0.00000E+00
    0.50131E-07         0.21002E-12         0.00000E+00
    0.50131E-07         0.23142E-12         0.00000E+00
    0.50131E-07         0.25159E-12         0.00000E+00
    0.50131E-07         0.27052E-12         0.00000E+00
    0.50131E-07         0.28819E-12         0.00000E+00
    0.50131E-07         0.30457E-12         0.00000E+00
    0.50131E-07         0.31964E-12         0.00000E+00
    0.50131E-07         0.33340E-12         0.00000E+00
    0.50131E-07         0.34584E-12         0.00000E+00
    0.50131E-07         0.35694E-12         0.00000E+00
    0.50131E-07         0.36670E-12         0.00000E+00
    0.50131E-07         0.37512E-12         0.00000E+00
    0.50131E-07         0.38220E-12         0.00000E+00
    0.50131E-07         0.38794E-12         0.00000E+00
    0.50131E-07         0.39234E-12         0.00000E+00
    0.50131E-07         0.39540E-12         0.00000E+00
    0.50131E-07         0.39712E-12         0.00000E+00
    0.50131E-07         0.39752E-12         0.00000E+00
    0.50131E-07         0.39659E-12         0.00000E+00
    0.50131E-07         0.39435E-12         0.00000E+00
    0.50131E-07         0.39079E-12         0.00000E+00
    0.50131E-07         0.38593E-12         0.00000E+00
    0.50131E-07         0.37977E-12         0.00000E+00
    0.50131E-07         0.37232E-12         0.00000E+00
    0.50131E-07         0.36360E-12         0.00000E+00
    0.50131E-07         0.35360E-12         0.00000E+00
    0.50131E-07         0.34234E-12         0.00000E+00
    0.50131E-07         0.32982E-12         0.00000E+00
    0.50131E-07         0.31606E-12         0.00000E+00
    0.50131E-07         0.30107E-12         0.00000E+00
    0.50131E-07         0.28486E-12         0.00000E+00
    0.50131E-07         0.26744E-12         0.00000E+00
    0.50131E-07         0.24882E-12         0.00000E+00
    0.50131E-07         0.22901E-12         0.00000E+00
    0.50131E-07         0.20803E-12         0.00000E+00
    0.50131E-07         0.18590E-12         0.00000E+00
    0.50131E-07         0.16262E-12         0.00000E+00
    0.50131E-07         0.13822E-12         0.00000E+00
    0.50131E-07         0.11271E-12         0.00000E+00
    0.50131E-07         0.86110E-13         0.00000E+00
    0.50131E-07         0.58440E-13         0.00000E+00
    0.50131E-07         0.29721E-13         0.00000E+00
    0.50131E-07         0.15101E-13         0.00000E+00
    0.50132E-07         0.17887E-13         0.00000E+00
    0.50132E-07         0.35339E-13         0.00000E+00
    0.50132E-07         0.69618E-13         0.00000E+00
    0.50132E-07         0.10261E-12         0.00000E+00
    0.50132E-07         0.13427E-12         0.00000E+00
    0.50132E-07         0.16453E-12         0.00000E+00
    0.50132E-07         0.19337E-12         0.00000E+00
    0.50132E-07         0.22074E-12         0.00000E+00
    0.50132E-07         0.24661E-12         0.00000E+00
    0.50132E-07         0.27097E-12         0.00000E+00
    0.50132E-07         0.29379E-12         0.00000E+00
    0.50132E-07         0.31506E-12         0.00000E+00
    0.50132E-07         0.33477E-12         0.00000E+00
    0.50132E-07         0.35291E-12         0.00000E+00
    0.50132E-07         0.36949E-12         0.00000E+00
    0.50132E-07         0.38450E-12         0.00000E+00
    0.50132E-07         0.39795E-12         0.00000E+00
    0.50132E-07         0.40985E-12         0.00000E+00
    0.50132E-07         0.42019E-12         0.00000E+00
    0.50132E-07         0.42900E-12         0.00000E+00
    0.50132E-07         0.43628E-12         0.00000E+00
    0.50132E-07         0.44204E-12         0.00000E+00
    0.50132E-07         0.44630E-12         0.00000E+00
    0.50132E-07         0.44906E-12         0.00000E+00
    0.50132E-07         0.45035E-12         0.00000E+00
    0.50132E-07         0.45016E-12         0.00000E+00
    0.50132E-07         0.44852E-12         0.00000E+00
    0.50132E-07         0.44543E-12         0.00000E+00
    0.50132E-07         0.44091E-12         0.00000E+00
    0.50132E-07         0.43496E-12         0.00000E+00
    0.50132E-07         0.42761E-12         0.00000E+00
    0.50132E-07         0.41885E-12         0.00000E+00
    0.50132E-07         0.40870E-12         0.00000E+00
    0.50132E-07         0.39717E-12         0.00000E+00
    0.50132E-07         0.38427E-12         0.00000E+00
    0.50132E-07         0.37000E-12         0.00000E+00
    0.50132E-07         0.35439E-12         0.00000E+00
    0.50132E-07         0.33742E-12         0.00000E+00
    0.50132E-07         0.31913E-12         0.00000E+00
    0.50132E-07         0.29951E-12         0.00000E+00
    0.50132E-07         0.27857E-12         0.00000E+00
    0.50132E-07         0.25634E-12         0.00000E+00
    0.50132E-07         0.23281E-12         0.00000E+00
    0.50132E-07         0.20801E-12         0.00000E+00
    0.50132E-07         0.18194E-12         0.00000E+00
    0.50132E-07         0.15462E-12         0.00000E+00
    0.50132E-07         0.12607E-12         0.00000E+00
    0.50132E-07         0.96315E-13         0.00000E+00
    0.50132E-07         0.65363E-13         0.00000E+00
    0.50132E-07         0.33240E-13         0.00000E+00
    0.50132E-07         0.16888E-13         0.00000E+00
    0.50132E-07         0.20974E-13         0.00000E+00
    0.50132E-07         0.41333E-13         0.00000E+00
    0.50132E-07         0.81178E-13         0.00000E+00
    0.50132E-07         0.11925E-12         0.00000E+00
    0.50132E-07         0.15551E-12         0.00000E+00
    0.50132E-07         0.18993E-12         0.00000E+00
    0.50132E-07         0.22249E-12         0.00000E+00
    0.50132E-07         0.25316E-12         0.00000E+00
    0.50132E-07         0.28194E-12         0.00000E+00
    0.50132E-07         0.30882E-12         0.00000E+00
    0.50132E-07         0.33382E-12         0.00000E+00
    0.50132E-07         0.35695E-12         0.00000E+00
    0.50132E-07         0.37820E-12         0.00000E+00
    0.50132E-07         0.39761E-12         0.00000E+00
    0.50132E-07         0.41519E-12         0.00000E+00
    0.50132E-07         0.43096E-12         0.00000E+00
    0.50132E-07         0.44495E-12         0.00000E+00
    0.50132E-07         0.45719E-12         0.00000E+00
    0.50132E-07         0.46769E-12         0.00000E+00
    0.50132E-07         0.47649E-12         0.00000E+00
    0.50132E-07         0.48361E-12         0.00000E+00
    0.50132E-07         0.48909E-12         0.00000E+00
    0.50132E-07         0.49293E-12         0.00000E+00
    0.50132E-07         0.49517E-12         0.00000E+00
    0.50132E-07         0.49584E-12         0.00000E+00
    0.50132E-07         0.49494E-12         0.00000E+00
    0.50132E-07         0.49250E-12         0.00000E+00
    0.50132E-07         0.48854E-12         0.00000E+00
    0.50132E-07         0.48308E-12         0.00000E+00
    0.50132E-07         0.47612E-12         0.00000E+00
    0.50132E-07         0.46768E-12         0.00000E+00
    0.50132E-07         0.45778E-12         0.00000E+00
    0.50132E-07         0.44642E-12         0.00000E+00
    0.50132E-07         0.43361E-12         0.00000E+00
    0.50132E-07         0.41936E-12         0.00000E+00
    0.50132E-07         0.40367E-12         0.00000E+00
    0.50132E-07         0.38655E-12         0.00000E+00
    0.50132E-07         0.36801E-12         0.00000E+00
    0.50132E-07         0.34804E-12         0.00000E+00
    0.50132E-07         0.32666E-12         0.00000E+00
    0.50132E-07         0.30386E-12         0.00000E+00
    0.50132E-07         0.27965E-12         0.00000E+00
    0.50132E-07         0.25404E-12         0.00000E+00
    0.50132E-07         0.22704E-12         0.00000E+00
    0.50132E-07         0.19865E-12         0.00000E+00
    0.50132E-07         0.16889E-12         0.00000E+00
    0.50132E-07         0.13776E-12         0.00000E+00
    0.50132E-07         0.10529E-12         0.00000E+00
    0.50132E-07         0.71484E-13         0.00000E+00
    0.50132E-07         0.36368E-13         0.00000E+00
    0.50132E-07         0.18485E-13         0.00000E+00
    0.50132E-07         0.23971E-13         0.00000E+00
    0.50132E-07         0.47094E-13         0.00000E+00
    0.50132E-07         0.92159E-13         0.00000E+00
    0.50132E-07         0.13485E-12         0.00000E+00
    0.50132E-07         0.17517E-12         0.00000E+00
    0.50132E-07         0.21309E-12         0.00000E+00
    0.50132E-07         0.24864E-12         0.00000E+00
    0.50132E-07         0.28183E-12         0.00000E+00
    0.50132E-07         0.31269E-12         0.00000E+00
    0.50132E-07         0.34126E-12         0.00000E+00
    0.50132E-07         0.36756E-12         0.00000E+00
    0.50132E-07         0.39165E-12         0.00000E+00
    0.50132E-07         0.41357E-12         0.00000E+00
    0.50132E-07         0.43338E-12         0.00000E+00
    0.50132E-07         0.45113E-12         0.00000E+00
    0.50132E-07         0.46688E-12         0.00000E+00
    0.50132E-07         0.48066E-12         0.00000E+00
    0.50132E-07         0.49255E-12         0.00000E+00
    0.50132E-07         0.50258E-12         0.00000E+00
    0.50132E-07         0.51081E-12         0.00000E+00
    0.50132E-07         0.51729E-12         0.00000E+00
    0.50132E-07         0.52205E-12         0.00000E+00
    0.50132E-07         0.52515E-12         0.00000E+00
    0.50132E-07         0.52661E-12         0.00000E+00
    0.50132E-07         0.52647E-12         0.00000E+00
    0.50132E-07         0.52476E-12         0.00000E+00
    0.50132E-07         0.52151E-12         0.00000E+00
    0.50132E-07         0.51675E-12         0.00000E+00
    0.50132E-07         0.51048E-12         0.00000E+00
    0.50132E-07         0.50273E-12         0.00000E+00
    0.50132E-07         0.49351E-12         0.00000E+00
    0.50132E-07         0.48282E-12         0.00000E+00
    0.50132E-07         0.47069E-12         0.00000E+00
    0.50132E-07         0.45710E-12         0.00000E+00
    0.50132E-07         0.44205E-12         0.00000E+00
    0.50132E-07         0.42556E-12         0.00000E+00
    0.50132E-07         0.40760E-12         0.00000E+00
    0.50132E-07         0.38819E-12         0.00000E+00
    0.50132E-07         0.36730E-12         0.00000E+00
    0.50132E-07         0.34493E-12         0.00000E+00
    0.50132E-07         0.32108E-12         0.00000E+00
    0.50132E-07         0.29574E-12         0.00000E+00
    0.50132E-07         0.26889E-12         0.00000E+00
    0.50132E-07         0.24054E-12         0.00000E+00
    0.50132E-07         0.21068E-12         0.00000E+00
    0.50132E-07         0.17931E-12         0.00000E+00
    0.50132E-07         0.14643E-12         0.00000E+00
    0.50132E-07         0.11204E-12         0.00000E+00
    0.50132E-07         0.76154E-13         0.00000E+00
    0.50132E-07         0.38790E-13         0.00000E+00
    0.50132E-07         0.19740E-13         0.00000E+00
    0.50132E-07         0.26566E-13         0.00000E+00
    0.50132E-07         0.52013E-13         0.00000E+00
    0.50132E-07         0.10134E-12         0.00000E+00
    0.50132E-07         0.14755E-12         0.00000E+00
    0.50132E-07         0.19068E-12         0.00000E+00
    0.50132E-07         0.23078E-12         0.00000E+00
    0.50132E-07         0.26792E-12         0.00000E+00
    0.50132E-07         0.30216E-12         0.00000E+00
    0.50132E-07         0.33361E-12         0.00000E+00
    0.50132E-07         0.36234E-12         0.00000E+00
    0.50132E-07         0.38846E-12         0.00000E+00
    0.50132E-07         0.41206E-12         0.00000E+00
    0.50132E-07         0.43325E-12         0.00000E+00
    0.50132E-07         0.45213E-12         0.00000E+00
    0.50132E-07         0.46879E-12         0.00000E+00
    0.50132E-07         0.48333E-12         0.00000E+00
    0.50132E-07         0.49585E-12         0.00000E+00
    0.50132E-07         0.50643E-12         0.00000E+00
    0.50132E-07         0.51515E-12         0.00000E+00
    0.50132E-07         0.52208E-12         0.00000E+00
    0.50132E-07         0.52731E-12         0.00000E+00
    0.50132E-07         0.53088E-12         0.00000E+00
    0.50132E-07         0.53285E-12         0.00000E+00
    0.50132E-07         0.53329E-12         0.00000E+00
    0.50132E-07         0.53222E-12         0.00000E+00
    0.50132E-07         0.52969E-12         0.00000E+00
    0.50132E-07         0.52573E-12         0.00000E+00
    0.50132E-07         0.52037E-12         0.00000E+00
    0.50132E-07         0.51362E-12         0.00000E+00
    0.50132E-07         0.50551E-12         0.00000E+00
    0.50132E-07         0.49604E-12         0.00000E+00
    0.50132E-07         0.48521E-12         0.00000E+00
    0.50132E-07         0.47303E-12         0.00000E+00
    0.50132E-07         0.45948E-12         0.00000E+00
    0.50132E-07         0.44456E-12         0.00000E+00
    0.50132E-07         0.42826E-12         0.00000E+00
    0.50132E-07         0.41055E-12         0.00000E+00
    0.50132E-07         0.39141E-12         0.00000E+00
    0.50132E-07         0.37081E-12         0.00000E+00
    0.50132E-07         0.34874E-12         0.00000E+00
    0.50132E-07         0.32514E-12         0.00000E+00
    0.50132E-07         0.30001E-12         0.00000E+00
    0.50132E-07         0.27330E-12         0.00000E+00
    0.50132E-07         0.24498E-12         0.00000E+00
    0.50132E-07         0.21503E-12         0.00000E+00
    0.50132E-07         0.18342E-12         0.00000E+00
    0.50132E-07         0.15013E-12         0.00000E+00
    0.50132E-07         0.11515E-12         0.00000E+00
    0.50132E-07         0.78454E-13         0.00000E+00
    0.50132E-07         0.40050E-13         0.00000E+00
    0.50132E-07         0.20419E-13         0.00000E+00
    0.50132E-07         0.28364E-13         0.00000E+00
    0.50132E-07         0.55157E-13         0.00000E+00
    0.50132E-07         0.10668E-12         0.00000E+00
    0.50132E-07         0.15416E-12         0.00000E+00
    0.50132E-07         0.19774E-12         0.00000E+00
    0.50132E-07         0.23756E-12         0.00000E+00
    0.50132E-07         0.27376E-12         0.00000E+00
    0.50132E-07         0.30653E-12         0.00000E+00
    0.50132E-07         0.33605E-12         0.00000E+00
    0.50132E-07         0.36250E-12         0.00000E+00
    0.50132E-07         0.38608E-12         0.00000E+00
    0.50132E-07         0.40697E-12         0.00000E+00
    0.50132E-07         0.42536E-12         0.00000E+00
    0.50132E-07         0.44141E-12         0.00000E+00
    0.50132E-07         0.45527E-12         0.00000E+00
    0.50132E-07         0.46709E-12         0.00000E+00
    0.50132E-07         0.47701E-12         0.00000E+00
    0.50132E-07         0.48514E-12         0.00000E+00
    0.50132E-07         0.49159E-12         0.00000E+00
    0.50132E-07         0.49646E-12         0.00000E+00
    0.50132E-07         0.49982E-12         0.00000E+00
    0.50132E-07         0.50176E-12         0.00000E+00
    0.50132E-07         0.50235E-12         0.00000E+00
    0.50132E-07         0.50163E-12         0.00000E+00
    0.50132E-07         0.49967E-12         0.00000E+00
    0.50132E-07         0.49649E-12         0.00000E+00
    0.50132E-07         0.49213E-12         0.00000E+00
    0.50132E-07         0.48662E-12         0.00000E+00
    0.50132E-07         0.47997E-12         0.00000E+00
    0.50132E-07         0.47220E-12         0.00000E+00
    0.50132E-07         0.46330E-12         0.00000E+00
    0.50132E-07         0.45329E-12         0.00000E+00
    0.50132E-07         0.44214E-12         0.00000E+00
    0.50132E-07         0.42984E-12         0.00000E+00
    0.50132E-07         0.41637E-12         0.00000E+00
    0.50132E-07         0.40169E-12         0.00000E+00
    0.50132E-07         0.38578E-12         0.00000E+00
    0.50132E-07         0.36858E-12         0.00000E+00
    0.50132E-07         0.35006E-12         0.00000E+00
    0.50132E-07         0.33014E-12         0.00000E+00
    0.50133E-07         0.30877E-12         0.00000E+00
    0.50133E-07         0.28587E-12         0.00000E+00
    0.50133E-07         0.26138E-12         0.00000E+00
    0.50133E-07         0.23523E-12         0.00000E+00
    0.50133E-07         0.20733E-12         0.00000E+00
    0.50133E-07         0.17762E-12         0.00000E+00
    0.50133E-07         0.14603E-12         0.00000E+00
    0.50133E-07         0.11252E-12         0.00000E+00
    0.50133E-07         0.77038E-13         0.00000E+00
    0.50133E-07         0.39542E-13         0.00000E+00
    0.50133E-07         0.20283E-13         0.00000E+00
    0.50132E-07         0.28021E-13         0.00000E+00
    0.50132E-07         0.54267E-13         0.00000E+00
    0.50132E-07         0.10415E-12         0.00000E+00
    0.50132E-07         0.14885E-12         0.00000E+00
    0.50132E-07         0.18854E-12         0.00000E+00
    0.50132E-07         0.22357E-12         0.00000E+00
    0.50132E-07         0.25435E-12         0.00000E+00
    0.50132E-07         0.28130E-12         0.00000E+00
    0.50132E-07         0.30482E-12         0.00000E+00
    0.50132E-07         0.32526E-12         0.00000E+00
    0.50132E-07         0.34294E-12         0.00000E+00
    0.50132E-07         0.35817E-12         0.00000E+00
    0.50132E-07         0.37117E-12         0.00000E+00
    0.50132E-07         0.38219E-12         0.00000E+00
    0.50132E-07         0.39140E-12         0.00000E+00
    0.50132E-07         0.39897E-12         0.00000E+00
    0.50132E-07         0.40506E-12         0.00000E+00
    0.50132E-07         0.40978E-12         0.00000E+00
    0.50132E-07         0.41325E-12         0.00000E+00
    0.50132E-07         0.41556E-12         0.00000E+00
    0.50132E-07         0.41679E-12         0.00000E+00
    0.50132E-07         0.41701E-12         0.00000E+00
    0.50132E-07         0.41628E-12         0.00000E+00
    0.50132E-07         0.41465E-12         0.00000E+00
    0.50132E-07         0.41216E-12         0.00000E+00
    0.50132E-07         0.40884E-12         0.00000E+00
    0.50132E-07         0.40472E-12         0.00000E+00
    0.50132E-07         0.39981E-12         0.00000E+00
    0.50132E-07         0.39414E-12         0.00000E+00
    0.50132E-07         0.38771E-12         0.00000E+00
    0.50132E-07         0.38051E-12         0.00000E+00
    0.50132E-07         0.37253E-12         0.00000E+00
    0.50132E-07         0.36377E-12         0.00000E+00
    0.50132E-07         0.35421E-12         0.00000E+00
    0.50132E-07         0.34381E-12         0.00000E+00
    0.50132E-07         0.33253E-12         0.00000E+00
    0.50132E-07         0.32034E-12         0.00000E+00
    0.50132E-07         0.30718E-12         0.00000E+00
    0.50132E-07         0.29299E-12         0.00000E+00
    0.50132E-07         0.27767E-12         0.00000E+00
    0.50132E-07         0.26116E-12         0.00000E+00
    0.50132E-07         0.24333E-12         0.00000E+00
    0.50132E-07         0.22407E-12         0.00000E+00
    0.50132E-07         0.20324E-12         0.00000E+00
    0.50132E-07         0.18068E-12         0.00000E+00
    0.50132E-07         0.15621E-12         0.00000E+00
    0.50132E-07         0.12966E-12         0.00000E+00
    0.50132E-07         0.10085E-12         0.00000E+00
    0.50132E-07         0.69629E-13         0.00000E+00
    0.50132E-07         0.35947E-13         0.00000E+00
    0.50132E-07         0.18492E-13         0.00000E+00
    0.50131E-07         0.25597E-13         0.00000E+00
    0.50131E-07         0.47318E-13         0.00000E+00
    0.50131E-07         0.86534E-13         0.00000E+00
    0.50131E-07         0.11828E-12         0.00000E+00
    0.50131E-07         0.14423E-12         0.00000E+00
    0.50131E-07         0.16562E-12         0.00000E+00
    0.50131E-07         0.18335E-12         0.00000E+00
    0.50131E-07         0.19810E-12         0.00000E+00
    0.50131E-07         0.21039E-12         0.00000E+00
    0.50131E-07         0.22063E-12         0.00000E+00
    0.50131E-07         0.22914E-12         0.00000E+00
    0.50131E-07         0.23616E-12         0.00000E+00
    0.50131E-07         0.24191E-12         0.00000E+00
    0.50131E-07         0.24655E-12         0.00000E+00
    0.50131E-07         0.25022E-12         0.00000E+00
    0.50131E-07         0.25303E-12         0.00000E+00
    0.50131E-07         0.25508E-12         0.00000E+00
    0.50131E-07         0.25645E-12         0.00000E+00
    0.50131E-07         0.25719E-12         0.00000E+00
    0.50131E-07         0.25738E-12         0.00000E+00
    0.50132E-07         0.25705E-12         0.00000E+00
    0.50132E-07         0.25624E-12         0.00000E+00
    0.50132E-07         0.25499E-12         0.00000E+00
    0.50132E-07         0.25332E-12         0.00000E+00
    0.50132E-07         0.25125E-12         0.00000E+00
    0.50132E-07         0.24880E-12         0.00000E+00
    0.50132E-07         0.24599E-12         0.00000E+00
    0.50132E-07         0.24282E-12         0.00000E+00
    0.50132E-07         0.23929E-12         0.00000E+00
    0.50132E-07         0.23541E-12         0.00000E+00
    0.50132E-07         0.23118E-12         0.00000E+00
    0.50132E-07         0.22659E-12         0.00000E+00
    0.50132E-07         0.22163E-12         0.00000E+00
    0.50132E-07         0.21629E-12         0.00000E+00
    0.50132E-07         0.21054E-12         0.00000E+00
    0.50132E-07         0.20437E-12         0.00000E+00
    0.50132E-07         0.19775E-12         0.00000E+00
    0.50132E-07         0.19062E-12         0.00000E+00
    0.50132E-07         0.18296E-12         0.00000E+00
    0.50132E-07         0.17470E-12         0.00000E+00
    0.50132E-07         0.16578E-12         0.00000E+00
    0.50132E-07         0.15610E-12         0.00000E+00
    0.50132E-07         0.14555E-12         0.00000E+00
    0.50132E-07         0.13401E-12         0.00000E+00
    0.50132E-07         0.12128E-12         0.00000E+00
    0.50132E-07         0.10715E-12         0.00000E+00
    0.50132E-07         0.91302E-13         0.00000E+00
    0.50132E-07         0.73334E-13         0.00000E+00
    0.50132E-07         0.52682E-13         0.00000E+00
    0.50132E-07         0.28556E-13         0.00000E+00
    0.50132E-07         0.15509E-13         0.00000E+00
    0.50130E-07         0.00000E+00         0.00000E+00
    0.50130E-07         0.00000E+00         0.00000E+00
    0.50130E-07         0.00000E+00         0.00000E+00
    0.50130E-07         0.00000E+00         0.00000E+00
    0.50130E-07         0.00000E+00         0.00000E+00
    0.50131E-07         0.00000E+00         0.00000E+00
    0.50131E-07         0.00000E+00         0.00000E+00
    0.50131E-07         0.00000E+00         0.00000E+00
    0.50131E-07         0.00000E+00         0.00000E+00
    0.50131E-07        -0.18626E-20         0.00000E+00
    0.50131E-07         0.00000E+00         0.00000E+00
    0.50131E-07         0.18626E-20         0.00000E+00
    0.50131E-07         0.00000E+00         0.00000E+00
    0.50131E-07         0.00000E+00         0.00000E+00
    0.50131E-07         0.00000E+00         0.00000E+00
    0.50131E-07         0.00000E+00         0.00000E+00
    0.50131E-07         0.00000E+00         0.00000E+00
    0.50131E-07         0.18626E-20         0.00000E+00
    0.50131E-07         0.00000E+00         0.00000E+00
    0.50131E-07        -0.18626E-20         0.00000E+00
    0.50131E-07         0.00000E+00         0.00000E+00
    0.50131E-07         0.00000E+00         0.00000E+00
    0.50131E-07         0.00000E+00         0.00000E+00
    0.50131E-07         0.00000E+00         0.00000E+00
    0.50131E-07         0.00000E+00         0.00000E+00
    0.50131E-07         0.00000E+00         0.00000E+00
    0.50132E-07         0.00000E+00         0.00000E+00
    0.50132E-07         0.00000E+00         0.00000E+00
    0.50132E-07         0.00000E+00         0.00000E+00
    0.50132E-07         0.00000E+00         0.00000E+00
    0.50132E-07         0.00000E+00         0.00000E+00
    0.50132E-07         0.00000E+00         0.00000E+00
    0.50132E-07         0.00000E+00         0.00000E+00
    0.50132E-07         0.00000E+00         0.00000E+00
    0.50132E-07         0.00000E+00         0.00000E+00
    0.50132E-07         0.00000E+00         0.00000E+00
    0.50132E-07         0.00000E+00         0.00000E+00
    0.50132E-07         0.00000E+00         0.00000E+00
    0.50132E-07         0.00000E+00         0.00000E+00
    0.50132E-07        -0.27940E-20         0.00000E+00
    0.50132E-07        -0.18626E-20         0.00000E+00
    0.50132E-07         0.18626E-20         0.00000E+00
    0.50132E-07         0.18626E-20         0.00000E+00
    0.50132E-07         0.00000E+00         0.00000E+00
    0.50132E-07         0.00000E+00         0.00000E+00
    0.50132E-07         0.00000E+00         0.00000E+00
    0.50132E-07         0.00000E+00         0.00000E+00
    0.50132E-07         0.18626E-20         0.00000E+00
    0.50132E-07         0.93132E-21         0.00000E+00
    0.50132E-07         0.00000E+00         0.00000E+00
    0.50132E-07         0.37253E-20         0.00000E+00
CELL_DATA       5000
TENSORS stressef double 
    0.13511E+08        -0.80334E+05         0.00000E+00
   -0.80334E+05         0.19764E+08         0.00000E+00
    0.00000E+00         0.00000E+00         0.76851E+07
 
    0.13039E+08        -0.12241E+06         0.00000E+00
   -0.12241E+06         0.19729E+08         0.00000E+00
    0.00000E+00         0.00000E+00         0.75711E+07
 
    0.12631E+08        -0.14506E+06         0.00000E+00
   -0.14506E+06         0.19682E+08         0.00000E+00
    0.00000E+00         0.00000E+00         0.74634E+07
 
    0.12277E+08        -0.15575E+06         0.00000E+00
   -0.15575E+06         0.19628E+08         0.00000E+00
    0.00000E+00         0.00000E+00         0.73600E+07
 
    0.11964E+08        -0.15914E+06         0.00000E+00
   -0.15914E+06         0.19570E+08         0.00000E+00
    0.00000E+00         0.00000E+00         0.72601E+07
 
    0.11684E+08        -0.15810E+06         0.00000E+00
   -0.15810E+06         0.19511E+08         0.00000E+00
    0.00000E+00         0.00000E+00         0.71641E+07
 
    0.11432E+08        -0.15437E+06         0.00000E+00
   -0.15437E+06         0.19452E+08         0.00000E+00
    0.00000E+00         0.00000E+00         0.70722E+07
 
    0.11201E+08        -0.14886E+06         0.00000E+00
   -0.14886E+06         0.19395E+08         0.00000E+00
    0.00000E+00         0.00000E+00         0.69846E+07
 
    0.10987E+08        -0.14258E+06         0.00000E+00
   -0.14258E+06         0.19339E+08         0.00000E+00
    0.00000E+00         0.00000E+00         0.69021E+07
 
    0.10786E+08        -0.13584E+06         0.00000E+00
   -0.13584E+06         0.19285E+08         0.00000E+00
    0.00000E+00         0.00000E+00         0.68247E+07
 
    0.10597E+08        -0.12862E+06         0.00000E+00
   -0.12862E+06         0.19234E+08         0.00000E+00
    0.00000E+00         0.00000E+00         0.67523E+07
 
    0.10419E+08        -0.12102E+06         0.00000E+00
   -0.12102E+06         0.19186E+08         0.00000E+00
    0.00000E+00         0.00000E+00         0.66855E+07
 
    0.10250E+08        -0.11316E+06         0.00000E+00
   -0.11316E+06         0.19140E+08         0.00000E+00
    0.00000E+00         0.00000E+00         0.66243E+07
 
    0.10090E+08        -0.10523E+06         0.00000E+00
   -0.10523E+06         0.19097E+08         0.00000E+00
    0.00000E+00         0.00000E+00         0.65691E+07
 
    0.99356E+07        -0.97315E+05         0.00000E+00
   -0.97315E+05         0.19058E+08         0.00000E+00
    0.00000E+00         0.00000E+00         0.65199E+07
 
    0.97878E+07        -0.89350E+05         0.00000E+00
   -0.89350E+05         0.19021E+08         0.00000E+00
    0.00000E+00         0.00000E+00         0.64770E+07
 
    0.96465E+07        -0.81425E+05         0.00000E+00
   -0.81425E+05         0.18987E+08         0.00000E+00
    0.00000E+00         0.00000E+00         0.64404E+07
 
    0.95116E+07        -0.73537E+05         0.00000E+00
   -0.73537E+05         0.18957E+08         0.00000E+00
    0.00000E+00         0.00000E+00         0.64100E+07
 
    0.93828E+07        -0.65725E+05         0.00000E+00
   -0.65725E+05         0.18929E+08         0.00000E+00
    0.00000E+00         0.00000E+00         0.63858E+07
 
    0.92602E+07        -0.58165E+05         0.00000E+00
   -0.58165E+05         0.18904E+08         0.00000E+00
    0.00000E+00         0.00000E+00         0.63682E+07
 
    0.91439E+07        -0.50872E+05         0.00000E+00
   -0.50872E+05         0.18883E+08         0.00000E+00
    0.00000E+00         0.00000E+00         0.63564E+07
 
    0.90338E+07        -0.43851E+05         0.00000E+00
   -0.43851E+05         0.18864E+08         0.00000E+00
    0.00000E+00         0.00000E+00         0.63502E+07
 
    0.89301E+07        -0.37142E+05         0.00000E+00
   -0.37142E+05         0.18848E+08         0.00000E+00
    0.00000E+00         0.00000E+00         0.63492E+07
 
    0.88326E+07        -0.30798E+05         0.00000E+00
   -0.30798E+05         0.18835E+08         0.00000E+00
    0.00000E+00         0.00000E+00         0.63531E+07
 
    0.87414E+07        -0.24855E+05         0.00000E+00
   -0.24855E+05         0.18824E+08         0.00000E+00
    0.00000E+00         0.00000E+00         0.63615E+07
 
    0.86562E+07        -0.19321E+05         0.00000E+00
   -0.19321E+05         0.18815E+08         0.00000E+00
    0.00000E+00         0.00000E+00         0.63739E+07
 
    0.85771E+07        -0.14189E+05         0.00000E+00
   -0.14189E+05         0.18809E+08         0.00000E+00
    0.00000E+00         0.00000E+00         0.63898E+07
 
    0.85036E+07        -0.94145E+04         0.00000E+00
   -0.94145E+04         0.18804E+08         0.00000E+00
    0.00000E+00         0.00000E+00         0.64089E+07
 
    0.84358E+07        -0.49566E+04         0.00000E+00
   -0.49566E+04         0.18802E+08         0.00000E+00
    0.00000E+00         0.00000E+00         0.64307E+07
 
    0.83731E+07        -0.77824E+03         0.00000E+00
   -0.77824E+03         0.18801E+08         0.00000E+00
    0.00000E+00         0.00000E+00         0.64551E+07
 
    0.83154E+07         0.31568E+04         0.00000E+00
    0.31568E+04         0.18801E+08         0.00000E+00
    0.00000E+00         0.00000E+00         0.64817E+07
 
    0.82625E+07         0.68861E+04         0.00000E+00
    0.68861E+04         0.18804E+08         0.00000E+00
    0.00000E+00         0.00000E+00         0.65104E+07
 
    0.82135E+07         0.10437E+05         0.00000E+00
    0.10437E+05         0.18807E+08         0.00000E+00
    0.00000E+00         0.00000E+00         0.65412E+07
 
    0.81681E+07         0.13801E+05         0.00000E+00
    0.13801E+05         0.18812E+08         0.00000E+00
    0.00000E+00         0.00000E+00         0.65742E+07
 
    0.81237E+07         0.17176E+05         0.00000E+00
    0.17176E+05         0.18819E+08         0.00000E+00
    0.00000E+00         0.00000E+00         0.66108E+07
 
    0.80804E+07         0.20567E+05         0.00000E+00
    0.20567E+05         0.18827E+08         0.00000E+00
    0.00000E+00         0.00000E+00         0.66509E+07
 
    0.80398E+07         0.24225E+05         0.00000E+00
    0.24225E+05         0.18836E+08         0.00000E+00
    0.00000E+00         0.00000E+00         0.66937E+07
 
    0.80023E+07         0.28020E+05         0.00000E+00
    0.28020E+05         0.18847E+08         0.00000E+00
    0.00000E+00         0.00000E+00         0.67391E+07
 
    0.79669E+07         0.31778E+05         0.00000E+00
    0.31778E+05         0.18859E+08         0.00000E+00
    0.00000E+00         0.00000E+00         0.67878E+07
 
    0.79337E+07         0.35818E+05         0.00000E+00
    0.35818E+05         0.18873E+08         0.00000E+00
    0.00000E+00         0.00000E+00         0.68397E+07
 
    0.79028E+07         0.40201E+05         0.00000E+00
    0.40201E+05         0.18889E+08         0.00000E+00
    0.00000E+00         0.00000E+00         0.68952E+07
 
    0.78740E+07         0.45011E+05         0.00000E+00
    0.45011E+05         0.18906E+08         0.00000E+00
    0.00000E+00         0.00000E+00         0.69548E+07
 
    0.78460E+07         0.50403E+05         0.00000E+00
    0.50403E+05         0.18925E+08         0.00000E+00
    0.00000E+00         0.00000E+00         0.70199E+07
 
    0.78174E+07         0.56635E+05         0.00000E+00
    0.56635E+05         0.18947E+08         0.00000E+00
    0.00000E+00         0.00000E+00         0.70925E+07
 
    0.77915E+07         0.63914E+05         0.00000E+00
    0.63914E+05         0.18971E+08         0.00000E+00
    0.00000E+00         0.00000E+00         0.71710E+07
 
    0.77688E+07         0.72554E+05         0.00000E+00
    0.72554E+05         0.18998E+08         0.00000E+00
    0.00000E+00         0.00000E+00         0.72560E+07
 
    0.77496E+07         0.82941E+05         0.00000E+00
    0.82941E+05         0.19028E+08         0.00000E+00
    0.00000E+00         0.00000E+00         0.73480E+07
 
    0.77350E+07         0.95635E+05         0.00000E+00
    0.95635E+05         0.19061E+08         0.00000E+00
    0.00000E+00         0.00000E+00         0.74476E+07
 
    0.77276E+07         0.11158E+06         0.00000E+00
    0.11158E+06         0.19098E+08         0.00000E+00
    0.00000E+00         0.00000E+00         0.75565E+07
 
    0.77271E+07         0.13292E+06         0.00000E+00
    0.13292E+06         0.19138E+08         0.00000E+00
    0.00000E+00         0.00000E+00         0.76725E+07
 
    0.12471E+08        -0.11114E+06         0.00000E+00
   -0.11114E+06         0.19231E+08         0.00000E+00
    0.00000E+00         0.00000E+00         0.67548E+07
 
    0.12193E+08        -0.21950E+06         0.00000E+00
   -0.21950E+06         0.19232E+08         0.00000E+00
    0.00000E+00         0.00000E+00         0.67371E+07
 
    0.11918E+08        -0.29081E+06         0.00000E+00
   -0.29081E+06         0.19226E+08         0.00000E+00
    0.00000E+00         0.00000E+00         0.67157E+07
 
    0.11653E+08        -0.33578E+06         0.00000E+00
   -0.33578E+06         0.19212E+08         0.00000E+00
    0.00000E+00         0.00000E+00         0.66891E+07
 
    0.11401E+08        -0.36198E+06         0.00000E+00
   -0.36198E+06         0.19192E+08         0.00000E+00
    0.00000E+00         0.00000E+00         0.66579E+07
 
    0.11162E+08        -0.37499E+06         0.00000E+00
   -0.37499E+06         0.19167E+08         0.00000E+00
    0.00000E+00         0.00000E+00         0.66219E+07
 
    0.10937E+08        -0.37906E+06         0.00000E+00
   -0.37906E+06         0.19137E+08         0.00000E+00
    0.00000E+00         0.00000E+00         0.65823E+07
 
    0.10725E+08        -0.37735E+06         0.00000E+00
   -0.37735E+06         0.19105E+08         0.00000E+00
    0.00000E+00         0.00000E+00         0.65404E+07
 
    0.10524E+08        -0.37066E+06         0.00000E+00
   -0.37066E+06         0.19070E+08         0.00000E+00
    0.00000E+00         0.00000E+00         0.64944E+07
 
    0.10334E+08        -0.35955E+06         0.00000E+00
   -0.35955E+06         0.19034E+08         0.00000E+00
    0.00000E+00         0.00000E+00         0.64486E+07
 
    0.10154E+08        -0.34542E+06         0.00000E+00
   -0.34542E+06         0.18998E+08         0.00000E+00
    0.00000E+00         0.00000E+00         0.64039E+07
 
    0.99807E+07        -0.32935E+06         0.00000E+00
   -0.32935E+06         0.18963E+08         0.00000E+00
    0.00000E+00         0.00000E+00         0.63609E+07
 
    0.98152E+07        -0.31204E+06         0.00000E+00
   -0.31204E+06         0.18928E+08         0.00000E+00
    0.00000E+00         0.00000E+00         0.63201E+07
 
    0.96567E+07        -0.29381E+06         0.00000E+00
   -0.29381E+06         0.18894E+08         0.00000E+00
    0.00000E+00         0.00000E+00         0.62813E+07
 
    0.95048E+07        -0.27479E+06         0.00000E+00
   -0.27479E+06         0.18861E+08         0.00000E+00
    0.00000E+00         0.00000E+00         0.62456E+07
 
    0.93591E+07        -0.25508E+06         0.00000E+00
   -0.25508E+06         0.18829E+08         0.00000E+00
    0.00000E+00         0.00000E+00         0.62133E+07
 
    0.92189E+07        -0.23458E+06         0.00000E+00
   -0.23458E+06         0.18799E+08         0.00000E+00
    0.00000E+00         0.00000E+00         0.61846E+07
 
    0.90842E+07        -0.21377E+06         0.00000E+00
   -0.21377E+06         0.18772E+08         0.00000E+00
    0.00000E+00         0.00000E+00         0.61605E+07
 
    0.89549E+07        -0.19305E+06         0.00000E+00
   -0.19305E+06         0.18746E+08         0.00000E+00
    0.00000E+00         0.00000E+00         0.61407E+07
 
    0.88312E+07        -0.17231E+06         0.00000E+00
   -0.17231E+06         0.18722E+08         0.00000E+00
    0.00000E+00         0.00000E+00         0.61260E+07
 
    0.87133E+07        -0.15176E+06         0.00000E+00
   -0.15176E+06         0.18701E+08         0.00000E+00
    0.00000E+00         0.00000E+00         0.61168E+07
 
    0.86011E+07        -0.13164E+06         0.00000E+00
   -0.13164E+06         0.18682E+08         0.00000E+00
    0.00000E+00         0.00000E+00         0.61126E+07
 
    0.84946E+07        -0.11217E+06         0.00000E+00
   -0.11217E+06         0.18666E+08         0.00000E+00
    0.00000E+00         0.00000E+00         0.61135E+07
 
    0.83939E+07        -0.93569E+05         0.00000E+00
   -0.93569E+05         0.18652E+08         0.00000E+00
    0.00000E+00         0.00000E+00         0.61191E+07
 
    0.82991E+07        -0.76019E+05         0.00000E+00
   -0.76019E+05         0.18640E+08         0.00000E+00
    0.00000E+00         0.00000E+00         0.61292E+07
 
    0.82103E+07        -0.59568E+05         0.00000E+00
   -0.59568E+05         0.18631E+08         0.00000E+00
    0.00000E+00         0.00000E+00         0.61434E+07
 
    0.81277E+07        -0.44159E+05         0.00000E+00
   -0.44159E+05         0.18623E+08         0.00000E+00
    0.00000E+00         0.00000E+00         0.61614E+07
 
    0.80510E+07        -0.29791E+05         0.00000E+00
   -0.29791E+05         0.18618E+08         0.00000E+00
    0.00000E+00         0.00000E+00         0.61827E+07
 
    0.79801E+07        -0.16429E+05         0.00000E+00
   -0.16429E+05         0.18615E+08         0.00000E+00
    0.00000E+00         0.00000E+00         0.62068E+07
 
    0.79149E+07        -0.39403E+04         0.00000E+00
   -0.39403E+04         0.18613E+08         0.00000E+00
    0.00000E+00         0.00000E+00         0.62336E+07
 
    0.78549E+07         0.78509E+04         0.00000E+00
    0.78509E+04         0.18613E+08         0.00000E+00
    0.00000E+00         0.00000E+00         0.62626E+07
 
    0.77999E+07         0.19034E+05         0.00000E+00
    0.19034E+05         0.18615E+08         0.00000E+00
    0.00000E+00         0.00000E+00         0.62937E+07
 
    0.77493E+07         0.29714E+05         0.00000E+00
    0.29714E+05         0.18618E+08         0.00000E+00
    0.00000E+00         0.00000E+00         0.63267E+07
 
    0.77027E+07         0.40078E+05         0.00000E+00
    0.40078E+05         0.18623E+08         0.00000E+00
    0.00000E+00         0.00000E+00         0.63618E+07
 
    0.76596E+07         0.50391E+05         0.00000E+00
    0.50391E+05         0.18629E+08         0.00000E+00
    0.00000E+00         0.00000E+00         0.63990E+07
 
    0.76182E+07         0.61007E+05         0.00000E+00
    0.61007E+05         0.18636E+08         0.00000E+00
    0.00000E+00         0.00000E+00         0.64394E+07
 
    0.75791E+07         0.71919E+05         0.00000E+00
    0.71919E+05         0.18645E+08         0.00000E+00
    0.00000E+00         0.00000E+00         0.64830E+07
 
    0.75424E+07         0.83134E+05         0.00000E+00
    0.83134E+05         0.18655E+08         0.00000E+00
    0.00000E+00         0.00000E+00         0.65298E+07
 
    0.75087E+07         0.95027E+05         0.00000E+00
    0.95027E+05         0.18667E+08         0.00000E+00
    0.00000E+00         0.00000E+00         0.65793E+07
 
    0.74785E+07         0.10761E+06         0.00000E+00
    0.10761E+06         0.18680E+08         0.00000E+00
    0.00000E+00         0.00000E+00         0.66319E+07
 
    0.74515E+07         0.12104E+06         0.00000E+00
    0.12104E+06         0.18696E+08         0.00000E+00
    0.00000E+00         0.00000E+00         0.66879E+07
 
    0.74278E+07         0.13574E+06         0.00000E+00
    0.13574E+06         0.18713E+08         0.00000E+00
    0.00000E+00         0.00000E+00         0.67475E+07
 
    0.74074E+07         0.15218E+06         0.00000E+00
    0.15218E+06         0.18732E+08         0.00000E+00
    0.00000E+00         0.00000E+00         0.68108E+07
 
    0.73881E+07         0.17080E+06         0.00000E+00
    0.17080E+06         0.18753E+08         0.00000E+00
    0.00000E+00         0.00000E+00         0.68805E+07
 
    0.73735E+07         0.19232E+06         0.00000E+00
    0.19232E+06         0.18777E+08         0.00000E+00
    0.00000E+00         0.00000E+00         0.69541E+07
 
    0.73646E+07         0.21709E+06         0.00000E+00
    0.21709E+06         0.18803E+08         0.00000E+00
    0.00000E+00         0.00000E+00         0.70321E+07
 
    0.73623E+07         0.24554E+06         0.00000E+00
    0.24554E+06         0.18832E+08         0.00000E+00
    0.00000E+00         0.00000E+00         0.71148E+07
 
    0.73685E+07         0.27824E+06         0.00000E+00
    0.27824E+06         0.18865E+08         0.00000E+00
    0.00000E+00         0.00000E+00         0.72023E+07
 
    0.73879E+07         0.31564E+06         0.00000E+00
    0.31564E+06         0.18902E+08         0.00000E+00
    0.00000E+00         0.00000E+00         0.72965E+07
 
    0.74257E+07         0.35727E+06         0.00000E+00
    0.35727E+06         0.18946E+08         0.00000E+00
    0.00000E+00         0.00000E+00         0.73981E+07
 
    0.11296E+08        -0.87600E+05         0.00000E+00
   -0.87600E+05         0.18786E+08         0.00000E+00
    0.00000E+00         0.00000E+00         0.60521E+07
 
    0.11184E+08        -0.20406E+06         0.00000E+00
   -0.20406E+06         0.18797E+08         0.00000E+00
    0.00000E+00         0.00000E+00         0.60497E+07
 
    0.11047E+08        -0.29834E+06         0.00000E+00
   -0.29834E+06         0.18810E+08         0.00000E+00
    0.00000E+00         0.00000E+00         0.60458E+07
 
    0.10892E+08        -0.37116E+06         0.00000E+00
   -0.37116E+06         0.18816E+08         0.00000E+00
    0.00000E+00         0.00000E+00         0.60435E+07
 
    0.10729E+08        -0.42469E+06         0.00000E+00
   -0.42469E+06         0.18811E+08         0.00000E+00
    0.00000E+00         0.00000E+00         0.60470E+07
 
    0.10559E+08        -0.46166E+06         0.00000E+00
   -0.46166E+06         0.18802E+08         0.00000E+00
    0.00000E+00         0.00000E+00         0.60438E+07
 
    0.10386E+08        -0.48432E+06         0.00000E+00
   -0.48432E+06         0.18788E+08         0.00000E+00
    0.00000E+00         0.00000E+00         0.60340E+07
 
    0.10212E+08        -0.49497E+06         0.00000E+00
   -0.49497E+06         0.18771E+08         0.00000E+00
    0.00000E+00         0.00000E+00         0.60200E+07
 
    0.10045E+08        -0.49752E+06         0.00000E+00
   -0.49752E+06         0.18758E+08         0.00000E+00
    0.00000E+00         0.00000E+00         0.60135E+07
 
    0.98795E+07        -0.49414E+06         0.00000E+00
   -0.49414E+06         0.18741E+08         0.00000E+00
    0.00000E+00         0.00000E+00         0.60014E+07
 
    0.97176E+07        -0.48571E+06         0.00000E+00
   -0.48571E+06         0.18721E+08         0.00000E+00
    0.00000E+00         0.00000E+00         0.59848E+07
 
    0.95593E+07        -0.47288E+06         0.00000E+00
   -0.47288E+06         0.18698E+08         0.00000E+00
    0.00000E+00         0.00000E+00         0.59650E+07
 
    0.94054E+07        -0.45630E+06         0.00000E+00
   -0.45630E+06         0.18674E+08         0.00000E+00
    0.00000E+00         0.00000E+00         0.59433E+07
 
    0.92568E+07        -0.43658E+06         0.00000E+00
   -0.43658E+06         0.18651E+08         0.00000E+00
    0.00000E+00         0.00000E+00         0.59228E+07
 
    0.91127E+07        -0.41409E+06         0.00000E+00
   -0.41409E+06         0.18627E+08         0.00000E+00
    0.00000E+00         0.00000E+00         0.59025E+07
 
    0.89731E+07        -0.38963E+06         0.00000E+00
   -0.38963E+06         0.18603E+08         0.00000E+00
    0.00000E+00         0.00000E+00         0.58835E+07
 
    0.88385E+07        -0.36412E+06         0.00000E+00
   -0.36412E+06         0.18580E+08         0.00000E+00
    0.00000E+00         0.00000E+00         0.58665E+07
 
    0.87078E+07        -0.33694E+06         0.00000E+00
   -0.33694E+06         0.18557E+08         0.00000E+00
    0.00000E+00         0.00000E+00         0.58496E+07
 
    0.85816E+07        -0.30767E+06         0.00000E+00
   -0.30767E+06         0.18535E+08         0.00000E+00
    0.00000E+00         0.00000E+00         0.58360E+07
 
    0.84593E+07        -0.27734E+06         0.00000E+00
   -0.27734E+06         0.18515E+08         0.00000E+00
    0.00000E+00         0.00000E+00         0.58261E+07
 
    0.83409E+07        -0.24664E+06         0.00000E+00
   -0.24664E+06         0.18496E+08         0.00000E+00
    0.00000E+00         0.00000E+00         0.58205E+07
 
    0.82266E+07        -0.21614E+06         0.00000E+00
   -0.21614E+06         0.18479E+08         0.00000E+00
    0.00000E+00         0.00000E+00         0.58194E+07
 
    0.81166E+07        -0.18619E+06         0.00000E+00
   -0.18619E+06         0.18463E+08         0.00000E+00
    0.00000E+00         0.00000E+00         0.58224E+07
 
    0.80115E+07        -0.15695E+06         0.00000E+00
   -0.15695E+06         0.18450E+08         0.00000E+00
    0.00000E+00         0.00000E+00         0.58299E+07
 
    0.79115E+07        -0.12845E+06         0.00000E+00
   -0.12845E+06         0.18438E+08         0.00000E+00
    0.00000E+00         0.00000E+00         0.58420E+07
 
    0.78169E+07        -0.10103E+06         0.00000E+00
   -0.10103E+06         0.18428E+08         0.00000E+00
    0.00000E+00         0.00000E+00         0.58588E+07
 
    0.77280E+07        -0.75216E+05         0.00000E+00
   -0.75216E+05         0.18421E+08         0.00000E+00
    0.00000E+00         0.00000E+00         0.58801E+07
 
    0.76452E+07        -0.50985E+05         0.00000E+00
   -0.50985E+05         0.18415E+08         0.00000E+00
    0.00000E+00         0.00000E+00         0.59054E+07
 
    0.75686E+07        -0.28107E+05         0.00000E+00
   -0.28107E+05         0.18412E+08         0.00000E+00
    0.00000E+00         0.00000E+00         0.59344E+07
 
    0.74983E+07        -0.65417E+04         0.00000E+00
   -0.65417E+04         0.18411E+08         0.00000E+00
    0.00000E+00         0.00000E+00         0.59669E+07
 
    0.74339E+07         0.13643E+05         0.00000E+00
    0.13643E+05         0.18412E+08         0.00000E+00
    0.00000E+00         0.00000E+00         0.60024E+07
 
    0.73753E+07         0.32720E+05         0.00000E+00
    0.32720E+05         0.18415E+08         0.00000E+00
    0.00000E+00         0.00000E+00         0.60402E+07
 
    0.73222E+07         0.51056E+05         0.00000E+00
    0.51056E+05         0.18419E+08         0.00000E+00
    0.00000E+00         0.00000E+00         0.60804E+07
 
    0.72741E+07         0.68810E+05         0.00000E+00
    0.68810E+05         0.18425E+08         0.00000E+00
    0.00000E+00         0.00000E+00         0.61225E+07
 
    0.72308E+07         0.86306E+05         0.00000E+00
    0.86306E+05         0.18432E+08         0.00000E+00
    0.00000E+00         0.00000E+00         0.61664E+07
 
    0.71916E+07         0.10405E+06         0.00000E+00
    0.10405E+06         0.18441E+08         0.00000E+00
    0.00000E+00         0.00000E+00         0.62122E+07
 
    0.71563E+07         0.12249E+06         0.00000E+00
    0.12249E+06         0.18451E+08         0.00000E+00
    0.00000E+00         0.00000E+00         0.62602E+07
 
    0.71239E+07         0.14192E+06         0.00000E+00
    0.14192E+06         0.18463E+08         0.00000E+00
    0.00000E+00         0.00000E+00         0.63114E+07
 
    0.70952E+07         0.16233E+06         0.00000E+00
    0.16233E+06         0.18477E+08         0.00000E+00
    0.00000E+00         0.00000E+00         0.63657E+07
 
    0.70701E+07         0.18392E+06         0.00000E+00
    0.18392E+06         0.18492E+08         0.00000E+00
    0.00000E+00         0.00000E+00         0.64230E+07
 
    0.70496E+07         0.20712E+06         0.00000E+00
    0.20712E+06         0.18509E+08         0.00000E+00
    0.00000E+00         0.00000E+00         0.64824E+07
 
    0.70346E+07         0.23221E+06         0.00000E+00
    0.23221E+06         0.18527E+08         0.00000E+00
    0.00000E+00         0.00000E+00         0.65442E+07
 
    0.70251E+07         0.25913E+06         0.00000E+00
    0.25913E+06         0.18548E+08         0.00000E+00
    0.00000E+00         0.00000E+00         0.66086E+07
 
    0.70209E+07         0.28870E+06         0.00000E+00
    0.28870E+06         0.18571E+08         0.00000E+00
    0.00000E+00         0.00000E+00         0.66764E+07
 
    0.70219E+07         0.32101E+06         0.00000E+00
    0.32101E+06         0.18596E+08         0.00000E+00
    0.00000E+00         0.00000E+00         0.67473E+07
 
    0.70295E+07         0.35635E+06         0.00000E+00
    0.35635E+06         0.18622E+08         0.00000E+00
    0.00000E+00         0.00000E+00         0.68188E+07
 
    0.70442E+07         0.39494E+06         0.00000E+00
    0.39494E+06         0.18651E+08         0.00000E+00
    0.00000E+00         0.00000E+00         0.68906E+07
 
    0.70657E+07         0.43622E+06         0.00000E+00
    0.43622E+06         0.18680E+08         0.00000E+00
    0.00000E+00         0.00000E+00         0.69626E+07
 
    0.70926E+07         0.47827E+06         0.00000E+00
    0.47827E+06         0.18711E+08         0.00000E+00
    0.00000E+00         0.00000E+00         0.70340E+07
 
    0.71210E+07         0.51913E+06         0.00000E+00
    0.51913E+06         0.18739E+08         0.00000E+00
    0.00000E+00         0.00000E+00         0.71021E+07
 
    0.10271E+08        -0.35981E+05         0.00000E+00
   -0.35981E+05         0.18240E+08         0.00000E+00
    0.00000E+00         0.00000E+00         0.57021E+07
 
    0.10212E+08        -0.12373E+06         0.00000E+00
   -0.12373E+06         0.18248E+08         0.00000E+00
    0.00000E+00         0.00000E+00         0.56919E+07
 
    0.10138E+08        -0.20715E+06         0.00000E+00
   -0.20715E+06         0.18260E+08         0.00000E+00
    0.00000E+00         0.00000E+00         0.56796E+07
 
    0.10050E+08        -0.28384E+06         0.00000E+00
   -0.28384E+06         0.18280E+08         0.00000E+00
    0.00000E+00         0.00000E+00         0.56661E+07
 
    0.99532E+07        -0.35198E+06         0.00000E+00
   -0.35198E+06         0.18310E+08         0.00000E+00
    0.00000E+00         0.00000E+00         0.56526E+07
 
    0.98461E+07        -0.41036E+06         0.00000E+00
   -0.41036E+06         0.18338E+08         0.00000E+00
    0.00000E+00         0.00000E+00         0.56368E+07
 
    0.97308E+07        -0.45901E+06         0.00000E+00
   -0.45901E+06         0.18364E+08         0.00000E+00
    0.00000E+00         0.00000E+00         0.56189E+07
 
    0.96096E+07        -0.49808E+06         0.00000E+00
   -0.49808E+06         0.18385E+08         0.00000E+00
    0.00000E+00         0.00000E+00         0.56013E+07
 
    0.94884E+07        -0.52632E+06         0.00000E+00
   -0.52632E+06         0.18398E+08         0.00000E+00
    0.00000E+00         0.00000E+00         0.55998E+07
 
    0.93628E+07        -0.54386E+06         0.00000E+00
   -0.54386E+06         0.18407E+08         0.00000E+00
    0.00000E+00         0.00000E+00         0.55930E+07
 
    0.92348E+07        -0.55206E+06         0.00000E+00
   -0.55206E+06         0.18412E+08         0.00000E+00
    0.00000E+00         0.00000E+00         0.55820E+07
 
    0.91055E+07        -0.55214E+06         0.00000E+00
   -0.55214E+06         0.18413E+08         0.00000E+00
    0.00000E+00         0.00000E+00         0.55675E+07
 
    0.89757E+07        -0.54507E+06         0.00000E+00
   -0.54507E+06         0.18411E+08         0.00000E+00
    0.00000E+00         0.00000E+00         0.55509E+07
 
    0.88499E+07        -0.53151E+06         0.00000E+00
   -0.53151E+06         0.18397E+08         0.00000E+00
    0.00000E+00         0.00000E+00         0.55452E+07
 
    0.87243E+07        -0.51291E+06         0.00000E+00
   -0.51291E+06         0.18381E+08         0.00000E+00
    0.00000E+00         0.00000E+00         0.55368E+07
 
    0.85993E+07        -0.48964E+06         0.00000E+00
   -0.48964E+06         0.18363E+08         0.00000E+00
    0.00000E+00         0.00000E+00         0.55260E+07
 
    0.84746E+07        -0.46196E+06         0.00000E+00
   -0.46196E+06         0.18344E+08         0.00000E+00
    0.00000E+00         0.00000E+00         0.55137E+07
 
    0.83563E+07        -0.43176E+06         0.00000E+00
   -0.43176E+06         0.18330E+08         0.00000E+00
    0.00000E+00         0.00000E+00         0.55113E+07
 
    0.82391E+07        -0.39989E+06         0.00000E+00
   -0.39989E+06         0.18315E+08         0.00000E+00
    0.00000E+00         0.00000E+00         0.55077E+07
 
    0.81229E+07        -0.36627E+06         0.00000E+00
   -0.36627E+06         0.18299E+08         0.00000E+00
    0.00000E+00         0.00000E+00         0.55035E+07
 
    0.80081E+07        -0.33101E+06         0.00000E+00
   -0.33101E+06         0.18283E+08         0.00000E+00
    0.00000E+00         0.00000E+00         0.54997E+07
 
    0.78950E+07        -0.29440E+06         0.00000E+00
   -0.29440E+06         0.18267E+08         0.00000E+00
    0.00000E+00         0.00000E+00         0.54978E+07
 
    0.77852E+07        -0.25672E+06         0.00000E+00
   -0.25672E+06         0.18252E+08         0.00000E+00
    0.00000E+00         0.00000E+00         0.55008E+07
 
    0.76785E+07        -0.21839E+06         0.00000E+00
   -0.21839E+06         0.18239E+08         0.00000E+00
    0.00000E+00         0.00000E+00         0.55083E+07
 
    0.75754E+07        -0.18055E+06         0.00000E+00
   -0.18055E+06         0.18227E+08         0.00000E+00
    0.00000E+00         0.00000E+00         0.55209E+07
 
    0.74758E+07        -0.14337E+06         0.00000E+00
   -0.14337E+06         0.18217E+08         0.00000E+00
    0.00000E+00         0.00000E+00         0.55375E+07
 
    0.73805E+07        -0.10643E+06         0.00000E+00
   -0.10643E+06         0.18209E+08         0.00000E+00
    0.00000E+00         0.00000E+00         0.55589E+07
 
    0.72907E+07        -0.70419E+05         0.00000E+00
   -0.70419E+05         0.18204E+08         0.00000E+00
    0.00000E+00         0.00000E+00         0.55870E+07
 
    0.72067E+07        -0.36299E+05         0.00000E+00
   -0.36299E+05         0.18201E+08         0.00000E+00
    0.00000E+00         0.00000E+00         0.56210E+07
 
    0.71288E+07        -0.42685E+04         0.00000E+00
   -0.42685E+04         0.18200E+08         0.00000E+00
    0.00000E+00         0.00000E+00         0.56596E+07
 
    0.70574E+07         0.26148E+05         0.00000E+00
    0.26148E+05         0.18202E+08         0.00000E+00
    0.00000E+00         0.00000E+00         0.57024E+07
 
    0.69930E+07         0.54877E+05         0.00000E+00
    0.54877E+05         0.18206E+08         0.00000E+00
    0.00000E+00         0.00000E+00         0.57494E+07
 
    0.69354E+07         0.81798E+05         0.00000E+00
    0.81798E+05         0.18212E+08         0.00000E+00
    0.00000E+00         0.00000E+00         0.57993E+07
 
    0.68847E+07         0.10773E+06         0.00000E+00
    0.10773E+06         0.18221E+08         0.00000E+00
    0.00000E+00         0.00000E+00         0.58513E+07
 
    0.68408E+07         0.13327E+06         0.00000E+00
    0.13327E+06         0.18231E+08         0.00000E+00
    0.00000E+00         0.00000E+00         0.59055E+07
 
    0.68034E+07         0.15872E+06         0.00000E+00
    0.15872E+06         0.18242E+08         0.00000E+00
    0.00000E+00         0.00000E+00         0.59616E+07
 
    0.67717E+07         0.18475E+06         0.00000E+00
    0.18475E+06         0.18256E+08         0.00000E+00
    0.00000E+00         0.00000E+00         0.60190E+07
 
    0.67454E+07         0.21187E+06         0.00000E+00
    0.21187E+06         0.18271E+08         0.00000E+00
    0.00000E+00         0.00000E+00         0.60779E+07
 
    0.67239E+07         0.24032E+06         0.00000E+00
    0.24032E+06         0.18287E+08         0.00000E+00
    0.00000E+00         0.00000E+00         0.61379E+07
 
    0.67071E+07         0.27031E+06         0.00000E+00
    0.27031E+06         0.18304E+08         0.00000E+00
    0.00000E+00         0.00000E+00         0.61999E+07
 
    0.66957E+07         0.30187E+06         0.00000E+00
    0.30187E+06         0.18323E+08         0.00000E+00
    0.00000E+00         0.00000E+00         0.62637E+07
 
    0.66898E+07         0.33491E+06         0.00000E+00
    0.33491E+06         0.18344E+08         0.00000E+00
    0.00000E+00         0.00000E+00         0.63285E+07
 
    0.66898E+07         0.37010E+06         0.00000E+00
    0.37010E+06         0.18366E+08         0.00000E+00
    0.00000E+00         0.00000E+00         0.63935E+07
 
    0.66956E+07         0.40732E+06         0.00000E+00
    0.40732E+06         0.18388E+08         0.00000E+00
    0.00000E+00         0.00000E+00         0.64578E+07
 
    0.67072E+07         0.44643E+06         0.00000E+00
    0.44643E+06         0.18412E+08         0.00000E+00
    0.00000E+00         0.00000E+00         0.65220E+07
 
    0.67255E+07         0.48650E+06         0.00000E+00
    0.48650E+06         0.18437E+08         0.00000E+00
    0.00000E+00         0.00000E+00         0.65860E+07
 
    0.67490E+07         0.52719E+06         0.00000E+00
    0.52719E+06         0.18463E+08         0.00000E+00
    0.00000E+00         0.00000E+00         0.66488E+07
 
    0.67757E+07         0.56812E+06         0.00000E+00
    0.56812E+06         0.18489E+08         0.00000E+00
    0.00000E+00         0.00000E+00         0.67089E+07
 
    0.68049E+07         0.61036E+06         0.00000E+00
    0.61036E+06         0.18514E+08         0.00000E+00
    0.00000E+00         0.00000E+00         0.67666E+07
 
    0.68375E+07         0.65429E+06         0.00000E+00
    0.65429E+06         0.18540E+08         0.00000E+00
    0.00000E+00         0.00000E+00         0.68251E+07
 
    0.94094E+07        -0.37200E+05         0.00000E+00
   -0.37200E+05         0.17758E+08         0.00000E+00
    0.00000E+00         0.00000E+00         0.54334E+07
 
    0.93578E+07        -0.98343E+05         0.00000E+00
   -0.98343E+05         0.17759E+08         0.00000E+00
    0.00000E+00         0.00000E+00         0.54233E+07
 
    0.93026E+07        -0.15692E+06         0.00000E+00
   -0.15692E+06         0.17764E+08         0.00000E+00
    0.00000E+00         0.00000E+00         0.54133E+07
 
    0.92420E+07        -0.21204E+06         0.00000E+00
   -0.21204E+06         0.17772E+08         0.00000E+00
    0.00000E+00         0.00000E+00         0.54029E+07
 
    0.91754E+07        -0.26333E+06         0.00000E+00
   -0.26333E+06         0.17783E+08         0.00000E+00
    0.00000E+00         0.00000E+00         0.53916E+07
 
    0.91032E+07        -0.31031E+06         0.00000E+00
   -0.31031E+06         0.17797E+08         0.00000E+00
    0.00000E+00         0.00000E+00         0.53800E+07
 
    0.90256E+07        -0.35204E+06         0.00000E+00
   -0.35204E+06         0.17814E+08         0.00000E+00
    0.00000E+00         0.00000E+00         0.53680E+07
 
    0.89437E+07        -0.38785E+06         0.00000E+00
   -0.38785E+06         0.17834E+08         0.00000E+00
    0.00000E+00         0.00000E+00         0.53556E+07
 
    0.88578E+07        -0.41840E+06         0.00000E+00
   -0.41840E+06         0.17854E+08         0.00000E+00
    0.00000E+00         0.00000E+00         0.53424E+07
 
    0.87685E+07        -0.44431E+06         0.00000E+00
   -0.44431E+06         0.17875E+08         0.00000E+00
    0.00000E+00         0.00000E+00         0.53288E+07
 
    0.86756E+07        -0.46508E+06         0.00000E+00
   -0.46508E+06         0.17897E+08         0.00000E+00
    0.00000E+00         0.00000E+00         0.53145E+07
 
    0.85795E+07        -0.48057E+06         0.00000E+00
   -0.48057E+06         0.17918E+08         0.00000E+00
    0.00000E+00         0.00000E+00         0.52994E+07
 
    0.84811E+07        -0.49083E+06         0.00000E+00
   -0.49083E+06         0.17937E+08         0.00000E+00
    0.00000E+00         0.00000E+00         0.52837E+07
 
    0.83830E+07        -0.49618E+06         0.00000E+00
   -0.49618E+06         0.17965E+08         0.00000E+00
    0.00000E+00         0.00000E+00         0.52696E+07
 
    0.82829E+07        -0.49609E+06         0.00000E+00
   -0.49609E+06         0.17990E+08         0.00000E+00
    0.00000E+00         0.00000E+00         0.52545E+07
 
    0.81814E+07        -0.49111E+06         0.00000E+00
   -0.49111E+06         0.18011E+08         0.00000E+00
    0.00000E+00         0.00000E+00         0.52384E+07
 
    0.80784E+07        -0.48177E+06         0.00000E+00
   -0.48177E+06         0.18028E+08         0.00000E+00
    0.00000E+00         0.00000E+00         0.52213E+07
 
    0.79808E+07        -0.46705E+06         0.00000E+00
   -0.46705E+06         0.18039E+08         0.00000E+00
    0.00000E+00         0.00000E+00         0.52183E+07
 
    0.78814E+07        -0.44670E+06         0.00000E+00
   -0.44670E+06         0.18046E+08         0.00000E+00
    0.00000E+00         0.00000E+00         0.52125E+07
 
    0.77811E+07        -0.42138E+06         0.00000E+00
   -0.42138E+06         0.18051E+08         0.00000E+00
    0.00000E+00         0.00000E+00         0.52045E+07
 
    0.76801E+07        -0.39160E+06         0.00000E+00
   -0.39160E+06         0.18054E+08         0.00000E+00
    0.00000E+00         0.00000E+00         0.51949E+07
 
    0.75780E+07        -0.35770E+06         0.00000E+00
   -0.35770E+06         0.18055E+08         0.00000E+00
    0.00000E+00         0.00000E+00         0.51844E+07
 
    0.74800E+07        -0.31987E+06         0.00000E+00
   -0.31987E+06         0.18045E+08         0.00000E+00
    0.00000E+00         0.00000E+00         0.51853E+07
 
    0.73814E+07        -0.27868E+06         0.00000E+00
   -0.27868E+06         0.18032E+08         0.00000E+00
    0.00000E+00         0.00000E+00         0.51881E+07
 
    0.72808E+07        -0.23417E+06         0.00000E+00
   -0.23417E+06         0.18018E+08         0.00000E+00
    0.00000E+00         0.00000E+00         0.51914E+07
 
    0.71835E+07        -0.18743E+06         0.00000E+00
   -0.18743E+06         0.18009E+08         0.00000E+00
    0.00000E+00         0.00000E+00         0.52039E+07
 
    0.70892E+07        -0.13994E+06         0.00000E+00
   -0.13994E+06         0.18001E+08         0.00000E+00
    0.00000E+00         0.00000E+00         0.52251E+07
 
    0.69945E+07        -0.92463E+05         0.00000E+00
   -0.92463E+05         0.17994E+08         0.00000E+00
    0.00000E+00         0.00000E+00         0.52494E+07
 
    0.69021E+07        -0.45774E+05         0.00000E+00
   -0.45774E+05         0.17989E+08         0.00000E+00
    0.00000E+00         0.00000E+00         0.52793E+07
 
    0.68157E+07        -0.45593E+03         0.00000E+00
   -0.45593E+03         0.17987E+08         0.00000E+00
    0.00000E+00         0.00000E+00         0.53184E+07
 
    0.67359E+07         0.42449E+05         0.00000E+00
    0.42449E+05         0.17988E+08         0.00000E+00
    0.00000E+00         0.00000E+00         0.53651E+07
 
    0.66620E+07         0.83022E+05         0.00000E+00
    0.83022E+05         0.17991E+08         0.00000E+00
    0.00000E+00         0.00000E+00         0.54159E+07
 
    0.65970E+07         0.12225E+06         0.00000E+00
    0.12225E+06         0.17998E+08         0.00000E+00
    0.00000E+00         0.00000E+00         0.54728E+07
 
    0.65414E+07         0.15966E+06         0.00000E+00
    0.15966E+06         0.18008E+08         0.00000E+00
    0.00000E+00         0.00000E+00         0.55356E+07
 
    0.64944E+07         0.19530E+06         0.00000E+00
    0.19530E+06         0.18020E+08         0.00000E+00
    0.00000E+00         0.00000E+00         0.56016E+07
 
    0.64559E+07         0.23003E+06         0.00000E+00
    0.23003E+06         0.18035E+08         0.00000E+00
    0.00000E+00         0.00000E+00         0.56699E+07
 
    0.64258E+07         0.26382E+06         0.00000E+00
    0.26382E+06         0.18052E+08         0.00000E+00
    0.00000E+00         0.00000E+00         0.57400E+07
 
    0.64028E+07         0.29706E+06         0.00000E+00
    0.29706E+06         0.18070E+08         0.00000E+00
    0.00000E+00         0.00000E+00         0.58097E+07
 
    0.63871E+07         0.33117E+06         0.00000E+00
    0.33117E+06         0.18090E+08         0.00000E+00
    0.00000E+00         0.00000E+00         0.58790E+07
 
    0.63777E+07         0.36663E+06         0.00000E+00
    0.36663E+06         0.18110E+08         0.00000E+00
    0.00000E+00         0.00000E+00         0.59475E+07
 
    0.63738E+07         0.40382E+06         0.00000E+00
    0.40382E+06         0.18131E+08         0.00000E+00
    0.00000E+00         0.00000E+00         0.60150E+07
 
    0.63755E+07         0.44273E+06         0.00000E+00
    0.44273E+06         0.18153E+08         0.00000E+00
    0.00000E+00         0.00000E+00         0.60819E+07
 
    0.63827E+07         0.48219E+06         0.00000E+00
    0.48219E+06         0.18175E+08         0.00000E+00
    0.00000E+00         0.00000E+00         0.61478E+07
 
    0.63958E+07         0.52204E+06         0.00000E+00
    0.52204E+06         0.18199E+08         0.00000E+00
    0.00000E+00         0.00000E+00         0.62122E+07
 
    0.64131E+07         0.56263E+06         0.00000E+00
    0.56263E+06         0.18222E+08         0.00000E+00
    0.00000E+00         0.00000E+00         0.62744E+07
 
    0.64338E+07         0.60424E+06         0.00000E+00
    0.60424E+06         0.18245E+08         0.00000E+00
    0.00000E+00         0.00000E+00         0.63335E+07
 
    0.64582E+07         0.64667E+06         0.00000E+00
    0.64667E+06         0.18268E+08         0.00000E+00
    0.00000E+00         0.00000E+00         0.63901E+07
 
    0.64876E+07         0.69004E+06         0.00000E+00
    0.69004E+06         0.18291E+08         0.00000E+00
    0.00000E+00         0.00000E+00         0.64451E+07
 
    0.65217E+07         0.73303E+06         0.00000E+00
    0.73303E+06         0.18315E+08         0.00000E+00
    0.00000E+00         0.00000E+00         0.64995E+07
 
    0.65589E+07         0.77603E+06         0.00000E+00
    0.77603E+06         0.18339E+08         0.00000E+00
    0.00000E+00         0.00000E+00         0.65522E+07
 
    0.86205E+07        -0.28536E+05         0.00000E+00
   -0.28536E+05         0.17256E+08         0.00000E+00
    0.00000E+00         0.00000E+00         0.51753E+07
 
    0.85891E+07        -0.78449E+05         0.00000E+00
   -0.78449E+05         0.17259E+08         0.00000E+00
    0.00000E+00         0.00000E+00         0.51696E+07
 
    0.85521E+07        -0.12432E+06         0.00000E+00
   -0.12432E+06         0.17264E+08         0.00000E+00
    0.00000E+00         0.00000E+00         0.51633E+07
 
    0.85101E+07        -0.16653E+06         0.00000E+00
   -0.16653E+06         0.17272E+08         0.00000E+00
    0.00000E+00         0.00000E+00         0.51564E+07
 
    0.84636E+07        -0.20503E+06         0.00000E+00
   -0.20503E+06         0.17282E+08         0.00000E+00
    0.00000E+00         0.00000E+00         0.51492E+07
 
    0.84125E+07        -0.23974E+06         0.00000E+00
   -0.23974E+06         0.17295E+08         0.00000E+00
    0.00000E+00         0.00000E+00         0.51414E+07
 
    0.83572E+07        -0.27076E+06         0.00000E+00
   -0.27076E+06         0.17309E+08         0.00000E+00
    0.00000E+00         0.00000E+00         0.51332E+07
 
    0.82978E+07        -0.29819E+06         0.00000E+00
   -0.29819E+06         0.17325E+08         0.00000E+00
    0.00000E+00         0.00000E+00         0.51246E+07
 
    0.82344E+07        -0.32180E+06         0.00000E+00
   -0.32180E+06         0.17343E+08         0.00000E+00
    0.00000E+00         0.00000E+00         0.51155E+07
 
    0.81674E+07        -0.34138E+06         0.00000E+00
   -0.34138E+06         0.17363E+08         0.00000E+00
    0.00000E+00         0.00000E+00         0.51061E+07
 
    0.80973E+07        -0.35702E+06         0.00000E+00
   -0.35702E+06         0.17384E+08         0.00000E+00
    0.00000E+00         0.00000E+00         0.50963E+07
 
    0.80245E+07        -0.36862E+06         0.00000E+00
   -0.36862E+06         0.17407E+08         0.00000E+00
    0.00000E+00         0.00000E+00         0.50862E+07
 
    0.79494E+07        -0.37608E+06         0.00000E+00
   -0.37608E+06         0.17431E+08         0.00000E+00
    0.00000E+00         0.00000E+00         0.50760E+07
 
    0.78721E+07        -0.37974E+06         0.00000E+00
   -0.37974E+06         0.17453E+08         0.00000E+00
    0.00000E+00         0.00000E+00         0.50651E+07
 
    0.77934E+07        -0.38006E+06         0.00000E+00
   -0.38006E+06         0.17477E+08         0.00000E+00
    0.00000E+00         0.00000E+00         0.50541E+07
 
    0.77135E+07        -0.37674E+06         0.00000E+00
   -0.37674E+06         0.17502E+08         0.00000E+00
    0.00000E+00         0.00000E+00         0.50431E+07
 
    0.76331E+07        -0.36946E+06         0.00000E+00
   -0.36946E+06         0.17528E+08         0.00000E+00
    0.00000E+00         0.00000E+00         0.50322E+07
 
    0.75524E+07        -0.35911E+06         0.00000E+00
   -0.35911E+06         0.17552E+08         0.00000E+00
    0.00000E+00         0.00000E+00         0.50209E+07
 
    0.74715E+07        -0.34666E+06         0.00000E+00
   -0.34666E+06         0.17576E+08         0.00000E+00
    0.00000E+00         0.00000E+00         0.50096E+07
 
    0.73897E+07        -0.33178E+06         0.00000E+00
   -0.33178E+06         0.17600E+08         0.00000E+00
    0.00000E+00         0.00000E+00         0.49980E+07
 
    0.73069E+07        -0.31437E+06         0.00000E+00
   -0.31437E+06         0.17624E+08         0.00000E+00
    0.00000E+00         0.00000E+00         0.49861E+07
 
    0.72234E+07        -0.29440E+06         0.00000E+00
   -0.29440E+06         0.17645E+08         0.00000E+00
    0.00000E+00         0.00000E+00         0.49737E+07
 
    0.71413E+07        -0.27195E+06         0.00000E+00
   -0.27195E+06         0.17675E+08         0.00000E+00
    0.00000E+00         0.00000E+00         0.49633E+07
 
    0.70582E+07        -0.24662E+06         0.00000E+00
   -0.24662E+06         0.17704E+08         0.00000E+00
    0.00000E+00         0.00000E+00         0.49525E+07
 
    0.69728E+07        -0.21853E+06         0.00000E+00
   -0.21853E+06         0.17730E+08         0.00000E+00
    0.00000E+00         0.00000E+00         0.49406E+07
 
    0.68909E+07        -0.18679E+06         0.00000E+00
   -0.18679E+06         0.17750E+08         0.00000E+00
    0.00000E+00         0.00000E+00         0.49386E+07
 
    0.68105E+07        -0.15002E+06         0.00000E+00
   -0.15002E+06         0.17767E+08         0.00000E+00
    0.00000E+00         0.00000E+00         0.49436E+07
 
    0.67260E+07        -0.10783E+06         0.00000E+00
   -0.10783E+06         0.17781E+08         0.00000E+00
    0.00000E+00         0.00000E+00         0.49470E+07
 
    0.66394E+07        -0.60301E+05         0.00000E+00
   -0.60301E+05         0.17790E+08         0.00000E+00
    0.00000E+00         0.00000E+00         0.49540E+07
 
    0.65586E+07        -0.80660E+04         0.00000E+00
   -0.80660E+04         0.17784E+08         0.00000E+00
    0.00000E+00         0.00000E+00         0.49785E+07
 
    0.64738E+07         0.47985E+05         0.00000E+00
    0.47985E+05         0.17777E+08         0.00000E+00
    0.00000E+00         0.00000E+00         0.50049E+07
 
    0.63983E+07         0.10579E+06         0.00000E+00
    0.10579E+06         0.17778E+08         0.00000E+00
    0.00000E+00         0.00000E+00         0.50504E+07
 
    0.63267E+07         0.16257E+06         0.00000E+00
    0.16257E+06         0.17782E+08         0.00000E+00
    0.00000E+00         0.00000E+00         0.51059E+07
 
    0.62596E+07         0.21643E+06         0.00000E+00
    0.21643E+06         0.17789E+08         0.00000E+00
    0.00000E+00         0.00000E+00         0.51681E+07
 
    0.62024E+07         0.26686E+06         0.00000E+00
    0.26686E+06         0.17800E+08         0.00000E+00
    0.00000E+00         0.00000E+00         0.52402E+07
 
    0.61554E+07         0.31306E+06         0.00000E+00
    0.31306E+06         0.17815E+08         0.00000E+00
    0.00000E+00         0.00000E+00         0.53182E+07
 
    0.61168E+07         0.35623E+06         0.00000E+00
    0.35623E+06         0.17832E+08         0.00000E+00
    0.00000E+00         0.00000E+00         0.53962E+07
 
    0.60916E+07         0.39805E+06         0.00000E+00
    0.39805E+06         0.17853E+08         0.00000E+00
    0.00000E+00         0.00000E+00         0.54787E+07
 
    0.60762E+07         0.43795E+06         0.00000E+00
    0.43795E+06         0.17875E+08         0.00000E+00
    0.00000E+00         0.00000E+00         0.55613E+07
 
    0.60695E+07         0.47717E+06         0.00000E+00
    0.47717E+06         0.17899E+08         0.00000E+00
    0.00000E+00         0.00000E+00         0.56424E+07
 
    0.60705E+07         0.51586E+06         0.00000E+00
    0.51586E+06         0.17924E+08         0.00000E+00
    0.00000E+00         0.00000E+00         0.57215E+07
 
    0.60765E+07         0.55422E+06         0.00000E+00
    0.55422E+06         0.17949E+08         0.00000E+00
    0.00000E+00         0.00000E+00         0.57959E+07
 
    0.60871E+07         0.59411E+06         0.00000E+00
    0.59411E+06         0.17973E+08         0.00000E+00
    0.00000E+00         0.00000E+00         0.58661E+07
 
    0.61018E+07         0.63547E+06         0.00000E+00
    0.63547E+06         0.17996E+08         0.00000E+00
    0.00000E+00         0.00000E+00         0.59328E+07
 
    0.61209E+07         0.67758E+06         0.00000E+00
    0.67758E+06         0.18019E+08         0.00000E+00
    0.00000E+00         0.00000E+00         0.59965E+07
 
    0.61450E+07         0.71994E+06         0.00000E+00
    0.71994E+06         0.18042E+08         0.00000E+00
    0.00000E+00         0.00000E+00         0.60580E+07
 
    0.61738E+07         0.76165E+06         0.00000E+00
    0.76165E+06         0.18066E+08         0.00000E+00
    0.00000E+00         0.00000E+00         0.61167E+07
 
    0.62060E+07         0.80303E+06         0.00000E+00
    0.80303E+06         0.18089E+08         0.00000E+00
    0.00000E+00         0.00000E+00         0.61720E+07
 
    0.62405E+07         0.84532E+06         0.00000E+00
    0.84532E+06         0.18112E+08         0.00000E+00
    0.00000E+00         0.00000E+00         0.62236E+07
 
    0.62772E+07         0.88802E+06         0.00000E+00
    0.88802E+06         0.18133E+08         0.00000E+00
    0.00000E+00         0.00000E+00         0.62725E+07
 
    0.78987E+07        -0.22067E+05         0.00000E+00
   -0.22067E+05         0.16758E+08         0.00000E+00
    0.00000E+00         0.00000E+00         0.49313E+07
 
    0.78837E+07        -0.58426E+05         0.00000E+00
   -0.58426E+05         0.16760E+08         0.00000E+00
    0.00000E+00         0.00000E+00         0.49288E+07
 
    0.78637E+07        -0.91806E+05         0.00000E+00
   -0.91806E+05         0.16766E+08         0.00000E+00
    0.00000E+00         0.00000E+00         0.49259E+07
 
    0.78389E+07        -0.12206E+06         0.00000E+00
   -0.12206E+06         0.16774E+08         0.00000E+00
    0.00000E+00         0.00000E+00         0.49225E+07
 
    0.78093E+07        -0.14922E+06         0.00000E+00
   -0.14922E+06         0.16784E+08         0.00000E+00
    0.00000E+00         0.00000E+00         0.49186E+07
 
    0.77752E+07        -0.17332E+06         0.00000E+00
   -0.17332E+06         0.16796E+08         0.00000E+00
    0.00000E+00         0.00000E+00         0.49143E+07
 
    0.77369E+07        -0.19432E+06         0.00000E+00
   -0.19432E+06         0.16811E+08         0.00000E+00
    0.00000E+00         0.00000E+00         0.49095E+07
 
    0.76947E+07        -0.21220E+06         0.00000E+00
   -0.21220E+06         0.16827E+08         0.00000E+00
    0.00000E+00         0.00000E+00         0.49044E+07
 
    0.76487E+07        -0.22698E+06         0.00000E+00
   -0.22698E+06         0.16846E+08         0.00000E+00
    0.00000E+00         0.00000E+00         0.48989E+07
 
    0.75993E+07        -0.23868E+06         0.00000E+00
   -0.23868E+06         0.16866E+08         0.00000E+00
    0.00000E+00         0.00000E+00         0.48930E+07
 
    0.75468E+07        -0.24728E+06         0.00000E+00
   -0.24728E+06         0.16887E+08         0.00000E+00
    0.00000E+00         0.00000E+00         0.48868E+07
 
    0.74914E+07        -0.25285E+06         0.00000E+00
   -0.25285E+06         0.16910E+08         0.00000E+00
    0.00000E+00         0.00000E+00         0.48803E+07
 
    0.74333E+07        -0.25548E+06         0.00000E+00
   -0.25548E+06         0.16934E+08         0.00000E+00
    0.00000E+00         0.00000E+00         0.48735E+07
 
    0.73729E+07        -0.25511E+06         0.00000E+00
   -0.25511E+06         0.16960E+08         0.00000E+00
    0.00000E+00         0.00000E+00         0.48666E+07
 
    0.73104E+07        -0.25166E+06         0.00000E+00
   -0.25166E+06         0.16987E+08         0.00000E+00
    0.00000E+00         0.00000E+00         0.48594E+07
 
    0.72463E+07        -0.24537E+06         0.00000E+00
   -0.24537E+06         0.17014E+08         0.00000E+00
    0.00000E+00         0.00000E+00         0.48521E+07
 
    0.71805E+07        -0.23653E+06         0.00000E+00
   -0.23653E+06         0.17042E+08         0.00000E+00
    0.00000E+00         0.00000E+00         0.48445E+07
 
    0.71134E+07        -0.22510E+06         0.00000E+00
   -0.22510E+06         0.17071E+08         0.00000E+00
    0.00000E+00         0.00000E+00         0.48368E+07
 
    0.70450E+07        -0.21100E+06         0.00000E+00
   -0.21100E+06         0.17100E+08         0.00000E+00
    0.00000E+00         0.00000E+00         0.48290E+07
 
    0.69758E+07        -0.19440E+06         0.00000E+00
   -0.19440E+06         0.17130E+08         0.00000E+00
    0.00000E+00         0.00000E+00         0.48212E+07
 
    0.69059E+07        -0.17529E+06         0.00000E+00
   -0.17529E+06         0.17161E+08         0.00000E+00
    0.00000E+00         0.00000E+00         0.48134E+07
 
    0.68359E+07        -0.15355E+06         0.00000E+00
   -0.15355E+06         0.17193E+08         0.00000E+00
    0.00000E+00         0.00000E+00         0.48057E+07
 
    0.67655E+07        -0.12951E+06         0.00000E+00
   -0.12951E+06         0.17223E+08         0.00000E+00
    0.00000E+00         0.00000E+00         0.47976E+07
 
    0.66953E+07        -0.10353E+06         0.00000E+00
   -0.10353E+06         0.17253E+08         0.00000E+00
    0.00000E+00         0.00000E+00         0.47897E+07
 
    0.66260E+07        -0.75203E+05         0.00000E+00
   -0.75203E+05         0.17285E+08         0.00000E+00
    0.00000E+00         0.00000E+00         0.47823E+07
 
    0.65578E+07        -0.44943E+05         0.00000E+00
   -0.44943E+05         0.17316E+08         0.00000E+00
    0.00000E+00         0.00000E+00         0.47748E+07
 
    0.64903E+07        -0.13994E+05         0.00000E+00
   -0.13994E+05         0.17347E+08         0.00000E+00
    0.00000E+00         0.00000E+00         0.47674E+07
 
    0.64227E+07         0.17455E+05         0.00000E+00
    0.17455E+05         0.17377E+08         0.00000E+00
    0.00000E+00         0.00000E+00         0.47599E+07
 
    0.63547E+07         0.49996E+05         0.00000E+00
    0.49996E+05         0.17409E+08         0.00000E+00
    0.00000E+00         0.00000E+00         0.47527E+07
 
    0.62879E+07         0.84271E+05         0.00000E+00
    0.84271E+05         0.17454E+08         0.00000E+00
    0.00000E+00         0.00000E+00         0.47484E+07
 
    0.62163E+07         0.12079E+06         0.00000E+00
    0.12079E+06         0.17496E+08         0.00000E+00
    0.00000E+00         0.00000E+00         0.47425E+07
 
    0.61537E+07         0.16155E+06         0.00000E+00
    0.16155E+06         0.17531E+08         0.00000E+00
    0.00000E+00         0.00000E+00         0.47570E+07
 
    0.60895E+07         0.20891E+06         0.00000E+00
    0.20891E+06         0.17561E+08         0.00000E+00
    0.00000E+00         0.00000E+00         0.47775E+07
 
    0.60237E+07         0.26318E+06         0.00000E+00
    0.26318E+06         0.17581E+08         0.00000E+00
    0.00000E+00         0.00000E+00         0.48054E+07
 
    0.59656E+07         0.32244E+06         0.00000E+00
    0.32244E+06         0.17584E+08         0.00000E+00
    0.00000E+00         0.00000E+00         0.48533E+07
 
    0.59062E+07         0.38500E+06         0.00000E+00
    0.38500E+06         0.17586E+08         0.00000E+00
    0.00000E+00         0.00000E+00         0.49064E+07
 
    0.58645E+07         0.44758E+06         0.00000E+00
    0.44758E+06         0.17600E+08         0.00000E+00
    0.00000E+00         0.00000E+00         0.49866E+07
 
    0.58243E+07         0.50546E+06         0.00000E+00
    0.50546E+06         0.17616E+08         0.00000E+00
    0.00000E+00         0.00000E+00         0.50697E+07
 
    0.57958E+07         0.55782E+06         0.00000E+00
    0.55782E+06         0.17636E+08         0.00000E+00
    0.00000E+00         0.00000E+00         0.51618E+07
 
    0.57787E+07         0.60369E+06         0.00000E+00
    0.60369E+06         0.17661E+08         0.00000E+00
    0.00000E+00         0.00000E+00         0.52574E+07
 
    0.57696E+07         0.64474E+06         0.00000E+00
    0.64474E+06         0.17686E+08         0.00000E+00
    0.00000E+00         0.00000E+00         0.53488E+07
 
    0.57737E+07         0.68401E+06         0.00000E+00
    0.68401E+06         0.17715E+08         0.00000E+00
    0.00000E+00         0.00000E+00         0.54401E+07
 
    0.57868E+07         0.72133E+06         0.00000E+00
    0.72133E+06         0.17744E+08         0.00000E+00
    0.00000E+00         0.00000E+00         0.55279E+07
 
    0.58061E+07         0.75821E+06         0.00000E+00
    0.75821E+06         0.17774E+08         0.00000E+00
    0.00000E+00         0.00000E+00         0.56100E+07
 
    0.58299E+07         0.79531E+06         0.00000E+00
    0.79531E+06         0.17802E+08         0.00000E+00
    0.00000E+00         0.00000E+00         0.56860E+07
 
    0.58553E+07         0.83343E+06         0.00000E+00
    0.83343E+06         0.17827E+08         0.00000E+00
    0.00000E+00         0.00000E+00         0.57541E+07
 
    0.58826E+07         0.87389E+06         0.00000E+00
    0.87389E+06         0.17851E+08         0.00000E+00
    0.00000E+00         0.00000E+00         0.58161E+07
 
    0.59119E+07         0.91564E+06         0.00000E+00
    0.91564E+06         0.17873E+08         0.00000E+00
    0.00000E+00         0.00000E+00         0.58744E+07
 
    0.59450E+07         0.95631E+06         0.00000E+00
    0.95631E+06         0.17895E+08         0.00000E+00
    0.00000E+00         0.00000E+00         0.59292E+07
 
    0.59830E+07         0.99538E+06         0.00000E+00
    0.99538E+06         0.17917E+08         0.00000E+00
    0.00000E+00         0.00000E+00         0.59796E+07
 
    0.72435E+07        -0.14585E+05         0.00000E+00
   -0.14585E+05         0.16259E+08         0.00000E+00
    0.00000E+00         0.00000E+00         0.47005E+07
 
    0.72429E+07        -0.37782E+05         0.00000E+00
   -0.37782E+05         0.16262E+08         0.00000E+00
    0.00000E+00         0.00000E+00         0.47010E+07
 
    0.72370E+07        -0.58406E+05         0.00000E+00
   -0.58406E+05         0.16268E+08         0.00000E+00
    0.00000E+00         0.00000E+00         0.47009E+07
 
    0.72261E+07        -0.76535E+05         0.00000E+00
   -0.76535E+05         0.16276E+08         0.00000E+00
    0.00000E+00         0.00000E+00         0.47004E+07
 
    0.72105E+07        -0.92172E+05         0.00000E+00
   -0.92172E+05         0.16286E+08         0.00000E+00
    0.00000E+00         0.00000E+00         0.46993E+07
 
    0.71904E+07        -0.10531E+06         0.00000E+00
   -0.10531E+06         0.16299E+08         0.00000E+00
    0.00000E+00         0.00000E+00         0.46978E+07
 
    0.71661E+07        -0.11596E+06         0.00000E+00
   -0.11596E+06         0.16314E+08         0.00000E+00
    0.00000E+00         0.00000E+00         0.46960E+07
 
    0.71378E+07        -0.12413E+06         0.00000E+00
   -0.12413E+06         0.16331E+08         0.00000E+00
    0.00000E+00         0.00000E+00         0.46937E+07
 
    0.71057E+07        -0.12982E+06         0.00000E+00
   -0.12982E+06         0.16349E+08         0.00000E+00
    0.00000E+00         0.00000E+00         0.46910E+07
 
    0.70702E+07        -0.13303E+06         0.00000E+00
   -0.13303E+06         0.16370E+08         0.00000E+00
    0.00000E+00         0.00000E+00         0.46880E+07
 
    0.70314E+07        -0.13379E+06         0.00000E+00
   -0.13379E+06         0.16392E+08         0.00000E+00
    0.00000E+00         0.00000E+00         0.46847E+07
 
    0.69896E+07        -0.13210E+06         0.00000E+00
   -0.13210E+06         0.16416E+08         0.00000E+00
    0.00000E+00         0.00000E+00         0.46811E+07
 
    0.69451E+07        -0.12794E+06         0.00000E+00
   -0.12794E+06         0.16441E+08         0.00000E+00
    0.00000E+00         0.00000E+00         0.46773E+07
 
    0.68980E+07        -0.12138E+06         0.00000E+00
   -0.12138E+06         0.16468E+08         0.00000E+00
    0.00000E+00         0.00000E+00         0.46732E+07
 
    0.68486E+07        -0.11250E+06         0.00000E+00
   -0.11250E+06         0.16496E+08         0.00000E+00
    0.00000E+00         0.00000E+00         0.46690E+07
 
    0.67971E+07        -0.10128E+06         0.00000E+00
   -0.10128E+06         0.16525E+08         0.00000E+00
    0.00000E+00         0.00000E+00         0.46645E+07
 
    0.67438E+07        -0.87708E+05         0.00000E+00
   -0.87708E+05         0.16556E+08         0.00000E+00
    0.00000E+00         0.00000E+00         0.46599E+07
 
    0.66888E+07        -0.71853E+05         0.00000E+00
   -0.71853E+05         0.16587E+08         0.00000E+00
    0.00000E+00         0.00000E+00         0.46552E+07
 
    0.66324E+07        -0.53788E+05         0.00000E+00
   -0.53788E+05         0.16620E+08         0.00000E+00
    0.00000E+00         0.00000E+00         0.46504E+07
 
    0.65748E+07        -0.33531E+05         0.00000E+00
   -0.33531E+05         0.16653E+08         0.00000E+00
    0.00000E+00         0.00000E+00         0.46455E+07
 
    0.65163E+07        -0.11175E+05         0.00000E+00
   -0.11175E+05         0.16687E+08         0.00000E+00
    0.00000E+00         0.00000E+00         0.46406E+07
 
    0.64569E+07         0.13127E+05         0.00000E+00
    0.13127E+05         0.16722E+08         0.00000E+00
    0.00000E+00         0.00000E+00         0.46357E+07
 
    0.63971E+07         0.39407E+05         0.00000E+00
    0.39407E+05         0.16757E+08         0.00000E+00
    0.00000E+00         0.00000E+00         0.46309E+07
 
    0.63369E+07         0.67708E+05         0.00000E+00
    0.67708E+05         0.16794E+08         0.00000E+00
    0.00000E+00         0.00000E+00         0.46261E+07
 
    0.62765E+07         0.97723E+05         0.00000E+00
    0.97723E+05         0.16831E+08         0.00000E+00
    0.00000E+00         0.00000E+00         0.46214E+07
 
    0.62161E+07         0.12936E+06         0.00000E+00
    0.12936E+06         0.16868E+08         0.00000E+00
    0.00000E+00         0.00000E+00         0.46168E+07
 
    0.61559E+07         0.16282E+06         0.00000E+00
    0.16282E+06         0.16906E+08         0.00000E+00
    0.00000E+00         0.00000E+00         0.46125E+07
 
    0.60962E+07         0.19821E+06         0.00000E+00
    0.19821E+06         0.16946E+08         0.00000E+00
    0.00000E+00         0.00000E+00         0.46084E+07
 
    0.60378E+07         0.23549E+06         0.00000E+00
    0.23549E+06         0.16985E+08         0.00000E+00
    0.00000E+00         0.00000E+00         0.46046E+07
 
    0.59803E+07         0.27417E+06         0.00000E+00
    0.27417E+06         0.17023E+08         0.00000E+00
    0.00000E+00         0.00000E+00         0.46006E+07
 
    0.59255E+07         0.31434E+06         0.00000E+00
    0.31434E+06         0.17062E+08         0.00000E+00
    0.00000E+00         0.00000E+00         0.45975E+07
 
    0.58731E+07         0.35482E+06         0.00000E+00
    0.35482E+06         0.17099E+08         0.00000E+00
    0.00000E+00         0.00000E+00         0.45944E+07
 
    0.58219E+07         0.39367E+06         0.00000E+00
    0.39367E+06         0.17135E+08         0.00000E+00
    0.00000E+00         0.00000E+00         0.45915E+07
 
    0.57714E+07         0.43147E+06         0.00000E+00
    0.43147E+06         0.17179E+08         0.00000E+00
    0.00000E+00         0.00000E+00         0.45901E+07
 
    0.57213E+07         0.46982E+06         0.00000E+00
    0.46982E+06         0.17239E+08         0.00000E+00
    0.00000E+00         0.00000E+00         0.45920E+07
 
    0.56668E+07         0.50936E+06         0.00000E+00
    0.50936E+06         0.17295E+08         0.00000E+00
    0.00000E+00         0.00000E+00         0.45968E+07
 
    0.56289E+07         0.55338E+06         0.00000E+00
    0.55338E+06         0.17340E+08         0.00000E+00
    0.00000E+00         0.00000E+00         0.46329E+07
 
    0.55809E+07         0.60486E+06         0.00000E+00
    0.60486E+06         0.17382E+08         0.00000E+00
    0.00000E+00         0.00000E+00         0.46663E+07
 
    0.55483E+07         0.66084E+06         0.00000E+00
    0.66084E+06         0.17393E+08         0.00000E+00
    0.00000E+00         0.00000E+00         0.47299E+07
 
    0.55109E+07         0.72003E+06         0.00000E+00
    0.72003E+06         0.17400E+08         0.00000E+00
    0.00000E+00         0.00000E+00         0.47954E+07
 
    0.54946E+07         0.77901E+06         0.00000E+00
    0.77901E+06         0.17422E+08         0.00000E+00
    0.00000E+00         0.00000E+00         0.48901E+07
 
    0.54814E+07         0.83152E+06         0.00000E+00
    0.83152E+06         0.17445E+08         0.00000E+00
    0.00000E+00         0.00000E+00         0.49896E+07
 
    0.54787E+07         0.87649E+06         0.00000E+00
    0.87649E+06         0.17474E+08         0.00000E+00
    0.00000E+00         0.00000E+00         0.50945E+07
 
    0.54881E+07         0.91344E+06         0.00000E+00
    0.91344E+06         0.17507E+08         0.00000E+00
    0.00000E+00         0.00000E+00         0.52009E+07
 
    0.55054E+07         0.94462E+06         0.00000E+00
    0.94462E+06         0.17541E+08         0.00000E+00
    0.00000E+00         0.00000E+00         0.52987E+07
 
    0.55340E+07         0.97384E+06         0.00000E+00
    0.97384E+06         0.17575E+08         0.00000E+00
    0.00000E+00         0.00000E+00         0.53910E+07
 
    0.55691E+07         0.10024E+07         0.00000E+00
    0.10024E+07         0.17609E+08         0.00000E+00
    0.00000E+00         0.00000E+00         0.54753E+07
 
    0.56059E+07         0.10323E+07         0.00000E+00
    0.10323E+07         0.17640E+08         0.00000E+00
    0.00000E+00         0.00000E+00         0.55495E+07
 
    0.56430E+07         0.10656E+07         0.00000E+00
    0.10656E+07         0.17667E+08         0.00000E+00
    0.00000E+00         0.00000E+00         0.56144E+07
 
    0.56801E+07         0.11034E+07         0.00000E+00
    0.11034E+07         0.17690E+08         0.00000E+00
    0.00000E+00         0.00000E+00         0.56712E+07
 
    0.66574E+07        -0.69092E+04         0.00000E+00
   -0.69092E+04         0.15760E+08         0.00000E+00
    0.00000E+00         0.00000E+00         0.44835E+07
 
    0.66677E+07        -0.16509E+05         0.00000E+00
   -0.16509E+05         0.15763E+08         0.00000E+00
    0.00000E+00         0.00000E+00         0.44862E+07
 
    0.66727E+07        -0.24291E+05         0.00000E+00
   -0.24291E+05         0.15769E+08         0.00000E+00
    0.00000E+00         0.00000E+00         0.44883E+07
 
    0.66728E+07        -0.30215E+05         0.00000E+00
   -0.30215E+05         0.15777E+08         0.00000E+00
    0.00000E+00         0.00000E+00         0.44900E+07
 
    0.66681E+07        -0.34259E+05         0.00000E+00
   -0.34259E+05         0.15787E+08         0.00000E+00
    0.00000E+00         0.00000E+00         0.44911E+07
 
    0.66590E+07        -0.36406E+05         0.00000E+00
   -0.36406E+05         0.15800E+08         0.00000E+00
    0.00000E+00         0.00000E+00         0.44918E+07
 
    0.66457E+07        -0.36636E+05         0.00000E+00
   -0.36636E+05         0.15815E+08         0.00000E+00
    0.00000E+00         0.00000E+00         0.44921E+07
 
    0.66285E+07        -0.34928E+05         0.00000E+00
   -0.34928E+05         0.15832E+08         0.00000E+00
    0.00000E+00         0.00000E+00         0.44920E+07
 
    0.66075E+07        -0.31268E+05         0.00000E+00
   -0.31268E+05         0.15850E+08         0.00000E+00
    0.00000E+00         0.00000E+00         0.44916E+07
 
    0.65831E+07        -0.25644E+05         0.00000E+00
   -0.25644E+05         0.15871E+08         0.00000E+00
    0.00000E+00         0.00000E+00         0.44908E+07
 
    0.65554E+07        -0.18042E+05         0.00000E+00
   -0.18042E+05         0.15893E+08         0.00000E+00
    0.00000E+00         0.00000E+00         0.44897E+07
 
    0.65246E+07        -0.84593E+04         0.00000E+00
   -0.84593E+04         0.15917E+08         0.00000E+00
    0.00000E+00         0.00000E+00         0.44884E+07
 
    0.64910E+07         0.30962E+04         0.00000E+00
    0.30962E+04         0.15943E+08         0.00000E+00
    0.00000E+00         0.00000E+00         0.44868E+07
 
    0.64549E+07         0.16631E+05         0.00000E+00
    0.16631E+05         0.15970E+08         0.00000E+00
    0.00000E+00         0.00000E+00         0.44849E+07
 
    0.64163E+07         0.32152E+05         0.00000E+00
    0.32152E+05         0.15998E+08         0.00000E+00
    0.00000E+00         0.00000E+00         0.44829E+07
 
    0.63755E+07         0.49637E+05         0.00000E+00
    0.49637E+05         0.16028E+08         0.00000E+00
    0.00000E+00         0.00000E+00         0.44806E+07
 
    0.63326E+07         0.69062E+05         0.00000E+00
    0.69062E+05         0.16059E+08         0.00000E+00
    0.00000E+00         0.00000E+00         0.44783E+07
 
    0.62880E+07         0.90411E+05         0.00000E+00
    0.90411E+05         0.16091E+08         0.00000E+00
    0.00000E+00         0.00000E+00         0.44758E+07
 
    0.62418E+07         0.11366E+06         0.00000E+00
    0.11366E+06         0.16124E+08         0.00000E+00
    0.00000E+00         0.00000E+00         0.44732E+07
 
    0.61942E+07         0.13877E+06         0.00000E+00
    0.13877E+06         0.16158E+08         0.00000E+00
    0.00000E+00         0.00000E+00         0.44705E+07
 
    0.61453E+07         0.16571E+06         0.00000E+00
    0.16571E+06         0.16194E+08         0.00000E+00
    0.00000E+00         0.00000E+00         0.44678E+07
 
    0.60954E+07         0.19447E+06         0.00000E+00
    0.19447E+06         0.16230E+08         0.00000E+00
    0.00000E+00         0.00000E+00         0.44651E+07
 
    0.60446E+07         0.22496E+06         0.00000E+00
    0.22496E+06         0.16267E+08         0.00000E+00
    0.00000E+00         0.00000E+00         0.44624E+07
 
    0.59932E+07         0.25711E+06         0.00000E+00
    0.25711E+06         0.16306E+08         0.00000E+00
    0.00000E+00         0.00000E+00         0.44598E+07
 
    0.59413E+07         0.29092E+06         0.00000E+00
    0.29092E+06         0.16345E+08         0.00000E+00
    0.00000E+00         0.00000E+00         0.44572E+07
 
    0.58892E+07         0.32636E+06         0.00000E+00
    0.32636E+06         0.16385E+08         0.00000E+00
    0.00000E+00         0.00000E+00         0.44547E+07
 
    0.58370E+07         0.36330E+06         0.00000E+00
    0.36330E+06         0.16425E+08         0.00000E+00
    0.00000E+00         0.00000E+00         0.44524E+07
 
    0.57851E+07         0.40162E+06         0.00000E+00
    0.40162E+06         0.16467E+08         0.00000E+00
    0.00000E+00         0.00000E+00         0.44503E+07
 
    0.57334E+07         0.44115E+06         0.00000E+00
    0.44115E+06         0.16508E+08         0.00000E+00
    0.00000E+00         0.00000E+00         0.44484E+07
 
    0.56823E+07         0.48194E+06         0.00000E+00
    0.48194E+06         0.16552E+08         0.00000E+00
    0.00000E+00         0.00000E+00         0.44468E+07
 
    0.56317E+07         0.52375E+06         0.00000E+00
    0.52375E+06         0.16595E+08         0.00000E+00
    0.00000E+00         0.00000E+00         0.44454E+07
 
    0.55820E+07         0.56656E+06         0.00000E+00
    0.56656E+06         0.16640E+08         0.00000E+00
    0.00000E+00         0.00000E+00         0.44443E+07
 
    0.55336E+07         0.61080E+06         0.00000E+00
    0.61080E+06         0.16685E+08         0.00000E+00
    0.00000E+00         0.00000E+00         0.44438E+07
 
    0.54872E+07         0.65620E+06         0.00000E+00
    0.65620E+06         0.16730E+08         0.00000E+00
    0.00000E+00         0.00000E+00         0.44435E+07
 
    0.54429E+07         0.70188E+06         0.00000E+00
    0.70188E+06         0.16773E+08         0.00000E+00
    0.00000E+00         0.00000E+00         0.44432E+07
 
    0.54026E+07         0.74773E+06         0.00000E+00
    0.74773E+06         0.16817E+08         0.00000E+00
    0.00000E+00         0.00000E+00         0.44440E+07
 
    0.53646E+07         0.79081E+06         0.00000E+00
    0.79081E+06         0.16858E+08         0.00000E+00
    0.00000E+00         0.00000E+00         0.44446E+07
 
    0.53264E+07         0.82921E+06         0.00000E+00
    0.82921E+06         0.16900E+08         0.00000E+00
    0.00000E+00         0.00000E+00         0.44453E+07
 
    0.52914E+07         0.86639E+06         0.00000E+00
    0.86639E+06         0.16972E+08         0.00000E+00
    0.00000E+00         0.00000E+00         0.44526E+07
 
    0.52470E+07         0.90215E+06         0.00000E+00
    0.90215E+06         0.17043E+08         0.00000E+00
    0.00000E+00         0.00000E+00         0.44579E+07
 
    0.52231E+07         0.93957E+06         0.00000E+00
    0.93957E+06         0.17103E+08         0.00000E+00
    0.00000E+00         0.00000E+00         0.44997E+07
 
    0.51929E+07         0.98317E+06         0.00000E+00
    0.98317E+06         0.17158E+08         0.00000E+00
    0.00000E+00         0.00000E+00         0.45440E+07
 
    0.51760E+07         0.10296E+07         0.00000E+00
    0.10296E+07         0.17185E+08         0.00000E+00
    0.00000E+00         0.00000E+00         0.46145E+07
 
    0.51605E+07         0.10770E+07         0.00000E+00
    0.10770E+07         0.17199E+08         0.00000E+00
    0.00000E+00         0.00000E+00         0.46937E+07
 
    0.51665E+07         0.11229E+07         0.00000E+00
    0.11229E+07         0.17228E+08         0.00000E+00
    0.00000E+00         0.00000E+00         0.48005E+07
 
    0.51798E+07         0.11603E+07         0.00000E+00
    0.11603E+07         0.17263E+08         0.00000E+00
    0.00000E+00         0.00000E+00         0.49146E+07
 
    0.52042E+07         0.11875E+07         0.00000E+00
    0.11875E+07         0.17303E+08         0.00000E+00
    0.00000E+00         0.00000E+00         0.50304E+07
 
    0.52419E+07         0.12061E+07         0.00000E+00
    0.12061E+07         0.17348E+08         0.00000E+00
    0.00000E+00         0.00000E+00         0.51432E+07
 
    0.52856E+07         0.12207E+07         0.00000E+00
    0.12207E+07         0.17390E+08         0.00000E+00
    0.00000E+00         0.00000E+00         0.52385E+07
 
    0.53337E+07         0.12379E+07         0.00000E+00
    0.12379E+07         0.17428E+08         0.00000E+00
    0.00000E+00         0.00000E+00         0.53204E+07
 
    0.61404E+07         0.61404E+03         0.00000E+00
    0.61404E+03         0.15262E+08         0.00000E+00
    0.00000E+00         0.00000E+00         0.42804E+07
 
    0.61580E+07         0.42463E+04         0.00000E+00
    0.42463E+04         0.15264E+08         0.00000E+00
    0.00000E+00         0.00000E+00         0.42845E+07
 
    0.61705E+07         0.90163E+04         0.00000E+00
    0.90163E+04         0.15270E+08         0.00000E+00
    0.00000E+00         0.00000E+00         0.42881E+07
 
    0.61783E+07         0.14991E+05         0.00000E+00
    0.14991E+05         0.15277E+08         0.00000E+00
    0.00000E+00         0.00000E+00         0.42912E+07
 
    0.61816E+07         0.22239E+05         0.00000E+00
    0.22239E+05         0.15287E+08         0.00000E+00
    0.00000E+00         0.00000E+00         0.42938E+07
 
    0.61807E+07         0.30819E+05         0.00000E+00
    0.30819E+05         0.15300E+08         0.00000E+00
    0.00000E+00         0.00000E+00         0.42960E+07
 
    0.61757E+07         0.40784E+05         0.00000E+00
    0.40784E+05         0.15314E+08         0.00000E+00
    0.00000E+00         0.00000E+00         0.42979E+07
 
    0.61669E+07         0.52183E+05         0.00000E+00
    0.52183E+05         0.15330E+08         0.00000E+00
    0.00000E+00         0.00000E+00         0.42993E+07
 
    0.61546E+07         0.65058E+05         0.00000E+00
    0.65058E+05         0.15348E+08         0.00000E+00
    0.00000E+00         0.00000E+00         0.43004E+07
 
    0.61389E+07         0.79446E+05         0.00000E+00
    0.79446E+05         0.15367E+08         0.00000E+00
    0.00000E+00         0.00000E+00         0.43012E+07
 
    0.61200E+07         0.95378E+05         0.00000E+00
    0.95378E+05         0.15389E+08         0.00000E+00
    0.00000E+00         0.00000E+00         0.43017E+07
 
    0.60981E+07         0.11288E+06         0.00000E+00
    0.11288E+06         0.15411E+08         0.00000E+00
    0.00000E+00         0.00000E+00         0.43019E+07
 
    0.60735E+07         0.13199E+06         0.00000E+00
    0.13199E+06         0.15436E+08         0.00000E+00
    0.00000E+00         0.00000E+00         0.43019E+07
 
    0.60463E+07         0.15270E+06         0.00000E+00
    0.15270E+06         0.15462E+08         0.00000E+00
    0.00000E+00         0.00000E+00         0.43016E+07
 
    0.60167E+07         0.17505E+06         0.00000E+00
    0.17505E+06         0.15489E+08         0.00000E+00
    0.00000E+00         0.00000E+00         0.43011E+07
 
    0.59848E+07         0.19902E+06         0.00000E+00
    0.19902E+06         0.15518E+08         0.00000E+00
    0.00000E+00         0.00000E+00         0.43005E+07
 
    0.59509E+07         0.22464E+06         0.00000E+00
    0.22464E+06         0.15547E+08         0.00000E+00
    0.00000E+00         0.00000E+00         0.42997E+07
 
    0.59152E+07         0.25189E+06         0.00000E+00
    0.25189E+06         0.15578E+08         0.00000E+00
    0.00000E+00         0.00000E+00         0.42987E+07
 
    0.58777E+07         0.28077E+06         0.00000E+00
    0.28077E+06         0.15611E+08         0.00000E+00
    0.00000E+00         0.00000E+00         0.42977E+07
 
    0.58387E+07         0.31127E+06         0.00000E+00
    0.31127E+06         0.15644E+08         0.00000E+00
    0.00000E+00         0.00000E+00         0.42965E+07
 
    0.57983E+07         0.34337E+06         0.00000E+00
    0.34337E+06         0.15678E+08         0.00000E+00
    0.00000E+00         0.00000E+00         0.42953E+07
 
    0.57567E+07         0.37703E+06         0.00000E+00
    0.37703E+06         0.15714E+08         0.00000E+00
    0.00000E+00         0.00000E+00         0.42940E+07
 
    0.57140E+07         0.41225E+06         0.00000E+00
    0.41225E+06         0.15750E+08         0.00000E+00
    0.00000E+00         0.00000E+00         0.42928E+07
 
    0.56705E+07         0.44900E+06         0.00000E+00
    0.44900E+06         0.15787E+08         0.00000E+00
    0.00000E+00         0.00000E+00         0.42915E+07
 
    0.56262E+07         0.48721E+06         0.00000E+00
    0.48721E+06         0.15825E+08         0.00000E+00
    0.00000E+00         0.00000E+00         0.42903E+07
 
    0.55814E+07         0.52683E+06         0.00000E+00
    0.52683E+06         0.15864E+08         0.00000E+00
    0.00000E+00         0.00000E+00         0.42891E+07
 
    0.55361E+07         0.56781E+06         0.00000E+00
    0.56781E+06         0.15904E+08         0.00000E+00
    0.00000E+00         0.00000E+00         0.42880E+07
 
    0.54906E+07         0.61008E+06         0.00000E+00
    0.61008E+06         0.15945E+08         0.00000E+00
    0.00000E+00         0.00000E+00         0.42870E+07
 
    0.54450E+07         0.65360E+06         0.00000E+00
    0.65360E+06         0.15986E+08         0.00000E+00
    0.00000E+00         0.00000E+00         0.42862E+07
 
    0.53994E+07         0.69823E+06         0.00000E+00
    0.69823E+06         0.16028E+08         0.00000E+00
    0.00000E+00         0.00000E+00         0.42855E+07
 
    0.53540E+07         0.74391E+06         0.00000E+00
    0.74391E+06         0.16071E+08         0.00000E+00
    0.00000E+00         0.00000E+00         0.42850E+07
 
    0.53090E+07         0.79055E+06         0.00000E+00
    0.79055E+06         0.16115E+08         0.00000E+00
    0.00000E+00         0.00000E+00         0.42848E+07
 
    0.52645E+07         0.83783E+06         0.00000E+00
    0.83783E+06         0.16159E+08         0.00000E+00
    0.00000E+00         0.00000E+00         0.42848E+07
 
    0.52206E+07         0.88560E+06         0.00000E+00
    0.88560E+06         0.16205E+08         0.00000E+00
    0.00000E+00         0.00000E+00         0.42850E+07
 
    0.51774E+07         0.93388E+06         0.00000E+00
    0.93388E+06         0.16251E+08         0.00000E+00
    0.00000E+00         0.00000E+00         0.42857E+07
 
    0.51346E+07         0.98230E+06         0.00000E+00
    0.98230E+06         0.16298E+08         0.00000E+00
    0.00000E+00         0.00000E+00         0.42866E+07
 
    0.50928E+07         0.10312E+07         0.00000E+00
    0.10312E+07         0.16347E+08         0.00000E+00
    0.00000E+00         0.00000E+00         0.42880E+07
 
    0.50530E+07         0.10812E+07         0.00000E+00
    0.10812E+07         0.16398E+08         0.00000E+00
    0.00000E+00         0.00000E+00         0.42902E+07
 
    0.50145E+07         0.11305E+07         0.00000E+00
    0.11305E+07         0.16444E+08         0.00000E+00
    0.00000E+00         0.00000E+00         0.42916E+07
 
    0.49801E+07         0.11791E+07         0.00000E+00
    0.11791E+07         0.16492E+08         0.00000E+00
    0.00000E+00         0.00000E+00         0.42945E+07
 
    0.49481E+07         0.12236E+07         0.00000E+00
    0.12236E+07         0.16538E+08         0.00000E+00
    0.00000E+00         0.00000E+00         0.42972E+07
 
    0.49152E+07         0.12608E+07         0.00000E+00
    0.12608E+07         0.16585E+08         0.00000E+00
    0.00000E+00         0.00000E+00         0.43000E+07
 
    0.48834E+07         0.12945E+07         0.00000E+00
    0.12945E+07         0.16661E+08         0.00000E+00
    0.00000E+00         0.00000E+00         0.43089E+07
 
    0.48419E+07         0.13244E+07         0.00000E+00
    0.13244E+07         0.16748E+08         0.00000E+00
    0.00000E+00         0.00000E+00         0.43180E+07
 
    0.48207E+07         0.13525E+07         0.00000E+00
    0.13525E+07         0.16825E+08         0.00000E+00
    0.00000E+00         0.00000E+00         0.43634E+07
 
    0.47993E+07         0.13841E+07         0.00000E+00
    0.13841E+07         0.16898E+08         0.00000E+00
    0.00000E+00         0.00000E+00         0.44188E+07
 
    0.47949E+07         0.14144E+07         0.00000E+00
    0.14144E+07         0.16940E+08         0.00000E+00
    0.00000E+00         0.00000E+00         0.45017E+07
 
    0.47994E+07         0.14402E+07         0.00000E+00
    0.14402E+07         0.16966E+08         0.00000E+00
    0.00000E+00         0.00000E+00         0.45964E+07
 
    0.48382E+07         0.14586E+07         0.00000E+00
    0.14586E+07         0.17015E+08         0.00000E+00
    0.00000E+00         0.00000E+00         0.47248E+07
 
    0.48906E+07         0.14592E+07         0.00000E+00
    0.14592E+07         0.17074E+08         0.00000E+00
    0.00000E+00         0.00000E+00         0.48566E+07
 
    0.56891E+07         0.75323E+04         0.00000E+00
    0.75323E+04         0.14763E+08         0.00000E+00
    0.00000E+00         0.00000E+00         0.40904E+07
 
    0.57106E+07         0.23435E+05         0.00000E+00
    0.23435E+05         0.14766E+08         0.00000E+00
    0.00000E+00         0.00000E+00         0.40952E+07
 
    0.57275E+07         0.39859E+05         0.00000E+00
    0.39859E+05         0.14770E+08         0.00000E+00
    0.00000E+00         0.00000E+00         0.40996E+07
 
    0.57400E+07         0.56918E+05         0.00000E+00
    0.56918E+05         0.14777E+08         0.00000E+00
    0.00000E+00         0.00000E+00         0.41035E+07
 
    0.57485E+07         0.74711E+05         0.00000E+00
    0.74711E+05         0.14786E+08         0.00000E+00
    0.00000E+00         0.00000E+00         0.41069E+07
 
    0.57531E+07         0.93329E+05         0.00000E+00
    0.93329E+05         0.14797E+08         0.00000E+00
    0.00000E+00         0.00000E+00         0.41101E+07
 
    0.57540E+07         0.11285E+06         0.00000E+00
    0.11285E+06         0.14810E+08         0.00000E+00
    0.00000E+00         0.00000E+00         0.41128E+07
 
    0.57513E+07         0.13336E+06         0.00000E+00
    0.13336E+06         0.14825E+08         0.00000E+00
    0.00000E+00         0.00000E+00         0.41152E+07
 
    0.57454E+07         0.15491E+06         0.00000E+00
    0.15491E+06         0.14841E+08         0.00000E+00
    0.00000E+00         0.00000E+00         0.41173E+07
 
    0.57363E+07         0.17756E+06         0.00000E+00
    0.17756E+06         0.14859E+08         0.00000E+00
    0.00000E+00         0.00000E+00         0.41190E+07
 
    0.57243E+07         0.20138E+06         0.00000E+00
    0.20138E+06         0.14878E+08         0.00000E+00
    0.00000E+00         0.00000E+00         0.41205E+07
 
    0.57094E+07         0.22639E+06         0.00000E+00
    0.22639E+06         0.14899E+08         0.00000E+00
    0.00000E+00         0.00000E+00         0.41217E+07
 
    0.56919E+07         0.25266E+06         0.00000E+00
    0.25266E+06         0.14921E+08         0.00000E+00
    0.00000E+00         0.00000E+00         0.41227E+07
 
    0.56720E+07         0.28020E+06         0.00000E+00
    0.28020E+06         0.14945E+08         0.00000E+00
    0.00000E+00         0.00000E+00         0.41234E+07
 
    0.56497E+07         0.30905E+06         0.00000E+00
    0.30905E+06         0.14970E+08         0.00000E+00
    0.00000E+00         0.00000E+00         0.41239E+07
 
    0.56253E+07         0.33924E+06         0.00000E+00
    0.33924E+06         0.14996E+08         0.00000E+00
    0.00000E+00         0.00000E+00         0.41243E+07
 
    0.55989E+07         0.37078E+06         0.00000E+00
    0.37078E+06         0.15023E+08         0.00000E+00
    0.00000E+00         0.00000E+00         0.41245E+07
 
    0.55706E+07         0.40368E+06         0.00000E+00
    0.40368E+06         0.15052E+08         0.00000E+00
    0.00000E+00         0.00000E+00         0.41245E+07
 
    0.55406E+07         0.43796E+06         0.00000E+00
    0.43796E+06         0.15081E+08         0.00000E+00
    0.00000E+00         0.00000E+00         0.41244E+07
 
    0.55090E+07         0.47361E+06         0.00000E+00
    0.47361E+06         0.15112E+08         0.00000E+00
    0.00000E+00         0.00000E+00         0.41241E+07
 
    0.54760E+07         0.51064E+06         0.00000E+00
    0.51064E+06         0.15143E+08         0.00000E+00
    0.00000E+00         0.00000E+00         0.41238E+07
 
    0.54417E+07         0.54903E+06         0.00000E+00
    0.54903E+06         0.15175E+08         0.00000E+00
    0.00000E+00         0.00000E+00         0.41234E+07
 
    0.54062E+07         0.58878E+06         0.00000E+00
    0.58878E+06         0.15208E+08         0.00000E+00
    0.00000E+00         0.00000E+00         0.41229E+07
 
    0.53697E+07         0.62987E+06         0.00000E+00
    0.62987E+06         0.15242E+08         0.00000E+00
    0.00000E+00         0.00000E+00         0.41224E+07
 
    0.53323E+07         0.67226E+06         0.00000E+00
    0.67226E+06         0.15277E+08         0.00000E+00
    0.00000E+00         0.00000E+00         0.41219E+07
 
    0.52940E+07         0.71593E+06         0.00000E+00
    0.71593E+06         0.15313E+08         0.00000E+00
    0.00000E+00         0.00000E+00         0.41213E+07
 
    0.52551E+07         0.76085E+06         0.00000E+00
    0.76085E+06         0.15349E+08         0.00000E+00
    0.00000E+00         0.00000E+00         0.41208E+07
 
    0.52156E+07         0.80697E+06         0.00000E+00
    0.80697E+06         0.15386E+08         0.00000E+00
    0.00000E+00         0.00000E+00         0.41203E+07
 
    0.51757E+07         0.85423E+06         0.00000E+00
    0.85423E+06         0.15423E+08         0.00000E+00
    0.00000E+00         0.00000E+00         0.41198E+07
 
    0.51354E+07         0.90258E+06         0.00000E+00
    0.90258E+06         0.15462E+08         0.00000E+00
    0.00000E+00         0.00000E+00         0.41194E+07
 
    0.50949E+07         0.95195E+06         0.00000E+00
    0.95195E+06         0.15501E+08         0.00000E+00
    0.00000E+00         0.00000E+00         0.41191E+07
 
    0.50541E+07         0.10022E+07         0.00000E+00
    0.10022E+07         0.15540E+08         0.00000E+00
    0.00000E+00         0.00000E+00         0.41189E+07
 
    0.50133E+07         0.10534E+07         0.00000E+00
    0.10534E+07         0.15581E+08         0.00000E+00
    0.00000E+00         0.00000E+00         0.41188E+07
 
    0.49724E+07         0.11054E+07         0.00000E+00
    0.11054E+07         0.15621E+08         0.00000E+00
    0.00000E+00         0.00000E+00         0.41188E+07
 
    0.49315E+07         0.11580E+07         0.00000E+00
    0.11580E+07         0.15663E+08         0.00000E+00
    0.00000E+00         0.00000E+00         0.41189E+07
 
    0.48909E+07         0.12112E+07         0.00000E+00
    0.12112E+07         0.15705E+08         0.00000E+00
    0.00000E+00         0.00000E+00         0.41192E+07
 
    0.48504E+07         0.12648E+07         0.00000E+00
    0.12648E+07         0.15748E+08         0.00000E+00
    0.00000E+00         0.00000E+00         0.41197E+07
 
    0.48099E+07         0.13183E+07         0.00000E+00
    0.13183E+07         0.15792E+08         0.00000E+00
    0.00000E+00         0.00000E+00         0.41203E+07
 
    0.47695E+07         0.13719E+07         0.00000E+00
    0.13719E+07         0.15837E+08         0.00000E+00
    0.00000E+00         0.00000E+00         0.41213E+07
 
    0.47286E+07         0.14254E+07         0.00000E+00
    0.14254E+07         0.15883E+08         0.00000E+00
    0.00000E+00         0.00000E+00         0.41223E+07
 
    0.46875E+07         0.14789E+07         0.00000E+00
    0.14789E+07         0.15931E+08         0.00000E+00
    0.00000E+00         0.00000E+00         0.41237E+07
 
    0.46472E+07         0.15334E+07         0.00000E+00
    0.15334E+07         0.15981E+08         0.00000E+00
    0.00000E+00         0.00000E+00         0.41257E+07
 
    0.46070E+07         0.15870E+07         0.00000E+00
    0.15870E+07         0.16027E+08         0.00000E+00
    0.00000E+00         0.00000E+00         0.41269E+07
 
    0.45692E+07         0.16396E+07         0.00000E+00
    0.16396E+07         0.16075E+08         0.00000E+00
    0.00000E+00         0.00000E+00         0.41289E+07
 
    0.45320E+07         0.16873E+07         0.00000E+00
    0.16873E+07         0.16121E+08         0.00000E+00
    0.00000E+00         0.00000E+00         0.41306E+07
 
    0.44909E+07         0.17256E+07         0.00000E+00
    0.17256E+07         0.16169E+08         0.00000E+00
    0.00000E+00         0.00000E+00         0.41319E+07
 
    0.44469E+07         0.17586E+07         0.00000E+00
    0.17586E+07         0.16251E+08         0.00000E+00
    0.00000E+00         0.00000E+00         0.41396E+07
 
    0.43869E+07         0.17853E+07         0.00000E+00
    0.17853E+07         0.16352E+08         0.00000E+00
    0.00000E+00         0.00000E+00         0.41477E+07
 
    0.43552E+07         0.18057E+07         0.00000E+00
    0.18057E+07         0.16443E+08         0.00000E+00
    0.00000E+00         0.00000E+00         0.42044E+07
 
    0.43238E+07         0.18251E+07         0.00000E+00
    0.18251E+07         0.16532E+08         0.00000E+00
    0.00000E+00         0.00000E+00         0.42724E+07
 
    0.52971E+07         0.13525E+05         0.00000E+00
    0.13525E+05         0.14264E+08         0.00000E+00
    0.00000E+00         0.00000E+00         0.39123E+07
 
    0.53195E+07         0.40215E+05         0.00000E+00
    0.40215E+05         0.14267E+08         0.00000E+00
    0.00000E+00         0.00000E+00         0.39172E+07
 
    0.53381E+07         0.66947E+05         0.00000E+00
    0.66947E+05         0.14271E+08         0.00000E+00
    0.00000E+00         0.00000E+00         0.39217E+07
 
    0.53529E+07         0.93853E+05         0.00000E+00
    0.93853E+05         0.14277E+08         0.00000E+00
    0.00000E+00         0.00000E+00         0.39259E+07
 
    0.53642E+07         0.12105E+06         0.00000E+00
    0.12105E+06         0.14284E+08         0.00000E+00
    0.00000E+00         0.00000E+00         0.39297E+07
 
    0.53720E+07         0.14865E+06         0.00000E+00
    0.14865E+06         0.14294E+08         0.00000E+00
    0.00000E+00         0.00000E+00         0.39331E+07
 
    0.53766E+07         0.17676E+06         0.00000E+00
    0.17676E+06         0.14305E+08         0.00000E+00
    0.00000E+00         0.00000E+00         0.39363E+07
 
    0.53780E+07         0.20545E+06         0.00000E+00
    0.20545E+06         0.14317E+08         0.00000E+00
    0.00000E+00         0.00000E+00         0.39391E+07
 
    0.53765E+07         0.23482E+06         0.00000E+00
    0.23482E+06         0.14332E+08         0.00000E+00
    0.00000E+00         0.00000E+00         0.39416E+07
 
    0.53722E+07         0.26493E+06         0.00000E+00
    0.26493E+06         0.14347E+08         0.00000E+00
    0.00000E+00         0.00000E+00         0.39439E+07
 
    0.53652E+07         0.29586E+06         0.00000E+00
    0.29586E+06         0.14364E+08         0.00000E+00
    0.00000E+00         0.00000E+00         0.39458E+07
 
    0.53556E+07         0.32766E+06         0.00000E+00
    0.32766E+06         0.14382E+08         0.00000E+00
    0.00000E+00         0.00000E+00         0.39476E+07
 
    0.53437E+07         0.36038E+06         0.00000E+00
    0.36038E+06         0.14402E+08         0.00000E+00
    0.00000E+00         0.00000E+00         0.39491E+07
 
    0.53294E+07         0.39406E+06         0.00000E+00
    0.39406E+06         0.14422E+08         0.00000E+00
    0.00000E+00         0.00000E+00         0.39504E+07
 
    0.53130E+07         0.42876E+06         0.00000E+00
    0.42876E+06         0.14444E+08         0.00000E+00
    0.00000E+00         0.00000E+00         0.39514E+07
 
    0.52946E+07         0.46451E+06         0.00000E+00
    0.46451E+06         0.14467E+08         0.00000E+00
    0.00000E+00         0.00000E+00         0.39523E+07
 
    0.52742E+07         0.50132E+06         0.00000E+00
    0.50132E+06         0.14491E+08         0.00000E+00
    0.00000E+00         0.00000E+00         0.39530E+07
 
    0.52521E+07         0.53923E+06         0.00000E+00
    0.53923E+06         0.14516E+08         0.00000E+00
    0.00000E+00         0.00000E+00         0.39535E+07
 
    0.52283E+07         0.57826E+06         0.00000E+00
    0.57826E+06         0.14541E+08         0.00000E+00
    0.00000E+00         0.00000E+00         0.39539E+07
 
    0.52030E+07         0.61842E+06         0.00000E+00
    0.61842E+06         0.14568E+08         0.00000E+00
    0.00000E+00         0.00000E+00         0.39542E+07
 
    0.51763E+07         0.65971E+06         0.00000E+00
    0.65971E+06         0.14595E+08         0.00000E+00
    0.00000E+00         0.00000E+00         0.39543E+07
 
    0.51482E+07         0.70213E+06         0.00000E+00
    0.70213E+06         0.14623E+08         0.00000E+00
    0.00000E+00         0.00000E+00         0.39543E+07
 
    0.51189E+07         0.74570E+06         0.00000E+00
    0.74570E+06         0.14652E+08         0.00000E+00
    0.00000E+00         0.00000E+00         0.39542E+07
 
    0.50884E+07         0.79039E+06         0.00000E+00
    0.79039E+06         0.14681E+08         0.00000E+00
    0.00000E+00         0.00000E+00         0.39540E+07
 
    0.50570E+07         0.83620E+06         0.00000E+00
    0.83620E+06         0.14711E+08         0.00000E+00
    0.00000E+00         0.00000E+00         0.39537E+07
 
    0.50246E+07         0.88310E+06         0.00000E+00
    0.88310E+06         0.14742E+08         0.00000E+00
    0.00000E+00         0.00000E+00         0.39533E+07
 
    0.49914E+07         0.93108E+06         0.00000E+00
    0.93108E+06         0.14773E+08         0.00000E+00
    0.00000E+00         0.00000E+00         0.39529E+07
 
    0.49573E+07         0.98010E+06         0.00000E+00
    0.98010E+06         0.14805E+08         0.00000E+00
    0.00000E+00         0.00000E+00         0.39524E+07
 
    0.49227E+07         0.10301E+07         0.00000E+00
    0.10301E+07         0.14837E+08         0.00000E+00
    0.00000E+00         0.00000E+00         0.39519E+07
 
    0.48873E+07         0.10811E+07         0.00000E+00
    0.10811E+07         0.14869E+08         0.00000E+00
    0.00000E+00         0.00000E+00         0.39513E+07
 
    0.48515E+07         0.11331E+07         0.00000E+00
    0.11331E+07         0.14902E+08         0.00000E+00
    0.00000E+00         0.00000E+00         0.39507E+07
 
    0.48151E+07         0.11859E+07         0.00000E+00
    0.11859E+07         0.14935E+08         0.00000E+00
    0.00000E+00         0.00000E+00         0.39501E+07
 
    0.47782E+07         0.12395E+07         0.00000E+00
    0.12395E+07         0.14969E+08         0.00000E+00
    0.00000E+00         0.00000E+00         0.39494E+07
 
    0.47409E+07         0.12938E+07         0.00000E+00
    0.12938E+07         0.15003E+08         0.00000E+00
    0.00000E+00         0.00000E+00         0.39487E+07
 
    0.47031E+07         0.13489E+07         0.00000E+00
    0.13489E+07         0.15037E+08         0.00000E+00
    0.00000E+00         0.00000E+00         0.39480E+07
 
    0.46649E+07         0.14045E+07         0.00000E+00
    0.14045E+07         0.15071E+08         0.00000E+00
    0.00000E+00         0.00000E+00         0.39473E+07
 
    0.46262E+07         0.14606E+07         0.00000E+00
    0.14606E+07         0.15106E+08         0.00000E+00
    0.00000E+00         0.00000E+00         0.39464E+07
 
    0.45870E+07         0.15172E+07         0.00000E+00
    0.15172E+07         0.15141E+08         0.00000E+00
    0.00000E+00         0.00000E+00         0.39456E+07
 
    0.45471E+07         0.15741E+07         0.00000E+00
    0.15741E+07         0.15176E+08         0.00000E+00
    0.00000E+00         0.00000E+00         0.39446E+07
 
    0.45066E+07         0.16312E+07         0.00000E+00
    0.16312E+07         0.15212E+08         0.00000E+00
    0.00000E+00         0.00000E+00         0.39436E+07
 
    0.44653E+07         0.16884E+07         0.00000E+00
    0.16884E+07         0.15247E+08         0.00000E+00
    0.00000E+00         0.00000E+00         0.39425E+07
 
    0.44228E+07         0.17452E+07         0.00000E+00
    0.17452E+07         0.15282E+08         0.00000E+00
    0.00000E+00         0.00000E+00         0.39410E+07
 
    0.43787E+07         0.18017E+07         0.00000E+00
    0.18017E+07         0.15319E+08         0.00000E+00
    0.00000E+00         0.00000E+00         0.39396E+07
 
    0.43320E+07         0.18575E+07         0.00000E+00
    0.18575E+07         0.15356E+08         0.00000E+00
    0.00000E+00         0.00000E+00         0.39376E+07
 
    0.42823E+07         0.19133E+07         0.00000E+00
    0.19133E+07         0.15394E+08         0.00000E+00
    0.00000E+00         0.00000E+00         0.39353E+07
 
    0.42300E+07         0.19699E+07         0.00000E+00
    0.19699E+07         0.15434E+08         0.00000E+00
    0.00000E+00         0.00000E+00         0.39328E+07
 
    0.41734E+07         0.20257E+07         0.00000E+00
    0.20257E+07         0.15468E+08         0.00000E+00
    0.00000E+00         0.00000E+00         0.39283E+07
 
    0.41132E+07         0.20804E+07         0.00000E+00
    0.20804E+07         0.15502E+08         0.00000E+00
    0.00000E+00         0.00000E+00         0.39231E+07
 
    0.40435E+07         0.21284E+07         0.00000E+00
    0.21284E+07         0.15531E+08         0.00000E+00
    0.00000E+00         0.00000E+00         0.39149E+07
 
    0.39499E+07         0.21639E+07         0.00000E+00
    0.21639E+07         0.15561E+08         0.00000E+00
    0.00000E+00         0.00000E+00         0.39022E+07
 
    0.49556E+07         0.18431E+05         0.00000E+00
    0.18431E+05         0.13766E+08         0.00000E+00
    0.00000E+00         0.00000E+00         0.37443E+07
 
    0.49771E+07         0.54151E+05         0.00000E+00
    0.54151E+05         0.13767E+08         0.00000E+00
    0.00000E+00         0.00000E+00         0.37489E+07
 
    0.49953E+07         0.89581E+05         0.00000E+00
    0.89581E+05         0.13771E+08         0.00000E+00
    0.00000E+00         0.00000E+00         0.37532E+07
 
    0.50104E+07         0.12485E+06         0.00000E+00
    0.12485E+06         0.13776E+08         0.00000E+00
    0.00000E+00         0.00000E+00         0.37572E+07
 
    0.50226E+07         0.16009E+06         0.00000E+00
    0.16009E+06         0.13782E+08         0.00000E+00
    0.00000E+00         0.00000E+00         0.37609E+07
 
    0.50318E+07         0.19542E+06         0.00000E+00
    0.19542E+06         0.13790E+08         0.00000E+00
    0.00000E+00         0.00000E+00         0.37643E+07
 
    0.50383E+07         0.23092E+06         0.00000E+00
    0.23092E+06         0.13799E+08         0.00000E+00
    0.00000E+00         0.00000E+00         0.37675E+07
 
    0.50421E+07         0.26670E+06         0.00000E+00
    0.26670E+06         0.13809E+08         0.00000E+00
    0.00000E+00         0.00000E+00         0.37703E+07
 
    0.50434E+07         0.30285E+06         0.00000E+00
    0.30285E+06         0.13821E+08         0.00000E+00
    0.00000E+00         0.00000E+00         0.37729E+07
 
    0.50422E+07         0.33945E+06         0.00000E+00
    0.33945E+06         0.13834E+08         0.00000E+00
    0.00000E+00         0.00000E+00         0.37753E+07
 
    0.50386E+07         0.37655E+06         0.00000E+00
    0.37655E+06         0.13848E+08         0.00000E+00
    0.00000E+00         0.00000E+00         0.37774E+07
 
    0.50328E+07         0.41424E+06         0.00000E+00
    0.41424E+06         0.13864E+08         0.00000E+00
    0.00000E+00         0.00000E+00         0.37793E+07
 
    0.50248E+07         0.45256E+06         0.00000E+00
    0.45256E+06         0.13880E+08         0.00000E+00
    0.00000E+00         0.00000E+00         0.37810E+07
 
    0.50148E+07         0.49157E+06         0.00000E+00
    0.49157E+06         0.13897E+08         0.00000E+00
    0.00000E+00         0.00000E+00         0.37824E+07
 
    0.50028E+07         0.53131E+06         0.00000E+00
    0.53131E+06         0.13916E+08         0.00000E+00
    0.00000E+00         0.00000E+00         0.37837E+07
 
    0.49889E+07         0.57182E+06         0.00000E+00
    0.57182E+06         0.13935E+08         0.00000E+00
    0.00000E+00         0.00000E+00         0.37848E+07
 
    0.49734E+07         0.61314E+06         0.00000E+00
    0.61314E+06         0.13955E+08         0.00000E+00
    0.00000E+00         0.00000E+00         0.37857E+07
 
    0.49561E+07         0.65529E+06         0.00000E+00
    0.65529E+06         0.13976E+08         0.00000E+00
    0.00000E+00         0.00000E+00         0.37864E+07
 
    0.49373E+07         0.69830E+06         0.00000E+00
    0.69830E+06         0.13997E+08         0.00000E+00
    0.00000E+00         0.00000E+00         0.37869E+07
 
    0.49170E+07         0.74218E+06         0.00000E+00
    0.74218E+06         0.14020E+08         0.00000E+00
    0.00000E+00         0.00000E+00         0.37873E+07
 
    0.48953E+07         0.78695E+06         0.00000E+00
    0.78695E+06         0.14043E+08         0.00000E+00
    0.00000E+00         0.00000E+00         0.37876E+07
 
    0.48722E+07         0.83261E+06         0.00000E+00
    0.83261E+06         0.14066E+08         0.00000E+00
    0.00000E+00         0.00000E+00         0.37877E+07
 
    0.48480E+07         0.87917E+06         0.00000E+00
    0.87917E+06         0.14090E+08         0.00000E+00
    0.00000E+00         0.00000E+00         0.37877E+07
 
    0.48226E+07         0.92663E+06         0.00000E+00
    0.92663E+06         0.14115E+08         0.00000E+00
    0.00000E+00         0.00000E+00         0.37875E+07
 
    0.47961E+07         0.97497E+06         0.00000E+00
    0.97497E+06         0.14140E+08         0.00000E+00
    0.00000E+00         0.00000E+00         0.37872E+07
 
    0.47685E+07         0.10242E+07         0.00000E+00
    0.10242E+07         0.14165E+08         0.00000E+00
    0.00000E+00         0.00000E+00         0.37868E+07
 
    0.47400E+07         0.10743E+07         0.00000E+00
    0.10743E+07         0.14191E+08         0.00000E+00
    0.00000E+00         0.00000E+00         0.37863E+07
 
    0.47106E+07         0.11252E+07         0.00000E+00
    0.11252E+07         0.14217E+08         0.00000E+00
    0.00000E+00         0.00000E+00         0.37856E+07
 
    0.46804E+07         0.11769E+07         0.00000E+00
    0.11769E+07         0.14244E+08         0.00000E+00
    0.00000E+00         0.00000E+00         0.37849E+07
 
    0.46493E+07         0.12294E+07         0.00000E+00
    0.12294E+07         0.14271E+08         0.00000E+00
    0.00000E+00         0.00000E+00         0.37840E+07
 
    0.46174E+07         0.12826E+07         0.00000E+00
    0.12826E+07         0.14297E+08         0.00000E+00
    0.00000E+00         0.00000E+00         0.37830E+07
 
    0.45848E+07         0.13365E+07         0.00000E+00
    0.13365E+07         0.14325E+08         0.00000E+00
    0.00000E+00         0.00000E+00         0.37819E+07
 
    0.45514E+07         0.13910E+07         0.00000E+00
    0.13910E+07         0.14352E+08         0.00000E+00
    0.00000E+00         0.00000E+00         0.37806E+07
 
    0.45172E+07         0.14462E+07         0.00000E+00
    0.14462E+07         0.14379E+08         0.00000E+00
    0.00000E+00         0.00000E+00         0.37792E+07
 
    0.44822E+07         0.15018E+07         0.00000E+00
    0.15018E+07         0.14406E+08         0.00000E+00
    0.00000E+00         0.00000E+00         0.37777E+07
 
    0.44464E+07         0.15580E+07         0.00000E+00
    0.15580E+07         0.14434E+08         0.00000E+00
    0.00000E+00         0.00000E+00         0.37760E+07
 
    0.44097E+07         0.16145E+07         0.00000E+00
    0.16145E+07         0.14461E+08         0.00000E+00
    0.00000E+00         0.00000E+00         0.37742E+07
 
    0.43721E+07         0.16713E+07         0.00000E+00
    0.16713E+07         0.14488E+08         0.00000E+00
    0.00000E+00         0.00000E+00         0.37721E+07
 
    0.43333E+07         0.17283E+07         0.00000E+00
    0.17283E+07         0.14516E+08         0.00000E+00
    0.00000E+00         0.00000E+00         0.37698E+07
 
    0.42932E+07         0.17854E+07         0.00000E+00
    0.17854E+07         0.14543E+08         0.00000E+00
    0.00000E+00         0.00000E+00         0.37672E+07
 
    0.42517E+07         0.18426E+07         0.00000E+00
    0.18426E+07         0.14570E+08         0.00000E+00
    0.00000E+00         0.00000E+00         0.37644E+07
 
    0.42084E+07         0.18998E+07         0.00000E+00
    0.18998E+07         0.14598E+08         0.00000E+00
    0.00000E+00         0.00000E+00         0.37612E+07
 
    0.41630E+07         0.19568E+07         0.00000E+00
    0.19568E+07         0.14625E+08         0.00000E+00
    0.00000E+00         0.00000E+00         0.37575E+07
 
    0.41154E+07         0.20138E+07         0.00000E+00
    0.20138E+07         0.14652E+08         0.00000E+00
    0.00000E+00         0.00000E+00         0.37535E+07
 
    0.40649E+07         0.20706E+07         0.00000E+00
    0.20706E+07         0.14680E+08         0.00000E+00
    0.00000E+00         0.00000E+00         0.37489E+07
 
    0.40107E+07         0.21268E+07         0.00000E+00
    0.21268E+07         0.14707E+08         0.00000E+00
    0.00000E+00         0.00000E+00         0.37435E+07
 
    0.39523E+07         0.21831E+07         0.00000E+00
    0.21831E+07         0.14736E+08         0.00000E+00
    0.00000E+00         0.00000E+00         0.37376E+07
 
    0.38883E+07         0.22396E+07         0.00000E+00
    0.22396E+07         0.14766E+08         0.00000E+00
    0.00000E+00         0.00000E+00         0.37308E+07
 
    0.38190E+07         0.22986E+07         0.00000E+00
    0.22986E+07         0.14798E+08         0.00000E+00
    0.00000E+00         0.00000E+00         0.37234E+07
 
    0.37483E+07         0.23639E+07         0.00000E+00
    0.23639E+07         0.14834E+08         0.00000E+00
    0.00000E+00         0.00000E+00         0.37166E+07
 
    0.46555E+07         0.22254E+05         0.00000E+00
    0.22254E+05         0.13267E+08         0.00000E+00
    0.00000E+00         0.00000E+00         0.35845E+07
 
    0.46746E+07         0.65212E+05         0.00000E+00
    0.65212E+05         0.13268E+08         0.00000E+00
    0.00000E+00         0.00000E+00         0.35886E+07
 
    0.46911E+07         0.10769E+06         0.00000E+00
    0.10769E+06         0.13271E+08         0.00000E+00
    0.00000E+00         0.00000E+00         0.35924E+07
 
    0.47052E+07         0.14980E+06         0.00000E+00
    0.14980E+06         0.13275E+08         0.00000E+00
    0.00000E+00         0.00000E+00         0.35960E+07
 
    0.47169E+07         0.19167E+06         0.00000E+00
    0.19167E+06         0.13280E+08         0.00000E+00
    0.00000E+00         0.00000E+00         0.35994E+07
 
    0.47263E+07         0.23339E+06         0.00000E+00
    0.23339E+06         0.13286E+08         0.00000E+00
    0.00000E+00         0.00000E+00         0.36025E+07
 
    0.47333E+07         0.27508E+06         0.00000E+00
    0.27508E+06         0.13293E+08         0.00000E+00
    0.00000E+00         0.00000E+00         0.36053E+07
 
    0.47381E+07         0.31681E+06         0.00000E+00
    0.31681E+06         0.13302E+08         0.00000E+00
    0.00000E+00         0.00000E+00         0.36080E+07
 
    0.47408E+07         0.35866E+06         0.00000E+00
    0.35866E+06         0.13311E+08         0.00000E+00
    0.00000E+00         0.00000E+00         0.36104E+07
 
    0.47413E+07         0.40073E+06         0.00000E+00
    0.40073E+06         0.13322E+08         0.00000E+00
    0.00000E+00         0.00000E+00         0.36126E+07
 
    0.47398E+07         0.44307E+06         0.00000E+00
    0.44307E+06         0.13333E+08         0.00000E+00
    0.00000E+00         0.00000E+00         0.36146E+07
 
    0.47364E+07         0.48574E+06         0.00000E+00
    0.48574E+06         0.13346E+08         0.00000E+00
    0.00000E+00         0.00000E+00         0.36164E+07
 
    0.47311E+07         0.52882E+06         0.00000E+00
    0.52882E+06         0.13359E+08         0.00000E+00
    0.00000E+00         0.00000E+00         0.36180E+07
 
    0.47240E+07         0.57233E+06         0.00000E+00
    0.57233E+06         0.13373E+08         0.00000E+00
    0.00000E+00         0.00000E+00         0.36194E+07
 
    0.47152E+07         0.61634E+06         0.00000E+00
    0.61634E+06         0.13388E+08         0.00000E+00
    0.00000E+00         0.00000E+00         0.36207E+07
 
    0.47047E+07         0.66088E+06         0.00000E+00
    0.66088E+06         0.13404E+08         0.00000E+00
    0.00000E+00         0.00000E+00         0.36217E+07
 
    0.46926E+07         0.70598E+06         0.00000E+00
    0.70598E+06         0.13420E+08         0.00000E+00
    0.00000E+00         0.00000E+00         0.36226E+07
 
    0.46789E+07         0.75168E+06         0.00000E+00
    0.75168E+06         0.13437E+08         0.00000E+00
    0.00000E+00         0.00000E+00         0.36233E+07
 
    0.46638E+07         0.79800E+06         0.00000E+00
    0.79800E+06         0.13455E+08         0.00000E+00
    0.00000E+00         0.00000E+00         0.36238E+07
 
    0.46473E+07         0.84496E+06         0.00000E+00
    0.84496E+06         0.13474E+08         0.00000E+00
    0.00000E+00         0.00000E+00         0.36242E+07
 
    0.46295E+07         0.89257E+06         0.00000E+00
    0.89257E+06         0.13492E+08         0.00000E+00
    0.00000E+00         0.00000E+00         0.36244E+07
 
    0.46103E+07         0.94085E+06         0.00000E+00
    0.94085E+06         0.13512E+08         0.00000E+00
    0.00000E+00         0.00000E+00         0.36244E+07
 
    0.45900E+07         0.98980E+06         0.00000E+00
    0.98980E+06         0.13532E+08         0.00000E+00
    0.00000E+00         0.00000E+00         0.36243E+07
 
    0.45684E+07         0.10394E+07         0.00000E+00
    0.10394E+07         0.13552E+08         0.00000E+00
    0.00000E+00         0.00000E+00         0.36241E+07
 
    0.45458E+07         0.10897E+07         0.00000E+00
    0.10897E+07         0.13573E+08         0.00000E+00
    0.00000E+00         0.00000E+00         0.36237E+07
 
    0.45220E+07         0.11407E+07         0.00000E+00
    0.11407E+07         0.13594E+08         0.00000E+00
    0.00000E+00         0.00000E+00         0.36231E+07
 
    0.44972E+07         0.11923E+07         0.00000E+00
    0.11923E+07         0.13615E+08         0.00000E+00
    0.00000E+00         0.00000E+00         0.36224E+07
 
    0.44714E+07         0.12445E+07         0.00000E+00
    0.12445E+07         0.13636E+08         0.00000E+00
    0.00000E+00         0.00000E+00         0.36216E+07
 
    0.44446E+07         0.12974E+07         0.00000E+00
    0.12974E+07         0.13658E+08         0.00000E+00
    0.00000E+00         0.00000E+00         0.36206E+07
 
    0.44169E+07         0.13508E+07         0.00000E+00
    0.13508E+07         0.13680E+08         0.00000E+00
    0.00000E+00         0.00000E+00         0.36194E+07
 
    0.43881E+07         0.14048E+07         0.00000E+00
    0.14048E+07         0.13702E+08         0.00000E+00
    0.00000E+00         0.00000E+00         0.36181E+07
 
    0.43584E+07         0.14593E+07         0.00000E+00
    0.14593E+07         0.13724E+08         0.00000E+00
    0.00000E+00         0.00000E+00         0.36166E+07
 
    0.43277E+07         0.15144E+07         0.00000E+00
    0.15144E+07         0.13747E+08         0.00000E+00
    0.00000E+00         0.00000E+00         0.36149E+07
 
    0.42960E+07         0.15699E+07         0.00000E+00
    0.15699E+07         0.13769E+08         0.00000E+00
    0.00000E+00         0.00000E+00         0.36131E+07
 
    0.42633E+07         0.16258E+07         0.00000E+00
    0.16258E+07         0.13792E+08         0.00000E+00
    0.00000E+00         0.00000E+00         0.36110E+07
 
    0.42294E+07         0.16821E+07         0.00000E+00
    0.16821E+07         0.13815E+08         0.00000E+00
    0.00000E+00         0.00000E+00         0.36088E+07
 
    0.41944E+07         0.17387E+07         0.00000E+00
    0.17387E+07         0.13837E+08         0.00000E+00
    0.00000E+00         0.00000E+00         0.36064E+07
 
    0.41581E+07         0.17957E+07         0.00000E+00
    0.17957E+07         0.13860E+08         0.00000E+00
    0.00000E+00         0.00000E+00         0.36037E+07
 
    0.41205E+07         0.18529E+07         0.00000E+00
    0.18529E+07         0.13883E+08         0.00000E+00
    0.00000E+00         0.00000E+00         0.36007E+07
 
    0.40813E+07         0.19104E+07         0.00000E+00
    0.19104E+07         0.13906E+08         0.00000E+00
    0.00000E+00         0.00000E+00         0.35975E+07
 
    0.40405E+07         0.19682E+07         0.00000E+00
    0.19682E+07         0.13930E+08         0.00000E+00
    0.00000E+00         0.00000E+00         0.35940E+07
 
    0.39979E+07         0.20263E+07         0.00000E+00
    0.20263E+07         0.13953E+08         0.00000E+00
    0.00000E+00         0.00000E+00         0.35902E+07
 
    0.39533E+07         0.20846E+07         0.00000E+00
    0.20846E+07         0.13977E+08         0.00000E+00
    0.00000E+00         0.00000E+00         0.35861E+07
 
    0.39065E+07         0.21434E+07         0.00000E+00
    0.21434E+07         0.14001E+08         0.00000E+00
    0.00000E+00         0.00000E+00         0.35816E+07
 
    0.38573E+07         0.22027E+07         0.00000E+00
    0.22027E+07         0.14026E+08         0.00000E+00
    0.00000E+00         0.00000E+00         0.35767E+07
 
    0.38056E+07         0.22628E+07         0.00000E+00
    0.22628E+07         0.14052E+08         0.00000E+00
    0.00000E+00         0.00000E+00         0.35715E+07
 
    0.37514E+07         0.23240E+07         0.00000E+00
    0.23240E+07         0.14078E+08         0.00000E+00
    0.00000E+00         0.00000E+00         0.35659E+07
 
    0.36949E+07         0.23866E+07         0.00000E+00
    0.23866E+07         0.14105E+08         0.00000E+00
    0.00000E+00         0.00000E+00         0.35600E+07
 
    0.36364E+07         0.24506E+07         0.00000E+00
    0.24506E+07         0.14133E+08         0.00000E+00
    0.00000E+00         0.00000E+00         0.35538E+07
 
    0.35750E+07         0.25152E+07         0.00000E+00
    0.25152E+07         0.14160E+08         0.00000E+00
    0.00000E+00         0.00000E+00         0.35470E+07
 
    0.43876E+07         0.25113E+05         0.00000E+00
    0.25113E+05         0.12768E+08         0.00000E+00
    0.00000E+00         0.00000E+00         0.34312E+07
 
    0.44038E+07         0.73675E+05         0.00000E+00
    0.73675E+05         0.12769E+08         0.00000E+00
    0.00000E+00         0.00000E+00         0.34346E+07
 
    0.44180E+07         0.12167E+06         0.00000E+00
    0.12167E+06         0.12771E+08         0.00000E+00
    0.00000E+00         0.00000E+00         0.34379E+07
 
    0.44302E+07         0.16921E+06         0.00000E+00
    0.16921E+06         0.12774E+08         0.00000E+00
    0.00000E+00         0.00000E+00         0.34409E+07
 
    0.44406E+07         0.21638E+06         0.00000E+00
    0.21638E+06         0.12778E+08         0.00000E+00
    0.00000E+00         0.00000E+00         0.34438E+07
 
    0.44491E+07         0.26328E+06         0.00000E+00
    0.26328E+06         0.12783E+08         0.00000E+00
    0.00000E+00         0.00000E+00         0.34464E+07
 
    0.44558E+07         0.31000E+06         0.00000E+00
    0.31000E+06         0.12789E+08         0.00000E+00
    0.00000E+00         0.00000E+00         0.34489E+07
 
    0.44606E+07         0.35660E+06         0.00000E+00
    0.35660E+06         0.12795E+08         0.00000E+00
    0.00000E+00         0.00000E+00         0.34512E+07
 
    0.44636E+07         0.40318E+06         0.00000E+00
    0.40318E+06         0.12803E+08         0.00000E+00
    0.00000E+00         0.00000E+00         0.34533E+07
 
    0.44649E+07         0.44978E+06         0.00000E+00
    0.44978E+06         0.12811E+08         0.00000E+00
    0.00000E+00         0.00000E+00         0.34552E+07
 
    0.44645E+07         0.49649E+06         0.00000E+00
    0.49649E+06         0.12820E+08         0.00000E+00
    0.00000E+00         0.00000E+00         0.34569E+07
 
    0.44625E+07         0.54334E+06         0.00000E+00
    0.54334E+06         0.12830E+08         0.00000E+00
    0.00000E+00         0.00000E+00         0.34585E+07
 
    0.44588E+07         0.59041E+06         0.00000E+00
    0.59041E+06         0.12841E+08         0.00000E+00
    0.00000E+00         0.00000E+00         0.34599E+07
 
    0.44535E+07         0.63773E+06         0.00000E+00
    0.63773E+06         0.12852E+08         0.00000E+00
    0.00000E+00         0.00000E+00         0.34611E+07
 
    0.44467E+07         0.68535E+06         0.00000E+00
    0.68535E+06         0.12864E+08         0.00000E+00
    0.00000E+00         0.00000E+00         0.34622E+07
 
    0.44384E+07         0.73330E+06         0.00000E+00
    0.73330E+06         0.12877E+08         0.00000E+00
    0.00000E+00         0.00000E+00         0.34630E+07
 
    0.44287E+07         0.78162E+06         0.00000E+00
    0.78162E+06         0.12890E+08         0.00000E+00
    0.00000E+00         0.00000E+00         0.34638E+07
 
    0.44176E+07         0.83035E+06         0.00000E+00
    0.83035E+06         0.12904E+08         0.00000E+00
    0.00000E+00         0.00000E+00         0.34643E+07
 
    0.44052E+07         0.87950E+06         0.00000E+00
    0.87950E+06         0.12918E+08         0.00000E+00
    0.00000E+00         0.00000E+00         0.34647E+07
 
    0.43914E+07         0.92909E+06         0.00000E+00
    0.92909E+06         0.12933E+08         0.00000E+00
    0.00000E+00         0.00000E+00         0.34650E+07
 
    0.43764E+07         0.97916E+06         0.00000E+00
    0.97916E+06         0.12949E+08         0.00000E+00
    0.00000E+00         0.00000E+00         0.34650E+07
 
    0.43601E+07         0.10297E+07         0.00000E+00
    0.10297E+07         0.12965E+08         0.00000E+00
    0.00000E+00         0.00000E+00         0.34650E+07
 
    0.43426E+07         0.10807E+07         0.00000E+00
    0.10807E+07         0.12981E+08         0.00000E+00
    0.00000E+00         0.00000E+00         0.34647E+07
 
    0.43240E+07         0.11322E+07         0.00000E+00
    0.11322E+07         0.12998E+08         0.00000E+00
    0.00000E+00         0.00000E+00         0.34643E+07
 
    0.43042E+07         0.11843E+07         0.00000E+00
    0.11843E+07         0.13015E+08         0.00000E+00
    0.00000E+00         0.00000E+00         0.34638E+07
 
    0.42833E+07         0.12368E+07         0.00000E+00
    0.12368E+07         0.13032E+08         0.00000E+00
    0.00000E+00         0.00000E+00         0.34631E+07
 
    0.42614E+07         0.12898E+07         0.00000E+00
    0.12898E+07         0.13050E+08         0.00000E+00
    0.00000E+00         0.00000E+00         0.34622E+07
 
    0.42383E+07         0.13433E+07         0.00000E+00
    0.13433E+07         0.13068E+08         0.00000E+00
    0.00000E+00         0.00000E+00         0.34612E+07
 
    0.42142E+07         0.13973E+07         0.00000E+00
    0.13973E+07         0.13086E+08         0.00000E+00
    0.00000E+00         0.00000E+00         0.34600E+07
 
    0.41890E+07         0.14517E+07         0.00000E+00
    0.14517E+07         0.13104E+08         0.00000E+00
    0.00000E+00         0.00000E+00         0.34586E+07
 
    0.41628E+07         0.15066E+07         0.00000E+00
    0.15066E+07         0.13123E+08         0.00000E+00
    0.00000E+00         0.00000E+00         0.34571E+07
 
    0.41354E+07         0.15620E+07         0.00000E+00
    0.15620E+07         0.13142E+08         0.00000E+00
    0.00000E+00         0.00000E+00         0.34554E+07
 
    0.41070E+07         0.16178E+07         0.00000E+00
    0.16178E+07         0.13161E+08         0.00000E+00
    0.00000E+00         0.00000E+00         0.34535E+07
 
    0.40775E+07         0.16740E+07         0.00000E+00
    0.16740E+07         0.13180E+08         0.00000E+00
    0.00000E+00         0.00000E+00         0.34515E+07
 
    0.40468E+07         0.17306E+07         0.00000E+00
    0.17306E+07         0.13199E+08         0.00000E+00
    0.00000E+00         0.00000E+00         0.34492E+07
 
    0.40149E+07         0.17877E+07         0.00000E+00
    0.17877E+07         0.13219E+08         0.00000E+00
    0.00000E+00         0.00000E+00         0.34468E+07
 
    0.39818E+07         0.18451E+07         0.00000E+00
    0.18451E+07         0.13239E+08         0.00000E+00
    0.00000E+00         0.00000E+00         0.34441E+07
 
    0.39473E+07         0.19030E+07         0.00000E+00
    0.19030E+07         0.13259E+08         0.00000E+00
    0.00000E+00         0.00000E+00         0.34412E+07
 
    0.39115E+07         0.19613E+07         0.00000E+00
    0.19613E+07         0.13279E+08         0.00000E+00
    0.00000E+00         0.00000E+00         0.34381E+07
 
    0.38742E+07         0.20200E+07         0.00000E+00
    0.20200E+07         0.13300E+08         0.00000E+00
    0.00000E+00         0.00000E+00         0.34348E+07
 
    0.38355E+07         0.20793E+07         0.00000E+00
    0.20793E+07         0.13320E+08         0.00000E+00
    0.00000E+00         0.00000E+00         0.34312E+07
 
    0.37952E+07         0.21391E+07         0.00000E+00
    0.21391E+07         0.13342E+08         0.00000E+00
    0.00000E+00         0.00000E+00         0.34274E+07
 
    0.37532E+07         0.21995E+07         0.00000E+00
    0.21995E+07         0.13363E+08         0.00000E+00
    0.00000E+00         0.00000E+00         0.34233E+07
 
    0.37096E+07         0.22606E+07         0.00000E+00
    0.22606E+07         0.13385E+08         0.00000E+00
    0.00000E+00         0.00000E+00         0.34190E+07
 
    0.36642E+07         0.23224E+07         0.00000E+00
    0.23224E+07         0.13408E+08         0.00000E+00
    0.00000E+00         0.00000E+00         0.34144E+07
 
    0.36172E+07         0.23852E+07         0.00000E+00
    0.23852E+07         0.13431E+08         0.00000E+00
    0.00000E+00         0.00000E+00         0.34096E+07
 
    0.35684E+07         0.24489E+07         0.00000E+00
    0.24489E+07         0.13454E+08         0.00000E+00
    0.00000E+00         0.00000E+00         0.34045E+07
 
    0.35179E+07         0.25137E+07         0.00000E+00
    0.25137E+07         0.13478E+08         0.00000E+00
    0.00000E+00         0.00000E+00         0.33991E+07
 
    0.34657E+07         0.25796E+07         0.00000E+00
    0.25796E+07         0.13501E+08         0.00000E+00
    0.00000E+00         0.00000E+00         0.33934E+07
 
    0.34119E+07         0.26469E+07         0.00000E+00
    0.26469E+07         0.13526E+08         0.00000E+00
    0.00000E+00         0.00000E+00         0.33876E+07
 
    0.41443E+07         0.27191E+05         0.00000E+00
    0.27191E+05         0.12270E+08         0.00000E+00
    0.00000E+00         0.00000E+00         0.32828E+07
 
    0.41573E+07         0.79988E+05         0.00000E+00
    0.79988E+05         0.12270E+08         0.00000E+00
    0.00000E+00         0.00000E+00         0.32856E+07
 
    0.41689E+07         0.13222E+06         0.00000E+00
    0.13222E+06         0.12272E+08         0.00000E+00
    0.00000E+00         0.00000E+00         0.32882E+07
 
    0.41791E+07         0.18397E+06         0.00000E+00
    0.18397E+06         0.12274E+08         0.00000E+00
    0.00000E+00         0.00000E+00         0.32906E+07
 
    0.41877E+07         0.23531E+06         0.00000E+00
    0.23531E+06         0.12277E+08         0.00000E+00
    0.00000E+00         0.00000E+00         0.32929E+07
 
    0.41949E+07         0.28632E+06         0.00000E+00
    0.28632E+06         0.12281E+08         0.00000E+00
    0.00000E+00         0.00000E+00         0.32951E+07
 
    0.42006E+07         0.33707E+06         0.00000E+00
    0.33707E+06         0.12285E+08         0.00000E+00
    0.00000E+00         0.00000E+00         0.32971E+07
 
    0.42048E+07         0.38763E+06         0.00000E+00
    0.38763E+06         0.12290E+08         0.00000E+00
    0.00000E+00         0.00000E+00         0.32990E+07
 
    0.42075E+07         0.43805E+06         0.00000E+00
    0.43805E+06         0.12296E+08         0.00000E+00
    0.00000E+00         0.00000E+00         0.33007E+07
 
    0.42089E+07         0.48840E+06         0.00000E+00
    0.48840E+06         0.12302E+08         0.00000E+00
    0.00000E+00         0.00000E+00         0.33023E+07
 
    0.42088E+07         0.53872E+06         0.00000E+00
    0.53872E+06         0.12310E+08         0.00000E+00
    0.00000E+00         0.00000E+00         0.33037E+07
 
    0.42073E+07         0.58907E+06         0.00000E+00
    0.58907E+06         0.12317E+08         0.00000E+00
    0.00000E+00         0.00000E+00         0.33049E+07
 
    0.42044E+07         0.63950E+06         0.00000E+00
    0.63950E+06         0.12326E+08         0.00000E+00
    0.00000E+00         0.00000E+00         0.33060E+07
 
    0.42001E+07         0.69005E+06         0.00000E+00
    0.69005E+06         0.12335E+08         0.00000E+00
    0.00000E+00         0.00000E+00         0.33070E+07
 
    0.41945E+07         0.74076E+06         0.00000E+00
    0.74076E+06         0.12345E+08         0.00000E+00
    0.00000E+00         0.00000E+00         0.33078E+07
 
    0.41877E+07         0.79166E+06         0.00000E+00
    0.79166E+06         0.12355E+08         0.00000E+00
    0.00000E+00         0.00000E+00         0.33085E+07
 
    0.41795E+07         0.84278E+06         0.00000E+00
    0.84278E+06         0.12365E+08         0.00000E+00
    0.00000E+00         0.00000E+00         0.33090E+07
 
    0.41701E+07         0.89416E+06         0.00000E+00
    0.89416E+06         0.12377E+08         0.00000E+00
    0.00000E+00         0.00000E+00         0.33094E+07
 
    0.41594E+07         0.94583E+06         0.00000E+00
    0.94583E+06         0.12388E+08         0.00000E+00
    0.00000E+00         0.00000E+00         0.33096E+07
 
    0.41476E+07         0.99779E+06         0.00000E+00
    0.99779E+06         0.12401E+08         0.00000E+00
    0.00000E+00         0.00000E+00         0.33096E+07
 
    0.41345E+07         0.10501E+07         0.00000E+00
    0.10501E+07         0.12413E+08         0.00000E+00
    0.00000E+00         0.00000E+00         0.33096E+07
 
    0.41203E+07         0.11027E+07         0.00000E+00
    0.11027E+07         0.12426E+08         0.00000E+00
    0.00000E+00         0.00000E+00         0.33093E+07
 
    0.41050E+07         0.11557E+07         0.00000E+00
    0.11557E+07         0.12440E+08         0.00000E+00
    0.00000E+00         0.00000E+00         0.33090E+07
 
    0.40885E+07         0.12090E+07         0.00000E+00
    0.12090E+07         0.12454E+08         0.00000E+00
    0.00000E+00         0.00000E+00         0.33084E+07
 
    0.40709E+07         0.12628E+07         0.00000E+00
    0.12628E+07         0.12468E+08         0.00000E+00
    0.00000E+00         0.00000E+00         0.33077E+07
 
    0.40522E+07         0.13169E+07         0.00000E+00
    0.13169E+07         0.12482E+08         0.00000E+00
    0.00000E+00         0.00000E+00         0.33069E+07
 
    0.40325E+07         0.13714E+07         0.00000E+00
    0.13714E+07         0.12497E+08         0.00000E+00
    0.00000E+00         0.00000E+00         0.33059E+07
 
    0.40116E+07         0.14263E+07         0.00000E+00
    0.14263E+07         0.12512E+08         0.00000E+00
    0.00000E+00         0.00000E+00         0.33048E+07
 
    0.39897E+07         0.14816E+07         0.00000E+00
    0.14816E+07         0.12528E+08         0.00000E+00
    0.00000E+00         0.00000E+00         0.33035E+07
 
    0.39667E+07         0.15373E+07         0.00000E+00
    0.15373E+07         0.12543E+08         0.00000E+00
    0.00000E+00         0.00000E+00         0.33020E+07
 
    0.39426E+07         0.15934E+07         0.00000E+00
    0.15934E+07         0.12559E+08         0.00000E+00
    0.00000E+00         0.00000E+00         0.33004E+07
 
    0.39174E+07         0.16500E+07         0.00000E+00
    0.16500E+07         0.12576E+08         0.00000E+00
    0.00000E+00         0.00000E+00         0.32986E+07
 
    0.38912E+07         0.17069E+07         0.00000E+00
    0.17069E+07         0.12592E+08         0.00000E+00
    0.00000E+00         0.00000E+00         0.32967E+07
 
    0.38638E+07         0.17643E+07         0.00000E+00
    0.17643E+07         0.12609E+08         0.00000E+00
    0.00000E+00         0.00000E+00         0.32946E+07
 
    0.38352E+07         0.18221E+07         0.00000E+00
    0.18221E+07         0.12626E+08         0.00000E+00
    0.00000E+00         0.00000E+00         0.32923E+07
 
    0.38055E+07         0.18804E+07         0.00000E+00
    0.18804E+07         0.12643E+08         0.00000E+00
    0.00000E+00         0.00000E+00         0.32898E+07
 
    0.37746E+07         0.19391E+07         0.00000E+00
    0.19391E+07         0.12661E+08         0.00000E+00
    0.00000E+00         0.00000E+00         0.32871E+07
 
    0.37425E+07         0.19983E+07         0.00000E+00
    0.19983E+07         0.12679E+08         0.00000E+00
    0.00000E+00         0.00000E+00         0.32843E+07
 
    0.37092E+07         0.20581E+07         0.00000E+00
    0.20581E+07         0.12697E+08         0.00000E+00
    0.00000E+00         0.00000E+00         0.32812E+07
 
    0.36746E+07         0.21183E+07         0.00000E+00
    0.21183E+07         0.12715E+08         0.00000E+00
    0.00000E+00         0.00000E+00         0.32780E+07
 
    0.36387E+07         0.21792E+07         0.00000E+00
    0.21792E+07         0.12734E+08         0.00000E+00
    0.00000E+00         0.00000E+00         0.32746E+07
 
    0.36014E+07         0.22407E+07         0.00000E+00
    0.22407E+07         0.12753E+08         0.00000E+00
    0.00000E+00         0.00000E+00         0.32709E+07
 
    0.35629E+07         0.23029E+07         0.00000E+00
    0.23029E+07         0.12773E+08         0.00000E+00
    0.00000E+00         0.00000E+00         0.32671E+07
 
    0.35231E+07         0.23658E+07         0.00000E+00
    0.23658E+07         0.12792E+08         0.00000E+00
    0.00000E+00         0.00000E+00         0.32631E+07
 
    0.34819E+07         0.24295E+07         0.00000E+00
    0.24295E+07         0.12813E+08         0.00000E+00
    0.00000E+00         0.00000E+00         0.32589E+07
 
    0.34393E+07         0.24941E+07         0.00000E+00
    0.24941E+07         0.12833E+08         0.00000E+00
    0.00000E+00         0.00000E+00         0.32545E+07
 
    0.33955E+07         0.25596E+07         0.00000E+00
    0.25596E+07         0.12854E+08         0.00000E+00
    0.00000E+00         0.00000E+00         0.32498E+07
 
    0.33503E+07         0.26260E+07         0.00000E+00
    0.26260E+07         0.12875E+08         0.00000E+00
    0.00000E+00         0.00000E+00         0.32450E+07
 
    0.33039E+07         0.26936E+07         0.00000E+00
    0.26936E+07         0.12896E+08         0.00000E+00
    0.00000E+00         0.00000E+00         0.32400E+07
 
    0.32562E+07         0.27621E+07         0.00000E+00
    0.27621E+07         0.12918E+08         0.00000E+00
    0.00000E+00         0.00000E+00         0.32348E+07
 
    0.39192E+07         0.28680E+05         0.00000E+00
    0.28680E+05         0.11771E+08         0.00000E+00
    0.00000E+00         0.00000E+00         0.31380E+07
 
    0.39294E+07         0.84641E+05         0.00000E+00
    0.84641E+05         0.11772E+08         0.00000E+00
    0.00000E+00         0.00000E+00         0.31402E+07
 
    0.39384E+07         0.14009E+06         0.00000E+00
    0.14009E+06         0.11773E+08         0.00000E+00
    0.00000E+00         0.00000E+00         0.31422E+07
 
    0.39464E+07         0.19507E+06         0.00000E+00
    0.19507E+06         0.11774E+08         0.00000E+00
    0.00000E+00         0.00000E+00         0.31441E+07
 
    0.39532E+07         0.24967E+06         0.00000E+00
    0.24967E+06         0.11776E+08         0.00000E+00
    0.00000E+00         0.00000E+00         0.31459E+07
 
    0.39588E+07         0.30392E+06         0.00000E+00
    0.30392E+06         0.11779E+08         0.00000E+00
    0.00000E+00         0.00000E+00         0.31476E+07
 
    0.39632E+07         0.35789E+06         0.00000E+00
    0.35789E+06         0.11783E+08         0.00000E+00
    0.00000E+00         0.00000E+00         0.31492E+07
 
    0.39665E+07         0.41163E+06         0.00000E+00
    0.41163E+06         0.11786E+08         0.00000E+00
    0.00000E+00         0.00000E+00         0.31506E+07
 
    0.39686E+07         0.46519E+06         0.00000E+00
    0.46519E+06         0.11791E+08         0.00000E+00
    0.00000E+00         0.00000E+00         0.31519E+07
 
    0.39695E+07         0.51862E+06         0.00000E+00
    0.51862E+06         0.11796E+08         0.00000E+00
    0.00000E+00         0.00000E+00         0.31531E+07
 
    0.39693E+07         0.57195E+06         0.00000E+00
    0.57195E+06         0.11802E+08         0.00000E+00
    0.00000E+00         0.00000E+00         0.31542E+07
 
    0.39678E+07         0.62524E+06         0.00000E+00
    0.62524E+06         0.11808E+08         0.00000E+00
    0.00000E+00         0.00000E+00         0.31551E+07
 
    0.39652E+07         0.67852E+06         0.00000E+00
    0.67852E+06         0.11815E+08         0.00000E+00
    0.00000E+00         0.00000E+00         0.31559E+07
 
    0.39614E+07         0.73184E+06         0.00000E+00
    0.73184E+06         0.11822E+08         0.00000E+00
    0.00000E+00         0.00000E+00         0.31566E+07
 
    0.39565E+07         0.78522E+06         0.00000E+00
    0.78522E+06         0.11829E+08         0.00000E+00
    0.00000E+00         0.00000E+00         0.31572E+07
 
    0.39504E+07         0.83870E+06         0.00000E+00
    0.83870E+06         0.11838E+08         0.00000E+00
    0.00000E+00         0.00000E+00         0.31576E+07
 
    0.39432E+07         0.89231E+06         0.00000E+00
    0.89231E+06         0.11846E+08         0.00000E+00
    0.00000E+00         0.00000E+00         0.31579E+07
 
    0.39348E+07         0.94607E+06         0.00000E+00
    0.94607E+06         0.11856E+08         0.00000E+00
    0.00000E+00         0.00000E+00         0.31581E+07
 
    0.39254E+07         0.10000E+07         0.00000E+00
    0.10000E+07         0.11865E+08         0.00000E+00
    0.00000E+00         0.00000E+00         0.31581E+07
 
    0.39148E+07         0.10542E+07         0.00000E+00
    0.10542E+07         0.11875E+08         0.00000E+00
    0.00000E+00         0.00000E+00         0.31580E+07
 
    0.39032E+07         0.11086E+07         0.00000E+00
    0.11086E+07         0.11886E+08         0.00000E+00
    0.00000E+00         0.00000E+00         0.31578E+07
 
    0.38905E+07         0.11632E+07         0.00000E+00
    0.11632E+07         0.11896E+08         0.00000E+00
    0.00000E+00         0.00000E+00         0.31574E+07
 
    0.38767E+07         0.12181E+07         0.00000E+00
    0.12181E+07         0.11908E+08         0.00000E+00
    0.00000E+00         0.00000E+00         0.31569E+07
 
    0.38619E+07         0.12733E+07         0.00000E+00
    0.12733E+07         0.11919E+08         0.00000E+00
    0.00000E+00         0.00000E+00         0.31562E+07
 
    0.38460E+07         0.13287E+07         0.00000E+00
    0.13287E+07         0.11931E+08         0.00000E+00
    0.00000E+00         0.00000E+00         0.31555E+07
 
    0.38291E+07         0.13845E+07         0.00000E+00
    0.13845E+07         0.11944E+08         0.00000E+00
    0.00000E+00         0.00000E+00         0.31545E+07
 
    0.38112E+07         0.14406E+07         0.00000E+00
    0.14406E+07         0.11956E+08         0.00000E+00
    0.00000E+00         0.00000E+00         0.31535E+07
 
    0.37922E+07         0.14971E+07         0.00000E+00
    0.14971E+07         0.11969E+08         0.00000E+00
    0.00000E+00         0.00000E+00         0.31523E+07
 
    0.37722E+07         0.15539E+07         0.00000E+00
    0.15539E+07         0.11982E+08         0.00000E+00
    0.00000E+00         0.00000E+00         0.31509E+07
 
    0.37511E+07         0.16111E+07         0.00000E+00
    0.16111E+07         0.11996E+08         0.00000E+00
    0.00000E+00         0.00000E+00         0.31494E+07
 
    0.37290E+07         0.16686E+07         0.00000E+00
    0.16686E+07         0.12010E+08         0.00000E+00
    0.00000E+00         0.00000E+00         0.31478E+07
 
    0.37059E+07         0.17266E+07         0.00000E+00
    0.17266E+07         0.12024E+08         0.00000E+00
    0.00000E+00         0.00000E+00         0.31460E+07
 
    0.36817E+07         0.17849E+07         0.00000E+00
    0.17849E+07         0.12039E+08         0.00000E+00
    0.00000E+00         0.00000E+00         0.31441E+07
 
    0.36565E+07         0.18437E+07         0.00000E+00
    0.18437E+07         0.12053E+08         0.00000E+00
    0.00000E+00         0.00000E+00         0.31420E+07
 
    0.36302E+07         0.19029E+07         0.00000E+00
    0.19029E+07         0.12068E+08         0.00000E+00
    0.00000E+00         0.00000E+00         0.31397E+07
 
    0.36028E+07         0.19626E+07         0.00000E+00
    0.19626E+07         0.12084E+08         0.00000E+00
    0.00000E+00         0.00000E+00         0.31373E+07
 
    0.35744E+07         0.20228E+07         0.00000E+00
    0.20228E+07         0.12099E+08         0.00000E+00
    0.00000E+00         0.00000E+00         0.31348E+07
 
    0.35449E+07         0.20835E+07         0.00000E+00
    0.20835E+07         0.12115E+08         0.00000E+00
    0.00000E+00         0.00000E+00         0.31321E+07
 
    0.35143E+07         0.21447E+07         0.00000E+00
    0.21447E+07         0.12132E+08         0.00000E+00
    0.00000E+00         0.00000E+00         0.31292E+07
 
    0.34826E+07         0.22065E+07         0.00000E+00
    0.22065E+07         0.12148E+08         0.00000E+00
    0.00000E+00         0.00000E+00         0.31261E+07
 
    0.34498E+07         0.22689E+07         0.00000E+00
    0.22689E+07         0.12165E+08         0.00000E+00
    0.00000E+00         0.00000E+00         0.31229E+07
 
    0.34159E+07         0.23319E+07         0.00000E+00
    0.23319E+07         0.12182E+08         0.00000E+00
    0.00000E+00         0.00000E+00         0.31196E+07
 
    0.33809E+07         0.23956E+07         0.00000E+00
    0.23956E+07         0.12199E+08         0.00000E+00
    0.00000E+00         0.00000E+00         0.31161E+07
 
    0.33447E+07         0.24601E+07         0.00000E+00
    0.24601E+07         0.12217E+08         0.00000E+00
    0.00000E+00         0.00000E+00         0.31124E+07
 
    0.33076E+07         0.25252E+07         0.00000E+00
    0.25252E+07         0.12235E+08         0.00000E+00
    0.00000E+00         0.00000E+00         0.31085E+07
 
    0.32693E+07         0.25912E+07         0.00000E+00
    0.25912E+07         0.12253E+08         0.00000E+00
    0.00000E+00         0.00000E+00         0.31045E+07
 
    0.32300E+07         0.26581E+07         0.00000E+00
    0.26581E+07         0.12272E+08         0.00000E+00
    0.00000E+00         0.00000E+00         0.31003E+07
 
    0.31896E+07         0.27258E+07         0.00000E+00
    0.27258E+07         0.12290E+08         0.00000E+00
    0.00000E+00         0.00000E+00         0.30960E+07
 
    0.31483E+07         0.27944E+07         0.00000E+00
    0.27944E+07         0.12309E+08         0.00000E+00
    0.00000E+00         0.00000E+00         0.30915E+07
 
    0.31059E+07         0.28641E+07         0.00000E+00
    0.28641E+07         0.12328E+08         0.00000E+00
    0.00000E+00         0.00000E+00         0.30869E+07
 
    0.37077E+07         0.29752E+05         0.00000E+00
    0.29752E+05         0.11272E+08         0.00000E+00
    0.00000E+00         0.00000E+00         0.29960E+07
 
    0.37153E+07         0.88084E+05         0.00000E+00
    0.88084E+05         0.11273E+08         0.00000E+00
    0.00000E+00         0.00000E+00         0.29976E+07
 
    0.37221E+07         0.14597E+06         0.00000E+00
    0.14597E+06         0.11273E+08         0.00000E+00
    0.00000E+00         0.00000E+00         0.29991E+07
 
    0.37280E+07         0.20346E+06         0.00000E+00
    0.20346E+06         0.11275E+08         0.00000E+00
    0.00000E+00         0.00000E+00         0.30005E+07
 
    0.37330E+07         0.26060E+06         0.00000E+00
    0.26060E+06         0.11276E+08         0.00000E+00
    0.00000E+00         0.00000E+00         0.30019E+07
 
    0.37372E+07         0.31742E+06         0.00000E+00
    0.31742E+06         0.11278E+08         0.00000E+00
    0.00000E+00         0.00000E+00         0.30031E+07
 
    0.37403E+07         0.37396E+06         0.00000E+00
    0.37396E+06         0.11281E+08         0.00000E+00
    0.00000E+00         0.00000E+00         0.30043E+07
 
    0.37426E+07         0.43028E+06         0.00000E+00
    0.43028E+06         0.11284E+08         0.00000E+00
    0.00000E+00         0.00000E+00         0.30053E+07
 
    0.37438E+07         0.48640E+06         0.00000E+00
    0.48640E+06         0.11288E+08         0.00000E+00
    0.00000E+00         0.00000E+00         0.30063E+07
 
    0.37441E+07         0.54237E+06         0.00000E+00
    0.54237E+06         0.11292E+08         0.00000E+00
    0.00000E+00         0.00000E+00         0.30071E+07
 
    0.37434E+07         0.59823E+06         0.00000E+00
    0.59823E+06         0.11296E+08         0.00000E+00
    0.00000E+00         0.00000E+00         0.30079E+07
 
    0.37417E+07         0.65400E+06         0.00000E+00
    0.65400E+06         0.11301E+08         0.00000E+00
    0.00000E+00         0.00000E+00         0.30085E+07
 
    0.37390E+07         0.70972E+06         0.00000E+00
    0.70972E+06         0.11306E+08         0.00000E+00
    0.00000E+00         0.00000E+00         0.30091E+07
 
    0.37354E+07         0.76542E+06         0.00000E+00
    0.76542E+06         0.11312E+08         0.00000E+00
    0.00000E+00         0.00000E+00         0.30095E+07
 
    0.37307E+07         0.82114E+06         0.00000E+00
    0.82114E+06         0.11318E+08         0.00000E+00
    0.00000E+00         0.00000E+00         0.30098E+07
 
    0.37250E+07         0.87690E+06         0.00000E+00
    0.87690E+06         0.11325E+08         0.00000E+00
    0.00000E+00         0.00000E+00         0.30100E+07
 
    0.37184E+07         0.93273E+06         0.00000E+00
    0.93273E+06         0.11332E+08         0.00000E+00
    0.00000E+00         0.00000E+00         0.30101E+07
 
    0.37107E+07         0.98866E+06         0.00000E+00
    0.98866E+06         0.11340E+08         0.00000E+00
    0.00000E+00         0.00000E+00         0.30101E+07
 
    0.37021E+07         0.10447E+07         0.00000E+00
    0.10447E+07         0.11348E+08         0.00000E+00
    0.00000E+00         0.00000E+00         0.30100E+07
 
    0.36925E+07         0.11009E+07         0.00000E+00
    0.11009E+07         0.11356E+08         0.00000E+00
    0.00000E+00         0.00000E+00         0.30097E+07
 
    0.36819E+07         0.11573E+07         0.00000E+00
    0.11573E+07         0.11365E+08         0.00000E+00
    0.00000E+00         0.00000E+00         0.30093E+07
 
    0.36703E+07         0.12138E+07         0.00000E+00
    0.12138E+07         0.11374E+08         0.00000E+00
    0.00000E+00         0.00000E+00         0.30088E+07
 
    0.36577E+07         0.12706E+07         0.00000E+00
    0.12706E+07         0.11383E+08         0.00000E+00
    0.00000E+00         0.00000E+00         0.30082E+07
 
    0.36442E+07         0.13276E+07         0.00000E+00
    0.13276E+07         0.11393E+08         0.00000E+00
    0.00000E+00         0.00000E+00         0.30075E+07
 
    0.36298E+07         0.13848E+07         0.00000E+00
    0.13848E+07         0.11403E+08         0.00000E+00
    0.00000E+00         0.00000E+00         0.30066E+07
 
    0.36143E+07         0.14423E+07         0.00000E+00
    0.14423E+07         0.11414E+08         0.00000E+00
    0.00000E+00         0.00000E+00         0.30057E+07
 
    0.35979E+07         0.15001E+07         0.00000E+00
    0.15001E+07         0.11425E+08         0.00000E+00
    0.00000E+00         0.00000E+00         0.30045E+07
 
    0.35806E+07         0.15581E+07         0.00000E+00
    0.15581E+07         0.11436E+08         0.00000E+00
    0.00000E+00         0.00000E+00         0.30033E+07
 
    0.35623E+07         0.16165E+07         0.00000E+00
    0.16165E+07         0.11448E+08         0.00000E+00
    0.00000E+00         0.00000E+00         0.30020E+07
 
    0.35430E+07         0.16753E+07         0.00000E+00
    0.16753E+07         0.11459E+08         0.00000E+00
    0.00000E+00         0.00000E+00         0.30005E+07
 
    0.35228E+07         0.17343E+07         0.00000E+00
    0.17343E+07         0.11471E+08         0.00000E+00
    0.00000E+00         0.00000E+00         0.29989E+07
 
    0.35016E+07         0.17938E+07         0.00000E+00
    0.17938E+07         0.11484E+08         0.00000E+00
    0.00000E+00         0.00000E+00         0.29971E+07
 
    0.34795E+07         0.18536E+07         0.00000E+00
    0.18536E+07         0.11497E+08         0.00000E+00
    0.00000E+00         0.00000E+00         0.29952E+07
 
    0.34564E+07         0.19139E+07         0.00000E+00
    0.19139E+07         0.11510E+08         0.00000E+00
    0.00000E+00         0.00000E+00         0.29932E+07
 
    0.34324E+07         0.19746E+07         0.00000E+00
    0.19746E+07         0.11523E+08         0.00000E+00
    0.00000E+00         0.00000E+00         0.29911E+07
 
    0.34074E+07         0.20357E+07         0.00000E+00
    0.20357E+07         0.11537E+08         0.00000E+00
    0.00000E+00         0.00000E+00         0.29888E+07
 
    0.33814E+07         0.20973E+07         0.00000E+00
    0.20973E+07         0.11551E+08         0.00000E+00
    0.00000E+00         0.00000E+00         0.29864E+07
 
    0.33545E+07         0.21594E+07         0.00000E+00
    0.21594E+07         0.11565E+08         0.00000E+00
    0.00000E+00         0.00000E+00         0.29839E+07
 
    0.33266E+07         0.22221E+07         0.00000E+00
    0.22221E+07         0.11579E+08         0.00000E+00
    0.00000E+00         0.00000E+00         0.29812E+07
 
    0.32978E+07         0.22853E+07         0.00000E+00
    0.22853E+07         0.11594E+08         0.00000E+00
    0.00000E+00         0.00000E+00         0.29784E+07
 
    0.32681E+07         0.23491E+07         0.00000E+00
    0.23491E+07         0.11609E+08         0.00000E+00
    0.00000E+00         0.00000E+00         0.29754E+07
 
    0.32374E+07         0.24135E+07         0.00000E+00
    0.24135E+07         0.11624E+08         0.00000E+00
    0.00000E+00         0.00000E+00         0.29723E+07
 
    0.32058E+07         0.24785E+07         0.00000E+00
    0.24785E+07         0.11640E+08         0.00000E+00
    0.00000E+00         0.00000E+00         0.29691E+07
 
    0.31732E+07         0.25442E+07         0.00000E+00
    0.25442E+07         0.11656E+08         0.00000E+00
    0.00000E+00         0.00000E+00         0.29658E+07
 
    0.31398E+07         0.26106E+07         0.00000E+00
    0.26106E+07         0.11672E+08         0.00000E+00
    0.00000E+00         0.00000E+00         0.29623E+07
 
    0.31055E+07         0.26778E+07         0.00000E+00
    0.26778E+07         0.11688E+08         0.00000E+00
    0.00000E+00         0.00000E+00         0.29587E+07
 
    0.30703E+07         0.27457E+07         0.00000E+00
    0.27457E+07         0.11704E+08         0.00000E+00
    0.00000E+00         0.00000E+00         0.29549E+07
 
    0.30343E+07         0.28144E+07         0.00000E+00
    0.28144E+07         0.11721E+08         0.00000E+00
    0.00000E+00         0.00000E+00         0.29510E+07
 
    0.29974E+07         0.28840E+07         0.00000E+00
    0.28840E+07         0.11738E+08         0.00000E+00
    0.00000E+00         0.00000E+00         0.29470E+07
 
    0.29598E+07         0.29545E+07         0.00000E+00
    0.29545E+07         0.11755E+08         0.00000E+00
    0.00000E+00         0.00000E+00         0.29429E+07
 
    0.35063E+07         0.30541E+05         0.00000E+00
    0.30541E+05         0.10773E+08         0.00000E+00
    0.00000E+00         0.00000E+00         0.28559E+07
 
    0.35118E+07         0.90683E+05         0.00000E+00
    0.90683E+05         0.10774E+08         0.00000E+00
    0.00000E+00         0.00000E+00         0.28571E+07
 
    0.35166E+07         0.15046E+06         0.00000E+00
    0.15046E+06         0.10774E+08         0.00000E+00
    0.00000E+00         0.00000E+00         0.28582E+07
 
    0.35208E+07         0.20991E+06         0.00000E+00
    0.20991E+06         0.10775E+08         0.00000E+00
    0.00000E+00         0.00000E+00         0.28592E+07
 
    0.35243E+07         0.26905E+06         0.00000E+00
    0.26905E+06         0.10777E+08         0.00000E+00
    0.00000E+00         0.00000E+00         0.28602E+07
 
    0.35270E+07         0.32792E+06         0.00000E+00
    0.32792E+06         0.10778E+08         0.00000E+00
    0.00000E+00         0.00000E+00         0.28611E+07
 
    0.35290E+07         0.38655E+06         0.00000E+00
    0.38655E+06         0.10780E+08         0.00000E+00
    0.00000E+00         0.00000E+00         0.28619E+07
 
    0.35302E+07         0.44497E+06         0.00000E+00
    0.44497E+06         0.10783E+08         0.00000E+00
    0.00000E+00         0.00000E+00         0.28626E+07
 
    0.35306E+07         0.50322E+06         0.00000E+00
    0.50322E+06         0.10786E+08         0.00000E+00
    0.00000E+00         0.00000E+00         0.28632E+07
 
    0.35303E+07         0.56131E+06         0.00000E+00
    0.56131E+06         0.10789E+08         0.00000E+00
    0.00000E+00         0.00000E+00         0.28638E+07
 
    0.35290E+07         0.61929E+06         0.00000E+00
    0.61929E+06         0.10792E+08         0.00000E+00
    0.00000E+00         0.00000E+00         0.28643E+07
 
    0.35270E+07         0.67717E+06         0.00000E+00
    0.67717E+06         0.10796E+08         0.00000E+00
    0.00000E+00         0.00000E+00         0.28647E+07
 
    0.35241E+07         0.73498E+06         0.00000E+00
    0.73498E+06         0.10801E+08         0.00000E+00
    0.00000E+00         0.00000E+00         0.28650E+07
 
    0.35203E+07         0.79277E+06         0.00000E+00
    0.79277E+06         0.10805E+08         0.00000E+00
    0.00000E+00         0.00000E+00         0.28652E+07
 
    0.35157E+07         0.85054E+06         0.00000E+00
    0.85054E+06         0.10811E+08         0.00000E+00
    0.00000E+00         0.00000E+00         0.28653E+07
 
    0.35103E+07         0.90832E+06         0.00000E+00
    0.90832E+06         0.10816E+08         0.00000E+00
    0.00000E+00         0.00000E+00         0.28653E+07
 
    0.35039E+07         0.96614E+06         0.00000E+00
    0.96614E+06         0.10822E+08         0.00000E+00
    0.00000E+00         0.00000E+00         0.28652E+07
 
    0.34967E+07         0.10240E+07         0.00000E+00
    0.10240E+07         0.10828E+08         0.00000E+00
    0.00000E+00         0.00000E+00         0.28650E+07
 
    0.34887E+07         0.10820E+07         0.00000E+00
    0.10820E+07         0.10835E+08         0.00000E+00
    0.00000E+00         0.00000E+00         0.28647E+07
 
    0.34798E+07         0.11401E+07         0.00000E+00
    0.11401E+07         0.10842E+08         0.00000E+00
    0.00000E+00         0.00000E+00         0.28644E+07
 
    0.34699E+07         0.11983E+07         0.00000E+00
    0.11983E+07         0.10849E+08         0.00000E+00
    0.00000E+00         0.00000E+00         0.28639E+07
 
    0.34593E+07         0.12567E+07         0.00000E+00
    0.12567E+07         0.10857E+08         0.00000E+00
    0.00000E+00         0.00000E+00         0.28633E+07
 
    0.34477E+07         0.13152E+07         0.00000E+00
    0.13152E+07         0.10865E+08         0.00000E+00
    0.00000E+00         0.00000E+00         0.28626E+07
 
    0.34353E+07         0.13739E+07         0.00000E+00
    0.13739E+07         0.10874E+08         0.00000E+00
    0.00000E+00         0.00000E+00         0.28618E+07
 
    0.34220E+07         0.14328E+07         0.00000E+00
    0.14328E+07         0.10882E+08         0.00000E+00
    0.00000E+00         0.00000E+00         0.28609E+07
 
    0.34079E+07         0.14920E+07         0.00000E+00
    0.14920E+07         0.10891E+08         0.00000E+00
    0.00000E+00         0.00000E+00         0.28599E+07
 
    0.33929E+07         0.15514E+07         0.00000E+00
    0.15514E+07         0.10901E+08         0.00000E+00
    0.00000E+00         0.00000E+00         0.28588E+07
 
    0.33770E+07         0.16111E+07         0.00000E+00
    0.16111E+07         0.10911E+08         0.00000E+00
    0.00000E+00         0.00000E+00         0.28575E+07
 
    0.33602E+07         0.16711E+07         0.00000E+00
    0.16711E+07         0.10921E+08         0.00000E+00
    0.00000E+00         0.00000E+00         0.28562E+07
 
    0.33426E+07         0.17314E+07         0.00000E+00
    0.17314E+07         0.10931E+08         0.00000E+00
    0.00000E+00         0.00000E+00         0.28547E+07
 
    0.33241E+07         0.17920E+07         0.00000E+00
    0.17920E+07         0.10942E+08         0.00000E+00
    0.00000E+00         0.00000E+00         0.28532E+07
 
    0.33048E+07         0.18529E+07         0.00000E+00
    0.18529E+07         0.10953E+08         0.00000E+00
    0.00000E+00         0.00000E+00         0.28515E+07
 
    0.32846E+07         0.19142E+07         0.00000E+00
    0.19142E+07         0.10964E+08         0.00000E+00
    0.00000E+00         0.00000E+00         0.28497E+07
 
    0.32636E+07         0.19760E+07         0.00000E+00
    0.19760E+07         0.10975E+08         0.00000E+00
    0.00000E+00         0.00000E+00         0.28478E+07
 
    0.32417E+07         0.20381E+07         0.00000E+00
    0.20381E+07         0.10987E+08         0.00000E+00
    0.00000E+00         0.00000E+00         0.28458E+07
 
    0.32190E+07         0.21006E+07         0.00000E+00
    0.21006E+07         0.10999E+08         0.00000E+00
    0.00000E+00         0.00000E+00         0.28437E+07
 
    0.31954E+07         0.21636E+07         0.00000E+00
    0.21636E+07         0.11012E+08         0.00000E+00
    0.00000E+00         0.00000E+00         0.28414E+07
 
    0.31710E+07         0.22271E+07         0.00000E+00
    0.22271E+07         0.11024E+08         0.00000E+00
    0.00000E+00         0.00000E+00         0.28391E+07
 
    0.31458E+07         0.22910E+07         0.00000E+00
    0.22910E+07         0.11037E+08         0.00000E+00
    0.00000E+00         0.00000E+00         0.28366E+07
 
    0.31197E+07         0.23555E+07         0.00000E+00
    0.23555E+07         0.11050E+08         0.00000E+00
    0.00000E+00         0.00000E+00         0.28340E+07
 
    0.30929E+07         0.24206E+07         0.00000E+00
    0.24206E+07         0.11064E+08         0.00000E+00
    0.00000E+00         0.00000E+00         0.28313E+07
 
    0.30652E+07         0.24862E+07         0.00000E+00
    0.24862E+07         0.11077E+08         0.00000E+00
    0.00000E+00         0.00000E+00         0.28285E+07
 
    0.30368E+07         0.25524E+07         0.00000E+00
    0.25524E+07         0.11091E+08         0.00000E+00
    0.00000E+00         0.00000E+00         0.28256E+07
 
    0.30076E+07         0.26192E+07         0.00000E+00
    0.26192E+07         0.11105E+08         0.00000E+00
    0.00000E+00         0.00000E+00         0.28225E+07
 
    0.29776E+07         0.26867E+07         0.00000E+00
    0.26867E+07         0.11119E+08         0.00000E+00
    0.00000E+00         0.00000E+00         0.28194E+07
 
    0.29469E+07         0.27548E+07         0.00000E+00
    0.27548E+07         0.11134E+08         0.00000E+00
    0.00000E+00         0.00000E+00         0.28161E+07
 
    0.29154E+07         0.28237E+07         0.00000E+00
    0.28237E+07         0.11148E+08         0.00000E+00
    0.00000E+00         0.00000E+00         0.28128E+07
 
    0.28833E+07         0.28933E+07         0.00000E+00
    0.28933E+07         0.11163E+08         0.00000E+00
    0.00000E+00         0.00000E+00         0.28093E+07
 
    0.28505E+07         0.29636E+07         0.00000E+00
    0.29636E+07         0.11178E+08         0.00000E+00
    0.00000E+00         0.00000E+00         0.28057E+07
 
    0.28171E+07         0.30347E+07         0.00000E+00
    0.30347E+07         0.11193E+08         0.00000E+00
    0.00000E+00         0.00000E+00         0.28021E+07
 
    0.33126E+07         0.31148E+05         0.00000E+00
    0.31148E+05         0.10275E+08         0.00000E+00
    0.00000E+00         0.00000E+00         0.27174E+07
 
    0.33165E+07         0.92712E+05         0.00000E+00
    0.92712E+05         0.10275E+08         0.00000E+00
    0.00000E+00         0.00000E+00         0.27183E+07
 
    0.33198E+07         0.15399E+06         0.00000E+00
    0.15399E+06         0.10275E+08         0.00000E+00
    0.00000E+00         0.00000E+00         0.27190E+07
 
    0.33225E+07         0.21500E+06         0.00000E+00
    0.21500E+06         0.10276E+08         0.00000E+00
    0.00000E+00         0.00000E+00         0.27197E+07
 
    0.33247E+07         0.27576E+06         0.00000E+00
    0.27576E+06         0.10277E+08         0.00000E+00
    0.00000E+00         0.00000E+00         0.27204E+07
 
    0.33263E+07         0.33631E+06         0.00000E+00
    0.33631E+06         0.10278E+08         0.00000E+00
    0.00000E+00         0.00000E+00         0.27209E+07
 
    0.33272E+07         0.39665E+06         0.00000E+00
    0.39665E+06         0.10280E+08         0.00000E+00
    0.00000E+00         0.00000E+00         0.27215E+07
 
    0.33275E+07         0.45682E+06         0.00000E+00
    0.45682E+06         0.10282E+08         0.00000E+00
    0.00000E+00         0.00000E+00         0.27219E+07
 
    0.33272E+07         0.51684E+06         0.00000E+00
    0.51684E+06         0.10284E+08         0.00000E+00
    0.00000E+00         0.00000E+00         0.27223E+07
 
    0.33262E+07         0.57672E+06         0.00000E+00
    0.57672E+06         0.10287E+08         0.00000E+00
    0.00000E+00         0.00000E+00         0.27226E+07
 
    0.33244E+07         0.63650E+06         0.00000E+00
    0.63650E+06         0.10290E+08         0.00000E+00
    0.00000E+00         0.00000E+00         0.27229E+07
 
    0.33220E+07         0.69619E+06         0.00000E+00
    0.69619E+06         0.10293E+08         0.00000E+00
    0.00000E+00         0.00000E+00         0.27231E+07
 
    0.33188E+07         0.75582E+06         0.00000E+00
    0.75582E+06         0.10297E+08         0.00000E+00
    0.00000E+00         0.00000E+00         0.27232E+07
 
    0.33150E+07         0.81541E+06         0.00000E+00
    0.81541E+06         0.10301E+08         0.00000E+00
    0.00000E+00         0.00000E+00         0.27232E+07
 
    0.33103E+07         0.87498E+06         0.00000E+00
    0.87498E+06         0.10305E+08         0.00000E+00
    0.00000E+00         0.00000E+00         0.27231E+07
 
    0.33050E+07         0.93456E+06         0.00000E+00
    0.93456E+06         0.10310E+08         0.00000E+00
    0.00000E+00         0.00000E+00         0.27230E+07
 
    0.32989E+07         0.99417E+06         0.00000E+00
    0.99417E+06         0.10315E+08         0.00000E+00
    0.00000E+00         0.00000E+00         0.27227E+07
 
    0.32920E+07         0.10538E+07         0.00000E+00
    0.10538E+07         0.10320E+08         0.00000E+00
    0.00000E+00         0.00000E+00         0.27224E+07
 
    0.32844E+07         0.11135E+07         0.00000E+00
    0.11135E+07         0.10326E+08         0.00000E+00
    0.00000E+00         0.00000E+00         0.27220E+07
 
    0.32760E+07         0.11733E+07         0.00000E+00
    0.11733E+07         0.10332E+08         0.00000E+00
    0.00000E+00         0.00000E+00         0.27216E+07
 
    0.32668E+07         0.12333E+07         0.00000E+00
    0.12333E+07         0.10338E+08         0.00000E+00
    0.00000E+00         0.00000E+00         0.27210E+07
 
    0.32569E+07         0.12933E+07         0.00000E+00
    0.12933E+07         0.10345E+08         0.00000E+00
    0.00000E+00         0.00000E+00         0.27203E+07
 
    0.32462E+07         0.13535E+07         0.00000E+00
    0.13535E+07         0.10352E+08         0.00000E+00
    0.00000E+00         0.00000E+00         0.27196E+07
 
    0.32347E+07         0.14139E+07         0.00000E+00
    0.14139E+07         0.10359E+08         0.00000E+00
    0.00000E+00         0.00000E+00         0.27188E+07
 
    0.32225E+07         0.14744E+07         0.00000E+00
    0.14744E+07         0.10367E+08         0.00000E+00
    0.00000E+00         0.00000E+00         0.27178E+07
 
    0.32095E+07         0.15352E+07         0.00000E+00
    0.15352E+07         0.10375E+08         0.00000E+00
    0.00000E+00         0.00000E+00         0.27168E+07
 
    0.31957E+07         0.15961E+07         0.00000E+00
    0.15961E+07         0.10383E+08         0.00000E+00
    0.00000E+00         0.00000E+00         0.27157E+07
 
    0.31811E+07         0.16574E+07         0.00000E+00
    0.16574E+07         0.10391E+08         0.00000E+00
    0.00000E+00         0.00000E+00         0.27145E+07
 
    0.31658E+07         0.17188E+07         0.00000E+00
    0.17188E+07         0.10400E+08         0.00000E+00
    0.00000E+00         0.00000E+00         0.27132E+07
 
    0.31497E+07         0.17806E+07         0.00000E+00
    0.17806E+07         0.10409E+08         0.00000E+00
    0.00000E+00         0.00000E+00         0.27118E+07
 
    0.31329E+07         0.18427E+07         0.00000E+00
    0.18427E+07         0.10419E+08         0.00000E+00
    0.00000E+00         0.00000E+00         0.27103E+07
 
    0.31153E+07         0.19051E+07         0.00000E+00
    0.19051E+07         0.10428E+08         0.00000E+00
    0.00000E+00         0.00000E+00         0.27087E+07
 
    0.30969E+07         0.19678E+07         0.00000E+00
    0.19678E+07         0.10438E+08         0.00000E+00
    0.00000E+00         0.00000E+00         0.27070E+07
 
    0.30778E+07         0.20309E+07         0.00000E+00
    0.20309E+07         0.10448E+08         0.00000E+00
    0.00000E+00         0.00000E+00         0.27052E+07
 
    0.30579E+07         0.20943E+07         0.00000E+00
    0.20943E+07         0.10459E+08         0.00000E+00
    0.00000E+00         0.00000E+00         0.27033E+07
 
    0.30373E+07         0.21582E+07         0.00000E+00
    0.21582E+07         0.10469E+08         0.00000E+00
    0.00000E+00         0.00000E+00         0.27014E+07
 
    0.30160E+07         0.22225E+07         0.00000E+00
    0.22225E+07         0.10480E+08         0.00000E+00
    0.00000E+00         0.00000E+00         0.26993E+07
 
    0.29939E+07         0.22872E+07         0.00000E+00
    0.22872E+07         0.10492E+08         0.00000E+00
    0.00000E+00         0.00000E+00         0.26971E+07
 
    0.29711E+07         0.23524E+07         0.00000E+00
    0.23524E+07         0.10503E+08         0.00000E+00
    0.00000E+00         0.00000E+00         0.26948E+07
 
    0.29476E+07         0.24180E+07         0.00000E+00
    0.24180E+07         0.10515E+08         0.00000E+00
    0.00000E+00         0.00000E+00         0.26925E+07
 
    0.29235E+07         0.24842E+07         0.00000E+00
    0.24842E+07         0.10527E+08         0.00000E+00
    0.00000E+00         0.00000E+00         0.26900E+07
 
    0.28986E+07         0.25509E+07         0.00000E+00
    0.25509E+07         0.10539E+08         0.00000E+00
    0.00000E+00         0.00000E+00         0.26875E+07
 
    0.28731E+07         0.26181E+07         0.00000E+00
    0.26181E+07         0.10551E+08         0.00000E+00
    0.00000E+00         0.00000E+00         0.26848E+07
 
    0.28469E+07         0.26859E+07         0.00000E+00
    0.26859E+07         0.10564E+08         0.00000E+00
    0.00000E+00         0.00000E+00         0.26821E+07
 
    0.28201E+07         0.27543E+07         0.00000E+00
    0.27543E+07         0.10576E+08         0.00000E+00
    0.00000E+00         0.00000E+00         0.26793E+07
 
    0.27927E+07         0.28233E+07         0.00000E+00
    0.28233E+07         0.10589E+08         0.00000E+00
    0.00000E+00         0.00000E+00         0.26764E+07
 
    0.27646E+07         0.28930E+07         0.00000E+00
    0.28930E+07         0.10602E+08         0.00000E+00
    0.00000E+00         0.00000E+00         0.26733E+07
 
    0.27360E+07         0.29633E+07         0.00000E+00
    0.29633E+07         0.10615E+08         0.00000E+00
    0.00000E+00         0.00000E+00         0.26702E+07
 
    0.27068E+07         0.30342E+07         0.00000E+00
    0.30342E+07         0.10628E+08         0.00000E+00
    0.00000E+00         0.00000E+00         0.26671E+07
 
    0.26771E+07         0.31059E+07         0.00000E+00
    0.31059E+07         0.10642E+08         0.00000E+00
    0.00000E+00         0.00000E+00         0.26638E+07
 
    0.31252E+07         0.31640E+05         0.00000E+00
    0.31640E+05         0.97757E+07         0.00000E+00
    0.00000E+00         0.00000E+00         0.25802E+07
 
    0.31277E+07         0.94366E+05         0.00000E+00
    0.94366E+05         0.97759E+07         0.00000E+00
    0.00000E+00         0.00000E+00         0.25807E+07
 
    0.31298E+07         0.15687E+06         0.00000E+00
    0.15687E+06         0.97763E+07         0.00000E+00
    0.00000E+00         0.00000E+00         0.25812E+07
 
    0.31314E+07         0.21917E+06         0.00000E+00
    0.21917E+06         0.97769E+07         0.00000E+00
    0.00000E+00         0.00000E+00         0.25817E+07
 
    0.31326E+07         0.28128E+06         0.00000E+00
    0.28128E+06         0.97778E+07         0.00000E+00
    0.00000E+00         0.00000E+00         0.25821E+07
 
    0.31332E+07         0.34322E+06         0.00000E+00
    0.34322E+06         0.97790E+07         0.00000E+00
    0.00000E+00         0.00000E+00         0.25824E+07
 
    0.31333E+07         0.40500E+06         0.00000E+00
    0.40500E+06         0.97803E+07         0.00000E+00
    0.00000E+00         0.00000E+00         0.25827E+07
 
    0.31329E+07         0.46663E+06         0.00000E+00
    0.46663E+06         0.97820E+07         0.00000E+00
    0.00000E+00         0.00000E+00         0.25830E+07
 
    0.31319E+07         0.52815E+06         0.00000E+00
    0.52815E+06         0.97839E+07         0.00000E+00
    0.00000E+00         0.00000E+00         0.25832E+07
 
    0.31303E+07         0.58956E+06         0.00000E+00
    0.58956E+06         0.97862E+07         0.00000E+00
    0.00000E+00         0.00000E+00         0.25833E+07
 
    0.31282E+07         0.65089E+06         0.00000E+00
    0.65089E+06         0.97887E+07         0.00000E+00
    0.00000E+00         0.00000E+00         0.25834E+07
 
    0.31254E+07         0.71214E+06         0.00000E+00
    0.71214E+06         0.97915E+07         0.00000E+00
    0.00000E+00         0.00000E+00         0.25834E+07
 
    0.31220E+07         0.77335E+06         0.00000E+00
    0.77335E+06         0.97946E+07         0.00000E+00
    0.00000E+00         0.00000E+00         0.25833E+07
 
    0.31180E+07         0.83452E+06         0.00000E+00
    0.83452E+06         0.97979E+07         0.00000E+00
    0.00000E+00         0.00000E+00         0.25832E+07
 
    0.31134E+07         0.89568E+06         0.00000E+00
    0.89568E+06         0.98016E+07         0.00000E+00
    0.00000E+00         0.00000E+00         0.25830E+07
 
    0.31081E+07         0.95685E+06         0.00000E+00
    0.95685E+06         0.98056E+07         0.00000E+00
    0.00000E+00         0.00000E+00         0.25827E+07
 
    0.31022E+07         0.10180E+07         0.00000E+00
    0.10180E+07         0.98099E+07         0.00000E+00
    0.00000E+00         0.00000E+00         0.25824E+07
 
    0.30956E+07         0.10793E+07         0.00000E+00
    0.10793E+07         0.98144E+07         0.00000E+00
    0.00000E+00         0.00000E+00         0.25820E+07
 
    0.30883E+07         0.11406E+07         0.00000E+00
    0.11406E+07         0.98193E+07         0.00000E+00
    0.00000E+00         0.00000E+00         0.25815E+07
 
    0.30804E+07         0.12019E+07         0.00000E+00
    0.12019E+07         0.98245E+07         0.00000E+00
    0.00000E+00         0.00000E+00         0.25810E+07
 
    0.30718E+07         0.12634E+07         0.00000E+00
    0.12634E+07         0.98300E+07         0.00000E+00
    0.00000E+00         0.00000E+00         0.25804E+07
 
    0.30625E+07         0.13250E+07         0.00000E+00
    0.13250E+07         0.98357E+07         0.00000E+00
    0.00000E+00         0.00000E+00         0.25796E+07
 
    0.30526E+07         0.13867E+07         0.00000E+00
    0.13867E+07         0.98418E+07         0.00000E+00
    0.00000E+00         0.00000E+00         0.25789E+07
 
    0.30419E+07         0.14486E+07         0.00000E+00
    0.14486E+07         0.98481E+07         0.00000E+00
    0.00000E+00         0.00000E+00         0.25780E+07
 
    0.30306E+07         0.15106E+07         0.00000E+00
    0.15106E+07         0.98548E+07         0.00000E+00
    0.00000E+00         0.00000E+00         0.25771E+07
 
    0.30186E+07         0.15729E+07         0.00000E+00
    0.15729E+07         0.98617E+07         0.00000E+00
    0.00000E+00         0.00000E+00         0.25761E+07
 
    0.30060E+07         0.16353E+07         0.00000E+00
    0.16353E+07         0.98689E+07         0.00000E+00
    0.00000E+00         0.00000E+00         0.25750E+07
 
    0.29926E+07         0.16979E+07         0.00000E+00
    0.16979E+07         0.98764E+07         0.00000E+00
    0.00000E+00         0.00000E+00         0.25738E+07
 
    0.29786E+07         0.17608E+07         0.00000E+00
    0.17608E+07         0.98841E+07         0.00000E+00
    0.00000E+00         0.00000E+00         0.25725E+07
 
    0.29639E+07         0.18240E+07         0.00000E+00
    0.18240E+07         0.98921E+07         0.00000E+00
    0.00000E+00         0.00000E+00         0.25712E+07
 
    0.29485E+07         0.18874E+07         0.00000E+00
    0.18874E+07         0.99004E+07         0.00000E+00
    0.00000E+00         0.00000E+00         0.25698E+07
 
    0.29325E+07         0.19511E+07         0.00000E+00
    0.19511E+07         0.99089E+07         0.00000E+00
    0.00000E+00         0.00000E+00         0.25683E+07
 
    0.29158E+07         0.20152E+07         0.00000E+00
    0.20152E+07         0.99177E+07         0.00000E+00
    0.00000E+00         0.00000E+00         0.25667E+07
 
    0.28985E+07         0.20795E+07         0.00000E+00
    0.20795E+07         0.99267E+07         0.00000E+00
    0.00000E+00         0.00000E+00         0.25650E+07
 
    0.28805E+07         0.21442E+07         0.00000E+00
    0.21442E+07         0.99360E+07         0.00000E+00
    0.00000E+00         0.00000E+00         0.25633E+07
 
    0.28618E+07         0.22093E+07         0.00000E+00
    0.22093E+07         0.99455E+07         0.00000E+00
    0.00000E+00         0.00000E+00         0.25615E+07
 
    0.28425E+07         0.22748E+07         0.00000E+00
    0.22748E+07         0.99553E+07         0.00000E+00
    0.00000E+00         0.00000E+00         0.25596E+07
 
    0.28226E+07         0.23406E+07         0.00000E+00
    0.23406E+07         0.99652E+07         0.00000E+00
    0.00000E+00         0.00000E+00         0.25576E+07
 
    0.28021E+07         0.24069E+07         0.00000E+00
    0.24069E+07         0.99754E+07         0.00000E+00
    0.00000E+00         0.00000E+00         0.25555E+07
 
    0.27810E+07         0.24736E+07         0.00000E+00
    0.24736E+07         0.99858E+07         0.00000E+00
    0.00000E+00         0.00000E+00         0.25534E+07
 
    0.27593E+07         0.25408E+07         0.00000E+00
    0.25408E+07         0.99964E+07         0.00000E+00
    0.00000E+00         0.00000E+00         0.25511E+07
 
    0.27370E+07         0.26085E+07         0.00000E+00
    0.26085E+07         0.10007E+08         0.00000E+00
    0.00000E+00         0.00000E+00         0.25488E+07
 
    0.27141E+07         0.26766E+07         0.00000E+00
    0.26766E+07         0.10018E+08         0.00000E+00
    0.00000E+00         0.00000E+00         0.25464E+07
 
    0.26907E+07         0.27453E+07         0.00000E+00
    0.27453E+07         0.10029E+08         0.00000E+00
    0.00000E+00         0.00000E+00         0.25440E+07
 
    0.26667E+07         0.28145E+07         0.00000E+00
    0.28145E+07         0.10040E+08         0.00000E+00
    0.00000E+00         0.00000E+00         0.25414E+07
 
    0.26422E+07         0.28842E+07         0.00000E+00
    0.28842E+07         0.10052E+08         0.00000E+00
    0.00000E+00         0.00000E+00         0.25388E+07
 
    0.26172E+07         0.29545E+07         0.00000E+00
    0.29545E+07         0.10063E+08         0.00000E+00
    0.00000E+00         0.00000E+00         0.25361E+07
 
    0.25918E+07         0.30254E+07         0.00000E+00
    0.30254E+07         0.10075E+08         0.00000E+00
    0.00000E+00         0.00000E+00         0.25334E+07
 
    0.25658E+07         0.30969E+07         0.00000E+00
    0.30969E+07         0.10087E+08         0.00000E+00
    0.00000E+00         0.00000E+00         0.25305E+07
 
    0.25394E+07         0.31691E+07         0.00000E+00
    0.31691E+07         0.10099E+08         0.00000E+00
    0.00000E+00         0.00000E+00         0.25276E+07
 
    0.29430E+07         0.32061E+05         0.00000E+00
    0.32061E+05         0.92768E+07         0.00000E+00
    0.00000E+00         0.00000E+00         0.24440E+07
 
    0.29445E+07         0.95773E+05         0.00000E+00
    0.95773E+05         0.92770E+07         0.00000E+00
    0.00000E+00         0.00000E+00         0.24443E+07
 
    0.29457E+07         0.15932E+06         0.00000E+00
    0.15932E+06         0.92773E+07         0.00000E+00
    0.00000E+00         0.00000E+00         0.24446E+07
 
    0.29464E+07         0.22272E+06         0.00000E+00
    0.22272E+06         0.92779E+07         0.00000E+00
    0.00000E+00         0.00000E+00         0.24449E+07
 
    0.29468E+07         0.28597E+06         0.00000E+00
    0.28597E+06         0.92786E+07         0.00000E+00
    0.00000E+00         0.00000E+00         0.24451E+07
 
    0.29467E+07         0.34909E+06         0.00000E+00
    0.34909E+06         0.92796E+07         0.00000E+00
    0.00000E+00         0.00000E+00         0.24453E+07
 
    0.29461E+07         0.41210E+06         0.00000E+00
    0.41210E+06         0.92808E+07         0.00000E+00
    0.00000E+00         0.00000E+00         0.24454E+07
 
    0.29451E+07         0.47500E+06         0.00000E+00
    0.47500E+06         0.92823E+07         0.00000E+00
    0.00000E+00         0.00000E+00         0.24455E+07
 
    0.29436E+07         0.53780E+06         0.00000E+00
    0.53780E+06         0.92839E+07         0.00000E+00
    0.00000E+00         0.00000E+00         0.24455E+07
 
    0.29417E+07         0.60053E+06         0.00000E+00
    0.60053E+06         0.92859E+07         0.00000E+00
    0.00000E+00         0.00000E+00         0.24455E+07
 
    0.29392E+07         0.66320E+06         0.00000E+00
    0.66320E+06         0.92880E+07         0.00000E+00
    0.00000E+00         0.00000E+00         0.24454E+07
 
    0.29362E+07         0.72581E+06         0.00000E+00
    0.72581E+06         0.92904E+07         0.00000E+00
    0.00000E+00         0.00000E+00         0.24453E+07
 
    0.29326E+07         0.78840E+06         0.00000E+00
    0.78840E+06         0.92931E+07         0.00000E+00
    0.00000E+00         0.00000E+00         0.24451E+07
 
    0.29285E+07         0.85096E+06         0.00000E+00
    0.85096E+06         0.92960E+07         0.00000E+00
    0.00000E+00         0.00000E+00         0.24449E+07
 
    0.29239E+07         0.91352E+06         0.00000E+00
    0.91352E+06         0.92992E+07         0.00000E+00
    0.00000E+00         0.00000E+00         0.24446E+07
 
    0.29187E+07         0.97610E+06         0.00000E+00
    0.97610E+06         0.93027E+07         0.00000E+00
    0.00000E+00         0.00000E+00         0.24443E+07
 
    0.29129E+07         0.10387E+07         0.00000E+00
    0.10387E+07         0.93064E+07         0.00000E+00
    0.00000E+00         0.00000E+00         0.24439E+07
 
    0.29066E+07         0.11013E+07         0.00000E+00
    0.11013E+07         0.93104E+07         0.00000E+00
    0.00000E+00         0.00000E+00         0.24434E+07
 
    0.28997E+07         0.11640E+07         0.00000E+00
    0.11640E+07         0.93147E+07         0.00000E+00
    0.00000E+00         0.00000E+00         0.24429E+07
 
    0.28922E+07         0.12268E+07         0.00000E+00
    0.12268E+07         0.93192E+07         0.00000E+00
    0.00000E+00         0.00000E+00         0.24423E+07
 
    0.28841E+07         0.12897E+07         0.00000E+00
    0.12897E+07         0.93240E+07         0.00000E+00
    0.00000E+00         0.00000E+00         0.24416E+07
 
    0.28754E+07         0.13527E+07         0.00000E+00
    0.13527E+07         0.93290E+07         0.00000E+00
    0.00000E+00         0.00000E+00         0.24409E+07
 
    0.28661E+07         0.14158E+07         0.00000E+00
    0.14158E+07         0.93344E+07         0.00000E+00
    0.00000E+00         0.00000E+00         0.24401E+07
 
    0.28563E+07         0.14790E+07         0.00000E+00
    0.14790E+07         0.93399E+07         0.00000E+00
    0.00000E+00         0.00000E+00         0.24392E+07
 
    0.28458E+07         0.15424E+07         0.00000E+00
    0.15424E+07         0.93458E+07         0.00000E+00
    0.00000E+00         0.00000E+00         0.24383E+07
 
    0.28348E+07         0.16060E+07         0.00000E+00
    0.16060E+07         0.93519E+07         0.00000E+00
    0.00000E+00         0.00000E+00         0.24373E+07
 
    0.28231E+07         0.16697E+07         0.00000E+00
    0.16697E+07         0.93582E+07         0.00000E+00
    0.00000E+00         0.00000E+00         0.24363E+07
 
    0.28109E+07         0.17337E+07         0.00000E+00
    0.17337E+07         0.93648E+07         0.00000E+00
    0.00000E+00         0.00000E+00         0.24351E+07
 
    0.27981E+07         0.17979E+07         0.00000E+00
    0.17979E+07         0.93717E+07         0.00000E+00
    0.00000E+00         0.00000E+00         0.24339E+07
 
    0.27846E+07         0.18623E+07         0.00000E+00
    0.18623E+07         0.93788E+07         0.00000E+00
    0.00000E+00         0.00000E+00         0.24327E+07
 
    0.27706E+07         0.19270E+07         0.00000E+00
    0.19270E+07         0.93861E+07         0.00000E+00
    0.00000E+00         0.00000E+00         0.24313E+07
 
    0.27561E+07         0.19919E+07         0.00000E+00
    0.19919E+07         0.93936E+07         0.00000E+00
    0.00000E+00         0.00000E+00         0.24299E+07
 
    0.27409E+07         0.20571E+07         0.00000E+00
    0.20571E+07         0.94014E+07         0.00000E+00
    0.00000E+00         0.00000E+00         0.24285E+07
 
    0.27252E+07         0.21226E+07         0.00000E+00
    0.21226E+07         0.94095E+07         0.00000E+00
    0.00000E+00         0.00000E+00         0.24269E+07
 
    0.27089E+07         0.21885E+07         0.00000E+00
    0.21885E+07         0.94177E+07         0.00000E+00
    0.00000E+00         0.00000E+00         0.24253E+07
 
    0.26920E+07         0.22547E+07         0.00000E+00
    0.22547E+07         0.94261E+07         0.00000E+00
    0.00000E+00         0.00000E+00         0.24236E+07
 
    0.26746E+07         0.23212E+07         0.00000E+00
    0.23212E+07         0.94348E+07         0.00000E+00
    0.00000E+00         0.00000E+00         0.24219E+07
 
    0.26567E+07         0.23881E+07         0.00000E+00
    0.23881E+07         0.94436E+07         0.00000E+00
    0.00000E+00         0.00000E+00         0.24201E+07
 
    0.26382E+07         0.24554E+07         0.00000E+00
    0.24554E+07         0.94527E+07         0.00000E+00
    0.00000E+00         0.00000E+00         0.24182E+07
 
    0.26192E+07         0.25230E+07         0.00000E+00
    0.25230E+07         0.94619E+07         0.00000E+00
    0.00000E+00         0.00000E+00         0.24162E+07
 
    0.25997E+07         0.25911E+07         0.00000E+00
    0.25911E+07         0.94713E+07         0.00000E+00
    0.00000E+00         0.00000E+00         0.24142E+07
 
    0.25797E+07         0.26596E+07         0.00000E+00
    0.26596E+07         0.94809E+07         0.00000E+00
    0.00000E+00         0.00000E+00         0.24121E+07
 
    0.25592E+07         0.27286E+07         0.00000E+00
    0.27286E+07         0.94906E+07         0.00000E+00
    0.00000E+00         0.00000E+00         0.24100E+07
 
    0.25383E+07         0.27980E+07         0.00000E+00
    0.27980E+07         0.95005E+07         0.00000E+00
    0.00000E+00         0.00000E+00         0.24078E+07
 
    0.25169E+07         0.28679E+07         0.00000E+00
    0.28679E+07         0.95105E+07         0.00000E+00
    0.00000E+00         0.00000E+00         0.24055E+07
 
    0.24951E+07         0.29383E+07         0.00000E+00
    0.29383E+07         0.95206E+07         0.00000E+00
    0.00000E+00         0.00000E+00         0.24031E+07
 
    0.24728E+07         0.30092E+07         0.00000E+00
    0.30092E+07         0.95309E+07         0.00000E+00
    0.00000E+00         0.00000E+00         0.24007E+07
 
    0.24501E+07         0.30806E+07         0.00000E+00
    0.30806E+07         0.95412E+07         0.00000E+00
    0.00000E+00         0.00000E+00         0.23983E+07
 
    0.24271E+07         0.31526E+07         0.00000E+00
    0.31526E+07         0.95517E+07         0.00000E+00
    0.00000E+00         0.00000E+00         0.23957E+07
 
    0.24037E+07         0.32251E+07         0.00000E+00
    0.32251E+07         0.95622E+07         0.00000E+00
    0.00000E+00         0.00000E+00         0.23932E+07
 
    0.27652E+07         0.32437E+05         0.00000E+00
    0.32437E+05         0.87779E+07         0.00000E+00
    0.00000E+00         0.00000E+00         0.23086E+07
 
    0.27660E+07         0.97018E+05         0.00000E+00
    0.97018E+05         0.87780E+07         0.00000E+00
    0.00000E+00         0.00000E+00         0.23088E+07
 
    0.27665E+07         0.16148E+06         0.00000E+00
    0.16148E+06         0.87783E+07         0.00000E+00
    0.00000E+00         0.00000E+00         0.23090E+07
 
    0.27666E+07         0.22583E+06         0.00000E+00
    0.22583E+06         0.87788E+07         0.00000E+00
    0.00000E+00         0.00000E+00         0.23091E+07
 
    0.27664E+07         0.29008E+06         0.00000E+00
    0.29008E+06         0.87795E+07         0.00000E+00
    0.00000E+00         0.00000E+00         0.23092E+07
 
    0.27657E+07         0.35424E+06         0.00000E+00
    0.35424E+06         0.87804E+07         0.00000E+00
    0.00000E+00         0.00000E+00         0.23092E+07
 
    0.27647E+07         0.41831E+06         0.00000E+00
    0.41831E+06         0.87815E+07         0.00000E+00
    0.00000E+00         0.00000E+00         0.23092E+07
 
    0.27633E+07         0.48231E+06         0.00000E+00
    0.48231E+06         0.87827E+07         0.00000E+00
    0.00000E+00         0.00000E+00         0.23092E+07
 
    0.27615E+07         0.54624E+06         0.00000E+00
    0.54624E+06         0.87842E+07         0.00000E+00
    0.00000E+00         0.00000E+00         0.23091E+07
 
    0.27592E+07         0.61012E+06         0.00000E+00
    0.61012E+06         0.87859E+07         0.00000E+00
    0.00000E+00         0.00000E+00         0.23090E+07
 
    0.27565E+07         0.67396E+06         0.00000E+00
    0.67396E+06         0.87878E+07         0.00000E+00
    0.00000E+00         0.00000E+00         0.23089E+07
 
    0.27533E+07         0.73777E+06         0.00000E+00
    0.73777E+06         0.87899E+07         0.00000E+00
    0.00000E+00         0.00000E+00         0.23086E+07
 
    0.27496E+07         0.80156E+06         0.00000E+00
    0.80156E+06         0.87923E+07         0.00000E+00
    0.00000E+00         0.00000E+00         0.23084E+07
 
    0.27455E+07         0.86535E+06         0.00000E+00
    0.86535E+06         0.87949E+07         0.00000E+00
    0.00000E+00         0.00000E+00         0.23081E+07
 
    0.27409E+07         0.92914E+06         0.00000E+00
    0.92914E+06         0.87977E+07         0.00000E+00
    0.00000E+00         0.00000E+00         0.23077E+07
 
    0.27359E+07         0.99296E+06         0.00000E+00
    0.99296E+06         0.88008E+07         0.00000E+00
    0.00000E+00         0.00000E+00         0.23073E+07
 
    0.27303E+07         0.10568E+07         0.00000E+00
    0.10568E+07         0.88041E+07         0.00000E+00
    0.00000E+00         0.00000E+00         0.23069E+07
 
    0.27242E+07         0.11207E+07         0.00000E+00
    0.11207E+07         0.88076E+07         0.00000E+00
    0.00000E+00         0.00000E+00         0.23064E+07
 
    0.27176E+07         0.11847E+07         0.00000E+00
    0.11847E+07         0.88113E+07         0.00000E+00
    0.00000E+00         0.00000E+00         0.23058E+07
 
    0.27105E+07         0.12487E+07         0.00000E+00
    0.12487E+07         0.88153E+07         0.00000E+00
    0.00000E+00         0.00000E+00         0.23052E+07
 
    0.27030E+07         0.13128E+07         0.00000E+00
    0.13128E+07         0.88196E+07         0.00000E+00
    0.00000E+00         0.00000E+00         0.23045E+07
 
    0.26948E+07         0.13771E+07         0.00000E+00
    0.13771E+07         0.88240E+07         0.00000E+00
    0.00000E+00         0.00000E+00         0.23038E+07
 
    0.26862E+07         0.14414E+07         0.00000E+00
    0.14414E+07         0.88287E+07         0.00000E+00
    0.00000E+00         0.00000E+00         0.23030E+07
 
    0.26771E+07         0.15059E+07         0.00000E+00
    0.15059E+07         0.88337E+07         0.00000E+00
    0.00000E+00         0.00000E+00         0.23021E+07
 
    0.26674E+07         0.15705E+07         0.00000E+00
    0.15705E+07         0.88389E+07         0.00000E+00
    0.00000E+00         0.00000E+00         0.23013E+07
 
    0.26572E+07         0.16353E+07         0.00000E+00
    0.16353E+07         0.88443E+07         0.00000E+00
    0.00000E+00         0.00000E+00         0.23003E+07
 
    0.26465E+07         0.17002E+07         0.00000E+00
    0.17002E+07         0.88499E+07         0.00000E+00
    0.00000E+00         0.00000E+00         0.22993E+07
 
    0.26353E+07         0.17654E+07         0.00000E+00
    0.17654E+07         0.88557E+07         0.00000E+00
    0.00000E+00         0.00000E+00         0.22982E+07
 
    0.26236E+07         0.18307E+07         0.00000E+00
    0.18307E+07         0.88618E+07         0.00000E+00
    0.00000E+00         0.00000E+00         0.22971E+07
 
    0.26113E+07         0.18963E+07         0.00000E+00
    0.18963E+07         0.88681E+07         0.00000E+00
    0.00000E+00         0.00000E+00         0.22959E+07
 
    0.25986E+07         0.19621E+07         0.00000E+00
    0.19621E+07         0.88746E+07         0.00000E+00
    0.00000E+00         0.00000E+00         0.22946E+07
 
    0.25853E+07         0.20281E+07         0.00000E+00
    0.20281E+07         0.88814E+07         0.00000E+00
    0.00000E+00         0.00000E+00         0.22933E+07
 
    0.25715E+07         0.20944E+07         0.00000E+00
    0.20944E+07         0.88883E+07         0.00000E+00
    0.00000E+00         0.00000E+00         0.22920E+07
 
    0.25573E+07         0.21610E+07         0.00000E+00
    0.21610E+07         0.88954E+07         0.00000E+00
    0.00000E+00         0.00000E+00         0.22905E+07
 
    0.25425E+07         0.22278E+07         0.00000E+00
    0.22278E+07         0.89027E+07         0.00000E+00
    0.00000E+00         0.00000E+00         0.22891E+07
 
    0.25273E+07         0.22950E+07         0.00000E+00
    0.22950E+07         0.89103E+07         0.00000E+00
    0.00000E+00         0.00000E+00         0.22875E+07
 
    0.25116E+07         0.23625E+07         0.00000E+00
    0.23625E+07         0.89180E+07         0.00000E+00
    0.00000E+00         0.00000E+00         0.22859E+07
 
    0.24955E+07         0.24303E+07         0.00000E+00
    0.24303E+07         0.89258E+07         0.00000E+00
    0.00000E+00         0.00000E+00         0.22843E+07
 
    0.24789E+07         0.24984E+07         0.00000E+00
    0.24984E+07         0.89339E+07         0.00000E+00
    0.00000E+00         0.00000E+00         0.22825E+07
 
    0.24618E+07         0.25669E+07         0.00000E+00
    0.25669E+07         0.89421E+07         0.00000E+00
    0.00000E+00         0.00000E+00         0.22808E+07
 
    0.24443E+07         0.26358E+07         0.00000E+00
    0.26358E+07         0.89504E+07         0.00000E+00
    0.00000E+00         0.00000E+00         0.22789E+07
 
    0.24264E+07         0.27051E+07         0.00000E+00
    0.27051E+07         0.89589E+07         0.00000E+00
    0.00000E+00         0.00000E+00         0.22771E+07
 
    0.24080E+07         0.27748E+07         0.00000E+00
    0.27748E+07         0.89676E+07         0.00000E+00
    0.00000E+00         0.00000E+00         0.22751E+07
 
    0.23893E+07         0.28449E+07         0.00000E+00
    0.28449E+07         0.89764E+07         0.00000E+00
    0.00000E+00         0.00000E+00         0.22731E+07
 
    0.23702E+07         0.29154E+07         0.00000E+00
    0.29154E+07         0.89853E+07         0.00000E+00
    0.00000E+00         0.00000E+00         0.22711E+07
 
    0.23507E+07         0.29863E+07         0.00000E+00
    0.29863E+07         0.89943E+07         0.00000E+00
    0.00000E+00         0.00000E+00         0.22690E+07
 
    0.23309E+07         0.30577E+07         0.00000E+00
    0.30577E+07         0.90034E+07         0.00000E+00
    0.00000E+00         0.00000E+00         0.22669E+07
 
    0.23107E+07         0.31296E+07         0.00000E+00
    0.31296E+07         0.90126E+07         0.00000E+00
    0.00000E+00         0.00000E+00         0.22647E+07
 
    0.22902E+07         0.32019E+07         0.00000E+00
    0.32019E+07         0.90218E+07         0.00000E+00
    0.00000E+00         0.00000E+00         0.22624E+07
 
    0.22694E+07         0.32748E+07         0.00000E+00
    0.32748E+07         0.90312E+07         0.00000E+00
    0.00000E+00         0.00000E+00         0.22601E+07
 
    0.25913E+07         0.32785E+05         0.00000E+00
    0.32785E+05         0.82789E+07         0.00000E+00
    0.00000E+00         0.00000E+00         0.21741E+07
 
    0.25917E+07         0.98150E+05         0.00000E+00
    0.98150E+05         0.82791E+07         0.00000E+00
    0.00000E+00         0.00000E+00         0.21741E+07
 
    0.25917E+07         0.16343E+06         0.00000E+00
    0.16343E+06         0.82794E+07         0.00000E+00
    0.00000E+00         0.00000E+00         0.21742E+07
 
    0.25913E+07         0.22864E+06         0.00000E+00
    0.22864E+06         0.82798E+07         0.00000E+00
    0.00000E+00         0.00000E+00         0.21742E+07
 
    0.25907E+07         0.29378E+06         0.00000E+00
    0.29378E+06         0.82804E+07         0.00000E+00
    0.00000E+00         0.00000E+00         0.21742E+07
 
    0.25897E+07         0.35885E+06         0.00000E+00
    0.35885E+06         0.82812E+07         0.00000E+00
    0.00000E+00         0.00000E+00         0.21742E+07
 
    0.25884E+07         0.42386E+06         0.00000E+00
    0.42386E+06         0.82822E+07         0.00000E+00
    0.00000E+00         0.00000E+00         0.21741E+07
 
    0.25867E+07         0.48883E+06         0.00000E+00
    0.48883E+06         0.82833E+07         0.00000E+00
    0.00000E+00         0.00000E+00         0.21740E+07
 
    0.25846E+07         0.55376E+06         0.00000E+00
    0.55376E+06         0.82847E+07         0.00000E+00
    0.00000E+00         0.00000E+00         0.21738E+07
 
    0.25821E+07         0.61866E+06         0.00000E+00
    0.61866E+06         0.82862E+07         0.00000E+00
    0.00000E+00         0.00000E+00         0.21737E+07
 
    0.25793E+07         0.68353E+06         0.00000E+00
    0.68353E+06         0.82879E+07         0.00000E+00
    0.00000E+00         0.00000E+00         0.21734E+07
 
    0.25760E+07         0.74840E+06         0.00000E+00
    0.74840E+06         0.82898E+07         0.00000E+00
    0.00000E+00         0.00000E+00         0.21732E+07
 
    0.25724E+07         0.81326E+06         0.00000E+00
    0.81326E+06         0.82919E+07         0.00000E+00
    0.00000E+00         0.00000E+00         0.21729E+07
 
    0.25683E+07         0.87813E+06         0.00000E+00
    0.87813E+06         0.82942E+07         0.00000E+00
    0.00000E+00         0.00000E+00         0.21725E+07
 
    0.25638E+07         0.94302E+06         0.00000E+00
    0.94302E+06         0.82967E+07         0.00000E+00
    0.00000E+00         0.00000E+00         0.21721E+07
 
    0.25589E+07         0.10079E+07         0.00000E+00
    0.10079E+07         0.82995E+07         0.00000E+00
    0.00000E+00         0.00000E+00         0.21717E+07
 
    0.25535E+07         0.10729E+07         0.00000E+00
    0.10729E+07         0.83024E+07         0.00000E+00
    0.00000E+00         0.00000E+00         0.21712E+07
 
    0.25477E+07         0.11379E+07         0.00000E+00
    0.11379E+07         0.83055E+07         0.00000E+00
    0.00000E+00         0.00000E+00         0.21707E+07
 
    0.25415E+07         0.12030E+07         0.00000E+00
    0.12030E+07         0.83089E+07         0.00000E+00
    0.00000E+00         0.00000E+00         0.21701E+07
 
    0.25348E+07         0.12681E+07         0.00000E+00
    0.12681E+07         0.83125E+07         0.00000E+00
    0.00000E+00         0.00000E+00         0.21695E+07
 
    0.25277E+07         0.13334E+07         0.00000E+00
    0.13334E+07         0.83162E+07         0.00000E+00
    0.00000E+00         0.00000E+00         0.21688E+07
 
    0.25201E+07         0.13987E+07         0.00000E+00
    0.13987E+07         0.83202E+07         0.00000E+00
    0.00000E+00         0.00000E+00         0.21681E+07
 
    0.25121E+07         0.14642E+07         0.00000E+00
    0.14642E+07         0.83244E+07         0.00000E+00
    0.00000E+00         0.00000E+00         0.21673E+07
 
    0.25036E+07         0.15297E+07         0.00000E+00
    0.15297E+07         0.83288E+07         0.00000E+00
    0.00000E+00         0.00000E+00         0.21665E+07
 
    0.24947E+07         0.15955E+07         0.00000E+00
    0.15955E+07         0.83334E+07         0.00000E+00
    0.00000E+00         0.00000E+00         0.21656E+07
 
    0.24853E+07         0.16613E+07         0.00000E+00
    0.16613E+07         0.83383E+07         0.00000E+00
    0.00000E+00         0.00000E+00         0.21647E+07
 
    0.24755E+07         0.17273E+07         0.00000E+00
    0.17273E+07         0.83433E+07         0.00000E+00
    0.00000E+00         0.00000E+00         0.21638E+07
 
    0.24652E+07         0.17935E+07         0.00000E+00
    0.17935E+07         0.83485E+07         0.00000E+00
    0.00000E+00         0.00000E+00         0.21627E+07
 
    0.24545E+07         0.18599E+07         0.00000E+00
    0.18599E+07         0.83539E+07         0.00000E+00
    0.00000E+00         0.00000E+00         0.21617E+07
 
    0.24433E+07         0.19265E+07         0.00000E+00
    0.19265E+07         0.83595E+07         0.00000E+00
    0.00000E+00         0.00000E+00         0.21606E+07
 
    0.24317E+07         0.19933E+07         0.00000E+00
    0.19933E+07         0.83653E+07         0.00000E+00
    0.00000E+00         0.00000E+00         0.21594E+07
 
    0.24196E+07         0.20603E+07         0.00000E+00
    0.20603E+07         0.83713E+07         0.00000E+00
    0.00000E+00         0.00000E+00         0.21582E+07
 
    0.24072E+07         0.21276E+07         0.00000E+00
    0.21276E+07         0.83775E+07         0.00000E+00
    0.00000E+00         0.00000E+00         0.21569E+07
 
    0.23943E+07         0.21951E+07         0.00000E+00
    0.21951E+07         0.83839E+07         0.00000E+00
    0.00000E+00         0.00000E+00         0.21556E+07
 
    0.23809E+07         0.22628E+07         0.00000E+00
    0.22628E+07         0.83904E+07         0.00000E+00
    0.00000E+00         0.00000E+00         0.21543E+07
 
    0.23672E+07         0.23309E+07         0.00000E+00
    0.23309E+07         0.83971E+07         0.00000E+00
    0.00000E+00         0.00000E+00         0.21528E+07
 
    0.23530E+07         0.23992E+07         0.00000E+00
    0.23992E+07         0.84039E+07         0.00000E+00
    0.00000E+00         0.00000E+00         0.21514E+07
 
    0.23385E+07         0.24678E+07         0.00000E+00
    0.24678E+07         0.84109E+07         0.00000E+00
    0.00000E+00         0.00000E+00         0.21499E+07
 
    0.23235E+07         0.25368E+07         0.00000E+00
    0.25368E+07         0.84181E+07         0.00000E+00
    0.00000E+00         0.00000E+00         0.21483E+07
 
    0.23082E+07         0.26060E+07         0.00000E+00
    0.26060E+07         0.84254E+07         0.00000E+00
    0.00000E+00         0.00000E+00         0.21467E+07
 
    0.22925E+07         0.26756E+07         0.00000E+00
    0.26756E+07         0.84329E+07         0.00000E+00
    0.00000E+00         0.00000E+00         0.21451E+07
 
    0.22764E+07         0.27456E+07         0.00000E+00
    0.27456E+07         0.84404E+07         0.00000E+00
    0.00000E+00         0.00000E+00         0.21434E+07
 
    0.22600E+07         0.28159E+07         0.00000E+00
    0.28159E+07         0.84481E+07         0.00000E+00
    0.00000E+00         0.00000E+00         0.21416E+07
 
    0.22433E+07         0.28865E+07         0.00000E+00
    0.28865E+07         0.84559E+07         0.00000E+00
    0.00000E+00         0.00000E+00         0.21398E+07
 
    0.22262E+07         0.29576E+07         0.00000E+00
    0.29576E+07         0.84639E+07         0.00000E+00
    0.00000E+00         0.00000E+00         0.21380E+07
 
    0.22088E+07         0.30290E+07         0.00000E+00
    0.30290E+07         0.84719E+07         0.00000E+00
    0.00000E+00         0.00000E+00         0.21361E+07
 
    0.21912E+07         0.31009E+07         0.00000E+00
    0.31009E+07         0.84800E+07         0.00000E+00
    0.00000E+00         0.00000E+00         0.21342E+07
 
    0.21732E+07         0.31731E+07         0.00000E+00
    0.31731E+07         0.84881E+07         0.00000E+00
    0.00000E+00         0.00000E+00         0.21323E+07
 
    0.21550E+07         0.32458E+07         0.00000E+00
    0.32458E+07         0.84964E+07         0.00000E+00
    0.00000E+00         0.00000E+00         0.21303E+07
 
    0.21365E+07         0.33189E+07         0.00000E+00
    0.33189E+07         0.85047E+07         0.00000E+00
    0.00000E+00         0.00000E+00         0.21282E+07
 
    0.24212E+07         0.33113E+05         0.00000E+00
    0.33113E+05         0.77799E+07         0.00000E+00
    0.00000E+00         0.00000E+00         0.20402E+07
 
    0.24211E+07         0.99200E+05         0.00000E+00
    0.99200E+05         0.77801E+07         0.00000E+00
    0.00000E+00         0.00000E+00         0.20402E+07
 
    0.24208E+07         0.16523E+06         0.00000E+00
    0.16523E+06         0.77803E+07         0.00000E+00
    0.00000E+00         0.00000E+00         0.20402E+07
 
    0.24202E+07         0.23122E+06         0.00000E+00
    0.23122E+06         0.77808E+07         0.00000E+00
    0.00000E+00         0.00000E+00         0.20402E+07
 
    0.24193E+07         0.29715E+06         0.00000E+00
    0.29715E+06         0.77813E+07         0.00000E+00
    0.00000E+00         0.00000E+00         0.20401E+07
 
    0.24181E+07         0.36305E+06         0.00000E+00
    0.36305E+06         0.77821E+07         0.00000E+00
    0.00000E+00         0.00000E+00         0.20400E+07
 
    0.24165E+07         0.42891E+06         0.00000E+00
    0.42891E+06         0.77829E+07         0.00000E+00
    0.00000E+00         0.00000E+00         0.20399E+07
 
    0.24146E+07         0.49475E+06         0.00000E+00
    0.49475E+06         0.77840E+07         0.00000E+00
    0.00000E+00         0.00000E+00         0.20397E+07
 
    0.24124E+07         0.56057E+06         0.00000E+00
    0.56057E+06         0.77852E+07         0.00000E+00
    0.00000E+00         0.00000E+00         0.20395E+07
 
    0.24099E+07         0.62637E+06         0.00000E+00
    0.62637E+06         0.77866E+07         0.00000E+00
    0.00000E+00         0.00000E+00         0.20393E+07
 
    0.24070E+07         0.69217E+06         0.00000E+00
    0.69217E+06         0.77881E+07         0.00000E+00
    0.00000E+00         0.00000E+00         0.20390E+07
 
    0.24037E+07         0.75797E+06         0.00000E+00
    0.75797E+06         0.77899E+07         0.00000E+00
    0.00000E+00         0.00000E+00         0.20387E+07
 
    0.24001E+07         0.82378E+06         0.00000E+00
    0.82378E+06         0.77918E+07         0.00000E+00
    0.00000E+00         0.00000E+00         0.20384E+07
 
    0.23962E+07         0.88961E+06         0.00000E+00
    0.88961E+06         0.77939E+07         0.00000E+00
    0.00000E+00         0.00000E+00         0.20380E+07
 
    0.23918E+07         0.95547E+06         0.00000E+00
    0.95547E+06         0.77961E+07         0.00000E+00
    0.00000E+00         0.00000E+00         0.20376E+07
 
    0.23871E+07         0.10214E+07         0.00000E+00
    0.10214E+07         0.77986E+07         0.00000E+00
    0.00000E+00         0.00000E+00         0.20371E+07
 
    0.23820E+07         0.10873E+07         0.00000E+00
    0.10873E+07         0.78012E+07         0.00000E+00
    0.00000E+00         0.00000E+00         0.20366E+07
 
    0.23765E+07         0.11533E+07         0.00000E+00
    0.11533E+07         0.78041E+07         0.00000E+00
    0.00000E+00         0.00000E+00         0.20361E+07
 
    0.23706E+07         0.12194E+07         0.00000E+00
    0.12194E+07         0.78071E+07         0.00000E+00
    0.00000E+00         0.00000E+00         0.20355E+07
 
    0.23643E+07         0.12855E+07         0.00000E+00
    0.12855E+07         0.78103E+07         0.00000E+00
    0.00000E+00         0.00000E+00         0.20349E+07
 
    0.23577E+07         0.13518E+07         0.00000E+00
    0.13518E+07         0.78137E+07         0.00000E+00
    0.00000E+00         0.00000E+00         0.20343E+07
 
    0.23506E+07         0.14181E+07         0.00000E+00
    0.14181E+07         0.78173E+07         0.00000E+00
    0.00000E+00         0.00000E+00         0.20336E+07
 
    0.23432E+07         0.14845E+07         0.00000E+00
    0.14845E+07         0.78210E+07         0.00000E+00
    0.00000E+00         0.00000E+00         0.20328E+07
 
    0.23354E+07         0.15511E+07         0.00000E+00
    0.15511E+07         0.78250E+07         0.00000E+00
    0.00000E+00         0.00000E+00         0.20321E+07
 
    0.23271E+07         0.16178E+07         0.00000E+00
    0.16178E+07         0.78291E+07         0.00000E+00
    0.00000E+00         0.00000E+00         0.20312E+07
 
    0.23185E+07         0.16846E+07         0.00000E+00
    0.16846E+07         0.78334E+07         0.00000E+00
    0.00000E+00         0.00000E+00         0.20304E+07
 
    0.23095E+07         0.17516E+07         0.00000E+00
    0.17516E+07         0.78379E+07         0.00000E+00
    0.00000E+00         0.00000E+00         0.20295E+07
 
    0.23001E+07         0.18187E+07         0.00000E+00
    0.18187E+07         0.78426E+07         0.00000E+00
    0.00000E+00         0.00000E+00         0.20285E+07
 
    0.22903E+07         0.18860E+07         0.00000E+00
    0.18860E+07         0.78474E+07         0.00000E+00
    0.00000E+00         0.00000E+00         0.20275E+07
 
    0.22801E+07         0.19535E+07         0.00000E+00
    0.19535E+07         0.78524E+07         0.00000E+00
    0.00000E+00         0.00000E+00         0.20265E+07
 
    0.22695E+07         0.20212E+07         0.00000E+00
    0.20212E+07         0.78576E+07         0.00000E+00
    0.00000E+00         0.00000E+00         0.20254E+07
 
    0.22585E+07         0.20891E+07         0.00000E+00
    0.20891E+07         0.78630E+07         0.00000E+00
    0.00000E+00         0.00000E+00         0.20243E+07
 
    0.22472E+07         0.21572E+07         0.00000E+00
    0.21572E+07         0.78685E+07         0.00000E+00
    0.00000E+00         0.00000E+00         0.20231E+07
 
    0.22355E+07         0.22255E+07         0.00000E+00
    0.22255E+07         0.78742E+07         0.00000E+00
    0.00000E+00         0.00000E+00         0.20219E+07
 
    0.22235E+07         0.22941E+07         0.00000E+00
    0.22941E+07         0.78800E+07         0.00000E+00
    0.00000E+00         0.00000E+00         0.20207E+07
 
    0.22111E+07         0.23629E+07         0.00000E+00
    0.23629E+07         0.78860E+07         0.00000E+00
    0.00000E+00         0.00000E+00         0.20194E+07
 
    0.21983E+07         0.24320E+07         0.00000E+00
    0.24320E+07         0.78921E+07         0.00000E+00
    0.00000E+00         0.00000E+00         0.20181E+07
 
    0.21852E+07         0.25013E+07         0.00000E+00
    0.25013E+07         0.78984E+07         0.00000E+00
    0.00000E+00         0.00000E+00         0.20167E+07
 
    0.21717E+07         0.25710E+07         0.00000E+00
    0.25710E+07         0.79048E+07         0.00000E+00
    0.00000E+00         0.00000E+00         0.20153E+07
 
    0.21580E+07         0.26409E+07         0.00000E+00
    0.26409E+07         0.79113E+07         0.00000E+00
    0.00000E+00         0.00000E+00         0.20139E+07
 
    0.21439E+07         0.27111E+07         0.00000E+00
    0.27111E+07         0.79179E+07         0.00000E+00
    0.00000E+00         0.00000E+00         0.20124E+07
 
    0.21295E+07         0.27816E+07         0.00000E+00
    0.27816E+07         0.79247E+07         0.00000E+00
    0.00000E+00         0.00000E+00         0.20108E+07
 
    0.21148E+07         0.28525E+07         0.00000E+00
    0.28525E+07         0.79315E+07         0.00000E+00
    0.00000E+00         0.00000E+00         0.20093E+07
 
    0.20998E+07         0.29236E+07         0.00000E+00
    0.29236E+07         0.79385E+07         0.00000E+00
    0.00000E+00         0.00000E+00         0.20077E+07
 
    0.20846E+07         0.29951E+07         0.00000E+00
    0.29951E+07         0.79455E+07         0.00000E+00
    0.00000E+00         0.00000E+00         0.20060E+07
 
    0.20691E+07         0.30670E+07         0.00000E+00
    0.30670E+07         0.79526E+07         0.00000E+00
    0.00000E+00         0.00000E+00         0.20043E+07
 
    0.20533E+07         0.31392E+07         0.00000E+00
    0.31392E+07         0.79599E+07         0.00000E+00
    0.00000E+00         0.00000E+00         0.20026E+07
 
    0.20373E+07         0.32118E+07         0.00000E+00
    0.32118E+07         0.79671E+07         0.00000E+00
    0.00000E+00         0.00000E+00         0.20009E+07
 
    0.20211E+07         0.32847E+07         0.00000E+00
    0.32847E+07         0.79744E+07         0.00000E+00
    0.00000E+00         0.00000E+00         0.19991E+07
 
    0.20046E+07         0.33581E+07         0.00000E+00
    0.33581E+07         0.79818E+07         0.00000E+00
    0.00000E+00         0.00000E+00         0.19973E+07
 
    0.22544E+07         0.33425E+05         0.00000E+00
    0.33425E+05         0.72809E+07         0.00000E+00
    0.00000E+00         0.00000E+00         0.19071E+07
 
    0.22541E+07         0.10019E+06         0.00000E+00
    0.10019E+06         0.72810E+07         0.00000E+00
    0.00000E+00         0.00000E+00         0.19070E+07
 
    0.22536E+07         0.16691E+06         0.00000E+00
    0.16691E+06         0.72813E+07         0.00000E+00
    0.00000E+00         0.00000E+00         0.19070E+07
 
    0.22528E+07         0.23361E+06         0.00000E+00
    0.23361E+06         0.72817E+07         0.00000E+00
    0.00000E+00         0.00000E+00         0.19069E+07
 
    0.22517E+07         0.30028E+06         0.00000E+00
    0.30028E+06         0.72822E+07         0.00000E+00
    0.00000E+00         0.00000E+00         0.19068E+07
 
    0.22504E+07         0.36693E+06         0.00000E+00
    0.36693E+06         0.72829E+07         0.00000E+00
    0.00000E+00         0.00000E+00         0.19067E+07
 
    0.22487E+07         0.43356E+06         0.00000E+00
    0.43356E+06         0.72837E+07         0.00000E+00
    0.00000E+00         0.00000E+00         0.19065E+07
 
    0.22468E+07         0.50018E+06         0.00000E+00
    0.50018E+06         0.72847E+07         0.00000E+00
    0.00000E+00         0.00000E+00         0.19063E+07
 
    0.22445E+07         0.56679E+06         0.00000E+00
    0.56679E+06         0.72858E+07         0.00000E+00
    0.00000E+00         0.00000E+00         0.19061E+07
 
    0.22419E+07         0.63341E+06         0.00000E+00
    0.63341E+06         0.72871E+07         0.00000E+00
    0.00000E+00         0.00000E+00         0.19058E+07
 
    0.22391E+07         0.70003E+06         0.00000E+00
    0.70003E+06         0.72885E+07         0.00000E+00
    0.00000E+00         0.00000E+00         0.19055E+07
 
    0.22359E+07         0.76667E+06         0.00000E+00
    0.76667E+06         0.72901E+07         0.00000E+00
    0.00000E+00         0.00000E+00         0.19052E+07
 
    0.22324E+07         0.83333E+06         0.00000E+00
    0.83333E+06         0.72918E+07         0.00000E+00
    0.00000E+00         0.00000E+00         0.19048E+07
 
    0.22285E+07         0.90002E+06         0.00000E+00
    0.90002E+06         0.72937E+07         0.00000E+00
    0.00000E+00         0.00000E+00         0.19045E+07
 
    0.22244E+07         0.96674E+06         0.00000E+00
    0.96674E+06         0.72958E+07         0.00000E+00
    0.00000E+00         0.00000E+00         0.19040E+07
 
    0.22199E+07         0.10335E+07         0.00000E+00
    0.10335E+07         0.72980E+07         0.00000E+00
    0.00000E+00         0.00000E+00         0.19036E+07
 
    0.22150E+07         0.11003E+07         0.00000E+00
    0.11003E+07         0.73004E+07         0.00000E+00
    0.00000E+00         0.00000E+00         0.19031E+07
 
    0.22099E+07         0.11672E+07         0.00000E+00
    0.11672E+07         0.73030E+07         0.00000E+00
    0.00000E+00         0.00000E+00         0.19026E+07
 
    0.22044E+07         0.12342E+07         0.00000E+00
    0.12342E+07         0.73057E+07         0.00000E+00
    0.00000E+00         0.00000E+00         0.19020E+07
 
    0.21985E+07         0.13012E+07         0.00000E+00
    0.13012E+07         0.73086E+07         0.00000E+00
    0.00000E+00         0.00000E+00         0.19014E+07
 
    0.21923E+07         0.13683E+07         0.00000E+00
    0.13683E+07         0.73117E+07         0.00000E+00
    0.00000E+00         0.00000E+00         0.19008E+07
 
    0.21858E+07         0.14355E+07         0.00000E+00
    0.14355E+07         0.73149E+07         0.00000E+00
    0.00000E+00         0.00000E+00         0.19001E+07
 
    0.21789E+07         0.15028E+07         0.00000E+00
    0.15028E+07         0.73183E+07         0.00000E+00
    0.00000E+00         0.00000E+00         0.18994E+07
 
    0.21716E+07         0.15702E+07         0.00000E+00
    0.15702E+07         0.73218E+07         0.00000E+00
    0.00000E+00         0.00000E+00         0.18987E+07
 
    0.21641E+07         0.16378E+07         0.00000E+00
    0.16378E+07         0.73255E+07         0.00000E+00
    0.00000E+00         0.00000E+00         0.18979E+07
 
    0.21561E+07         0.17055E+07         0.00000E+00
    0.17055E+07         0.73294E+07         0.00000E+00
    0.00000E+00         0.00000E+00         0.18971E+07
 
    0.21479E+07         0.17733E+07         0.00000E+00
    0.17733E+07         0.73335E+07         0.00000E+00
    0.00000E+00         0.00000E+00         0.18963E+07
 
    0.21392E+07         0.18412E+07         0.00000E+00
    0.18412E+07         0.73376E+07         0.00000E+00
    0.00000E+00         0.00000E+00         0.18954E+07
 
    0.21303E+07         0.19094E+07         0.00000E+00
    0.19094E+07         0.73420E+07         0.00000E+00
    0.00000E+00         0.00000E+00         0.18945E+07
 
    0.21210E+07         0.19777E+07         0.00000E+00
    0.19777E+07         0.73465E+07         0.00000E+00
    0.00000E+00         0.00000E+00         0.18935E+07
 
    0.21114E+07         0.20461E+07         0.00000E+00
    0.20461E+07         0.73512E+07         0.00000E+00
    0.00000E+00         0.00000E+00         0.18925E+07
 
    0.21015E+07         0.21148E+07         0.00000E+00
    0.21148E+07         0.73560E+07         0.00000E+00
    0.00000E+00         0.00000E+00         0.18915E+07
 
    0.20912E+07         0.21837E+07         0.00000E+00
    0.21837E+07         0.73609E+07         0.00000E+00
    0.00000E+00         0.00000E+00         0.18904E+07
 
    0.20806E+07         0.22527E+07         0.00000E+00
    0.22527E+07         0.73660E+07         0.00000E+00
    0.00000E+00         0.00000E+00         0.18893E+07
 
    0.20697E+07         0.23220E+07         0.00000E+00
    0.23220E+07         0.73712E+07         0.00000E+00
    0.00000E+00         0.00000E+00         0.18882E+07
 
    0.20585E+07         0.23915E+07         0.00000E+00
    0.23915E+07         0.73765E+07         0.00000E+00
    0.00000E+00         0.00000E+00         0.18870E+07
 
    0.20470E+07         0.24612E+07         0.00000E+00
    0.24612E+07         0.73820E+07         0.00000E+00
    0.00000E+00         0.00000E+00         0.18858E+07
 
    0.20352E+07         0.25312E+07         0.00000E+00
    0.25312E+07         0.73876E+07         0.00000E+00
    0.00000E+00         0.00000E+00         0.18846E+07
 
    0.20231E+07         0.26015E+07         0.00000E+00
    0.26015E+07         0.73933E+07         0.00000E+00
    0.00000E+00         0.00000E+00         0.18833E+07
 
    0.20107E+07         0.26719E+07         0.00000E+00
    0.26719E+07         0.73991E+07         0.00000E+00
    0.00000E+00         0.00000E+00         0.18820E+07
 
    0.19981E+07         0.27427E+07         0.00000E+00
    0.27427E+07         0.74051E+07         0.00000E+00
    0.00000E+00         0.00000E+00         0.18806E+07
 
    0.19852E+07         0.28137E+07         0.00000E+00
    0.28137E+07         0.74111E+07         0.00000E+00
    0.00000E+00         0.00000E+00         0.18792E+07
 
    0.19720E+07         0.28851E+07         0.00000E+00
    0.28851E+07         0.74172E+07         0.00000E+00
    0.00000E+00         0.00000E+00         0.18778E+07
 
    0.19586E+07         0.29567E+07         0.00000E+00
    0.29567E+07         0.74234E+07         0.00000E+00
    0.00000E+00         0.00000E+00         0.18764E+07
 
    0.19450E+07         0.30286E+07         0.00000E+00
    0.30286E+07         0.74297E+07         0.00000E+00
    0.00000E+00         0.00000E+00         0.18749E+07
 
    0.19311E+07         0.31008E+07         0.00000E+00
    0.31008E+07         0.74360E+07         0.00000E+00
    0.00000E+00         0.00000E+00         0.18734E+07
 
    0.19170E+07         0.31733E+07         0.00000E+00
    0.31733E+07         0.74424E+07         0.00000E+00
    0.00000E+00         0.00000E+00         0.18719E+07
 
    0.19028E+07         0.32462E+07         0.00000E+00
    0.32462E+07         0.74489E+07         0.00000E+00
    0.00000E+00         0.00000E+00         0.18703E+07
 
    0.18883E+07         0.33194E+07         0.00000E+00
    0.33194E+07         0.74554E+07         0.00000E+00
    0.00000E+00         0.00000E+00         0.18687E+07
 
    0.18737E+07         0.33929E+07         0.00000E+00
    0.33929E+07         0.74620E+07         0.00000E+00
    0.00000E+00         0.00000E+00         0.18671E+07
 
    0.20908E+07         0.33723E+05         0.00000E+00
    0.33723E+05         0.67819E+07         0.00000E+00
    0.00000E+00         0.00000E+00         0.17745E+07
 
    0.20904E+07         0.10111E+06         0.00000E+00
    0.10111E+06         0.67820E+07         0.00000E+00
    0.00000E+00         0.00000E+00         0.17745E+07
 
    0.20898E+07         0.16849E+06         0.00000E+00
    0.16849E+06         0.67822E+07         0.00000E+00
    0.00000E+00         0.00000E+00         0.17744E+07
 
    0.20889E+07         0.23584E+06         0.00000E+00
    0.23584E+06         0.67826E+07         0.00000E+00
    0.00000E+00         0.00000E+00         0.17743E+07
 
    0.20877E+07         0.30318E+06         0.00000E+00
    0.30318E+06         0.67831E+07         0.00000E+00
    0.00000E+00         0.00000E+00         0.17742E+07
 
    0.20863E+07         0.37052E+06         0.00000E+00
    0.37052E+06         0.67837E+07         0.00000E+00
    0.00000E+00         0.00000E+00         0.17740E+07
 
    0.20846E+07         0.43785E+06         0.00000E+00
    0.43785E+06         0.67845E+07         0.00000E+00
    0.00000E+00         0.00000E+00         0.17738E+07
 
    0.20826E+07         0.50519E+06         0.00000E+00
    0.50519E+06         0.67854E+07         0.00000E+00
    0.00000E+00         0.00000E+00         0.17736E+07
 
    0.20804E+07         0.57253E+06         0.00000E+00
    0.57253E+06         0.67864E+07         0.00000E+00
    0.00000E+00         0.00000E+00         0.17734E+07
 
    0.20779E+07         0.63988E+06         0.00000E+00
    0.63988E+06         0.67876E+07         0.00000E+00
    0.00000E+00         0.00000E+00         0.17731E+07
 
    0.20751E+07         0.70724E+06         0.00000E+00
    0.70724E+06         0.67889E+07         0.00000E+00
    0.00000E+00         0.00000E+00         0.17728E+07
 
    0.20720E+07         0.77463E+06         0.00000E+00
    0.77463E+06         0.67903E+07         0.00000E+00
    0.00000E+00         0.00000E+00         0.17725E+07
 
    0.20686E+07         0.84205E+06         0.00000E+00
    0.84205E+06         0.67919E+07         0.00000E+00
    0.00000E+00         0.00000E+00         0.17721E+07
 
    0.20650E+07         0.90951E+06         0.00000E+00
    0.90951E+06         0.67937E+07         0.00000E+00
    0.00000E+00         0.00000E+00         0.17717E+07
 
    0.20610E+07         0.97701E+06         0.00000E+00
    0.97701E+06         0.67956E+07         0.00000E+00
    0.00000E+00         0.00000E+00         0.17713E+07
 
    0.20568E+07         0.10446E+07         0.00000E+00
    0.10446E+07         0.67976E+07         0.00000E+00
    0.00000E+00         0.00000E+00         0.17709E+07
 
    0.20522E+07         0.11122E+07         0.00000E+00
    0.11122E+07         0.67998E+07         0.00000E+00
    0.00000E+00         0.00000E+00         0.17704E+07
 
    0.20474E+07         0.11798E+07         0.00000E+00
    0.11798E+07         0.68021E+07         0.00000E+00
    0.00000E+00         0.00000E+00         0.17699E+07
 
    0.20422E+07         0.12475E+07         0.00000E+00
    0.12475E+07         0.68046E+07         0.00000E+00
    0.00000E+00         0.00000E+00         0.17694E+07
 
    0.20368E+07         0.13154E+07         0.00000E+00
    0.13154E+07         0.68072E+07         0.00000E+00
    0.00000E+00         0.00000E+00         0.17688E+07
 
    0.20310E+07         0.13832E+07         0.00000E+00
    0.13832E+07         0.68100E+07         0.00000E+00
    0.00000E+00         0.00000E+00         0.17682E+07
 
    0.20250E+07         0.14512E+07         0.00000E+00
    0.14512E+07         0.68129E+07         0.00000E+00
    0.00000E+00         0.00000E+00         0.17676E+07
 
    0.20186E+07         0.15193E+07         0.00000E+00
    0.15193E+07         0.68160E+07         0.00000E+00
    0.00000E+00         0.00000E+00         0.17669E+07
 
    0.20120E+07         0.15875E+07         0.00000E+00
    0.15875E+07         0.68192E+07         0.00000E+00
    0.00000E+00         0.00000E+00         0.17662E+07
 
    0.20050E+07         0.16558E+07         0.00000E+00
    0.16558E+07         0.68225E+07         0.00000E+00
    0.00000E+00         0.00000E+00         0.17655E+07
 
    0.19977E+07         0.17242E+07         0.00000E+00
    0.17242E+07         0.68260E+07         0.00000E+00
    0.00000E+00         0.00000E+00         0.17648E+07
 
    0.19902E+07         0.17928E+07         0.00000E+00
    0.17928E+07         0.68297E+07         0.00000E+00
    0.00000E+00         0.00000E+00         0.17640E+07
 
    0.19823E+07         0.18615E+07         0.00000E+00
    0.18615E+07         0.68334E+07         0.00000E+00
    0.00000E+00         0.00000E+00         0.17631E+07
 
    0.19741E+07         0.19304E+07         0.00000E+00
    0.19304E+07         0.68374E+07         0.00000E+00
    0.00000E+00         0.00000E+00         0.17623E+07
 
    0.19657E+07         0.19994E+07         0.00000E+00
    0.19994E+07         0.68414E+07         0.00000E+00
    0.00000E+00         0.00000E+00         0.17614E+07
 
    0.19569E+07         0.20685E+07         0.00000E+00
    0.20685E+07         0.68456E+07         0.00000E+00
    0.00000E+00         0.00000E+00         0.17605E+07
 
    0.19479E+07         0.21379E+07         0.00000E+00
    0.21379E+07         0.68499E+07         0.00000E+00
    0.00000E+00         0.00000E+00         0.17596E+07
 
    0.19386E+07         0.22074E+07         0.00000E+00
    0.22074E+07         0.68543E+07         0.00000E+00
    0.00000E+00         0.00000E+00         0.17586E+07
 
    0.19290E+07         0.22771E+07         0.00000E+00
    0.22771E+07         0.68589E+07         0.00000E+00
    0.00000E+00         0.00000E+00         0.17576E+07
 
    0.19192E+07         0.23470E+07         0.00000E+00
    0.23470E+07         0.68636E+07         0.00000E+00
    0.00000E+00         0.00000E+00         0.17565E+07
 
    0.19091E+07         0.24171E+07         0.00000E+00
    0.24171E+07         0.68684E+07         0.00000E+00
    0.00000E+00         0.00000E+00         0.17555E+07
 
    0.18987E+07         0.24874E+07         0.00000E+00
    0.24874E+07         0.68733E+07         0.00000E+00
    0.00000E+00         0.00000E+00         0.17544E+07
 
    0.18880E+07         0.25580E+07         0.00000E+00
    0.25580E+07         0.68783E+07         0.00000E+00
    0.00000E+00         0.00000E+00         0.17533E+07
 
    0.18772E+07         0.26287E+07         0.00000E+00
    0.26287E+07         0.68834E+07         0.00000E+00
    0.00000E+00         0.00000E+00         0.17521E+07
 
    0.18660E+07         0.26997E+07         0.00000E+00
    0.26997E+07         0.68886E+07         0.00000E+00
    0.00000E+00         0.00000E+00         0.17509E+07
 
    0.18547E+07         0.27709E+07         0.00000E+00
    0.27709E+07         0.68939E+07         0.00000E+00
    0.00000E+00         0.00000E+00         0.17497E+07
 
    0.18431E+07         0.28424E+07         0.00000E+00
    0.28424E+07         0.68993E+07         0.00000E+00
    0.00000E+00         0.00000E+00         0.17485E+07
 
    0.18313E+07         0.29142E+07         0.00000E+00
    0.29142E+07         0.69047E+07         0.00000E+00
    0.00000E+00         0.00000E+00         0.17472E+07
 
    0.18193E+07         0.29861E+07         0.00000E+00
    0.29861E+07         0.69102E+07         0.00000E+00
    0.00000E+00         0.00000E+00         0.17459E+07
 
    0.18071E+07         0.30584E+07         0.00000E+00
    0.30584E+07         0.69159E+07         0.00000E+00
    0.00000E+00         0.00000E+00         0.17446E+07
 
    0.17947E+07         0.31309E+07         0.00000E+00
    0.31309E+07         0.69215E+07         0.00000E+00
    0.00000E+00         0.00000E+00         0.17432E+07
 
    0.17821E+07         0.32038E+07         0.00000E+00
    0.32038E+07         0.69272E+07         0.00000E+00
    0.00000E+00         0.00000E+00         0.17419E+07
 
    0.17694E+07         0.32769E+07         0.00000E+00
    0.32769E+07         0.69330E+07         0.00000E+00
    0.00000E+00         0.00000E+00         0.17405E+07
 
    0.17565E+07         0.33502E+07         0.00000E+00
    0.33502E+07         0.69388E+07         0.00000E+00
    0.00000E+00         0.00000E+00         0.17391E+07
 
    0.17435E+07         0.34239E+07         0.00000E+00
    0.34239E+07         0.69447E+07         0.00000E+00
    0.00000E+00         0.00000E+00         0.17376E+07
 
    0.19303E+07         0.34006E+05         0.00000E+00
    0.34006E+05         0.62828E+07         0.00000E+00
    0.00000E+00         0.00000E+00         0.16426E+07
 
    0.19298E+07         0.10199E+06         0.00000E+00
    0.10199E+06         0.62829E+07         0.00000E+00
    0.00000E+00         0.00000E+00         0.16425E+07
 
    0.19290E+07         0.16996E+06         0.00000E+00
    0.16996E+06         0.62831E+07         0.00000E+00
    0.00000E+00         0.00000E+00         0.16424E+07
 
    0.19281E+07         0.23793E+06         0.00000E+00
    0.23793E+06         0.62835E+07         0.00000E+00
    0.00000E+00         0.00000E+00         0.16423E+07
 
    0.19269E+07         0.30590E+06         0.00000E+00
    0.30590E+06         0.62840E+07         0.00000E+00
    0.00000E+00         0.00000E+00         0.16422E+07
 
    0.19255E+07         0.37387E+06         0.00000E+00
    0.37387E+06         0.62845E+07         0.00000E+00
    0.00000E+00         0.00000E+00         0.16420E+07
 
    0.19238E+07         0.44184E+06         0.00000E+00
    0.44184E+06         0.62852E+07         0.00000E+00
    0.00000E+00         0.00000E+00         0.16418E+07
 
    0.19219E+07         0.50982E+06         0.00000E+00
    0.50982E+06         0.62861E+07         0.00000E+00
    0.00000E+00         0.00000E+00         0.16416E+07
 
    0.19197E+07         0.57782E+06         0.00000E+00
    0.57782E+06         0.62870E+07         0.00000E+00
    0.00000E+00         0.00000E+00         0.16413E+07
 
    0.19173E+07         0.64584E+06         0.00000E+00
    0.64584E+06         0.62881E+07         0.00000E+00
    0.00000E+00         0.00000E+00         0.16411E+07
 
    0.19146E+07         0.71388E+06         0.00000E+00
    0.71388E+06         0.62893E+07         0.00000E+00
    0.00000E+00         0.00000E+00         0.16408E+07
 
    0.19117E+07         0.78195E+06         0.00000E+00
    0.78195E+06         0.62907E+07         0.00000E+00
    0.00000E+00         0.00000E+00         0.16405E+07
 
    0.19085E+07         0.85005E+06         0.00000E+00
    0.85005E+06         0.62921E+07         0.00000E+00
    0.00000E+00         0.00000E+00         0.16401E+07
 
    0.19050E+07         0.91820E+06         0.00000E+00
    0.91820E+06         0.62937E+07         0.00000E+00
    0.00000E+00         0.00000E+00         0.16397E+07
 
    0.19013E+07         0.98638E+06         0.00000E+00
    0.98638E+06         0.62954E+07         0.00000E+00
    0.00000E+00         0.00000E+00         0.16393E+07
 
    0.18973E+07         0.10546E+07         0.00000E+00
    0.10546E+07         0.62973E+07         0.00000E+00
    0.00000E+00         0.00000E+00         0.16389E+07
 
    0.18931E+07         0.11229E+07         0.00000E+00
    0.11229E+07         0.62993E+07         0.00000E+00
    0.00000E+00         0.00000E+00         0.16385E+07
 
    0.18886E+07         0.11913E+07         0.00000E+00
    0.11913E+07         0.63014E+07         0.00000E+00
    0.00000E+00         0.00000E+00         0.16380E+07
 
    0.18838E+07         0.12597E+07         0.00000E+00
    0.12597E+07         0.63037E+07         0.00000E+00
    0.00000E+00         0.00000E+00         0.16375E+07
 
    0.18787E+07         0.13282E+07         0.00000E+00
    0.13282E+07         0.63061E+07         0.00000E+00
    0.00000E+00         0.00000E+00         0.16370E+07
 
    0.18734E+07         0.13968E+07         0.00000E+00
    0.13968E+07         0.63086E+07         0.00000E+00
    0.00000E+00         0.00000E+00         0.16364E+07
 
    0.18678E+07         0.14655E+07         0.00000E+00
    0.14655E+07         0.63112E+07         0.00000E+00
    0.00000E+00         0.00000E+00         0.16358E+07
 
    0.18620E+07         0.15343E+07         0.00000E+00
    0.15343E+07         0.63140E+07         0.00000E+00
    0.00000E+00         0.00000E+00         0.16352E+07
 
    0.18559E+07         0.16031E+07         0.00000E+00
    0.16031E+07         0.63169E+07         0.00000E+00
    0.00000E+00         0.00000E+00         0.16346E+07
 
    0.18495E+07         0.16721E+07         0.00000E+00
    0.16721E+07         0.63199E+07         0.00000E+00
    0.00000E+00         0.00000E+00         0.16339E+07
 
    0.18428E+07         0.17412E+07         0.00000E+00
    0.17412E+07         0.63231E+07         0.00000E+00
    0.00000E+00         0.00000E+00         0.16332E+07
 
    0.18359E+07         0.18104E+07         0.00000E+00
    0.18104E+07         0.63264E+07         0.00000E+00
    0.00000E+00         0.00000E+00         0.16325E+07
 
    0.18287E+07         0.18798E+07         0.00000E+00
    0.18798E+07         0.63298E+07         0.00000E+00
    0.00000E+00         0.00000E+00         0.16317E+07
 
    0.18213E+07         0.19493E+07         0.00000E+00
    0.19493E+07         0.63333E+07         0.00000E+00
    0.00000E+00         0.00000E+00         0.16309E+07
 
    0.18136E+07         0.20189E+07         0.00000E+00
    0.20189E+07         0.63370E+07         0.00000E+00
    0.00000E+00         0.00000E+00         0.16301E+07
 
    0.18057E+07         0.20887E+07         0.00000E+00
    0.20887E+07         0.63407E+07         0.00000E+00
    0.00000E+00         0.00000E+00         0.16293E+07
 
    0.17975E+07         0.21586E+07         0.00000E+00
    0.21586E+07         0.63446E+07         0.00000E+00
    0.00000E+00         0.00000E+00         0.16284E+07
 
    0.17891E+07         0.22287E+07         0.00000E+00
    0.22287E+07         0.63486E+07         0.00000E+00
    0.00000E+00         0.00000E+00         0.16275E+07
 
    0.17804E+07         0.22990E+07         0.00000E+00
    0.22990E+07         0.63527E+07         0.00000E+00
    0.00000E+00         0.00000E+00         0.16266E+07
 
    0.17715E+07         0.23694E+07         0.00000E+00
    0.23694E+07         0.63569E+07         0.00000E+00
    0.00000E+00         0.00000E+00         0.16257E+07
 
    0.17623E+07         0.24401E+07         0.00000E+00
    0.24401E+07         0.63612E+07         0.00000E+00
    0.00000E+00         0.00000E+00         0.16247E+07
 
    0.17530E+07         0.25109E+07         0.00000E+00
    0.25109E+07         0.63656E+07         0.00000E+00
    0.00000E+00         0.00000E+00         0.16237E+07
 
    0.17434E+07         0.25819E+07         0.00000E+00
    0.25819E+07         0.63701E+07         0.00000E+00
    0.00000E+00         0.00000E+00         0.16227E+07
 
    0.17336E+07         0.26531E+07         0.00000E+00
    0.26531E+07         0.63746E+07         0.00000E+00
    0.00000E+00         0.00000E+00         0.16217E+07
 
    0.17236E+07         0.27245E+07         0.00000E+00
    0.27245E+07         0.63793E+07         0.00000E+00
    0.00000E+00         0.00000E+00         0.16206E+07
 
    0.17134E+07         0.27962E+07         0.00000E+00
    0.27962E+07         0.63840E+07         0.00000E+00
    0.00000E+00         0.00000E+00         0.16195E+07
 
    0.17030E+07         0.28681E+07         0.00000E+00
    0.28681E+07         0.63889E+07         0.00000E+00
    0.00000E+00         0.00000E+00         0.16184E+07
 
    0.16924E+07         0.29401E+07         0.00000E+00
    0.29401E+07         0.63937E+07         0.00000E+00
    0.00000E+00         0.00000E+00         0.16172E+07
 
    0.16817E+07         0.30125E+07         0.00000E+00
    0.30125E+07         0.63987E+07         0.00000E+00
    0.00000E+00         0.00000E+00         0.16161E+07
 
    0.16707E+07         0.30850E+07         0.00000E+00
    0.30850E+07         0.64037E+07         0.00000E+00
    0.00000E+00         0.00000E+00         0.16149E+07
 
    0.16597E+07         0.31578E+07         0.00000E+00
    0.31578E+07         0.64088E+07         0.00000E+00
    0.00000E+00         0.00000E+00         0.16137E+07
 
    0.16484E+07         0.32309E+07         0.00000E+00
    0.32309E+07         0.64139E+07         0.00000E+00
    0.00000E+00         0.00000E+00         0.16125E+07
 
    0.16370E+07         0.33042E+07         0.00000E+00
    0.33042E+07         0.64190E+07         0.00000E+00
    0.00000E+00         0.00000E+00         0.16112E+07
 
    0.16255E+07         0.33778E+07         0.00000E+00
    0.33778E+07         0.64242E+07         0.00000E+00
    0.00000E+00         0.00000E+00         0.16099E+07
 
    0.16139E+07         0.34516E+07         0.00000E+00
    0.34516E+07         0.64294E+07         0.00000E+00
    0.00000E+00         0.00000E+00         0.16087E+07
 
    0.17725E+07         0.34275E+05         0.00000E+00
    0.34275E+05         0.57837E+07         0.00000E+00
    0.00000E+00         0.00000E+00         0.15112E+07
 
    0.17719E+07         0.10281E+06         0.00000E+00
    0.10281E+06         0.57838E+07         0.00000E+00
    0.00000E+00         0.00000E+00         0.15111E+07
 
    0.17712E+07         0.17135E+06         0.00000E+00
    0.17135E+06         0.57840E+07         0.00000E+00
    0.00000E+00         0.00000E+00         0.15110E+07
 
    0.17703E+07         0.23989E+06         0.00000E+00
    0.23989E+06         0.57843E+07         0.00000E+00
    0.00000E+00         0.00000E+00         0.15109E+07
 
    0.17691E+07         0.30843E+06         0.00000E+00
    0.30843E+06         0.57848E+07         0.00000E+00
    0.00000E+00         0.00000E+00         0.15108E+07
 
    0.17677E+07         0.37698E+06         0.00000E+00
    0.37698E+06         0.57853E+07         0.00000E+00
    0.00000E+00         0.00000E+00         0.15106E+07
 
    0.17661E+07         0.44554E+06         0.00000E+00
    0.44554E+06         0.57860E+07         0.00000E+00
    0.00000E+00         0.00000E+00         0.15104E+07
 
    0.17642E+07         0.51412E+06         0.00000E+00
    0.51412E+06         0.57867E+07         0.00000E+00
    0.00000E+00         0.00000E+00         0.15102E+07
 
    0.17622E+07         0.58272E+06         0.00000E+00
    0.58272E+06         0.57876E+07         0.00000E+00
    0.00000E+00         0.00000E+00         0.15100E+07
 
    0.17599E+07         0.65134E+06         0.00000E+00
    0.65134E+06         0.57886E+07         0.00000E+00
    0.00000E+00         0.00000E+00         0.15097E+07
 
    0.17573E+07         0.71999E+06         0.00000E+00
    0.71999E+06         0.57897E+07         0.00000E+00
    0.00000E+00         0.00000E+00         0.15094E+07
 
    0.17546E+07         0.78868E+06         0.00000E+00
    0.78868E+06         0.57910E+07         0.00000E+00
    0.00000E+00         0.00000E+00         0.15091E+07
 
    0.17516E+07         0.85740E+06         0.00000E+00
    0.85740E+06         0.57923E+07         0.00000E+00
    0.00000E+00         0.00000E+00         0.15088E+07
 
    0.17483E+07         0.92616E+06         0.00000E+00
    0.92616E+06         0.57938E+07         0.00000E+00
    0.00000E+00         0.00000E+00         0.15084E+07
 
    0.17448E+07         0.99497E+06         0.00000E+00
    0.99497E+06         0.57954E+07         0.00000E+00
    0.00000E+00         0.00000E+00         0.15080E+07
 
    0.17411E+07         0.10638E+07         0.00000E+00
    0.10638E+07         0.57971E+07         0.00000E+00
    0.00000E+00         0.00000E+00         0.15076E+07
 
    0.17372E+07         0.11328E+07         0.00000E+00
    0.11328E+07         0.57989E+07         0.00000E+00
    0.00000E+00         0.00000E+00         0.15072E+07
 
    0.17330E+07         0.12017E+07         0.00000E+00
    0.12017E+07         0.58008E+07         0.00000E+00
    0.00000E+00         0.00000E+00         0.15068E+07
 
    0.17286E+07         0.12708E+07         0.00000E+00
    0.12708E+07         0.58029E+07         0.00000E+00
    0.00000E+00         0.00000E+00         0.15063E+07
 
    0.17239E+07         0.13399E+07         0.00000E+00
    0.13399E+07         0.58051E+07         0.00000E+00
    0.00000E+00         0.00000E+00         0.15058E+07
 
    0.17190E+07         0.14091E+07         0.00000E+00
    0.14091E+07         0.58073E+07         0.00000E+00
    0.00000E+00         0.00000E+00         0.15053E+07
 
    0.17139E+07         0.14784E+07         0.00000E+00
    0.14784E+07         0.58098E+07         0.00000E+00
    0.00000E+00         0.00000E+00         0.15047E+07
 
    0.17085E+07         0.15478E+07         0.00000E+00
    0.15478E+07         0.58123E+07         0.00000E+00
    0.00000E+00         0.00000E+00         0.15042E+07
 
    0.17029E+07         0.16173E+07         0.00000E+00
    0.16173E+07         0.58149E+07         0.00000E+00
    0.00000E+00         0.00000E+00         0.15036E+07
 
    0.16971E+07         0.16868E+07         0.00000E+00
    0.16868E+07         0.58177E+07         0.00000E+00
    0.00000E+00         0.00000E+00         0.15029E+07
 
    0.16910E+07         0.17565E+07         0.00000E+00
    0.17565E+07         0.58205E+07         0.00000E+00
    0.00000E+00         0.00000E+00         0.15023E+07
 
    0.16847E+07         0.18263E+07         0.00000E+00
    0.18263E+07         0.58235E+07         0.00000E+00
    0.00000E+00         0.00000E+00         0.15016E+07
 
    0.16781E+07         0.18963E+07         0.00000E+00
    0.18963E+07         0.58266E+07         0.00000E+00
    0.00000E+00         0.00000E+00         0.15009E+07
 
    0.16714E+07         0.19663E+07         0.00000E+00
    0.19663E+07         0.58298E+07         0.00000E+00
    0.00000E+00         0.00000E+00         0.15002E+07
 
    0.16644E+07         0.20365E+07         0.00000E+00
    0.20365E+07         0.58330E+07         0.00000E+00
    0.00000E+00         0.00000E+00         0.14995E+07
 
    0.16572E+07         0.21068E+07         0.00000E+00
    0.21068E+07         0.58364E+07         0.00000E+00
    0.00000E+00         0.00000E+00         0.14987E+07
 
    0.16498E+07         0.21773E+07         0.00000E+00
    0.21773E+07         0.58399E+07         0.00000E+00
    0.00000E+00         0.00000E+00         0.14979E+07
 
    0.16422E+07         0.22479E+07         0.00000E+00
    0.22479E+07         0.58435E+07         0.00000E+00
    0.00000E+00         0.00000E+00         0.14971E+07
 
    0.16343E+07         0.23186E+07         0.00000E+00
    0.23186E+07         0.58472E+07         0.00000E+00
    0.00000E+00         0.00000E+00         0.14963E+07
 
    0.16263E+07         0.23896E+07         0.00000E+00
    0.23896E+07         0.58510E+07         0.00000E+00
    0.00000E+00         0.00000E+00         0.14954E+07
 
    0.16180E+07         0.24607E+07         0.00000E+00
    0.24607E+07         0.58548E+07         0.00000E+00
    0.00000E+00         0.00000E+00         0.14946E+07
 
    0.16096E+07         0.25319E+07         0.00000E+00
    0.25319E+07         0.58588E+07         0.00000E+00
    0.00000E+00         0.00000E+00         0.14937E+07
 
    0.16009E+07         0.26034E+07         0.00000E+00
    0.26034E+07         0.58628E+07         0.00000E+00
    0.00000E+00         0.00000E+00         0.14927E+07
 
    0.15921E+07         0.26750E+07         0.00000E+00
    0.26750E+07         0.58669E+07         0.00000E+00
    0.00000E+00         0.00000E+00         0.14918E+07
 
    0.15831E+07         0.27468E+07         0.00000E+00
    0.27468E+07         0.58711E+07         0.00000E+00
    0.00000E+00         0.00000E+00         0.14908E+07
 
    0.15740E+07         0.28188E+07         0.00000E+00
    0.28188E+07         0.58753E+07         0.00000E+00
    0.00000E+00         0.00000E+00         0.14899E+07
 
    0.15646E+07         0.28910E+07         0.00000E+00
    0.28910E+07         0.58796E+07         0.00000E+00
    0.00000E+00         0.00000E+00         0.14889E+07
 
    0.15551E+07         0.29634E+07         0.00000E+00
    0.29634E+07         0.58840E+07         0.00000E+00
    0.00000E+00         0.00000E+00         0.14878E+07
 
    0.15455E+07         0.30360E+07         0.00000E+00
    0.30360E+07         0.58884E+07         0.00000E+00
    0.00000E+00         0.00000E+00         0.14868E+07
 
    0.15357E+07         0.31088E+07         0.00000E+00
    0.31088E+07         0.58929E+07         0.00000E+00
    0.00000E+00         0.00000E+00         0.14857E+07
 
    0.15257E+07         0.31819E+07         0.00000E+00
    0.31819E+07         0.58975E+07         0.00000E+00
    0.00000E+00         0.00000E+00         0.14846E+07
 
    0.15157E+07         0.32551E+07         0.00000E+00
    0.32551E+07         0.59020E+07         0.00000E+00
    0.00000E+00         0.00000E+00         0.14835E+07
 
    0.15055E+07         0.33286E+07         0.00000E+00
    0.33286E+07         0.59066E+07         0.00000E+00
    0.00000E+00         0.00000E+00         0.14824E+07
 
    0.14952E+07         0.34023E+07         0.00000E+00
    0.34023E+07         0.59113E+07         0.00000E+00
    0.00000E+00         0.00000E+00         0.14813E+07
 
    0.14848E+07         0.34763E+07         0.00000E+00
    0.34763E+07         0.59159E+07         0.00000E+00
    0.00000E+00         0.00000E+00         0.14801E+07
 
    0.16173E+07         0.34529E+05         0.00000E+00
    0.34529E+05         0.52846E+07         0.00000E+00
    0.00000E+00         0.00000E+00         0.13804E+07
 
    0.16168E+07         0.10358E+06         0.00000E+00
    0.10358E+06         0.52847E+07         0.00000E+00
    0.00000E+00         0.00000E+00         0.13803E+07
 
    0.16161E+07         0.17264E+06         0.00000E+00
    0.17264E+06         0.52849E+07         0.00000E+00
    0.00000E+00         0.00000E+00         0.13802E+07
 
    0.16152E+07         0.24171E+06         0.00000E+00
    0.24171E+06         0.52852E+07         0.00000E+00
    0.00000E+00         0.00000E+00         0.13801E+07
 
    0.16140E+07         0.31079E+06         0.00000E+00
    0.31079E+06         0.52856E+07         0.00000E+00
    0.00000E+00         0.00000E+00         0.13799E+07
 
    0.16127E+07         0.37987E+06         0.00000E+00
    0.37987E+06         0.52861E+07         0.00000E+00
    0.00000E+00         0.00000E+00         0.13798E+07
 
    0.16112E+07         0.44898E+06         0.00000E+00
    0.44898E+06         0.52867E+07         0.00000E+00
    0.00000E+00         0.00000E+00         0.13796E+07
 
    0.16094E+07         0.51810E+06         0.00000E+00
    0.51810E+06         0.52874E+07         0.00000E+00
    0.00000E+00         0.00000E+00         0.13794E+07
 
    0.16075E+07         0.58725E+06         0.00000E+00
    0.58725E+06         0.52882E+07         0.00000E+00
    0.00000E+00         0.00000E+00         0.13791E+07
 
    0.16053E+07         0.65642E+06         0.00000E+00
    0.65642E+06         0.52891E+07         0.00000E+00
    0.00000E+00         0.00000E+00         0.13789E+07
 
    0.16029E+07         0.72563E+06         0.00000E+00
    0.72563E+06         0.52901E+07         0.00000E+00
    0.00000E+00         0.00000E+00         0.13786E+07
 
    0.16003E+07         0.79487E+06         0.00000E+00
    0.79487E+06         0.52913E+07         0.00000E+00
    0.00000E+00         0.00000E+00         0.13783E+07
 
    0.15975E+07         0.86415E+06         0.00000E+00
    0.86415E+06         0.52925E+07         0.00000E+00
    0.00000E+00         0.00000E+00         0.13780E+07
 
    0.15945E+07         0.93347E+06         0.00000E+00
    0.93347E+06         0.52939E+07         0.00000E+00
    0.00000E+00         0.00000E+00         0.13777E+07
 
    0.15913E+07         0.10028E+07         0.00000E+00
    0.10028E+07         0.52953E+07         0.00000E+00
    0.00000E+00         0.00000E+00         0.13773E+07
 
    0.15879E+07         0.10723E+07         0.00000E+00
    0.10723E+07         0.52969E+07         0.00000E+00
    0.00000E+00         0.00000E+00         0.13769E+07
 
    0.15842E+07         0.11417E+07         0.00000E+00
    0.11417E+07         0.52985E+07         0.00000E+00
    0.00000E+00         0.00000E+00         0.13766E+07
 
    0.15804E+07         0.12113E+07         0.00000E+00
    0.12113E+07         0.53003E+07         0.00000E+00
    0.00000E+00         0.00000E+00         0.13761E+07
 
    0.15763E+07         0.12809E+07         0.00000E+00
    0.12809E+07         0.53022E+07         0.00000E+00
    0.00000E+00         0.00000E+00         0.13757E+07
 
    0.15720E+07         0.13506E+07         0.00000E+00
    0.13506E+07         0.53042E+07         0.00000E+00
    0.00000E+00         0.00000E+00         0.13752E+07
 
    0.15675E+07         0.14203E+07         0.00000E+00
    0.14203E+07         0.53063E+07         0.00000E+00
    0.00000E+00         0.00000E+00         0.13748E+07
 
    0.15628E+07         0.14902E+07         0.00000E+00
    0.14902E+07         0.53084E+07         0.00000E+00
    0.00000E+00         0.00000E+00         0.13742E+07
 
    0.15579E+07         0.15601E+07         0.00000E+00
    0.15601E+07         0.53107E+07         0.00000E+00
    0.00000E+00         0.00000E+00         0.13737E+07
 
    0.15528E+07         0.16301E+07         0.00000E+00
    0.16301E+07         0.53131E+07         0.00000E+00
    0.00000E+00         0.00000E+00         0.13732E+07
 
    0.15474E+07         0.17002E+07         0.00000E+00
    0.17002E+07         0.53156E+07         0.00000E+00
    0.00000E+00         0.00000E+00         0.13726E+07
 
    0.15419E+07         0.17704E+07         0.00000E+00
    0.17704E+07         0.53182E+07         0.00000E+00
    0.00000E+00         0.00000E+00         0.13720E+07
 
    0.15361E+07         0.18407E+07         0.00000E+00
    0.18407E+07         0.53209E+07         0.00000E+00
    0.00000E+00         0.00000E+00         0.13714E+07
 
    0.15302E+07         0.19112E+07         0.00000E+00
    0.19112E+07         0.53237E+07         0.00000E+00
    0.00000E+00         0.00000E+00         0.13708E+07
 
    0.15241E+07         0.19817E+07         0.00000E+00
    0.19817E+07         0.53266E+07         0.00000E+00
    0.00000E+00         0.00000E+00         0.13701E+07
 
    0.15177E+07         0.20524E+07         0.00000E+00
    0.20524E+07         0.53295E+07         0.00000E+00
    0.00000E+00         0.00000E+00         0.13694E+07
 
    0.15112E+07         0.21231E+07         0.00000E+00
    0.21231E+07         0.53326E+07         0.00000E+00
    0.00000E+00         0.00000E+00         0.13688E+07
 
    0.15045E+07         0.21941E+07         0.00000E+00
    0.21941E+07         0.53357E+07         0.00000E+00
    0.00000E+00         0.00000E+00         0.13680E+07
 
    0.14976E+07         0.22651E+07         0.00000E+00
    0.22651E+07         0.53390E+07         0.00000E+00
    0.00000E+00         0.00000E+00         0.13673E+07
 
    0.14905E+07         0.23363E+07         0.00000E+00
    0.23363E+07         0.53423E+07         0.00000E+00
    0.00000E+00         0.00000E+00         0.13666E+07
 
    0.14832E+07         0.24077E+07         0.00000E+00
    0.24077E+07         0.53457E+07         0.00000E+00
    0.00000E+00         0.00000E+00         0.13658E+07
 
    0.14758E+07         0.24792E+07         0.00000E+00
    0.24792E+07         0.53491E+07         0.00000E+00
    0.00000E+00         0.00000E+00         0.13650E+07
 
    0.14682E+07         0.25508E+07         0.00000E+00
    0.25508E+07         0.53527E+07         0.00000E+00
    0.00000E+00         0.00000E+00         0.13642E+07
 
    0.14604E+07         0.26226E+07         0.00000E+00
    0.26226E+07         0.53563E+07         0.00000E+00
    0.00000E+00         0.00000E+00         0.13633E+07
 
    0.14524E+07         0.26946E+07         0.00000E+00
    0.26946E+07         0.53600E+07         0.00000E+00
    0.00000E+00         0.00000E+00         0.13625E+07
 
    0.14443E+07         0.27667E+07         0.00000E+00
    0.27667E+07         0.53637E+07         0.00000E+00
    0.00000E+00         0.00000E+00         0.13616E+07
 
    0.14361E+07         0.28391E+07         0.00000E+00
    0.28391E+07         0.53676E+07         0.00000E+00
    0.00000E+00         0.00000E+00         0.13607E+07
 
    0.14277E+07         0.29116E+07         0.00000E+00
    0.29116E+07         0.53714E+07         0.00000E+00
    0.00000E+00         0.00000E+00         0.13598E+07
 
    0.14192E+07         0.29842E+07         0.00000E+00
    0.29842E+07         0.53753E+07         0.00000E+00
    0.00000E+00         0.00000E+00         0.13589E+07
 
    0.14105E+07         0.30571E+07         0.00000E+00
    0.30571E+07         0.53793E+07         0.00000E+00
    0.00000E+00         0.00000E+00         0.13580E+07
 
    0.14017E+07         0.31301E+07         0.00000E+00
    0.31301E+07         0.53833E+07         0.00000E+00
    0.00000E+00         0.00000E+00         0.13570E+07
 
    0.13928E+07         0.32034E+07         0.00000E+00
    0.32034E+07         0.53874E+07         0.00000E+00
    0.00000E+00         0.00000E+00         0.13560E+07
 
    0.13838E+07         0.32768E+07         0.00000E+00
    0.32768E+07         0.53915E+07         0.00000E+00
    0.00000E+00         0.00000E+00         0.13551E+07
 
    0.13747E+07         0.33505E+07         0.00000E+00
    0.33505E+07         0.53956E+07         0.00000E+00
    0.00000E+00         0.00000E+00         0.13541E+07
 
    0.13655E+07         0.34243E+07         0.00000E+00
    0.34243E+07         0.53997E+07         0.00000E+00
    0.00000E+00         0.00000E+00         0.13530E+07
 
    0.13562E+07         0.34984E+07         0.00000E+00
    0.34984E+07         0.54039E+07         0.00000E+00
    0.00000E+00         0.00000E+00         0.13520E+07
 
    0.14646E+07         0.34767E+05         0.00000E+00
    0.34767E+05         0.47854E+07         0.00000E+00
    0.00000E+00         0.00000E+00         0.12500E+07
 
    0.14641E+07         0.10431E+06         0.00000E+00
    0.10431E+06         0.47855E+07         0.00000E+00
    0.00000E+00         0.00000E+00         0.12499E+07
 
    0.14634E+07         0.17385E+06         0.00000E+00
    0.17385E+06         0.47857E+07         0.00000E+00
    0.00000E+00         0.00000E+00         0.12498E+07
 
    0.14626E+07         0.24341E+06         0.00000E+00
    0.24341E+06         0.47859E+07         0.00000E+00
    0.00000E+00         0.00000E+00         0.12497E+07
 
    0.14615E+07         0.31297E+06         0.00000E+00
    0.31297E+06         0.47863E+07         0.00000E+00
    0.00000E+00         0.00000E+00         0.12496E+07
 
    0.14602E+07         0.38256E+06         0.00000E+00
    0.38256E+06         0.47868E+07         0.00000E+00
    0.00000E+00         0.00000E+00         0.12494E+07
 
    0.14588E+07         0.45216E+06         0.00000E+00
    0.45216E+06         0.47873E+07         0.00000E+00
    0.00000E+00         0.00000E+00         0.12492E+07
 
    0.14572E+07         0.52178E+06         0.00000E+00
    0.52178E+06         0.47880E+07         0.00000E+00
    0.00000E+00         0.00000E+00         0.12490E+07
 
    0.14553E+07         0.59143E+06         0.00000E+00
    0.59143E+06         0.47888E+07         0.00000E+00
    0.00000E+00         0.00000E+00         0.12488E+07
 
    0.14533E+07         0.66110E+06         0.00000E+00
    0.66110E+06         0.47896E+07         0.00000E+00
    0.00000E+00         0.00000E+00         0.12486E+07
 
    0.14511E+07         0.73081E+06         0.00000E+00
    0.73081E+06         0.47905E+07         0.00000E+00
    0.00000E+00         0.00000E+00         0.12483E+07
 
    0.14487E+07         0.80056E+06         0.00000E+00
    0.80056E+06         0.47916E+07         0.00000E+00
    0.00000E+00         0.00000E+00         0.12481E+07
 
    0.14461E+07         0.87034E+06         0.00000E+00
    0.87034E+06         0.47927E+07         0.00000E+00
    0.00000E+00         0.00000E+00         0.12478E+07
 
    0.14434E+07         0.94017E+06         0.00000E+00
    0.94017E+06         0.47940E+07         0.00000E+00
    0.00000E+00         0.00000E+00         0.12475E+07
 
    0.14404E+07         0.10100E+07         0.00000E+00
    0.10100E+07         0.47953E+07         0.00000E+00
    0.00000E+00         0.00000E+00         0.12471E+07
 
    0.14372E+07         0.10800E+07         0.00000E+00
    0.10800E+07         0.47967E+07         0.00000E+00
    0.00000E+00         0.00000E+00         0.12468E+07
 
    0.14339E+07         0.11499E+07         0.00000E+00
    0.11499E+07         0.47982E+07         0.00000E+00
    0.00000E+00         0.00000E+00         0.12464E+07
 
    0.14303E+07         0.12200E+07         0.00000E+00
    0.12200E+07         0.47999E+07         0.00000E+00
    0.00000E+00         0.00000E+00         0.12460E+07
 
    0.14266E+07         0.12901E+07         0.00000E+00
    0.12901E+07         0.48016E+07         0.00000E+00
    0.00000E+00         0.00000E+00         0.12456E+07
 
    0.14227E+07         0.13603E+07         0.00000E+00
    0.13603E+07         0.48034E+07         0.00000E+00
    0.00000E+00         0.00000E+00         0.12452E+07
 
    0.14185E+07         0.14305E+07         0.00000E+00
    0.14305E+07         0.48053E+07         0.00000E+00
    0.00000E+00         0.00000E+00         0.12448E+07
 
    0.14142E+07         0.15008E+07         0.00000E+00
    0.15008E+07         0.48073E+07         0.00000E+00
    0.00000E+00         0.00000E+00         0.12443E+07
 
    0.14097E+07         0.15712E+07         0.00000E+00
    0.15712E+07         0.48093E+07         0.00000E+00
    0.00000E+00         0.00000E+00         0.12438E+07
 
    0.14051E+07         0.16417E+07         0.00000E+00
    0.16417E+07         0.48115E+07         0.00000E+00
    0.00000E+00         0.00000E+00         0.12433E+07
 
    0.14002E+07         0.17123E+07         0.00000E+00
    0.17123E+07         0.48138E+07         0.00000E+00
    0.00000E+00         0.00000E+00         0.12428E+07
 
    0.13952E+07         0.17830E+07         0.00000E+00
    0.17830E+07         0.48161E+07         0.00000E+00
    0.00000E+00         0.00000E+00         0.12423E+07
 
    0.13900E+07         0.18537E+07         0.00000E+00
    0.18537E+07         0.48185E+07         0.00000E+00
    0.00000E+00         0.00000E+00         0.12417E+07
 
    0.13846E+07         0.19246E+07         0.00000E+00
    0.19246E+07         0.48211E+07         0.00000E+00
    0.00000E+00         0.00000E+00         0.12411E+07
 
    0.13790E+07         0.19956E+07         0.00000E+00
    0.19956E+07         0.48237E+07         0.00000E+00
    0.00000E+00         0.00000E+00         0.12405E+07
 
    0.13732E+07         0.20667E+07         0.00000E+00
    0.20667E+07         0.48263E+07         0.00000E+00
    0.00000E+00         0.00000E+00         0.12399E+07
 
    0.13673E+07         0.21379E+07         0.00000E+00
    0.21379E+07         0.48291E+07         0.00000E+00
    0.00000E+00         0.00000E+00         0.12393E+07
 
    0.13613E+07         0.22092E+07         0.00000E+00
    0.22092E+07         0.48319E+07         0.00000E+00
    0.00000E+00         0.00000E+00         0.12386E+07
 
    0.13550E+07         0.22807E+07         0.00000E+00
    0.22807E+07         0.48349E+07         0.00000E+00
    0.00000E+00         0.00000E+00         0.12380E+07
 
    0.13486E+07         0.23522E+07         0.00000E+00
    0.23522E+07         0.48378E+07         0.00000E+00
    0.00000E+00         0.00000E+00         0.12373E+07
 
    0.13420E+07         0.24240E+07         0.00000E+00
    0.24240E+07         0.48409E+07         0.00000E+00
    0.00000E+00         0.00000E+00         0.12366E+07
 
    0.13353E+07         0.24958E+07         0.00000E+00
    0.24958E+07         0.48440E+07         0.00000E+00
    0.00000E+00         0.00000E+00         0.12359E+07
 
    0.13285E+07         0.25678E+07         0.00000E+00
    0.25678E+07         0.48472E+07         0.00000E+00
    0.00000E+00         0.00000E+00         0.12351E+07
 
    0.13215E+07         0.26399E+07         0.00000E+00
    0.26399E+07         0.48505E+07         0.00000E+00
    0.00000E+00         0.00000E+00         0.12344E+07
 
    0.13143E+07         0.27122E+07         0.00000E+00
    0.27122E+07         0.48538E+07         0.00000E+00
    0.00000E+00         0.00000E+00         0.12336E+07
 
    0.13070E+07         0.27847E+07         0.00000E+00
    0.27847E+07         0.48571E+07         0.00000E+00
    0.00000E+00         0.00000E+00         0.12328E+07
 
    0.12996E+07         0.28572E+07         0.00000E+00
    0.28572E+07         0.48606E+07         0.00000E+00
    0.00000E+00         0.00000E+00         0.12320E+07
 
    0.12921E+07         0.29300E+07         0.00000E+00
    0.29300E+07         0.48640E+07         0.00000E+00
    0.00000E+00         0.00000E+00         0.12312E+07
 
    0.12844E+07         0.30029E+07         0.00000E+00
    0.30029E+07         0.48675E+07         0.00000E+00
    0.00000E+00         0.00000E+00         0.12304E+07
 
    0.12767E+07         0.30760E+07         0.00000E+00
    0.30760E+07         0.48711E+07         0.00000E+00
    0.00000E+00         0.00000E+00         0.12296E+07
 
    0.12688E+07         0.31492E+07         0.00000E+00
    0.31492E+07         0.48747E+07         0.00000E+00
    0.00000E+00         0.00000E+00         0.12287E+07
 
    0.12608E+07         0.32227E+07         0.00000E+00
    0.32227E+07         0.48783E+07         0.00000E+00
    0.00000E+00         0.00000E+00         0.12278E+07
 
    0.12527E+07         0.32962E+07         0.00000E+00
    0.32962E+07         0.48820E+07         0.00000E+00
    0.00000E+00         0.00000E+00         0.12269E+07
 
    0.12445E+07         0.33700E+07         0.00000E+00
    0.33700E+07         0.48857E+07         0.00000E+00
    0.00000E+00         0.00000E+00         0.12260E+07
 
    0.12363E+07         0.34440E+07         0.00000E+00
    0.34440E+07         0.48894E+07         0.00000E+00
    0.00000E+00         0.00000E+00         0.12251E+07
 
    0.12279E+07         0.35181E+07         0.00000E+00
    0.35181E+07         0.48931E+07         0.00000E+00
    0.00000E+00         0.00000E+00         0.12242E+07
 
    0.13143E+07         0.34989E+05         0.00000E+00
    0.34989E+05         0.42862E+07         0.00000E+00
    0.00000E+00         0.00000E+00         0.11201E+07
 
    0.13138E+07         0.10498E+06         0.00000E+00
    0.10498E+06         0.42863E+07         0.00000E+00
    0.00000E+00         0.00000E+00         0.11200E+07
 
    0.13131E+07         0.17497E+06         0.00000E+00
    0.17497E+06         0.42864E+07         0.00000E+00
    0.00000E+00         0.00000E+00         0.11199E+07
 
    0.13123E+07         0.24498E+06         0.00000E+00
    0.24498E+06         0.42867E+07         0.00000E+00
    0.00000E+00         0.00000E+00         0.11198E+07
 
    0.13113E+07         0.31500E+06         0.00000E+00
    0.31500E+06         0.42870E+07         0.00000E+00
    0.00000E+00         0.00000E+00         0.11197E+07
 
    0.13101E+07         0.38504E+06         0.00000E+00
    0.38504E+06         0.42875E+07         0.00000E+00
    0.00000E+00         0.00000E+00         0.11195E+07
 
    0.13088E+07         0.45509E+06         0.00000E+00
    0.45509E+06         0.42880E+07         0.00000E+00
    0.00000E+00         0.00000E+00         0.11194E+07
 
    0.13073E+07         0.52517E+06         0.00000E+00
    0.52517E+06         0.42886E+07         0.00000E+00
    0.00000E+00         0.00000E+00         0.11192E+07
 
    0.13056E+07         0.59528E+06         0.00000E+00
    0.59528E+06         0.42893E+07         0.00000E+00
    0.00000E+00         0.00000E+00         0.11190E+07
 
    0.13037E+07         0.66541E+06         0.00000E+00
    0.66541E+06         0.42901E+07         0.00000E+00
    0.00000E+00         0.00000E+00         0.11188E+07
 
    0.13017E+07         0.73558E+06         0.00000E+00
    0.73558E+06         0.42909E+07         0.00000E+00
    0.00000E+00         0.00000E+00         0.11185E+07
 
    0.12995E+07         0.80578E+06         0.00000E+00
    0.80578E+06         0.42919E+07         0.00000E+00
    0.00000E+00         0.00000E+00         0.11183E+07
 
    0.12971E+07         0.87602E+06         0.00000E+00
    0.87602E+06         0.42929E+07         0.00000E+00
    0.00000E+00         0.00000E+00         0.11180E+07
 
    0.12946E+07         0.94630E+06         0.00000E+00
    0.94630E+06         0.42941E+07         0.00000E+00
    0.00000E+00         0.00000E+00         0.11177E+07
 
    0.12918E+07         0.10166E+07         0.00000E+00
    0.10166E+07         0.42953E+07         0.00000E+00
    0.00000E+00         0.00000E+00         0.11174E+07
 
    0.12889E+07         0.10870E+07         0.00000E+00
    0.10870E+07         0.42966E+07         0.00000E+00
    0.00000E+00         0.00000E+00         0.11171E+07
 
    0.12858E+07         0.11574E+07         0.00000E+00
    0.11574E+07         0.42980E+07         0.00000E+00
    0.00000E+00         0.00000E+00         0.11168E+07
 
    0.12826E+07         0.12279E+07         0.00000E+00
    0.12279E+07         0.42994E+07         0.00000E+00
    0.00000E+00         0.00000E+00         0.11164E+07
 
    0.12792E+07         0.12985E+07         0.00000E+00
    0.12985E+07         0.43010E+07         0.00000E+00
    0.00000E+00         0.00000E+00         0.11160E+07
 
    0.12756E+07         0.13691E+07         0.00000E+00
    0.13691E+07         0.43026E+07         0.00000E+00
    0.00000E+00         0.00000E+00         0.11156E+07
 
    0.12718E+07         0.14398E+07         0.00000E+00
    0.14398E+07         0.43044E+07         0.00000E+00
    0.00000E+00         0.00000E+00         0.11152E+07
 
    0.12679E+07         0.15105E+07         0.00000E+00
    0.15105E+07         0.43062E+07         0.00000E+00
    0.00000E+00         0.00000E+00         0.11148E+07
 
    0.12638E+07         0.15814E+07         0.00000E+00
    0.15814E+07         0.43081E+07         0.00000E+00
    0.00000E+00         0.00000E+00         0.11144E+07
 
    0.12596E+07         0.16523E+07         0.00000E+00
    0.16523E+07         0.43100E+07         0.00000E+00
    0.00000E+00         0.00000E+00         0.11139E+07
 
    0.12552E+07         0.17233E+07         0.00000E+00
    0.17233E+07         0.43121E+07         0.00000E+00
    0.00000E+00         0.00000E+00         0.11134E+07
 
    0.12506E+07         0.17943E+07         0.00000E+00
    0.17943E+07         0.43142E+07         0.00000E+00
    0.00000E+00         0.00000E+00         0.11130E+07
 
    0.12459E+07         0.18655E+07         0.00000E+00
    0.18655E+07         0.43164E+07         0.00000E+00
    0.00000E+00         0.00000E+00         0.11125E+07
 
    0.12410E+07         0.19368E+07         0.00000E+00
    0.19368E+07         0.43187E+07         0.00000E+00
    0.00000E+00         0.00000E+00         0.11119E+07
 
    0.12359E+07         0.20082E+07         0.00000E+00
    0.20082E+07         0.43210E+07         0.00000E+00
    0.00000E+00         0.00000E+00         0.11114E+07
 
    0.12307E+07         0.20796E+07         0.00000E+00
    0.20796E+07         0.43234E+07         0.00000E+00
    0.00000E+00         0.00000E+00         0.11108E+07
 
    0.12254E+07         0.21512E+07         0.00000E+00
    0.21512E+07         0.43259E+07         0.00000E+00
    0.00000E+00         0.00000E+00         0.11103E+07
 
    0.12199E+07         0.22229E+07         0.00000E+00
    0.22229E+07         0.43285E+07         0.00000E+00
    0.00000E+00         0.00000E+00         0.11097E+07
 
    0.12142E+07         0.22947E+07         0.00000E+00
    0.22947E+07         0.43311E+07         0.00000E+00
    0.00000E+00         0.00000E+00         0.11091E+07
 
    0.12085E+07         0.23666E+07         0.00000E+00
    0.23666E+07         0.43338E+07         0.00000E+00
    0.00000E+00         0.00000E+00         0.11085E+07
 
    0.12025E+07         0.24386E+07         0.00000E+00
    0.24386E+07         0.43366E+07         0.00000E+00
    0.00000E+00         0.00000E+00         0.11078E+07
 
    0.11965E+07         0.25108E+07         0.00000E+00
    0.25108E+07         0.43394E+07         0.00000E+00
    0.00000E+00         0.00000E+00         0.11072E+07
 
    0.11903E+07         0.25831E+07         0.00000E+00
    0.25831E+07         0.43422E+07         0.00000E+00
    0.00000E+00         0.00000E+00         0.11065E+07
 
    0.11840E+07         0.26555E+07         0.00000E+00
    0.26555E+07         0.43452E+07         0.00000E+00
    0.00000E+00         0.00000E+00         0.11058E+07
 
    0.11776E+07         0.27280E+07         0.00000E+00
    0.27280E+07         0.43481E+07         0.00000E+00
    0.00000E+00         0.00000E+00         0.11051E+07
 
    0.11710E+07         0.28007E+07         0.00000E+00
    0.28007E+07         0.43512E+07         0.00000E+00
    0.00000E+00         0.00000E+00         0.11044E+07
 
    0.11644E+07         0.28736E+07         0.00000E+00
    0.28736E+07         0.43542E+07         0.00000E+00
    0.00000E+00         0.00000E+00         0.11037E+07
 
    0.11576E+07         0.29465E+07         0.00000E+00
    0.29465E+07         0.43573E+07         0.00000E+00
    0.00000E+00         0.00000E+00         0.11030E+07
 
    0.11507E+07         0.30197E+07         0.00000E+00
    0.30197E+07         0.43605E+07         0.00000E+00
    0.00000E+00         0.00000E+00         0.11022E+07
 
    0.11437E+07         0.30929E+07         0.00000E+00
    0.30929E+07         0.43637E+07         0.00000E+00
    0.00000E+00         0.00000E+00         0.11015E+07
 
    0.11367E+07         0.31663E+07         0.00000E+00
    0.31663E+07         0.43669E+07         0.00000E+00
    0.00000E+00         0.00000E+00         0.11007E+07
 
    0.11295E+07         0.32399E+07         0.00000E+00
    0.32399E+07         0.43702E+07         0.00000E+00
    0.00000E+00         0.00000E+00         0.10999E+07
 
    0.11222E+07         0.33136E+07         0.00000E+00
    0.33136E+07         0.43735E+07         0.00000E+00
    0.00000E+00         0.00000E+00         0.10991E+07
 
    0.11149E+07         0.33875E+07         0.00000E+00
    0.33875E+07         0.43768E+07         0.00000E+00
    0.00000E+00         0.00000E+00         0.10983E+07
 
    0.11075E+07         0.34616E+07         0.00000E+00
    0.34616E+07         0.43801E+07         0.00000E+00
    0.00000E+00         0.00000E+00         0.10975E+07
 
    0.11000E+07         0.35358E+07         0.00000E+00
    0.35358E+07         0.43834E+07         0.00000E+00
    0.00000E+00         0.00000E+00         0.10967E+07
 
    0.11660E+07         0.35195E+05         0.00000E+00
    0.35195E+05         0.37869E+07         0.00000E+00
    0.00000E+00         0.00000E+00         0.99058E+06
 
    0.11655E+07         0.10560E+06         0.00000E+00
    0.10560E+06         0.37870E+07         0.00000E+00
    0.00000E+00         0.00000E+00         0.99051E+06
 
    0.11649E+07         0.17601E+06         0.00000E+00
    0.17601E+06         0.37872E+07         0.00000E+00
    0.00000E+00         0.00000E+00         0.99042E+06
 
    0.11642E+07         0.24643E+06         0.00000E+00
    0.24643E+06         0.37874E+07         0.00000E+00
    0.00000E+00         0.00000E+00         0.99031E+06
 
    0.11632E+07         0.31687E+06         0.00000E+00
    0.31687E+06         0.37877E+07         0.00000E+00
    0.00000E+00         0.00000E+00         0.99019E+06
 
    0.11622E+07         0.38732E+06         0.00000E+00
    0.38732E+06         0.37881E+07         0.00000E+00
    0.00000E+00         0.00000E+00         0.99006E+06
 
    0.11609E+07         0.45779E+06         0.00000E+00
    0.45779E+06         0.37886E+07         0.00000E+00
    0.00000E+00         0.00000E+00         0.98990E+06
 
    0.11595E+07         0.52829E+06         0.00000E+00
    0.52829E+06         0.37891E+07         0.00000E+00
    0.00000E+00         0.00000E+00         0.98974E+06
 
    0.11580E+07         0.59881E+06         0.00000E+00
    0.59881E+06         0.37898E+07         0.00000E+00
    0.00000E+00         0.00000E+00         0.98955E+06
 
    0.11563E+07         0.66936E+06         0.00000E+00
    0.66936E+06         0.37905E+07         0.00000E+00
    0.00000E+00         0.00000E+00         0.98936E+06
 
    0.11544E+07         0.73994E+06         0.00000E+00
    0.73994E+06         0.37913E+07         0.00000E+00
    0.00000E+00         0.00000E+00         0.98914E+06
 
    0.11524E+07         0.81056E+06         0.00000E+00
    0.81056E+06         0.37922E+07         0.00000E+00
    0.00000E+00         0.00000E+00         0.98891E+06
 
    0.11502E+07         0.88121E+06         0.00000E+00
    0.88121E+06         0.37931E+07         0.00000E+00
    0.00000E+00         0.00000E+00         0.98867E+06
 
    0.11479E+07         0.95191E+06         0.00000E+00
    0.95191E+06         0.37941E+07         0.00000E+00
    0.00000E+00         0.00000E+00         0.98840E+06
 
    0.11454E+07         0.10226E+07         0.00000E+00
    0.10226E+07         0.37953E+07         0.00000E+00
    0.00000E+00         0.00000E+00         0.98813E+06
 
    0.11427E+07         0.10934E+07         0.00000E+00
    0.10934E+07         0.37964E+07         0.00000E+00
    0.00000E+00         0.00000E+00         0.98783E+06
 
    0.11399E+07         0.11643E+07         0.00000E+00
    0.11643E+07         0.37977E+07         0.00000E+00
    0.00000E+00         0.00000E+00         0.98753E+06
 
    0.11370E+07         0.12352E+07         0.00000E+00
    0.12352E+07         0.37990E+07         0.00000E+00
    0.00000E+00         0.00000E+00         0.98720E+06
 
    0.11339E+07         0.13061E+07         0.00000E+00
    0.13061E+07         0.38005E+07         0.00000E+00
    0.00000E+00         0.00000E+00         0.98686E+06
 
    0.11306E+07         0.13771E+07         0.00000E+00
    0.13771E+07         0.38020E+07         0.00000E+00
    0.00000E+00         0.00000E+00         0.98651E+06
 
    0.11272E+07         0.14482E+07         0.00000E+00
    0.14482E+07         0.38035E+07         0.00000E+00
    0.00000E+00         0.00000E+00         0.98614E+06
 
    0.11236E+07         0.15193E+07         0.00000E+00
    0.15193E+07         0.38052E+07         0.00000E+00
    0.00000E+00         0.00000E+00         0.98575E+06
 
    0.11199E+07         0.15905E+07         0.00000E+00
    0.15905E+07         0.38069E+07         0.00000E+00
    0.00000E+00         0.00000E+00         0.98535E+06
 
    0.11160E+07         0.16618E+07         0.00000E+00
    0.16618E+07         0.38087E+07         0.00000E+00
    0.00000E+00         0.00000E+00         0.98494E+06
 
    0.11120E+07         0.17332E+07         0.00000E+00
    0.17332E+07         0.38105E+07         0.00000E+00
    0.00000E+00         0.00000E+00         0.98451E+06
 
    0.11079E+07         0.18046E+07         0.00000E+00
    0.18046E+07         0.38124E+07         0.00000E+00
    0.00000E+00         0.00000E+00         0.98407E+06
 
    0.11036E+07         0.18762E+07         0.00000E+00
    0.18762E+07         0.38144E+07         0.00000E+00
    0.00000E+00         0.00000E+00         0.98361E+06
 
    0.10992E+07         0.19478E+07         0.00000E+00
    0.19478E+07         0.38165E+07         0.00000E+00
    0.00000E+00         0.00000E+00         0.98313E+06
 
    0.10946E+07         0.20195E+07         0.00000E+00
    0.20195E+07         0.38186E+07         0.00000E+00
    0.00000E+00         0.00000E+00         0.98264E+06
 
    0.10899E+07         0.20913E+07         0.00000E+00
    0.20913E+07         0.38208E+07         0.00000E+00
    0.00000E+00         0.00000E+00         0.98214E+06
 
    0.10851E+07         0.21632E+07         0.00000E+00
    0.21632E+07         0.38230E+07         0.00000E+00
    0.00000E+00         0.00000E+00         0.98162E+06
 
    0.10801E+07         0.22352E+07         0.00000E+00
    0.22352E+07         0.38253E+07         0.00000E+00
    0.00000E+00         0.00000E+00         0.98109E+06
 
    0.10750E+07         0.23073E+07         0.00000E+00
    0.23073E+07         0.38277E+07         0.00000E+00
    0.00000E+00         0.00000E+00         0.98055E+06
 
    0.10698E+07         0.23795E+07         0.00000E+00
    0.23795E+07         0.38301E+07         0.00000E+00
    0.00000E+00         0.00000E+00         0.97999E+06
 
    0.10645E+07         0.24518E+07         0.00000E+00
    0.24518E+07         0.38326E+07         0.00000E+00
    0.00000E+00         0.00000E+00         0.97942E+06
 
    0.10590E+07         0.25243E+07         0.00000E+00
    0.25243E+07         0.38351E+07         0.00000E+00
    0.00000E+00         0.00000E+00         0.97884E+06
 
    0.10535E+07         0.25968E+07         0.00000E+00
    0.25968E+07         0.38377E+07         0.00000E+00
    0.00000E+00         0.00000E+00         0.97824E+06
 
    0.10478E+07         0.26695E+07         0.00000E+00
    0.26695E+07         0.38403E+07         0.00000E+00
    0.00000E+00         0.00000E+00         0.97763E+06
 
    0.10420E+07         0.27423E+07         0.00000E+00
    0.27423E+07         0.38430E+07         0.00000E+00
    0.00000E+00         0.00000E+00         0.97701E+06
 
    0.10361E+07         0.28152E+07         0.00000E+00
    0.28152E+07         0.38457E+07         0.00000E+00
    0.00000E+00         0.00000E+00         0.97637E+06
 
    0.10301E+07         0.28882E+07         0.00000E+00
    0.28882E+07         0.38485E+07         0.00000E+00
    0.00000E+00         0.00000E+00         0.97572E+06
 
    0.10240E+07         0.29614E+07         0.00000E+00
    0.29614E+07         0.38513E+07         0.00000E+00
    0.00000E+00         0.00000E+00         0.97507E+06
 
    0.10179E+07         0.30347E+07         0.00000E+00
    0.30347E+07         0.38541E+07         0.00000E+00
    0.00000E+00         0.00000E+00         0.97440E+06
 
    0.10116E+07         0.31081E+07         0.00000E+00
    0.31081E+07         0.38570E+07         0.00000E+00
    0.00000E+00         0.00000E+00         0.97372E+06
 
    0.10053E+07         0.31817E+07         0.00000E+00
    0.31817E+07         0.38599E+07         0.00000E+00
    0.00000E+00         0.00000E+00         0.97302E+06
 
    0.99882E+06         0.32554E+07         0.00000E+00
    0.32554E+07         0.38628E+07         0.00000E+00
    0.00000E+00         0.00000E+00         0.97232E+06
 
    0.99232E+06         0.33292E+07         0.00000E+00
    0.33292E+07         0.38657E+07         0.00000E+00
    0.00000E+00         0.00000E+00         0.97161E+06
 
    0.98575E+06         0.34032E+07         0.00000E+00
    0.34032E+07         0.38687E+07         0.00000E+00
    0.00000E+00         0.00000E+00         0.97089E+06
 
    0.97911E+06         0.34774E+07         0.00000E+00
    0.34774E+07         0.38717E+07         0.00000E+00
    0.00000E+00         0.00000E+00         0.97016E+06
 
    0.97241E+06         0.35517E+07         0.00000E+00
    0.35517E+07         0.38747E+07         0.00000E+00
    0.00000E+00         0.00000E+00         0.96942E+06
 
    0.10196E+07         0.35385E+05         0.00000E+00
    0.35385E+05         0.32876E+07         0.00000E+00
    0.00000E+00         0.00000E+00         0.86146E+06
 
    0.10192E+07         0.10617E+06         0.00000E+00
    0.10617E+06         0.32877E+07         0.00000E+00
    0.00000E+00         0.00000E+00         0.86139E+06
 
    0.10187E+07         0.17696E+06         0.00000E+00
    0.17696E+06         0.32879E+07         0.00000E+00
    0.00000E+00         0.00000E+00         0.86131E+06
 
    0.10180E+07         0.24776E+06         0.00000E+00
    0.24776E+06         0.32881E+07         0.00000E+00
    0.00000E+00         0.00000E+00         0.86121E+06
 
    0.10171E+07         0.31858E+06         0.00000E+00
    0.31858E+06         0.32884E+07         0.00000E+00
    0.00000E+00         0.00000E+00         0.86110E+06
 
    0.10162E+07         0.38941E+06         0.00000E+00
    0.38941E+06         0.32887E+07         0.00000E+00
    0.00000E+00         0.00000E+00         0.86098E+06
 
    0.10150E+07         0.46027E+06         0.00000E+00
    0.46027E+06         0.32892E+07         0.00000E+00
    0.00000E+00         0.00000E+00         0.86084E+06
 
    0.10138E+07         0.53114E+06         0.00000E+00
    0.53114E+06         0.32897E+07         0.00000E+00
    0.00000E+00         0.00000E+00         0.86069E+06
 
    0.10123E+07         0.60204E+06         0.00000E+00
    0.60204E+06         0.32903E+07         0.00000E+00
    0.00000E+00         0.00000E+00         0.86052E+06
 
    0.10108E+07         0.67297E+06         0.00000E+00
    0.67297E+06         0.32909E+07         0.00000E+00
    0.00000E+00         0.00000E+00         0.86034E+06
 
    0.10091E+07         0.74393E+06         0.00000E+00
    0.74393E+06         0.32916E+07         0.00000E+00
    0.00000E+00         0.00000E+00         0.86014E+06
 
    0.10072E+07         0.81492E+06         0.00000E+00
    0.81492E+06         0.32924E+07         0.00000E+00
    0.00000E+00         0.00000E+00         0.85993E+06
 
    0.10052E+07         0.88595E+06         0.00000E+00
    0.88595E+06         0.32933E+07         0.00000E+00
    0.00000E+00         0.00000E+00         0.85971E+06
 
    0.10031E+07         0.95702E+06         0.00000E+00
    0.95702E+06         0.32942E+07         0.00000E+00
    0.00000E+00         0.00000E+00         0.85947E+06
 
    0.10008E+07         0.10281E+07         0.00000E+00
    0.10281E+07         0.32952E+07         0.00000E+00
    0.00000E+00         0.00000E+00         0.85922E+06
 
    0.99843E+06         0.10993E+07         0.00000E+00
    0.10993E+07         0.32963E+07         0.00000E+00
    0.00000E+00         0.00000E+00         0.85895E+06
 
    0.99588E+06         0.11705E+07         0.00000E+00
    0.11705E+07         0.32975E+07         0.00000E+00
    0.00000E+00         0.00000E+00         0.85867E+06
 
    0.99319E+06         0.12417E+07         0.00000E+00
    0.12417E+07         0.32987E+07         0.00000E+00
    0.00000E+00         0.00000E+00         0.85838E+06
 
    0.99037E+06         0.13130E+07         0.00000E+00
    0.13130E+07         0.33000E+07         0.00000E+00
    0.00000E+00         0.00000E+00         0.85807E+06
 
    0.98741E+06         0.13844E+07         0.00000E+00
    0.13844E+07         0.33013E+07         0.00000E+00
    0.00000E+00         0.00000E+00         0.85775E+06
 
    0.98431E+06         0.14558E+07         0.00000E+00
    0.14558E+07         0.33027E+07         0.00000E+00
    0.00000E+00         0.00000E+00         0.85741E+06
 
    0.98108E+06         0.15273E+07         0.00000E+00
    0.15273E+07         0.33042E+07         0.00000E+00
    0.00000E+00         0.00000E+00         0.85706E+06
 
    0.97772E+06         0.15989E+07         0.00000E+00
    0.15989E+07         0.33058E+07         0.00000E+00
    0.00000E+00         0.00000E+00         0.85670E+06
 
    0.97422E+06         0.16705E+07         0.00000E+00
    0.16705E+07         0.33074E+07         0.00000E+00
    0.00000E+00         0.00000E+00         0.85632E+06
 
    0.97060E+06         0.17422E+07         0.00000E+00
    0.17422E+07         0.33091E+07         0.00000E+00
    0.00000E+00         0.00000E+00         0.85593E+06
 
    0.96685E+06         0.18139E+07         0.00000E+00
    0.18139E+07         0.33108E+07         0.00000E+00
    0.00000E+00         0.00000E+00         0.85553E+06
 
    0.96297E+06         0.18858E+07         0.00000E+00
    0.18858E+07         0.33126E+07         0.00000E+00
    0.00000E+00         0.00000E+00         0.85512E+06
 
    0.95897E+06         0.19577E+07         0.00000E+00
    0.19577E+07         0.33145E+07         0.00000E+00
    0.00000E+00         0.00000E+00         0.85469E+06
 
    0.95485E+06         0.20297E+07         0.00000E+00
    0.20297E+07         0.33164E+07         0.00000E+00
    0.00000E+00         0.00000E+00         0.85425E+06
 
    0.95061E+06         0.21018E+07         0.00000E+00
    0.21018E+07         0.33183E+07         0.00000E+00
    0.00000E+00         0.00000E+00         0.85379E+06
 
    0.94626E+06         0.21740E+07         0.00000E+00
    0.21740E+07         0.33204E+07         0.00000E+00
    0.00000E+00         0.00000E+00         0.85333E+06
 
    0.94178E+06         0.22463E+07         0.00000E+00
    0.22463E+07         0.33225E+07         0.00000E+00
    0.00000E+00         0.00000E+00         0.85285E+06
 
    0.93720E+06         0.23187E+07         0.00000E+00
    0.23187E+07         0.33246E+07         0.00000E+00
    0.00000E+00         0.00000E+00         0.85236E+06
 
    0.93250E+06         0.23911E+07         0.00000E+00
    0.23911E+07         0.33268E+07         0.00000E+00
    0.00000E+00         0.00000E+00         0.85185E+06
 
    0.92770E+06         0.24637E+07         0.00000E+00
    0.24637E+07         0.33290E+07         0.00000E+00
    0.00000E+00         0.00000E+00         0.85134E+06
 
    0.92280E+06         0.25364E+07         0.00000E+00
    0.25364E+07         0.33313E+07         0.00000E+00
    0.00000E+00         0.00000E+00         0.85081E+06
 
    0.91779E+06         0.26091E+07         0.00000E+00
    0.26091E+07         0.33336E+07         0.00000E+00
    0.00000E+00         0.00000E+00         0.85028E+06
 
    0.91269E+06         0.26820E+07         0.00000E+00
    0.26820E+07         0.33359E+07         0.00000E+00
    0.00000E+00         0.00000E+00         0.84973E+06
 
    0.90749E+06         0.27550E+07         0.00000E+00
    0.27550E+07         0.33383E+07         0.00000E+00
    0.00000E+00         0.00000E+00         0.84917E+06
 
    0.90219E+06         0.28281E+07         0.00000E+00
    0.28281E+07         0.33408E+07         0.00000E+00
    0.00000E+00         0.00000E+00         0.84860E+06
 
    0.89682E+06         0.29014E+07         0.00000E+00
    0.29014E+07         0.33433E+07         0.00000E+00
    0.00000E+00         0.00000E+00         0.84801E+06
 
    0.89135E+06         0.29747E+07         0.00000E+00
    0.29747E+07         0.33458E+07         0.00000E+00
    0.00000E+00         0.00000E+00         0.84742E+06
 
    0.88581E+06         0.30482E+07         0.00000E+00
    0.30482E+07         0.33483E+07         0.00000E+00
    0.00000E+00         0.00000E+00         0.84682E+06
 
    0.88018E+06         0.31217E+07         0.00000E+00
    0.31217E+07         0.33509E+07         0.00000E+00
    0.00000E+00         0.00000E+00         0.84621E+06
 
    0.87449E+06         0.31954E+07         0.00000E+00
    0.31954E+07         0.33535E+07         0.00000E+00
    0.00000E+00         0.00000E+00         0.84559E+06
 
    0.86872E+06         0.32693E+07         0.00000E+00
    0.32693E+07         0.33561E+07         0.00000E+00
    0.00000E+00         0.00000E+00         0.84496E+06
 
    0.86289E+06         0.33432E+07         0.00000E+00
    0.33432E+07         0.33587E+07         0.00000E+00
    0.00000E+00         0.00000E+00         0.84432E+06
 
    0.85699E+06         0.34173E+07         0.00000E+00
    0.34173E+07         0.33614E+07         0.00000E+00
    0.00000E+00         0.00000E+00         0.84367E+06
 
    0.85104E+06         0.34915E+07         0.00000E+00
    0.34915E+07         0.33640E+07         0.00000E+00
    0.00000E+00         0.00000E+00         0.84302E+06
 
    0.84504E+06         0.35659E+07         0.00000E+00
    0.35659E+07         0.33667E+07         0.00000E+00
    0.00000E+00         0.00000E+00         0.84235E+06
 
    0.87511E+06         0.35560E+05         0.00000E+00
    0.35560E+05         0.27883E+07         0.00000E+00
    0.00000E+00         0.00000E+00         0.73268E+06
 
    0.87473E+06         0.10669E+06         0.00000E+00
    0.10669E+06         0.27884E+07         0.00000E+00
    0.00000E+00         0.00000E+00         0.73262E+06
 
    0.87423E+06         0.17783E+06         0.00000E+00
    0.17783E+06         0.27885E+07         0.00000E+00
    0.00000E+00         0.00000E+00         0.73255E+06
 
    0.87360E+06         0.24898E+06         0.00000E+00
    0.24898E+06         0.27887E+07         0.00000E+00
    0.00000E+00         0.00000E+00         0.73246E+06
 
    0.87283E+06         0.32015E+06         0.00000E+00
    0.32015E+06         0.27890E+07         0.00000E+00
    0.00000E+00         0.00000E+00         0.73236E+06
 
    0.87193E+06         0.39133E+06         0.00000E+00
    0.39133E+06         0.27893E+07         0.00000E+00
    0.00000E+00         0.00000E+00         0.73225E+06
 
    0.87091E+06         0.46253E+06         0.00000E+00
    0.46253E+06         0.27897E+07         0.00000E+00
    0.00000E+00         0.00000E+00         0.73212E+06
 
    0.86975E+06         0.53375E+06         0.00000E+00
    0.53375E+06         0.27902E+07         0.00000E+00
    0.00000E+00         0.00000E+00         0.73198E+06
 
    0.86846E+06         0.60499E+06         0.00000E+00
    0.60499E+06         0.27907E+07         0.00000E+00
    0.00000E+00         0.00000E+00         0.73183E+06
 
    0.86704E+06         0.67626E+06         0.00000E+00
    0.67626E+06         0.27913E+07         0.00000E+00
    0.00000E+00         0.00000E+00         0.73167E+06
 
    0.86549E+06         0.74756E+06         0.00000E+00
    0.74756E+06         0.27920E+07         0.00000E+00
    0.00000E+00         0.00000E+00         0.73149E+06
 
    0.86381E+06         0.81889E+06         0.00000E+00
    0.81889E+06         0.27927E+07         0.00000E+00
    0.00000E+00         0.00000E+00         0.73130E+06
 
    0.86201E+06         0.89026E+06         0.00000E+00
    0.89026E+06         0.27935E+07         0.00000E+00
    0.00000E+00         0.00000E+00         0.73109E+06
 
    0.86007E+06         0.96166E+06         0.00000E+00
    0.96166E+06         0.27943E+07         0.00000E+00
    0.00000E+00         0.00000E+00         0.73088E+06
 
    0.85801E+06         0.10331E+07         0.00000E+00
    0.10331E+07         0.27952E+07         0.00000E+00
    0.00000E+00         0.00000E+00         0.73065E+06
 
    0.85583E+06         0.11046E+07         0.00000E+00
    0.11046E+07         0.27962E+07         0.00000E+00
    0.00000E+00         0.00000E+00         0.73041E+06
 
    0.85352E+06         0.11761E+07         0.00000E+00
    0.11761E+07         0.27973E+07         0.00000E+00
    0.00000E+00         0.00000E+00         0.73015E+06
 
    0.85108E+06         0.12477E+07         0.00000E+00
    0.12477E+07         0.27984E+07         0.00000E+00
    0.00000E+00         0.00000E+00         0.72989E+06
 
    0.84853E+06         0.13193E+07         0.00000E+00
    0.13193E+07         0.27995E+07         0.00000E+00
    0.00000E+00         0.00000E+00         0.72961E+06
 
    0.84585E+06         0.13910E+07         0.00000E+00
    0.13910E+07         0.28007E+07         0.00000E+00
    0.00000E+00         0.00000E+00         0.72932E+06
 
    0.84305E+06         0.14627E+07         0.00000E+00
    0.14627E+07         0.28020E+07         0.00000E+00
    0.00000E+00         0.00000E+00         0.72901E+06
 
    0.84013E+06         0.15345E+07         0.00000E+00
    0.15345E+07         0.28034E+07         0.00000E+00
    0.00000E+00         0.00000E+00         0.72870E+06
 
    0.83709E+06         0.16064E+07         0.00000E+00
    0.16064E+07         0.28048E+07         0.00000E+00
    0.00000E+00         0.00000E+00         0.72837E+06
 
    0.83393E+06         0.16783E+07         0.00000E+00
    0.16783E+07         0.28062E+07         0.00000E+00
    0.00000E+00         0.00000E+00         0.72803E+06
 
    0.83066E+06         0.17503E+07         0.00000E+00
    0.17503E+07         0.28077E+07         0.00000E+00
    0.00000E+00         0.00000E+00         0.72768E+06
 
    0.82728E+06         0.18223E+07         0.00000E+00
    0.18223E+07         0.28093E+07         0.00000E+00
    0.00000E+00         0.00000E+00         0.72732E+06
 
    0.82378E+06         0.18945E+07         0.00000E+00
    0.18945E+07         0.28109E+07         0.00000E+00
    0.00000E+00         0.00000E+00         0.72694E+06
 
    0.82018E+06         0.19667E+07         0.00000E+00
    0.19667E+07         0.28126E+07         0.00000E+00
    0.00000E+00         0.00000E+00         0.72656E+06
 
    0.81646E+06         0.20390E+07         0.00000E+00
    0.20390E+07         0.28143E+07         0.00000E+00
    0.00000E+00         0.00000E+00         0.72616E+06
 
    0.81265E+06         0.21113E+07         0.00000E+00
    0.21113E+07         0.28161E+07         0.00000E+00
    0.00000E+00         0.00000E+00         0.72575E+06
 
    0.80872E+06         0.21837E+07         0.00000E+00
    0.21837E+07         0.28179E+07         0.00000E+00
    0.00000E+00         0.00000E+00         0.72533E+06
 
    0.80470E+06         0.22563E+07         0.00000E+00
    0.22563E+07         0.28198E+07         0.00000E+00
    0.00000E+00         0.00000E+00         0.72490E+06
 
    0.80057E+06         0.23289E+07         0.00000E+00
    0.23289E+07         0.28217E+07         0.00000E+00
    0.00000E+00         0.00000E+00         0.72446E+06
 
    0.79635E+06         0.24016E+07         0.00000E+00
    0.24016E+07         0.28237E+07         0.00000E+00
    0.00000E+00         0.00000E+00         0.72400E+06
 
    0.79203E+06         0.24744E+07         0.00000E+00
    0.24744E+07         0.28257E+07         0.00000E+00
    0.00000E+00         0.00000E+00         0.72354E+06
 
    0.78763E+06         0.25473E+07         0.00000E+00
    0.25473E+07         0.28277E+07         0.00000E+00
    0.00000E+00         0.00000E+00         0.72307E+06
 
    0.78313E+06         0.26202E+07         0.00000E+00
    0.26202E+07         0.28298E+07         0.00000E+00
    0.00000E+00         0.00000E+00         0.72258E+06
 
    0.77854E+06         0.26933E+07         0.00000E+00
    0.26933E+07         0.28319E+07         0.00000E+00
    0.00000E+00         0.00000E+00         0.72209E+06
 
    0.77387E+06         0.27665E+07         0.00000E+00
    0.27665E+07         0.28341E+07         0.00000E+00
    0.00000E+00         0.00000E+00         0.72159E+06
 
    0.76913E+06         0.28398E+07         0.00000E+00
    0.28398E+07         0.28363E+07         0.00000E+00
    0.00000E+00         0.00000E+00         0.72108E+06
 
    0.76430E+06         0.29132E+07         0.00000E+00
    0.29132E+07         0.28385E+07         0.00000E+00
    0.00000E+00         0.00000E+00         0.72055E+06
 
    0.75940E+06         0.29866E+07         0.00000E+00
    0.29866E+07         0.28407E+07         0.00000E+00
    0.00000E+00         0.00000E+00         0.72002E+06
 
    0.75442E+06         0.30602E+07         0.00000E+00
    0.30602E+07         0.28430E+07         0.00000E+00
    0.00000E+00         0.00000E+00         0.71948E+06
 
    0.74938E+06         0.31340E+07         0.00000E+00
    0.31340E+07         0.28453E+07         0.00000E+00
    0.00000E+00         0.00000E+00         0.71894E+06
 
    0.74427E+06         0.32078E+07         0.00000E+00
    0.32078E+07         0.28476E+07         0.00000E+00
    0.00000E+00         0.00000E+00         0.71838E+06
 
    0.73910E+06         0.32817E+07         0.00000E+00
    0.32817E+07         0.28500E+07         0.00000E+00
    0.00000E+00         0.00000E+00         0.71781E+06
 
    0.73388E+06         0.33558E+07         0.00000E+00
    0.33558E+07         0.28523E+07         0.00000E+00
    0.00000E+00         0.00000E+00         0.71724E+06
 
    0.72859E+06         0.34299E+07         0.00000E+00
    0.34299E+07         0.28547E+07         0.00000E+00
    0.00000E+00         0.00000E+00         0.71666E+06
 
    0.72326E+06         0.35042E+07         0.00000E+00
    0.35042E+07         0.28571E+07         0.00000E+00
    0.00000E+00         0.00000E+00         0.71607E+06
 
    0.71788E+06         0.35786E+07         0.00000E+00
    0.35786E+07         0.28595E+07         0.00000E+00
    0.00000E+00         0.00000E+00         0.71548E+06
 
    0.73219E+06         0.35719E+05         0.00000E+00
    0.35719E+05         0.22890E+07         0.00000E+00
    0.00000E+00         0.00000E+00         0.60423E+06
 
    0.73186E+06         0.10717E+06         0.00000E+00
    0.10717E+06         0.22890E+07         0.00000E+00
    0.00000E+00         0.00000E+00         0.60417E+06
 
    0.73140E+06         0.17863E+06         0.00000E+00
    0.17863E+06         0.22891E+07         0.00000E+00
    0.00000E+00         0.00000E+00         0.60411E+06
 
    0.73082E+06         0.25009E+06         0.00000E+00
    0.25009E+06         0.22893E+07         0.00000E+00
    0.00000E+00         0.00000E+00         0.60403E+06
 
    0.73013E+06         0.32157E+06         0.00000E+00
    0.32157E+06         0.22896E+07         0.00000E+00
    0.00000E+00         0.00000E+00         0.60394E+06
 
    0.72932E+06         0.39307E+06         0.00000E+00
    0.39307E+06         0.22899E+07         0.00000E+00
    0.00000E+00         0.00000E+00         0.60383E+06
 
    0.72839E+06         0.46458E+06         0.00000E+00
    0.46458E+06         0.22902E+07         0.00000E+00
    0.00000E+00         0.00000E+00         0.60372E+06
 
    0.72734E+06         0.53612E+06         0.00000E+00
    0.53612E+06         0.22906E+07         0.00000E+00
    0.00000E+00         0.00000E+00         0.60359E+06
 
    0.72617E+06         0.60767E+06         0.00000E+00
    0.60767E+06         0.22911E+07         0.00000E+00
    0.00000E+00         0.00000E+00         0.60346E+06
 
    0.72488E+06         0.67925E+06         0.00000E+00
    0.67925E+06         0.22917E+07         0.00000E+00
    0.00000E+00         0.00000E+00         0.60331E+06
 
    0.72348E+06         0.75086E+06         0.00000E+00
    0.75086E+06         0.22923E+07         0.00000E+00
    0.00000E+00         0.00000E+00         0.60315E+06
 
    0.72196E+06         0.82250E+06         0.00000E+00
    0.82250E+06         0.22929E+07         0.00000E+00
    0.00000E+00         0.00000E+00         0.60298E+06
 
    0.72033E+06         0.89417E+06         0.00000E+00
    0.89417E+06         0.22936E+07         0.00000E+00
    0.00000E+00         0.00000E+00         0.60279E+06
 
    0.71858E+06         0.96587E+06         0.00000E+00
    0.96587E+06         0.22944E+07         0.00000E+00
    0.00000E+00         0.00000E+00         0.60260E+06
 
    0.71672E+06         0.10376E+07         0.00000E+00
    0.10376E+07         0.22952E+07         0.00000E+00
    0.00000E+00         0.00000E+00         0.60239E+06
 
    0.71475E+06         0.11094E+07         0.00000E+00
    0.11094E+07         0.22961E+07         0.00000E+00
    0.00000E+00         0.00000E+00         0.60217E+06
 
    0.71266E+06         0.11812E+07         0.00000E+00
    0.11812E+07         0.22970E+07         0.00000E+00
    0.00000E+00         0.00000E+00         0.60194E+06
 
    0.71046E+06         0.12531E+07         0.00000E+00
    0.12531E+07         0.22980E+07         0.00000E+00
    0.00000E+00         0.00000E+00         0.60170E+06
 
    0.70815E+06         0.13250E+07         0.00000E+00
    0.13250E+07         0.22991E+07         0.00000E+00
    0.00000E+00         0.00000E+00         0.60145E+06
 
    0.70574E+06         0.13970E+07         0.00000E+00
    0.13970E+07         0.23002E+07         0.00000E+00
    0.00000E+00         0.00000E+00         0.60119E+06
 
    0.70321E+06         0.14690E+07         0.00000E+00
    0.14690E+07         0.23014E+07         0.00000E+00
    0.00000E+00         0.00000E+00         0.60091E+06
 
    0.70058E+06         0.15410E+07         0.00000E+00
    0.15410E+07         0.23026E+07         0.00000E+00
    0.00000E+00         0.00000E+00         0.60063E+06
 
    0.69784E+06         0.16132E+07         0.00000E+00
    0.16132E+07         0.23038E+07         0.00000E+00
    0.00000E+00         0.00000E+00         0.60033E+06
 
    0.69500E+06         0.16854E+07         0.00000E+00
    0.16854E+07         0.23051E+07         0.00000E+00
    0.00000E+00         0.00000E+00         0.60003E+06
 
    0.69206E+06         0.17576E+07         0.00000E+00
    0.17576E+07         0.23065E+07         0.00000E+00
    0.00000E+00         0.00000E+00         0.59971E+06
 
    0.68901E+06         0.18299E+07         0.00000E+00
    0.18299E+07         0.23079E+07         0.00000E+00
    0.00000E+00         0.00000E+00         0.59938E+06
 
    0.68587E+06         0.19023E+07         0.00000E+00
    0.19023E+07         0.23094E+07         0.00000E+00
    0.00000E+00         0.00000E+00         0.59905E+06
 
    0.68262E+06         0.19747E+07         0.00000E+00
    0.19747E+07         0.23109E+07         0.00000E+00
    0.00000E+00         0.00000E+00         0.59870E+06
 
    0.67928E+06         0.20472E+07         0.00000E+00
    0.20472E+07         0.23124E+07         0.00000E+00
    0.00000E+00         0.00000E+00         0.59834E+06
 
    0.67585E+06         0.21198E+07         0.00000E+00
    0.21198E+07         0.23140E+07         0.00000E+00
    0.00000E+00         0.00000E+00         0.59797E+06
 
    0.67233E+06         0.21925E+07         0.00000E+00
    0.21925E+07         0.23157E+07         0.00000E+00
    0.00000E+00         0.00000E+00         0.59760E+06
 
    0.66871E+06         0.22652E+07         0.00000E+00
    0.22652E+07         0.23173E+07         0.00000E+00
    0.00000E+00         0.00000E+00         0.59721E+06
 
    0.66501E+06         0.23381E+07         0.00000E+00
    0.23381E+07         0.23191E+07         0.00000E+00
    0.00000E+00         0.00000E+00         0.59681E+06
 
    0.66122E+06         0.24110E+07         0.00000E+00
    0.24110E+07         0.23208E+07         0.00000E+00
    0.00000E+00         0.00000E+00         0.59641E+06
 
    0.65735E+06         0.24840E+07         0.00000E+00
    0.24840E+07         0.23226E+07         0.00000E+00
    0.00000E+00         0.00000E+00         0.59599E+06
 
    0.65339E+06         0.25570E+07         0.00000E+00
    0.25570E+07         0.23244E+07         0.00000E+00
    0.00000E+00         0.00000E+00         0.59557E+06
 
    0.64936E+06         0.26302E+07         0.00000E+00
    0.26302E+07         0.23263E+07         0.00000E+00
    0.00000E+00         0.00000E+00         0.59513E+06
 
    0.64525E+06         0.27034E+07         0.00000E+00
    0.27034E+07         0.23282E+07         0.00000E+00
    0.00000E+00         0.00000E+00         0.59469E+06
 
    0.64106E+06         0.27768E+07         0.00000E+00
    0.27768E+07         0.23301E+07         0.00000E+00
    0.00000E+00         0.00000E+00         0.59424E+06
 
    0.63680E+06         0.28502E+07         0.00000E+00
    0.28502E+07         0.23321E+07         0.00000E+00
    0.00000E+00         0.00000E+00         0.59378E+06
 
    0.63248E+06         0.29237E+07         0.00000E+00
    0.29237E+07         0.23341E+07         0.00000E+00
    0.00000E+00         0.00000E+00         0.59331E+06
 
    0.62809E+06         0.29974E+07         0.00000E+00
    0.29974E+07         0.23361E+07         0.00000E+00
    0.00000E+00         0.00000E+00         0.59284E+06
 
    0.62363E+06         0.30711E+07         0.00000E+00
    0.30711E+07         0.23381E+07         0.00000E+00
    0.00000E+00         0.00000E+00         0.59235E+06
 
    0.61912E+06         0.31449E+07         0.00000E+00
    0.31449E+07         0.23402E+07         0.00000E+00
    0.00000E+00         0.00000E+00         0.59186E+06
 
    0.61454E+06         0.32188E+07         0.00000E+00
    0.32188E+07         0.23423E+07         0.00000E+00
    0.00000E+00         0.00000E+00         0.59136E+06
 
    0.60991E+06         0.32929E+07         0.00000E+00
    0.32929E+07         0.23444E+07         0.00000E+00
    0.00000E+00         0.00000E+00         0.59086E+06
 
    0.60523E+06         0.33670E+07         0.00000E+00
    0.33670E+07         0.23465E+07         0.00000E+00
    0.00000E+00         0.00000E+00         0.59035E+06
 
    0.60051E+06         0.34412E+07         0.00000E+00
    0.34412E+07         0.23486E+07         0.00000E+00
    0.00000E+00         0.00000E+00         0.58983E+06
 
    0.59573E+06         0.35156E+07         0.00000E+00
    0.35156E+07         0.23508E+07         0.00000E+00
    0.00000E+00         0.00000E+00         0.58930E+06
 
    0.59092E+06         0.35900E+07         0.00000E+00
    0.35900E+07         0.23529E+07         0.00000E+00
    0.00000E+00         0.00000E+00         0.58877E+06
 
    0.59075E+06         0.35864E+05         0.00000E+00
    0.35864E+05         0.17896E+07         0.00000E+00
    0.00000E+00         0.00000E+00         0.47606E+06
 
    0.59045E+06         0.10760E+06         0.00000E+00
    0.10760E+06         0.17896E+07         0.00000E+00
    0.00000E+00         0.00000E+00         0.47601E+06
 
    0.59004E+06         0.17935E+06         0.00000E+00
    0.17935E+06         0.17897E+07         0.00000E+00
    0.00000E+00         0.00000E+00         0.47595E+06
 
    0.58952E+06         0.25110E+06         0.00000E+00
    0.25110E+06         0.17899E+07         0.00000E+00
    0.00000E+00         0.00000E+00         0.47588E+06
 
    0.58889E+06         0.32287E+06         0.00000E+00
    0.32287E+06         0.17901E+07         0.00000E+00
    0.00000E+00         0.00000E+00         0.47580E+06
 
    0.58816E+06         0.39465E+06         0.00000E+00
    0.39465E+06         0.17904E+07         0.00000E+00
    0.00000E+00         0.00000E+00         0.47571E+06
 
    0.58732E+06         0.46644E+06         0.00000E+00
    0.46644E+06         0.17907E+07         0.00000E+00
    0.00000E+00         0.00000E+00         0.47560E+06
 
    0.58637E+06         0.53826E+06         0.00000E+00
    0.53826E+06         0.17911E+07         0.00000E+00
    0.00000E+00         0.00000E+00         0.47549E+06
 
    0.58532E+06         0.61009E+06         0.00000E+00
    0.61009E+06         0.17915E+07         0.00000E+00
    0.00000E+00         0.00000E+00         0.47536E+06
 
    0.58416E+06         0.68195E+06         0.00000E+00
    0.68195E+06         0.17920E+07         0.00000E+00
    0.00000E+00         0.00000E+00         0.47523E+06
 
    0.58289E+06         0.75384E+06         0.00000E+00
    0.75384E+06         0.17925E+07         0.00000E+00
    0.00000E+00         0.00000E+00         0.47509E+06
 
    0.58152E+06         0.82575E+06         0.00000E+00
    0.82575E+06         0.17931E+07         0.00000E+00
    0.00000E+00         0.00000E+00         0.47493E+06
 
    0.58005E+06         0.89769E+06         0.00000E+00
    0.89769E+06         0.17938E+07         0.00000E+00
    0.00000E+00         0.00000E+00         0.47476E+06
 
    0.57848E+06         0.96967E+06         0.00000E+00
    0.96967E+06         0.17945E+07         0.00000E+00
    0.00000E+00         0.00000E+00         0.47459E+06
 
    0.57680E+06         0.10417E+07         0.00000E+00
    0.10417E+07         0.17952E+07         0.00000E+00
    0.00000E+00         0.00000E+00         0.47440E+06
 
    0.57502E+06         0.11137E+07         0.00000E+00
    0.11137E+07         0.17960E+07         0.00000E+00
    0.00000E+00         0.00000E+00         0.47421E+06
 
    0.57315E+06         0.11858E+07         0.00000E+00
    0.11858E+07         0.17969E+07         0.00000E+00
    0.00000E+00         0.00000E+00         0.47400E+06
 
    0.57117E+06         0.12579E+07         0.00000E+00
    0.12579E+07         0.17978E+07         0.00000E+00
    0.00000E+00         0.00000E+00         0.47378E+06
 
    0.56909E+06         0.13301E+07         0.00000E+00
    0.13301E+07         0.17987E+07         0.00000E+00
    0.00000E+00         0.00000E+00         0.47356E+06
 
    0.56692E+06         0.14023E+07         0.00000E+00
    0.14023E+07         0.17997E+07         0.00000E+00
    0.00000E+00         0.00000E+00         0.47332E+06
 
    0.56465E+06         0.14746E+07         0.00000E+00
    0.14746E+07         0.18007E+07         0.00000E+00
    0.00000E+00         0.00000E+00         0.47308E+06
 
    0.56228E+06         0.15469E+07         0.00000E+00
    0.15469E+07         0.18018E+07         0.00000E+00
    0.00000E+00         0.00000E+00         0.47282E+06
 
    0.55982E+06         0.16193E+07         0.00000E+00
    0.16193E+07         0.18030E+07         0.00000E+00
    0.00000E+00         0.00000E+00         0.47256E+06
 
    0.55727E+06         0.16917E+07         0.00000E+00
    0.16917E+07         0.18041E+07         0.00000E+00
    0.00000E+00         0.00000E+00         0.47228E+06
 
    0.55463E+06         0.17642E+07         0.00000E+00
    0.17642E+07         0.18054E+07         0.00000E+00
    0.00000E+00         0.00000E+00         0.47200E+06
 
    0.55190E+06         0.18367E+07         0.00000E+00
    0.18367E+07         0.18066E+07         0.00000E+00
    0.00000E+00         0.00000E+00         0.47170E+06
 
    0.54908E+06         0.19093E+07         0.00000E+00
    0.19093E+07         0.18079E+07         0.00000E+00
    0.00000E+00         0.00000E+00         0.47140E+06
 
    0.54617E+06         0.19820E+07         0.00000E+00
    0.19820E+07         0.18093E+07         0.00000E+00
    0.00000E+00         0.00000E+00         0.47109E+06
 
    0.54317E+06         0.20547E+07         0.00000E+00
    0.20547E+07         0.18107E+07         0.00000E+00
    0.00000E+00         0.00000E+00         0.47077E+06
 
    0.54010E+06         0.21275E+07         0.00000E+00
    0.21275E+07         0.18121E+07         0.00000E+00
    0.00000E+00         0.00000E+00         0.47044E+06
 
    0.53694E+06         0.22004E+07         0.00000E+00
    0.22004E+07         0.18136E+07         0.00000E+00
    0.00000E+00         0.00000E+00         0.47010E+06
 
    0.53370E+06         0.22733E+07         0.00000E+00
    0.22733E+07         0.18151E+07         0.00000E+00
    0.00000E+00         0.00000E+00         0.46975E+06
 
    0.53038E+06         0.23463E+07         0.00000E+00
    0.23463E+07         0.18166E+07         0.00000E+00
    0.00000E+00         0.00000E+00         0.46940E+06
 
    0.52699E+06         0.24194E+07         0.00000E+00
    0.24194E+07         0.18182E+07         0.00000E+00
    0.00000E+00         0.00000E+00         0.46903E+06
 
    0.52352E+06         0.24925E+07         0.00000E+00
    0.24925E+07         0.18198E+07         0.00000E+00
    0.00000E+00         0.00000E+00         0.46866E+06
 
    0.51998E+06         0.25658E+07         0.00000E+00
    0.25658E+07         0.18214E+07         0.00000E+00
    0.00000E+00         0.00000E+00         0.46828E+06
 
    0.51637E+06         0.26391E+07         0.00000E+00
    0.26391E+07         0.18231E+07         0.00000E+00
    0.00000E+00         0.00000E+00         0.46789E+06
 
    0.51269E+06         0.27125E+07         0.00000E+00
    0.27125E+07         0.18248E+07         0.00000E+00
    0.00000E+00         0.00000E+00         0.46750E+06
 
    0.50894E+06         0.27860E+07         0.00000E+00
    0.27860E+07         0.18265E+07         0.00000E+00
    0.00000E+00         0.00000E+00         0.46709E+06
 
    0.50514E+06         0.28595E+07         0.00000E+00
    0.28595E+07         0.18283E+07         0.00000E+00
    0.00000E+00         0.00000E+00         0.46668E+06
 
    0.50127E+06         0.29332E+07         0.00000E+00
    0.29332E+07         0.18301E+07         0.00000E+00
    0.00000E+00         0.00000E+00         0.46626E+06
 
    0.49734E+06         0.30069E+07         0.00000E+00
    0.30069E+07         0.18319E+07         0.00000E+00
    0.00000E+00         0.00000E+00         0.46584E+06
 
    0.49336E+06         0.30808E+07         0.00000E+00
    0.30808E+07         0.18337E+07         0.00000E+00
    0.00000E+00         0.00000E+00         0.46541E+06
 
    0.48932E+06         0.31547E+07         0.00000E+00
    0.31547E+07         0.18355E+07         0.00000E+00
    0.00000E+00         0.00000E+00         0.46497E+06
 
    0.48523E+06         0.32287E+07         0.00000E+00
    0.32287E+07         0.18374E+07         0.00000E+00
    0.00000E+00         0.00000E+00         0.46452E+06
 
    0.48110E+06         0.33028E+07         0.00000E+00
    0.33028E+07         0.18392E+07         0.00000E+00
    0.00000E+00         0.00000E+00         0.46407E+06
 
    0.47692E+06         0.33770E+07         0.00000E+00
    0.33770E+07         0.18411E+07         0.00000E+00
    0.00000E+00         0.00000E+00         0.46361E+06
 
    0.47269E+06         0.34513E+07         0.00000E+00
    0.34513E+07         0.18430E+07         0.00000E+00
    0.00000E+00         0.00000E+00         0.46315E+06
 
    0.46842E+06         0.35257E+07         0.00000E+00
    0.35257E+07         0.18450E+07         0.00000E+00
    0.00000E+00         0.00000E+00         0.46268E+06
 
    0.46412E+06         0.36002E+07         0.00000E+00
    0.36002E+07         0.18469E+07         0.00000E+00
    0.00000E+00         0.00000E+00         0.46220E+06
 
    0.45065E+06         0.35994E+05         0.00000E+00
    0.35994E+05         0.12901E+07         0.00000E+00
    0.00000E+00         0.00000E+00         0.34815E+06
 
    0.45037E+06         0.10799E+06         0.00000E+00
    0.10799E+06         0.12902E+07         0.00000E+00
    0.00000E+00         0.00000E+00         0.34811E+06
 
    0.45000E+06         0.17999E+06         0.00000E+00
    0.17999E+06         0.12903E+07         0.00000E+00
    0.00000E+00         0.00000E+00         0.34805E+06
 
    0.44953E+06         0.25201E+06         0.00000E+00
    0.25201E+06         0.12904E+07         0.00000E+00
    0.00000E+00         0.00000E+00         0.34799E+06
 
    0.44897E+06         0.32403E+06         0.00000E+00
    0.32403E+06         0.12906E+07         0.00000E+00
    0.00000E+00         0.00000E+00         0.34791E+06
 
    0.44831E+06         0.39607E+06         0.00000E+00
    0.39607E+06         0.12908E+07         0.00000E+00
    0.00000E+00         0.00000E+00         0.34783E+06
 
    0.44755E+06         0.46812E+06         0.00000E+00
    0.46812E+06         0.12911E+07         0.00000E+00
    0.00000E+00         0.00000E+00         0.34774E+06
 
    0.44670E+06         0.54019E+06         0.00000E+00
    0.54019E+06         0.12915E+07         0.00000E+00
    0.00000E+00         0.00000E+00         0.34764E+06
 
    0.44575E+06         0.61228E+06         0.00000E+00
    0.61228E+06         0.12919E+07         0.00000E+00
    0.00000E+00         0.00000E+00         0.34752E+06
 
    0.44471E+06         0.68439E+06         0.00000E+00
    0.68439E+06         0.12923E+07         0.00000E+00
    0.00000E+00         0.00000E+00         0.34740E+06
 
    0.44358E+06         0.75652E+06         0.00000E+00
    0.75652E+06         0.12928E+07         0.00000E+00
    0.00000E+00         0.00000E+00         0.34727E+06
 
    0.44235E+06         0.82868E+06         0.00000E+00
    0.82868E+06         0.12933E+07         0.00000E+00
    0.00000E+00         0.00000E+00         0.34713E+06
 
    0.44103E+06         0.90087E+06         0.00000E+00
    0.90087E+06         0.12939E+07         0.00000E+00
    0.00000E+00         0.00000E+00         0.34699E+06
 
    0.43961E+06         0.97309E+06         0.00000E+00
    0.97309E+06         0.12945E+07         0.00000E+00
    0.00000E+00         0.00000E+00         0.34683E+06
 
    0.43811E+06         0.10453E+07         0.00000E+00
    0.10453E+07         0.12952E+07         0.00000E+00
    0.00000E+00         0.00000E+00         0.34666E+06
 
    0.43651E+06         0.11176E+07         0.00000E+00
    0.11176E+07         0.12959E+07         0.00000E+00
    0.00000E+00         0.00000E+00         0.34648E+06
 
    0.43483E+06         0.11899E+07         0.00000E+00
    0.11899E+07         0.12967E+07         0.00000E+00
    0.00000E+00         0.00000E+00         0.34630E+06
 
    0.43306E+06         0.12623E+07         0.00000E+00
    0.12623E+07         0.12975E+07         0.00000E+00
    0.00000E+00         0.00000E+00         0.34611E+06
 
    0.43120E+06         0.13347E+07         0.00000E+00
    0.13347E+07         0.12983E+07         0.00000E+00
    0.00000E+00         0.00000E+00         0.34590E+06
 
    0.42925E+06         0.14071E+07         0.00000E+00
    0.14071E+07         0.12992E+07         0.00000E+00
    0.00000E+00         0.00000E+00         0.34569E+06
 
    0.42722E+06         0.14796E+07         0.00000E+00
    0.14796E+07         0.13001E+07         0.00000E+00
    0.00000E+00         0.00000E+00         0.34547E+06
 
    0.42510E+06         0.15522E+07         0.00000E+00
    0.15522E+07         0.13011E+07         0.00000E+00
    0.00000E+00         0.00000E+00         0.34524E+06
 
    0.42290E+06         0.16247E+07         0.00000E+00
    0.16247E+07         0.13021E+07         0.00000E+00
    0.00000E+00         0.00000E+00         0.34501E+06
 
    0.42061E+06         0.16974E+07         0.00000E+00
    0.16974E+07         0.13032E+07         0.00000E+00
    0.00000E+00         0.00000E+00         0.34476E+06
 
    0.41825E+06         0.17701E+07         0.00000E+00
    0.17701E+07         0.13043E+07         0.00000E+00
    0.00000E+00         0.00000E+00         0.34450E+06
 
    0.41580E+06         0.18428E+07         0.00000E+00
    0.18428E+07         0.13054E+07         0.00000E+00
    0.00000E+00         0.00000E+00         0.34424E+06
 
    0.41328E+06         0.19156E+07         0.00000E+00
    0.19156E+07         0.13066E+07         0.00000E+00
    0.00000E+00         0.00000E+00         0.34397E+06
 
    0.41068E+06         0.19885E+07         0.00000E+00
    0.19885E+07         0.13078E+07         0.00000E+00
    0.00000E+00         0.00000E+00         0.34369E+06
 
    0.40800E+06         0.20614E+07         0.00000E+00
    0.20614E+07         0.13090E+07         0.00000E+00
    0.00000E+00         0.00000E+00         0.34341E+06
 
    0.40525E+06         0.21343E+07         0.00000E+00
    0.21343E+07         0.13103E+07         0.00000E+00
    0.00000E+00         0.00000E+00         0.34311E+06
 
    0.40243E+06         0.22074E+07         0.00000E+00
    0.22074E+07         0.13116E+07         0.00000E+00
    0.00000E+00         0.00000E+00         0.34281E+06
 
    0.39954E+06         0.22805E+07         0.00000E+00
    0.22805E+07         0.13130E+07         0.00000E+00
    0.00000E+00         0.00000E+00         0.34250E+06
 
    0.39657E+06         0.23537E+07         0.00000E+00
    0.23537E+07         0.13143E+07         0.00000E+00
    0.00000E+00         0.00000E+00         0.34218E+06
 
    0.39354E+06         0.24269E+07         0.00000E+00
    0.24269E+07         0.13157E+07         0.00000E+00
    0.00000E+00         0.00000E+00         0.34186E+06
 
    0.39045E+06         0.25002E+07         0.00000E+00
    0.25002E+07         0.13172E+07         0.00000E+00
    0.00000E+00         0.00000E+00         0.34152E+06
 
    0.38729E+06         0.25736E+07         0.00000E+00
    0.25736E+07         0.13186E+07         0.00000E+00
    0.00000E+00         0.00000E+00         0.34118E+06
 
    0.38406E+06         0.26471E+07         0.00000E+00
    0.26471E+07         0.13201E+07         0.00000E+00
    0.00000E+00         0.00000E+00         0.34084E+06
 
    0.38078E+06         0.27206E+07         0.00000E+00
    0.27206E+07         0.13216E+07         0.00000E+00
    0.00000E+00         0.00000E+00         0.34048E+06
 
    0.37744E+06         0.27942E+07         0.00000E+00
    0.27942E+07         0.13232E+07         0.00000E+00
    0.00000E+00         0.00000E+00         0.34012E+06
 
    0.37404E+06         0.28679E+07         0.00000E+00
    0.28679E+07         0.13247E+07         0.00000E+00
    0.00000E+00         0.00000E+00         0.33976E+06
 
    0.37059E+06         0.29416E+07         0.00000E+00
    0.29416E+07         0.13263E+07         0.00000E+00
    0.00000E+00         0.00000E+00         0.33938E+06
 
    0.36709E+06         0.30155E+07         0.00000E+00
    0.30155E+07         0.13279E+07         0.00000E+00
    0.00000E+00         0.00000E+00         0.33900E+06
 
    0.36354E+06         0.30894E+07         0.00000E+00
    0.30894E+07         0.13296E+07         0.00000E+00
    0.00000E+00         0.00000E+00         0.33862E+06
 
    0.35994E+06         0.31634E+07         0.00000E+00
    0.31634E+07         0.13312E+07         0.00000E+00
    0.00000E+00         0.00000E+00         0.33823E+06
 
    0.35629E+06         0.32375E+07         0.00000E+00
    0.32375E+07         0.13329E+07         0.00000E+00
    0.00000E+00         0.00000E+00         0.33783E+06
 
    0.35261E+06         0.33117E+07         0.00000E+00
    0.33117E+07         0.13345E+07         0.00000E+00
    0.00000E+00         0.00000E+00         0.33743E+06
 
    0.34888E+06         0.33860E+07         0.00000E+00
    0.33860E+07         0.13362E+07         0.00000E+00
    0.00000E+00         0.00000E+00         0.33702E+06
 
    0.34511E+06         0.34603E+07         0.00000E+00
    0.34603E+07         0.13379E+07         0.00000E+00
    0.00000E+00         0.00000E+00         0.33660E+06
 
    0.34131E+06         0.35348E+07         0.00000E+00
    0.35348E+07         0.13396E+07         0.00000E+00
    0.00000E+00         0.00000E+00         0.33618E+06
 
    0.33747E+06         0.36093E+07         0.00000E+00
    0.36093E+07         0.13413E+07         0.00000E+00
    0.00000E+00         0.00000E+00         0.33576E+06
 
    0.31173E+06         0.36111E+05         0.00000E+00
    0.36111E+05         0.79063E+06         0.00000E+00
    0.00000E+00         0.00000E+00         0.22047E+06
 
    0.31148E+06         0.10834E+06         0.00000E+00
    0.10834E+06         0.79068E+06         0.00000E+00
    0.00000E+00         0.00000E+00         0.22043E+06
 
    0.31115E+06         0.18058E+06         0.00000E+00
    0.18058E+06         0.79076E+06         0.00000E+00
    0.00000E+00         0.00000E+00         0.22038E+06
 
    0.31073E+06         0.25282E+06         0.00000E+00
    0.25282E+06         0.79090E+06         0.00000E+00
    0.00000E+00         0.00000E+00         0.22032E+06
 
    0.31022E+06         0.32508E+06         0.00000E+00
    0.32508E+06         0.79107E+06         0.00000E+00
    0.00000E+00         0.00000E+00         0.22026E+06
 
    0.30963E+06         0.39734E+06         0.00000E+00
    0.39734E+06         0.79129E+06         0.00000E+00
    0.00000E+00         0.00000E+00         0.22018E+06
 
    0.30895E+06         0.46962E+06         0.00000E+00
    0.46962E+06         0.79155E+06         0.00000E+00
    0.00000E+00         0.00000E+00         0.22010E+06
 
    0.30819E+06         0.54192E+06         0.00000E+00
    0.54192E+06         0.79186E+06         0.00000E+00
    0.00000E+00         0.00000E+00         0.22001E+06
 
    0.30734E+06         0.61423E+06         0.00000E+00
    0.61423E+06         0.79221E+06         0.00000E+00
    0.00000E+00         0.00000E+00         0.21991E+06
 
    0.30641E+06         0.68657E+06         0.00000E+00
    0.68657E+06         0.79260E+06         0.00000E+00
    0.00000E+00         0.00000E+00         0.21980E+06
 
    0.30539E+06         0.75892E+06         0.00000E+00
    0.75892E+06         0.79303E+06         0.00000E+00
    0.00000E+00         0.00000E+00         0.21968E+06
 
    0.30429E+06         0.83131E+06         0.00000E+00
    0.83131E+06         0.79350E+06         0.00000E+00
    0.00000E+00         0.00000E+00         0.21956E+06
 
    0.30311E+06         0.90371E+06         0.00000E+00
    0.90371E+06         0.79402E+06         0.00000E+00
    0.00000E+00         0.00000E+00         0.21943E+06
 
    0.30185E+06         0.97615E+06         0.00000E+00
    0.97615E+06         0.79458E+06         0.00000E+00
    0.00000E+00         0.00000E+00         0.21929E+06
 
    0.30050E+06         0.10486E+07         0.00000E+00
    0.10486E+07         0.79517E+06         0.00000E+00
    0.00000E+00         0.00000E+00         0.21914E+06
 
    0.29908E+06         0.11211E+07         0.00000E+00
    0.11211E+07         0.79581E+06         0.00000E+00
    0.00000E+00         0.00000E+00         0.21898E+06
 
    0.29758E+06         0.11936E+07         0.00000E+00
    0.11936E+07         0.79649E+06         0.00000E+00
    0.00000E+00         0.00000E+00         0.21881E+06
 
    0.29599E+06         0.12662E+07         0.00000E+00
    0.12662E+07         0.79721E+06         0.00000E+00
    0.00000E+00         0.00000E+00         0.21864E+06
 
    0.29433E+06         0.13388E+07         0.00000E+00
    0.13388E+07         0.79796E+06         0.00000E+00
    0.00000E+00         0.00000E+00         0.21846E+06
 
    0.29260E+06         0.14115E+07         0.00000E+00
    0.14115E+07         0.79875E+06         0.00000E+00
    0.00000E+00         0.00000E+00         0.21827E+06
 
    0.29078E+06         0.14841E+07         0.00000E+00
    0.14841E+07         0.79958E+06         0.00000E+00
    0.00000E+00         0.00000E+00         0.21807E+06
 
    0.28889E+06         0.15569E+07         0.00000E+00
    0.15569E+07         0.80045E+06         0.00000E+00
    0.00000E+00         0.00000E+00         0.21787E+06
 
    0.28693E+06         0.16296E+07         0.00000E+00
    0.16296E+07         0.80136E+06         0.00000E+00
    0.00000E+00         0.00000E+00         0.21766E+06
 
    0.28489E+06         0.17025E+07         0.00000E+00
    0.17025E+07         0.80230E+06         0.00000E+00
    0.00000E+00         0.00000E+00         0.21744E+06
 
    0.28279E+06         0.17753E+07         0.00000E+00
    0.17753E+07         0.80327E+06         0.00000E+00
    0.00000E+00         0.00000E+00         0.21721E+06
 
    0.28061E+06         0.18482E+07         0.00000E+00
    0.18482E+07         0.80428E+06         0.00000E+00
    0.00000E+00         0.00000E+00         0.21698E+06
 
    0.27836E+06         0.19212E+07         0.00000E+00
    0.19212E+07         0.80532E+06         0.00000E+00
    0.00000E+00         0.00000E+00         0.21674E+06
 
    0.27604E+06         0.19942E+07         0.00000E+00
    0.19942E+07         0.80639E+06         0.00000E+00
    0.00000E+00         0.00000E+00         0.21649E+06
 
    0.27366E+06         0.20673E+07         0.00000E+00
    0.20673E+07         0.80750E+06         0.00000E+00
    0.00000E+00         0.00000E+00         0.21623E+06
 
    0.27121E+06         0.21405E+07         0.00000E+00
    0.21405E+07         0.80863E+06         0.00000E+00
    0.00000E+00         0.00000E+00         0.21597E+06
 
    0.26870E+06         0.22136E+07         0.00000E+00
    0.22136E+07         0.80980E+06         0.00000E+00
    0.00000E+00         0.00000E+00         0.21570E+06
 
    0.26612E+06         0.22869E+07         0.00000E+00
    0.22869E+07         0.81100E+06         0.00000E+00
    0.00000E+00         0.00000E+00         0.21542E+06
 
    0.26349E+06         0.23602E+07         0.00000E+00
    0.23602E+07         0.81222E+06         0.00000E+00
    0.00000E+00         0.00000E+00         0.21514E+06
 
    0.26079E+06         0.24336E+07         0.00000E+00
    0.24336E+07         0.81347E+06         0.00000E+00
    0.00000E+00         0.00000E+00         0.21485E+06
 
    0.25804E+06         0.25070E+07         0.00000E+00
    0.25070E+07         0.81474E+06         0.00000E+00
    0.00000E+00         0.00000E+00         0.21456E+06
 
    0.25523E+06         0.25806E+07         0.00000E+00
    0.25806E+07         0.81604E+06         0.00000E+00
    0.00000E+00         0.00000E+00         0.21425E+06
 
    0.25236E+06         0.26541E+07         0.00000E+00
    0.26541E+07         0.81737E+06         0.00000E+00
    0.00000E+00         0.00000E+00         0.21395E+06
 
    0.24944E+06         0.27278E+07         0.00000E+00
    0.27278E+07         0.81871E+06         0.00000E+00
    0.00000E+00         0.00000E+00         0.21363E+06
 
    0.24647E+06         0.28015E+07         0.00000E+00
    0.28015E+07         0.82008E+06         0.00000E+00
    0.00000E+00         0.00000E+00         0.21331E+06
 
    0.24345E+06         0.28753E+07         0.00000E+00
    0.28753E+07         0.82147E+06         0.00000E+00
    0.00000E+00         0.00000E+00         0.21298E+06
 
    0.24039E+06         0.29492E+07         0.00000E+00
    0.29492E+07         0.82288E+06         0.00000E+00
    0.00000E+00         0.00000E+00         0.21265E+06
 
    0.23727E+06         0.30231E+07         0.00000E+00
    0.30231E+07         0.82430E+06         0.00000E+00
    0.00000E+00         0.00000E+00         0.21232E+06
 
    0.23412E+06         0.30971E+07         0.00000E+00
    0.30971E+07         0.82575E+06         0.00000E+00
    0.00000E+00         0.00000E+00         0.21197E+06
 
    0.23092E+06         0.31712E+07         0.00000E+00
    0.31712E+07         0.82720E+06         0.00000E+00
    0.00000E+00         0.00000E+00         0.21162E+06
 
    0.22768E+06         0.32454E+07         0.00000E+00
    0.32454E+07         0.82868E+06         0.00000E+00
    0.00000E+00         0.00000E+00         0.21127E+06
 
    0.22440E+06         0.33196E+07         0.00000E+00
    0.33196E+07         0.83016E+06         0.00000E+00
    0.00000E+00         0.00000E+00         0.21091E+06
 
    0.22109E+06         0.33939E+07         0.00000E+00
    0.33939E+07         0.83166E+06         0.00000E+00
    0.00000E+00         0.00000E+00         0.21055E+06
 
    0.21774E+06         0.34684E+07         0.00000E+00
    0.34684E+07         0.83316E+06         0.00000E+00
    0.00000E+00         0.00000E+00         0.21018E+06
 
    0.21436E+06         0.35428E+07         0.00000E+00
    0.35428E+07         0.83468E+06         0.00000E+00
    0.00000E+00         0.00000E+00         0.20981E+06
 
    0.21095E+06         0.36174E+07         0.00000E+00
    0.36174E+07         0.83620E+06         0.00000E+00
    0.00000E+00         0.00000E+00         0.20943E+06
 
    0.17388E+06         0.36215E+05         0.00000E+00
    0.36215E+05         0.29111E+06         0.00000E+00
    0.00000E+00         0.00000E+00         0.92998E+05
 
    0.17365E+06         0.10865E+06         0.00000E+00
    0.10865E+06         0.29115E+06         0.00000E+00
    0.00000E+00         0.00000E+00         0.92961E+05
 
    0.17335E+06         0.18110E+06         0.00000E+00
    0.18110E+06         0.29123E+06         0.00000E+00
    0.00000E+00         0.00000E+00         0.92916E+05
 
    0.17297E+06         0.25355E+06         0.00000E+00
    0.25355E+06         0.29135E+06         0.00000E+00
    0.00000E+00         0.00000E+00         0.92864E+05
 
    0.17252E+06         0.32601E+06         0.00000E+00
    0.32601E+06         0.29150E+06         0.00000E+00
    0.00000E+00         0.00000E+00         0.92805E+05
 
    0.17199E+06         0.39848E+06         0.00000E+00
    0.39848E+06         0.29170E+06         0.00000E+00
    0.00000E+00         0.00000E+00         0.92737E+05
 
    0.17138E+06         0.47096E+06         0.00000E+00
    0.47096E+06         0.29193E+06         0.00000E+00
    0.00000E+00         0.00000E+00         0.92663E+05
 
    0.17070E+06         0.54346E+06         0.00000E+00
    0.54346E+06         0.29220E+06         0.00000E+00
    0.00000E+00         0.00000E+00         0.92581E+05
 
    0.16995E+06         0.61598E+06         0.00000E+00
    0.61598E+06         0.29251E+06         0.00000E+00
    0.00000E+00         0.00000E+00         0.92492E+05
 
    0.16912E+06         0.68851E+06         0.00000E+00
    0.68851E+06         0.29286E+06         0.00000E+00
    0.00000E+00         0.00000E+00         0.92395E+05
 
    0.16821E+06         0.76106E+06         0.00000E+00
    0.76106E+06         0.29324E+06         0.00000E+00
    0.00000E+00         0.00000E+00         0.92291E+05
 
    0.16723E+06         0.83364E+06         0.00000E+00
    0.83364E+06         0.29366E+06         0.00000E+00
    0.00000E+00         0.00000E+00         0.92179E+05
 
    0.16618E+06         0.90624E+06         0.00000E+00
    0.90624E+06         0.29412E+06         0.00000E+00
    0.00000E+00         0.00000E+00         0.92061E+05
 
    0.16506E+06         0.97887E+06         0.00000E+00
    0.97887E+06         0.29461E+06         0.00000E+00
    0.00000E+00         0.00000E+00         0.91935E+05
 
    0.16387E+06         0.10515E+07         0.00000E+00
    0.10515E+07         0.29514E+06         0.00000E+00
    0.00000E+00         0.00000E+00         0.91802E+05
 
    0.16260E+06         0.11242E+07         0.00000E+00
    0.11242E+07         0.29571E+06         0.00000E+00
    0.00000E+00         0.00000E+00         0.91662E+05
 
    0.16126E+06         0.11969E+07         0.00000E+00
    0.11969E+07         0.29631E+06         0.00000E+00
    0.00000E+00         0.00000E+00         0.91515E+05
 
    0.15986E+06         0.12697E+07         0.00000E+00
    0.12697E+07         0.29695E+06         0.00000E+00
    0.00000E+00         0.00000E+00         0.91361E+05
 
    0.15838E+06         0.13425E+07         0.00000E+00
    0.13425E+07         0.29762E+06         0.00000E+00
    0.00000E+00         0.00000E+00         0.91200E+05
 
    0.15684E+06         0.14153E+07         0.00000E+00
    0.14153E+07         0.29832E+06         0.00000E+00
    0.00000E+00         0.00000E+00         0.91032E+05
 
    0.15523E+06         0.14881E+07         0.00000E+00
    0.14881E+07         0.29906E+06         0.00000E+00
    0.00000E+00         0.00000E+00         0.90857E+05
 
    0.15355E+06         0.15610E+07         0.00000E+00
    0.15610E+07         0.29982E+06         0.00000E+00
    0.00000E+00         0.00000E+00         0.90675E+05
 
    0.15181E+06         0.16340E+07         0.00000E+00
    0.16340E+07         0.30063E+06         0.00000E+00
    0.00000E+00         0.00000E+00         0.90487E+05
 
    0.15001E+06         0.17070E+07         0.00000E+00
    0.17070E+07         0.30146E+06         0.00000E+00
    0.00000E+00         0.00000E+00         0.90293E+05
 
    0.14814E+06         0.17800E+07         0.00000E+00
    0.17800E+07         0.30232E+06         0.00000E+00
    0.00000E+00         0.00000E+00         0.90091E+05
 
    0.14620E+06         0.18531E+07         0.00000E+00
    0.18531E+07         0.30321E+06         0.00000E+00
    0.00000E+00         0.00000E+00         0.89884E+05
 
    0.14421E+06         0.19262E+07         0.00000E+00
    0.19262E+07         0.30414E+06         0.00000E+00
    0.00000E+00         0.00000E+00         0.89669E+05
 
    0.14216E+06         0.19994E+07         0.00000E+00
    0.19994E+07         0.30509E+06         0.00000E+00
    0.00000E+00         0.00000E+00         0.89449E+05
 
    0.14005E+06         0.20726E+07         0.00000E+00
    0.20726E+07         0.30607E+06         0.00000E+00
    0.00000E+00         0.00000E+00         0.89222E+05
 
    0.13788E+06         0.21459E+07         0.00000E+00
    0.21459E+07         0.30707E+06         0.00000E+00
    0.00000E+00         0.00000E+00         0.88990E+05
 
    0.13565E+06         0.22192E+07         0.00000E+00
    0.22192E+07         0.30810E+06         0.00000E+00
    0.00000E+00         0.00000E+00         0.88751E+05
 
    0.13337E+06         0.22926E+07         0.00000E+00
    0.22926E+07         0.30916E+06         0.00000E+00
    0.00000E+00         0.00000E+00         0.88506E+05
 
    0.13103E+06         0.23660E+07         0.00000E+00
    0.23660E+07         0.31024E+06         0.00000E+00
    0.00000E+00         0.00000E+00         0.88255E+05
 
    0.12865E+06         0.24395E+07         0.00000E+00
    0.24395E+07         0.31135E+06         0.00000E+00
    0.00000E+00         0.00000E+00         0.87999E+05
 
    0.12621E+06         0.25131E+07         0.00000E+00
    0.25131E+07         0.31248E+06         0.00000E+00
    0.00000E+00         0.00000E+00         0.87737E+05
 
    0.12372E+06         0.25867E+07         0.00000E+00
    0.25867E+07         0.31363E+06         0.00000E+00
    0.00000E+00         0.00000E+00         0.87469E+05
 
    0.12118E+06         0.26604E+07         0.00000E+00
    0.26604E+07         0.31480E+06         0.00000E+00
    0.00000E+00         0.00000E+00         0.87196E+05
 
    0.11860E+06         0.27342E+07         0.00000E+00
    0.27342E+07         0.31599E+06         0.00000E+00
    0.00000E+00         0.00000E+00         0.86918E+05
 
    0.11597E+06         0.28080E+07         0.00000E+00
    0.28080E+07         0.31720E+06         0.00000E+00
    0.00000E+00         0.00000E+00         0.86634E+05
 
    0.11330E+06         0.28819E+07         0.00000E+00
    0.28819E+07         0.31843E+06         0.00000E+00
    0.00000E+00         0.00000E+00         0.86345E+05
 
    0.11059E+06         0.29558E+07         0.00000E+00
    0.29558E+07         0.31967E+06         0.00000E+00
    0.00000E+00         0.00000E+00         0.86052E+05
 
    0.10783E+06         0.30299E+07         0.00000E+00
    0.30299E+07         0.32093E+06         0.00000E+00
    0.00000E+00         0.00000E+00         0.85753E+05
 
    0.10504E+06         0.31039E+07         0.00000E+00
    0.31039E+07         0.32221E+06         0.00000E+00
    0.00000E+00         0.00000E+00         0.85449E+05
 
    0.10221E+06         0.31781E+07         0.00000E+00
    0.31781E+07         0.32350E+06         0.00000E+00
    0.00000E+00         0.00000E+00         0.85141E+05
 
    0.99343E+05         0.32523E+07         0.00000E+00
    0.32523E+07         0.32480E+06         0.00000E+00
    0.00000E+00         0.00000E+00         0.84828E+05
 
    0.96444E+05         0.33266E+07         0.00000E+00
    0.33266E+07         0.32611E+06         0.00000E+00
    0.00000E+00         0.00000E+00         0.84511E+05
 
    0.93513E+05         0.34010E+07         0.00000E+00
    0.34010E+07         0.32744E+06         0.00000E+00
    0.00000E+00         0.00000E+00         0.84190E+05
 
    0.90552E+05         0.34755E+07         0.00000E+00
    0.34755E+07         0.32877E+06         0.00000E+00
    0.00000E+00         0.00000E+00         0.83864E+05
 
    0.87563E+05         0.35500E+07         0.00000E+00
    0.35500E+07         0.33011E+06         0.00000E+00
    0.00000E+00         0.00000E+00         0.83534E+05
 
    0.84547E+05         0.36246E+07         0.00000E+00
    0.36246E+07         0.33146E+06         0.00000E+00
    0.00000E+00         0.00000E+00         0.83201E+05
 
    0.36962E+05         0.36308E+05         0.00000E+00
    0.36308E+05        -0.20845E+06         0.00000E+00
    0.00000E+00         0.00000E+00        -0.34298E+05
 
    0.36759E+05         0.10893E+06         0.00000E+00
    0.10893E+06        -0.20842E+06         0.00000E+00
    0.00000E+00         0.00000E+00        -0.34331E+05
 
    0.36488E+05         0.18156E+06         0.00000E+00
    0.18156E+06        -0.20835E+06         0.00000E+00
    0.00000E+00         0.00000E+00        -0.34372E+05
 
    0.36150E+05         0.25419E+06         0.00000E+00
    0.25419E+06        -0.20824E+06         0.00000E+00
    0.00000E+00         0.00000E+00        -0.34419E+05
 
    0.35745E+05         0.32683E+06         0.00000E+00
    0.32683E+06        -0.20811E+06         0.00000E+00
    0.00000E+00         0.00000E+00        -0.34472E+05
 
    0.35273E+05         0.39948E+06         0.00000E+00
    0.39948E+06        -0.20793E+06         0.00000E+00
    0.00000E+00         0.00000E+00        -0.34532E+05
 
    0.34734E+05         0.47215E+06         0.00000E+00
    0.47215E+06        -0.20773E+06         0.00000E+00
    0.00000E+00         0.00000E+00        -0.34599E+05
 
    0.34129E+05         0.54483E+06         0.00000E+00
    0.54483E+06        -0.20749E+06         0.00000E+00
    0.00000E+00         0.00000E+00        -0.34672E+05
 
    0.33459E+05         0.61752E+06         0.00000E+00
    0.61752E+06        -0.20722E+06         0.00000E+00
    0.00000E+00         0.00000E+00        -0.34752E+05
 
    0.32722E+05         0.69023E+06         0.00000E+00
    0.69023E+06        -0.20691E+06         0.00000E+00
    0.00000E+00         0.00000E+00        -0.34838E+05
 
    0.31921E+05         0.76296E+06         0.00000E+00
    0.76296E+06        -0.20657E+06         0.00000E+00
    0.00000E+00         0.00000E+00        -0.34931E+05
 
    0.31055E+05         0.83571E+06         0.00000E+00
    0.83571E+06        -0.20620E+06         0.00000E+00
    0.00000E+00         0.00000E+00        -0.35030E+05
 
    0.30125E+05         0.90848E+06         0.00000E+00
    0.90848E+06        -0.20580E+06         0.00000E+00
    0.00000E+00         0.00000E+00        -0.35135E+05
 
    0.29132E+05         0.98128E+06         0.00000E+00
    0.98128E+06        -0.20536E+06         0.00000E+00
    0.00000E+00         0.00000E+00        -0.35246E+05
 
    0.28075E+05         0.10541E+07         0.00000E+00
    0.10541E+07        -0.20490E+06         0.00000E+00
    0.00000E+00         0.00000E+00        -0.35364E+05
 
    0.26956E+05         0.11270E+07         0.00000E+00
    0.11270E+07        -0.20440E+06         0.00000E+00
    0.00000E+00         0.00000E+00        -0.35488E+05
 
    0.25776E+05         0.11998E+07         0.00000E+00
    0.11998E+07        -0.20387E+06         0.00000E+00
    0.00000E+00         0.00000E+00        -0.35619E+05
 
    0.24534E+05         0.12727E+07         0.00000E+00
    0.12727E+07        -0.20331E+06         0.00000E+00
    0.00000E+00         0.00000E+00        -0.35755E+05
 
    0.23232E+05         0.13457E+07         0.00000E+00
    0.13457E+07        -0.20272E+06         0.00000E+00
    0.00000E+00         0.00000E+00        -0.35898E+05
 
    0.21870E+05         0.14187E+07         0.00000E+00
    0.14187E+07        -0.20210E+06         0.00000E+00
    0.00000E+00         0.00000E+00        -0.36046E+05
 
    0.20450E+05         0.14917E+07         0.00000E+00
    0.14917E+07        -0.20145E+06         0.00000E+00
    0.00000E+00         0.00000E+00        -0.36201E+05
 
    0.18971E+05         0.15647E+07         0.00000E+00
    0.15647E+07        -0.20078E+06         0.00000E+00
    0.00000E+00         0.00000E+00        -0.36361E+05
 
    0.17435E+05         0.16378E+07         0.00000E+00
    0.16378E+07        -0.20007E+06         0.00000E+00
    0.00000E+00         0.00000E+00        -0.36527E+05
 
    0.15843E+05         0.17109E+07         0.00000E+00
    0.17109E+07        -0.19934E+06         0.00000E+00
    0.00000E+00         0.00000E+00        -0.36699E+05
 
    0.14195E+05         0.17841E+07         0.00000E+00
    0.17841E+07        -0.19858E+06         0.00000E+00
    0.00000E+00         0.00000E+00        -0.36877E+05
 
    0.12492E+05         0.18573E+07         0.00000E+00
    0.18573E+07        -0.19779E+06         0.00000E+00
    0.00000E+00         0.00000E+00        -0.37060E+05
 
    0.10736E+05         0.19306E+07         0.00000E+00
    0.19306E+07        -0.19698E+06         0.00000E+00
    0.00000E+00         0.00000E+00        -0.37249E+05
 
    0.89275E+04         0.20039E+07         0.00000E+00
    0.20039E+07        -0.19615E+06         0.00000E+00
    0.00000E+00         0.00000E+00        -0.37444E+05
 
    0.70673E+04         0.20773E+07         0.00000E+00
    0.20773E+07        -0.19529E+06         0.00000E+00
    0.00000E+00         0.00000E+00        -0.37644E+05
 
    0.51565E+04         0.21507E+07         0.00000E+00
    0.21507E+07        -0.19440E+06         0.00000E+00
    0.00000E+00         0.00000E+00        -0.37849E+05
 
    0.31964E+04         0.22241E+07         0.00000E+00
    0.22241E+07        -0.19349E+06         0.00000E+00
    0.00000E+00         0.00000E+00        -0.38060E+05
 
    0.11879E+04         0.22976E+07         0.00000E+00
    0.22976E+07        -0.19256E+06         0.00000E+00
    0.00000E+00         0.00000E+00        -0.38275E+05
 
   -0.86763E+03         0.23712E+07         0.00000E+00
    0.23712E+07        -0.19161E+06         0.00000E+00
    0.00000E+00         0.00000E+00        -0.38496E+05
 
   -0.29691E+04         0.24448E+07         0.00000E+00
    0.24448E+07        -0.19064E+06         0.00000E+00
    0.00000E+00         0.00000E+00        -0.38722E+05
 
   -0.51154E+04         0.25185E+07         0.00000E+00
    0.25185E+07        -0.18965E+06         0.00000E+00
    0.00000E+00         0.00000E+00        -0.38953E+05
 
   -0.73051E+04         0.25922E+07         0.00000E+00
    0.25922E+07        -0.18864E+06         0.00000E+00
    0.00000E+00         0.00000E+00        -0.39189E+05
 
   -0.95369E+04         0.26660E+07         0.00000E+00
    0.26660E+07        -0.18761E+06         0.00000E+00
    0.00000E+00         0.00000E+00        -0.39429E+05
 
   -0.11810E+05         0.27398E+07         0.00000E+00
    0.27398E+07        -0.18656E+06         0.00000E+00
    0.00000E+00         0.00000E+00        -0.39674E+05
 
   -0.14122E+05         0.28137E+07         0.00000E+00
    0.28137E+07        -0.18550E+06         0.00000E+00
    0.00000E+00         0.00000E+00        -0.39924E+05
 
   -0.16472E+05         0.28877E+07         0.00000E+00
    0.28877E+07        -0.18442E+06         0.00000E+00
    0.00000E+00         0.00000E+00        -0.40178E+05
 
   -0.18860E+05         0.29617E+07         0.00000E+00
    0.29617E+07        -0.18332E+06         0.00000E+00
    0.00000E+00         0.00000E+00        -0.40437E+05
 
   -0.21282E+05         0.30358E+07         0.00000E+00
    0.30358E+07        -0.18222E+06         0.00000E+00
    0.00000E+00         0.00000E+00        -0.40700E+05
 
   -0.23739E+05         0.31100E+07         0.00000E+00
    0.31100E+07        -0.18109E+06         0.00000E+00
    0.00000E+00         0.00000E+00        -0.40967E+05
 
   -0.26228E+05         0.31842E+07         0.00000E+00
    0.31842E+07        -0.17996E+06         0.00000E+00
    0.00000E+00         0.00000E+00        -0.41238E+05
 
   -0.28748E+05         0.32585E+07         0.00000E+00
    0.32585E+07        -0.17882E+06         0.00000E+00
    0.00000E+00         0.00000E+00        -0.41513E+05
 
   -0.31298E+05         0.33328E+07         0.00000E+00
    0.33328E+07        -0.17766E+06         0.00000E+00
    0.00000E+00         0.00000E+00        -0.41792E+05
 
   -0.33875E+05         0.34072E+07         0.00000E+00
    0.34072E+07        -0.17650E+06         0.00000E+00
    0.00000E+00         0.00000E+00        -0.42075E+05
 
   -0.36479E+05         0.34817E+07         0.00000E+00
    0.34817E+07        -0.17533E+06         0.00000E+00
    0.00000E+00         0.00000E+00        -0.42361E+05
 
   -0.39108E+05         0.35563E+07         0.00000E+00
    0.35563E+07        -0.17415E+06         0.00000E+00
    0.00000E+00         0.00000E+00        -0.42651E+05
 
   -0.41761E+05         0.36309E+07         0.00000E+00
    0.36309E+07        -0.17296E+06         0.00000E+00
    0.00000E+00         0.00000E+00        -0.42945E+05
 
   -0.99131E+05         0.36389E+05         0.00000E+00
    0.36389E+05        -0.70805E+06         0.00000E+00
    0.00000E+00         0.00000E+00        -0.16144E+06
 
   -0.99315E+05         0.10917E+06         0.00000E+00
    0.10917E+06        -0.70802E+06         0.00000E+00
    0.00000E+00         0.00000E+00        -0.16147E+06
 
   -0.99558E+05         0.18196E+06         0.00000E+00
    0.18196E+06        -0.70796E+06         0.00000E+00
    0.00000E+00         0.00000E+00        -0.16150E+06
 
   -0.99860E+05         0.25475E+06         0.00000E+00
    0.25475E+06        -0.70787E+06         0.00000E+00
    0.00000E+00         0.00000E+00        -0.16155E+06
 
   -0.10022E+06         0.32755E+06         0.00000E+00
    0.32755E+06        -0.70775E+06         0.00000E+00
    0.00000E+00         0.00000E+00        -0.16159E+06
 
   -0.10064E+06         0.40037E+06         0.00000E+00
    0.40037E+06        -0.70760E+06         0.00000E+00
    0.00000E+00         0.00000E+00        -0.16165E+06
 
   -0.10112E+06         0.47319E+06         0.00000E+00
    0.47319E+06        -0.70742E+06         0.00000E+00
    0.00000E+00         0.00000E+00        -0.16171E+06
 
   -0.10165E+06         0.54602E+06         0.00000E+00
    0.54602E+06        -0.70722E+06         0.00000E+00
    0.00000E+00         0.00000E+00        -0.16177E+06
 
   -0.10224E+06         0.61887E+06         0.00000E+00
    0.61887E+06        -0.70698E+06         0.00000E+00
    0.00000E+00         0.00000E+00        -0.16184E+06
 
   -0.10289E+06         0.69174E+06         0.00000E+00
    0.69174E+06        -0.70671E+06         0.00000E+00
    0.00000E+00         0.00000E+00        -0.16192E+06
 
   -0.10360E+06         0.76462E+06         0.00000E+00
    0.76462E+06        -0.70642E+06         0.00000E+00
    0.00000E+00         0.00000E+00        -0.16200E+06
 
   -0.10436E+06         0.83752E+06         0.00000E+00
    0.83752E+06        -0.70609E+06         0.00000E+00
    0.00000E+00         0.00000E+00        -0.16209E+06
 
   -0.10517E+06         0.91045E+06         0.00000E+00
    0.91045E+06        -0.70574E+06         0.00000E+00
    0.00000E+00         0.00000E+00        -0.16218E+06
 
   -0.10605E+06         0.98339E+06         0.00000E+00
    0.98339E+06        -0.70536E+06         0.00000E+00
    0.00000E+00         0.00000E+00        -0.16228E+06
 
   -0.10697E+06         0.10564E+07         0.00000E+00
    0.10564E+07        -0.70495E+06         0.00000E+00
    0.00000E+00         0.00000E+00        -0.16239E+06
 
   -0.10796E+06         0.11294E+07         0.00000E+00
    0.11294E+07        -0.70452E+06         0.00000E+00
    0.00000E+00         0.00000E+00        -0.16249E+06
 
   -0.10899E+06         0.12024E+07         0.00000E+00
    0.12024E+07        -0.70406E+06         0.00000E+00
    0.00000E+00         0.00000E+00        -0.16261E+06
 
   -0.11008E+06         0.12754E+07         0.00000E+00
    0.12754E+07        -0.70357E+06         0.00000E+00
    0.00000E+00         0.00000E+00        -0.16273E+06
 
   -0.11122E+06         0.13485E+07         0.00000E+00
    0.13485E+07        -0.70305E+06         0.00000E+00
    0.00000E+00         0.00000E+00        -0.16285E+06
 
   -0.11241E+06         0.14216E+07         0.00000E+00
    0.14216E+07        -0.70251E+06         0.00000E+00
    0.00000E+00         0.00000E+00        -0.16299E+06
 
   -0.11366E+06         0.14948E+07         0.00000E+00
    0.14948E+07        -0.70195E+06         0.00000E+00
    0.00000E+00         0.00000E+00        -0.16312E+06
 
   -0.11495E+06         0.15680E+07         0.00000E+00
    0.15680E+07        -0.70136E+06         0.00000E+00
    0.00000E+00         0.00000E+00        -0.16326E+06
 
   -0.11630E+06         0.16412E+07         0.00000E+00
    0.16412E+07        -0.70074E+06         0.00000E+00
    0.00000E+00         0.00000E+00        -0.16341E+06
 
   -0.11769E+06         0.17144E+07         0.00000E+00
    0.17144E+07        -0.70010E+06         0.00000E+00
    0.00000E+00         0.00000E+00        -0.16356E+06
 
   -0.11913E+06         0.17877E+07         0.00000E+00
    0.17877E+07        -0.69944E+06         0.00000E+00
    0.00000E+00         0.00000E+00        -0.16371E+06
 
   -0.12062E+06         0.18611E+07         0.00000E+00
    0.18611E+07        -0.69876E+06         0.00000E+00
    0.00000E+00         0.00000E+00        -0.16387E+06
 
   -0.12215E+06         0.19344E+07         0.00000E+00
    0.19344E+07        -0.69805E+06         0.00000E+00
    0.00000E+00         0.00000E+00        -0.16404E+06
 
   -0.12373E+06         0.20079E+07         0.00000E+00
    0.20079E+07        -0.69732E+06         0.00000E+00
    0.00000E+00         0.00000E+00        -0.16421E+06
 
   -0.12536E+06         0.20813E+07         0.00000E+00
    0.20813E+07        -0.69657E+06         0.00000E+00
    0.00000E+00         0.00000E+00        -0.16439E+06
 
   -0.12703E+06         0.21548E+07         0.00000E+00
    0.21548E+07        -0.69580E+06         0.00000E+00
    0.00000E+00         0.00000E+00        -0.16457E+06
 
   -0.12874E+06         0.22284E+07         0.00000E+00
    0.22284E+07        -0.69501E+06         0.00000E+00
    0.00000E+00         0.00000E+00        -0.16475E+06
 
   -0.13050E+06         0.23020E+07         0.00000E+00
    0.23020E+07        -0.69419E+06         0.00000E+00
    0.00000E+00         0.00000E+00        -0.16494E+06
 
   -0.13229E+06         0.23757E+07         0.00000E+00
    0.23757E+07        -0.69337E+06         0.00000E+00
    0.00000E+00         0.00000E+00        -0.16513E+06
 
   -0.13413E+06         0.24494E+07         0.00000E+00
    0.24494E+07        -0.69252E+06         0.00000E+00
    0.00000E+00         0.00000E+00        -0.16533E+06
 
   -0.13600E+06         0.25231E+07         0.00000E+00
    0.25231E+07        -0.69165E+06         0.00000E+00
    0.00000E+00         0.00000E+00        -0.16553E+06
 
   -0.13791E+06         0.25970E+07         0.00000E+00
    0.25970E+07        -0.69077E+06         0.00000E+00
    0.00000E+00         0.00000E+00        -0.16574E+06
 
   -0.13986E+06         0.26708E+07         0.00000E+00
    0.26708E+07        -0.68987E+06         0.00000E+00
    0.00000E+00         0.00000E+00        -0.16595E+06
 
   -0.14185E+06         0.27448E+07         0.00000E+00
    0.27448E+07        -0.68896E+06         0.00000E+00
    0.00000E+00         0.00000E+00        -0.16616E+06
 
   -0.14386E+06         0.28187E+07         0.00000E+00
    0.28187E+07        -0.68803E+06         0.00000E+00
    0.00000E+00         0.00000E+00        -0.16638E+06
 
   -0.14592E+06         0.28928E+07         0.00000E+00
    0.28928E+07        -0.68709E+06         0.00000E+00
    0.00000E+00         0.00000E+00        -0.16660E+06
 
   -0.14800E+06         0.29669E+07         0.00000E+00
    0.29669E+07        -0.68614E+06         0.00000E+00
    0.00000E+00         0.00000E+00        -0.16683E+06
 
   -0.15011E+06         0.30410E+07         0.00000E+00
    0.30410E+07        -0.68517E+06         0.00000E+00
    0.00000E+00         0.00000E+00        -0.16706E+06
 
   -0.15226E+06         0.31152E+07         0.00000E+00
    0.31152E+07        -0.68420E+06         0.00000E+00
    0.00000E+00         0.00000E+00        -0.16729E+06
 
   -0.15443E+06         0.31895E+07         0.00000E+00
    0.31895E+07        -0.68321E+06         0.00000E+00
    0.00000E+00         0.00000E+00        -0.16753E+06
 
   -0.15663E+06         0.32638E+07         0.00000E+00
    0.32638E+07        -0.68221E+06         0.00000E+00
    0.00000E+00         0.00000E+00        -0.16777E+06
 
   -0.15885E+06         0.33382E+07         0.00000E+00
    0.33382E+07        -0.68120E+06         0.00000E+00
    0.00000E+00         0.00000E+00        -0.16801E+06
 
   -0.16110E+06         0.34127E+07         0.00000E+00
    0.34127E+07        -0.68019E+06         0.00000E+00
    0.00000E+00         0.00000E+00        -0.16826E+06
 
   -0.16338E+06         0.34872E+07         0.00000E+00
    0.34872E+07        -0.67917E+06         0.00000E+00
    0.00000E+00         0.00000E+00        -0.16851E+06
 
   -0.16567E+06         0.35618E+07         0.00000E+00
    0.35618E+07        -0.67814E+06         0.00000E+00
    0.00000E+00         0.00000E+00        -0.16876E+06
 
   -0.16798E+06         0.36365E+07         0.00000E+00
    0.36365E+07        -0.67710E+06         0.00000E+00
    0.00000E+00         0.00000E+00        -0.16902E+06
 
   -0.23451E+06         0.36459E+05         0.00000E+00
    0.36459E+05        -0.12077E+07         0.00000E+00
    0.00000E+00         0.00000E+00        -0.28844E+06
 
   -0.23468E+06         0.10938E+06         0.00000E+00
    0.10938E+06        -0.12077E+07         0.00000E+00
    0.00000E+00         0.00000E+00        -0.28847E+06
 
   -0.23490E+06         0.18231E+06         0.00000E+00
    0.18231E+06        -0.12076E+07         0.00000E+00
    0.00000E+00         0.00000E+00        -0.28850E+06
 
   -0.23517E+06         0.25524E+06         0.00000E+00
    0.25524E+06        -0.12075E+07         0.00000E+00
    0.00000E+00         0.00000E+00        -0.28854E+06
 
   -0.23548E+06         0.32818E+06         0.00000E+00
    0.32818E+06        -0.12074E+07         0.00000E+00
    0.00000E+00         0.00000E+00        -0.28858E+06
 
   -0.23585E+06         0.40113E+06         0.00000E+00
    0.40113E+06        -0.12073E+07         0.00000E+00
    0.00000E+00         0.00000E+00        -0.28863E+06
 
   -0.23627E+06         0.47409E+06         0.00000E+00
    0.47409E+06        -0.12072E+07         0.00000E+00
    0.00000E+00         0.00000E+00        -0.28869E+06
 
   -0.23674E+06         0.54706E+06         0.00000E+00
    0.54706E+06        -0.12070E+07         0.00000E+00
    0.00000E+00         0.00000E+00        -0.28874E+06
 
   -0.23726E+06         0.62005E+06         0.00000E+00
    0.62005E+06        -0.12068E+07         0.00000E+00
    0.00000E+00         0.00000E+00        -0.28881E+06
 
   -0.23783E+06         0.69305E+06         0.00000E+00
    0.69305E+06        -0.12065E+07         0.00000E+00
    0.00000E+00         0.00000E+00        -0.28887E+06
 
   -0.23844E+06         0.76606E+06         0.00000E+00
    0.76606E+06        -0.12063E+07         0.00000E+00
    0.00000E+00         0.00000E+00        -0.28895E+06
 
   -0.23911E+06         0.83910E+06         0.00000E+00
    0.83910E+06        -0.12060E+07         0.00000E+00
    0.00000E+00         0.00000E+00        -0.28902E+06
 
   -0.23982E+06         0.91215E+06         0.00000E+00
    0.91215E+06        -0.12057E+07         0.00000E+00
    0.00000E+00         0.00000E+00        -0.28910E+06
 
   -0.24058E+06         0.98523E+06         0.00000E+00
    0.98523E+06        -0.12054E+07         0.00000E+00
    0.00000E+00         0.00000E+00        -0.28919E+06
 
   -0.24138E+06         0.10583E+07         0.00000E+00
    0.10583E+07        -0.12050E+07         0.00000E+00
    0.00000E+00         0.00000E+00        -0.28928E+06
 
   -0.24224E+06         0.11314E+07         0.00000E+00
    0.11314E+07        -0.12046E+07         0.00000E+00
    0.00000E+00         0.00000E+00        -0.28938E+06
 
   -0.24314E+06         0.12046E+07         0.00000E+00
    0.12046E+07        -0.12043E+07         0.00000E+00
    0.00000E+00         0.00000E+00        -0.28948E+06
 
   -0.24408E+06         0.12778E+07         0.00000E+00
    0.12778E+07        -0.12038E+07         0.00000E+00
    0.00000E+00         0.00000E+00        -0.28958E+06
 
   -0.24507E+06         0.13510E+07         0.00000E+00
    0.13510E+07        -0.12034E+07         0.00000E+00
    0.00000E+00         0.00000E+00        -0.28969E+06
 
   -0.24610E+06         0.14242E+07         0.00000E+00
    0.14242E+07        -0.12029E+07         0.00000E+00
    0.00000E+00         0.00000E+00        -0.28980E+06
 
   -0.24718E+06         0.14975E+07         0.00000E+00
    0.14975E+07        -0.12024E+07         0.00000E+00
    0.00000E+00         0.00000E+00        -0.28992E+06
 
   -0.24830E+06         0.15708E+07         0.00000E+00
    0.15708E+07        -0.12019E+07         0.00000E+00
    0.00000E+00         0.00000E+00        -0.29005E+06
 
   -0.24947E+06         0.16441E+07         0.00000E+00
    0.16441E+07        -0.12014E+07         0.00000E+00
    0.00000E+00         0.00000E+00        -0.29017E+06
 
   -0.25068E+06         0.17175E+07         0.00000E+00
    0.17175E+07        -0.12008E+07         0.00000E+00
    0.00000E+00         0.00000E+00        -0.29030E+06
 
   -0.25192E+06         0.17909E+07         0.00000E+00
    0.17909E+07        -0.12003E+07         0.00000E+00
    0.00000E+00         0.00000E+00        -0.29044E+06
 
   -0.25321E+06         0.18643E+07         0.00000E+00
    0.18643E+07        -0.11997E+07         0.00000E+00
    0.00000E+00         0.00000E+00        -0.29058E+06
 
   -0.25454E+06         0.19378E+07         0.00000E+00
    0.19378E+07        -0.11991E+07         0.00000E+00
    0.00000E+00         0.00000E+00        -0.29072E+06
 
   -0.25591E+06         0.20113E+07         0.00000E+00
    0.20113E+07        -0.11984E+07         0.00000E+00
    0.00000E+00         0.00000E+00        -0.29087E+06
 
   -0.25731E+06         0.20849E+07         0.00000E+00
    0.20849E+07        -0.11978E+07         0.00000E+00
    0.00000E+00         0.00000E+00        -0.29102E+06
 
   -0.25876E+06         0.21585E+07         0.00000E+00
    0.21585E+07        -0.11971E+07         0.00000E+00
    0.00000E+00         0.00000E+00        -0.29118E+06
 
   -0.26024E+06         0.22321E+07         0.00000E+00
    0.22321E+07        -0.11964E+07         0.00000E+00
    0.00000E+00         0.00000E+00        -0.29134E+06
 
   -0.26176E+06         0.23058E+07         0.00000E+00
    0.23058E+07        -0.11957E+07         0.00000E+00
    0.00000E+00         0.00000E+00        -0.29150E+06
 
   -0.26331E+06         0.23796E+07         0.00000E+00
    0.23796E+07        -0.11950E+07         0.00000E+00
    0.00000E+00         0.00000E+00        -0.29167E+06
 
   -0.26489E+06         0.24534E+07         0.00000E+00
    0.24534E+07        -0.11943E+07         0.00000E+00
    0.00000E+00         0.00000E+00        -0.29184E+06
 
   -0.26651E+06         0.25272E+07         0.00000E+00
    0.25272E+07        -0.11936E+07         0.00000E+00
    0.00000E+00         0.00000E+00        -0.29201E+06
 
   -0.26817E+06         0.26011E+07         0.00000E+00
    0.26011E+07        -0.11928E+07         0.00000E+00
    0.00000E+00         0.00000E+00        -0.29219E+06
 
   -0.26985E+06         0.26750E+07         0.00000E+00
    0.26750E+07        -0.11920E+07         0.00000E+00
    0.00000E+00         0.00000E+00        -0.29237E+06
 
   -0.27156E+06         0.27490E+07         0.00000E+00
    0.27490E+07        -0.11912E+07         0.00000E+00
    0.00000E+00         0.00000E+00        -0.29256E+06
 
   -0.27331E+06         0.28231E+07         0.00000E+00
    0.28231E+07        -0.11904E+07         0.00000E+00
    0.00000E+00         0.00000E+00        -0.29275E+06
 
   -0.27508E+06         0.28972E+07         0.00000E+00
    0.28972E+07        -0.11896E+07         0.00000E+00
    0.00000E+00         0.00000E+00        -0.29294E+06
 
   -0.27688E+06         0.29713E+07         0.00000E+00
    0.29713E+07        -0.11888E+07         0.00000E+00
    0.00000E+00         0.00000E+00        -0.29314E+06
 
   -0.27870E+06         0.30455E+07         0.00000E+00
    0.30455E+07        -0.11880E+07         0.00000E+00
    0.00000E+00         0.00000E+00        -0.29333E+06
 
   -0.28055E+06         0.31198E+07         0.00000E+00
    0.31198E+07        -0.11871E+07         0.00000E+00
    0.00000E+00         0.00000E+00        -0.29354E+06
 
   -0.28243E+06         0.31941E+07         0.00000E+00
    0.31941E+07        -0.11863E+07         0.00000E+00
    0.00000E+00         0.00000E+00        -0.29374E+06
 
   -0.28433E+06         0.32685E+07         0.00000E+00
    0.32685E+07        -0.11854E+07         0.00000E+00
    0.00000E+00         0.00000E+00        -0.29395E+06
 
   -0.28625E+06         0.33429E+07         0.00000E+00
    0.33429E+07        -0.11845E+07         0.00000E+00
    0.00000E+00         0.00000E+00        -0.29416E+06
 
   -0.28819E+06         0.34174E+07         0.00000E+00
    0.34174E+07        -0.11837E+07         0.00000E+00
    0.00000E+00         0.00000E+00        -0.29437E+06
 
   -0.29016E+06         0.34920E+07         0.00000E+00
    0.34920E+07        -0.11828E+07         0.00000E+00
    0.00000E+00         0.00000E+00        -0.29459E+06
 
   -0.29214E+06         0.35666E+07         0.00000E+00
    0.35666E+07        -0.11819E+07         0.00000E+00
    0.00000E+00         0.00000E+00        -0.29481E+06
 
   -0.29414E+06         0.36413E+07         0.00000E+00
    0.36413E+07        -0.11810E+07         0.00000E+00
    0.00000E+00         0.00000E+00        -0.29503E+06
 
   -0.36928E+06         0.36520E+05         0.00000E+00
    0.36520E+05        -0.17074E+07         0.00000E+00
    0.00000E+00         0.00000E+00        -0.41533E+06
 
   -0.36944E+06         0.10956E+06         0.00000E+00
    0.10956E+06        -0.17074E+07         0.00000E+00
    0.00000E+00         0.00000E+00        -0.41536E+06
 
   -0.36963E+06         0.18261E+06         0.00000E+00
    0.18261E+06        -0.17073E+07         0.00000E+00
    0.00000E+00         0.00000E+00        -0.41539E+06
 
   -0.36987E+06         0.25566E+06         0.00000E+00
    0.25566E+06        -0.17073E+07         0.00000E+00
    0.00000E+00         0.00000E+00        -0.41542E+06
 
   -0.37015E+06         0.32872E+06         0.00000E+00
    0.32872E+06        -0.17072E+07         0.00000E+00
    0.00000E+00         0.00000E+00        -0.41546E+06
 
   -0.37047E+06         0.40179E+06         0.00000E+00
    0.40179E+06        -0.17071E+07         0.00000E+00
    0.00000E+00         0.00000E+00        -0.41551E+06
 
   -0.37084E+06         0.47486E+06         0.00000E+00
    0.47486E+06        -0.17069E+07         0.00000E+00
    0.00000E+00         0.00000E+00        -0.41555E+06
 
   -0.37125E+06         0.54795E+06         0.00000E+00
    0.54795E+06        -0.17068E+07         0.00000E+00
    0.00000E+00         0.00000E+00        -0.41560E+06
 
   -0.37169E+06         0.62105E+06         0.00000E+00
    0.62105E+06        -0.17066E+07         0.00000E+00
    0.00000E+00         0.00000E+00        -0.41566E+06
 
   -0.37218E+06         0.69417E+06         0.00000E+00
    0.69417E+06        -0.17064E+07         0.00000E+00
    0.00000E+00         0.00000E+00        -0.41572E+06
 
   -0.37272E+06         0.76730E+06         0.00000E+00
    0.76730E+06        -0.17062E+07         0.00000E+00
    0.00000E+00         0.00000E+00        -0.41578E+06
 
   -0.37329E+06         0.84045E+06         0.00000E+00
    0.84045E+06        -0.17060E+07         0.00000E+00
    0.00000E+00         0.00000E+00        -0.41585E+06
 
   -0.37390E+06         0.91361E+06         0.00000E+00
    0.91361E+06        -0.17057E+07         0.00000E+00
    0.00000E+00         0.00000E+00        -0.41592E+06
 
   -0.37455E+06         0.98680E+06         0.00000E+00
    0.98680E+06        -0.17054E+07         0.00000E+00
    0.00000E+00         0.00000E+00        -0.41599E+06
 
   -0.37525E+06         0.10600E+07         0.00000E+00
    0.10600E+07        -0.17051E+07         0.00000E+00
    0.00000E+00         0.00000E+00        -0.41607E+06
 
   -0.37598E+06         0.11332E+07         0.00000E+00
    0.11332E+07        -0.17048E+07         0.00000E+00
    0.00000E+00         0.00000E+00        -0.41616E+06
 
   -0.37675E+06         0.12065E+07         0.00000E+00
    0.12065E+07        -0.17045E+07         0.00000E+00
    0.00000E+00         0.00000E+00        -0.41624E+06
 
   -0.37756E+06         0.12798E+07         0.00000E+00
    0.12798E+07        -0.17041E+07         0.00000E+00
    0.00000E+00         0.00000E+00        -0.41633E+06
 
   -0.37841E+06         0.13531E+07         0.00000E+00
    0.13531E+07        -0.17037E+07         0.00000E+00
    0.00000E+00         0.00000E+00        -0.41643E+06
 
   -0.37929E+06         0.14264E+07         0.00000E+00
    0.14264E+07        -0.17033E+07         0.00000E+00
    0.00000E+00         0.00000E+00        -0.41652E+06
 
   -0.38021E+06         0.14998E+07         0.00000E+00
    0.14998E+07        -0.17029E+07         0.00000E+00
    0.00000E+00         0.00000E+00        -0.41663E+06
 
   -0.38117E+06         0.15732E+07         0.00000E+00
    0.15732E+07        -0.17025E+07         0.00000E+00
    0.00000E+00         0.00000E+00        -0.41673E+06
 
   -0.38217E+06         0.16466E+07         0.00000E+00
    0.16466E+07        -0.17020E+07         0.00000E+00
    0.00000E+00         0.00000E+00        -0.41684E+06
 
   -0.38320E+06         0.17201E+07         0.00000E+00
    0.17201E+07        -0.17016E+07         0.00000E+00
    0.00000E+00         0.00000E+00        -0.41695E+06
 
   -0.38427E+06         0.17936E+07         0.00000E+00
    0.17936E+07        -0.17011E+07         0.00000E+00
    0.00000E+00         0.00000E+00        -0.41707E+06
 
   -0.38537E+06         0.18671E+07         0.00000E+00
    0.18671E+07        -0.17006E+07         0.00000E+00
    0.00000E+00         0.00000E+00        -0.41719E+06
 
   -0.38650E+06         0.19407E+07         0.00000E+00
    0.19407E+07        -0.17001E+07         0.00000E+00
    0.00000E+00         0.00000E+00        -0.41731E+06
 
   -0.38767E+06         0.20143E+07         0.00000E+00
    0.20143E+07        -0.16995E+07         0.00000E+00
    0.00000E+00         0.00000E+00        -0.41744E+06
 
   -0.38887E+06         0.20879E+07         0.00000E+00
    0.20879E+07        -0.16990E+07         0.00000E+00
    0.00000E+00         0.00000E+00        -0.41757E+06
 
   -0.39010E+06         0.21616E+07         0.00000E+00
    0.21616E+07        -0.16984E+07         0.00000E+00
    0.00000E+00         0.00000E+00        -0.41770E+06
 
   -0.39136E+06         0.22353E+07         0.00000E+00
    0.22353E+07        -0.16978E+07         0.00000E+00
    0.00000E+00         0.00000E+00        -0.41784E+06
 
   -0.39265E+06         0.23091E+07         0.00000E+00
    0.23091E+07        -0.16972E+07         0.00000E+00
    0.00000E+00         0.00000E+00        -0.41798E+06
 
   -0.39398E+06         0.23829E+07         0.00000E+00
    0.23829E+07        -0.16966E+07         0.00000E+00
    0.00000E+00         0.00000E+00        -0.41812E+06
 
   -0.39533E+06         0.24568E+07         0.00000E+00
    0.24568E+07        -0.16960E+07         0.00000E+00
    0.00000E+00         0.00000E+00        -0.41827E+06
 
   -0.39671E+06         0.25307E+07         0.00000E+00
    0.25307E+07        -0.16954E+07         0.00000E+00
    0.00000E+00         0.00000E+00        -0.41842E+06
 
   -0.39811E+06         0.26046E+07         0.00000E+00
    0.26046E+07        -0.16947E+07         0.00000E+00
    0.00000E+00         0.00000E+00        -0.41857E+06
 
   -0.39955E+06         0.26786E+07         0.00000E+00
    0.26786E+07        -0.16941E+07         0.00000E+00
    0.00000E+00         0.00000E+00        -0.41872E+06
 
   -0.40101E+06         0.27527E+07         0.00000E+00
    0.27527E+07        -0.16934E+07         0.00000E+00
    0.00000E+00         0.00000E+00        -0.41888E+06
 
   -0.40249E+06         0.28268E+07         0.00000E+00
    0.28268E+07        -0.16927E+07         0.00000E+00
    0.00000E+00         0.00000E+00        -0.41904E+06
 
   -0.40400E+06         0.29010E+07         0.00000E+00
    0.29010E+07        -0.16920E+07         0.00000E+00
    0.00000E+00         0.00000E+00        -0.41921E+06
 
   -0.40553E+06         0.29752E+07         0.00000E+00
    0.29752E+07        -0.16913E+07         0.00000E+00
    0.00000E+00         0.00000E+00        -0.41937E+06
 
   -0.40709E+06         0.30494E+07         0.00000E+00
    0.30494E+07        -0.16906E+07         0.00000E+00
    0.00000E+00         0.00000E+00        -0.41954E+06
 
   -0.40867E+06         0.31237E+07         0.00000E+00
    0.31237E+07        -0.16899E+07         0.00000E+00
    0.00000E+00         0.00000E+00        -0.41972E+06
 
   -0.41026E+06         0.31981E+07         0.00000E+00
    0.31981E+07        -0.16892E+07         0.00000E+00
    0.00000E+00         0.00000E+00        -0.41989E+06
 
   -0.41188E+06         0.32725E+07         0.00000E+00
    0.32725E+07        -0.16885E+07         0.00000E+00
    0.00000E+00         0.00000E+00        -0.42007E+06
 
   -0.41351E+06         0.33470E+07         0.00000E+00
    0.33470E+07        -0.16877E+07         0.00000E+00
    0.00000E+00         0.00000E+00        -0.42025E+06
 
   -0.41517E+06         0.34215E+07         0.00000E+00
    0.34215E+07        -0.16870E+07         0.00000E+00
    0.00000E+00         0.00000E+00        -0.42043E+06
 
   -0.41684E+06         0.34961E+07         0.00000E+00
    0.34961E+07        -0.16862E+07         0.00000E+00
    0.00000E+00         0.00000E+00        -0.42061E+06
 
   -0.41853E+06         0.35707E+07         0.00000E+00
    0.35707E+07        -0.16855E+07         0.00000E+00
    0.00000E+00         0.00000E+00        -0.42080E+06
 
   -0.42023E+06         0.36454E+07         0.00000E+00
    0.36454E+07        -0.16847E+07         0.00000E+00
    0.00000E+00         0.00000E+00        -0.42099E+06
 
   -0.50354E+06         0.36570E+05         0.00000E+00
    0.36570E+05        -0.22071E+07         0.00000E+00
    0.00000E+00         0.00000E+00        -0.54213E+06
 
   -0.50368E+06         0.10971E+06         0.00000E+00
    0.10971E+06        -0.22071E+07         0.00000E+00
    0.00000E+00         0.00000E+00        -0.54216E+06
 
   -0.50386E+06         0.18286E+06         0.00000E+00
    0.18286E+06        -0.22071E+07         0.00000E+00
    0.00000E+00         0.00000E+00        -0.54218E+06
 
   -0.50407E+06         0.25601E+06         0.00000E+00
    0.25601E+06        -0.22070E+07         0.00000E+00
    0.00000E+00         0.00000E+00        -0.54222E+06
 
   -0.50431E+06         0.32917E+06         0.00000E+00
    0.32917E+06        -0.22069E+07         0.00000E+00
    0.00000E+00         0.00000E+00        -0.54225E+06
 
   -0.50459E+06         0.40234E+06         0.00000E+00
    0.40234E+06        -0.22068E+07         0.00000E+00
    0.00000E+00         0.00000E+00        -0.54229E+06
 
   -0.50491E+06         0.47552E+06         0.00000E+00
    0.47552E+06        -0.22067E+07         0.00000E+00
    0.00000E+00         0.00000E+00        -0.54233E+06
 
   -0.50526E+06         0.54870E+06         0.00000E+00
    0.54870E+06        -0.22066E+07         0.00000E+00
    0.00000E+00         0.00000E+00        -0.54237E+06
 
   -0.50564E+06         0.62190E+06         0.00000E+00
    0.62190E+06        -0.22065E+07         0.00000E+00
    0.00000E+00         0.00000E+00        -0.54242E+06
 
   -0.50606E+06         0.69511E+06         0.00000E+00
    0.69511E+06        -0.22063E+07         0.00000E+00
    0.00000E+00         0.00000E+00        -0.54247E+06
 
   -0.50651E+06         0.76834E+06         0.00000E+00
    0.76834E+06        -0.22061E+07         0.00000E+00
    0.00000E+00         0.00000E+00        -0.54253E+06
 
   -0.50700E+06         0.84158E+06         0.00000E+00
    0.84158E+06        -0.22059E+07         0.00000E+00
    0.00000E+00         0.00000E+00        -0.54258E+06
 
   -0.50751E+06         0.91484E+06         0.00000E+00
    0.91484E+06        -0.22057E+07         0.00000E+00
    0.00000E+00         0.00000E+00        -0.54265E+06
 
   -0.50807E+06         0.98812E+06         0.00000E+00
    0.98812E+06        -0.22055E+07         0.00000E+00
    0.00000E+00         0.00000E+00        -0.54271E+06
 
   -0.50865E+06         0.10614E+07         0.00000E+00
    0.10614E+07        -0.22052E+07         0.00000E+00
    0.00000E+00         0.00000E+00        -0.54278E+06
 
   -0.50927E+06         0.11347E+07         0.00000E+00
    0.11347E+07        -0.22050E+07         0.00000E+00
    0.00000E+00         0.00000E+00        -0.54285E+06
 
   -0.50992E+06         0.12081E+07         0.00000E+00
    0.12081E+07        -0.22047E+07         0.00000E+00
    0.00000E+00         0.00000E+00        -0.54292E+06
 
   -0.51060E+06         0.12814E+07         0.00000E+00
    0.12814E+07        -0.22044E+07         0.00000E+00
    0.00000E+00         0.00000E+00        -0.54300E+06
 
   -0.51131E+06         0.13548E+07         0.00000E+00
    0.13548E+07        -0.22041E+07         0.00000E+00
    0.00000E+00         0.00000E+00        -0.54308E+06
 
   -0.51206E+06         0.14283E+07         0.00000E+00
    0.14283E+07        -0.22037E+07         0.00000E+00
    0.00000E+00         0.00000E+00        -0.54316E+06
 
   -0.51283E+06         0.15017E+07         0.00000E+00
    0.15017E+07        -0.22034E+07         0.00000E+00
    0.00000E+00         0.00000E+00        -0.54325E+06
 
   -0.51364E+06         0.15752E+07         0.00000E+00
    0.15752E+07        -0.22030E+07         0.00000E+00
    0.00000E+00         0.00000E+00        -0.54334E+06
 
   -0.51447E+06         0.16487E+07         0.00000E+00
    0.16487E+07        -0.22027E+07         0.00000E+00
    0.00000E+00         0.00000E+00        -0.54343E+06
 
   -0.51534E+06         0.17222E+07         0.00000E+00
    0.17222E+07        -0.22023E+07         0.00000E+00
    0.00000E+00         0.00000E+00        -0.54352E+06
 
   -0.51623E+06         0.17958E+07         0.00000E+00
    0.17958E+07        -0.22019E+07         0.00000E+00
    0.00000E+00         0.00000E+00        -0.54362E+06
 
   -0.51715E+06         0.18694E+07         0.00000E+00
    0.18694E+07        -0.22015E+07         0.00000E+00
    0.00000E+00         0.00000E+00        -0.54372E+06
 
   -0.51810E+06         0.19431E+07         0.00000E+00
    0.19431E+07        -0.22010E+07         0.00000E+00
    0.00000E+00         0.00000E+00        -0.54383E+06
 
   -0.51908E+06         0.20167E+07         0.00000E+00
    0.20167E+07        -0.22006E+07         0.00000E+00
    0.00000E+00         0.00000E+00        -0.54393E+06
 
   -0.52008E+06         0.20905E+07         0.00000E+00
    0.20905E+07        -0.22001E+07         0.00000E+00
    0.00000E+00         0.00000E+00        -0.54404E+06
 
   -0.52111E+06         0.21642E+07         0.00000E+00
    0.21642E+07        -0.21997E+07         0.00000E+00
    0.00000E+00         0.00000E+00        -0.54415E+06
 
   -0.52217E+06         0.22380E+07         0.00000E+00
    0.22380E+07        -0.21992E+07         0.00000E+00
    0.00000E+00         0.00000E+00        -0.54427E+06
 
   -0.52325E+06         0.23119E+07         0.00000E+00
    0.23119E+07        -0.21987E+07         0.00000E+00
    0.00000E+00         0.00000E+00        -0.54439E+06
 
   -0.52436E+06         0.23857E+07         0.00000E+00
    0.23857E+07        -0.21982E+07         0.00000E+00
    0.00000E+00         0.00000E+00        -0.54451E+06
 
   -0.52548E+06         0.24597E+07         0.00000E+00
    0.24597E+07        -0.21977E+07         0.00000E+00
    0.00000E+00         0.00000E+00        -0.54463E+06
 
   -0.52664E+06         0.25336E+07         0.00000E+00
    0.25336E+07        -0.21971E+07         0.00000E+00
    0.00000E+00         0.00000E+00        -0.54475E+06
 
   -0.52781E+06         0.26076E+07         0.00000E+00
    0.26076E+07        -0.21966E+07         0.00000E+00
    0.00000E+00         0.00000E+00        -0.54488E+06
 
   -0.52901E+06         0.26817E+07         0.00000E+00
    0.26817E+07        -0.21961E+07         0.00000E+00
    0.00000E+00         0.00000E+00        -0.54501E+06
 
   -0.53023E+06         0.27558E+07         0.00000E+00
    0.27558E+07        -0.21955E+07         0.00000E+00
    0.00000E+00         0.00000E+00        -0.54515E+06
 
   -0.53147E+06         0.28299E+07         0.00000E+00
    0.28299E+07        -0.21949E+07         0.00000E+00
    0.00000E+00         0.00000E+00        -0.54528E+06
 
   -0.53273E+06         0.29041E+07         0.00000E+00
    0.29041E+07        -0.21944E+07         0.00000E+00
    0.00000E+00         0.00000E+00        -0.54542E+06
 
   -0.53401E+06         0.29784E+07         0.00000E+00
    0.29784E+07        -0.21938E+07         0.00000E+00
    0.00000E+00         0.00000E+00        -0.54556E+06
 
   -0.53531E+06         0.30527E+07         0.00000E+00
    0.30527E+07        -0.21932E+07         0.00000E+00
    0.00000E+00         0.00000E+00        -0.54570E+06
 
   -0.53662E+06         0.31270E+07         0.00000E+00
    0.31270E+07        -0.21926E+07         0.00000E+00
    0.00000E+00         0.00000E+00        -0.54584E+06
 
   -0.53795E+06         0.32014E+07         0.00000E+00
    0.32014E+07        -0.21920E+07         0.00000E+00
    0.00000E+00         0.00000E+00        -0.54599E+06
 
   -0.53930E+06         0.32759E+07         0.00000E+00
    0.32759E+07        -0.21914E+07         0.00000E+00
    0.00000E+00         0.00000E+00        -0.54614E+06
 
   -0.54067E+06         0.33504E+07         0.00000E+00
    0.33504E+07        -0.21908E+07         0.00000E+00
    0.00000E+00         0.00000E+00        -0.54629E+06
 
   -0.54205E+06         0.34249E+07         0.00000E+00
    0.34249E+07        -0.21901E+07         0.00000E+00
    0.00000E+00         0.00000E+00        -0.54644E+06
 
   -0.54344E+06         0.34995E+07         0.00000E+00
    0.34995E+07        -0.21895E+07         0.00000E+00
    0.00000E+00         0.00000E+00        -0.54659E+06
 
   -0.54485E+06         0.35742E+07         0.00000E+00
    0.35742E+07        -0.21889E+07         0.00000E+00
    0.00000E+00         0.00000E+00        -0.54675E+06
 
   -0.54627E+06         0.36489E+07         0.00000E+00
    0.36489E+07        -0.21882E+07         0.00000E+00
    0.00000E+00         0.00000E+00        -0.54690E+06
 
   -0.63739E+06         0.36612E+05         0.00000E+00
    0.36612E+05        -0.27069E+07         0.00000E+00
    0.00000E+00         0.00000E+00        -0.66886E+06
 
   -0.63752E+06         0.10984E+06         0.00000E+00
    0.10984E+06        -0.27069E+07         0.00000E+00
    0.00000E+00         0.00000E+00        -0.66888E+06
 
   -0.63767E+06         0.18307E+06         0.00000E+00
    0.18307E+06        -0.27068E+07         0.00000E+00
    0.00000E+00         0.00000E+00        -0.66890E+06
 
   -0.63786E+06         0.25630E+06         0.00000E+00
    0.25630E+06        -0.27068E+07         0.00000E+00
    0.00000E+00         0.00000E+00        -0.66893E+06
 
   -0.63807E+06         0.32954E+06         0.00000E+00
    0.32954E+06        -0.27067E+07         0.00000E+00
    0.00000E+00         0.00000E+00        -0.66896E+06
 
   -0.63831E+06         0.40279E+06         0.00000E+00
    0.40279E+06        -0.27067E+07         0.00000E+00
    0.00000E+00         0.00000E+00        -0.66900E+06
 
   -0.63857E+06         0.47605E+06         0.00000E+00
    0.47605E+06        -0.27066E+07         0.00000E+00
    0.00000E+00         0.00000E+00        -0.66903E+06
 
   -0.63887E+06         0.54932E+06         0.00000E+00
    0.54932E+06        -0.27065E+07         0.00000E+00
    0.00000E+00         0.00000E+00        -0.66907E+06
 
   -0.63919E+06         0.62259E+06         0.00000E+00
    0.62259E+06        -0.27064E+07         0.00000E+00
    0.00000E+00         0.00000E+00        -0.66911E+06
 
   -0.63954E+06         0.69588E+06         0.00000E+00
    0.69588E+06        -0.27062E+07         0.00000E+00
    0.00000E+00         0.00000E+00        -0.66915E+06
 
   -0.63991E+06         0.76919E+06         0.00000E+00
    0.76919E+06        -0.27061E+07         0.00000E+00
    0.00000E+00         0.00000E+00        -0.66920E+06
 
   -0.64032E+06         0.84251E+06         0.00000E+00
    0.84251E+06        -0.27059E+07         0.00000E+00
    0.00000E+00         0.00000E+00        -0.66925E+06
 
   -0.64075E+06         0.91585E+06         0.00000E+00
    0.91585E+06        -0.27058E+07         0.00000E+00
    0.00000E+00         0.00000E+00        -0.66930E+06
 
   -0.64120E+06         0.98920E+06         0.00000E+00
    0.98920E+06        -0.27056E+07         0.00000E+00
    0.00000E+00         0.00000E+00        -0.66936E+06
 
   -0.64169E+06         0.10626E+07         0.00000E+00
    0.10626E+07        -0.27054E+07         0.00000E+00
    0.00000E+00         0.00000E+00        -0.66941E+06
 
   -0.64219E+06         0.11360E+07         0.00000E+00
    0.11360E+07        -0.27052E+07         0.00000E+00
    0.00000E+00         0.00000E+00        -0.66947E+06
 
   -0.64273E+06         0.12094E+07         0.00000E+00
    0.12094E+07        -0.27049E+07         0.00000E+00
    0.00000E+00         0.00000E+00        -0.66953E+06
 
   -0.64329E+06         0.12828E+07         0.00000E+00
    0.12828E+07        -0.27047E+07         0.00000E+00
    0.00000E+00         0.00000E+00        -0.66960E+06
 
   -0.64387E+06         0.13563E+07         0.00000E+00
    0.13563E+07        -0.27044E+07         0.00000E+00
    0.00000E+00         0.00000E+00        -0.66966E+06
 
   -0.64448E+06         0.14298E+07         0.00000E+00
    0.14298E+07        -0.27042E+07         0.00000E+00
    0.00000E+00         0.00000E+00        -0.66973E+06
 
   -0.64512E+06         0.15033E+07         0.00000E+00
    0.15033E+07        -0.27039E+07         0.00000E+00
    0.00000E+00         0.00000E+00        -0.66980E+06
 
   -0.64577E+06         0.15768E+07         0.00000E+00
    0.15768E+07        -0.27036E+07         0.00000E+00
    0.00000E+00         0.00000E+00        -0.66988E+06
 
   -0.64646E+06         0.16504E+07         0.00000E+00
    0.16504E+07        -0.27033E+07         0.00000E+00
    0.00000E+00         0.00000E+00        -0.66995E+06
 
   -0.64716E+06         0.17240E+07         0.00000E+00
    0.17240E+07        -0.27030E+07         0.00000E+00
    0.00000E+00         0.00000E+00        -0.67003E+06
 
   -0.64789E+06         0.17977E+07         0.00000E+00
    0.17977E+07        -0.27027E+07         0.00000E+00
    0.00000E+00         0.00000E+00        -0.67011E+06
 
   -0.64864E+06         0.18713E+07         0.00000E+00
    0.18713E+07        -0.27023E+07         0.00000E+00
    0.00000E+00         0.00000E+00        -0.67020E+06
 
   -0.64942E+06         0.19450E+07         0.00000E+00
    0.19450E+07        -0.27020E+07         0.00000E+00
    0.00000E+00         0.00000E+00        -0.67028E+06
 
   -0.65021E+06         0.20188E+07         0.00000E+00
    0.20188E+07        -0.27016E+07         0.00000E+00
    0.00000E+00         0.00000E+00        -0.67037E+06
 
   -0.65103E+06         0.20926E+07         0.00000E+00
    0.20926E+07        -0.27013E+07         0.00000E+00
    0.00000E+00         0.00000E+00        -0.67046E+06
 
   -0.65187E+06         0.21664E+07         0.00000E+00
    0.21664E+07        -0.27009E+07         0.00000E+00
    0.00000E+00         0.00000E+00        -0.67055E+06
 
   -0.65272E+06         0.22402E+07         0.00000E+00
    0.22402E+07        -0.27005E+07         0.00000E+00
    0.00000E+00         0.00000E+00        -0.67064E+06
 
   -0.65360E+06         0.23141E+07         0.00000E+00
    0.23141E+07        -0.27001E+07         0.00000E+00
    0.00000E+00         0.00000E+00        -0.67074E+06
 
   -0.65450E+06         0.23880E+07         0.00000E+00
    0.23880E+07        -0.26997E+07         0.00000E+00
    0.00000E+00         0.00000E+00        -0.67084E+06
 
   -0.65542E+06         0.24620E+07         0.00000E+00
    0.24620E+07        -0.26993E+07         0.00000E+00
    0.00000E+00         0.00000E+00        -0.67094E+06
 
   -0.65635E+06         0.25360E+07         0.00000E+00
    0.25360E+07        -0.26989E+07         0.00000E+00
    0.00000E+00         0.00000E+00        -0.67104E+06
 
   -0.65731E+06         0.26101E+07         0.00000E+00
    0.26101E+07        -0.26984E+07         0.00000E+00
    0.00000E+00         0.00000E+00        -0.67115E+06
 
   -0.65828E+06         0.26842E+07         0.00000E+00
    0.26842E+07        -0.26980E+07         0.00000E+00
    0.00000E+00         0.00000E+00        -0.67125E+06
 
   -0.65927E+06         0.27583E+07         0.00000E+00
    0.27583E+07        -0.26975E+07         0.00000E+00
    0.00000E+00         0.00000E+00        -0.67136E+06
 
   -0.66027E+06         0.28325E+07         0.00000E+00
    0.28325E+07        -0.26971E+07         0.00000E+00
    0.00000E+00         0.00000E+00        -0.67147E+06
 
   -0.66130E+06         0.29067E+07         0.00000E+00
    0.29067E+07        -0.26966E+07         0.00000E+00
    0.00000E+00         0.00000E+00        -0.67158E+06
 
   -0.66233E+06         0.29810E+07         0.00000E+00
    0.29810E+07        -0.26961E+07         0.00000E+00
    0.00000E+00         0.00000E+00        -0.67169E+06
 
   -0.66339E+06         0.30554E+07         0.00000E+00
    0.30554E+07        -0.26957E+07         0.00000E+00
    0.00000E+00         0.00000E+00        -0.67181E+06
 
   -0.66445E+06         0.31297E+07         0.00000E+00
    0.31297E+07        -0.26952E+07         0.00000E+00
    0.00000E+00         0.00000E+00        -0.67193E+06
 
   -0.66553E+06         0.32042E+07         0.00000E+00
    0.32042E+07        -0.26947E+07         0.00000E+00
    0.00000E+00         0.00000E+00        -0.67204E+06
 
   -0.66663E+06         0.32786E+07         0.00000E+00
    0.32786E+07        -0.26942E+07         0.00000E+00
    0.00000E+00         0.00000E+00        -0.67216E+06
 
   -0.66773E+06         0.33532E+07         0.00000E+00
    0.33532E+07        -0.26937E+07         0.00000E+00
    0.00000E+00         0.00000E+00        -0.67229E+06
 
   -0.66885E+06         0.34278E+07         0.00000E+00
    0.34278E+07        -0.26932E+07         0.00000E+00
    0.00000E+00         0.00000E+00        -0.67241E+06
 
   -0.66998E+06         0.35024E+07         0.00000E+00
    0.35024E+07        -0.26927E+07         0.00000E+00
    0.00000E+00         0.00000E+00        -0.67253E+06
 
   -0.67112E+06         0.35771E+07         0.00000E+00
    0.35771E+07        -0.26922E+07         0.00000E+00
    0.00000E+00         0.00000E+00        -0.67266E+06
 
   -0.67227E+06         0.36518E+07         0.00000E+00
    0.36518E+07        -0.26917E+07         0.00000E+00
    0.00000E+00         0.00000E+00        -0.67279E+06
 
   -0.77091E+06         0.36645E+05         0.00000E+00
    0.36645E+05        -0.32067E+07         0.00000E+00
    0.00000E+00         0.00000E+00        -0.79552E+06
 
   -0.77103E+06         0.10994E+06         0.00000E+00
    0.10994E+06        -0.32067E+07         0.00000E+00
    0.00000E+00         0.00000E+00        -0.79555E+06
 
   -0.77116E+06         0.18323E+06         0.00000E+00
    0.18323E+06        -0.32067E+07         0.00000E+00
    0.00000E+00         0.00000E+00        -0.79557E+06
 
   -0.77132E+06         0.25653E+06         0.00000E+00
    0.25653E+06        -0.32066E+07         0.00000E+00
    0.00000E+00         0.00000E+00        -0.79559E+06
 
   -0.77150E+06         0.32984E+06         0.00000E+00
    0.32984E+06        -0.32066E+07         0.00000E+00
    0.00000E+00         0.00000E+00        -0.79562E+06
 
   -0.77170E+06         0.40315E+06         0.00000E+00
    0.40315E+06        -0.32065E+07         0.00000E+00
    0.00000E+00         0.00000E+00        -0.79565E+06
 
   -0.77192E+06         0.47647E+06         0.00000E+00
    0.47647E+06        -0.32065E+07         0.00000E+00
    0.00000E+00         0.00000E+00        -0.79568E+06
 
   -0.77216E+06         0.54980E+06         0.00000E+00
    0.54980E+06        -0.32064E+07         0.00000E+00
    0.00000E+00         0.00000E+00        -0.79571E+06
 
   -0.77242E+06         0.62314E+06         0.00000E+00
    0.62314E+06        -0.32063E+07         0.00000E+00
    0.00000E+00         0.00000E+00        -0.79575E+06
 
   -0.77271E+06         0.69649E+06         0.00000E+00
    0.69649E+06        -0.32062E+07         0.00000E+00
    0.00000E+00         0.00000E+00        -0.79578E+06
 
   -0.77301E+06         0.76986E+06         0.00000E+00
    0.76986E+06        -0.32061E+07         0.00000E+00
    0.00000E+00         0.00000E+00        -0.79582E+06
 
   -0.77333E+06         0.84324E+06         0.00000E+00
    0.84324E+06        -0.32060E+07         0.00000E+00
    0.00000E+00         0.00000E+00        -0.79586E+06
 
   -0.77368E+06         0.91664E+06         0.00000E+00
    0.91664E+06        -0.32058E+07         0.00000E+00
    0.00000E+00         0.00000E+00        -0.79590E+06
 
   -0.77404E+06         0.99005E+06         0.00000E+00
    0.99005E+06        -0.32057E+07         0.00000E+00
    0.00000E+00         0.00000E+00        -0.79595E+06
 
   -0.77443E+06         0.10635E+07         0.00000E+00
    0.10635E+07        -0.32055E+07         0.00000E+00
    0.00000E+00         0.00000E+00        -0.79600E+06
 
   -0.77483E+06         0.11369E+07         0.00000E+00
    0.11369E+07        -0.32054E+07         0.00000E+00
    0.00000E+00         0.00000E+00        -0.79604E+06
 
   -0.77525E+06         0.12104E+07         0.00000E+00
    0.12104E+07        -0.32052E+07         0.00000E+00
    0.00000E+00         0.00000E+00        -0.79609E+06
 
   -0.77570E+06         0.12839E+07         0.00000E+00
    0.12839E+07        -0.32050E+07         0.00000E+00
    0.00000E+00         0.00000E+00        -0.79614E+06
 
   -0.77616E+06         0.13574E+07         0.00000E+00
    0.13574E+07        -0.32048E+07         0.00000E+00
    0.00000E+00         0.00000E+00        -0.79620E+06
 
   -0.77664E+06         0.14310E+07         0.00000E+00
    0.14310E+07        -0.32046E+07         0.00000E+00
    0.00000E+00         0.00000E+00        -0.79625E+06
 
   -0.77714E+06         0.15046E+07         0.00000E+00
    0.15046E+07        -0.32044E+07         0.00000E+00
    0.00000E+00         0.00000E+00        -0.79631E+06
 
   -0.77765E+06         0.15782E+07         0.00000E+00
    0.15782E+07        -0.32042E+07         0.00000E+00
    0.00000E+00         0.00000E+00        -0.79637E+06
 
   -0.77819E+06         0.16518E+07         0.00000E+00
    0.16518E+07        -0.32040E+07         0.00000E+00
    0.00000E+00         0.00000E+00        -0.79643E+06
 
   -0.77874E+06         0.17254E+07         0.00000E+00
    0.17254E+07        -0.32037E+07         0.00000E+00
    0.00000E+00         0.00000E+00        -0.79649E+06
 
   -0.77931E+06         0.17991E+07         0.00000E+00
    0.17991E+07        -0.32035E+07         0.00000E+00
    0.00000E+00         0.00000E+00        -0.79656E+06
 
   -0.77990E+06         0.18728E+07         0.00000E+00
    0.18728E+07        -0.32032E+07         0.00000E+00
    0.00000E+00         0.00000E+00        -0.79662E+06
 
   -0.78050E+06         0.19466E+07         0.00000E+00
    0.19466E+07        -0.32030E+07         0.00000E+00
    0.00000E+00         0.00000E+00        -0.79669E+06
 
   -0.78112E+06         0.20204E+07         0.00000E+00
    0.20204E+07        -0.32027E+07         0.00000E+00
    0.00000E+00         0.00000E+00        -0.79676E+06
 
   -0.78176E+06         0.20942E+07         0.00000E+00
    0.20942E+07        -0.32024E+07         0.00000E+00
    0.00000E+00         0.00000E+00        -0.79683E+06
 
   -0.78241E+06         0.21681E+07         0.00000E+00
    0.21681E+07        -0.32021E+07         0.00000E+00
    0.00000E+00         0.00000E+00        -0.79690E+06
 
   -0.78308E+06         0.22420E+07         0.00000E+00
    0.22420E+07        -0.32018E+07         0.00000E+00
    0.00000E+00         0.00000E+00        -0.79698E+06
 
   -0.78377E+06         0.23159E+07         0.00000E+00
    0.23159E+07        -0.32015E+07         0.00000E+00
    0.00000E+00         0.00000E+00        -0.79705E+06
 
   -0.78446E+06         0.23899E+07         0.00000E+00
    0.23899E+07        -0.32012E+07         0.00000E+00
    0.00000E+00         0.00000E+00        -0.79713E+06
 
   -0.78518E+06         0.24639E+07         0.00000E+00
    0.24639E+07        -0.32009E+07         0.00000E+00
    0.00000E+00         0.00000E+00        -0.79721E+06
 
   -0.78590E+06         0.25379E+07         0.00000E+00
    0.25379E+07        -0.32005E+07         0.00000E+00
    0.00000E+00         0.00000E+00        -0.79729E+06
 
   -0.78665E+06         0.26120E+07         0.00000E+00
    0.26120E+07        -0.32002E+07         0.00000E+00
    0.00000E+00         0.00000E+00        -0.79737E+06
 
   -0.78740E+06         0.26861E+07         0.00000E+00
    0.26861E+07        -0.31999E+07         0.00000E+00
    0.00000E+00         0.00000E+00        -0.79745E+06
 
   -0.78817E+06         0.27603E+07         0.00000E+00
    0.27603E+07        -0.31995E+07         0.00000E+00
    0.00000E+00         0.00000E+00        -0.79754E+06
 
   -0.78895E+06         0.28345E+07         0.00000E+00
    0.28345E+07        -0.31992E+07         0.00000E+00
    0.00000E+00         0.00000E+00        -0.79762E+06
 
   -0.78974E+06         0.29088E+07         0.00000E+00
    0.29088E+07        -0.31988E+07         0.00000E+00
    0.00000E+00         0.00000E+00        -0.79771E+06
 
   -0.79055E+06         0.29831E+07         0.00000E+00
    0.29831E+07        -0.31985E+07         0.00000E+00
    0.00000E+00         0.00000E+00        -0.79780E+06
 
   -0.79136E+06         0.30575E+07         0.00000E+00
    0.30575E+07        -0.31981E+07         0.00000E+00
    0.00000E+00         0.00000E+00        -0.79789E+06
 
   -0.79219E+06         0.31319E+07         0.00000E+00
    0.31319E+07        -0.31977E+07         0.00000E+00
    0.00000E+00         0.00000E+00        -0.79798E+06
 
   -0.79303E+06         0.32063E+07         0.00000E+00
    0.32063E+07        -0.31973E+07         0.00000E+00
    0.00000E+00         0.00000E+00        -0.79807E+06
 
   -0.79387E+06         0.32808E+07         0.00000E+00
    0.32808E+07        -0.31970E+07         0.00000E+00
    0.00000E+00         0.00000E+00        -0.79817E+06
 
   -0.79473E+06         0.33554E+07         0.00000E+00
    0.33554E+07        -0.31966E+07         0.00000E+00
    0.00000E+00         0.00000E+00        -0.79826E+06
 
   -0.79560E+06         0.34300E+07         0.00000E+00
    0.34300E+07        -0.31962E+07         0.00000E+00
    0.00000E+00         0.00000E+00        -0.79836E+06
 
   -0.79647E+06         0.35046E+07         0.00000E+00
    0.35046E+07        -0.31958E+07         0.00000E+00
    0.00000E+00         0.00000E+00        -0.79845E+06
 
   -0.79736E+06         0.35793E+07         0.00000E+00
    0.35793E+07        -0.31954E+07         0.00000E+00
    0.00000E+00         0.00000E+00        -0.79855E+06
 
   -0.79825E+06         0.36541E+07         0.00000E+00
    0.36541E+07        -0.31950E+07         0.00000E+00
    0.00000E+00         0.00000E+00        -0.79865E+06
 
   -0.90419E+06         0.36669E+05         0.00000E+00
    0.36669E+05        -0.37066E+07         0.00000E+00
    0.00000E+00         0.00000E+00        -0.92215E+06
 
   -0.90429E+06         0.11001E+06         0.00000E+00
    0.11001E+06        -0.37066E+07         0.00000E+00
    0.00000E+00         0.00000E+00        -0.92217E+06
 
   -0.90441E+06         0.18335E+06         0.00000E+00
    0.18335E+06        -0.37065E+07         0.00000E+00
    0.00000E+00         0.00000E+00        -0.92219E+06
 
   -0.90455E+06         0.25670E+06         0.00000E+00
    0.25670E+06        -0.37065E+07         0.00000E+00
    0.00000E+00         0.00000E+00        -0.92221E+06
 
   -0.90469E+06         0.33005E+06         0.00000E+00
    0.33005E+06        -0.37065E+07         0.00000E+00
    0.00000E+00         0.00000E+00        -0.92224E+06
 
   -0.90486E+06         0.40341E+06         0.00000E+00
    0.40341E+06        -0.37065E+07         0.00000E+00
    0.00000E+00         0.00000E+00        -0.92226E+06
 
   -0.90503E+06         0.47678E+06         0.00000E+00
    0.47678E+06        -0.37064E+07         0.00000E+00
    0.00000E+00         0.00000E+00        -0.92229E+06
 
   -0.90522E+06         0.55016E+06         0.00000E+00
    0.55016E+06        -0.37064E+07         0.00000E+00
    0.00000E+00         0.00000E+00        -0.92232E+06
 
   -0.90543E+06         0.62354E+06         0.00000E+00
    0.62354E+06        -0.37063E+07         0.00000E+00
    0.00000E+00         0.00000E+00        -0.92234E+06
 
   -0.90565E+06         0.69694E+06         0.00000E+00
    0.69694E+06        -0.37062E+07         0.00000E+00
    0.00000E+00         0.00000E+00        -0.92237E+06
 
   -0.90588E+06         0.77036E+06         0.00000E+00
    0.77036E+06        -0.37061E+07         0.00000E+00
    0.00000E+00         0.00000E+00        -0.92240E+06
 
   -0.90613E+06         0.84378E+06         0.00000E+00
    0.84378E+06        -0.37061E+07         0.00000E+00
    0.00000E+00         0.00000E+00        -0.92244E+06
 
   -0.90639E+06         0.91723E+06         0.00000E+00
    0.91723E+06        -0.37060E+07         0.00000E+00
    0.00000E+00         0.00000E+00        -0.92247E+06
 
   -0.90667E+06         0.99069E+06         0.00000E+00
    0.99069E+06        -0.37059E+07         0.00000E+00
    0.00000E+00         0.00000E+00        -0.92251E+06
 
   -0.90696E+06         0.10642E+07         0.00000E+00
    0.10642E+07        -0.37058E+07         0.00000E+00
    0.00000E+00         0.00000E+00        -0.92254E+06
 
   -0.90726E+06         0.11377E+07         0.00000E+00
    0.11377E+07        -0.37056E+07         0.00000E+00
    0.00000E+00         0.00000E+00        -0.92258E+06
 
   -0.90757E+06         0.12112E+07         0.00000E+00
    0.12112E+07        -0.37055E+07         0.00000E+00
    0.00000E+00         0.00000E+00        -0.92262E+06
 
   -0.90790E+06         0.12847E+07         0.00000E+00
    0.12847E+07        -0.37054E+07         0.00000E+00
    0.00000E+00         0.00000E+00        -0.92266E+06
 
   -0.90824E+06         0.13583E+07         0.00000E+00
    0.13583E+07        -0.37053E+07         0.00000E+00
    0.00000E+00         0.00000E+00        -0.92270E+06
 
   -0.90860E+06         0.14319E+07         0.00000E+00
    0.14319E+07        -0.37051E+07         0.00000E+00
    0.00000E+00         0.00000E+00        -0.92274E+06
 
   -0.90896E+06         0.15055E+07         0.00000E+00
    0.15055E+07        -0.37050E+07         0.00000E+00
    0.00000E+00         0.00000E+00        -0.92279E+06
 
   -0.90934E+06         0.15791E+07         0.00000E+00
    0.15791E+07        -0.37048E+07         0.00000E+00
    0.00000E+00         0.00000E+00        -0.92283E+06
 
   -0.90974E+06         0.16528E+07         0.00000E+00
    0.16528E+07        -0.37046E+07         0.00000E+00
    0.00000E+00         0.00000E+00        -0.92288E+06
 
   -0.91014E+06         0.17265E+07         0.00000E+00
    0.17265E+07        -0.37045E+07         0.00000E+00
    0.00000E+00         0.00000E+00        -0.92292E+06
 
   -0.91056E+06         0.18002E+07         0.00000E+00
    0.18002E+07        -0.37043E+07         0.00000E+00
    0.00000E+00         0.00000E+00        -0.92297E+06
 
   -0.91099E+06         0.18740E+07         0.00000E+00
    0.18740E+07        -0.37041E+07         0.00000E+00
    0.00000E+00         0.00000E+00        -0.92302E+06
 
   -0.91143E+06         0.19478E+07         0.00000E+00
    0.19478E+07        -0.37039E+07         0.00000E+00
    0.00000E+00         0.00000E+00        -0.92307E+06
 
   -0.91188E+06         0.20216E+07         0.00000E+00
    0.20216E+07        -0.37037E+07         0.00000E+00
    0.00000E+00         0.00000E+00        -0.92312E+06
 
   -0.91234E+06         0.20954E+07         0.00000E+00
    0.20954E+07        -0.37035E+07         0.00000E+00
    0.00000E+00         0.00000E+00        -0.92317E+06
 
   -0.91281E+06         0.21693E+07         0.00000E+00
    0.21693E+07        -0.37033E+07         0.00000E+00
    0.00000E+00         0.00000E+00        -0.92323E+06
 
   -0.91330E+06         0.22432E+07         0.00000E+00
    0.22432E+07        -0.37031E+07         0.00000E+00
    0.00000E+00         0.00000E+00        -0.92328E+06
 
   -0.91379E+06         0.23172E+07         0.00000E+00
    0.23172E+07        -0.37029E+07         0.00000E+00
    0.00000E+00         0.00000E+00        -0.92334E+06
 
   -0.91430E+06         0.23912E+07         0.00000E+00
    0.23912E+07        -0.37027E+07         0.00000E+00
    0.00000E+00         0.00000E+00        -0.92340E+06
 
   -0.91481E+06         0.24653E+07         0.00000E+00
    0.24653E+07        -0.37025E+07         0.00000E+00
    0.00000E+00         0.00000E+00        -0.92345E+06
 
   -0.91534E+06         0.25393E+07         0.00000E+00
    0.25393E+07        -0.37022E+07         0.00000E+00
    0.00000E+00         0.00000E+00        -0.92351E+06
 
   -0.91587E+06         0.26135E+07         0.00000E+00
    0.26135E+07        -0.37020E+07         0.00000E+00
    0.00000E+00         0.00000E+00        -0.92357E+06
 
   -0.91641E+06         0.26876E+07         0.00000E+00
    0.26876E+07        -0.37017E+07         0.00000E+00
    0.00000E+00         0.00000E+00        -0.92363E+06
 
   -0.91697E+06         0.27618E+07         0.00000E+00
    0.27618E+07        -0.37015E+07         0.00000E+00
    0.00000E+00         0.00000E+00        -0.92369E+06
 
   -0.91753E+06         0.28361E+07         0.00000E+00
    0.28361E+07        -0.37012E+07         0.00000E+00
    0.00000E+00         0.00000E+00        -0.92376E+06
 
   -0.91810E+06         0.29104E+07         0.00000E+00
    0.29104E+07        -0.37010E+07         0.00000E+00
    0.00000E+00         0.00000E+00        -0.92382E+06
 
   -0.91868E+06         0.29847E+07         0.00000E+00
    0.29847E+07        -0.37007E+07         0.00000E+00
    0.00000E+00         0.00000E+00        -0.92388E+06
 
   -0.91926E+06         0.30591E+07         0.00000E+00
    0.30591E+07        -0.37005E+07         0.00000E+00
    0.00000E+00         0.00000E+00        -0.92395E+06
 
   -0.91986E+06         0.31335E+07         0.00000E+00
    0.31335E+07        -0.37002E+07         0.00000E+00
    0.00000E+00         0.00000E+00        -0.92401E+06
 
   -0.92046E+06         0.32080E+07         0.00000E+00
    0.32080E+07        -0.36999E+07         0.00000E+00
    0.00000E+00         0.00000E+00        -0.92408E+06
 
   -0.92107E+06         0.32825E+07         0.00000E+00
    0.32825E+07        -0.36997E+07         0.00000E+00
    0.00000E+00         0.00000E+00        -0.92415E+06
 
   -0.92168E+06         0.33570E+07         0.00000E+00
    0.33570E+07        -0.36994E+07         0.00000E+00
    0.00000E+00         0.00000E+00        -0.92422E+06
 
   -0.92231E+06         0.34317E+07         0.00000E+00
    0.34317E+07        -0.36991E+07         0.00000E+00
    0.00000E+00         0.00000E+00        -0.92428E+06
 
   -0.92293E+06         0.35063E+07         0.00000E+00
    0.35063E+07        -0.36988E+07         0.00000E+00
    0.00000E+00         0.00000E+00        -0.92435E+06
 
   -0.92357E+06         0.35810E+07         0.00000E+00
    0.35810E+07        -0.36986E+07         0.00000E+00
    0.00000E+00         0.00000E+00        -0.92442E+06
 
   -0.92421E+06         0.36558E+07         0.00000E+00
    0.36558E+07        -0.36983E+07         0.00000E+00
    0.00000E+00         0.00000E+00        -0.92450E+06
 
   -0.10373E+07         0.36685E+05         0.00000E+00
    0.36685E+05        -0.42065E+07         0.00000E+00
    0.00000E+00         0.00000E+00        -0.10488E+07
 
   -0.10374E+07         0.11006E+06         0.00000E+00
    0.11006E+06        -0.42065E+07         0.00000E+00
    0.00000E+00         0.00000E+00        -0.10488E+07
 
   -0.10375E+07         0.18343E+06         0.00000E+00
    0.18343E+06        -0.42065E+07         0.00000E+00
    0.00000E+00         0.00000E+00        -0.10488E+07
 
   -0.10376E+07         0.25681E+06         0.00000E+00
    0.25681E+06        -0.42065E+07         0.00000E+00
    0.00000E+00         0.00000E+00        -0.10488E+07
 
   -0.10377E+07         0.33019E+06         0.00000E+00
    0.33019E+06        -0.42064E+07         0.00000E+00
    0.00000E+00         0.00000E+00        -0.10488E+07
 
   -0.10379E+07         0.40358E+06         0.00000E+00
    0.40358E+06        -0.42064E+07         0.00000E+00
    0.00000E+00         0.00000E+00        -0.10489E+07
 
   -0.10380E+07         0.47698E+06         0.00000E+00
    0.47698E+06        -0.42064E+07         0.00000E+00
    0.00000E+00         0.00000E+00        -0.10489E+07
 
   -0.10381E+07         0.55039E+06         0.00000E+00
    0.55039E+06        -0.42063E+07         0.00000E+00
    0.00000E+00         0.00000E+00        -0.10489E+07
 
   -0.10383E+07         0.62381E+06         0.00000E+00
    0.62381E+06        -0.42063E+07         0.00000E+00
    0.00000E+00         0.00000E+00        -0.10489E+07
 
   -0.10384E+07         0.69724E+06         0.00000E+00
    0.69724E+06        -0.42063E+07         0.00000E+00
    0.00000E+00         0.00000E+00        -0.10489E+07
 
   -0.10386E+07         0.77068E+06         0.00000E+00
    0.77068E+06        -0.42062E+07         0.00000E+00
    0.00000E+00         0.00000E+00        -0.10490E+07
 
   -0.10388E+07         0.84414E+06         0.00000E+00
    0.84414E+06        -0.42062E+07         0.00000E+00
    0.00000E+00         0.00000E+00        -0.10490E+07
 
   -0.10390E+07         0.91761E+06         0.00000E+00
    0.91761E+06        -0.42061E+07         0.00000E+00
    0.00000E+00         0.00000E+00        -0.10490E+07
 
   -0.10392E+07         0.99110E+06         0.00000E+00
    0.99110E+06        -0.42061E+07         0.00000E+00
    0.00000E+00         0.00000E+00        -0.10490E+07
 
   -0.10393E+07         0.10646E+07         0.00000E+00
    0.10646E+07        -0.42060E+07         0.00000E+00
    0.00000E+00         0.00000E+00        -0.10491E+07
 
   -0.10395E+07         0.11381E+07         0.00000E+00
    0.11381E+07        -0.42059E+07         0.00000E+00
    0.00000E+00         0.00000E+00        -0.10491E+07
 
   -0.10398E+07         0.12117E+07         0.00000E+00
    0.12117E+07        -0.42059E+07         0.00000E+00
    0.00000E+00         0.00000E+00        -0.10491E+07
 
   -0.10400E+07         0.12852E+07         0.00000E+00
    0.12852E+07        -0.42058E+07         0.00000E+00
    0.00000E+00         0.00000E+00        -0.10492E+07
 
   -0.10402E+07         0.13588E+07         0.00000E+00
    0.13588E+07        -0.42057E+07         0.00000E+00
    0.00000E+00         0.00000E+00        -0.10492E+07
 
   -0.10404E+07         0.14325E+07         0.00000E+00
    0.14325E+07        -0.42056E+07         0.00000E+00
    0.00000E+00         0.00000E+00        -0.10492E+07
 
   -0.10407E+07         0.15061E+07         0.00000E+00
    0.15061E+07        -0.42055E+07         0.00000E+00
    0.00000E+00         0.00000E+00        -0.10492E+07
 
   -0.10409E+07         0.15798E+07         0.00000E+00
    0.15798E+07        -0.42054E+07         0.00000E+00
    0.00000E+00         0.00000E+00        -0.10493E+07
 
   -0.10412E+07         0.16535E+07         0.00000E+00
    0.16535E+07        -0.42053E+07         0.00000E+00
    0.00000E+00         0.00000E+00        -0.10493E+07
 
   -0.10414E+07         0.17272E+07         0.00000E+00
    0.17272E+07        -0.42052E+07         0.00000E+00
    0.00000E+00         0.00000E+00        -0.10493E+07
 
   -0.10417E+07         0.18009E+07         0.00000E+00
    0.18009E+07        -0.42051E+07         0.00000E+00
    0.00000E+00         0.00000E+00        -0.10494E+07
 
   -0.10420E+07         0.18747E+07         0.00000E+00
    0.18747E+07        -0.42050E+07         0.00000E+00
    0.00000E+00         0.00000E+00        -0.10494E+07
 
   -0.10422E+07         0.19485E+07         0.00000E+00
    0.19485E+07        -0.42049E+07         0.00000E+00
    0.00000E+00         0.00000E+00        -0.10494E+07
 
   -0.10425E+07         0.20224E+07         0.00000E+00
    0.20224E+07        -0.42048E+07         0.00000E+00
    0.00000E+00         0.00000E+00        -0.10495E+07
 
   -0.10428E+07         0.20962E+07         0.00000E+00
    0.20962E+07        -0.42047E+07         0.00000E+00
    0.00000E+00         0.00000E+00        -0.10495E+07
 
   -0.10431E+07         0.21702E+07         0.00000E+00
    0.21702E+07        -0.42046E+07         0.00000E+00
    0.00000E+00         0.00000E+00        -0.10495E+07
 
   -0.10434E+07         0.22441E+07         0.00000E+00
    0.22441E+07        -0.42044E+07         0.00000E+00
    0.00000E+00         0.00000E+00        -0.10496E+07
 
   -0.10437E+07         0.23181E+07         0.00000E+00
    0.23181E+07        -0.42043E+07         0.00000E+00
    0.00000E+00         0.00000E+00        -0.10496E+07
 
   -0.10440E+07         0.23921E+07         0.00000E+00
    0.23921E+07        -0.42042E+07         0.00000E+00
    0.00000E+00         0.00000E+00        -0.10496E+07
 
   -0.10444E+07         0.24662E+07         0.00000E+00
    0.24662E+07        -0.42040E+07         0.00000E+00
    0.00000E+00         0.00000E+00        -0.10497E+07
 
   -0.10447E+07         0.25403E+07         0.00000E+00
    0.25403E+07        -0.42039E+07         0.00000E+00
    0.00000E+00         0.00000E+00        -0.10497E+07
 
   -0.10450E+07         0.26144E+07         0.00000E+00
    0.26144E+07        -0.42038E+07         0.00000E+00
    0.00000E+00         0.00000E+00        -0.10498E+07
 
   -0.10454E+07         0.26886E+07         0.00000E+00
    0.26886E+07        -0.42036E+07         0.00000E+00
    0.00000E+00         0.00000E+00        -0.10498E+07
 
   -0.10457E+07         0.27628E+07         0.00000E+00
    0.27628E+07        -0.42035E+07         0.00000E+00
    0.00000E+00         0.00000E+00        -0.10498E+07
 
   -0.10461E+07         0.28371E+07         0.00000E+00
    0.28371E+07        -0.42033E+07         0.00000E+00
    0.00000E+00         0.00000E+00        -0.10499E+07
 
   -0.10464E+07         0.29114E+07         0.00000E+00
    0.29114E+07        -0.42032E+07         0.00000E+00
    0.00000E+00         0.00000E+00        -0.10499E+07
 
   -0.10468E+07         0.29857E+07         0.00000E+00
    0.29857E+07        -0.42030E+07         0.00000E+00
    0.00000E+00         0.00000E+00        -0.10500E+07
 
   -0.10471E+07         0.30601E+07         0.00000E+00
    0.30601E+07        -0.42029E+07         0.00000E+00
    0.00000E+00         0.00000E+00        -0.10500E+07
 
   -0.10475E+07         0.31346E+07         0.00000E+00
    0.31346E+07        -0.42027E+07         0.00000E+00
    0.00000E+00         0.00000E+00        -0.10500E+07
 
   -0.10479E+07         0.32090E+07         0.00000E+00
    0.32090E+07        -0.42025E+07         0.00000E+00
    0.00000E+00         0.00000E+00        -0.10501E+07
 
   -0.10482E+07         0.32836E+07         0.00000E+00
    0.32836E+07        -0.42024E+07         0.00000E+00
    0.00000E+00         0.00000E+00        -0.10501E+07
 
   -0.10486E+07         0.33582E+07         0.00000E+00
    0.33582E+07        -0.42022E+07         0.00000E+00
    0.00000E+00         0.00000E+00        -0.10502E+07
 
   -0.10490E+07         0.34328E+07         0.00000E+00
    0.34328E+07        -0.42020E+07         0.00000E+00
    0.00000E+00         0.00000E+00        -0.10502E+07
 
   -0.10494E+07         0.35075E+07         0.00000E+00
    0.35075E+07        -0.42019E+07         0.00000E+00
    0.00000E+00         0.00000E+00        -0.10502E+07
 
   -0.10498E+07         0.35822E+07         0.00000E+00
    0.35822E+07        -0.42017E+07         0.00000E+00
    0.00000E+00         0.00000E+00        -0.10503E+07
 
   -0.10502E+07         0.36570E+07         0.00000E+00
    0.36570E+07        -0.42015E+07         0.00000E+00
    0.00000E+00         0.00000E+00        -0.10503E+07
 
   -0.11704E+07         0.36692E+05         0.00000E+00
    0.36692E+05        -0.47064E+07         0.00000E+00
    0.00000E+00         0.00000E+00        -0.11754E+07
 
   -0.11704E+07         0.11008E+06         0.00000E+00
    0.11008E+06        -0.47064E+07         0.00000E+00
    0.00000E+00         0.00000E+00        -0.11754E+07
 
   -0.11705E+07         0.18347E+06         0.00000E+00
    0.18347E+06        -0.47064E+07         0.00000E+00
    0.00000E+00         0.00000E+00        -0.11754E+07
 
   -0.11706E+07         0.25686E+06         0.00000E+00
    0.25686E+06        -0.47064E+07         0.00000E+00
    0.00000E+00         0.00000E+00        -0.11754E+07
 
   -0.11707E+07         0.33026E+06         0.00000E+00
    0.33026E+06        -0.47064E+07         0.00000E+00
    0.00000E+00         0.00000E+00        -0.11754E+07
 
   -0.11708E+07         0.40367E+06         0.00000E+00
    0.40367E+06        -0.47064E+07         0.00000E+00
    0.00000E+00         0.00000E+00        -0.11754E+07
 
   -0.11709E+07         0.47708E+06         0.00000E+00
    0.47708E+06        -0.47064E+07         0.00000E+00
    0.00000E+00         0.00000E+00        -0.11755E+07
 
   -0.11710E+07         0.55050E+06         0.00000E+00
    0.55050E+06        -0.47064E+07         0.00000E+00
    0.00000E+00         0.00000E+00        -0.11755E+07
 
   -0.11711E+07         0.62394E+06         0.00000E+00
    0.62394E+06        -0.47064E+07         0.00000E+00
    0.00000E+00         0.00000E+00        -0.11755E+07
 
   -0.11712E+07         0.69738E+06         0.00000E+00
    0.69738E+06        -0.47064E+07         0.00000E+00
    0.00000E+00         0.00000E+00        -0.11755E+07
 
   -0.11713E+07         0.77084E+06         0.00000E+00
    0.77084E+06        -0.47064E+07         0.00000E+00
    0.00000E+00         0.00000E+00        -0.11755E+07
 
   -0.11714E+07         0.84431E+06         0.00000E+00
    0.84431E+06        -0.47063E+07         0.00000E+00
    0.00000E+00         0.00000E+00        -0.11755E+07
 
   -0.11715E+07         0.91780E+06         0.00000E+00
    0.91780E+06        -0.47063E+07         0.00000E+00
    0.00000E+00         0.00000E+00        -0.11756E+07
 
   -0.11716E+07         0.99130E+06         0.00000E+00
    0.99130E+06        -0.47063E+07         0.00000E+00
    0.00000E+00         0.00000E+00        -0.11756E+07
 
   -0.11717E+07         0.10648E+07         0.00000E+00
    0.10648E+07        -0.47063E+07         0.00000E+00
    0.00000E+00         0.00000E+00        -0.11756E+07
 
   -0.11718E+07         0.11384E+07         0.00000E+00
    0.11384E+07        -0.47063E+07         0.00000E+00
    0.00000E+00         0.00000E+00        -0.11756E+07
 
   -0.11719E+07         0.12119E+07         0.00000E+00
    0.12119E+07        -0.47062E+07         0.00000E+00
    0.00000E+00         0.00000E+00        -0.11756E+07
 
   -0.11720E+07         0.12855E+07         0.00000E+00
    0.12855E+07        -0.47062E+07         0.00000E+00
    0.00000E+00         0.00000E+00        -0.11756E+07
 
   -0.11721E+07         0.13591E+07         0.00000E+00
    0.13591E+07        -0.47062E+07         0.00000E+00
    0.00000E+00         0.00000E+00        -0.11757E+07
 
   -0.11722E+07         0.14327E+07         0.00000E+00
    0.14327E+07        -0.47062E+07         0.00000E+00
    0.00000E+00         0.00000E+00        -0.11757E+07
 
   -0.11723E+07         0.15064E+07         0.00000E+00
    0.15064E+07        -0.47061E+07         0.00000E+00
    0.00000E+00         0.00000E+00        -0.11757E+07
 
   -0.11724E+07         0.15801E+07         0.00000E+00
    0.15801E+07        -0.47061E+07         0.00000E+00
    0.00000E+00         0.00000E+00        -0.11757E+07
 
   -0.11725E+07         0.16538E+07         0.00000E+00
    0.16538E+07        -0.47061E+07         0.00000E+00
    0.00000E+00         0.00000E+00        -0.11757E+07
 
   -0.11727E+07         0.17275E+07         0.00000E+00
    0.17275E+07        -0.47061E+07         0.00000E+00
    0.00000E+00         0.00000E+00        -0.11757E+07
 
   -0.11728E+07         0.18013E+07         0.00000E+00
    0.18013E+07        -0.47060E+07         0.00000E+00
    0.00000E+00         0.00000E+00        -0.11758E+07
 
   -0.11729E+07         0.18751E+07         0.00000E+00
    0.18751E+07        -0.47060E+07         0.00000E+00
    0.00000E+00         0.00000E+00        -0.11758E+07
 
   -0.11730E+07         0.19489E+07         0.00000E+00
    0.19489E+07        -0.47060E+07         0.00000E+00
    0.00000E+00         0.00000E+00        -0.11758E+07
 
   -0.11731E+07         0.20227E+07         0.00000E+00
    0.20227E+07        -0.47059E+07         0.00000E+00
    0.00000E+00         0.00000E+00        -0.11758E+07
 
   -0.11733E+07         0.20966E+07         0.00000E+00
    0.20966E+07        -0.47059E+07         0.00000E+00
    0.00000E+00         0.00000E+00        -0.11758E+07
 
   -0.11734E+07         0.21706E+07         0.00000E+00
    0.21706E+07        -0.47058E+07         0.00000E+00
    0.00000E+00         0.00000E+00        -0.11758E+07
 
   -0.11735E+07         0.22445E+07         0.00000E+00
    0.22445E+07        -0.47058E+07         0.00000E+00
    0.00000E+00         0.00000E+00        -0.11759E+07
 
   -0.11736E+07         0.23185E+07         0.00000E+00
    0.23185E+07        -0.47058E+07         0.00000E+00
    0.00000E+00         0.00000E+00        -0.11759E+07
 
   -0.11738E+07         0.23926E+07         0.00000E+00
    0.23926E+07        -0.47057E+07         0.00000E+00
    0.00000E+00         0.00000E+00        -0.11759E+07
 
   -0.11739E+07         0.24666E+07         0.00000E+00
    0.24666E+07        -0.47057E+07         0.00000E+00
    0.00000E+00         0.00000E+00        -0.11759E+07
 
   -0.11740E+07         0.25407E+07         0.00000E+00
    0.25407E+07        -0.47056E+07         0.00000E+00
    0.00000E+00         0.00000E+00        -0.11759E+07
 
   -0.11741E+07         0.26149E+07         0.00000E+00
    0.26149E+07        -0.47056E+07         0.00000E+00
    0.00000E+00         0.00000E+00        -0.11759E+07
 
   -0.11743E+07         0.26891E+07         0.00000E+00
    0.26891E+07        -0.47055E+07         0.00000E+00
    0.00000E+00         0.00000E+00        -0.11760E+07
 
   -0.11744E+07         0.27633E+07         0.00000E+00
    0.27633E+07        -0.47055E+07         0.00000E+00
    0.00000E+00         0.00000E+00        -0.11760E+07
 
   -0.11745E+07         0.28376E+07         0.00000E+00
    0.28376E+07        -0.47054E+07         0.00000E+00
    0.00000E+00         0.00000E+00        -0.11760E+07
 
   -0.11747E+07         0.29119E+07         0.00000E+00
    0.29119E+07        -0.47054E+07         0.00000E+00
    0.00000E+00         0.00000E+00        -0.11760E+07
 
   -0.11748E+07         0.29863E+07         0.00000E+00
    0.29863E+07        -0.47053E+07         0.00000E+00
    0.00000E+00         0.00000E+00        -0.11760E+07
 
   -0.11750E+07         0.30607E+07         0.00000E+00
    0.30607E+07        -0.47053E+07         0.00000E+00
    0.00000E+00         0.00000E+00        -0.11760E+07
 
   -0.11751E+07         0.31351E+07         0.00000E+00
    0.31351E+07        -0.47052E+07         0.00000E+00
    0.00000E+00         0.00000E+00        -0.11761E+07
 
   -0.11752E+07         0.32096E+07         0.00000E+00
    0.32096E+07        -0.47052E+07         0.00000E+00
    0.00000E+00         0.00000E+00        -0.11761E+07
 
   -0.11754E+07         0.32841E+07         0.00000E+00
    0.32841E+07        -0.47051E+07         0.00000E+00
    0.00000E+00         0.00000E+00        -0.11761E+07
 
   -0.11755E+07         0.33587E+07         0.00000E+00
    0.33587E+07        -0.47050E+07         0.00000E+00
    0.00000E+00         0.00000E+00        -0.11761E+07
 
   -0.11757E+07         0.34334E+07         0.00000E+00
    0.34334E+07        -0.47050E+07         0.00000E+00
    0.00000E+00         0.00000E+00        -0.11761E+07
 
   -0.11758E+07         0.35080E+07         0.00000E+00
    0.35080E+07        -0.47049E+07         0.00000E+00
    0.00000E+00         0.00000E+00        -0.11761E+07
 
   -0.11760E+07         0.35828E+07         0.00000E+00
    0.35828E+07        -0.47049E+07         0.00000E+00
    0.00000E+00         0.00000E+00        -0.11762E+07
 
   -0.11761E+07         0.36576E+07         0.00000E+00
    0.36576E+07        -0.47048E+07         0.00000E+00
    0.00000E+00         0.00000E+00        -0.11762E+07
 
   -0.13034E+07         0.36692E+05         0.00000E+00
    0.36692E+05        -0.52064E+07         0.00000E+00
    0.00000E+00         0.00000E+00        -0.13020E+07
 
   -0.13035E+07         0.11008E+06         0.00000E+00
    0.11008E+06        -0.52064E+07         0.00000E+00
    0.00000E+00         0.00000E+00        -0.13020E+07
 
   -0.13036E+07         0.18347E+06         0.00000E+00
    0.18347E+06        -0.52064E+07         0.00000E+00
    0.00000E+00         0.00000E+00        -0.13020E+07
 
   -0.13036E+07         0.25686E+06         0.00000E+00
    0.25686E+06        -0.52064E+07         0.00000E+00
    0.00000E+00         0.00000E+00        -0.13020E+07
 
   -0.13037E+07         0.33026E+06         0.00000E+00
    0.33026E+06        -0.52064E+07         0.00000E+00
    0.00000E+00         0.00000E+00        -0.13020E+07
 
   -0.13037E+07         0.40366E+06         0.00000E+00
    0.40366E+06        -0.52064E+07         0.00000E+00
    0.00000E+00         0.00000E+00        -0.13020E+07
 
   -0.13038E+07         0.47708E+06         0.00000E+00
    0.47708E+06        -0.52065E+07         0.00000E+00
    0.00000E+00         0.00000E+00        -0.13021E+07
 
   -0.13038E+07         0.55050E+06         0.00000E+00
    0.55050E+06        -0.52065E+07         0.00000E+00
    0.00000E+00         0.00000E+00        -0.13021E+07
 
   -0.13039E+07         0.62393E+06         0.00000E+00
    0.62393E+06        -0.52065E+07         0.00000E+00
    0.00000E+00         0.00000E+00        -0.13021E+07
 
   -0.13039E+07         0.69737E+06         0.00000E+00
    0.69737E+06        -0.52065E+07         0.00000E+00
    0.00000E+00         0.00000E+00        -0.13021E+07
 
   -0.13039E+07         0.77083E+06         0.00000E+00
    0.77083E+06        -0.52065E+07         0.00000E+00
    0.00000E+00         0.00000E+00        -0.13021E+07
 
   -0.13040E+07         0.84430E+06         0.00000E+00
    0.84430E+06        -0.52065E+07         0.00000E+00
    0.00000E+00         0.00000E+00        -0.13021E+07
 
   -0.13040E+07         0.91779E+06         0.00000E+00
    0.91779E+06        -0.52066E+07         0.00000E+00
    0.00000E+00         0.00000E+00        -0.13021E+07
 
   -0.13040E+07         0.99129E+06         0.00000E+00
    0.99129E+06        -0.52066E+07         0.00000E+00
    0.00000E+00         0.00000E+00        -0.13021E+07
 
   -0.13040E+07         0.10648E+07         0.00000E+00
    0.10648E+07        -0.52066E+07         0.00000E+00
    0.00000E+00         0.00000E+00        -0.13021E+07
 
   -0.13040E+07         0.11384E+07         0.00000E+00
    0.11384E+07        -0.52066E+07         0.00000E+00
    0.00000E+00         0.00000E+00        -0.13021E+07
 
   -0.13040E+07         0.12119E+07         0.00000E+00
    0.12119E+07        -0.52067E+07         0.00000E+00
    0.00000E+00         0.00000E+00        -0.13021E+07
 
   -0.13040E+07         0.12855E+07         0.00000E+00
    0.12855E+07        -0.52067E+07         0.00000E+00
    0.00000E+00         0.00000E+00        -0.13021E+07
 
   -0.13040E+07         0.13591E+07         0.00000E+00
    0.13591E+07        -0.52067E+07         0.00000E+00
    0.00000E+00         0.00000E+00        -0.13021E+07
 
   -0.13040E+07         0.14327E+07         0.00000E+00
    0.14327E+07        -0.52068E+07         0.00000E+00
    0.00000E+00         0.00000E+00        -0.13022E+07
 
   -0.13040E+07         0.15064E+07         0.00000E+00
    0.15064E+07        -0.52068E+07         0.00000E+00
    0.00000E+00         0.00000E+00        -0.13022E+07
 
   -0.13040E+07         0.15801E+07         0.00000E+00
    0.15801E+07        -0.52068E+07         0.00000E+00
    0.00000E+00         0.00000E+00        -0.13022E+07
 
   -0.13039E+07         0.16538E+07         0.00000E+00
    0.16538E+07        -0.52069E+07         0.00000E+00
    0.00000E+00         0.00000E+00        -0.13022E+07
 
   -0.13039E+07         0.17275E+07         0.00000E+00
    0.17275E+07        -0.52069E+07         0.00000E+00
    0.00000E+00         0.00000E+00        -0.13022E+07
 
   -0.13039E+07         0.18013E+07         0.00000E+00
    0.18013E+07        -0.52069E+07         0.00000E+00
    0.00000E+00         0.00000E+00        -0.13022E+07
 
   -0.13038E+07         0.18751E+07         0.00000E+00
    0.18751E+07        -0.52070E+07         0.00000E+00
    0.00000E+00         0.00000E+00        -0.13022E+07
 
   -0.13038E+07         0.19489E+07         0.00000E+00
    0.19489E+07        -0.52070E+07         0.00000E+00
    0.00000E+00         0.00000E+00        -0.13022E+07
 
   -0.13038E+07         0.20227E+07         0.00000E+00
    0.20227E+07        -0.52071E+07         0.00000E+00
    0.00000E+00         0.00000E+00        -0.13022E+07
 
   -0.13037E+07         0.20966E+07         0.00000E+00
    0.20966E+07        -0.52071E+07         0.00000E+00
    0.00000E+00         0.00000E+00        -0.13022E+07
 
   -0.13037E+07         0.21706E+07         0.00000E+00
    0.21706E+07        -0.52072E+07         0.00000E+00
    0.00000E+00         0.00000E+00        -0.13022E+07
 
   -0.13036E+07         0.22445E+07         0.00000E+00
    0.22445E+07        -0.52072E+07         0.00000E+00
    0.00000E+00         0.00000E+00        -0.13022E+07
 
   -0.13035E+07         0.23185E+07         0.00000E+00
    0.23185E+07        -0.52072E+07         0.00000E+00
    0.00000E+00         0.00000E+00        -0.13022E+07
 
   -0.13035E+07         0.23926E+07         0.00000E+00
    0.23926E+07        -0.52073E+07         0.00000E+00
    0.00000E+00         0.00000E+00        -0.13022E+07
 
   -0.13034E+07         0.24666E+07         0.00000E+00
    0.24666E+07        -0.52073E+07         0.00000E+00
    0.00000E+00         0.00000E+00        -0.13022E+07
 
   -0.13034E+07         0.25407E+07         0.00000E+00
    0.25407E+07        -0.52074E+07         0.00000E+00
    0.00000E+00         0.00000E+00        -0.13021E+07
 
   -0.13033E+07         0.26149E+07         0.00000E+00
    0.26149E+07        -0.52074E+07         0.00000E+00
    0.00000E+00         0.00000E+00        -0.13021E+07
 
   -0.13032E+07         0.26891E+07         0.00000E+00
    0.26891E+07        -0.52075E+07         0.00000E+00
    0.00000E+00         0.00000E+00        -0.13021E+07
 
   -0.13031E+07         0.27633E+07         0.00000E+00
    0.27633E+07        -0.52075E+07         0.00000E+00
    0.00000E+00         0.00000E+00        -0.13021E+07
 
   -0.13031E+07         0.28376E+07         0.00000E+00
    0.28376E+07        -0.52076E+07         0.00000E+00
    0.00000E+00         0.00000E+00        -0.13021E+07
 
   -0.13030E+07         0.29119E+07         0.00000E+00
    0.29119E+07        -0.52076E+07         0.00000E+00
    0.00000E+00         0.00000E+00        -0.13021E+07
 
   -0.13029E+07         0.29863E+07         0.00000E+00
    0.29863E+07        -0.52077E+07         0.00000E+00
    0.00000E+00         0.00000E+00        -0.13021E+07
 
   -0.13028E+07         0.30607E+07         0.00000E+00
    0.30607E+07        -0.52077E+07         0.00000E+00
    0.00000E+00         0.00000E+00        -0.13021E+07
 
   -0.13027E+07         0.31351E+07         0.00000E+00
    0.31351E+07        -0.52078E+07         0.00000E+00
    0.00000E+00         0.00000E+00        -0.13021E+07
 
   -0.13026E+07         0.32096E+07         0.00000E+00
    0.32096E+07        -0.52078E+07         0.00000E+00
    0.00000E+00         0.00000E+00        -0.13021E+07
 
   -0.13025E+07         0.32842E+07         0.00000E+00
    0.32842E+07        -0.52079E+07         0.00000E+00
    0.00000E+00         0.00000E+00        -0.13021E+07
 
   -0.13025E+07         0.33588E+07         0.00000E+00
    0.33588E+07        -0.52079E+07         0.00000E+00
    0.00000E+00         0.00000E+00        -0.13021E+07
 
   -0.13024E+07         0.34334E+07         0.00000E+00
    0.34334E+07        -0.52080E+07         0.00000E+00
    0.00000E+00         0.00000E+00        -0.13021E+07
 
   -0.13023E+07         0.35081E+07         0.00000E+00
    0.35081E+07        -0.52080E+07         0.00000E+00
    0.00000E+00         0.00000E+00        -0.13021E+07
 
   -0.13022E+07         0.35828E+07         0.00000E+00
    0.35828E+07        -0.52080E+07         0.00000E+00
    0.00000E+00         0.00000E+00        -0.13020E+07
 
   -0.13021E+07         0.36576E+07         0.00000E+00
    0.36576E+07        -0.52081E+07         0.00000E+00
    0.00000E+00         0.00000E+00        -0.13020E+07
 
   -0.14366E+07         0.36683E+05         0.00000E+00
    0.36683E+05        -0.57065E+07         0.00000E+00
    0.00000E+00         0.00000E+00        -0.14286E+07
 
   -0.14366E+07         0.11005E+06         0.00000E+00
    0.11005E+06        -0.57065E+07         0.00000E+00
    0.00000E+00         0.00000E+00        -0.14286E+07
 
   -0.14367E+07         0.18342E+06         0.00000E+00
    0.18342E+06        -0.57065E+07         0.00000E+00
    0.00000E+00         0.00000E+00        -0.14286E+07
 
   -0.14367E+07         0.25680E+06         0.00000E+00
    0.25680E+06        -0.57065E+07         0.00000E+00
    0.00000E+00         0.00000E+00        -0.14286E+07
 
   -0.14368E+07         0.33018E+06         0.00000E+00
    0.33018E+06        -0.57065E+07         0.00000E+00
    0.00000E+00         0.00000E+00        -0.14287E+07
 
   -0.14368E+07         0.40357E+06         0.00000E+00
    0.40357E+06        -0.57065E+07         0.00000E+00
    0.00000E+00         0.00000E+00        -0.14287E+07
 
   -0.14368E+07         0.47696E+06         0.00000E+00
    0.47696E+06        -0.57066E+07         0.00000E+00
    0.00000E+00         0.00000E+00        -0.14287E+07
 
   -0.14368E+07         0.55037E+06         0.00000E+00
    0.55037E+06        -0.57066E+07         0.00000E+00
    0.00000E+00         0.00000E+00        -0.14287E+07
 
   -0.14368E+07         0.62379E+06         0.00000E+00
    0.62379E+06        -0.57066E+07         0.00000E+00
    0.00000E+00         0.00000E+00        -0.14287E+07
 
   -0.14367E+07         0.69721E+06         0.00000E+00
    0.69721E+06        -0.57067E+07         0.00000E+00
    0.00000E+00         0.00000E+00        -0.14287E+07
 
   -0.14367E+07         0.77065E+06         0.00000E+00
    0.77065E+06        -0.57067E+07         0.00000E+00
    0.00000E+00         0.00000E+00        -0.14287E+07
 
   -0.14366E+07         0.84411E+06         0.00000E+00
    0.84411E+06        -0.57068E+07         0.00000E+00
    0.00000E+00         0.00000E+00        -0.14287E+07
 
   -0.14366E+07         0.91758E+06         0.00000E+00
    0.91758E+06        -0.57069E+07         0.00000E+00
    0.00000E+00         0.00000E+00        -0.14287E+07
 
   -0.14365E+07         0.99107E+06         0.00000E+00
    0.99107E+06        -0.57069E+07         0.00000E+00
    0.00000E+00         0.00000E+00        -0.14287E+07
 
   -0.14364E+07         0.10646E+07         0.00000E+00
    0.10646E+07        -0.57070E+07         0.00000E+00
    0.00000E+00         0.00000E+00        -0.14287E+07
 
   -0.14363E+07         0.11381E+07         0.00000E+00
    0.11381E+07        -0.57071E+07         0.00000E+00
    0.00000E+00         0.00000E+00        -0.14287E+07
 
   -0.14362E+07         0.12116E+07         0.00000E+00
    0.12116E+07        -0.57071E+07         0.00000E+00
    0.00000E+00         0.00000E+00        -0.14287E+07
 
   -0.14361E+07         0.12852E+07         0.00000E+00
    0.12852E+07        -0.57072E+07         0.00000E+00
    0.00000E+00         0.00000E+00        -0.14287E+07
 
   -0.14360E+07         0.13588E+07         0.00000E+00
    0.13588E+07        -0.57073E+07         0.00000E+00
    0.00000E+00         0.00000E+00        -0.14287E+07
 
   -0.14359E+07         0.14324E+07         0.00000E+00
    0.14324E+07        -0.57074E+07         0.00000E+00
    0.00000E+00         0.00000E+00        -0.14287E+07
 
   -0.14357E+07         0.15061E+07         0.00000E+00
    0.15061E+07        -0.57075E+07         0.00000E+00
    0.00000E+00         0.00000E+00        -0.14286E+07
 
   -0.14356E+07         0.15797E+07         0.00000E+00
    0.15797E+07        -0.57076E+07         0.00000E+00
    0.00000E+00         0.00000E+00        -0.14286E+07
 
   -0.14354E+07         0.16534E+07         0.00000E+00
    0.16534E+07        -0.57077E+07         0.00000E+00
    0.00000E+00         0.00000E+00        -0.14286E+07
 
   -0.14352E+07         0.17271E+07         0.00000E+00
    0.17271E+07        -0.57078E+07         0.00000E+00
    0.00000E+00         0.00000E+00        -0.14286E+07
 
   -0.14350E+07         0.18009E+07         0.00000E+00
    0.18009E+07        -0.57079E+07         0.00000E+00
    0.00000E+00         0.00000E+00        -0.14286E+07
 
   -0.14349E+07         0.18747E+07         0.00000E+00
    0.18747E+07        -0.57080E+07         0.00000E+00
    0.00000E+00         0.00000E+00        -0.14286E+07
 
   -0.14347E+07         0.19485E+07         0.00000E+00
    0.19485E+07        -0.57081E+07         0.00000E+00
    0.00000E+00         0.00000E+00        -0.14286E+07
 
   -0.14344E+07         0.20223E+07         0.00000E+00
    0.20223E+07        -0.57083E+07         0.00000E+00
    0.00000E+00         0.00000E+00        -0.14285E+07
 
   -0.14342E+07         0.20962E+07         0.00000E+00
    0.20962E+07        -0.57084E+07         0.00000E+00
    0.00000E+00         0.00000E+00        -0.14285E+07
 
   -0.14340E+07         0.21701E+07         0.00000E+00
    0.21701E+07        -0.57085E+07         0.00000E+00
    0.00000E+00         0.00000E+00        -0.14285E+07
 
   -0.14338E+07         0.22441E+07         0.00000E+00
    0.22441E+07        -0.57087E+07         0.00000E+00
    0.00000E+00         0.00000E+00        -0.14285E+07
 
   -0.14335E+07         0.23181E+07         0.00000E+00
    0.23181E+07        -0.57088E+07         0.00000E+00
    0.00000E+00         0.00000E+00        -0.14285E+07
 
   -0.14333E+07         0.23921E+07         0.00000E+00
    0.23921E+07        -0.57089E+07         0.00000E+00
    0.00000E+00         0.00000E+00        -0.14284E+07
 
   -0.14330E+07         0.24662E+07         0.00000E+00
    0.24662E+07        -0.57091E+07         0.00000E+00
    0.00000E+00         0.00000E+00        -0.14284E+07
 
   -0.14327E+07         0.25403E+07         0.00000E+00
    0.25403E+07        -0.57092E+07         0.00000E+00
    0.00000E+00         0.00000E+00        -0.14284E+07
 
   -0.14325E+07         0.26144E+07         0.00000E+00
    0.26144E+07        -0.57093E+07         0.00000E+00
    0.00000E+00         0.00000E+00        -0.14284E+07
 
   -0.14322E+07         0.26886E+07         0.00000E+00
    0.26886E+07        -0.57095E+07         0.00000E+00
    0.00000E+00         0.00000E+00        -0.14283E+07
 
   -0.14319E+07         0.27628E+07         0.00000E+00
    0.27628E+07        -0.57096E+07         0.00000E+00
    0.00000E+00         0.00000E+00        -0.14283E+07
 
   -0.14316E+07         0.28371E+07         0.00000E+00
    0.28371E+07        -0.57098E+07         0.00000E+00
    0.00000E+00         0.00000E+00        -0.14283E+07
 
   -0.14313E+07         0.29114E+07         0.00000E+00
    0.29114E+07        -0.57099E+07         0.00000E+00
    0.00000E+00         0.00000E+00        -0.14283E+07
 
   -0.14310E+07         0.29858E+07         0.00000E+00
    0.29858E+07        -0.57101E+07         0.00000E+00
    0.00000E+00         0.00000E+00        -0.14282E+07
 
   -0.14307E+07         0.30602E+07         0.00000E+00
    0.30602E+07        -0.57102E+07         0.00000E+00
    0.00000E+00         0.00000E+00        -0.14282E+07
 
   -0.14304E+07         0.31346E+07         0.00000E+00
    0.31346E+07        -0.57104E+07         0.00000E+00
    0.00000E+00         0.00000E+00        -0.14282E+07
 
   -0.14301E+07         0.32091E+07         0.00000E+00
    0.32091E+07        -0.57105E+07         0.00000E+00
    0.00000E+00         0.00000E+00        -0.14281E+07
 
   -0.14297E+07         0.32837E+07         0.00000E+00
    0.32837E+07        -0.57107E+07         0.00000E+00
    0.00000E+00         0.00000E+00        -0.14281E+07
 
   -0.14294E+07         0.33583E+07         0.00000E+00
    0.33583E+07        -0.57109E+07         0.00000E+00
    0.00000E+00         0.00000E+00        -0.14281E+07
 
   -0.14291E+07         0.34329E+07         0.00000E+00
    0.34329E+07        -0.57110E+07         0.00000E+00
    0.00000E+00         0.00000E+00        -0.14280E+07
 
   -0.14287E+07         0.35076E+07         0.00000E+00
    0.35076E+07        -0.57112E+07         0.00000E+00
    0.00000E+00         0.00000E+00        -0.14280E+07
 
   -0.14284E+07         0.35823E+07         0.00000E+00
    0.35823E+07        -0.57113E+07         0.00000E+00
    0.00000E+00         0.00000E+00        -0.14279E+07
 
   -0.14281E+07         0.36571E+07         0.00000E+00
    0.36571E+07        -0.57115E+07         0.00000E+00
    0.00000E+00         0.00000E+00        -0.14279E+07
 
   -0.15699E+07         0.36666E+05         0.00000E+00
    0.36666E+05        -0.62065E+07         0.00000E+00
    0.00000E+00         0.00000E+00        -0.15553E+07
 
   -0.15699E+07         0.11000E+06         0.00000E+00
    0.11000E+06        -0.62065E+07         0.00000E+00
    0.00000E+00         0.00000E+00        -0.15553E+07
 
   -0.15700E+07         0.18334E+06         0.00000E+00
    0.18334E+06        -0.62066E+07         0.00000E+00
    0.00000E+00         0.00000E+00        -0.15553E+07
 
   -0.15700E+07         0.25668E+06         0.00000E+00
    0.25668E+06        -0.62066E+07         0.00000E+00
    0.00000E+00         0.00000E+00        -0.15553E+07
 
   -0.15700E+07         0.33003E+06         0.00000E+00
    0.33003E+06        -0.62066E+07         0.00000E+00
    0.00000E+00         0.00000E+00        -0.15553E+07
 
   -0.15700E+07         0.40338E+06         0.00000E+00
    0.40338E+06        -0.62067E+07         0.00000E+00
    0.00000E+00         0.00000E+00        -0.15553E+07
 
   -0.15699E+07         0.47675E+06         0.00000E+00
    0.47675E+06        -0.62067E+07         0.00000E+00
    0.00000E+00         0.00000E+00        -0.15553E+07
 
   -0.15699E+07         0.55012E+06         0.00000E+00
    0.55012E+06        -0.62068E+07         0.00000E+00
    0.00000E+00         0.00000E+00        -0.15553E+07
 
   -0.15698E+07         0.62350E+06         0.00000E+00
    0.62350E+06        -0.62068E+07         0.00000E+00
    0.00000E+00         0.00000E+00        -0.15553E+07
 
   -0.15697E+07         0.69690E+06         0.00000E+00
    0.69690E+06        -0.62069E+07         0.00000E+00
    0.00000E+00         0.00000E+00        -0.15553E+07
 
   -0.15696E+07         0.77031E+06         0.00000E+00
    0.77031E+06        -0.62070E+07         0.00000E+00
    0.00000E+00         0.00000E+00        -0.15553E+07
 
   -0.15695E+07         0.84373E+06         0.00000E+00
    0.84373E+06        -0.62071E+07         0.00000E+00
    0.00000E+00         0.00000E+00        -0.15553E+07
 
   -0.15693E+07         0.91717E+06         0.00000E+00
    0.91717E+06        -0.62072E+07         0.00000E+00
    0.00000E+00         0.00000E+00        -0.15553E+07
 
   -0.15692E+07         0.99062E+06         0.00000E+00
    0.99062E+06        -0.62073E+07         0.00000E+00
    0.00000E+00         0.00000E+00        -0.15553E+07
 
   -0.15690E+07         0.10641E+07         0.00000E+00
    0.10641E+07        -0.62074E+07         0.00000E+00
    0.00000E+00         0.00000E+00        -0.15553E+07
 
   -0.15688E+07         0.11376E+07         0.00000E+00
    0.11376E+07        -0.62075E+07         0.00000E+00
    0.00000E+00         0.00000E+00        -0.15553E+07
 
   -0.15686E+07         0.12111E+07         0.00000E+00
    0.12111E+07        -0.62077E+07         0.00000E+00
    0.00000E+00         0.00000E+00        -0.15553E+07
 
   -0.15684E+07         0.12846E+07         0.00000E+00
    0.12846E+07        -0.62078E+07         0.00000E+00
    0.00000E+00         0.00000E+00        -0.15552E+07
 
   -0.15681E+07         0.13582E+07         0.00000E+00
    0.13582E+07        -0.62079E+07         0.00000E+00
    0.00000E+00         0.00000E+00        -0.15552E+07
 
   -0.15679E+07         0.14318E+07         0.00000E+00
    0.14318E+07        -0.62081E+07         0.00000E+00
    0.00000E+00         0.00000E+00        -0.15552E+07
 
   -0.15676E+07         0.15054E+07         0.00000E+00
    0.15054E+07        -0.62083E+07         0.00000E+00
    0.00000E+00         0.00000E+00        -0.15552E+07
 
   -0.15673E+07         0.15790E+07         0.00000E+00
    0.15790E+07        -0.62084E+07         0.00000E+00
    0.00000E+00         0.00000E+00        -0.15551E+07
 
   -0.15670E+07         0.16527E+07         0.00000E+00
    0.16527E+07        -0.62086E+07         0.00000E+00
    0.00000E+00         0.00000E+00        -0.15551E+07
 
   -0.15667E+07         0.17264E+07         0.00000E+00
    0.17264E+07        -0.62088E+07         0.00000E+00
    0.00000E+00         0.00000E+00        -0.15551E+07
 
   -0.15663E+07         0.18001E+07         0.00000E+00
    0.18001E+07        -0.62090E+07         0.00000E+00
    0.00000E+00         0.00000E+00        -0.15551E+07
 
   -0.15660E+07         0.18739E+07         0.00000E+00
    0.18739E+07        -0.62091E+07         0.00000E+00
    0.00000E+00         0.00000E+00        -0.15550E+07
 
   -0.15656E+07         0.19477E+07         0.00000E+00
    0.19477E+07        -0.62093E+07         0.00000E+00
    0.00000E+00         0.00000E+00        -0.15550E+07
 
   -0.15653E+07         0.20215E+07         0.00000E+00
    0.20215E+07        -0.62095E+07         0.00000E+00
    0.00000E+00         0.00000E+00        -0.15550E+07
 
   -0.15649E+07         0.20954E+07         0.00000E+00
    0.20954E+07        -0.62097E+07         0.00000E+00
    0.00000E+00         0.00000E+00        -0.15549E+07
 
   -0.15645E+07         0.21693E+07         0.00000E+00
    0.21693E+07        -0.62100E+07         0.00000E+00
    0.00000E+00         0.00000E+00        -0.15549E+07
 
   -0.15640E+07         0.22432E+07         0.00000E+00
    0.22432E+07        -0.62102E+07         0.00000E+00
    0.00000E+00         0.00000E+00        -0.15548E+07
 
   -0.15636E+07         0.23172E+07         0.00000E+00
    0.23172E+07        -0.62104E+07         0.00000E+00
    0.00000E+00         0.00000E+00        -0.15548E+07
 
   -0.15632E+07         0.23912E+07         0.00000E+00
    0.23912E+07        -0.62106E+07         0.00000E+00
    0.00000E+00         0.00000E+00        -0.15548E+07
 
   -0.15627E+07         0.24652E+07         0.00000E+00
    0.24652E+07        -0.62109E+07         0.00000E+00
    0.00000E+00         0.00000E+00        -0.15547E+07
 
   -0.15622E+07         0.25393E+07         0.00000E+00
    0.25393E+07        -0.62111E+07         0.00000E+00
    0.00000E+00         0.00000E+00        -0.15547E+07
 
   -0.15618E+07         0.26135E+07         0.00000E+00
    0.26135E+07        -0.62113E+07         0.00000E+00
    0.00000E+00         0.00000E+00        -0.15546E+07
 
   -0.15613E+07         0.26876E+07         0.00000E+00
    0.26876E+07        -0.62116E+07         0.00000E+00
    0.00000E+00         0.00000E+00        -0.15546E+07
 
   -0.15608E+07         0.27618E+07         0.00000E+00
    0.27618E+07        -0.62118E+07         0.00000E+00
    0.00000E+00         0.00000E+00        -0.15545E+07
 
   -0.15603E+07         0.28361E+07         0.00000E+00
    0.28361E+07        -0.62121E+07         0.00000E+00
    0.00000E+00         0.00000E+00        -0.15545E+07
 
   -0.15597E+07         0.29104E+07         0.00000E+00
    0.29104E+07        -0.62123E+07         0.00000E+00
    0.00000E+00         0.00000E+00        -0.15544E+07
 
   -0.15592E+07         0.29848E+07         0.00000E+00
    0.29848E+07        -0.62126E+07         0.00000E+00
    0.00000E+00         0.00000E+00        -0.15544E+07
 
   -0.15587E+07         0.30592E+07         0.00000E+00
    0.30592E+07        -0.62129E+07         0.00000E+00
    0.00000E+00         0.00000E+00        -0.15543E+07
 
   -0.15581E+07         0.31336E+07         0.00000E+00
    0.31336E+07        -0.62131E+07         0.00000E+00
    0.00000E+00         0.00000E+00        -0.15542E+07
 
   -0.15576E+07         0.32081E+07         0.00000E+00
    0.32081E+07        -0.62134E+07         0.00000E+00
    0.00000E+00         0.00000E+00        -0.15542E+07
 
   -0.15570E+07         0.32826E+07         0.00000E+00
    0.32826E+07        -0.62136E+07         0.00000E+00
    0.00000E+00         0.00000E+00        -0.15541E+07
 
   -0.15564E+07         0.33572E+07         0.00000E+00
    0.33572E+07        -0.62139E+07         0.00000E+00
    0.00000E+00         0.00000E+00        -0.15541E+07
 
   -0.15558E+07         0.34318E+07         0.00000E+00
    0.34318E+07        -0.62142E+07         0.00000E+00
    0.00000E+00         0.00000E+00        -0.15540E+07
 
   -0.15553E+07         0.35065E+07         0.00000E+00
    0.35065E+07        -0.62144E+07         0.00000E+00
    0.00000E+00         0.00000E+00        -0.15539E+07
 
   -0.15547E+07         0.35813E+07         0.00000E+00
    0.35813E+07        -0.62147E+07         0.00000E+00
    0.00000E+00         0.00000E+00        -0.15539E+07
 
   -0.15541E+07         0.36561E+07         0.00000E+00
    0.36561E+07        -0.62150E+07         0.00000E+00
    0.00000E+00         0.00000E+00        -0.15538E+07
 
   -0.17035E+07         0.36641E+05         0.00000E+00
    0.36641E+05        -0.67067E+07         0.00000E+00
    0.00000E+00         0.00000E+00        -0.16820E+07
 
   -0.17035E+07         0.10993E+06         0.00000E+00
    0.10993E+06        -0.67067E+07         0.00000E+00
    0.00000E+00         0.00000E+00        -0.16820E+07
 
   -0.17035E+07         0.18321E+06         0.00000E+00
    0.18321E+06        -0.67067E+07         0.00000E+00
    0.00000E+00         0.00000E+00        -0.16820E+07
 
   -0.17035E+07         0.25651E+06         0.00000E+00
    0.25651E+06        -0.67067E+07         0.00000E+00
    0.00000E+00         0.00000E+00        -0.16821E+07
 
   -0.17035E+07         0.32980E+06         0.00000E+00
    0.32980E+06        -0.67068E+07         0.00000E+00
    0.00000E+00         0.00000E+00        -0.16821E+07
 
   -0.17034E+07         0.40311E+06         0.00000E+00
    0.40311E+06        -0.67068E+07         0.00000E+00
    0.00000E+00         0.00000E+00        -0.16821E+07
 
   -0.17033E+07         0.47642E+06         0.00000E+00
    0.47642E+06        -0.67069E+07         0.00000E+00
    0.00000E+00         0.00000E+00        -0.16821E+07
 
   -0.17032E+07         0.54974E+06         0.00000E+00
    0.54974E+06        -0.67070E+07         0.00000E+00
    0.00000E+00         0.00000E+00        -0.16820E+07
 
   -0.17031E+07         0.62308E+06         0.00000E+00
    0.62308E+06        -0.67071E+07         0.00000E+00
    0.00000E+00         0.00000E+00        -0.16820E+07
 
   -0.17030E+07         0.69643E+06         0.00000E+00
    0.69643E+06        -0.67072E+07         0.00000E+00
    0.00000E+00         0.00000E+00        -0.16820E+07
 
   -0.17028E+07         0.76979E+06         0.00000E+00
    0.76979E+06        -0.67073E+07         0.00000E+00
    0.00000E+00         0.00000E+00        -0.16820E+07
 
   -0.17026E+07         0.84316E+06         0.00000E+00
    0.84316E+06        -0.67074E+07         0.00000E+00
    0.00000E+00         0.00000E+00        -0.16820E+07
 
   -0.17023E+07         0.91655E+06         0.00000E+00
    0.91655E+06        -0.67076E+07         0.00000E+00
    0.00000E+00         0.00000E+00        -0.16820E+07
 
   -0.17021E+07         0.98996E+06         0.00000E+00
    0.98996E+06        -0.67077E+07         0.00000E+00
    0.00000E+00         0.00000E+00        -0.16820E+07
 
   -0.17018E+07         0.10634E+07         0.00000E+00
    0.10634E+07        -0.67079E+07         0.00000E+00
    0.00000E+00         0.00000E+00        -0.16819E+07
 
   -0.17015E+07         0.11368E+07         0.00000E+00
    0.11368E+07        -0.67081E+07         0.00000E+00
    0.00000E+00         0.00000E+00        -0.16819E+07
 
   -0.17012E+07         0.12103E+07         0.00000E+00
    0.12103E+07        -0.67082E+07         0.00000E+00
    0.00000E+00         0.00000E+00        -0.16819E+07
 
   -0.17009E+07         0.12838E+07         0.00000E+00
    0.12838E+07        -0.67084E+07         0.00000E+00
    0.00000E+00         0.00000E+00        -0.16819E+07
 
   -0.17005E+07         0.13573E+07         0.00000E+00
    0.13573E+07        -0.67086E+07         0.00000E+00
    0.00000E+00         0.00000E+00        -0.16818E+07
 
   -0.17001E+07         0.14309E+07         0.00000E+00
    0.14309E+07        -0.67089E+07         0.00000E+00
    0.00000E+00         0.00000E+00        -0.16818E+07
 
   -0.16997E+07         0.15044E+07         0.00000E+00
    0.15044E+07        -0.67091E+07         0.00000E+00
    0.00000E+00         0.00000E+00        -0.16818E+07
 
   -0.16993E+07         0.15780E+07         0.00000E+00
    0.15780E+07        -0.67093E+07         0.00000E+00
    0.00000E+00         0.00000E+00        -0.16817E+07
 
   -0.16988E+07         0.16517E+07         0.00000E+00
    0.16517E+07        -0.67095E+07         0.00000E+00
    0.00000E+00         0.00000E+00        -0.16817E+07
 
   -0.16983E+07         0.17253E+07         0.00000E+00
    0.17253E+07        -0.67098E+07         0.00000E+00
    0.00000E+00         0.00000E+00        -0.16816E+07
 
   -0.16978E+07         0.17990E+07         0.00000E+00
    0.17990E+07        -0.67101E+07         0.00000E+00
    0.00000E+00         0.00000E+00        -0.16816E+07
 
   -0.16973E+07         0.18727E+07         0.00000E+00
    0.18727E+07        -0.67103E+07         0.00000E+00
    0.00000E+00         0.00000E+00        -0.16815E+07
 
   -0.16968E+07         0.19465E+07         0.00000E+00
    0.19465E+07        -0.67106E+07         0.00000E+00
    0.00000E+00         0.00000E+00        -0.16815E+07
 
   -0.16962E+07         0.20203E+07         0.00000E+00
    0.20203E+07        -0.67109E+07         0.00000E+00
    0.00000E+00         0.00000E+00        -0.16814E+07
 
   -0.16957E+07         0.20941E+07         0.00000E+00
    0.20941E+07        -0.67112E+07         0.00000E+00
    0.00000E+00         0.00000E+00        -0.16814E+07
 
   -0.16951E+07         0.21680E+07         0.00000E+00
    0.21680E+07        -0.67115E+07         0.00000E+00
    0.00000E+00         0.00000E+00        -0.16813E+07
 
   -0.16945E+07         0.22419E+07         0.00000E+00
    0.22419E+07        -0.67118E+07         0.00000E+00
    0.00000E+00         0.00000E+00        -0.16813E+07
 
   -0.16939E+07         0.23158E+07         0.00000E+00
    0.23158E+07        -0.67121E+07         0.00000E+00
    0.00000E+00         0.00000E+00        -0.16812E+07
 
   -0.16932E+07         0.23898E+07         0.00000E+00
    0.23898E+07        -0.67124E+07         0.00000E+00
    0.00000E+00         0.00000E+00        -0.16811E+07
 
   -0.16925E+07         0.24638E+07         0.00000E+00
    0.24638E+07        -0.67128E+07         0.00000E+00
    0.00000E+00         0.00000E+00        -0.16811E+07
 
   -0.16919E+07         0.25379E+07         0.00000E+00
    0.25379E+07        -0.67131E+07         0.00000E+00
    0.00000E+00         0.00000E+00        -0.16810E+07
 
   -0.16912E+07         0.26120E+07         0.00000E+00
    0.26120E+07        -0.67134E+07         0.00000E+00
    0.00000E+00         0.00000E+00        -0.16809E+07
 
   -0.16905E+07         0.26861E+07         0.00000E+00
    0.26861E+07        -0.67138E+07         0.00000E+00
    0.00000E+00         0.00000E+00        -0.16809E+07
 
   -0.16897E+07         0.27603E+07         0.00000E+00
    0.27603E+07        -0.67141E+07         0.00000E+00
    0.00000E+00         0.00000E+00        -0.16808E+07
 
   -0.16890E+07         0.28346E+07         0.00000E+00
    0.28346E+07        -0.67145E+07         0.00000E+00
    0.00000E+00         0.00000E+00        -0.16807E+07
 
   -0.16883E+07         0.29089E+07         0.00000E+00
    0.29089E+07        -0.67148E+07         0.00000E+00
    0.00000E+00         0.00000E+00        -0.16806E+07
 
   -0.16875E+07         0.29832E+07         0.00000E+00
    0.29832E+07        -0.67152E+07         0.00000E+00
    0.00000E+00         0.00000E+00        -0.16805E+07
 
   -0.16867E+07         0.30576E+07         0.00000E+00
    0.30576E+07        -0.67156E+07         0.00000E+00
    0.00000E+00         0.00000E+00        -0.16805E+07
 
   -0.16859E+07         0.31320E+07         0.00000E+00
    0.31320E+07        -0.67159E+07         0.00000E+00
    0.00000E+00         0.00000E+00        -0.16804E+07
 
   -0.16851E+07         0.32065E+07         0.00000E+00
    0.32065E+07        -0.67163E+07         0.00000E+00
    0.00000E+00         0.00000E+00        -0.16803E+07
 
   -0.16843E+07         0.32810E+07         0.00000E+00
    0.32810E+07        -0.67167E+07         0.00000E+00
    0.00000E+00         0.00000E+00        -0.16802E+07
 
   -0.16835E+07         0.33556E+07         0.00000E+00
    0.33556E+07        -0.67171E+07         0.00000E+00
    0.00000E+00         0.00000E+00        -0.16801E+07
 
   -0.16827E+07         0.34302E+07         0.00000E+00
    0.34302E+07        -0.67175E+07         0.00000E+00
    0.00000E+00         0.00000E+00        -0.16800E+07
 
   -0.16818E+07         0.35049E+07         0.00000E+00
    0.35049E+07        -0.67178E+07         0.00000E+00
    0.00000E+00         0.00000E+00        -0.16799E+07
 
   -0.16810E+07         0.35796E+07         0.00000E+00
    0.35796E+07        -0.67182E+07         0.00000E+00
    0.00000E+00         0.00000E+00        -0.16798E+07
 
   -0.16801E+07         0.36544E+07         0.00000E+00
    0.36544E+07        -0.67186E+07         0.00000E+00
    0.00000E+00         0.00000E+00        -0.16797E+07
 
   -0.18374E+07         0.36607E+05         0.00000E+00
    0.36607E+05        -0.72068E+07         0.00000E+00
    0.00000E+00         0.00000E+00        -0.18088E+07
 
   -0.18374E+07         0.10982E+06         0.00000E+00
    0.10982E+06        -0.72068E+07         0.00000E+00
    0.00000E+00         0.00000E+00        -0.18089E+07
 
   -0.18374E+07         0.18304E+06         0.00000E+00
    0.18304E+06        -0.72069E+07         0.00000E+00
    0.00000E+00         0.00000E+00        -0.18089E+07
 
   -0.18374E+07         0.25627E+06         0.00000E+00
    0.25627E+06        -0.72069E+07         0.00000E+00
    0.00000E+00         0.00000E+00        -0.18089E+07
 
   -0.18373E+07         0.32950E+06         0.00000E+00
    0.32950E+06        -0.72070E+07         0.00000E+00
    0.00000E+00         0.00000E+00        -0.18089E+07
 
   -0.18372E+07         0.40274E+06         0.00000E+00
    0.40274E+06        -0.72071E+07         0.00000E+00
    0.00000E+00         0.00000E+00        -0.18089E+07
 
   -0.18371E+07         0.47598E+06         0.00000E+00
    0.47598E+06        -0.72072E+07         0.00000E+00
    0.00000E+00         0.00000E+00        -0.18088E+07
 
   -0.18369E+07         0.54924E+06         0.00000E+00
    0.54924E+06        -0.72073E+07         0.00000E+00
    0.00000E+00         0.00000E+00        -0.18088E+07
 
   -0.18367E+07         0.62251E+06         0.00000E+00
    0.62251E+06        -0.72074E+07         0.00000E+00
    0.00000E+00         0.00000E+00        -0.18088E+07
 
   -0.18365E+07         0.69579E+06         0.00000E+00
    0.69579E+06        -0.72075E+07         0.00000E+00
    0.00000E+00         0.00000E+00        -0.18088E+07
 
   -0.18363E+07         0.76909E+06         0.00000E+00
    0.76909E+06        -0.72077E+07         0.00000E+00
    0.00000E+00         0.00000E+00        -0.18088E+07
 
   -0.18360E+07         0.84240E+06         0.00000E+00
    0.84240E+06        -0.72078E+07         0.00000E+00
    0.00000E+00         0.00000E+00        -0.18088E+07
 
   -0.18357E+07         0.91573E+06         0.00000E+00
    0.91573E+06        -0.72080E+07         0.00000E+00
    0.00000E+00         0.00000E+00        -0.18087E+07
 
   -0.18353E+07         0.98907E+06         0.00000E+00
    0.98907E+06        -0.72082E+07         0.00000E+00
    0.00000E+00         0.00000E+00        -0.18087E+07
 
   -0.18349E+07         0.10624E+07         0.00000E+00
    0.10624E+07        -0.72084E+07         0.00000E+00
    0.00000E+00         0.00000E+00        -0.18087E+07
 
   -0.18345E+07         0.11358E+07         0.00000E+00
    0.11358E+07        -0.72086E+07         0.00000E+00
    0.00000E+00         0.00000E+00        -0.18086E+07
 
   -0.18341E+07         0.12092E+07         0.00000E+00
    0.12092E+07        -0.72089E+07         0.00000E+00
    0.00000E+00         0.00000E+00        -0.18086E+07
 
   -0.18336E+07         0.12827E+07         0.00000E+00
    0.12827E+07        -0.72091E+07         0.00000E+00
    0.00000E+00         0.00000E+00        -0.18086E+07
 
   -0.18331E+07         0.13561E+07         0.00000E+00
    0.13561E+07        -0.72094E+07         0.00000E+00
    0.00000E+00         0.00000E+00        -0.18085E+07
 
   -0.18326E+07         0.14296E+07         0.00000E+00
    0.14296E+07        -0.72097E+07         0.00000E+00
    0.00000E+00         0.00000E+00        -0.18085E+07
 
   -0.18321E+07         0.15031E+07         0.00000E+00
    0.15031E+07        -0.72100E+07         0.00000E+00
    0.00000E+00         0.00000E+00        -0.18084E+07
 
   -0.18315E+07         0.15767E+07         0.00000E+00
    0.15767E+07        -0.72103E+07         0.00000E+00
    0.00000E+00         0.00000E+00        -0.18084E+07
 
   -0.18309E+07         0.16503E+07         0.00000E+00
    0.16503E+07        -0.72106E+07         0.00000E+00
    0.00000E+00         0.00000E+00        -0.18083E+07
 
   -0.18303E+07         0.17239E+07         0.00000E+00
    0.17239E+07        -0.72109E+07         0.00000E+00
    0.00000E+00         0.00000E+00        -0.18082E+07
 
   -0.18296E+07         0.17975E+07         0.00000E+00
    0.17975E+07        -0.72112E+07         0.00000E+00
    0.00000E+00         0.00000E+00        -0.18082E+07
 
   -0.18289E+07         0.18712E+07         0.00000E+00
    0.18712E+07        -0.72116E+07         0.00000E+00
    0.00000E+00         0.00000E+00        -0.18081E+07
 
   -0.18282E+07         0.19449E+07         0.00000E+00
    0.19449E+07        -0.72120E+07         0.00000E+00
    0.00000E+00         0.00000E+00        -0.18080E+07
 
   -0.18275E+07         0.20186E+07         0.00000E+00
    0.20186E+07        -0.72123E+07         0.00000E+00
    0.00000E+00         0.00000E+00        -0.18080E+07
 
   -0.18267E+07         0.20924E+07         0.00000E+00
    0.20924E+07        -0.72127E+07         0.00000E+00
    0.00000E+00         0.00000E+00        -0.18079E+07
 
   -0.18259E+07         0.21662E+07         0.00000E+00
    0.21662E+07        -0.72131E+07         0.00000E+00
    0.00000E+00         0.00000E+00        -0.18078E+07
 
   -0.18251E+07         0.22401E+07         0.00000E+00
    0.22401E+07        -0.72135E+07         0.00000E+00
    0.00000E+00         0.00000E+00        -0.18077E+07
 
   -0.18243E+07         0.23140E+07         0.00000E+00
    0.23140E+07        -0.72139E+07         0.00000E+00
    0.00000E+00         0.00000E+00        -0.18076E+07
 
   -0.18235E+07         0.23879E+07         0.00000E+00
    0.23879E+07        -0.72143E+07         0.00000E+00
    0.00000E+00         0.00000E+00        -0.18076E+07
 
   -0.18226E+07         0.24619E+07         0.00000E+00
    0.24619E+07        -0.72148E+07         0.00000E+00
    0.00000E+00         0.00000E+00        -0.18075E+07
 
   -0.18217E+07         0.25359E+07         0.00000E+00
    0.25359E+07        -0.72152E+07         0.00000E+00
    0.00000E+00         0.00000E+00        -0.18074E+07
 
   -0.18208E+07         0.26100E+07         0.00000E+00
    0.26100E+07        -0.72156E+07         0.00000E+00
    0.00000E+00         0.00000E+00        -0.18073E+07
 
   -0.18198E+07         0.26841E+07         0.00000E+00
    0.26841E+07        -0.72161E+07         0.00000E+00
    0.00000E+00         0.00000E+00        -0.18072E+07
 
   -0.18189E+07         0.27583E+07         0.00000E+00
    0.27583E+07        -0.72166E+07         0.00000E+00
    0.00000E+00         0.00000E+00        -0.18071E+07
 
   -0.18179E+07         0.28325E+07         0.00000E+00
    0.28325E+07        -0.72170E+07         0.00000E+00
    0.00000E+00         0.00000E+00        -0.18070E+07
 
   -0.18169E+07         0.29068E+07         0.00000E+00
    0.29068E+07        -0.72175E+07         0.00000E+00
    0.00000E+00         0.00000E+00        -0.18069E+07
 
   -0.18159E+07         0.29811E+07         0.00000E+00
    0.29811E+07        -0.72180E+07         0.00000E+00
    0.00000E+00         0.00000E+00        -0.18068E+07
 
   -0.18149E+07         0.30555E+07         0.00000E+00
    0.30555E+07        -0.72184E+07         0.00000E+00
    0.00000E+00         0.00000E+00        -0.18067E+07
 
   -0.18139E+07         0.31299E+07         0.00000E+00
    0.31299E+07        -0.72189E+07         0.00000E+00
    0.00000E+00         0.00000E+00        -0.18066E+07
 
   -0.18128E+07         0.32043E+07         0.00000E+00
    0.32043E+07        -0.72194E+07         0.00000E+00
    0.00000E+00         0.00000E+00        -0.18064E+07
 
   -0.18118E+07         0.32788E+07         0.00000E+00
    0.32788E+07        -0.72199E+07         0.00000E+00
    0.00000E+00         0.00000E+00        -0.18063E+07
 
   -0.18107E+07         0.33534E+07         0.00000E+00
    0.33534E+07        -0.72204E+07         0.00000E+00
    0.00000E+00         0.00000E+00        -0.18062E+07
 
   -0.18096E+07         0.34280E+07         0.00000E+00
    0.34280E+07        -0.72209E+07         0.00000E+00
    0.00000E+00         0.00000E+00        -0.18061E+07
 
   -0.18085E+07         0.35027E+07         0.00000E+00
    0.35027E+07        -0.72214E+07         0.00000E+00
    0.00000E+00         0.00000E+00        -0.18060E+07
 
   -0.18074E+07         0.35774E+07         0.00000E+00
    0.35774E+07        -0.72219E+07         0.00000E+00
    0.00000E+00         0.00000E+00        -0.18059E+07
 
   -0.18062E+07         0.36522E+07         0.00000E+00
    0.36522E+07        -0.72224E+07         0.00000E+00
    0.00000E+00         0.00000E+00        -0.18057E+07
 
   -0.19717E+07         0.36564E+05         0.00000E+00
    0.36564E+05        -0.77070E+07         0.00000E+00
    0.00000E+00         0.00000E+00        -0.19358E+07
 
   -0.19717E+07         0.10970E+06         0.00000E+00
    0.10970E+06        -0.77071E+07         0.00000E+00
    0.00000E+00         0.00000E+00        -0.19358E+07
 
   -0.19717E+07         0.18283E+06         0.00000E+00
    0.18283E+06        -0.77071E+07         0.00000E+00
    0.00000E+00         0.00000E+00        -0.19358E+07
 
   -0.19717E+07         0.25597E+06         0.00000E+00
    0.25597E+06        -0.77072E+07         0.00000E+00
    0.00000E+00         0.00000E+00        -0.19358E+07
 
   -0.19716E+07         0.32911E+06         0.00000E+00
    0.32911E+06        -0.77072E+07         0.00000E+00
    0.00000E+00         0.00000E+00        -0.19358E+07
 
   -0.19714E+07         0.40227E+06         0.00000E+00
    0.40227E+06        -0.77073E+07         0.00000E+00
    0.00000E+00         0.00000E+00        -0.19358E+07
 
   -0.19712E+07         0.47543E+06         0.00000E+00
    0.47543E+06        -0.77074E+07         0.00000E+00
    0.00000E+00         0.00000E+00        -0.19357E+07
 
   -0.19710E+07         0.54860E+06         0.00000E+00
    0.54860E+06        -0.77076E+07         0.00000E+00
    0.00000E+00         0.00000E+00        -0.19357E+07
 
   -0.19708E+07         0.62179E+06         0.00000E+00
    0.62179E+06        -0.77077E+07         0.00000E+00
    0.00000E+00         0.00000E+00        -0.19357E+07
 
   -0.19705E+07         0.69498E+06         0.00000E+00
    0.69498E+06        -0.77079E+07         0.00000E+00
    0.00000E+00         0.00000E+00        -0.19357E+07
 
   -0.19702E+07         0.76820E+06         0.00000E+00
    0.76820E+06        -0.77081E+07         0.00000E+00
    0.00000E+00         0.00000E+00        -0.19356E+07
 
   -0.19698E+07         0.84143E+06         0.00000E+00
    0.84143E+06        -0.77083E+07         0.00000E+00
    0.00000E+00         0.00000E+00        -0.19356E+07
 
   -0.19694E+07         0.91468E+06         0.00000E+00
    0.91468E+06        -0.77085E+07         0.00000E+00
    0.00000E+00         0.00000E+00        -0.19356E+07
 
   -0.19689E+07         0.98794E+06         0.00000E+00
    0.98794E+06        -0.77088E+07         0.00000E+00
    0.00000E+00         0.00000E+00        -0.19355E+07
 
   -0.19685E+07         0.10612E+07         0.00000E+00
    0.10612E+07        -0.77090E+07         0.00000E+00
    0.00000E+00         0.00000E+00        -0.19355E+07
 
   -0.19679E+07         0.11345E+07         0.00000E+00
    0.11345E+07        -0.77093E+07         0.00000E+00
    0.00000E+00         0.00000E+00        -0.19354E+07
 
   -0.19674E+07         0.12079E+07         0.00000E+00
    0.12079E+07        -0.77096E+07         0.00000E+00
    0.00000E+00         0.00000E+00        -0.19354E+07
 
   -0.19668E+07         0.12812E+07         0.00000E+00
    0.12812E+07        -0.77099E+07         0.00000E+00
    0.00000E+00         0.00000E+00        -0.19353E+07
 
   -0.19662E+07         0.13546E+07         0.00000E+00
    0.13546E+07        -0.77102E+07         0.00000E+00
    0.00000E+00         0.00000E+00        -0.19353E+07
 
   -0.19655E+07         0.14280E+07         0.00000E+00
    0.14280E+07        -0.77106E+07         0.00000E+00
    0.00000E+00         0.00000E+00        -0.19352E+07
 
   -0.19648E+07         0.15015E+07         0.00000E+00
    0.15015E+07        -0.77109E+07         0.00000E+00
    0.00000E+00         0.00000E+00        -0.19351E+07
 
   -0.19641E+07         0.15750E+07         0.00000E+00
    0.15750E+07        -0.77113E+07         0.00000E+00
    0.00000E+00         0.00000E+00        -0.19351E+07
 
   -0.19633E+07         0.16485E+07         0.00000E+00
    0.16485E+07        -0.77117E+07         0.00000E+00
    0.00000E+00         0.00000E+00        -0.19350E+07
 
   -0.19625E+07         0.17220E+07         0.00000E+00
    0.17220E+07        -0.77121E+07         0.00000E+00
    0.00000E+00         0.00000E+00        -0.19349E+07
 
   -0.19617E+07         0.17956E+07         0.00000E+00
    0.17956E+07        -0.77125E+07         0.00000E+00
    0.00000E+00         0.00000E+00        -0.19348E+07
 
   -0.19608E+07         0.18692E+07         0.00000E+00
    0.18692E+07        -0.77130E+07         0.00000E+00
    0.00000E+00         0.00000E+00        -0.19348E+07
 
   -0.19599E+07         0.19428E+07         0.00000E+00
    0.19428E+07        -0.77134E+07         0.00000E+00
    0.00000E+00         0.00000E+00        -0.19347E+07
 
   -0.19590E+07         0.20165E+07         0.00000E+00
    0.20165E+07        -0.77139E+07         0.00000E+00
    0.00000E+00         0.00000E+00        -0.19346E+07
 
   -0.19581E+07         0.20902E+07         0.00000E+00
    0.20902E+07        -0.77143E+07         0.00000E+00
    0.00000E+00         0.00000E+00        -0.19345E+07
 
   -0.19571E+07         0.21640E+07         0.00000E+00
    0.21640E+07        -0.77148E+07         0.00000E+00
    0.00000E+00         0.00000E+00        -0.19344E+07
 
   -0.19561E+07         0.22378E+07         0.00000E+00
    0.22378E+07        -0.77153E+07         0.00000E+00
    0.00000E+00         0.00000E+00        -0.19343E+07
 
   -0.19550E+07         0.23117E+07         0.00000E+00
    0.23117E+07        -0.77158E+07         0.00000E+00
    0.00000E+00         0.00000E+00        -0.19342E+07
 
   -0.19540E+07         0.23856E+07         0.00000E+00
    0.23856E+07        -0.77164E+07         0.00000E+00
    0.00000E+00         0.00000E+00        -0.19341E+07
 
   -0.19529E+07         0.24595E+07         0.00000E+00
    0.24595E+07        -0.77169E+07         0.00000E+00
    0.00000E+00         0.00000E+00        -0.19340E+07
 
   -0.19518E+07         0.25335E+07         0.00000E+00
    0.25335E+07        -0.77174E+07         0.00000E+00
    0.00000E+00         0.00000E+00        -0.19338E+07
 
   -0.19506E+07         0.26075E+07         0.00000E+00
    0.26075E+07        -0.77180E+07         0.00000E+00
    0.00000E+00         0.00000E+00        -0.19337E+07
 
   -0.19494E+07         0.26816E+07         0.00000E+00
    0.26816E+07        -0.77186E+07         0.00000E+00
    0.00000E+00         0.00000E+00        -0.19336E+07
 
   -0.19483E+07         0.27557E+07         0.00000E+00
    0.27557E+07        -0.77191E+07         0.00000E+00
    0.00000E+00         0.00000E+00        -0.19335E+07
 
   -0.19470E+07         0.28299E+07         0.00000E+00
    0.28299E+07        -0.77197E+07         0.00000E+00
    0.00000E+00         0.00000E+00        -0.19333E+07
 
   -0.19458E+07         0.29041E+07         0.00000E+00
    0.29041E+07        -0.77203E+07         0.00000E+00
    0.00000E+00         0.00000E+00        -0.19332E+07
 
   -0.19445E+07         0.29784E+07         0.00000E+00
    0.29784E+07        -0.77209E+07         0.00000E+00
    0.00000E+00         0.00000E+00        -0.19331E+07
 
   -0.19433E+07         0.30527E+07         0.00000E+00
    0.30527E+07        -0.77215E+07         0.00000E+00
    0.00000E+00         0.00000E+00        -0.19329E+07
 
   -0.19420E+07         0.31271E+07         0.00000E+00
    0.31271E+07        -0.77221E+07         0.00000E+00
    0.00000E+00         0.00000E+00        -0.19328E+07
 
   -0.19406E+07         0.32016E+07         0.00000E+00
    0.32016E+07        -0.77227E+07         0.00000E+00
    0.00000E+00         0.00000E+00        -0.19327E+07
 
   -0.19393E+07         0.32761E+07         0.00000E+00
    0.32761E+07        -0.77233E+07         0.00000E+00
    0.00000E+00         0.00000E+00        -0.19325E+07
 
   -0.19380E+07         0.33506E+07         0.00000E+00
    0.33506E+07        -0.77239E+07         0.00000E+00
    0.00000E+00         0.00000E+00        -0.19324E+07
 
   -0.19366E+07         0.34252E+07         0.00000E+00
    0.34252E+07        -0.77246E+07         0.00000E+00
    0.00000E+00         0.00000E+00        -0.19322E+07
 
   -0.19352E+07         0.34999E+07         0.00000E+00
    0.34999E+07        -0.77252E+07         0.00000E+00
    0.00000E+00         0.00000E+00        -0.19321E+07
 
   -0.19338E+07         0.35746E+07         0.00000E+00
    0.35746E+07        -0.77258E+07         0.00000E+00
    0.00000E+00         0.00000E+00        -0.19319E+07
 
   -0.19324E+07         0.36494E+07         0.00000E+00
    0.36494E+07        -0.77265E+07         0.00000E+00
    0.00000E+00         0.00000E+00        -0.19318E+07
 
   -0.21066E+07         0.36512E+05         0.00000E+00
    0.36512E+05        -0.82073E+07         0.00000E+00
    0.00000E+00         0.00000E+00        -0.20628E+07
 
   -0.21066E+07         0.10954E+06         0.00000E+00
    0.10954E+06        -0.82073E+07         0.00000E+00
    0.00000E+00         0.00000E+00        -0.20628E+07
 
   -0.21066E+07         0.18257E+06         0.00000E+00
    0.18257E+06        -0.82074E+07         0.00000E+00
    0.00000E+00         0.00000E+00        -0.20628E+07
 
   -0.21065E+07         0.25560E+06         0.00000E+00
    0.25560E+06        -0.82074E+07         0.00000E+00
    0.00000E+00         0.00000E+00        -0.20628E+07
 
   -0.21063E+07         0.32864E+06         0.00000E+00
    0.32864E+06        -0.82075E+07         0.00000E+00
    0.00000E+00         0.00000E+00        -0.20628E+07
 
   -0.21061E+07         0.40169E+06         0.00000E+00
    0.40169E+06        -0.82076E+07         0.00000E+00
    0.00000E+00         0.00000E+00        -0.20628E+07
 
   -0.21059E+07         0.47475E+06         0.00000E+00
    0.47475E+06        -0.82078E+07         0.00000E+00
    0.00000E+00         0.00000E+00        -0.20627E+07
 
   -0.21056E+07         0.54782E+06         0.00000E+00
    0.54782E+06        -0.82079E+07         0.00000E+00
    0.00000E+00         0.00000E+00        -0.20627E+07
 
   -0.21053E+07         0.62090E+06         0.00000E+00
    0.62090E+06        -0.82081E+07         0.00000E+00
    0.00000E+00         0.00000E+00        -0.20627E+07
 
   -0.21050E+07         0.69400E+06         0.00000E+00
    0.69400E+06        -0.82083E+07         0.00000E+00
    0.00000E+00         0.00000E+00        -0.20627E+07
 
   -0.21045E+07         0.76711E+06         0.00000E+00
    0.76711E+06        -0.82086E+07         0.00000E+00
    0.00000E+00         0.00000E+00        -0.20626E+07
 
   -0.21041E+07         0.84025E+06         0.00000E+00
    0.84025E+06        -0.82088E+07         0.00000E+00
    0.00000E+00         0.00000E+00        -0.20626E+07
 
   -0.21036E+07         0.91340E+06         0.00000E+00
    0.91340E+06        -0.82091E+07         0.00000E+00
    0.00000E+00         0.00000E+00        -0.20625E+07
 
   -0.21030E+07         0.98657E+06         0.00000E+00
    0.98657E+06        -0.82094E+07         0.00000E+00
    0.00000E+00         0.00000E+00        -0.20625E+07
 
   -0.21024E+07         0.10598E+07         0.00000E+00
    0.10598E+07        -0.82097E+07         0.00000E+00
    0.00000E+00         0.00000E+00        -0.20624E+07
 
   -0.21018E+07         0.11330E+07         0.00000E+00
    0.11330E+07        -0.82100E+07         0.00000E+00
    0.00000E+00         0.00000E+00        -0.20624E+07
 
   -0.21011E+07         0.12062E+07         0.00000E+00
    0.12062E+07        -0.82104E+07         0.00000E+00
    0.00000E+00         0.00000E+00        -0.20623E+07
 
   -0.21004E+07         0.12795E+07         0.00000E+00
    0.12795E+07        -0.82107E+07         0.00000E+00
    0.00000E+00         0.00000E+00        -0.20622E+07
 
   -0.20996E+07         0.13528E+07         0.00000E+00
    0.13528E+07        -0.82111E+07         0.00000E+00
    0.00000E+00         0.00000E+00        -0.20622E+07
 
   -0.20988E+07         0.14261E+07         0.00000E+00
    0.14261E+07        -0.82116E+07         0.00000E+00
    0.00000E+00         0.00000E+00        -0.20621E+07
 
   -0.20980E+07         0.14995E+07         0.00000E+00
    0.14995E+07        -0.82120E+07         0.00000E+00
    0.00000E+00         0.00000E+00        -0.20620E+07
 
   -0.20971E+07         0.15729E+07         0.00000E+00
    0.15729E+07        -0.82124E+07         0.00000E+00
    0.00000E+00         0.00000E+00        -0.20619E+07
 
   -0.20962E+07         0.16463E+07         0.00000E+00
    0.16463E+07        -0.82129E+07         0.00000E+00
    0.00000E+00         0.00000E+00        -0.20618E+07
 
   -0.20952E+07         0.17197E+07         0.00000E+00
    0.17197E+07        -0.82134E+07         0.00000E+00
    0.00000E+00         0.00000E+00        -0.20617E+07
 
   -0.20942E+07         0.17932E+07         0.00000E+00
    0.17932E+07        -0.82139E+07         0.00000E+00
    0.00000E+00         0.00000E+00        -0.20616E+07
 
   -0.20931E+07         0.18668E+07         0.00000E+00
    0.18668E+07        -0.82144E+07         0.00000E+00
    0.00000E+00         0.00000E+00        -0.20615E+07
 
   -0.20921E+07         0.19403E+07         0.00000E+00
    0.19403E+07        -0.82150E+07         0.00000E+00
    0.00000E+00         0.00000E+00        -0.20614E+07
 
   -0.20909E+07         0.20139E+07         0.00000E+00
    0.20139E+07        -0.82155E+07         0.00000E+00
    0.00000E+00         0.00000E+00        -0.20613E+07
 
   -0.20898E+07         0.20876E+07         0.00000E+00
    0.20876E+07        -0.82161E+07         0.00000E+00
    0.00000E+00         0.00000E+00        -0.20612E+07
 
   -0.20886E+07         0.21613E+07         0.00000E+00
    0.21613E+07        -0.82167E+07         0.00000E+00
    0.00000E+00         0.00000E+00        -0.20611E+07
 
   -0.20874E+07         0.22350E+07         0.00000E+00
    0.22350E+07        -0.82173E+07         0.00000E+00
    0.00000E+00         0.00000E+00        -0.20609E+07
 
   -0.20861E+07         0.23088E+07         0.00000E+00
    0.23088E+07        -0.82179E+07         0.00000E+00
    0.00000E+00         0.00000E+00        -0.20608E+07
 
   -0.20848E+07         0.23827E+07         0.00000E+00
    0.23827E+07        -0.82185E+07         0.00000E+00
    0.00000E+00         0.00000E+00        -0.20607E+07
 
   -0.20835E+07         0.24565E+07         0.00000E+00
    0.24565E+07        -0.82192E+07         0.00000E+00
    0.00000E+00         0.00000E+00        -0.20605E+07
 
   -0.20821E+07         0.25305E+07         0.00000E+00
    0.25305E+07        -0.82198E+07         0.00000E+00
    0.00000E+00         0.00000E+00        -0.20604E+07
 
   -0.20807E+07         0.26044E+07         0.00000E+00
    0.26044E+07        -0.82205E+07         0.00000E+00
    0.00000E+00         0.00000E+00        -0.20602E+07
 
   -0.20793E+07         0.26785E+07         0.00000E+00
    0.26785E+07        -0.82212E+07         0.00000E+00
    0.00000E+00         0.00000E+00        -0.20601E+07
 
   -0.20779E+07         0.27526E+07         0.00000E+00
    0.27526E+07        -0.82219E+07         0.00000E+00
    0.00000E+00         0.00000E+00        -0.20599E+07
 
   -0.20764E+07         0.28267E+07         0.00000E+00
    0.28267E+07        -0.82226E+07         0.00000E+00
    0.00000E+00         0.00000E+00        -0.20598E+07
 
   -0.20749E+07         0.29009E+07         0.00000E+00
    0.29009E+07        -0.82233E+07         0.00000E+00
    0.00000E+00         0.00000E+00        -0.20596E+07
 
   -0.20734E+07         0.29751E+07         0.00000E+00
    0.29751E+07        -0.82240E+07         0.00000E+00
    0.00000E+00         0.00000E+00        -0.20595E+07
 
   -0.20718E+07         0.30494E+07         0.00000E+00
    0.30494E+07        -0.82247E+07         0.00000E+00
    0.00000E+00         0.00000E+00        -0.20593E+07
 
   -0.20702E+07         0.31238E+07         0.00000E+00
    0.31238E+07        -0.82255E+07         0.00000E+00
    0.00000E+00         0.00000E+00        -0.20591E+07
 
   -0.20686E+07         0.31982E+07         0.00000E+00
    0.31982E+07        -0.82262E+07         0.00000E+00
    0.00000E+00         0.00000E+00        -0.20590E+07
 
   -0.20670E+07         0.32726E+07         0.00000E+00
    0.32726E+07        -0.82269E+07         0.00000E+00
    0.00000E+00         0.00000E+00        -0.20588E+07
 
   -0.20654E+07         0.33472E+07         0.00000E+00
    0.33472E+07        -0.82277E+07         0.00000E+00
    0.00000E+00         0.00000E+00        -0.20586E+07
 
   -0.20637E+07         0.34218E+07         0.00000E+00
    0.34218E+07        -0.82285E+07         0.00000E+00
    0.00000E+00         0.00000E+00        -0.20584E+07
 
   -0.20620E+07         0.34964E+07         0.00000E+00
    0.34964E+07        -0.82292E+07         0.00000E+00
    0.00000E+00         0.00000E+00        -0.20583E+07
 
   -0.20603E+07         0.35711E+07         0.00000E+00
    0.35711E+07        -0.82300E+07         0.00000E+00
    0.00000E+00         0.00000E+00        -0.20581E+07
 
   -0.20586E+07         0.36459E+07         0.00000E+00
    0.36459E+07        -0.82307E+07         0.00000E+00
    0.00000E+00         0.00000E+00        -0.20579E+07
 
   -0.22421E+07         0.36449E+05         0.00000E+00
    0.36449E+05        -0.87076E+07         0.00000E+00
    0.00000E+00         0.00000E+00        -0.21899E+07
 
   -0.22421E+07         0.10935E+06         0.00000E+00
    0.10935E+06        -0.87076E+07         0.00000E+00
    0.00000E+00         0.00000E+00        -0.21899E+07
 
   -0.22420E+07         0.18225E+06         0.00000E+00
    0.18225E+06        -0.87077E+07         0.00000E+00
    0.00000E+00         0.00000E+00        -0.21899E+07
 
   -0.22419E+07         0.25516E+06         0.00000E+00
    0.25516E+06        -0.87078E+07         0.00000E+00
    0.00000E+00         0.00000E+00        -0.21899E+07
 
   -0.22417E+07         0.32808E+06         0.00000E+00
    0.32808E+06        -0.87079E+07         0.00000E+00
    0.00000E+00         0.00000E+00        -0.21899E+07
 
   -0.22415E+07         0.40101E+06         0.00000E+00
    0.40101E+06        -0.87080E+07         0.00000E+00
    0.00000E+00         0.00000E+00        -0.21899E+07
 
   -0.22412E+07         0.47394E+06         0.00000E+00
    0.47394E+06        -0.87082E+07         0.00000E+00
    0.00000E+00         0.00000E+00        -0.21899E+07
 
   -0.22409E+07         0.54689E+06         0.00000E+00
    0.54689E+06        -0.87084E+07         0.00000E+00
    0.00000E+00         0.00000E+00        -0.21898E+07
 
   -0.22405E+07         0.61985E+06         0.00000E+00
    0.61985E+06        -0.87086E+07         0.00000E+00
    0.00000E+00         0.00000E+00        -0.21898E+07
 
   -0.22400E+07         0.69283E+06         0.00000E+00
    0.69283E+06        -0.87088E+07         0.00000E+00
    0.00000E+00         0.00000E+00        -0.21898E+07
 
   -0.22395E+07         0.76582E+06         0.00000E+00
    0.76582E+06        -0.87091E+07         0.00000E+00
    0.00000E+00         0.00000E+00        -0.21897E+07
 
   -0.22390E+07         0.83884E+06         0.00000E+00
    0.83884E+06        -0.87094E+07         0.00000E+00
    0.00000E+00         0.00000E+00        -0.21897E+07
 
   -0.22384E+07         0.91187E+06         0.00000E+00
    0.91187E+06        -0.87097E+07         0.00000E+00
    0.00000E+00         0.00000E+00        -0.21896E+07
 
   -0.22377E+07         0.98492E+06         0.00000E+00
    0.98492E+06        -0.87100E+07         0.00000E+00
    0.00000E+00         0.00000E+00        -0.21895E+07
 
   -0.22370E+07         0.10580E+07         0.00000E+00
    0.10580E+07        -0.87104E+07         0.00000E+00
    0.00000E+00         0.00000E+00        -0.21895E+07
 
   -0.22362E+07         0.11311E+07         0.00000E+00
    0.11311E+07        -0.87108E+07         0.00000E+00
    0.00000E+00         0.00000E+00        -0.21894E+07
 
   -0.22354E+07         0.12042E+07         0.00000E+00
    0.12042E+07        -0.87112E+07         0.00000E+00
    0.00000E+00         0.00000E+00        -0.21893E+07
 
   -0.22346E+07         0.12774E+07         0.00000E+00
    0.12774E+07        -0.87117E+07         0.00000E+00
    0.00000E+00         0.00000E+00        -0.21892E+07
 
   -0.22336E+07         0.13506E+07         0.00000E+00
    0.13506E+07        -0.87121E+07         0.00000E+00
    0.00000E+00         0.00000E+00        -0.21892E+07
 
   -0.22327E+07         0.14238E+07         0.00000E+00
    0.14238E+07        -0.87126E+07         0.00000E+00
    0.00000E+00         0.00000E+00        -0.21891E+07
 
   -0.22317E+07         0.14971E+07         0.00000E+00
    0.14971E+07        -0.87131E+07         0.00000E+00
    0.00000E+00         0.00000E+00        -0.21890E+07
 
   -0.22306E+07         0.15703E+07         0.00000E+00
    0.15703E+07        -0.87137E+07         0.00000E+00
    0.00000E+00         0.00000E+00        -0.21889E+07
 
   -0.22295E+07         0.16437E+07         0.00000E+00
    0.16437E+07        -0.87142E+07         0.00000E+00
    0.00000E+00         0.00000E+00        -0.21887E+07
 
   -0.22283E+07         0.17170E+07         0.00000E+00
    0.17170E+07        -0.87148E+07         0.00000E+00
    0.00000E+00         0.00000E+00        -0.21886E+07
 
   -0.22271E+07         0.17904E+07         0.00000E+00
    0.17904E+07        -0.87154E+07         0.00000E+00
    0.00000E+00         0.00000E+00        -0.21885E+07
 
   -0.22259E+07         0.18639E+07         0.00000E+00
    0.18639E+07        -0.87160E+07         0.00000E+00
    0.00000E+00         0.00000E+00        -0.21884E+07
 
   -0.22246E+07         0.19373E+07         0.00000E+00
    0.19373E+07        -0.87167E+07         0.00000E+00
    0.00000E+00         0.00000E+00        -0.21883E+07
 
   -0.22233E+07         0.20109E+07         0.00000E+00
    0.20109E+07        -0.87173E+07         0.00000E+00
    0.00000E+00         0.00000E+00        -0.21881E+07
 
   -0.22219E+07         0.20844E+07         0.00000E+00
    0.20844E+07        -0.87180E+07         0.00000E+00
    0.00000E+00         0.00000E+00        -0.21880E+07
 
   -0.22205E+07         0.21581E+07         0.00000E+00
    0.21581E+07        -0.87187E+07         0.00000E+00
    0.00000E+00         0.00000E+00        -0.21878E+07
 
   -0.22190E+07         0.22317E+07         0.00000E+00
    0.22317E+07        -0.87194E+07         0.00000E+00
    0.00000E+00         0.00000E+00        -0.21877E+07
 
   -0.22175E+07         0.23054E+07         0.00000E+00
    0.23054E+07        -0.87201E+07         0.00000E+00
    0.00000E+00         0.00000E+00        -0.21875E+07
 
   -0.22160E+07         0.23792E+07         0.00000E+00
    0.23792E+07        -0.87209E+07         0.00000E+00
    0.00000E+00         0.00000E+00        -0.21874E+07
 
   -0.22144E+07         0.24530E+07         0.00000E+00
    0.24530E+07        -0.87216E+07         0.00000E+00
    0.00000E+00         0.00000E+00        -0.21872E+07
 
   -0.22128E+07         0.25269E+07         0.00000E+00
    0.25269E+07        -0.87224E+07         0.00000E+00
    0.00000E+00         0.00000E+00        -0.21870E+07
 
   -0.22112E+07         0.26008E+07         0.00000E+00
    0.26008E+07        -0.87232E+07         0.00000E+00
    0.00000E+00         0.00000E+00        -0.21869E+07
 
   -0.22095E+07         0.26747E+07         0.00000E+00
    0.26747E+07        -0.87240E+07         0.00000E+00
    0.00000E+00         0.00000E+00        -0.21867E+07
 
   -0.22078E+07         0.27488E+07         0.00000E+00
    0.27488E+07        -0.87248E+07         0.00000E+00
    0.00000E+00         0.00000E+00        -0.21865E+07
 
   -0.22060E+07         0.28228E+07         0.00000E+00
    0.28228E+07        -0.87256E+07         0.00000E+00
    0.00000E+00         0.00000E+00        -0.21863E+07
 
   -0.22042E+07         0.28970E+07         0.00000E+00
    0.28970E+07        -0.87265E+07         0.00000E+00
    0.00000E+00         0.00000E+00        -0.21861E+07
 
   -0.22024E+07         0.29712E+07         0.00000E+00
    0.29712E+07        -0.87273E+07         0.00000E+00
    0.00000E+00         0.00000E+00        -0.21859E+07
 
   -0.22006E+07         0.30454E+07         0.00000E+00
    0.30454E+07        -0.87282E+07         0.00000E+00
    0.00000E+00         0.00000E+00        -0.21858E+07
 
   -0.21987E+07         0.31197E+07         0.00000E+00
    0.31197E+07        -0.87291E+07         0.00000E+00
    0.00000E+00         0.00000E+00        -0.21856E+07
 
   -0.21968E+07         0.31941E+07         0.00000E+00
    0.31941E+07        -0.87299E+07         0.00000E+00
    0.00000E+00         0.00000E+00        -0.21853E+07
 
   -0.21949E+07         0.32686E+07         0.00000E+00
    0.32686E+07        -0.87308E+07         0.00000E+00
    0.00000E+00         0.00000E+00        -0.21851E+07
 
   -0.21929E+07         0.33431E+07         0.00000E+00
    0.33431E+07        -0.87317E+07         0.00000E+00
    0.00000E+00         0.00000E+00        -0.21849E+07
 
   -0.21910E+07         0.34176E+07         0.00000E+00
    0.34176E+07        -0.87326E+07         0.00000E+00
    0.00000E+00         0.00000E+00        -0.21847E+07
 
   -0.21890E+07         0.34923E+07         0.00000E+00
    0.34923E+07        -0.87335E+07         0.00000E+00
    0.00000E+00         0.00000E+00        -0.21845E+07
 
   -0.21870E+07         0.35669E+07         0.00000E+00
    0.35669E+07        -0.87344E+07         0.00000E+00
    0.00000E+00         0.00000E+00        -0.21843E+07
 
   -0.21850E+07         0.36417E+07         0.00000E+00
    0.36417E+07        -0.87353E+07         0.00000E+00
    0.00000E+00         0.00000E+00        -0.21841E+07
 
   -0.23783E+07         0.36376E+05         0.00000E+00
    0.36376E+05        -0.92079E+07         0.00000E+00
    0.00000E+00         0.00000E+00        -0.23172E+07
 
   -0.23782E+07         0.10913E+06         0.00000E+00
    0.10913E+06        -0.92080E+07         0.00000E+00
    0.00000E+00         0.00000E+00        -0.23172E+07
 
   -0.23782E+07         0.18189E+06         0.00000E+00
    0.18189E+06        -0.92080E+07         0.00000E+00
    0.00000E+00         0.00000E+00        -0.23172E+07
 
   -0.23780E+07         0.25465E+06         0.00000E+00
    0.25465E+06        -0.92081E+07         0.00000E+00
    0.00000E+00         0.00000E+00        -0.23172E+07
 
   -0.23778E+07         0.32743E+06         0.00000E+00
    0.32743E+06        -0.92083E+07         0.00000E+00
    0.00000E+00         0.00000E+00        -0.23172E+07
 
   -0.23775E+07         0.40021E+06         0.00000E+00
    0.40021E+06        -0.92084E+07         0.00000E+00
    0.00000E+00         0.00000E+00        -0.23172E+07
 
   -0.23772E+07         0.47300E+06         0.00000E+00
    0.47300E+06        -0.92086E+07         0.00000E+00
    0.00000E+00         0.00000E+00        -0.23172E+07
 
   -0.23768E+07         0.54580E+06         0.00000E+00
    0.54580E+06        -0.92088E+07         0.00000E+00
    0.00000E+00         0.00000E+00        -0.23171E+07
 
   -0.23763E+07         0.61862E+06         0.00000E+00
    0.61862E+06        -0.92091E+07         0.00000E+00
    0.00000E+00         0.00000E+00        -0.23171E+07
 
   -0.23758E+07         0.69146E+06         0.00000E+00
    0.69146E+06        -0.92094E+07         0.00000E+00
    0.00000E+00         0.00000E+00        -0.23170E+07
 
   -0.23752E+07         0.76431E+06         0.00000E+00
    0.76431E+06        -0.92097E+07         0.00000E+00
    0.00000E+00         0.00000E+00        -0.23170E+07
 
   -0.23745E+07         0.83719E+06         0.00000E+00
    0.83719E+06        -0.92100E+07         0.00000E+00
    0.00000E+00         0.00000E+00        -0.23169E+07
 
   -0.23738E+07         0.91008E+06         0.00000E+00
    0.91008E+06        -0.92104E+07         0.00000E+00
    0.00000E+00         0.00000E+00        -0.23168E+07
 
   -0.23731E+07         0.98300E+06         0.00000E+00
    0.98300E+06        -0.92108E+07         0.00000E+00
    0.00000E+00         0.00000E+00        -0.23168E+07
 
   -0.23722E+07         0.10559E+07         0.00000E+00
    0.10559E+07        -0.92112E+07         0.00000E+00
    0.00000E+00         0.00000E+00        -0.23167E+07
 
   -0.23713E+07         0.11289E+07         0.00000E+00
    0.11289E+07        -0.92117E+07         0.00000E+00
    0.00000E+00         0.00000E+00        -0.23166E+07
 
   -0.23704E+07         0.12019E+07         0.00000E+00
    0.12019E+07        -0.92122E+07         0.00000E+00
    0.00000E+00         0.00000E+00        -0.23165E+07
 
   -0.23693E+07         0.12749E+07         0.00000E+00
    0.12749E+07        -0.92127E+07         0.00000E+00
    0.00000E+00         0.00000E+00        -0.23164E+07
 
   -0.23683E+07         0.13480E+07         0.00000E+00
    0.13480E+07        -0.92132E+07         0.00000E+00
    0.00000E+00         0.00000E+00        -0.23163E+07
 
   -0.23671E+07         0.14211E+07         0.00000E+00
    0.14211E+07        -0.92138E+07         0.00000E+00
    0.00000E+00         0.00000E+00        -0.23162E+07
 
   -0.23660E+07         0.14942E+07         0.00000E+00
    0.14942E+07        -0.92144E+07         0.00000E+00
    0.00000E+00         0.00000E+00        -0.23161E+07
 
   -0.23647E+07         0.15674E+07         0.00000E+00
    0.15674E+07        -0.92150E+07         0.00000E+00
    0.00000E+00         0.00000E+00        -0.23159E+07
 
   -0.23634E+07         0.16406E+07         0.00000E+00
    0.16406E+07        -0.92156E+07         0.00000E+00
    0.00000E+00         0.00000E+00        -0.23158E+07
 
   -0.23621E+07         0.17139E+07         0.00000E+00
    0.17139E+07        -0.92163E+07         0.00000E+00
    0.00000E+00         0.00000E+00        -0.23157E+07
 
   -0.23607E+07         0.17871E+07         0.00000E+00
    0.17871E+07        -0.92170E+07         0.00000E+00
    0.00000E+00         0.00000E+00        -0.23155E+07
 
   -0.23592E+07         0.18605E+07         0.00000E+00
    0.18605E+07        -0.92177E+07         0.00000E+00
    0.00000E+00         0.00000E+00        -0.23154E+07
 
   -0.23577E+07         0.19338E+07         0.00000E+00
    0.19338E+07        -0.92185E+07         0.00000E+00
    0.00000E+00         0.00000E+00        -0.23152E+07
 
   -0.23561E+07         0.20073E+07         0.00000E+00
    0.20073E+07        -0.92192E+07         0.00000E+00
    0.00000E+00         0.00000E+00        -0.23151E+07
 
   -0.23545E+07         0.20807E+07         0.00000E+00
    0.20807E+07        -0.92200E+07         0.00000E+00
    0.00000E+00         0.00000E+00        -0.23149E+07
 
   -0.23529E+07         0.21543E+07         0.00000E+00
    0.21543E+07        -0.92208E+07         0.00000E+00
    0.00000E+00         0.00000E+00        -0.23147E+07
 
   -0.23512E+07         0.22278E+07         0.00000E+00
    0.22278E+07        -0.92217E+07         0.00000E+00
    0.00000E+00         0.00000E+00        -0.23146E+07
 
   -0.23494E+07         0.23014E+07         0.00000E+00
    0.23014E+07        -0.92225E+07         0.00000E+00
    0.00000E+00         0.00000E+00        -0.23144E+07
 
   -0.23476E+07         0.23751E+07         0.00000E+00
    0.23751E+07        -0.92234E+07         0.00000E+00
    0.00000E+00         0.00000E+00        -0.23142E+07
 
   -0.23458E+07         0.24488E+07         0.00000E+00
    0.24488E+07        -0.92243E+07         0.00000E+00
    0.00000E+00         0.00000E+00        -0.23140E+07
 
   -0.23439E+07         0.25226E+07         0.00000E+00
    0.25226E+07        -0.92252E+07         0.00000E+00
    0.00000E+00         0.00000E+00        -0.23138E+07
 
   -0.23420E+07         0.25965E+07         0.00000E+00
    0.25965E+07        -0.92261E+07         0.00000E+00
    0.00000E+00         0.00000E+00        -0.23136E+07
 
   -0.23400E+07         0.26704E+07         0.00000E+00
    0.26704E+07        -0.92270E+07         0.00000E+00
    0.00000E+00         0.00000E+00        -0.23134E+07
 
   -0.23380E+07         0.27443E+07         0.00000E+00
    0.27443E+07        -0.92280E+07         0.00000E+00
    0.00000E+00         0.00000E+00        -0.23132E+07
 
   -0.23359E+07         0.28183E+07         0.00000E+00
    0.28183E+07        -0.92289E+07         0.00000E+00
    0.00000E+00         0.00000E+00        -0.23130E+07
 
   -0.23339E+07         0.28924E+07         0.00000E+00
    0.28924E+07        -0.92299E+07         0.00000E+00
    0.00000E+00         0.00000E+00        -0.23128E+07
 
   -0.23318E+07         0.29666E+07         0.00000E+00
    0.29666E+07        -0.92309E+07         0.00000E+00
    0.00000E+00         0.00000E+00        -0.23125E+07
 
   -0.23296E+07         0.30408E+07         0.00000E+00
    0.30408E+07        -0.92319E+07         0.00000E+00
    0.00000E+00         0.00000E+00        -0.23123E+07
 
   -0.23274E+07         0.31150E+07         0.00000E+00
    0.31150E+07        -0.92329E+07         0.00000E+00
    0.00000E+00         0.00000E+00        -0.23121E+07
 
   -0.23252E+07         0.31894E+07         0.00000E+00
    0.31894E+07        -0.92340E+07         0.00000E+00
    0.00000E+00         0.00000E+00        -0.23118E+07
 
   -0.23230E+07         0.32638E+07         0.00000E+00
    0.32638E+07        -0.92350E+07         0.00000E+00
    0.00000E+00         0.00000E+00        -0.23116E+07
 
   -0.23207E+07         0.33382E+07         0.00000E+00
    0.33382E+07        -0.92360E+07         0.00000E+00
    0.00000E+00         0.00000E+00        -0.23113E+07
 
   -0.23184E+07         0.34128E+07         0.00000E+00
    0.34128E+07        -0.92371E+07         0.00000E+00
    0.00000E+00         0.00000E+00        -0.23111E+07
 
   -0.23161E+07         0.34874E+07         0.00000E+00
    0.34874E+07        -0.92381E+07         0.00000E+00
    0.00000E+00         0.00000E+00        -0.23108E+07
 
   -0.23137E+07         0.35620E+07         0.00000E+00
    0.35620E+07        -0.92392E+07         0.00000E+00
    0.00000E+00         0.00000E+00        -0.23106E+07
 
   -0.23114E+07         0.36368E+07         0.00000E+00
    0.36368E+07        -0.92402E+07         0.00000E+00
    0.00000E+00         0.00000E+00        -0.23103E+07
 
   -0.25153E+07         0.36291E+05         0.00000E+00
    0.36291E+05        -0.97083E+07         0.00000E+00
    0.00000E+00         0.00000E+00        -0.24447E+07
 
   -0.25153E+07         0.10888E+06         0.00000E+00
    0.10888E+06        -0.97084E+07         0.00000E+00
    0.00000E+00         0.00000E+00        -0.24447E+07
 
   -0.25152E+07         0.18147E+06         0.00000E+00
    0.18147E+06        -0.97084E+07         0.00000E+00
    0.00000E+00         0.00000E+00        -0.24447E+07
 
   -0.25150E+07         0.25406E+06         0.00000E+00
    0.25406E+06        -0.97085E+07         0.00000E+00
    0.00000E+00         0.00000E+00        -0.24447E+07
 
   -0.25147E+07         0.32667E+06         0.00000E+00
    0.32667E+06        -0.97087E+07         0.00000E+00
    0.00000E+00         0.00000E+00        -0.24447E+07
 
   -0.25144E+07         0.39928E+06         0.00000E+00
    0.39928E+06        -0.97089E+07         0.00000E+00
    0.00000E+00         0.00000E+00        -0.24447E+07
 
   -0.25140E+07         0.47191E+06         0.00000E+00
    0.47191E+06        -0.97091E+07         0.00000E+00
    0.00000E+00         0.00000E+00        -0.24446E+07
 
   -0.25135E+07         0.54454E+06         0.00000E+00
    0.54454E+06        -0.97093E+07         0.00000E+00
    0.00000E+00         0.00000E+00        -0.24446E+07
 
   -0.25130E+07         0.61720E+06         0.00000E+00
    0.61720E+06        -0.97096E+07         0.00000E+00
    0.00000E+00         0.00000E+00        -0.24445E+07
 
   -0.25123E+07         0.68987E+06         0.00000E+00
    0.68987E+06        -0.97100E+07         0.00000E+00
    0.00000E+00         0.00000E+00        -0.24445E+07
 
   -0.25117E+07         0.76256E+06         0.00000E+00
    0.76256E+06        -0.97103E+07         0.00000E+00
    0.00000E+00         0.00000E+00        -0.24444E+07
 
   -0.25109E+07         0.83528E+06         0.00000E+00
    0.83528E+06        -0.97107E+07         0.00000E+00
    0.00000E+00         0.00000E+00        -0.24443E+07
 
   -0.25101E+07         0.90801E+06         0.00000E+00
    0.90801E+06        -0.97111E+07         0.00000E+00
    0.00000E+00         0.00000E+00        -0.24442E+07
 
   -0.25092E+07         0.98078E+06         0.00000E+00
    0.98078E+06        -0.97116E+07         0.00000E+00
    0.00000E+00         0.00000E+00        -0.24442E+07
 
   -0.25082E+07         0.10536E+07         0.00000E+00
    0.10536E+07        -0.97121E+07         0.00000E+00
    0.00000E+00         0.00000E+00        -0.24441E+07
 
   -0.25072E+07         0.11264E+07         0.00000E+00
    0.11264E+07        -0.97126E+07         0.00000E+00
    0.00000E+00         0.00000E+00        -0.24440E+07
 
   -0.25060E+07         0.11992E+07         0.00000E+00
    0.11992E+07        -0.97132E+07         0.00000E+00
    0.00000E+00         0.00000E+00        -0.24438E+07
 
   -0.25049E+07         0.12721E+07         0.00000E+00
    0.12721E+07        -0.97138E+07         0.00000E+00
    0.00000E+00         0.00000E+00        -0.24437E+07
 
   -0.25036E+07         0.13450E+07         0.00000E+00
    0.13450E+07        -0.97144E+07         0.00000E+00
    0.00000E+00         0.00000E+00        -0.24436E+07
 
   -0.25023E+07         0.14180E+07         0.00000E+00
    0.14180E+07        -0.97150E+07         0.00000E+00
    0.00000E+00         0.00000E+00        -0.24435E+07
 
   -0.25009E+07         0.14910E+07         0.00000E+00
    0.14910E+07        -0.97157E+07         0.00000E+00
    0.00000E+00         0.00000E+00        -0.24433E+07
 
   -0.24995E+07         0.15640E+07         0.00000E+00
    0.15640E+07        -0.97164E+07         0.00000E+00
    0.00000E+00         0.00000E+00        -0.24432E+07
 
   -0.24980E+07         0.16371E+07         0.00000E+00
    0.16371E+07        -0.97172E+07         0.00000E+00
    0.00000E+00         0.00000E+00        -0.24430E+07
 
   -0.24964E+07         0.17102E+07         0.00000E+00
    0.17102E+07        -0.97180E+07         0.00000E+00
    0.00000E+00         0.00000E+00        -0.24429E+07
 
   -0.24948E+07         0.17833E+07         0.00000E+00
    0.17833E+07        -0.97188E+07         0.00000E+00
    0.00000E+00         0.00000E+00        -0.24427E+07
 
   -0.24931E+07         0.18565E+07         0.00000E+00
    0.18565E+07        -0.97196E+07         0.00000E+00
    0.00000E+00         0.00000E+00        -0.24425E+07
 
   -0.24914E+07         0.19298E+07         0.00000E+00
    0.19298E+07        -0.97204E+07         0.00000E+00
    0.00000E+00         0.00000E+00        -0.24424E+07
 
   -0.24896E+07         0.20031E+07         0.00000E+00
    0.20031E+07        -0.97213E+07         0.00000E+00
    0.00000E+00         0.00000E+00        -0.24422E+07
 
   -0.24877E+07         0.20765E+07         0.00000E+00
    0.20765E+07        -0.97222E+07         0.00000E+00
    0.00000E+00         0.00000E+00        -0.24420E+07
 
   -0.24858E+07         0.21499E+07         0.00000E+00
    0.21499E+07        -0.97232E+07         0.00000E+00
    0.00000E+00         0.00000E+00        -0.24418E+07
 
   -0.24838E+07         0.22233E+07         0.00000E+00
    0.22233E+07        -0.97241E+07         0.00000E+00
    0.00000E+00         0.00000E+00        -0.24416E+07
 
   -0.24818E+07         0.22968E+07         0.00000E+00
    0.22968E+07        -0.97251E+07         0.00000E+00
    0.00000E+00         0.00000E+00        -0.24414E+07
 
   -0.24797E+07         0.23704E+07         0.00000E+00
    0.23704E+07        -0.97261E+07         0.00000E+00
    0.00000E+00         0.00000E+00        -0.24412E+07
 
   -0.24776E+07         0.24440E+07         0.00000E+00
    0.24440E+07        -0.97271E+07         0.00000E+00
    0.00000E+00         0.00000E+00        -0.24409E+07
 
   -0.24754E+07         0.25177E+07         0.00000E+00
    0.25177E+07        -0.97282E+07         0.00000E+00
    0.00000E+00         0.00000E+00        -0.24407E+07
 
   -0.24732E+07         0.25915E+07         0.00000E+00
    0.25915E+07        -0.97292E+07         0.00000E+00
    0.00000E+00         0.00000E+00        -0.24405E+07
 
   -0.24709E+07         0.26653E+07         0.00000E+00
    0.26653E+07        -0.97303E+07         0.00000E+00
    0.00000E+00         0.00000E+00        -0.24402E+07
 
   -0.24686E+07         0.27392E+07         0.00000E+00
    0.27392E+07        -0.97314E+07         0.00000E+00
    0.00000E+00         0.00000E+00        -0.24400E+07
 
   -0.24663E+07         0.28131E+07         0.00000E+00
    0.28131E+07        -0.97325E+07         0.00000E+00
    0.00000E+00         0.00000E+00        -0.24398E+07
 
   -0.24639E+07         0.28871E+07         0.00000E+00
    0.28871E+07        -0.97336E+07         0.00000E+00
    0.00000E+00         0.00000E+00        -0.24395E+07
 
   -0.24614E+07         0.29612E+07         0.00000E+00
    0.29612E+07        -0.97348E+07         0.00000E+00
    0.00000E+00         0.00000E+00        -0.24392E+07
 
   -0.24589E+07         0.30353E+07         0.00000E+00
    0.30353E+07        -0.97359E+07         0.00000E+00
    0.00000E+00         0.00000E+00        -0.24390E+07
 
   -0.24564E+07         0.31096E+07         0.00000E+00
    0.31096E+07        -0.97371E+07         0.00000E+00
    0.00000E+00         0.00000E+00        -0.24387E+07
 
   -0.24539E+07         0.31838E+07         0.00000E+00
    0.31838E+07        -0.97383E+07         0.00000E+00
    0.00000E+00         0.00000E+00        -0.24384E+07
 
   -0.24513E+07         0.32582E+07         0.00000E+00
    0.32582E+07        -0.97395E+07         0.00000E+00
    0.00000E+00         0.00000E+00        -0.24382E+07
 
   -0.24487E+07         0.33326E+07         0.00000E+00
    0.33326E+07        -0.97407E+07         0.00000E+00
    0.00000E+00         0.00000E+00        -0.24379E+07
 
   -0.24460E+07         0.34071E+07         0.00000E+00
    0.34071E+07        -0.97419E+07         0.00000E+00
    0.00000E+00         0.00000E+00        -0.24376E+07
 
   -0.24433E+07         0.34817E+07         0.00000E+00
    0.34817E+07        -0.97431E+07         0.00000E+00
    0.00000E+00         0.00000E+00        -0.24373E+07
 
   -0.24406E+07         0.35564E+07         0.00000E+00
    0.35564E+07        -0.97443E+07         0.00000E+00
    0.00000E+00         0.00000E+00        -0.24370E+07
 
   -0.24379E+07         0.36311E+07         0.00000E+00
    0.36311E+07        -0.97455E+07         0.00000E+00
    0.00000E+00         0.00000E+00        -0.24367E+07
 
   -0.26533E+07         0.36194E+05         0.00000E+00
    0.36194E+05        -0.10209E+08         0.00000E+00
    0.00000E+00         0.00000E+00        -0.25724E+07
 
   -0.26532E+07         0.10859E+06         0.00000E+00
    0.10859E+06        -0.10209E+08         0.00000E+00
    0.00000E+00         0.00000E+00        -0.25724E+07
 
   -0.26531E+07         0.18098E+06         0.00000E+00
    0.18098E+06        -0.10209E+08         0.00000E+00
    0.00000E+00         0.00000E+00        -0.25724E+07
 
   -0.26529E+07         0.25339E+06         0.00000E+00
    0.25339E+06        -0.10209E+08         0.00000E+00
    0.00000E+00         0.00000E+00        -0.25724E+07
 
   -0.26526E+07         0.32580E+06         0.00000E+00
    0.32580E+06        -0.10209E+08         0.00000E+00
    0.00000E+00         0.00000E+00        -0.25723E+07
 
   -0.26522E+07         0.39822E+06         0.00000E+00
    0.39822E+06        -0.10209E+08         0.00000E+00
    0.00000E+00         0.00000E+00        -0.25723E+07
 
   -0.26517E+07         0.47065E+06         0.00000E+00
    0.47065E+06        -0.10210E+08         0.00000E+00
    0.00000E+00         0.00000E+00        -0.25723E+07
 
   -0.26512E+07         0.54310E+06         0.00000E+00
    0.54310E+06        -0.10210E+08         0.00000E+00
    0.00000E+00         0.00000E+00        -0.25722E+07
 
   -0.26505E+07         0.61557E+06         0.00000E+00
    0.61557E+06        -0.10210E+08         0.00000E+00
    0.00000E+00         0.00000E+00        -0.25722E+07
 
   -0.26498E+07         0.68806E+06         0.00000E+00
    0.68806E+06        -0.10211E+08         0.00000E+00
    0.00000E+00         0.00000E+00        -0.25721E+07
 
   -0.26490E+07         0.76056E+06         0.00000E+00
    0.76056E+06        -0.10211E+08         0.00000E+00
    0.00000E+00         0.00000E+00        -0.25720E+07
 
   -0.26482E+07         0.83309E+06         0.00000E+00
    0.83309E+06        -0.10211E+08         0.00000E+00
    0.00000E+00         0.00000E+00        -0.25719E+07
 
   -0.26472E+07         0.90565E+06         0.00000E+00
    0.90565E+06        -0.10212E+08         0.00000E+00
    0.00000E+00         0.00000E+00        -0.25718E+07
 
   -0.26462E+07         0.97823E+06         0.00000E+00
    0.97823E+06        -0.10212E+08         0.00000E+00
    0.00000E+00         0.00000E+00        -0.25717E+07
 
   -0.26450E+07         0.10508E+07         0.00000E+00
    0.10508E+07        -0.10213E+08         0.00000E+00
    0.00000E+00         0.00000E+00        -0.25716E+07
 
   -0.26438E+07         0.11235E+07         0.00000E+00
    0.11235E+07        -0.10214E+08         0.00000E+00
    0.00000E+00         0.00000E+00        -0.25715E+07
 
   -0.26426E+07         0.11962E+07         0.00000E+00
    0.11962E+07        -0.10214E+08         0.00000E+00
    0.00000E+00         0.00000E+00        -0.25714E+07
 
   -0.26412E+07         0.12689E+07         0.00000E+00
    0.12689E+07        -0.10215E+08         0.00000E+00
    0.00000E+00         0.00000E+00        -0.25712E+07
 
   -0.26398E+07         0.13416E+07         0.00000E+00
    0.13416E+07        -0.10216E+08         0.00000E+00
    0.00000E+00         0.00000E+00        -0.25711E+07
 
   -0.26383E+07         0.14144E+07         0.00000E+00
    0.14144E+07        -0.10216E+08         0.00000E+00
    0.00000E+00         0.00000E+00        -0.25709E+07
 
   -0.26367E+07         0.14872E+07         0.00000E+00
    0.14872E+07        -0.10217E+08         0.00000E+00
    0.00000E+00         0.00000E+00        -0.25708E+07
 
   -0.26351E+07         0.15601E+07         0.00000E+00
    0.15601E+07        -0.10218E+08         0.00000E+00
    0.00000E+00         0.00000E+00        -0.25706E+07
 
   -0.26334E+07         0.16330E+07         0.00000E+00
    0.16330E+07        -0.10219E+08         0.00000E+00
    0.00000E+00         0.00000E+00        -0.25704E+07
 
   -0.26316E+07         0.17060E+07         0.00000E+00
    0.17060E+07        -0.10220E+08         0.00000E+00
    0.00000E+00         0.00000E+00        -0.25703E+07
 
   -0.26297E+07         0.17790E+07         0.00000E+00
    0.17790E+07        -0.10221E+08         0.00000E+00
    0.00000E+00         0.00000E+00        -0.25701E+07
 
   -0.26278E+07         0.18520E+07         0.00000E+00
    0.18520E+07        -0.10222E+08         0.00000E+00
    0.00000E+00         0.00000E+00        -0.25699E+07
 
   -0.26258E+07         0.19251E+07         0.00000E+00
    0.19251E+07        -0.10223E+08         0.00000E+00
    0.00000E+00         0.00000E+00        -0.25697E+07
 
   -0.26237E+07         0.19983E+07         0.00000E+00
    0.19983E+07        -0.10224E+08         0.00000E+00
    0.00000E+00         0.00000E+00        -0.25695E+07
 
   -0.26216E+07         0.20715E+07         0.00000E+00
    0.20715E+07        -0.10225E+08         0.00000E+00
    0.00000E+00         0.00000E+00        -0.25692E+07
 
   -0.26194E+07         0.21448E+07         0.00000E+00
    0.21448E+07        -0.10226E+08         0.00000E+00
    0.00000E+00         0.00000E+00        -0.25690E+07
 
   -0.26171E+07         0.22181E+07         0.00000E+00
    0.22181E+07        -0.10227E+08         0.00000E+00
    0.00000E+00         0.00000E+00        -0.25688E+07
 
   -0.26148E+07         0.22915E+07         0.00000E+00
    0.22915E+07        -0.10228E+08         0.00000E+00
    0.00000E+00         0.00000E+00        -0.25685E+07
 
   -0.26124E+07         0.23650E+07         0.00000E+00
    0.23650E+07        -0.10229E+08         0.00000E+00
    0.00000E+00         0.00000E+00        -0.25683E+07
 
   -0.26100E+07         0.24385E+07         0.00000E+00
    0.24385E+07        -0.10230E+08         0.00000E+00
    0.00000E+00         0.00000E+00        -0.25680E+07
 
   -0.26075E+07         0.25121E+07         0.00000E+00
    0.25121E+07        -0.10231E+08         0.00000E+00
    0.00000E+00         0.00000E+00        -0.25678E+07
 
   -0.26050E+07         0.25858E+07         0.00000E+00
    0.25858E+07        -0.10233E+08         0.00000E+00
    0.00000E+00         0.00000E+00        -0.25675E+07
 
   -0.26024E+07         0.26595E+07         0.00000E+00
    0.26595E+07        -0.10234E+08         0.00000E+00
    0.00000E+00         0.00000E+00        -0.25672E+07
 
   -0.25997E+07         0.27333E+07         0.00000E+00
    0.27333E+07        -0.10235E+08         0.00000E+00
    0.00000E+00         0.00000E+00        -0.25670E+07
 
   -0.25970E+07         0.28071E+07         0.00000E+00
    0.28071E+07        -0.10236E+08         0.00000E+00
    0.00000E+00         0.00000E+00        -0.25667E+07
 
   -0.25943E+07         0.28811E+07         0.00000E+00
    0.28811E+07        -0.10238E+08         0.00000E+00
    0.00000E+00         0.00000E+00        -0.25664E+07
 
   -0.25915E+07         0.29551E+07         0.00000E+00
    0.29551E+07        -0.10239E+08         0.00000E+00
    0.00000E+00         0.00000E+00        -0.25661E+07
 
   -0.25886E+07         0.30291E+07         0.00000E+00
    0.30291E+07        -0.10240E+08         0.00000E+00
    0.00000E+00         0.00000E+00        -0.25658E+07
 
   -0.25858E+07         0.31033E+07         0.00000E+00
    0.31033E+07        -0.10242E+08         0.00000E+00
    0.00000E+00         0.00000E+00        -0.25655E+07
 
   -0.25828E+07         0.31775E+07         0.00000E+00
    0.31775E+07        -0.10243E+08         0.00000E+00
    0.00000E+00         0.00000E+00        -0.25652E+07
 
   -0.25799E+07         0.32518E+07         0.00000E+00
    0.32518E+07        -0.10244E+08         0.00000E+00
    0.00000E+00         0.00000E+00        -0.25648E+07
 
   -0.25769E+07         0.33262E+07         0.00000E+00
    0.33262E+07        -0.10246E+08         0.00000E+00
    0.00000E+00         0.00000E+00        -0.25645E+07
 
   -0.25738E+07         0.34007E+07         0.00000E+00
    0.34007E+07        -0.10247E+08         0.00000E+00
    0.00000E+00         0.00000E+00        -0.25642E+07
 
   -0.25708E+07         0.34752E+07         0.00000E+00
    0.34752E+07        -0.10248E+08         0.00000E+00
    0.00000E+00         0.00000E+00        -0.25638E+07
 
   -0.25677E+07         0.35498E+07         0.00000E+00
    0.35498E+07        -0.10250E+08         0.00000E+00
    0.00000E+00         0.00000E+00        -0.25635E+07
 
   -0.25646E+07         0.36245E+07         0.00000E+00
    0.36245E+07        -0.10251E+08         0.00000E+00
    0.00000E+00         0.00000E+00        -0.25632E+07
 
   -0.27923E+07         0.36084E+05         0.00000E+00
    0.36084E+05        -0.10709E+08         0.00000E+00
    0.00000E+00         0.00000E+00        -0.27003E+07
 
   -0.27923E+07         0.10826E+06         0.00000E+00
    0.10826E+06        -0.10709E+08         0.00000E+00
    0.00000E+00         0.00000E+00        -0.27003E+07
 
   -0.27921E+07         0.18043E+06         0.00000E+00
    0.18043E+06        -0.10709E+08         0.00000E+00
    0.00000E+00         0.00000E+00        -0.27003E+07
 
   -0.27918E+07         0.25262E+06         0.00000E+00
    0.25262E+06        -0.10710E+08         0.00000E+00
    0.00000E+00         0.00000E+00        -0.27003E+07
 
   -0.27915E+07         0.32481E+06         0.00000E+00
    0.32481E+06        -0.10710E+08         0.00000E+00
    0.00000E+00         0.00000E+00        -0.27002E+07
 
   -0.27911E+07         0.39701E+06         0.00000E+00
    0.39701E+06        -0.10710E+08         0.00000E+00
    0.00000E+00         0.00000E+00        -0.27002E+07
 
   -0.27905E+07         0.46923E+06         0.00000E+00
    0.46923E+06        -0.10710E+08         0.00000E+00
    0.00000E+00         0.00000E+00        -0.27001E+07
 
   -0.27899E+07         0.54147E+06         0.00000E+00
    0.54147E+06        -0.10711E+08         0.00000E+00
    0.00000E+00         0.00000E+00        -0.27001E+07
 
   -0.27892E+07         0.61372E+06         0.00000E+00
    0.61372E+06        -0.10711E+08         0.00000E+00
    0.00000E+00         0.00000E+00        -0.27000E+07
 
   -0.27883E+07         0.68599E+06         0.00000E+00
    0.68599E+06        -0.10711E+08         0.00000E+00
    0.00000E+00         0.00000E+00        -0.26999E+07
 
   -0.27874E+07         0.75829E+06         0.00000E+00
    0.75829E+06        -0.10712E+08         0.00000E+00
    0.00000E+00         0.00000E+00        -0.26998E+07
 
   -0.27864E+07         0.83061E+06         0.00000E+00
    0.83061E+06        -0.10712E+08         0.00000E+00
    0.00000E+00         0.00000E+00        -0.26997E+07
 
   -0.27853E+07         0.90295E+06         0.00000E+00
    0.90295E+06        -0.10713E+08         0.00000E+00
    0.00000E+00         0.00000E+00        -0.26996E+07
 
   -0.27841E+07         0.97533E+06         0.00000E+00
    0.97533E+06        -0.10713E+08         0.00000E+00
    0.00000E+00         0.00000E+00        -0.26995E+07
 
   -0.27829E+07         0.10477E+07         0.00000E+00
    0.10477E+07        -0.10714E+08         0.00000E+00
    0.00000E+00         0.00000E+00        -0.26994E+07
 
   -0.27815E+07         0.11202E+07         0.00000E+00
    0.11202E+07        -0.10715E+08         0.00000E+00
    0.00000E+00         0.00000E+00        -0.26993E+07
 
   -0.27801E+07         0.11927E+07         0.00000E+00
    0.11927E+07        -0.10715E+08         0.00000E+00
    0.00000E+00         0.00000E+00        -0.26991E+07
 
   -0.27785E+07         0.12652E+07         0.00000E+00
    0.12652E+07        -0.10716E+08         0.00000E+00
    0.00000E+00         0.00000E+00        -0.26990E+07
 
   -0.27769E+07         0.13377E+07         0.00000E+00
    0.13377E+07        -0.10717E+08         0.00000E+00
    0.00000E+00         0.00000E+00        -0.26988E+07
 
   -0.27752E+07         0.14103E+07         0.00000E+00
    0.14103E+07        -0.10718E+08         0.00000E+00
    0.00000E+00         0.00000E+00        -0.26986E+07
 
   -0.27734E+07         0.14830E+07         0.00000E+00
    0.14830E+07        -0.10719E+08         0.00000E+00
    0.00000E+00         0.00000E+00        -0.26984E+07
 
   -0.27715E+07         0.15557E+07         0.00000E+00
    0.15557E+07        -0.10720E+08         0.00000E+00
    0.00000E+00         0.00000E+00        -0.26982E+07
 
   -0.27696E+07         0.16284E+07         0.00000E+00
    0.16284E+07        -0.10721E+08         0.00000E+00
    0.00000E+00         0.00000E+00        -0.26980E+07
 
   -0.27675E+07         0.17012E+07         0.00000E+00
    0.17012E+07        -0.10722E+08         0.00000E+00
    0.00000E+00         0.00000E+00        -0.26978E+07
 
   -0.27654E+07         0.17740E+07         0.00000E+00
    0.17740E+07        -0.10723E+08         0.00000E+00
    0.00000E+00         0.00000E+00        -0.26976E+07
 
   -0.27632E+07         0.18469E+07         0.00000E+00
    0.18469E+07        -0.10724E+08         0.00000E+00
    0.00000E+00         0.00000E+00        -0.26974E+07
 
   -0.27609E+07         0.19199E+07         0.00000E+00
    0.19199E+07        -0.10725E+08         0.00000E+00
    0.00000E+00         0.00000E+00        -0.26972E+07
 
   -0.27586E+07         0.19929E+07         0.00000E+00
    0.19929E+07        -0.10726E+08         0.00000E+00
    0.00000E+00         0.00000E+00        -0.26969E+07
 
   -0.27562E+07         0.20659E+07         0.00000E+00
    0.20659E+07        -0.10727E+08         0.00000E+00
    0.00000E+00         0.00000E+00        -0.26967E+07
 
   -0.27537E+07         0.21391E+07         0.00000E+00
    0.21391E+07        -0.10728E+08         0.00000E+00
    0.00000E+00         0.00000E+00        -0.26964E+07
 
   -0.27511E+07         0.22123E+07         0.00000E+00
    0.22123E+07        -0.10730E+08         0.00000E+00
    0.00000E+00         0.00000E+00        -0.26962E+07
 
   -0.27485E+07         0.22855E+07         0.00000E+00
    0.22855E+07        -0.10731E+08         0.00000E+00
    0.00000E+00         0.00000E+00        -0.26959E+07
 
   -0.27458E+07         0.23588E+07         0.00000E+00
    0.23588E+07        -0.10732E+08         0.00000E+00
    0.00000E+00         0.00000E+00        -0.26956E+07
 
   -0.27430E+07         0.24322E+07         0.00000E+00
    0.24322E+07        -0.10734E+08         0.00000E+00
    0.00000E+00         0.00000E+00        -0.26953E+07
 
   -0.27402E+07         0.25057E+07         0.00000E+00
    0.25057E+07        -0.10735E+08         0.00000E+00
    0.00000E+00         0.00000E+00        -0.26950E+07
 
   -0.27373E+07         0.25792E+07         0.00000E+00
    0.25792E+07        -0.10736E+08         0.00000E+00
    0.00000E+00         0.00000E+00        -0.26947E+07
 
   -0.27343E+07         0.26529E+07         0.00000E+00
    0.26529E+07        -0.10738E+08         0.00000E+00
    0.00000E+00         0.00000E+00        -0.26944E+07
 
   -0.27313E+07         0.27265E+07         0.00000E+00
    0.27265E+07        -0.10739E+08         0.00000E+00
    0.00000E+00         0.00000E+00        -0.26941E+07
 
   -0.27282E+07         0.28003E+07         0.00000E+00
    0.28003E+07        -0.10741E+08         0.00000E+00
    0.00000E+00         0.00000E+00        -0.26938E+07
 
   -0.27251E+07         0.28741E+07         0.00000E+00
    0.28741E+07        -0.10742E+08         0.00000E+00
    0.00000E+00         0.00000E+00        -0.26934E+07
 
   -0.27220E+07         0.29481E+07         0.00000E+00
    0.29481E+07        -0.10744E+08         0.00000E+00
    0.00000E+00         0.00000E+00        -0.26931E+07
 
   -0.27187E+07         0.30220E+07         0.00000E+00
    0.30220E+07        -0.10745E+08         0.00000E+00
    0.00000E+00         0.00000E+00        -0.26927E+07
 
   -0.27154E+07         0.30961E+07         0.00000E+00
    0.30961E+07        -0.10747E+08         0.00000E+00
    0.00000E+00         0.00000E+00        -0.26924E+07
 
   -0.27121E+07         0.31703E+07         0.00000E+00
    0.31703E+07        -0.10748E+08         0.00000E+00
    0.00000E+00         0.00000E+00        -0.26920E+07
 
   -0.27088E+07         0.32445E+07         0.00000E+00
    0.32445E+07        -0.10750E+08         0.00000E+00
    0.00000E+00         0.00000E+00        -0.26917E+07
 
   -0.27054E+07         0.33189E+07         0.00000E+00
    0.33189E+07        -0.10751E+08         0.00000E+00
    0.00000E+00         0.00000E+00        -0.26913E+07
 
   -0.27019E+07         0.33933E+07         0.00000E+00
    0.33933E+07        -0.10753E+08         0.00000E+00
    0.00000E+00         0.00000E+00        -0.26909E+07
 
   -0.26984E+07         0.34678E+07         0.00000E+00
    0.34678E+07        -0.10754E+08         0.00000E+00
    0.00000E+00         0.00000E+00        -0.26905E+07
 
   -0.26949E+07         0.35424E+07         0.00000E+00
    0.35424E+07        -0.10756E+08         0.00000E+00
    0.00000E+00         0.00000E+00        -0.26902E+07
 
   -0.26914E+07         0.36171E+07         0.00000E+00
    0.36171E+07        -0.10757E+08         0.00000E+00
    0.00000E+00         0.00000E+00        -0.26898E+07
 
   -0.29326E+07         0.35960E+05         0.00000E+00
    0.35960E+05        -0.11210E+08         0.00000E+00
    0.00000E+00         0.00000E+00        -0.28285E+07
 
   -0.29325E+07         0.10788E+06         0.00000E+00
    0.10788E+06        -0.11210E+08         0.00000E+00
    0.00000E+00         0.00000E+00        -0.28285E+07
 
   -0.29323E+07         0.17981E+06         0.00000E+00
    0.17981E+06        -0.11210E+08         0.00000E+00
    0.00000E+00         0.00000E+00        -0.28284E+07
 
   -0.29320E+07         0.25175E+06         0.00000E+00
    0.25175E+06        -0.11210E+08         0.00000E+00
    0.00000E+00         0.00000E+00        -0.28284E+07
 
   -0.29316E+07         0.32369E+06         0.00000E+00
    0.32369E+06        -0.11210E+08         0.00000E+00
    0.00000E+00         0.00000E+00        -0.28284E+07
 
   -0.29311E+07         0.39565E+06         0.00000E+00
    0.39565E+06        -0.11211E+08         0.00000E+00
    0.00000E+00         0.00000E+00        -0.28283E+07
 
   -0.29305E+07         0.46762E+06         0.00000E+00
    0.46762E+06        -0.11211E+08         0.00000E+00
    0.00000E+00         0.00000E+00        -0.28283E+07
 
   -0.29298E+07         0.53961E+06         0.00000E+00
    0.53961E+06        -0.11211E+08         0.00000E+00
    0.00000E+00         0.00000E+00        -0.28282E+07
 
   -0.29289E+07         0.61162E+06         0.00000E+00
    0.61162E+06        -0.11212E+08         0.00000E+00
    0.00000E+00         0.00000E+00        -0.28281E+07
 
   -0.29280E+07         0.68366E+06         0.00000E+00
    0.68366E+06        -0.11212E+08         0.00000E+00
    0.00000E+00         0.00000E+00        -0.28280E+07
 
   -0.29270E+07         0.75571E+06         0.00000E+00
    0.75571E+06        -0.11213E+08         0.00000E+00
    0.00000E+00         0.00000E+00        -0.28279E+07
 
   -0.29258E+07         0.82779E+06         0.00000E+00
    0.82779E+06        -0.11213E+08         0.00000E+00
    0.00000E+00         0.00000E+00        -0.28278E+07
 
   -0.29246E+07         0.89991E+06         0.00000E+00
    0.89991E+06        -0.11214E+08         0.00000E+00
    0.00000E+00         0.00000E+00        -0.28277E+07
 
   -0.29233E+07         0.97205E+06         0.00000E+00
    0.97205E+06        -0.11214E+08         0.00000E+00
    0.00000E+00         0.00000E+00        -0.28276E+07
 
   -0.29218E+07         0.10442E+07         0.00000E+00
    0.10442E+07        -0.11215E+08         0.00000E+00
    0.00000E+00         0.00000E+00        -0.28274E+07
 
   -0.29203E+07         0.11164E+07         0.00000E+00
    0.11164E+07        -0.11216E+08         0.00000E+00
    0.00000E+00         0.00000E+00        -0.28273E+07
 
   -0.29186E+07         0.11887E+07         0.00000E+00
    0.11887E+07        -0.11217E+08         0.00000E+00
    0.00000E+00         0.00000E+00        -0.28271E+07
 
   -0.29169E+07         0.12610E+07         0.00000E+00
    0.12610E+07        -0.11218E+08         0.00000E+00
    0.00000E+00         0.00000E+00        -0.28269E+07
 
   -0.29151E+07         0.13333E+07         0.00000E+00
    0.13333E+07        -0.11219E+08         0.00000E+00
    0.00000E+00         0.00000E+00        -0.28267E+07
 
   -0.29131E+07         0.14057E+07         0.00000E+00
    0.14057E+07        -0.11220E+08         0.00000E+00
    0.00000E+00         0.00000E+00        -0.28265E+07
 
   -0.29111E+07         0.14781E+07         0.00000E+00
    0.14781E+07        -0.11221E+08         0.00000E+00
    0.00000E+00         0.00000E+00        -0.28263E+07
 
   -0.29090E+07         0.15506E+07         0.00000E+00
    0.15506E+07        -0.11222E+08         0.00000E+00
    0.00000E+00         0.00000E+00        -0.28261E+07
 
   -0.29068E+07         0.16232E+07         0.00000E+00
    0.16232E+07        -0.11223E+08         0.00000E+00
    0.00000E+00         0.00000E+00        -0.28259E+07
 
   -0.29044E+07         0.16958E+07         0.00000E+00
    0.16958E+07        -0.11224E+08         0.00000E+00
    0.00000E+00         0.00000E+00        -0.28256E+07
 
   -0.29021E+07         0.17684E+07         0.00000E+00
    0.17684E+07        -0.11225E+08         0.00000E+00
    0.00000E+00         0.00000E+00        -0.28254E+07
 
   -0.28996E+07         0.18411E+07         0.00000E+00
    0.18411E+07        -0.11226E+08         0.00000E+00
    0.00000E+00         0.00000E+00        -0.28251E+07
 
   -0.28970E+07         0.19139E+07         0.00000E+00
    0.19139E+07        -0.11227E+08         0.00000E+00
    0.00000E+00         0.00000E+00        -0.28249E+07
 
   -0.28943E+07         0.19867E+07         0.00000E+00
    0.19867E+07        -0.11229E+08         0.00000E+00
    0.00000E+00         0.00000E+00        -0.28246E+07
 
   -0.28916E+07         0.20596E+07         0.00000E+00
    0.20596E+07        -0.11230E+08         0.00000E+00
    0.00000E+00         0.00000E+00        -0.28243E+07
 
   -0.28888E+07         0.21326E+07         0.00000E+00
    0.21326E+07        -0.11231E+08         0.00000E+00
    0.00000E+00         0.00000E+00        -0.28240E+07
 
   -0.28859E+07         0.22056E+07         0.00000E+00
    0.22056E+07        -0.11233E+08         0.00000E+00
    0.00000E+00         0.00000E+00        -0.28237E+07
 
   -0.28829E+07         0.22787E+07         0.00000E+00
    0.22787E+07        -0.11234E+08         0.00000E+00
    0.00000E+00         0.00000E+00        -0.28234E+07
 
   -0.28798E+07         0.23519E+07         0.00000E+00
    0.23519E+07        -0.11236E+08         0.00000E+00
    0.00000E+00         0.00000E+00        -0.28231E+07
 
   -0.28767E+07         0.24251E+07         0.00000E+00
    0.24251E+07        -0.11237E+08         0.00000E+00
    0.00000E+00         0.00000E+00        -0.28228E+07
 
   -0.28735E+07         0.24985E+07         0.00000E+00
    0.24985E+07        -0.11239E+08         0.00000E+00
    0.00000E+00         0.00000E+00        -0.28224E+07
 
   -0.28702E+07         0.25719E+07         0.00000E+00
    0.25719E+07        -0.11240E+08         0.00000E+00
    0.00000E+00         0.00000E+00        -0.28221E+07
 
   -0.28669E+07         0.26453E+07         0.00000E+00
    0.26453E+07        -0.11242E+08         0.00000E+00
    0.00000E+00         0.00000E+00        -0.28218E+07
 
   -0.28635E+07         0.27189E+07         0.00000E+00
    0.27189E+07        -0.11243E+08         0.00000E+00
    0.00000E+00         0.00000E+00        -0.28214E+07
 
   -0.28600E+07         0.27926E+07         0.00000E+00
    0.27926E+07        -0.11245E+08         0.00000E+00
    0.00000E+00         0.00000E+00        -0.28210E+07
 
   -0.28565E+07         0.28663E+07         0.00000E+00
    0.28663E+07        -0.11247E+08         0.00000E+00
    0.00000E+00         0.00000E+00        -0.28207E+07
 
   -0.28529E+07         0.29401E+07         0.00000E+00
    0.29401E+07        -0.11248E+08         0.00000E+00
    0.00000E+00         0.00000E+00        -0.28203E+07
 
   -0.28493E+07         0.30140E+07         0.00000E+00
    0.30140E+07        -0.11250E+08         0.00000E+00
    0.00000E+00         0.00000E+00        -0.28199E+07
 
   -0.28456E+07         0.30880E+07         0.00000E+00
    0.30880E+07        -0.11252E+08         0.00000E+00
    0.00000E+00         0.00000E+00        -0.28195E+07
 
   -0.28418E+07         0.31621E+07         0.00000E+00
    0.31621E+07        -0.11254E+08         0.00000E+00
    0.00000E+00         0.00000E+00        -0.28191E+07
 
   -0.28380E+07         0.32363E+07         0.00000E+00
    0.32363E+07        -0.11255E+08         0.00000E+00
    0.00000E+00         0.00000E+00        -0.28187E+07
 
   -0.28341E+07         0.33106E+07         0.00000E+00
    0.33106E+07        -0.11257E+08         0.00000E+00
    0.00000E+00         0.00000E+00        -0.28182E+07
 
   -0.28302E+07         0.33849E+07         0.00000E+00
    0.33849E+07        -0.11259E+08         0.00000E+00
    0.00000E+00         0.00000E+00        -0.28178E+07
 
   -0.28263E+07         0.34594E+07         0.00000E+00
    0.34594E+07        -0.11261E+08         0.00000E+00
    0.00000E+00         0.00000E+00        -0.28174E+07
 
   -0.28223E+07         0.35339E+07         0.00000E+00
    0.35339E+07        -0.11262E+08         0.00000E+00
    0.00000E+00         0.00000E+00        -0.28170E+07
 
   -0.28183E+07         0.36086E+07         0.00000E+00
    0.36086E+07        -0.11264E+08         0.00000E+00
    0.00000E+00         0.00000E+00        -0.28165E+07
 
   -0.30742E+07         0.35820E+05         0.00000E+00
    0.35820E+05        -0.11710E+08         0.00000E+00
    0.00000E+00         0.00000E+00        -0.29569E+07
 
   -0.30741E+07         0.10746E+06         0.00000E+00
    0.10746E+06        -0.11710E+08         0.00000E+00
    0.00000E+00         0.00000E+00        -0.29569E+07
 
   -0.30739E+07         0.17911E+06         0.00000E+00
    0.17911E+06        -0.11710E+08         0.00000E+00
    0.00000E+00         0.00000E+00        -0.29569E+07
 
   -0.30736E+07         0.25077E+06         0.00000E+00
    0.25077E+06        -0.11711E+08         0.00000E+00
    0.00000E+00         0.00000E+00        -0.29568E+07
 
   -0.30731E+07         0.32244E+06         0.00000E+00
    0.32244E+06        -0.11711E+08         0.00000E+00
    0.00000E+00         0.00000E+00        -0.29568E+07
 
   -0.30725E+07         0.39412E+06         0.00000E+00
    0.39412E+06        -0.11711E+08         0.00000E+00
    0.00000E+00         0.00000E+00        -0.29567E+07
 
   -0.30718E+07         0.46581E+06         0.00000E+00
    0.46581E+06        -0.11712E+08         0.00000E+00
    0.00000E+00         0.00000E+00        -0.29567E+07
 
   -0.30710E+07         0.53753E+06         0.00000E+00
    0.53753E+06        -0.11712E+08         0.00000E+00
    0.00000E+00         0.00000E+00        -0.29566E+07
 
   -0.30701E+07         0.60927E+06         0.00000E+00
    0.60927E+06        -0.11712E+08         0.00000E+00
    0.00000E+00         0.00000E+00        -0.29565E+07
 
   -0.30690E+07         0.68103E+06         0.00000E+00
    0.68103E+06        -0.11713E+08         0.00000E+00
    0.00000E+00         0.00000E+00        -0.29564E+07
 
   -0.30679E+07         0.75281E+06         0.00000E+00
    0.75281E+06        -0.11714E+08         0.00000E+00
    0.00000E+00         0.00000E+00        -0.29563E+07
 
   -0.30666E+07         0.82463E+06         0.00000E+00
    0.82463E+06        -0.11714E+08         0.00000E+00
    0.00000E+00         0.00000E+00        -0.29561E+07
 
   -0.30652E+07         0.89648E+06         0.00000E+00
    0.89648E+06        -0.11715E+08         0.00000E+00
    0.00000E+00         0.00000E+00        -0.29560E+07
 
   -0.30637E+07         0.96836E+06         0.00000E+00
    0.96836E+06        -0.11716E+08         0.00000E+00
    0.00000E+00         0.00000E+00        -0.29559E+07
 
   -0.30620E+07         0.10403E+07         0.00000E+00
    0.10403E+07        -0.11716E+08         0.00000E+00
    0.00000E+00         0.00000E+00        -0.29557E+07
 
   -0.30603E+07         0.11122E+07         0.00000E+00
    0.11122E+07        -0.11717E+08         0.00000E+00
    0.00000E+00         0.00000E+00        -0.29555E+07
 
   -0.30584E+07         0.11842E+07         0.00000E+00
    0.11842E+07        -0.11718E+08         0.00000E+00
    0.00000E+00         0.00000E+00        -0.29553E+07
 
   -0.30565E+07         0.12563E+07         0.00000E+00
    0.12563E+07        -0.11719E+08         0.00000E+00
    0.00000E+00         0.00000E+00        -0.29551E+07
 
   -0.30544E+07         0.13284E+07         0.00000E+00
    0.13284E+07        -0.11720E+08         0.00000E+00
    0.00000E+00         0.00000E+00        -0.29549E+07
 
   -0.30522E+07         0.14005E+07         0.00000E+00
    0.14005E+07        -0.11721E+08         0.00000E+00
    0.00000E+00         0.00000E+00        -0.29547E+07
 
   -0.30499E+07         0.14727E+07         0.00000E+00
    0.14727E+07        -0.11722E+08         0.00000E+00
    0.00000E+00         0.00000E+00        -0.29545E+07
 
   -0.30475E+07         0.15450E+07         0.00000E+00
    0.15450E+07        -0.11724E+08         0.00000E+00
    0.00000E+00         0.00000E+00        -0.29542E+07
 
   -0.30450E+07         0.16173E+07         0.00000E+00
    0.16173E+07        -0.11725E+08         0.00000E+00
    0.00000E+00         0.00000E+00        -0.29540E+07
 
   -0.30424E+07         0.16896E+07         0.00000E+00
    0.16896E+07        -0.11726E+08         0.00000E+00
    0.00000E+00         0.00000E+00        -0.29537E+07
 
   -0.30397E+07         0.17621E+07         0.00000E+00
    0.17621E+07        -0.11727E+08         0.00000E+00
    0.00000E+00         0.00000E+00        -0.29534E+07
 
   -0.30369E+07         0.18346E+07         0.00000E+00
    0.18346E+07        -0.11729E+08         0.00000E+00
    0.00000E+00         0.00000E+00        -0.29531E+07
 
   -0.30341E+07         0.19071E+07         0.00000E+00
    0.19071E+07        -0.11730E+08         0.00000E+00
    0.00000E+00         0.00000E+00        -0.29528E+07
 
   -0.30311E+07         0.19798E+07         0.00000E+00
    0.19798E+07        -0.11732E+08         0.00000E+00
    0.00000E+00         0.00000E+00        -0.29525E+07
 
   -0.30280E+07         0.20525E+07         0.00000E+00
    0.20525E+07        -0.11733E+08         0.00000E+00
    0.00000E+00         0.00000E+00        -0.29522E+07
 
   -0.30248E+07         0.21252E+07         0.00000E+00
    0.21252E+07        -0.11735E+08         0.00000E+00
    0.00000E+00         0.00000E+00        -0.29519E+07
 
   -0.30215E+07         0.21981E+07         0.00000E+00
    0.21981E+07        -0.11736E+08         0.00000E+00
    0.00000E+00         0.00000E+00        -0.29516E+07
 
   -0.30182E+07         0.22710E+07         0.00000E+00
    0.22710E+07        -0.11738E+08         0.00000E+00
    0.00000E+00         0.00000E+00        -0.29512E+07
 
   -0.30147E+07         0.23440E+07         0.00000E+00
    0.23440E+07        -0.11739E+08         0.00000E+00
    0.00000E+00         0.00000E+00        -0.29508E+07
 
   -0.30112E+07         0.24171E+07         0.00000E+00
    0.24171E+07        -0.11741E+08         0.00000E+00
    0.00000E+00         0.00000E+00        -0.29505E+07
 
   -0.30076E+07         0.24903E+07         0.00000E+00
    0.24903E+07        -0.11743E+08         0.00000E+00
    0.00000E+00         0.00000E+00        -0.29501E+07
 
   -0.30039E+07         0.25635E+07         0.00000E+00
    0.25635E+07        -0.11745E+08         0.00000E+00
    0.00000E+00         0.00000E+00        -0.29497E+07
 
   -0.30002E+07         0.26369E+07         0.00000E+00
    0.26369E+07        -0.11746E+08         0.00000E+00
    0.00000E+00         0.00000E+00        -0.29493E+07
 
   -0.29963E+07         0.27103E+07         0.00000E+00
    0.27103E+07        -0.11748E+08         0.00000E+00
    0.00000E+00         0.00000E+00        -0.29489E+07
 
   -0.29924E+07         0.27838E+07         0.00000E+00
    0.27838E+07        -0.11750E+08         0.00000E+00
    0.00000E+00         0.00000E+00        -0.29485E+07
 
   -0.29884E+07         0.28575E+07         0.00000E+00
    0.28575E+07        -0.11752E+08         0.00000E+00
    0.00000E+00         0.00000E+00        -0.29481E+07
 
   -0.29844E+07         0.29312E+07         0.00000E+00
    0.29312E+07        -0.11754E+08         0.00000E+00
    0.00000E+00         0.00000E+00        -0.29476E+07
 
   -0.29803E+07         0.30050E+07         0.00000E+00
    0.30050E+07        -0.11756E+08         0.00000E+00
    0.00000E+00         0.00000E+00        -0.29472E+07
 
   -0.29761E+07         0.30789E+07         0.00000E+00
    0.30789E+07        -0.11758E+08         0.00000E+00
    0.00000E+00         0.00000E+00        -0.29468E+07
 
   -0.29719E+07         0.31529E+07         0.00000E+00
    0.31529E+07        -0.11760E+08         0.00000E+00
    0.00000E+00         0.00000E+00        -0.29463E+07
 
   -0.29676E+07         0.32270E+07         0.00000E+00
    0.32270E+07        -0.11762E+08         0.00000E+00
    0.00000E+00         0.00000E+00        -0.29458E+07
 
   -0.29633E+07         0.33012E+07         0.00000E+00
    0.33012E+07        -0.11764E+08         0.00000E+00
    0.00000E+00         0.00000E+00        -0.29454E+07
 
   -0.29589E+07         0.33755E+07         0.00000E+00
    0.33755E+07        -0.11766E+08         0.00000E+00
    0.00000E+00         0.00000E+00        -0.29449E+07
 
   -0.29544E+07         0.34499E+07         0.00000E+00
    0.34499E+07        -0.11768E+08         0.00000E+00
    0.00000E+00         0.00000E+00        -0.29444E+07
 
   -0.29500E+07         0.35244E+07         0.00000E+00
    0.35244E+07        -0.11770E+08         0.00000E+00
    0.00000E+00         0.00000E+00        -0.29439E+07
 
   -0.29454E+07         0.35990E+07         0.00000E+00
    0.35990E+07        -0.11772E+08         0.00000E+00
    0.00000E+00         0.00000E+00        -0.29434E+07
 
   -0.32174E+07         0.35664E+05         0.00000E+00
    0.35664E+05        -0.12211E+08         0.00000E+00
    0.00000E+00         0.00000E+00        -0.30856E+07
 
   -0.32173E+07         0.10699E+06         0.00000E+00
    0.10699E+06        -0.12211E+08         0.00000E+00
    0.00000E+00         0.00000E+00        -0.30856E+07
 
   -0.32170E+07         0.17833E+06         0.00000E+00
    0.17833E+06        -0.12211E+08         0.00000E+00
    0.00000E+00         0.00000E+00        -0.30856E+07
 
   -0.32166E+07         0.24967E+06         0.00000E+00
    0.24967E+06        -0.12211E+08         0.00000E+00
    0.00000E+00         0.00000E+00        -0.30856E+07
 
   -0.32161E+07         0.32103E+06         0.00000E+00
    0.32103E+06        -0.12212E+08         0.00000E+00
    0.00000E+00         0.00000E+00        -0.30855E+07
 
   -0.32154E+07         0.39240E+06         0.00000E+00
    0.39240E+06        -0.12212E+08         0.00000E+00
    0.00000E+00         0.00000E+00        -0.30855E+07
 
   -0.32146E+07         0.46378E+06         0.00000E+00
    0.46378E+06        -0.12212E+08         0.00000E+00
    0.00000E+00         0.00000E+00        -0.30854E+07
 
   -0.32137E+07         0.53519E+06         0.00000E+00
    0.53519E+06        -0.12213E+08         0.00000E+00
    0.00000E+00         0.00000E+00        -0.30853E+07
 
   -0.32127E+07         0.60662E+06         0.00000E+00
    0.60662E+06        -0.12213E+08         0.00000E+00
    0.00000E+00         0.00000E+00        -0.30852E+07
 
   -0.32115E+07         0.67808E+06         0.00000E+00
    0.67808E+06        -0.12214E+08         0.00000E+00
    0.00000E+00         0.00000E+00        -0.30851E+07
 
   -0.32102E+07         0.74956E+06         0.00000E+00
    0.74956E+06        -0.12215E+08         0.00000E+00
    0.00000E+00         0.00000E+00        -0.30849E+07
 
   -0.32087E+07         0.82108E+06         0.00000E+00
    0.82108E+06        -0.12215E+08         0.00000E+00
    0.00000E+00         0.00000E+00        -0.30848E+07
 
   -0.32072E+07         0.89263E+06         0.00000E+00
    0.89263E+06        -0.12216E+08         0.00000E+00
    0.00000E+00         0.00000E+00        -0.30846E+07
 
   -0.32055E+07         0.96421E+06         0.00000E+00
    0.96421E+06        -0.12217E+08         0.00000E+00
    0.00000E+00         0.00000E+00        -0.30845E+07
 
   -0.32036E+07         0.10358E+07         0.00000E+00
    0.10358E+07        -0.12218E+08         0.00000E+00
    0.00000E+00         0.00000E+00        -0.30843E+07
 
   -0.32017E+07         0.11075E+07         0.00000E+00
    0.11075E+07        -0.12219E+08         0.00000E+00
    0.00000E+00         0.00000E+00        -0.30841E+07
 
   -0.31996E+07         0.11792E+07         0.00000E+00
    0.11792E+07        -0.12220E+08         0.00000E+00
    0.00000E+00         0.00000E+00        -0.30839E+07
 
   -0.31974E+07         0.12510E+07         0.00000E+00
    0.12510E+07        -0.12221E+08         0.00000E+00
    0.00000E+00         0.00000E+00        -0.30836E+07
 
   -0.31951E+07         0.13228E+07         0.00000E+00
    0.13228E+07        -0.12222E+08         0.00000E+00
    0.00000E+00         0.00000E+00        -0.30834E+07
 
   -0.31926E+07         0.13947E+07         0.00000E+00
    0.13947E+07        -0.12223E+08         0.00000E+00
    0.00000E+00         0.00000E+00        -0.30832E+07
 
   -0.31901E+07         0.14666E+07         0.00000E+00
    0.14666E+07        -0.12224E+08         0.00000E+00
    0.00000E+00         0.00000E+00        -0.30829E+07
 
   -0.31874E+07         0.15386E+07         0.00000E+00
    0.15386E+07        -0.12226E+08         0.00000E+00
    0.00000E+00         0.00000E+00        -0.30826E+07
 
   -0.31846E+07         0.16107E+07         0.00000E+00
    0.16107E+07        -0.12227E+08         0.00000E+00
    0.00000E+00         0.00000E+00        -0.30823E+07
 
   -0.31816E+07         0.16828E+07         0.00000E+00
    0.16828E+07        -0.12229E+08         0.00000E+00
    0.00000E+00         0.00000E+00        -0.30820E+07
 
   -0.31786E+07         0.17550E+07         0.00000E+00
    0.17550E+07        -0.12230E+08         0.00000E+00
    0.00000E+00         0.00000E+00        -0.30817E+07
 
   -0.31755E+07         0.18272E+07         0.00000E+00
    0.18272E+07        -0.12232E+08         0.00000E+00
    0.00000E+00         0.00000E+00        -0.30814E+07
 
   -0.31722E+07         0.18996E+07         0.00000E+00
    0.18996E+07        -0.12233E+08         0.00000E+00
    0.00000E+00         0.00000E+00        -0.30811E+07
 
   -0.31689E+07         0.19720E+07         0.00000E+00
    0.19720E+07        -0.12235E+08         0.00000E+00
    0.00000E+00         0.00000E+00        -0.30807E+07
 
   -0.31654E+07         0.20444E+07         0.00000E+00
    0.20444E+07        -0.12236E+08         0.00000E+00
    0.00000E+00         0.00000E+00        -0.30804E+07
 
   -0.31618E+07         0.21170E+07         0.00000E+00
    0.21170E+07        -0.12238E+08         0.00000E+00
    0.00000E+00         0.00000E+00        -0.30800E+07
 
   -0.31582E+07         0.21897E+07         0.00000E+00
    0.21897E+07        -0.12240E+08         0.00000E+00
    0.00000E+00         0.00000E+00        -0.30796E+07
 
   -0.31544E+07         0.22624E+07         0.00000E+00
    0.22624E+07        -0.12242E+08         0.00000E+00
    0.00000E+00         0.00000E+00        -0.30792E+07
 
   -0.31505E+07         0.23352E+07         0.00000E+00
    0.23352E+07        -0.12244E+08         0.00000E+00
    0.00000E+00         0.00000E+00        -0.30788E+07
 
   -0.31466E+07         0.24081E+07         0.00000E+00
    0.24081E+07        -0.12246E+08         0.00000E+00
    0.00000E+00         0.00000E+00        -0.30784E+07
 
   -0.31425E+07         0.24811E+07         0.00000E+00
    0.24811E+07        -0.12247E+08         0.00000E+00
    0.00000E+00         0.00000E+00        -0.30780E+07
 
   -0.31384E+07         0.25542E+07         0.00000E+00
    0.25542E+07        -0.12249E+08         0.00000E+00
    0.00000E+00         0.00000E+00        -0.30776E+07
 
   -0.31342E+07         0.26274E+07         0.00000E+00
    0.26274E+07        -0.12251E+08         0.00000E+00
    0.00000E+00         0.00000E+00        -0.30771E+07
 
   -0.31299E+07         0.27007E+07         0.00000E+00
    0.27007E+07        -0.12253E+08         0.00000E+00
    0.00000E+00         0.00000E+00        -0.30767E+07
 
   -0.31255E+07         0.27740E+07         0.00000E+00
    0.27740E+07        -0.12255E+08         0.00000E+00
    0.00000E+00         0.00000E+00        -0.30762E+07
 
   -0.31210E+07         0.28475E+07         0.00000E+00
    0.28475E+07        -0.12258E+08         0.00000E+00
    0.00000E+00         0.00000E+00        -0.30757E+07
 
   -0.31165E+07         0.29211E+07         0.00000E+00
    0.29211E+07        -0.12260E+08         0.00000E+00
    0.00000E+00         0.00000E+00        -0.30752E+07
 
   -0.31119E+07         0.29948E+07         0.00000E+00
    0.29948E+07        -0.12262E+08         0.00000E+00
    0.00000E+00         0.00000E+00        -0.30747E+07
 
   -0.31072E+07         0.30686E+07         0.00000E+00
    0.30686E+07        -0.12264E+08         0.00000E+00
    0.00000E+00         0.00000E+00        -0.30742E+07
 
   -0.31025E+07         0.31425E+07         0.00000E+00
    0.31425E+07        -0.12266E+08         0.00000E+00
    0.00000E+00         0.00000E+00        -0.30737E+07
 
   -0.30976E+07         0.32165E+07         0.00000E+00
    0.32165E+07        -0.12268E+08         0.00000E+00
    0.00000E+00         0.00000E+00        -0.30732E+07
 
   -0.30928E+07         0.32906E+07         0.00000E+00
    0.32906E+07        -0.12271E+08         0.00000E+00
    0.00000E+00         0.00000E+00        -0.30727E+07
 
   -0.30878E+07         0.33649E+07         0.00000E+00
    0.33649E+07        -0.12273E+08         0.00000E+00
    0.00000E+00         0.00000E+00        -0.30721E+07
 
   -0.30829E+07         0.34392E+07         0.00000E+00
    0.34392E+07        -0.12275E+08         0.00000E+00
    0.00000E+00         0.00000E+00        -0.30716E+07
 
   -0.30778E+07         0.35137E+07         0.00000E+00
    0.35137E+07        -0.12277E+08         0.00000E+00
    0.00000E+00         0.00000E+00        -0.30710E+07
 
   -0.30728E+07         0.35883E+07         0.00000E+00
    0.35883E+07        -0.12280E+08         0.00000E+00
    0.00000E+00         0.00000E+00        -0.30705E+07
 
   -0.33622E+07         0.35488E+05         0.00000E+00
    0.35488E+05        -0.12711E+08         0.00000E+00
    0.00000E+00         0.00000E+00        -0.32147E+07
 
   -0.33621E+07         0.10647E+06         0.00000E+00
    0.10647E+06        -0.12712E+08         0.00000E+00
    0.00000E+00         0.00000E+00        -0.32147E+07
 
   -0.33618E+07         0.17745E+06         0.00000E+00
    0.17745E+06        -0.12712E+08         0.00000E+00
    0.00000E+00         0.00000E+00        -0.32147E+07
 
   -0.33614E+07         0.24845E+06         0.00000E+00
    0.24845E+06        -0.12712E+08         0.00000E+00
    0.00000E+00         0.00000E+00        -0.32147E+07
 
   -0.33608E+07         0.31945E+06         0.00000E+00
    0.31945E+06        -0.12712E+08         0.00000E+00
    0.00000E+00         0.00000E+00        -0.32146E+07
 
   -0.33600E+07         0.39047E+06         0.00000E+00
    0.39047E+06        -0.12713E+08         0.00000E+00
    0.00000E+00         0.00000E+00        -0.32145E+07
 
   -0.33592E+07         0.46151E+06         0.00000E+00
    0.46151E+06        -0.12713E+08         0.00000E+00
    0.00000E+00         0.00000E+00        -0.32144E+07
 
   -0.33581E+07         0.53257E+06         0.00000E+00
    0.53257E+06        -0.12714E+08         0.00000E+00
    0.00000E+00         0.00000E+00        -0.32143E+07
 
   -0.33569E+07         0.60366E+06         0.00000E+00
    0.60366E+06        -0.12714E+08         0.00000E+00
    0.00000E+00         0.00000E+00        -0.32142E+07
 
   -0.33556E+07         0.67477E+06         0.00000E+00
    0.67477E+06        -0.12715E+08         0.00000E+00
    0.00000E+00         0.00000E+00        -0.32141E+07
 
   -0.33541E+07         0.74592E+06         0.00000E+00
    0.74592E+06        -0.12716E+08         0.00000E+00
    0.00000E+00         0.00000E+00        -0.32139E+07
 
   -0.33525E+07         0.81710E+06         0.00000E+00
    0.81710E+06        -0.12716E+08         0.00000E+00
    0.00000E+00         0.00000E+00        -0.32138E+07
 
   -0.33508E+07         0.88832E+06         0.00000E+00
    0.88832E+06        -0.12717E+08         0.00000E+00
    0.00000E+00         0.00000E+00        -0.32136E+07
 
   -0.33489E+07         0.95958E+06         0.00000E+00
    0.95958E+06        -0.12718E+08         0.00000E+00
    0.00000E+00         0.00000E+00        -0.32134E+07
 
   -0.33468E+07         0.10309E+07         0.00000E+00
    0.10309E+07        -0.12719E+08         0.00000E+00
    0.00000E+00         0.00000E+00        -0.32132E+07
 
   -0.33446E+07         0.11022E+07         0.00000E+00
    0.11022E+07        -0.12720E+08         0.00000E+00
    0.00000E+00         0.00000E+00        -0.32130E+07
 
   -0.33423E+07         0.11736E+07         0.00000E+00
    0.11736E+07        -0.12721E+08         0.00000E+00
    0.00000E+00         0.00000E+00        -0.32127E+07
 
   -0.33398E+07         0.12451E+07         0.00000E+00
    0.12451E+07        -0.12723E+08         0.00000E+00
    0.00000E+00         0.00000E+00        -0.32125E+07
 
   -0.33372E+07         0.13166E+07         0.00000E+00
    0.13166E+07        -0.12724E+08         0.00000E+00
    0.00000E+00         0.00000E+00        -0.32122E+07
 
   -0.33345E+07         0.13882E+07         0.00000E+00
    0.13882E+07        -0.12725E+08         0.00000E+00
    0.00000E+00         0.00000E+00        -0.32120E+07
 
   -0.33316E+07         0.14598E+07         0.00000E+00
    0.14598E+07        -0.12727E+08         0.00000E+00
    0.00000E+00         0.00000E+00        -0.32117E+07
 
   -0.33286E+07         0.15315E+07         0.00000E+00
    0.15315E+07        -0.12728E+08         0.00000E+00
    0.00000E+00         0.00000E+00        -0.32114E+07
 
   -0.33255E+07         0.16033E+07         0.00000E+00
    0.16033E+07        -0.12730E+08         0.00000E+00
    0.00000E+00         0.00000E+00        -0.32110E+07
 
   -0.33222E+07         0.16751E+07         0.00000E+00
    0.16751E+07        -0.12731E+08         0.00000E+00
    0.00000E+00         0.00000E+00        -0.32107E+07
 
   -0.33188E+07         0.17470E+07         0.00000E+00
    0.17470E+07        -0.12733E+08         0.00000E+00
    0.00000E+00         0.00000E+00        -0.32104E+07
 
   -0.33153E+07         0.18190E+07         0.00000E+00
    0.18190E+07        -0.12735E+08         0.00000E+00
    0.00000E+00         0.00000E+00        -0.32100E+07
 
   -0.33117E+07         0.18911E+07         0.00000E+00
    0.18911E+07        -0.12736E+08         0.00000E+00
    0.00000E+00         0.00000E+00        -0.32096E+07
 
   -0.33079E+07         0.19632E+07         0.00000E+00
    0.19632E+07        -0.12738E+08         0.00000E+00
    0.00000E+00         0.00000E+00        -0.32092E+07
 
   -0.33040E+07         0.20355E+07         0.00000E+00
    0.20355E+07        -0.12740E+08         0.00000E+00
    0.00000E+00         0.00000E+00        -0.32088E+07
 
   -0.33000E+07         0.21078E+07         0.00000E+00
    0.21078E+07        -0.12742E+08         0.00000E+00
    0.00000E+00         0.00000E+00        -0.32084E+07
 
   -0.32959E+07         0.21802E+07         0.00000E+00
    0.21802E+07        -0.12744E+08         0.00000E+00
    0.00000E+00         0.00000E+00        -0.32080E+07
 
   -0.32917E+07         0.22527E+07         0.00000E+00
    0.22527E+07        -0.12746E+08         0.00000E+00
    0.00000E+00         0.00000E+00        -0.32076E+07
 
   -0.32874E+07         0.23253E+07         0.00000E+00
    0.23253E+07        -0.12748E+08         0.00000E+00
    0.00000E+00         0.00000E+00        -0.32071E+07
 
   -0.32830E+07         0.23980E+07         0.00000E+00
    0.23980E+07        -0.12750E+08         0.00000E+00
    0.00000E+00         0.00000E+00        -0.32066E+07
 
   -0.32784E+07         0.24708E+07         0.00000E+00
    0.24708E+07        -0.12752E+08         0.00000E+00
    0.00000E+00         0.00000E+00        -0.32062E+07
 
   -0.32738E+07         0.25437E+07         0.00000E+00
    0.25437E+07        -0.12755E+08         0.00000E+00
    0.00000E+00         0.00000E+00        -0.32057E+07
 
   -0.32691E+07         0.26167E+07         0.00000E+00
    0.26167E+07        -0.12757E+08         0.00000E+00
    0.00000E+00         0.00000E+00        -0.32052E+07
 
   -0.32643E+07         0.26898E+07         0.00000E+00
    0.26898E+07        -0.12759E+08         0.00000E+00
    0.00000E+00         0.00000E+00        -0.32047E+07
 
   -0.32593E+07         0.27631E+07         0.00000E+00
    0.27631E+07        -0.12761E+08         0.00000E+00
    0.00000E+00         0.00000E+00        -0.32042E+07
 
   -0.32544E+07         0.28364E+07         0.00000E+00
    0.28364E+07        -0.12764E+08         0.00000E+00
    0.00000E+00         0.00000E+00        -0.32036E+07
 
   -0.32493E+07         0.29098E+07         0.00000E+00
    0.29098E+07        -0.12766E+08         0.00000E+00
    0.00000E+00         0.00000E+00        -0.32031E+07
 
   -0.32441E+07         0.29834E+07         0.00000E+00
    0.29834E+07        -0.12769E+08         0.00000E+00
    0.00000E+00         0.00000E+00        -0.32025E+07
 
   -0.32389E+07         0.30571E+07         0.00000E+00
    0.30571E+07        -0.12771E+08         0.00000E+00
    0.00000E+00         0.00000E+00        -0.32020E+07
 
   -0.32336E+07         0.31309E+07         0.00000E+00
    0.31309E+07        -0.12773E+08         0.00000E+00
    0.00000E+00         0.00000E+00        -0.32014E+07
 
   -0.32282E+07         0.32048E+07         0.00000E+00
    0.32048E+07        -0.12776E+08         0.00000E+00
    0.00000E+00         0.00000E+00        -0.32008E+07
 
   -0.32227E+07         0.32788E+07         0.00000E+00
    0.32788E+07        -0.12778E+08         0.00000E+00
    0.00000E+00         0.00000E+00        -0.32002E+07
 
   -0.32172E+07         0.33530E+07         0.00000E+00
    0.33530E+07        -0.12781E+08         0.00000E+00
    0.00000E+00         0.00000E+00        -0.31996E+07
 
   -0.32116E+07         0.34273E+07         0.00000E+00
    0.34273E+07        -0.12783E+08         0.00000E+00
    0.00000E+00         0.00000E+00        -0.31990E+07
 
   -0.32060E+07         0.35017E+07         0.00000E+00
    0.35017E+07        -0.12786E+08         0.00000E+00
    0.00000E+00         0.00000E+00        -0.31984E+07
 
   -0.32003E+07         0.35762E+07         0.00000E+00
    0.35762E+07        -0.12788E+08         0.00000E+00
    0.00000E+00         0.00000E+00        -0.31978E+07
 
   -0.35090E+07         0.35293E+05         0.00000E+00
    0.35293E+05        -0.13212E+08         0.00000E+00
    0.00000E+00         0.00000E+00        -0.33442E+07
 
   -0.35088E+07         0.10588E+06         0.00000E+00
    0.10588E+06        -0.13212E+08         0.00000E+00
    0.00000E+00         0.00000E+00        -0.33442E+07
 
   -0.35085E+07         0.17647E+06         0.00000E+00
    0.17647E+06        -0.13212E+08         0.00000E+00
    0.00000E+00         0.00000E+00        -0.33442E+07
 
   -0.35080E+07         0.24708E+06         0.00000E+00
    0.24708E+06        -0.13213E+08         0.00000E+00
    0.00000E+00         0.00000E+00        -0.33441E+07
 
   -0.35073E+07         0.31769E+06         0.00000E+00
    0.31769E+06        -0.13213E+08         0.00000E+00
    0.00000E+00         0.00000E+00        -0.33441E+07
 
   -0.35065E+07         0.38832E+06         0.00000E+00
    0.38832E+06        -0.13213E+08         0.00000E+00
    0.00000E+00         0.00000E+00        -0.33440E+07
 
   -0.35055E+07         0.45897E+06         0.00000E+00
    0.45897E+06        -0.13214E+08         0.00000E+00
    0.00000E+00         0.00000E+00        -0.33439E+07
 
   -0.35044E+07         0.52965E+06         0.00000E+00
    0.52965E+06        -0.13214E+08         0.00000E+00
    0.00000E+00         0.00000E+00        -0.33438E+07
 
   -0.35031E+07         0.60035E+06         0.00000E+00
    0.60035E+06        -0.13215E+08         0.00000E+00
    0.00000E+00         0.00000E+00        -0.33436E+07
 
   -0.35016E+07         0.67108E+06         0.00000E+00
    0.67108E+06        -0.13216E+08         0.00000E+00
    0.00000E+00         0.00000E+00        -0.33435E+07
 
   -0.34999E+07         0.74185E+06         0.00000E+00
    0.74185E+06        -0.13217E+08         0.00000E+00
    0.00000E+00         0.00000E+00        -0.33433E+07
 
   -0.34981E+07         0.81265E+06         0.00000E+00
    0.81265E+06        -0.13218E+08         0.00000E+00
    0.00000E+00         0.00000E+00        -0.33431E+07
 
   -0.34962E+07         0.88350E+06         0.00000E+00
    0.88350E+06        -0.13219E+08         0.00000E+00
    0.00000E+00         0.00000E+00        -0.33429E+07
 
   -0.34940E+07         0.95439E+06         0.00000E+00
    0.95439E+06        -0.13220E+08         0.00000E+00
    0.00000E+00         0.00000E+00        -0.33427E+07
 
   -0.34917E+07         0.10253E+07         0.00000E+00
    0.10253E+07        -0.13221E+08         0.00000E+00
    0.00000E+00         0.00000E+00        -0.33425E+07
 
   -0.34893E+07         0.10963E+07         0.00000E+00
    0.10963E+07        -0.13222E+08         0.00000E+00
    0.00000E+00         0.00000E+00        -0.33423E+07
 
   -0.34867E+07         0.11674E+07         0.00000E+00
    0.11674E+07        -0.13223E+08         0.00000E+00
    0.00000E+00         0.00000E+00        -0.33420E+07
 
   -0.34839E+07         0.12385E+07         0.00000E+00
    0.12385E+07        -0.13225E+08         0.00000E+00
    0.00000E+00         0.00000E+00        -0.33417E+07
 
   -0.34810E+07         0.13096E+07         0.00000E+00
    0.13096E+07        -0.13226E+08         0.00000E+00
    0.00000E+00         0.00000E+00        -0.33414E+07
 
   -0.34780E+07         0.13809E+07         0.00000E+00
    0.13809E+07        -0.13228E+08         0.00000E+00
    0.00000E+00         0.00000E+00        -0.33411E+07
 
   -0.34748E+07         0.14522E+07         0.00000E+00
    0.14522E+07        -0.13229E+08         0.00000E+00
    0.00000E+00         0.00000E+00        -0.33408E+07
 
   -0.34714E+07         0.15235E+07         0.00000E+00
    0.15235E+07        -0.13231E+08         0.00000E+00
    0.00000E+00         0.00000E+00        -0.33404E+07
 
   -0.34679E+07         0.15950E+07         0.00000E+00
    0.15950E+07        -0.13233E+08         0.00000E+00
    0.00000E+00         0.00000E+00        -0.33401E+07
 
   -0.34642E+07         0.16665E+07         0.00000E+00
    0.16665E+07        -0.13234E+08         0.00000E+00
    0.00000E+00         0.00000E+00        -0.33397E+07
 
   -0.34605E+07         0.17381E+07         0.00000E+00
    0.17381E+07        -0.13236E+08         0.00000E+00
    0.00000E+00         0.00000E+00        -0.33393E+07
 
   -0.34565E+07         0.18098E+07         0.00000E+00
    0.18098E+07        -0.13238E+08         0.00000E+00
    0.00000E+00         0.00000E+00        -0.33389E+07
 
   -0.34525E+07         0.18816E+07         0.00000E+00
    0.18816E+07        -0.13240E+08         0.00000E+00
    0.00000E+00         0.00000E+00        -0.33385E+07
 
   -0.34483E+07         0.19535E+07         0.00000E+00
    0.19535E+07        -0.13242E+08         0.00000E+00
    0.00000E+00         0.00000E+00        -0.33381E+07
 
   -0.34439E+07         0.20254E+07         0.00000E+00
    0.20254E+07        -0.13244E+08         0.00000E+00
    0.00000E+00         0.00000E+00        -0.33376E+07
 
   -0.34395E+07         0.20975E+07         0.00000E+00
    0.20975E+07        -0.13246E+08         0.00000E+00
    0.00000E+00         0.00000E+00        -0.33372E+07
 
   -0.34349E+07         0.21696E+07         0.00000E+00
    0.21696E+07        -0.13249E+08         0.00000E+00
    0.00000E+00         0.00000E+00        -0.33367E+07
 
   -0.34302E+07         0.22419E+07         0.00000E+00
    0.22419E+07        -0.13251E+08         0.00000E+00
    0.00000E+00         0.00000E+00        -0.33362E+07
 
   -0.34254E+07         0.23143E+07         0.00000E+00
    0.23143E+07        -0.13253E+08         0.00000E+00
    0.00000E+00         0.00000E+00        -0.33357E+07
 
   -0.34204E+07         0.23867E+07         0.00000E+00
    0.23867E+07        -0.13255E+08         0.00000E+00
    0.00000E+00         0.00000E+00        -0.33352E+07
 
   -0.34154E+07         0.24593E+07         0.00000E+00
    0.24593E+07        -0.13258E+08         0.00000E+00
    0.00000E+00         0.00000E+00        -0.33346E+07
 
   -0.34102E+07         0.25320E+07         0.00000E+00
    0.25320E+07        -0.13260E+08         0.00000E+00
    0.00000E+00         0.00000E+00        -0.33341E+07
 
   -0.34049E+07         0.26048E+07         0.00000E+00
    0.26048E+07        -0.13263E+08         0.00000E+00
    0.00000E+00         0.00000E+00        -0.33335E+07
 
   -0.33995E+07         0.26778E+07         0.00000E+00
    0.26778E+07        -0.13265E+08         0.00000E+00
    0.00000E+00         0.00000E+00        -0.33330E+07
 
   -0.33941E+07         0.27508E+07         0.00000E+00
    0.27508E+07        -0.13268E+08         0.00000E+00
    0.00000E+00         0.00000E+00        -0.33324E+07
 
   -0.33885E+07         0.28240E+07         0.00000E+00
    0.28240E+07        -0.13271E+08         0.00000E+00
    0.00000E+00         0.00000E+00        -0.33318E+07
 
   -0.33828E+07         0.28972E+07         0.00000E+00
    0.28972E+07        -0.13273E+08         0.00000E+00
    0.00000E+00         0.00000E+00        -0.33312E+07
 
   -0.33770E+07         0.29707E+07         0.00000E+00
    0.29707E+07        -0.13276E+08         0.00000E+00
    0.00000E+00         0.00000E+00        -0.33306E+07
 
   -0.33712E+07         0.30442E+07         0.00000E+00
    0.30442E+07        -0.13279E+08         0.00000E+00
    0.00000E+00         0.00000E+00        -0.33299E+07
 
   -0.33652E+07         0.31179E+07         0.00000E+00
    0.31179E+07        -0.13281E+08         0.00000E+00
    0.00000E+00         0.00000E+00        -0.33293E+07
 
   -0.33592E+07         0.31917E+07         0.00000E+00
    0.31917E+07        -0.13284E+08         0.00000E+00
    0.00000E+00         0.00000E+00        -0.33287E+07
 
   -0.33531E+07         0.32656E+07         0.00000E+00
    0.32656E+07        -0.13287E+08         0.00000E+00
    0.00000E+00         0.00000E+00        -0.33280E+07
 
   -0.33470E+07         0.33397E+07         0.00000E+00
    0.33397E+07        -0.13290E+08         0.00000E+00
    0.00000E+00         0.00000E+00        -0.33273E+07
 
   -0.33407E+07         0.34139E+07         0.00000E+00
    0.34139E+07        -0.13292E+08         0.00000E+00
    0.00000E+00         0.00000E+00        -0.33266E+07
 
   -0.33344E+07         0.34882E+07         0.00000E+00
    0.34882E+07        -0.13295E+08         0.00000E+00
    0.00000E+00         0.00000E+00        -0.33259E+07
 
   -0.33281E+07         0.35627E+07         0.00000E+00
    0.35627E+07        -0.13298E+08         0.00000E+00
    0.00000E+00         0.00000E+00        -0.33252E+07
 
   -0.36578E+07         0.35075E+05         0.00000E+00
    0.35075E+05        -0.13713E+08         0.00000E+00
    0.00000E+00         0.00000E+00        -0.34741E+07
 
   -0.36576E+07         0.10523E+06         0.00000E+00
    0.10523E+06        -0.13713E+08         0.00000E+00
    0.00000E+00         0.00000E+00        -0.34741E+07
 
   -0.36573E+07         0.17538E+06         0.00000E+00
    0.17538E+06        -0.13713E+08         0.00000E+00
    0.00000E+00         0.00000E+00        -0.34741E+07
 
   -0.36567E+07         0.24555E+06         0.00000E+00
    0.24555E+06        -0.13713E+08         0.00000E+00
    0.00000E+00         0.00000E+00        -0.34740E+07
 
   -0.36560E+07         0.31573E+06         0.00000E+00
    0.31573E+06        -0.13714E+08         0.00000E+00
    0.00000E+00         0.00000E+00        -0.34740E+07
 
   -0.36551E+07         0.38592E+06         0.00000E+00
    0.38592E+06        -0.13714E+08         0.00000E+00
    0.00000E+00         0.00000E+00        -0.34739E+07
 
   -0.36540E+07         0.45614E+06         0.00000E+00
    0.45614E+06        -0.13715E+08         0.00000E+00
    0.00000E+00         0.00000E+00        -0.34738E+07
 
   -0.36527E+07         0.52639E+06         0.00000E+00
    0.52639E+06        -0.13715E+08         0.00000E+00
    0.00000E+00         0.00000E+00        -0.34736E+07
 
   -0.36512E+07         0.59666E+06         0.00000E+00
    0.59666E+06        -0.13716E+08         0.00000E+00
    0.00000E+00         0.00000E+00        -0.34735E+07
 
   -0.36496E+07         0.66697E+06         0.00000E+00
    0.66697E+06        -0.13717E+08         0.00000E+00
    0.00000E+00         0.00000E+00        -0.34733E+07
 
   -0.36477E+07         0.73731E+06         0.00000E+00
    0.73731E+06        -0.13718E+08         0.00000E+00
    0.00000E+00         0.00000E+00        -0.34731E+07
 
   -0.36457E+07         0.80770E+06         0.00000E+00
    0.80770E+06        -0.13719E+08         0.00000E+00
    0.00000E+00         0.00000E+00        -0.34729E+07
 
   -0.36435E+07         0.87813E+06         0.00000E+00
    0.87813E+06        -0.13720E+08         0.00000E+00
    0.00000E+00         0.00000E+00        -0.34727E+07
 
   -0.36412E+07         0.94861E+06         0.00000E+00
    0.94861E+06        -0.13721E+08         0.00000E+00
    0.00000E+00         0.00000E+00        -0.34725E+07
 
   -0.36386E+07         0.10191E+07         0.00000E+00
    0.10191E+07        -0.13722E+08         0.00000E+00
    0.00000E+00         0.00000E+00        -0.34722E+07
 
   -0.36359E+07         0.10897E+07         0.00000E+00
    0.10897E+07        -0.13724E+08         0.00000E+00
    0.00000E+00         0.00000E+00        -0.34719E+07
 
   -0.36330E+07         0.11604E+07         0.00000E+00
    0.11604E+07        -0.13725E+08         0.00000E+00
    0.00000E+00         0.00000E+00        -0.34716E+07
 
   -0.36299E+07         0.12311E+07         0.00000E+00
    0.12311E+07        -0.13727E+08         0.00000E+00
    0.00000E+00         0.00000E+00        -0.34713E+07
 
   -0.36267E+07         0.13019E+07         0.00000E+00
    0.13019E+07        -0.13728E+08         0.00000E+00
    0.00000E+00         0.00000E+00        -0.34710E+07
 
   -0.36233E+07         0.13727E+07         0.00000E+00
    0.13727E+07        -0.13730E+08         0.00000E+00
    0.00000E+00         0.00000E+00        -0.34707E+07
 
   -0.36197E+07         0.14437E+07         0.00000E+00
    0.14437E+07        -0.13732E+08         0.00000E+00
    0.00000E+00         0.00000E+00        -0.34703E+07
 
   -0.36159E+07         0.15147E+07         0.00000E+00
    0.15147E+07        -0.13734E+08         0.00000E+00
    0.00000E+00         0.00000E+00        -0.34699E+07
 
   -0.36120E+07         0.15858E+07         0.00000E+00
    0.15858E+07        -0.13736E+08         0.00000E+00
    0.00000E+00         0.00000E+00        -0.34695E+07
 
   -0.36080E+07         0.16569E+07         0.00000E+00
    0.16569E+07        -0.13738E+08         0.00000E+00
    0.00000E+00         0.00000E+00        -0.34691E+07
 
   -0.36037E+07         0.17282E+07         0.00000E+00
    0.17282E+07        -0.13740E+08         0.00000E+00
    0.00000E+00         0.00000E+00        -0.34687E+07
 
   -0.35994E+07         0.17996E+07         0.00000E+00
    0.17996E+07        -0.13742E+08         0.00000E+00
    0.00000E+00         0.00000E+00        -0.34682E+07
 
   -0.35948E+07         0.18710E+07         0.00000E+00
    0.18710E+07        -0.13744E+08         0.00000E+00
    0.00000E+00         0.00000E+00        -0.34678E+07
 
   -0.35902E+07         0.19426E+07         0.00000E+00
    0.19426E+07        -0.13746E+08         0.00000E+00
    0.00000E+00         0.00000E+00        -0.34673E+07
 
   -0.35853E+07         0.20142E+07         0.00000E+00
    0.20142E+07        -0.13749E+08         0.00000E+00
    0.00000E+00         0.00000E+00        -0.34668E+07
 
   -0.35804E+07         0.20860E+07         0.00000E+00
    0.20860E+07        -0.13751E+08         0.00000E+00
    0.00000E+00         0.00000E+00        -0.34663E+07
 
   -0.35753E+07         0.21579E+07         0.00000E+00
    0.21579E+07        -0.13753E+08         0.00000E+00
    0.00000E+00         0.00000E+00        -0.34657E+07
 
   -0.35700E+07         0.22298E+07         0.00000E+00
    0.22298E+07        -0.13756E+08         0.00000E+00
    0.00000E+00         0.00000E+00        -0.34652E+07
 
   -0.35646E+07         0.23019E+07         0.00000E+00
    0.23019E+07        -0.13758E+08         0.00000E+00
    0.00000E+00         0.00000E+00        -0.34646E+07
 
   -0.35591E+07         0.23742E+07         0.00000E+00
    0.23742E+07        -0.13761E+08         0.00000E+00
    0.00000E+00         0.00000E+00        -0.34640E+07
 
   -0.35535E+07         0.24465E+07         0.00000E+00
    0.24465E+07        -0.13764E+08         0.00000E+00
    0.00000E+00         0.00000E+00        -0.34635E+07
 
   -0.35477E+07         0.25190E+07         0.00000E+00
    0.25190E+07        -0.13767E+08         0.00000E+00
    0.00000E+00         0.00000E+00        -0.34629E+07
 
   -0.35418E+07         0.25915E+07         0.00000E+00
    0.25915E+07        -0.13769E+08         0.00000E+00
    0.00000E+00         0.00000E+00        -0.34622E+07
 
   -0.35358E+07         0.26643E+07         0.00000E+00
    0.26643E+07        -0.13772E+08         0.00000E+00
    0.00000E+00         0.00000E+00        -0.34616E+07
 
   -0.35297E+07         0.27371E+07         0.00000E+00
    0.27371E+07        -0.13775E+08         0.00000E+00
    0.00000E+00         0.00000E+00        -0.34609E+07
 
   -0.35235E+07         0.28101E+07         0.00000E+00
    0.28101E+07        -0.13778E+08         0.00000E+00
    0.00000E+00         0.00000E+00        -0.34603E+07
 
   -0.35172E+07         0.28832E+07         0.00000E+00
    0.28832E+07        -0.13781E+08         0.00000E+00
    0.00000E+00         0.00000E+00        -0.34596E+07
 
   -0.35107E+07         0.29564E+07         0.00000E+00
    0.29564E+07        -0.13784E+08         0.00000E+00
    0.00000E+00         0.00000E+00        -0.34589E+07
 
   -0.35042E+07         0.30298E+07         0.00000E+00
    0.30298E+07        -0.13787E+08         0.00000E+00
    0.00000E+00         0.00000E+00        -0.34582E+07
 
   -0.34976E+07         0.31034E+07         0.00000E+00
    0.31034E+07        -0.13790E+08         0.00000E+00
    0.00000E+00         0.00000E+00        -0.34575E+07
 
   -0.34909E+07         0.31770E+07         0.00000E+00
    0.31770E+07        -0.13793E+08         0.00000E+00
    0.00000E+00         0.00000E+00        -0.34568E+07
 
   -0.34841E+07         0.32509E+07         0.00000E+00
    0.32509E+07        -0.13796E+08         0.00000E+00
    0.00000E+00         0.00000E+00        -0.34560E+07
 
   -0.34772E+07         0.33248E+07         0.00000E+00
    0.33248E+07        -0.13799E+08         0.00000E+00
    0.00000E+00         0.00000E+00        -0.34553E+07
 
   -0.34703E+07         0.33990E+07         0.00000E+00
    0.33990E+07        -0.13802E+08         0.00000E+00
    0.00000E+00         0.00000E+00        -0.34545E+07
 
   -0.34632E+07         0.34732E+07         0.00000E+00
    0.34732E+07        -0.13806E+08         0.00000E+00
    0.00000E+00         0.00000E+00        -0.34538E+07
 
   -0.34561E+07         0.35477E+07         0.00000E+00
    0.35477E+07        -0.13809E+08         0.00000E+00
    0.00000E+00         0.00000E+00        -0.34530E+07
 
   -0.38090E+07         0.34832E+05         0.00000E+00
    0.34832E+05        -0.14214E+08         0.00000E+00
    0.00000E+00         0.00000E+00        -0.36045E+07
 
   -0.38088E+07         0.10450E+06         0.00000E+00
    0.10450E+06        -0.14214E+08         0.00000E+00
    0.00000E+00         0.00000E+00        -0.36045E+07
 
   -0.38084E+07         0.17417E+06         0.00000E+00
    0.17417E+06        -0.14214E+08         0.00000E+00
    0.00000E+00         0.00000E+00        -0.36045E+07
 
   -0.38078E+07         0.24384E+06         0.00000E+00
    0.24384E+06        -0.14214E+08         0.00000E+00
    0.00000E+00         0.00000E+00        -0.36044E+07
 
   -0.38070E+07         0.31354E+06         0.00000E+00
    0.31354E+06        -0.14215E+08         0.00000E+00
    0.00000E+00         0.00000E+00        -0.36043E+07
 
   -0.38060E+07         0.38325E+06         0.00000E+00
    0.38325E+06        -0.14215E+08         0.00000E+00
    0.00000E+00         0.00000E+00        -0.36042E+07
 
   -0.38048E+07         0.45299E+06         0.00000E+00
    0.45299E+06        -0.14216E+08         0.00000E+00
    0.00000E+00         0.00000E+00        -0.36041E+07
 
   -0.38033E+07         0.52275E+06         0.00000E+00
    0.52275E+06        -0.14216E+08         0.00000E+00
    0.00000E+00         0.00000E+00        -0.36040E+07
 
   -0.38017E+07         0.59255E+06         0.00000E+00
    0.59255E+06        -0.14217E+08         0.00000E+00
    0.00000E+00         0.00000E+00        -0.36038E+07
 
   -0.37999E+07         0.66238E+06         0.00000E+00
    0.66238E+06        -0.14218E+08         0.00000E+00
    0.00000E+00         0.00000E+00        -0.36036E+07
 
   -0.37978E+07         0.73225E+06         0.00000E+00
    0.73225E+06        -0.14219E+08         0.00000E+00
    0.00000E+00         0.00000E+00        -0.36034E+07
 
   -0.37956E+07         0.80217E+06         0.00000E+00
    0.80217E+06        -0.14220E+08         0.00000E+00
    0.00000E+00         0.00000E+00        -0.36032E+07
 
   -0.37931E+07         0.87214E+06         0.00000E+00
    0.87214E+06        -0.14222E+08         0.00000E+00
    0.00000E+00         0.00000E+00        -0.36029E+07
 
   -0.37905E+07         0.94216E+06         0.00000E+00
    0.94216E+06        -0.14223E+08         0.00000E+00
    0.00000E+00         0.00000E+00        -0.36027E+07
 
   -0.37877E+07         0.10122E+07         0.00000E+00
    0.10122E+07        -0.14224E+08         0.00000E+00
    0.00000E+00         0.00000E+00        -0.36024E+07
 
   -0.37846E+07         0.10824E+07         0.00000E+00
    0.10824E+07        -0.14226E+08         0.00000E+00
    0.00000E+00         0.00000E+00        -0.36021E+07
 
   -0.37814E+07         0.11526E+07         0.00000E+00
    0.11526E+07        -0.14227E+08         0.00000E+00
    0.00000E+00         0.00000E+00        -0.36018E+07
 
   -0.37780E+07         0.12229E+07         0.00000E+00
    0.12229E+07        -0.14229E+08         0.00000E+00
    0.00000E+00         0.00000E+00        -0.36014E+07
 
   -0.37744E+07         0.12932E+07         0.00000E+00
    0.12932E+07        -0.14231E+08         0.00000E+00
    0.00000E+00         0.00000E+00        -0.36011E+07
 
   -0.37706E+07         0.13637E+07         0.00000E+00
    0.13637E+07        -0.14233E+08         0.00000E+00
    0.00000E+00         0.00000E+00        -0.36007E+07
 
   -0.37666E+07         0.14342E+07         0.00000E+00
    0.14342E+07        -0.14235E+08         0.00000E+00
    0.00000E+00         0.00000E+00        -0.36003E+07
 
   -0.37624E+07         0.15048E+07         0.00000E+00
    0.15048E+07        -0.14237E+08         0.00000E+00
    0.00000E+00         0.00000E+00        -0.35998E+07
 
   -0.37581E+07         0.15755E+07         0.00000E+00
    0.15755E+07        -0.14239E+08         0.00000E+00
    0.00000E+00         0.00000E+00        -0.35994E+07
 
   -0.37536E+07         0.16463E+07         0.00000E+00
    0.16463E+07        -0.14241E+08         0.00000E+00
    0.00000E+00         0.00000E+00        -0.35989E+07
 
   -0.37489E+07         0.17171E+07         0.00000E+00
    0.17171E+07        -0.14243E+08         0.00000E+00
    0.00000E+00         0.00000E+00        -0.35985E+07
 
   -0.37440E+07         0.17881E+07         0.00000E+00
    0.17881E+07        -0.14246E+08         0.00000E+00
    0.00000E+00         0.00000E+00        -0.35980E+07
 
   -0.37389E+07         0.18592E+07         0.00000E+00
    0.18592E+07        -0.14248E+08         0.00000E+00
    0.00000E+00         0.00000E+00        -0.35974E+07
 
   -0.37337E+07         0.19304E+07         0.00000E+00
    0.19304E+07        -0.14251E+08         0.00000E+00
    0.00000E+00         0.00000E+00        -0.35969E+07
 
   -0.37284E+07         0.20017E+07         0.00000E+00
    0.20017E+07        -0.14253E+08         0.00000E+00
    0.00000E+00         0.00000E+00        -0.35963E+07
 
   -0.37228E+07         0.20732E+07         0.00000E+00
    0.20732E+07        -0.14256E+08         0.00000E+00
    0.00000E+00         0.00000E+00        -0.35958E+07
 
   -0.37171E+07         0.21447E+07         0.00000E+00
    0.21447E+07        -0.14259E+08         0.00000E+00
    0.00000E+00         0.00000E+00        -0.35952E+07
 
   -0.37113E+07         0.22164E+07         0.00000E+00
    0.22164E+07        -0.14262E+08         0.00000E+00
    0.00000E+00         0.00000E+00        -0.35946E+07
 
   -0.37053E+07         0.22882E+07         0.00000E+00
    0.22882E+07        -0.14264E+08         0.00000E+00
    0.00000E+00         0.00000E+00        -0.35939E+07
 
   -0.36992E+07         0.23601E+07         0.00000E+00
    0.23601E+07        -0.14267E+08         0.00000E+00
    0.00000E+00         0.00000E+00        -0.35933E+07
 
   -0.36929E+07         0.24322E+07         0.00000E+00
    0.24322E+07        -0.14270E+08         0.00000E+00
    0.00000E+00         0.00000E+00        -0.35926E+07
 
   -0.36865E+07         0.25044E+07         0.00000E+00
    0.25044E+07        -0.14273E+08         0.00000E+00
    0.00000E+00         0.00000E+00        -0.35920E+07
 
   -0.36799E+07         0.25767E+07         0.00000E+00
    0.25767E+07        -0.14276E+08         0.00000E+00
    0.00000E+00         0.00000E+00        -0.35913E+07
 
   -0.36732E+07         0.26492E+07         0.00000E+00
    0.26492E+07        -0.14280E+08         0.00000E+00
    0.00000E+00         0.00000E+00        -0.35906E+07
 
   -0.36664E+07         0.27218E+07         0.00000E+00
    0.27218E+07        -0.14283E+08         0.00000E+00
    0.00000E+00         0.00000E+00        -0.35899E+07
 
   -0.36595E+07         0.27946E+07         0.00000E+00
    0.27946E+07        -0.14286E+08         0.00000E+00
    0.00000E+00         0.00000E+00        -0.35891E+07
 
   -0.36525E+07         0.28675E+07         0.00000E+00
    0.28675E+07        -0.14289E+08         0.00000E+00
    0.00000E+00         0.00000E+00        -0.35884E+07
 
   -0.36453E+07         0.29406E+07         0.00000E+00
    0.29406E+07        -0.14293E+08         0.00000E+00
    0.00000E+00         0.00000E+00        -0.35876E+07
 
   -0.36380E+07         0.30138E+07         0.00000E+00
    0.30138E+07        -0.14296E+08         0.00000E+00
    0.00000E+00         0.00000E+00        -0.35868E+07
 
   -0.36307E+07         0.30872E+07         0.00000E+00
    0.30872E+07        -0.14299E+08         0.00000E+00
    0.00000E+00         0.00000E+00        -0.35860E+07
 
   -0.36232E+07         0.31607E+07         0.00000E+00
    0.31607E+07        -0.14303E+08         0.00000E+00
    0.00000E+00         0.00000E+00        -0.35852E+07
 
   -0.36156E+07         0.32344E+07         0.00000E+00
    0.32344E+07        -0.14306E+08         0.00000E+00
    0.00000E+00         0.00000E+00        -0.35844E+07
 
   -0.36080E+07         0.33083E+07         0.00000E+00
    0.33083E+07        -0.14310E+08         0.00000E+00
    0.00000E+00         0.00000E+00        -0.35836E+07
 
   -0.36002E+07         0.33823E+07         0.00000E+00
    0.33823E+07        -0.14313E+08         0.00000E+00
    0.00000E+00         0.00000E+00        -0.35827E+07
 
   -0.35924E+07         0.34565E+07         0.00000E+00
    0.34565E+07        -0.14317E+08         0.00000E+00
    0.00000E+00         0.00000E+00        -0.35818E+07
 
   -0.35845E+07         0.35309E+07         0.00000E+00
    0.35309E+07        -0.14320E+08         0.00000E+00
    0.00000E+00         0.00000E+00        -0.35810E+07
 
   -0.39628E+07         0.34562E+05         0.00000E+00
    0.34562E+05        -0.14714E+08         0.00000E+00
    0.00000E+00         0.00000E+00        -0.37354E+07
 
   -0.39626E+07         0.10368E+06         0.00000E+00
    0.10368E+06        -0.14715E+08         0.00000E+00
    0.00000E+00         0.00000E+00        -0.37354E+07
 
   -0.39622E+07         0.17281E+06         0.00000E+00
    0.17281E+06        -0.14715E+08         0.00000E+00
    0.00000E+00         0.00000E+00        -0.37354E+07
 
   -0.39615E+07         0.24195E+06         0.00000E+00
    0.24195E+06        -0.14715E+08         0.00000E+00
    0.00000E+00         0.00000E+00        -0.37353E+07
 
   -0.39606E+07         0.31110E+06         0.00000E+00
    0.31110E+06        -0.14716E+08         0.00000E+00
    0.00000E+00         0.00000E+00        -0.37352E+07
 
   -0.39595E+07         0.38027E+06         0.00000E+00
    0.38027E+06        -0.14716E+08         0.00000E+00
    0.00000E+00         0.00000E+00        -0.37351E+07
 
   -0.39581E+07         0.44947E+06         0.00000E+00
    0.44947E+06        -0.14717E+08         0.00000E+00
    0.00000E+00         0.00000E+00        -0.37350E+07
 
   -0.39565E+07         0.51870E+06         0.00000E+00
    0.51870E+06        -0.14718E+08         0.00000E+00
    0.00000E+00         0.00000E+00        -0.37348E+07
 
   -0.39547E+07         0.58796E+06         0.00000E+00
    0.58796E+06        -0.14719E+08         0.00000E+00
    0.00000E+00         0.00000E+00        -0.37346E+07
 
   -0.39527E+07         0.65727E+06         0.00000E+00
    0.65727E+06        -0.14720E+08         0.00000E+00
    0.00000E+00         0.00000E+00        -0.37344E+07
 
   -0.39504E+07         0.72661E+06         0.00000E+00
    0.72661E+06        -0.14721E+08         0.00000E+00
    0.00000E+00         0.00000E+00        -0.37342E+07
 
   -0.39479E+07         0.79601E+06         0.00000E+00
    0.79601E+06        -0.14722E+08         0.00000E+00
    0.00000E+00         0.00000E+00        -0.37340E+07
 
   -0.39452E+07         0.86546E+06         0.00000E+00
    0.86546E+06        -0.14723E+08         0.00000E+00
    0.00000E+00         0.00000E+00        -0.37337E+07
 
   -0.39423E+07         0.93498E+06         0.00000E+00
    0.93498E+06        -0.14725E+08         0.00000E+00
    0.00000E+00         0.00000E+00        -0.37334E+07
 
   -0.39391E+07         0.10046E+07         0.00000E+00
    0.10046E+07        -0.14726E+08         0.00000E+00
    0.00000E+00         0.00000E+00        -0.37331E+07
 
   -0.39358E+07         0.10742E+07         0.00000E+00
    0.10742E+07        -0.14728E+08         0.00000E+00
    0.00000E+00         0.00000E+00        -0.37327E+07
 
   -0.39322E+07         0.11439E+07         0.00000E+00
    0.11439E+07        -0.14730E+08         0.00000E+00
    0.00000E+00         0.00000E+00        -0.37324E+07
 
   -0.39284E+07         0.12137E+07         0.00000E+00
    0.12137E+07        -0.14732E+08         0.00000E+00
    0.00000E+00         0.00000E+00        -0.37320E+07
 
   -0.39244E+07         0.12836E+07         0.00000E+00
    0.12836E+07        -0.14734E+08         0.00000E+00
    0.00000E+00         0.00000E+00        -0.37316E+07
 
   -0.39201E+07         0.13535E+07         0.00000E+00
    0.13535E+07        -0.14736E+08         0.00000E+00
    0.00000E+00         0.00000E+00        -0.37312E+07
 
   -0.39157E+07         0.14236E+07         0.00000E+00
    0.14236E+07        -0.14738E+08         0.00000E+00
    0.00000E+00         0.00000E+00        -0.37307E+07
 
   -0.39111E+07         0.14938E+07         0.00000E+00
    0.14938E+07        -0.14740E+08         0.00000E+00
    0.00000E+00         0.00000E+00        -0.37302E+07
 
   -0.39062E+07         0.15640E+07         0.00000E+00
    0.15640E+07        -0.14743E+08         0.00000E+00
    0.00000E+00         0.00000E+00        -0.37298E+07
 
   -0.39012E+07         0.16344E+07         0.00000E+00
    0.16344E+07        -0.14745E+08         0.00000E+00
    0.00000E+00         0.00000E+00        -0.37292E+07
 
   -0.38960E+07         0.17048E+07         0.00000E+00
    0.17048E+07        -0.14748E+08         0.00000E+00
    0.00000E+00         0.00000E+00        -0.37287E+07
 
   -0.38906E+07         0.17754E+07         0.00000E+00
    0.17754E+07        -0.14750E+08         0.00000E+00
    0.00000E+00         0.00000E+00        -0.37282E+07
 
   -0.38850E+07         0.18461E+07         0.00000E+00
    0.18461E+07        -0.14753E+08         0.00000E+00
    0.00000E+00         0.00000E+00        -0.37276E+07
 
   -0.38792E+07         0.19169E+07         0.00000E+00
    0.19169E+07        -0.14756E+08         0.00000E+00
    0.00000E+00         0.00000E+00        -0.37270E+07
 
   -0.38732E+07         0.19878E+07         0.00000E+00
    0.19878E+07        -0.14759E+08         0.00000E+00
    0.00000E+00         0.00000E+00        -0.37264E+07
 
   -0.38670E+07         0.20589E+07         0.00000E+00
    0.20589E+07        -0.14762E+08         0.00000E+00
    0.00000E+00         0.00000E+00        -0.37257E+07
 
   -0.38607E+07         0.21301E+07         0.00000E+00
    0.21301E+07        -0.14765E+08         0.00000E+00
    0.00000E+00         0.00000E+00        -0.37251E+07
 
   -0.38542E+07         0.22014E+07         0.00000E+00
    0.22014E+07        -0.14768E+08         0.00000E+00
    0.00000E+00         0.00000E+00        -0.37244E+07
 
   -0.38476E+07         0.22729E+07         0.00000E+00
    0.22729E+07        -0.14771E+08         0.00000E+00
    0.00000E+00         0.00000E+00        -0.37237E+07
 
   -0.38407E+07         0.23445E+07         0.00000E+00
    0.23445E+07        -0.14774E+08         0.00000E+00
    0.00000E+00         0.00000E+00        -0.37230E+07
 
   -0.38337E+07         0.24163E+07         0.00000E+00
    0.24163E+07        -0.14778E+08         0.00000E+00
    0.00000E+00         0.00000E+00        -0.37223E+07
 
   -0.38266E+07         0.24882E+07         0.00000E+00
    0.24882E+07        -0.14781E+08         0.00000E+00
    0.00000E+00         0.00000E+00        -0.37215E+07
 
   -0.38193E+07         0.25603E+07         0.00000E+00
    0.25603E+07        -0.14784E+08         0.00000E+00
    0.00000E+00         0.00000E+00        -0.37207E+07
 
   -0.38119E+07         0.26325E+07         0.00000E+00
    0.26325E+07        -0.14788E+08         0.00000E+00
    0.00000E+00         0.00000E+00        -0.37200E+07
 
   -0.38043E+07         0.27049E+07         0.00000E+00
    0.27049E+07        -0.14791E+08         0.00000E+00
    0.00000E+00         0.00000E+00        -0.37192E+07
 
   -0.37966E+07         0.27774E+07         0.00000E+00
    0.27774E+07        -0.14795E+08         0.00000E+00
    0.00000E+00         0.00000E+00        -0.37183E+07
 
   -0.37888E+07         0.28501E+07         0.00000E+00
    0.28501E+07        -0.14799E+08         0.00000E+00
    0.00000E+00         0.00000E+00        -0.37175E+07
 
   -0.37808E+07         0.29230E+07         0.00000E+00
    0.29230E+07        -0.14802E+08         0.00000E+00
    0.00000E+00         0.00000E+00        -0.37166E+07
 
   -0.37727E+07         0.29960E+07         0.00000E+00
    0.29960E+07        -0.14806E+08         0.00000E+00
    0.00000E+00         0.00000E+00        -0.37158E+07
 
   -0.37645E+07         0.30692E+07         0.00000E+00
    0.30692E+07        -0.14810E+08         0.00000E+00
    0.00000E+00         0.00000E+00        -0.37149E+07
 
   -0.37562E+07         0.31426E+07         0.00000E+00
    0.31426E+07        -0.14814E+08         0.00000E+00
    0.00000E+00         0.00000E+00        -0.37140E+07
 
   -0.37478E+07         0.32162E+07         0.00000E+00
    0.32162E+07        -0.14818E+08         0.00000E+00
    0.00000E+00         0.00000E+00        -0.37131E+07
 
   -0.37393E+07         0.32899E+07         0.00000E+00
    0.32899E+07        -0.14821E+08         0.00000E+00
    0.00000E+00         0.00000E+00        -0.37122E+07
 
   -0.37307E+07         0.33638E+07         0.00000E+00
    0.33638E+07        -0.14825E+08         0.00000E+00
    0.00000E+00         0.00000E+00        -0.37112E+07
 
   -0.37220E+07         0.34379E+07         0.00000E+00
    0.34379E+07        -0.14829E+08         0.00000E+00
    0.00000E+00         0.00000E+00        -0.37103E+07
 
   -0.37132E+07         0.35122E+07         0.00000E+00
    0.35122E+07        -0.14833E+08         0.00000E+00
    0.00000E+00         0.00000E+00        -0.37093E+07
 
   -0.41195E+07         0.34261E+05         0.00000E+00
    0.34261E+05        -0.15215E+08         0.00000E+00
    0.00000E+00         0.00000E+00        -0.38669E+07
 
   -0.41193E+07         0.10278E+06         0.00000E+00
    0.10278E+06        -0.15215E+08         0.00000E+00
    0.00000E+00         0.00000E+00        -0.38669E+07
 
   -0.41188E+07         0.17130E+06         0.00000E+00
    0.17130E+06        -0.15216E+08         0.00000E+00
    0.00000E+00         0.00000E+00        -0.38669E+07
 
   -0.41181E+07         0.23983E+06         0.00000E+00
    0.23983E+06        -0.15216E+08         0.00000E+00
    0.00000E+00         0.00000E+00        -0.38668E+07
 
   -0.41171E+07         0.30838E+06         0.00000E+00
    0.30838E+06        -0.15216E+08         0.00000E+00
    0.00000E+00         0.00000E+00        -0.38667E+07
 
   -0.41158E+07         0.37695E+06         0.00000E+00
    0.37695E+06        -0.15217E+08         0.00000E+00
    0.00000E+00         0.00000E+00        -0.38666E+07
 
   -0.41143E+07         0.44555E+06         0.00000E+00
    0.44555E+06        -0.15218E+08         0.00000E+00
    0.00000E+00         0.00000E+00        -0.38664E+07
 
   -0.41126E+07         0.51419E+06         0.00000E+00
    0.51419E+06        -0.15219E+08         0.00000E+00
    0.00000E+00         0.00000E+00        -0.38663E+07
 
   -0.41106E+07         0.58286E+06         0.00000E+00
    0.58286E+06        -0.15220E+08         0.00000E+00
    0.00000E+00         0.00000E+00        -0.38661E+07
 
   -0.41083E+07         0.65157E+06         0.00000E+00
    0.65157E+06        -0.15221E+08         0.00000E+00
    0.00000E+00         0.00000E+00        -0.38658E+07
 
   -0.41058E+07         0.72033E+06         0.00000E+00
    0.72033E+06        -0.15222E+08         0.00000E+00
    0.00000E+00         0.00000E+00        -0.38656E+07
 
   -0.41030E+07         0.78915E+06         0.00000E+00
    0.78915E+06        -0.15224E+08         0.00000E+00
    0.00000E+00         0.00000E+00        -0.38653E+07
 
   -0.41000E+07         0.85803E+06         0.00000E+00
    0.85803E+06        -0.15225E+08         0.00000E+00
    0.00000E+00         0.00000E+00        -0.38650E+07
 
   -0.40968E+07         0.92697E+06         0.00000E+00
    0.92697E+06        -0.15227E+08         0.00000E+00
    0.00000E+00         0.00000E+00        -0.38647E+07
 
   -0.40933E+07         0.99599E+06         0.00000E+00
    0.99599E+06        -0.15228E+08         0.00000E+00
    0.00000E+00         0.00000E+00        -0.38643E+07
 
   -0.40895E+07         0.10651E+07         0.00000E+00
    0.10651E+07        -0.15230E+08         0.00000E+00
    0.00000E+00         0.00000E+00        -0.38640E+07
 
   -0.40855E+07         0.11342E+07         0.00000E+00
    0.11342E+07        -0.15232E+08         0.00000E+00
    0.00000E+00         0.00000E+00        -0.38636E+07
 
   -0.40813E+07         0.12035E+07         0.00000E+00
    0.12035E+07        -0.15234E+08         0.00000E+00
    0.00000E+00         0.00000E+00        -0.38631E+07
 
   -0.40769E+07         0.12729E+07         0.00000E+00
    0.12729E+07        -0.15237E+08         0.00000E+00
    0.00000E+00         0.00000E+00        -0.38627E+07
 
   -0.40722E+07         0.13423E+07         0.00000E+00
    0.13423E+07        -0.15239E+08         0.00000E+00
    0.00000E+00         0.00000E+00        -0.38622E+07
 
   -0.40672E+07         0.14118E+07         0.00000E+00
    0.14118E+07        -0.15241E+08         0.00000E+00
    0.00000E+00         0.00000E+00        -0.38617E+07
 
   -0.40621E+07         0.14815E+07         0.00000E+00
    0.14815E+07        -0.15244E+08         0.00000E+00
    0.00000E+00         0.00000E+00        -0.38612E+07
 
   -0.40567E+07         0.15512E+07         0.00000E+00
    0.15512E+07        -0.15247E+08         0.00000E+00
    0.00000E+00         0.00000E+00        -0.38607E+07
 
   -0.40511E+07         0.16211E+07         0.00000E+00
    0.16211E+07        -0.15249E+08         0.00000E+00
    0.00000E+00         0.00000E+00        -0.38601E+07
 
   -0.40453E+07         0.16911E+07         0.00000E+00
    0.16911E+07        -0.15252E+08         0.00000E+00
    0.00000E+00         0.00000E+00        -0.38595E+07
 
   -0.40393E+07         0.17612E+07         0.00000E+00
    0.17612E+07        -0.15255E+08         0.00000E+00
    0.00000E+00         0.00000E+00        -0.38589E+07
 
   -0.40331E+07         0.18315E+07         0.00000E+00
    0.18315E+07        -0.15258E+08         0.00000E+00
    0.00000E+00         0.00000E+00        -0.38582E+07
 
   -0.40267E+07         0.19019E+07         0.00000E+00
    0.19019E+07        -0.15261E+08         0.00000E+00
    0.00000E+00         0.00000E+00        -0.38576E+07
 
   -0.40200E+07         0.19724E+07         0.00000E+00
    0.19724E+07        -0.15264E+08         0.00000E+00
    0.00000E+00         0.00000E+00        -0.38569E+07
 
   -0.40132E+07         0.20430E+07         0.00000E+00
    0.20430E+07        -0.15268E+08         0.00000E+00
    0.00000E+00         0.00000E+00        -0.38562E+07
 
   -0.40062E+07         0.21138E+07         0.00000E+00
    0.21138E+07        -0.15271E+08         0.00000E+00
    0.00000E+00         0.00000E+00        -0.38555E+07
 
   -0.39989E+07         0.21848E+07         0.00000E+00
    0.21848E+07        -0.15275E+08         0.00000E+00
    0.00000E+00         0.00000E+00        -0.38547E+07
 
   -0.39915E+07         0.22559E+07         0.00000E+00
    0.22559E+07        -0.15278E+08         0.00000E+00
    0.00000E+00         0.00000E+00        -0.38539E+07
 
   -0.39840E+07         0.23272E+07         0.00000E+00
    0.23272E+07        -0.15282E+08         0.00000E+00
    0.00000E+00         0.00000E+00        -0.38532E+07
 
   -0.39762E+07         0.23986E+07         0.00000E+00
    0.23986E+07        -0.15285E+08         0.00000E+00
    0.00000E+00         0.00000E+00        -0.38523E+07
 
   -0.39683E+07         0.24702E+07         0.00000E+00
    0.24702E+07        -0.15289E+08         0.00000E+00
    0.00000E+00         0.00000E+00        -0.38515E+07
 
   -0.39602E+07         0.25419E+07         0.00000E+00
    0.25419E+07        -0.15293E+08         0.00000E+00
    0.00000E+00         0.00000E+00        -0.38507E+07
 
   -0.39519E+07         0.26139E+07         0.00000E+00
    0.26139E+07        -0.15297E+08         0.00000E+00
    0.00000E+00         0.00000E+00        -0.38498E+07
 
   -0.39435E+07         0.26860E+07         0.00000E+00
    0.26860E+07        -0.15301E+08         0.00000E+00
    0.00000E+00         0.00000E+00        -0.38489E+07
 
   -0.39350E+07         0.27583E+07         0.00000E+00
    0.27583E+07        -0.15305E+08         0.00000E+00
    0.00000E+00         0.00000E+00        -0.38480E+07
 
   -0.39263E+07         0.28307E+07         0.00000E+00
    0.28307E+07        -0.15309E+08         0.00000E+00
    0.00000E+00         0.00000E+00        -0.38471E+07
 
   -0.39174E+07         0.29034E+07         0.00000E+00
    0.29034E+07        -0.15313E+08         0.00000E+00
    0.00000E+00         0.00000E+00        -0.38461E+07
 
   -0.39084E+07         0.29762E+07         0.00000E+00
    0.29762E+07        -0.15317E+08         0.00000E+00
    0.00000E+00         0.00000E+00        -0.38451E+07
 
   -0.38993E+07         0.30492E+07         0.00000E+00
    0.30492E+07        -0.15321E+08         0.00000E+00
    0.00000E+00         0.00000E+00        -0.38442E+07
 
   -0.38901E+07         0.31224E+07         0.00000E+00
    0.31224E+07        -0.15326E+08         0.00000E+00
    0.00000E+00         0.00000E+00        -0.38432E+07
 
   -0.38807E+07         0.31958E+07         0.00000E+00
    0.31958E+07        -0.15330E+08         0.00000E+00
    0.00000E+00         0.00000E+00        -0.38421E+07
 
   -0.38713E+07         0.32694E+07         0.00000E+00
    0.32694E+07        -0.15334E+08         0.00000E+00
    0.00000E+00         0.00000E+00        -0.38411E+07
 
   -0.38617E+07         0.33432E+07         0.00000E+00
    0.33432E+07        -0.15339E+08         0.00000E+00
    0.00000E+00         0.00000E+00        -0.38401E+07
 
   -0.38520E+07         0.34172E+07         0.00000E+00
    0.34172E+07        -0.15343E+08         0.00000E+00
    0.00000E+00         0.00000E+00        -0.38390E+07
 
   -0.38423E+07         0.34914E+07         0.00000E+00
    0.34914E+07        -0.15347E+08         0.00000E+00
    0.00000E+00         0.00000E+00        -0.38379E+07
 
   -0.42794E+07         0.33925E+05         0.00000E+00
    0.33925E+05        -0.15716E+08         0.00000E+00
    0.00000E+00         0.00000E+00        -0.39991E+07
 
   -0.42792E+07         0.10177E+06         0.00000E+00
    0.10177E+06        -0.15716E+08         0.00000E+00
    0.00000E+00         0.00000E+00        -0.39991E+07
 
   -0.42787E+07         0.16962E+06         0.00000E+00
    0.16962E+06        -0.15716E+08         0.00000E+00
    0.00000E+00         0.00000E+00        -0.39990E+07
 
   -0.42779E+07         0.23748E+06         0.00000E+00
    0.23748E+06        -0.15717E+08         0.00000E+00
    0.00000E+00         0.00000E+00        -0.39990E+07
 
   -0.42768E+07         0.30535E+06         0.00000E+00
    0.30535E+06        -0.15717E+08         0.00000E+00
    0.00000E+00         0.00000E+00        -0.39989E+07
 
   -0.42754E+07         0.37326E+06         0.00000E+00
    0.37326E+06        -0.15718E+08         0.00000E+00
    0.00000E+00         0.00000E+00        -0.39987E+07
 
   -0.42738E+07         0.44119E+06         0.00000E+00
    0.44119E+06        -0.15719E+08         0.00000E+00
    0.00000E+00         0.00000E+00        -0.39986E+07
 
   -0.42718E+07         0.50915E+06         0.00000E+00
    0.50915E+06        -0.15720E+08         0.00000E+00
    0.00000E+00         0.00000E+00        -0.39984E+07
 
   -0.42696E+07         0.57716E+06         0.00000E+00
    0.57716E+06        -0.15721E+08         0.00000E+00
    0.00000E+00         0.00000E+00        -0.39982E+07
 
   -0.42671E+07         0.64522E+06         0.00000E+00
    0.64522E+06        -0.15722E+08         0.00000E+00
    0.00000E+00         0.00000E+00        -0.39979E+07
 
   -0.42643E+07         0.71333E+06         0.00000E+00
    0.71333E+06        -0.15724E+08         0.00000E+00
    0.00000E+00         0.00000E+00        -0.39976E+07
 
   -0.42612E+07         0.78151E+06         0.00000E+00
    0.78151E+06        -0.15725E+08         0.00000E+00
    0.00000E+00         0.00000E+00        -0.39973E+07
 
   -0.42579E+07         0.84975E+06         0.00000E+00
    0.84975E+06        -0.15727E+08         0.00000E+00
    0.00000E+00         0.00000E+00        -0.39970E+07
 
   -0.42543E+07         0.91806E+06         0.00000E+00
    0.91806E+06        -0.15729E+08         0.00000E+00
    0.00000E+00         0.00000E+00        -0.39966E+07
 
   -0.42504E+07         0.98645E+06         0.00000E+00
    0.98645E+06        -0.15731E+08         0.00000E+00
    0.00000E+00         0.00000E+00        -0.39962E+07
 
   -0.42462E+07         0.10549E+07         0.00000E+00
    0.10549E+07        -0.15733E+08         0.00000E+00
    0.00000E+00         0.00000E+00        -0.39958E+07
 
   -0.42418E+07         0.11235E+07         0.00000E+00
    0.11235E+07        -0.15735E+08         0.00000E+00
    0.00000E+00         0.00000E+00        -0.39954E+07
 
   -0.42371E+07         0.11921E+07         0.00000E+00
    0.11921E+07        -0.15737E+08         0.00000E+00
    0.00000E+00         0.00000E+00        -0.39949E+07
 
   -0.42322E+07         0.12609E+07         0.00000E+00
    0.12609E+07        -0.15740E+08         0.00000E+00
    0.00000E+00         0.00000E+00        -0.39944E+07
 
   -0.42270E+07         0.13298E+07         0.00000E+00
    0.13298E+07        -0.15743E+08         0.00000E+00
    0.00000E+00         0.00000E+00        -0.39939E+07
 
   -0.42215E+07         0.13987E+07         0.00000E+00
    0.13987E+07        -0.15745E+08         0.00000E+00
    0.00000E+00         0.00000E+00        -0.39933E+07
 
   -0.42158E+07         0.14678E+07         0.00000E+00
    0.14678E+07        -0.15748E+08         0.00000E+00
    0.00000E+00         0.00000E+00        -0.39928E+07
 
   -0.42098E+07         0.15371E+07         0.00000E+00
    0.15371E+07        -0.15751E+08         0.00000E+00
    0.00000E+00         0.00000E+00        -0.39922E+07
 
   -0.42036E+07         0.16064E+07         0.00000E+00
    0.16064E+07        -0.15754E+08         0.00000E+00
    0.00000E+00         0.00000E+00        -0.39915E+07
 
   -0.41972E+07         0.16759E+07         0.00000E+00
    0.16759E+07        -0.15757E+08         0.00000E+00
    0.00000E+00         0.00000E+00        -0.39909E+07
 
   -0.41905E+07         0.17455E+07         0.00000E+00
    0.17455E+07        -0.15760E+08         0.00000E+00
    0.00000E+00         0.00000E+00        -0.39902E+07
 
   -0.41836E+07         0.18152E+07         0.00000E+00
    0.18152E+07        -0.15764E+08         0.00000E+00
    0.00000E+00         0.00000E+00        -0.39895E+07
 
   -0.41764E+07         0.18851E+07         0.00000E+00
    0.18851E+07        -0.15767E+08         0.00000E+00
    0.00000E+00         0.00000E+00        -0.39887E+07
 
   -0.41691E+07         0.19552E+07         0.00000E+00
    0.19552E+07        -0.15771E+08         0.00000E+00
    0.00000E+00         0.00000E+00        -0.39880E+07
 
   -0.41615E+07         0.20254E+07         0.00000E+00
    0.20254E+07        -0.15775E+08         0.00000E+00
    0.00000E+00         0.00000E+00        -0.39872E+07
 
   -0.41537E+07         0.20958E+07         0.00000E+00
    0.20958E+07        -0.15778E+08         0.00000E+00
    0.00000E+00         0.00000E+00        -0.39864E+07
 
   -0.41456E+07         0.21663E+07         0.00000E+00
    0.21663E+07        -0.15782E+08         0.00000E+00
    0.00000E+00         0.00000E+00        -0.39856E+07
 
   -0.41374E+07         0.22370E+07         0.00000E+00
    0.22370E+07        -0.15786E+08         0.00000E+00
    0.00000E+00         0.00000E+00        -0.39847E+07
 
   -0.41290E+07         0.23079E+07         0.00000E+00
    0.23079E+07        -0.15790E+08         0.00000E+00
    0.00000E+00         0.00000E+00        -0.39838E+07
 
   -0.41204E+07         0.23789E+07         0.00000E+00
    0.23789E+07        -0.15794E+08         0.00000E+00
    0.00000E+00         0.00000E+00        -0.39829E+07
 
   -0.41116E+07         0.24502E+07         0.00000E+00
    0.24502E+07        -0.15798E+08         0.00000E+00
    0.00000E+00         0.00000E+00        -0.39820E+07
 
   -0.41026E+07         0.25216E+07         0.00000E+00
    0.25216E+07        -0.15803E+08         0.00000E+00
    0.00000E+00         0.00000E+00        -0.39811E+07
 
   -0.40935E+07         0.25932E+07         0.00000E+00
    0.25932E+07        -0.15807E+08         0.00000E+00
    0.00000E+00         0.00000E+00        -0.39801E+07
 
   -0.40841E+07         0.26650E+07         0.00000E+00
    0.26650E+07        -0.15811E+08         0.00000E+00
    0.00000E+00         0.00000E+00        -0.39791E+07
 
   -0.40746E+07         0.27370E+07         0.00000E+00
    0.27370E+07        -0.15816E+08         0.00000E+00
    0.00000E+00         0.00000E+00        -0.39781E+07
 
   -0.40650E+07         0.28092E+07         0.00000E+00
    0.28092E+07        -0.15820E+08         0.00000E+00
    0.00000E+00         0.00000E+00        -0.39771E+07
 
   -0.40552E+07         0.28816E+07         0.00000E+00
    0.28816E+07        -0.15825E+08         0.00000E+00
    0.00000E+00         0.00000E+00        -0.39760E+07
 
   -0.40452E+07         0.29542E+07         0.00000E+00
    0.29542E+07        -0.15830E+08         0.00000E+00
    0.00000E+00         0.00000E+00        -0.39749E+07
 
   -0.40351E+07         0.30270E+07         0.00000E+00
    0.30270E+07        -0.15834E+08         0.00000E+00
    0.00000E+00         0.00000E+00        -0.39739E+07
 
   -0.40248E+07         0.31000E+07         0.00000E+00
    0.31000E+07        -0.15839E+08         0.00000E+00
    0.00000E+00         0.00000E+00        -0.39728E+07
 
   -0.40145E+07         0.31733E+07         0.00000E+00
    0.31733E+07        -0.15844E+08         0.00000E+00
    0.00000E+00         0.00000E+00        -0.39716E+07
 
   -0.40040E+07         0.32467E+07         0.00000E+00
    0.32467E+07        -0.15848E+08         0.00000E+00
    0.00000E+00         0.00000E+00        -0.39705E+07
 
   -0.39933E+07         0.33204E+07         0.00000E+00
    0.33204E+07        -0.15853E+08         0.00000E+00
    0.00000E+00         0.00000E+00        -0.39693E+07
 
   -0.39826E+07         0.33943E+07         0.00000E+00
    0.33943E+07        -0.15858E+08         0.00000E+00
    0.00000E+00         0.00000E+00        -0.39681E+07
 
   -0.39718E+07         0.34684E+07         0.00000E+00
    0.34684E+07        -0.15863E+08         0.00000E+00
    0.00000E+00         0.00000E+00        -0.39669E+07
 
   -0.44430E+07         0.33551E+05         0.00000E+00
    0.33551E+05        -0.16217E+08         0.00000E+00
    0.00000E+00         0.00000E+00        -0.41320E+07
 
   -0.44427E+07         0.10064E+06         0.00000E+00
    0.10064E+06        -0.16217E+08         0.00000E+00
    0.00000E+00         0.00000E+00        -0.41320E+07
 
   -0.44422E+07         0.16774E+06         0.00000E+00
    0.16774E+06        -0.16217E+08         0.00000E+00
    0.00000E+00         0.00000E+00        -0.41319E+07
 
   -0.44413E+07         0.23485E+06         0.00000E+00
    0.23485E+06        -0.16218E+08         0.00000E+00
    0.00000E+00         0.00000E+00        -0.41318E+07
 
   -0.44401E+07         0.30198E+06         0.00000E+00
    0.30198E+06        -0.16219E+08         0.00000E+00
    0.00000E+00         0.00000E+00        -0.41317E+07
 
   -0.44386E+07         0.36913E+06         0.00000E+00
    0.36913E+06        -0.16219E+08         0.00000E+00
    0.00000E+00         0.00000E+00        -0.41316E+07
 
   -0.44367E+07         0.43632E+06         0.00000E+00
    0.43632E+06        -0.16220E+08         0.00000E+00
    0.00000E+00         0.00000E+00        -0.41314E+07
 
   -0.44346E+07         0.50354E+06         0.00000E+00
    0.50354E+06        -0.16221E+08         0.00000E+00
    0.00000E+00         0.00000E+00        -0.41312E+07
 
   -0.44321E+07         0.57082E+06         0.00000E+00
    0.57082E+06        -0.16223E+08         0.00000E+00
    0.00000E+00         0.00000E+00        -0.41310E+07
 
   -0.44293E+07         0.63814E+06         0.00000E+00
    0.63814E+06        -0.16224E+08         0.00000E+00
    0.00000E+00         0.00000E+00        -0.41307E+07
 
   -0.44263E+07         0.70553E+06         0.00000E+00
    0.70553E+06        -0.16226E+08         0.00000E+00
    0.00000E+00         0.00000E+00        -0.41304E+07
 
   -0.44229E+07         0.77299E+06         0.00000E+00
    0.77299E+06        -0.16227E+08         0.00000E+00
    0.00000E+00         0.00000E+00        -0.41300E+07
 
   -0.44192E+07         0.84051E+06         0.00000E+00
    0.84051E+06        -0.16229E+08         0.00000E+00
    0.00000E+00         0.00000E+00        -0.41297E+07
 
   -0.44151E+07         0.90812E+06         0.00000E+00
    0.90812E+06        -0.16231E+08         0.00000E+00
    0.00000E+00         0.00000E+00        -0.41293E+07
 
   -0.44108E+07         0.97582E+06         0.00000E+00
    0.97582E+06        -0.16233E+08         0.00000E+00
    0.00000E+00         0.00000E+00        -0.41289E+07
 
   -0.44062E+07         0.10436E+07         0.00000E+00
    0.10436E+07        -0.16236E+08         0.00000E+00
    0.00000E+00         0.00000E+00        -0.41284E+07
 
   -0.44013E+07         0.11115E+07         0.00000E+00
    0.11115E+07        -0.16238E+08         0.00000E+00
    0.00000E+00         0.00000E+00        -0.41279E+07
 
   -0.43961E+07         0.11795E+07         0.00000E+00
    0.11795E+07        -0.16241E+08         0.00000E+00
    0.00000E+00         0.00000E+00        -0.41274E+07
 
   -0.43906E+07         0.12476E+07         0.00000E+00
    0.12476E+07        -0.16244E+08         0.00000E+00
    0.00000E+00         0.00000E+00        -0.41268E+07
 
   -0.43848E+07         0.13158E+07         0.00000E+00
    0.13158E+07        -0.16246E+08         0.00000E+00
    0.00000E+00         0.00000E+00        -0.41262E+07
 
   -0.43787E+07         0.13842E+07         0.00000E+00
    0.13842E+07        -0.16249E+08         0.00000E+00
    0.00000E+00         0.00000E+00        -0.41256E+07
 
   -0.43724E+07         0.14526E+07         0.00000E+00
    0.14526E+07        -0.16253E+08         0.00000E+00
    0.00000E+00         0.00000E+00        -0.41250E+07
 
   -0.43658E+07         0.15213E+07         0.00000E+00
    0.15213E+07        -0.16256E+08         0.00000E+00
    0.00000E+00         0.00000E+00        -0.41243E+07
 
   -0.43589E+07         0.15900E+07         0.00000E+00
    0.15900E+07        -0.16259E+08         0.00000E+00
    0.00000E+00         0.00000E+00        -0.41236E+07
 
   -0.43517E+07         0.16589E+07         0.00000E+00
    0.16589E+07        -0.16263E+08         0.00000E+00
    0.00000E+00         0.00000E+00        -0.41229E+07
 
   -0.43443E+07         0.17280E+07         0.00000E+00
    0.17280E+07        -0.16266E+08         0.00000E+00
    0.00000E+00         0.00000E+00        -0.41221E+07
 
   -0.43366E+07         0.17972E+07         0.00000E+00
    0.17972E+07        -0.16270E+08         0.00000E+00
    0.00000E+00         0.00000E+00        -0.41214E+07
 
   -0.43287E+07         0.18665E+07         0.00000E+00
    0.18665E+07        -0.16274E+08         0.00000E+00
    0.00000E+00         0.00000E+00        -0.41205E+07
 
   -0.43205E+07         0.19361E+07         0.00000E+00
    0.19361E+07        -0.16278E+08         0.00000E+00
    0.00000E+00         0.00000E+00        -0.41197E+07
 
   -0.43121E+07         0.20058E+07         0.00000E+00
    0.20058E+07        -0.16282E+08         0.00000E+00
    0.00000E+00         0.00000E+00        -0.41188E+07
 
   -0.43034E+07         0.20757E+07         0.00000E+00
    0.20757E+07        -0.16286E+08         0.00000E+00
    0.00000E+00         0.00000E+00        -0.41179E+07
 
   -0.42946E+07         0.21457E+07         0.00000E+00
    0.21457E+07        -0.16291E+08         0.00000E+00
    0.00000E+00         0.00000E+00        -0.41170E+07
 
   -0.42854E+07         0.22160E+07         0.00000E+00
    0.22160E+07        -0.16295E+08         0.00000E+00
    0.00000E+00         0.00000E+00        -0.41161E+07
 
   -0.42761E+07         0.22865E+07         0.00000E+00
    0.22865E+07        -0.16299E+08         0.00000E+00
    0.00000E+00         0.00000E+00        -0.41151E+07
 
   -0.42666E+07         0.23571E+07         0.00000E+00
    0.23571E+07        -0.16304E+08         0.00000E+00
    0.00000E+00         0.00000E+00        -0.41141E+07
 
   -0.42568E+07         0.24279E+07         0.00000E+00
    0.24279E+07        -0.16309E+08         0.00000E+00
    0.00000E+00         0.00000E+00        -0.41131E+07
 
   -0.42468E+07         0.24990E+07         0.00000E+00
    0.24990E+07        -0.16313E+08         0.00000E+00
    0.00000E+00         0.00000E+00        -0.41120E+07
 
   -0.42367E+07         0.25702E+07         0.00000E+00
    0.25702E+07        -0.16318E+08         0.00000E+00
    0.00000E+00         0.00000E+00        -0.41110E+07
 
   -0.42263E+07         0.26417E+07         0.00000E+00
    0.26417E+07        -0.16323E+08         0.00000E+00
    0.00000E+00         0.00000E+00        -0.41099E+07
 
   -0.42158E+07         0.27134E+07         0.00000E+00
    0.27134E+07        -0.16328E+08         0.00000E+00
    0.00000E+00         0.00000E+00        -0.41087E+07
 
   -0.42051E+07         0.27853E+07         0.00000E+00
    0.27853E+07        -0.16333E+08         0.00000E+00
    0.00000E+00         0.00000E+00        -0.41076E+07
 
   -0.41942E+07         0.28574E+07         0.00000E+00
    0.28574E+07        -0.16338E+08         0.00000E+00
    0.00000E+00         0.00000E+00        -0.41064E+07
 
   -0.41831E+07         0.29298E+07         0.00000E+00
    0.29298E+07        -0.16343E+08         0.00000E+00
    0.00000E+00         0.00000E+00        -0.41053E+07
 
   -0.41719E+07         0.30023E+07         0.00000E+00
    0.30023E+07        -0.16348E+08         0.00000E+00
    0.00000E+00         0.00000E+00        -0.41040E+07
 
   -0.41606E+07         0.30752E+07         0.00000E+00
    0.30752E+07        -0.16353E+08         0.00000E+00
    0.00000E+00         0.00000E+00        -0.41028E+07
 
   -0.41491E+07         0.31482E+07         0.00000E+00
    0.31482E+07        -0.16359E+08         0.00000E+00
    0.00000E+00         0.00000E+00        -0.41016E+07
 
   -0.41374E+07         0.32215E+07         0.00000E+00
    0.32215E+07        -0.16364E+08         0.00000E+00
    0.00000E+00         0.00000E+00        -0.41003E+07
 
   -0.41257E+07         0.32950E+07         0.00000E+00
    0.32950E+07        -0.16369E+08         0.00000E+00
    0.00000E+00         0.00000E+00        -0.40990E+07
 
   -0.41138E+07         0.33688E+07         0.00000E+00
    0.33688E+07        -0.16375E+08         0.00000E+00
    0.00000E+00         0.00000E+00        -0.40977E+07
 
   -0.41017E+07         0.34428E+07         0.00000E+00
    0.34428E+07        -0.16380E+08         0.00000E+00
    0.00000E+00         0.00000E+00        -0.40964E+07
 
   -0.46105E+07         0.33132E+05         0.00000E+00
    0.33132E+05        -0.16718E+08         0.00000E+00
    0.00000E+00         0.00000E+00        -0.42657E+07
 
   -0.46102E+07         0.99385E+05         0.00000E+00
    0.99385E+05        -0.16718E+08         0.00000E+00
    0.00000E+00         0.00000E+00        -0.42657E+07
 
   -0.46096E+07         0.16564E+06         0.00000E+00
    0.16564E+06        -0.16718E+08         0.00000E+00
    0.00000E+00         0.00000E+00        -0.42656E+07
 
   -0.46087E+07         0.23191E+06         0.00000E+00
    0.23191E+06        -0.16719E+08         0.00000E+00
    0.00000E+00         0.00000E+00        -0.42655E+07
 
   -0.46074E+07         0.29820E+06         0.00000E+00
    0.29820E+06        -0.16720E+08         0.00000E+00
    0.00000E+00         0.00000E+00        -0.42654E+07
 
   -0.46057E+07         0.36452E+06         0.00000E+00
    0.36452E+06        -0.16721E+08         0.00000E+00
    0.00000E+00         0.00000E+00        -0.42652E+07
 
   -0.46037E+07         0.43088E+06         0.00000E+00
    0.43088E+06        -0.16722E+08         0.00000E+00
    0.00000E+00         0.00000E+00        -0.42650E+07
 
   -0.46013E+07         0.49728E+06         0.00000E+00
    0.49728E+06        -0.16723E+08         0.00000E+00
    0.00000E+00         0.00000E+00        -0.42648E+07
 
   -0.45986E+07         0.56373E+06         0.00000E+00
    0.56373E+06        -0.16724E+08         0.00000E+00
    0.00000E+00         0.00000E+00        -0.42646E+07
 
   -0.45955E+07         0.63024E+06         0.00000E+00
    0.63024E+06        -0.16726E+08         0.00000E+00
    0.00000E+00         0.00000E+00        -0.42643E+07
 
   -0.45921E+07         0.69682E+06         0.00000E+00
    0.69682E+06        -0.16728E+08         0.00000E+00
    0.00000E+00         0.00000E+00        -0.42639E+07
 
   -0.45883E+07         0.76348E+06         0.00000E+00
    0.76348E+06        -0.16729E+08         0.00000E+00
    0.00000E+00         0.00000E+00        -0.42636E+07
 
   -0.45842E+07         0.83021E+06         0.00000E+00
    0.83021E+06        -0.16732E+08         0.00000E+00
    0.00000E+00         0.00000E+00        -0.42632E+07
 
   -0.45797E+07         0.89704E+06         0.00000E+00
    0.89704E+06        -0.16734E+08         0.00000E+00
    0.00000E+00         0.00000E+00        -0.42627E+07
 
   -0.45749E+07         0.96396E+06         0.00000E+00
    0.96396E+06        -0.16736E+08         0.00000E+00
    0.00000E+00         0.00000E+00        -0.42622E+07
 
   -0.45698E+07         0.10310E+07         0.00000E+00
    0.10310E+07        -0.16739E+08         0.00000E+00
    0.00000E+00         0.00000E+00        -0.42617E+07
 
   -0.45643E+07         0.10981E+07         0.00000E+00
    0.10981E+07        -0.16742E+08         0.00000E+00
    0.00000E+00         0.00000E+00        -0.42612E+07
 
   -0.45586E+07         0.11654E+07         0.00000E+00
    0.11654E+07        -0.16744E+08         0.00000E+00
    0.00000E+00         0.00000E+00        -0.42606E+07
 
   -0.45525E+07         0.12328E+07         0.00000E+00
    0.12328E+07        -0.16748E+08         0.00000E+00
    0.00000E+00         0.00000E+00        -0.42600E+07
 
   -0.45460E+07         0.13003E+07         0.00000E+00
    0.13003E+07        -0.16751E+08         0.00000E+00
    0.00000E+00         0.00000E+00        -0.42594E+07
 
   -0.45393E+07         0.13679E+07         0.00000E+00
    0.13679E+07        -0.16754E+08         0.00000E+00
    0.00000E+00         0.00000E+00        -0.42587E+07
 
   -0.45323E+07         0.14357E+07         0.00000E+00
    0.14357E+07        -0.16758E+08         0.00000E+00
    0.00000E+00         0.00000E+00        -0.42580E+07
 
   -0.45249E+07         0.15037E+07         0.00000E+00
    0.15037E+07        -0.16761E+08         0.00000E+00
    0.00000E+00         0.00000E+00        -0.42572E+07
 
   -0.45173E+07         0.15718E+07         0.00000E+00
    0.15718E+07        -0.16765E+08         0.00000E+00
    0.00000E+00         0.00000E+00        -0.42565E+07
 
   -0.45093E+07         0.16400E+07         0.00000E+00
    0.16400E+07        -0.16769E+08         0.00000E+00
    0.00000E+00         0.00000E+00        -0.42557E+07
 
   -0.45011E+07         0.17085E+07         0.00000E+00
    0.17085E+07        -0.16773E+08         0.00000E+00
    0.00000E+00         0.00000E+00        -0.42548E+07
 
   -0.44926E+07         0.17771E+07         0.00000E+00
    0.17771E+07        -0.16777E+08         0.00000E+00
    0.00000E+00         0.00000E+00        -0.42539E+07
 
   -0.44838E+07         0.18459E+07         0.00000E+00
    0.18459E+07        -0.16781E+08         0.00000E+00
    0.00000E+00         0.00000E+00        -0.42530E+07
 
   -0.44747E+07         0.19148E+07         0.00000E+00
    0.19148E+07        -0.16786E+08         0.00000E+00
    0.00000E+00         0.00000E+00        -0.42521E+07
 
   -0.44653E+07         0.19840E+07         0.00000E+00
    0.19840E+07        -0.16790E+08         0.00000E+00
    0.00000E+00         0.00000E+00        -0.42512E+07
 
   -0.44557E+07         0.20534E+07         0.00000E+00
    0.20534E+07        -0.16795E+08         0.00000E+00
    0.00000E+00         0.00000E+00        -0.42502E+07
 
   -0.44459E+07         0.21229E+07         0.00000E+00
    0.21229E+07        -0.16800E+08         0.00000E+00
    0.00000E+00         0.00000E+00        -0.42491E+07
 
   -0.44358E+07         0.21927E+07         0.00000E+00
    0.21927E+07        -0.16805E+08         0.00000E+00
    0.00000E+00         0.00000E+00        -0.42481E+07
 
   -0.44254E+07         0.22627E+07         0.00000E+00
    0.22627E+07        -0.16810E+08         0.00000E+00
    0.00000E+00         0.00000E+00        -0.42470E+07
 
   -0.44148E+07         0.23329E+07         0.00000E+00
    0.23329E+07        -0.16815E+08         0.00000E+00
    0.00000E+00         0.00000E+00        -0.42459E+07
 
   -0.44040E+07         0.24033E+07         0.00000E+00
    0.24033E+07        -0.16820E+08         0.00000E+00
    0.00000E+00         0.00000E+00        -0.42448E+07
 
   -0.43930E+07         0.24739E+07         0.00000E+00
    0.24739E+07        -0.16825E+08         0.00000E+00
    0.00000E+00         0.00000E+00        -0.42436E+07
 
   -0.43817E+07         0.25448E+07         0.00000E+00
    0.25448E+07        -0.16830E+08         0.00000E+00
    0.00000E+00         0.00000E+00        -0.42424E+07
 
   -0.43702E+07         0.26159E+07         0.00000E+00
    0.26159E+07        -0.16836E+08         0.00000E+00
    0.00000E+00         0.00000E+00        -0.42412E+07
 
   -0.43586E+07         0.26872E+07         0.00000E+00
    0.26872E+07        -0.16841E+08         0.00000E+00
    0.00000E+00         0.00000E+00        -0.42400E+07
 
   -0.43467E+07         0.27588E+07         0.00000E+00
    0.27588E+07        -0.16847E+08         0.00000E+00
    0.00000E+00         0.00000E+00        -0.42387E+07
 
   -0.43346E+07         0.28306E+07         0.00000E+00
    0.28306E+07        -0.16852E+08         0.00000E+00
    0.00000E+00         0.00000E+00        -0.42374E+07
 
   -0.43224E+07         0.29027E+07         0.00000E+00
    0.29027E+07        -0.16858E+08         0.00000E+00
    0.00000E+00         0.00000E+00        -0.42361E+07
 
   -0.43100E+07         0.29750E+07         0.00000E+00
    0.29750E+07        -0.16864E+08         0.00000E+00
    0.00000E+00         0.00000E+00        -0.42348E+07
 
   -0.42974E+07         0.30476E+07         0.00000E+00
    0.30476E+07        -0.16870E+08         0.00000E+00
    0.00000E+00         0.00000E+00        -0.42334E+07
 
   -0.42846E+07         0.31204E+07         0.00000E+00
    0.31204E+07        -0.16875E+08         0.00000E+00
    0.00000E+00         0.00000E+00        -0.42320E+07
 
   -0.42718E+07         0.31935E+07         0.00000E+00
    0.31935E+07        -0.16881E+08         0.00000E+00
    0.00000E+00         0.00000E+00        -0.42306E+07
 
   -0.42587E+07         0.32669E+07         0.00000E+00
    0.32669E+07        -0.16887E+08         0.00000E+00
    0.00000E+00         0.00000E+00        -0.42292E+07
 
   -0.42455E+07         0.33405E+07         0.00000E+00
    0.33405E+07        -0.16893E+08         0.00000E+00
    0.00000E+00         0.00000E+00        -0.42277E+07
 
   -0.42322E+07         0.34144E+07         0.00000E+00
    0.34144E+07        -0.16899E+08         0.00000E+00
    0.00000E+00         0.00000E+00        -0.42263E+07
 
   -0.47825E+07         0.32664E+05         0.00000E+00
    0.32664E+05        -0.17219E+08         0.00000E+00
    0.00000E+00         0.00000E+00        -0.44003E+07
 
   -0.47822E+07         0.97977E+05         0.00000E+00
    0.97977E+05        -0.17219E+08         0.00000E+00
    0.00000E+00         0.00000E+00        -0.44002E+07
 
   -0.47816E+07         0.16329E+06         0.00000E+00
    0.16329E+06        -0.17219E+08         0.00000E+00
    0.00000E+00         0.00000E+00        -0.44002E+07
 
   -0.47805E+07         0.22863E+06         0.00000E+00
    0.22863E+06        -0.17220E+08         0.00000E+00
    0.00000E+00         0.00000E+00        -0.44001E+07
 
   -0.47791E+07         0.29398E+06         0.00000E+00
    0.29398E+06        -0.17221E+08         0.00000E+00
    0.00000E+00         0.00000E+00        -0.44000E+07
 
   -0.47772E+07         0.35937E+06         0.00000E+00
    0.35937E+06        -0.17222E+08         0.00000E+00
    0.00000E+00         0.00000E+00        -0.43998E+07
 
   -0.47750E+07         0.42480E+06         0.00000E+00
    0.42480E+06        -0.17223E+08         0.00000E+00
    0.00000E+00         0.00000E+00        -0.43996E+07
 
   -0.47724E+07         0.49028E+06         0.00000E+00
    0.49028E+06        -0.17224E+08         0.00000E+00
    0.00000E+00         0.00000E+00        -0.43993E+07
 
   -0.47693E+07         0.55581E+06         0.00000E+00
    0.55581E+06        -0.17226E+08         0.00000E+00
    0.00000E+00         0.00000E+00        -0.43991E+07
 
   -0.47659E+07         0.62142E+06         0.00000E+00
    0.62142E+06        -0.17228E+08         0.00000E+00
    0.00000E+00         0.00000E+00        -0.43987E+07
 
   -0.47621E+07         0.68709E+06         0.00000E+00
    0.68709E+06        -0.17230E+08         0.00000E+00
    0.00000E+00         0.00000E+00        -0.43984E+07
 
   -0.47579E+07         0.75286E+06         0.00000E+00
    0.75286E+06        -0.17232E+08         0.00000E+00
    0.00000E+00         0.00000E+00        -0.43980E+07
 
   -0.47534E+07         0.81871E+06         0.00000E+00
    0.81871E+06        -0.17234E+08         0.00000E+00
    0.00000E+00         0.00000E+00        -0.43975E+07
 
   -0.47484E+07         0.88467E+06         0.00000E+00
    0.88467E+06        -0.17237E+08         0.00000E+00
    0.00000E+00         0.00000E+00        -0.43970E+07
 
   -0.47431E+07         0.95073E+06         0.00000E+00
    0.95073E+06        -0.17239E+08         0.00000E+00
    0.00000E+00         0.00000E+00        -0.43965E+07
 
   -0.47374E+07         0.10169E+07         0.00000E+00
    0.10169E+07        -0.17242E+08         0.00000E+00
    0.00000E+00         0.00000E+00        -0.43959E+07
 
   -0.47314E+07         0.10832E+07         0.00000E+00
    0.10832E+07        -0.17245E+08         0.00000E+00
    0.00000E+00         0.00000E+00        -0.43953E+07
 
   -0.47249E+07         0.11497E+07         0.00000E+00
    0.11497E+07        -0.17249E+08         0.00000E+00
    0.00000E+00         0.00000E+00        -0.43947E+07
 
   -0.47181E+07         0.12162E+07         0.00000E+00
    0.12162E+07        -0.17252E+08         0.00000E+00
    0.00000E+00         0.00000E+00        -0.43940E+07
 
   -0.47110E+07         0.12830E+07         0.00000E+00
    0.12830E+07        -0.17256E+08         0.00000E+00
    0.00000E+00         0.00000E+00        -0.43933E+07
 
   -0.47035E+07         0.13498E+07         0.00000E+00
    0.13498E+07        -0.17259E+08         0.00000E+00
    0.00000E+00         0.00000E+00        -0.43926E+07
 
   -0.46957E+07         0.14169E+07         0.00000E+00
    0.14169E+07        -0.17263E+08         0.00000E+00
    0.00000E+00         0.00000E+00        -0.43918E+07
 
   -0.46875E+07         0.14841E+07         0.00000E+00
    0.14841E+07        -0.17267E+08         0.00000E+00
    0.00000E+00         0.00000E+00        -0.43910E+07
 
   -0.46790E+07         0.15515E+07         0.00000E+00
    0.15515E+07        -0.17271E+08         0.00000E+00
    0.00000E+00         0.00000E+00        -0.43901E+07
 
   -0.46702E+07         0.16190E+07         0.00000E+00
    0.16190E+07        -0.17276E+08         0.00000E+00
    0.00000E+00         0.00000E+00        -0.43892E+07
 
   -0.46611E+07         0.16868E+07         0.00000E+00
    0.16868E+07        -0.17280E+08         0.00000E+00
    0.00000E+00         0.00000E+00        -0.43883E+07
 
   -0.46516E+07         0.17547E+07         0.00000E+00
    0.17547E+07        -0.17285E+08         0.00000E+00
    0.00000E+00         0.00000E+00        -0.43873E+07
 
   -0.46419E+07         0.18229E+07         0.00000E+00
    0.18229E+07        -0.17290E+08         0.00000E+00
    0.00000E+00         0.00000E+00        -0.43863E+07
 
   -0.46318E+07         0.18912E+07         0.00000E+00
    0.18912E+07        -0.17295E+08         0.00000E+00
    0.00000E+00         0.00000E+00        -0.43853E+07
 
   -0.46214E+07         0.19598E+07         0.00000E+00
    0.19598E+07        -0.17300E+08         0.00000E+00
    0.00000E+00         0.00000E+00        -0.43842E+07
 
   -0.46108E+07         0.20286E+07         0.00000E+00
    0.20286E+07        -0.17305E+08         0.00000E+00
    0.00000E+00         0.00000E+00        -0.43831E+07
 
   -0.45999E+07         0.20976E+07         0.00000E+00
    0.20976E+07        -0.17310E+08         0.00000E+00
    0.00000E+00         0.00000E+00        -0.43820E+07
 
   -0.45887E+07         0.21668E+07         0.00000E+00
    0.21668E+07        -0.17316E+08         0.00000E+00
    0.00000E+00         0.00000E+00        -0.43808E+07
 
   -0.45772E+07         0.22363E+07         0.00000E+00
    0.22363E+07        -0.17321E+08         0.00000E+00
    0.00000E+00         0.00000E+00        -0.43796E+07
 
   -0.45654E+07         0.23060E+07         0.00000E+00
    0.23060E+07        -0.17327E+08         0.00000E+00
    0.00000E+00         0.00000E+00        -0.43784E+07
 
   -0.45535E+07         0.23759E+07         0.00000E+00
    0.23759E+07        -0.17332E+08         0.00000E+00
    0.00000E+00         0.00000E+00        -0.43772E+07
 
   -0.45412E+07         0.24461E+07         0.00000E+00
    0.24461E+07        -0.17338E+08         0.00000E+00
    0.00000E+00         0.00000E+00        -0.43759E+07
 
   -0.45288E+07         0.25166E+07         0.00000E+00
    0.25166E+07        -0.17344E+08         0.00000E+00
    0.00000E+00         0.00000E+00        -0.43746E+07
 
   -0.45161E+07         0.25873E+07         0.00000E+00
    0.25873E+07        -0.17350E+08         0.00000E+00
    0.00000E+00         0.00000E+00        -0.43732E+07
 
   -0.45031E+07         0.26582E+07         0.00000E+00
    0.26582E+07        -0.17356E+08         0.00000E+00
    0.00000E+00         0.00000E+00        -0.43718E+07
 
   -0.44900E+07         0.27295E+07         0.00000E+00
    0.27295E+07        -0.17362E+08         0.00000E+00
    0.00000E+00         0.00000E+00        -0.43704E+07
 
   -0.44766E+07         0.28010E+07         0.00000E+00
    0.28010E+07        -0.17368E+08         0.00000E+00
    0.00000E+00         0.00000E+00        -0.43690E+07
 
   -0.44631E+07         0.28727E+07         0.00000E+00
    0.28727E+07        -0.17375E+08         0.00000E+00
    0.00000E+00         0.00000E+00        -0.43676E+07
 
   -0.44493E+07         0.29448E+07         0.00000E+00
    0.29448E+07        -0.17381E+08         0.00000E+00
    0.00000E+00         0.00000E+00        -0.43661E+07
 
   -0.44354E+07         0.30171E+07         0.00000E+00
    0.30171E+07        -0.17387E+08         0.00000E+00
    0.00000E+00         0.00000E+00        -0.43646E+07
 
   -0.44213E+07         0.30897E+07         0.00000E+00
    0.30897E+07        -0.17394E+08         0.00000E+00
    0.00000E+00         0.00000E+00        -0.43630E+07
 
   -0.44070E+07         0.31626E+07         0.00000E+00
    0.31626E+07        -0.17400E+08         0.00000E+00
    0.00000E+00         0.00000E+00        -0.43615E+07
 
   -0.43926E+07         0.32358E+07         0.00000E+00
    0.32358E+07        -0.17407E+08         0.00000E+00
    0.00000E+00         0.00000E+00        -0.43599E+07
 
   -0.43780E+07         0.33093E+07         0.00000E+00
    0.33093E+07        -0.17414E+08         0.00000E+00
    0.00000E+00         0.00000E+00        -0.43583E+07
 
   -0.43633E+07         0.33830E+07         0.00000E+00
    0.33830E+07        -0.17420E+08         0.00000E+00
    0.00000E+00         0.00000E+00        -0.43567E+07
 
   -0.49595E+07         0.32139E+05         0.00000E+00
    0.32139E+05        -0.17720E+08         0.00000E+00
    0.00000E+00         0.00000E+00        -0.45359E+07
 
   -0.49592E+07         0.96398E+05         0.00000E+00
    0.96398E+05        -0.17720E+08         0.00000E+00
    0.00000E+00         0.00000E+00        -0.45358E+07
 
   -0.49585E+07         0.16066E+06         0.00000E+00
    0.16066E+06        -0.17720E+08         0.00000E+00
    0.00000E+00         0.00000E+00        -0.45358E+07
 
   -0.49574E+07         0.22494E+06         0.00000E+00
    0.22494E+06        -0.17721E+08         0.00000E+00
    0.00000E+00         0.00000E+00        -0.45357E+07
 
   -0.49558E+07         0.28925E+06         0.00000E+00
    0.28925E+06        -0.17722E+08         0.00000E+00
    0.00000E+00         0.00000E+00        -0.45356E+07
 
   -0.49538E+07         0.35359E+06         0.00000E+00
    0.35359E+06        -0.17723E+08         0.00000E+00
    0.00000E+00         0.00000E+00        -0.45354E+07
 
   -0.49513E+07         0.41798E+06         0.00000E+00
    0.41798E+06        -0.17724E+08         0.00000E+00
    0.00000E+00         0.00000E+00        -0.45351E+07
 
   -0.49483E+07         0.48243E+06         0.00000E+00
    0.48243E+06        -0.17726E+08         0.00000E+00
    0.00000E+00         0.00000E+00        -0.45349E+07
 
   -0.49450E+07         0.54695E+06         0.00000E+00
    0.54695E+06        -0.17728E+08         0.00000E+00
    0.00000E+00         0.00000E+00        -0.45346E+07
 
   -0.49412E+07         0.61154E+06         0.00000E+00
    0.61154E+06        -0.17730E+08         0.00000E+00
    0.00000E+00         0.00000E+00        -0.45342E+07
 
   -0.49370E+07         0.67621E+06         0.00000E+00
    0.67621E+06        -0.17732E+08         0.00000E+00
    0.00000E+00         0.00000E+00        -0.45338E+07
 
   -0.49323E+07         0.74098E+06         0.00000E+00
    0.74098E+06        -0.17734E+08         0.00000E+00
    0.00000E+00         0.00000E+00        -0.45333E+07
 
   -0.49272E+07         0.80586E+06         0.00000E+00
    0.80586E+06        -0.17737E+08         0.00000E+00
    0.00000E+00         0.00000E+00        -0.45328E+07
 
   -0.49217E+07         0.87085E+06         0.00000E+00
    0.87085E+06        -0.17740E+08         0.00000E+00
    0.00000E+00         0.00000E+00        -0.45323E+07
 
   -0.49158E+07         0.93596E+06         0.00000E+00
    0.93596E+06        -0.17743E+08         0.00000E+00
    0.00000E+00         0.00000E+00        -0.45317E+07
 
   -0.49095E+07         0.10012E+07         0.00000E+00
    0.10012E+07        -0.17746E+08         0.00000E+00
    0.00000E+00         0.00000E+00        -0.45311E+07
 
   -0.49027E+07         0.10666E+07         0.00000E+00
    0.10666E+07        -0.17749E+08         0.00000E+00
    0.00000E+00         0.00000E+00        -0.45304E+07
 
   -0.48956E+07         0.11321E+07         0.00000E+00
    0.11321E+07        -0.17753E+08         0.00000E+00
    0.00000E+00         0.00000E+00        -0.45297E+07
 
   -0.48880E+07         0.11978E+07         0.00000E+00
    0.11978E+07        -0.17757E+08         0.00000E+00
    0.00000E+00         0.00000E+00        -0.45290E+07
 
   -0.48801E+07         0.12637E+07         0.00000E+00
    0.12637E+07        -0.17761E+08         0.00000E+00
    0.00000E+00         0.00000E+00        -0.45282E+07
 
   -0.48718E+07         0.13297E+07         0.00000E+00
    0.13297E+07        -0.17765E+08         0.00000E+00
    0.00000E+00         0.00000E+00        -0.45274E+07
 
   -0.48631E+07         0.13959E+07         0.00000E+00
    0.13959E+07        -0.17769E+08         0.00000E+00
    0.00000E+00         0.00000E+00        -0.45265E+07
 
   -0.48540E+07         0.14623E+07         0.00000E+00
    0.14623E+07        -0.17774E+08         0.00000E+00
    0.00000E+00         0.00000E+00        -0.45256E+07
 
   -0.48446E+07         0.15289E+07         0.00000E+00
    0.15289E+07        -0.17779E+08         0.00000E+00
    0.00000E+00         0.00000E+00        -0.45246E+07
 
   -0.48348E+07         0.15957E+07         0.00000E+00
    0.15957E+07        -0.17783E+08         0.00000E+00
    0.00000E+00         0.00000E+00        -0.45236E+07
 
   -0.48246E+07         0.16627E+07         0.00000E+00
    0.16627E+07        -0.17788E+08         0.00000E+00
    0.00000E+00         0.00000E+00        -0.45226E+07
 
   -0.48142E+07         0.17299E+07         0.00000E+00
    0.17299E+07        -0.17794E+08         0.00000E+00
    0.00000E+00         0.00000E+00        -0.45216E+07
 
   -0.48033E+07         0.17973E+07         0.00000E+00
    0.17973E+07        -0.17799E+08         0.00000E+00
    0.00000E+00         0.00000E+00        -0.45204E+07
 
   -0.47921E+07         0.18650E+07         0.00000E+00
    0.18650E+07        -0.17804E+08         0.00000E+00
    0.00000E+00         0.00000E+00        -0.45193E+07
 
   -0.47807E+07         0.19329E+07         0.00000E+00
    0.19329E+07        -0.17810E+08         0.00000E+00
    0.00000E+00         0.00000E+00        -0.45181E+07
 
   -0.47688E+07         0.20011E+07         0.00000E+00
    0.20011E+07        -0.17816E+08         0.00000E+00
    0.00000E+00         0.00000E+00        -0.45169E+07
 
   -0.47567E+07         0.20695E+07         0.00000E+00
    0.20695E+07        -0.17822E+08         0.00000E+00
    0.00000E+00         0.00000E+00        -0.45157E+07
 
   -0.47443E+07         0.21381E+07         0.00000E+00
    0.21381E+07        -0.17828E+08         0.00000E+00
    0.00000E+00         0.00000E+00        -0.45144E+07
 
   -0.47316E+07         0.22070E+07         0.00000E+00
    0.22070E+07        -0.17834E+08         0.00000E+00
    0.00000E+00         0.00000E+00        -0.45131E+07
 
   -0.47186E+07         0.22762E+07         0.00000E+00
    0.22762E+07        -0.17840E+08         0.00000E+00
    0.00000E+00         0.00000E+00        -0.45117E+07
 
   -0.47053E+07         0.23456E+07         0.00000E+00
    0.23456E+07        -0.17846E+08         0.00000E+00
    0.00000E+00         0.00000E+00        -0.45103E+07
 
   -0.46918E+07         0.24153E+07         0.00000E+00
    0.24153E+07        -0.17853E+08         0.00000E+00
    0.00000E+00         0.00000E+00        -0.45089E+07
 
   -0.46780E+07         0.24853E+07         0.00000E+00
    0.24853E+07        -0.17859E+08         0.00000E+00
    0.00000E+00         0.00000E+00        -0.45074E+07
 
   -0.46639E+07         0.25556E+07         0.00000E+00
    0.25556E+07        -0.17866E+08         0.00000E+00
    0.00000E+00         0.00000E+00        -0.45059E+07
 
   -0.46496E+07         0.26261E+07         0.00000E+00
    0.26261E+07        -0.17873E+08         0.00000E+00
    0.00000E+00         0.00000E+00        -0.45044E+07
 
   -0.46351E+07         0.26970E+07         0.00000E+00
    0.26970E+07        -0.17879E+08         0.00000E+00
    0.00000E+00         0.00000E+00        -0.45029E+07
 
   -0.46203E+07         0.27681E+07         0.00000E+00
    0.27681E+07        -0.17886E+08         0.00000E+00
    0.00000E+00         0.00000E+00        -0.45013E+07
 
   -0.46053E+07         0.28395E+07         0.00000E+00
    0.28395E+07        -0.17893E+08         0.00000E+00
    0.00000E+00         0.00000E+00        -0.44997E+07
 
   -0.45901E+07         0.29113E+07         0.00000E+00
    0.29113E+07        -0.17900E+08         0.00000E+00
    0.00000E+00         0.00000E+00        -0.44981E+07
 
   -0.45747E+07         0.29833E+07         0.00000E+00
    0.29833E+07        -0.17907E+08         0.00000E+00
    0.00000E+00         0.00000E+00        -0.44964E+07
 
   -0.45591E+07         0.30557E+07         0.00000E+00
    0.30557E+07        -0.17914E+08         0.00000E+00
    0.00000E+00         0.00000E+00        -0.44947E+07
 
   -0.45433E+07         0.31284E+07         0.00000E+00
    0.31284E+07        -0.17922E+08         0.00000E+00
    0.00000E+00         0.00000E+00        -0.44930E+07
 
   -0.45273E+07         0.32014E+07         0.00000E+00
    0.32014E+07        -0.17929E+08         0.00000E+00
    0.00000E+00         0.00000E+00        -0.44912E+07
 
   -0.45112E+07         0.32747E+07         0.00000E+00
    0.32747E+07        -0.17936E+08         0.00000E+00
    0.00000E+00         0.00000E+00        -0.44894E+07
 
   -0.44949E+07         0.33483E+07         0.00000E+00
    0.33483E+07        -0.17943E+08         0.00000E+00
    0.00000E+00         0.00000E+00        -0.44876E+07
 
   -0.51421E+07         0.31547E+05         0.00000E+00
    0.31547E+05        -0.18221E+08         0.00000E+00
    0.00000E+00         0.00000E+00        -0.46726E+07
 
   -0.51419E+07         0.94622E+05         0.00000E+00
    0.94622E+05        -0.18221E+08         0.00000E+00
    0.00000E+00         0.00000E+00        -0.46726E+07
 
   -0.51411E+07         0.15770E+06         0.00000E+00
    0.15770E+06        -0.18222E+08         0.00000E+00
    0.00000E+00         0.00000E+00        -0.46725E+07
 
   -0.51398E+07         0.22080E+06         0.00000E+00
    0.22080E+06        -0.18222E+08         0.00000E+00
    0.00000E+00         0.00000E+00        -0.46724E+07
 
   -0.51381E+07         0.28394E+06         0.00000E+00
    0.28394E+06        -0.18223E+08         0.00000E+00
    0.00000E+00         0.00000E+00        -0.46723E+07
 
   -0.51358E+07         0.34711E+06         0.00000E+00
    0.34711E+06        -0.18225E+08         0.00000E+00
    0.00000E+00         0.00000E+00        -0.46721E+07
 
   -0.51330E+07         0.41034E+06         0.00000E+00
    0.41034E+06        -0.18226E+08         0.00000E+00
    0.00000E+00         0.00000E+00        -0.46718E+07
 
   -0.51298E+07         0.47363E+06         0.00000E+00
    0.47363E+06        -0.18228E+08         0.00000E+00
    0.00000E+00         0.00000E+00        -0.46715E+07
 
   -0.51260E+07         0.53700E+06         0.00000E+00
    0.53700E+06        -0.18230E+08         0.00000E+00
    0.00000E+00         0.00000E+00        -0.46712E+07
 
   -0.51218E+07         0.60046E+06         0.00000E+00
    0.60046E+06        -0.18232E+08         0.00000E+00
    0.00000E+00         0.00000E+00        -0.46708E+07
 
   -0.51171E+07         0.66402E+06         0.00000E+00
    0.66402E+06        -0.18234E+08         0.00000E+00
    0.00000E+00         0.00000E+00        -0.46703E+07
 
   -0.51119E+07         0.72768E+06         0.00000E+00
    0.72768E+06        -0.18237E+08         0.00000E+00
    0.00000E+00         0.00000E+00        -0.46698E+07
 
   -0.51062E+07         0.79147E+06         0.00000E+00
    0.79147E+06        -0.18240E+08         0.00000E+00
    0.00000E+00         0.00000E+00        -0.46693E+07
 
   -0.51001E+07         0.85538E+06         0.00000E+00
    0.85538E+06        -0.18243E+08         0.00000E+00
    0.00000E+00         0.00000E+00        -0.46687E+07
 
   -0.50935E+07         0.91943E+06         0.00000E+00
    0.91943E+06        -0.18247E+08         0.00000E+00
    0.00000E+00         0.00000E+00        -0.46680E+07
 
   -0.50865E+07         0.98363E+06         0.00000E+00
    0.98363E+06        -0.18250E+08         0.00000E+00
    0.00000E+00         0.00000E+00        -0.46673E+07
 
   -0.50789E+07         0.10480E+07         0.00000E+00
    0.10480E+07        -0.18254E+08         0.00000E+00
    0.00000E+00         0.00000E+00        -0.46666E+07
 
   -0.50710E+07         0.11125E+07         0.00000E+00
    0.11125E+07        -0.18258E+08         0.00000E+00
    0.00000E+00         0.00000E+00        -0.46658E+07
 
   -0.50626E+07         0.11772E+07         0.00000E+00
    0.11772E+07        -0.18262E+08         0.00000E+00
    0.00000E+00         0.00000E+00        -0.46650E+07
 
   -0.50538E+07         0.12421E+07         0.00000E+00
    0.12421E+07        -0.18267E+08         0.00000E+00
    0.00000E+00         0.00000E+00        -0.46641E+07
 
   -0.50445E+07         0.13072E+07         0.00000E+00
    0.13072E+07        -0.18271E+08         0.00000E+00
    0.00000E+00         0.00000E+00        -0.46632E+07
 
   -0.50348E+07         0.13725E+07         0.00000E+00
    0.13725E+07        -0.18276E+08         0.00000E+00
    0.00000E+00         0.00000E+00        -0.46622E+07
 
   -0.50248E+07         0.14380E+07         0.00000E+00
    0.14380E+07        -0.18281E+08         0.00000E+00
    0.00000E+00         0.00000E+00        -0.46612E+07
 
   -0.50143E+07         0.15037E+07         0.00000E+00
    0.15037E+07        -0.18287E+08         0.00000E+00
    0.00000E+00         0.00000E+00        -0.46602E+07
 
   -0.50034E+07         0.15697E+07         0.00000E+00
    0.15697E+07        -0.18292E+08         0.00000E+00
    0.00000E+00         0.00000E+00        -0.46591E+07
 
   -0.49921E+07         0.16359E+07         0.00000E+00
    0.16359E+07        -0.18298E+08         0.00000E+00
    0.00000E+00         0.00000E+00        -0.46579E+07
 
   -0.49804E+07         0.17023E+07         0.00000E+00
    0.17023E+07        -0.18303E+08         0.00000E+00
    0.00000E+00         0.00000E+00        -0.46567E+07
 
   -0.49684E+07         0.17689E+07         0.00000E+00
    0.17689E+07        -0.18309E+08         0.00000E+00
    0.00000E+00         0.00000E+00        -0.46555E+07
 
   -0.49560E+07         0.18359E+07         0.00000E+00
    0.18359E+07        -0.18315E+08         0.00000E+00
    0.00000E+00         0.00000E+00        -0.46543E+07
 
   -0.49433E+07         0.19031E+07         0.00000E+00
    0.19031E+07        -0.18321E+08         0.00000E+00
    0.00000E+00         0.00000E+00        -0.46530E+07
 
   -0.49302E+07         0.19705E+07         0.00000E+00
    0.19705E+07        -0.18328E+08         0.00000E+00
    0.00000E+00         0.00000E+00        -0.46516E+07
 
   -0.49168E+07         0.20382E+07         0.00000E+00
    0.20382E+07        -0.18334E+08         0.00000E+00
    0.00000E+00         0.00000E+00        -0.46502E+07
 
   -0.49030E+07         0.21062E+07         0.00000E+00
    0.21062E+07        -0.18341E+08         0.00000E+00
    0.00000E+00         0.00000E+00        -0.46488E+07
 
   -0.48889E+07         0.21745E+07         0.00000E+00
    0.21745E+07        -0.18348E+08         0.00000E+00
    0.00000E+00         0.00000E+00        -0.46473E+07
 
   -0.48745E+07         0.22431E+07         0.00000E+00
    0.22431E+07        -0.18355E+08         0.00000E+00
    0.00000E+00         0.00000E+00        -0.46458E+07
 
   -0.48598E+07         0.23120E+07         0.00000E+00
    0.23120E+07        -0.18362E+08         0.00000E+00
    0.00000E+00         0.00000E+00        -0.46443E+07
 
   -0.48448E+07         0.23812E+07         0.00000E+00
    0.23812E+07        -0.18369E+08         0.00000E+00
    0.00000E+00         0.00000E+00        -0.46427E+07
 
   -0.48295E+07         0.24507E+07         0.00000E+00
    0.24507E+07        -0.18376E+08         0.00000E+00
    0.00000E+00         0.00000E+00        -0.46411E+07
 
   -0.48140E+07         0.25205E+07         0.00000E+00
    0.25205E+07        -0.18383E+08         0.00000E+00
    0.00000E+00         0.00000E+00        -0.46395E+07
 
   -0.47982E+07         0.25906E+07         0.00000E+00
    0.25906E+07        -0.18391E+08         0.00000E+00
    0.00000E+00         0.00000E+00        -0.46378E+07
 
   -0.47821E+07         0.26610E+07         0.00000E+00
    0.26610E+07        -0.18398E+08         0.00000E+00
    0.00000E+00         0.00000E+00        -0.46361E+07
 
   -0.47658E+07         0.27318E+07         0.00000E+00
    0.27318E+07        -0.18406E+08         0.00000E+00
    0.00000E+00         0.00000E+00        -0.46343E+07
 
   -0.47492E+07         0.28029E+07         0.00000E+00
    0.28029E+07        -0.18414E+08         0.00000E+00
    0.00000E+00         0.00000E+00        -0.46326E+07
 
   -0.47324E+07         0.28743E+07         0.00000E+00
    0.28743E+07        -0.18421E+08         0.00000E+00
    0.00000E+00         0.00000E+00        -0.46307E+07
 
   -0.47154E+07         0.29460E+07         0.00000E+00
    0.29460E+07        -0.18429E+08         0.00000E+00
    0.00000E+00         0.00000E+00        -0.46289E+07
 
   -0.46982E+07         0.30181E+07         0.00000E+00
    0.30181E+07        -0.18437E+08         0.00000E+00
    0.00000E+00         0.00000E+00        -0.46270E+07
 
   -0.46807E+07         0.30905E+07         0.00000E+00
    0.30905E+07        -0.18445E+08         0.00000E+00
    0.00000E+00         0.00000E+00        -0.46251E+07
 
   -0.46631E+07         0.31633E+07         0.00000E+00
    0.31633E+07        -0.18453E+08         0.00000E+00
    0.00000E+00         0.00000E+00        -0.46232E+07
 
   -0.46453E+07         0.32364E+07         0.00000E+00
    0.32364E+07        -0.18461E+08         0.00000E+00
    0.00000E+00         0.00000E+00        -0.46212E+07
 
   -0.46273E+07         0.33099E+07         0.00000E+00
    0.33099E+07        -0.18469E+08         0.00000E+00
    0.00000E+00         0.00000E+00        -0.46193E+07
 
   -0.53311E+07         0.30879E+05         0.00000E+00
    0.30879E+05        -0.18722E+08         0.00000E+00
    0.00000E+00         0.00000E+00        -0.48106E+07
 
   -0.53308E+07         0.92619E+05         0.00000E+00
    0.92619E+05        -0.18722E+08         0.00000E+00
    0.00000E+00         0.00000E+00        -0.48106E+07
 
   -0.53299E+07         0.15437E+06         0.00000E+00
    0.15437E+06        -0.18723E+08         0.00000E+00
    0.00000E+00         0.00000E+00        -0.48105E+07
 
   -0.53285E+07         0.21614E+06         0.00000E+00
    0.21614E+06        -0.18724E+08         0.00000E+00
    0.00000E+00         0.00000E+00        -0.48104E+07
 
   -0.53266E+07         0.27795E+06         0.00000E+00
    0.27795E+06        -0.18725E+08         0.00000E+00
    0.00000E+00         0.00000E+00        -0.48102E+07
 
   -0.53241E+07         0.33982E+06         0.00000E+00
    0.33982E+06        -0.18726E+08         0.00000E+00
    0.00000E+00         0.00000E+00        -0.48100E+07
 
   -0.53210E+07         0.40174E+06         0.00000E+00
    0.40174E+06        -0.18728E+08         0.00000E+00
    0.00000E+00         0.00000E+00        -0.48097E+07
 
   -0.53173E+07         0.46374E+06         0.00000E+00
    0.46374E+06        -0.18730E+08         0.00000E+00
    0.00000E+00         0.00000E+00        -0.48094E+07
 
   -0.53132E+07         0.52583E+06         0.00000E+00
    0.52583E+06        -0.18732E+08         0.00000E+00
    0.00000E+00         0.00000E+00        -0.48090E+07
 
   -0.53084E+07         0.58803E+06         0.00000E+00
    0.58803E+06        -0.18734E+08         0.00000E+00
    0.00000E+00         0.00000E+00        -0.48086E+07
 
   -0.53032E+07         0.65033E+06         0.00000E+00
    0.65033E+06        -0.18737E+08         0.00000E+00
    0.00000E+00         0.00000E+00        -0.48081E+07
 
   -0.52974E+07         0.71276E+06         0.00000E+00
    0.71276E+06        -0.18740E+08         0.00000E+00
    0.00000E+00         0.00000E+00        -0.48075E+07
 
   -0.52910E+07         0.77533E+06         0.00000E+00
    0.77533E+06        -0.18744E+08         0.00000E+00
    0.00000E+00         0.00000E+00        -0.48069E+07
 
   -0.52842E+07         0.83805E+06         0.00000E+00
    0.83805E+06        -0.18747E+08         0.00000E+00
    0.00000E+00         0.00000E+00        -0.48062E+07
 
   -0.52768E+07         0.90093E+06         0.00000E+00
    0.90093E+06        -0.18751E+08         0.00000E+00
    0.00000E+00         0.00000E+00        -0.48055E+07
 
   -0.52689E+07         0.96397E+06         0.00000E+00
    0.96397E+06        -0.18755E+08         0.00000E+00
    0.00000E+00         0.00000E+00        -0.48048E+07
 
   -0.52605E+07         0.10272E+07         0.00000E+00
    0.10272E+07        -0.18759E+08         0.00000E+00
    0.00000E+00         0.00000E+00        -0.48039E+07
 
   -0.52516E+07         0.10906E+07         0.00000E+00
    0.10906E+07        -0.18764E+08         0.00000E+00
    0.00000E+00         0.00000E+00        -0.48031E+07
 
   -0.52423E+07         0.11542E+07         0.00000E+00
    0.11542E+07        -0.18768E+08         0.00000E+00
    0.00000E+00         0.00000E+00        -0.48021E+07
 
   -0.52324E+07         0.12181E+07         0.00000E+00
    0.12181E+07        -0.18773E+08         0.00000E+00
    0.00000E+00         0.00000E+00        -0.48012E+07
 
   -0.52221E+07         0.12821E+07         0.00000E+00
    0.12821E+07        -0.18779E+08         0.00000E+00
    0.00000E+00         0.00000E+00        -0.48002E+07
 
   -0.52114E+07         0.13464E+07         0.00000E+00
    0.13464E+07        -0.18784E+08         0.00000E+00
    0.00000E+00         0.00000E+00        -0.47991E+07
 
   -0.52001E+07         0.14109E+07         0.00000E+00
    0.14109E+07        -0.18790E+08         0.00000E+00
    0.00000E+00         0.00000E+00        -0.47980E+07
 
   -0.51885E+07         0.14757E+07         0.00000E+00
    0.14757E+07        -0.18795E+08         0.00000E+00
    0.00000E+00         0.00000E+00        -0.47968E+07
 
   -0.51763E+07         0.15407E+07         0.00000E+00
    0.15407E+07        -0.18801E+08         0.00000E+00
    0.00000E+00         0.00000E+00        -0.47956E+07
 
   -0.51638E+07         0.16060E+07         0.00000E+00
    0.16060E+07        -0.18808E+08         0.00000E+00
    0.00000E+00         0.00000E+00        -0.47943E+07
 
   -0.51509E+07         0.16716E+07         0.00000E+00
    0.16716E+07        -0.18814E+08         0.00000E+00
    0.00000E+00         0.00000E+00        -0.47930E+07
 
   -0.51375E+07         0.17374E+07         0.00000E+00
    0.17374E+07        -0.18821E+08         0.00000E+00
    0.00000E+00         0.00000E+00        -0.47916E+07
 
   -0.51238E+07         0.18035E+07         0.00000E+00
    0.18035E+07        -0.18827E+08         0.00000E+00
    0.00000E+00         0.00000E+00        -0.47902E+07
 
   -0.51096E+07         0.18699E+07         0.00000E+00
    0.18699E+07        -0.18834E+08         0.00000E+00
    0.00000E+00         0.00000E+00        -0.47888E+07
 
   -0.50951E+07         0.19366E+07         0.00000E+00
    0.19366E+07        -0.18841E+08         0.00000E+00
    0.00000E+00         0.00000E+00        -0.47873E+07
 
   -0.50802E+07         0.20036E+07         0.00000E+00
    0.20036E+07        -0.18849E+08         0.00000E+00
    0.00000E+00         0.00000E+00        -0.47858E+07
 
   -0.50649E+07         0.20709E+07         0.00000E+00
    0.20709E+07        -0.18856E+08         0.00000E+00
    0.00000E+00         0.00000E+00        -0.47842E+07
 
   -0.50493E+07         0.21386E+07         0.00000E+00
    0.21386E+07        -0.18863E+08         0.00000E+00
    0.00000E+00         0.00000E+00        -0.47826E+07
 
   -0.50334E+07         0.22065E+07         0.00000E+00
    0.22065E+07        -0.18871E+08         0.00000E+00
    0.00000E+00         0.00000E+00        -0.47809E+07
 
   -0.50171E+07         0.22748E+07         0.00000E+00
    0.22748E+07        -0.18879E+08         0.00000E+00
    0.00000E+00         0.00000E+00        -0.47792E+07
 
   -0.50006E+07         0.23434E+07         0.00000E+00
    0.23434E+07        -0.18887E+08         0.00000E+00
    0.00000E+00         0.00000E+00        -0.47775E+07
 
   -0.49837E+07         0.24124E+07         0.00000E+00
    0.24124E+07        -0.18895E+08         0.00000E+00
    0.00000E+00         0.00000E+00        -0.47757E+07
 
   -0.49665E+07         0.24817E+07         0.00000E+00
    0.24817E+07        -0.18903E+08         0.00000E+00
    0.00000E+00         0.00000E+00        -0.47739E+07
 
   -0.49490E+07         0.25513E+07         0.00000E+00
    0.25513E+07        -0.18911E+08         0.00000E+00
    0.00000E+00         0.00000E+00        -0.47720E+07
 
   -0.49312E+07         0.26213E+07         0.00000E+00
    0.26213E+07        -0.18919E+08         0.00000E+00
    0.00000E+00         0.00000E+00        -0.47701E+07
 
   -0.49132E+07         0.26916E+07         0.00000E+00
    0.26916E+07        -0.18928E+08         0.00000E+00
    0.00000E+00         0.00000E+00        -0.47682E+07
 
   -0.48949E+07         0.27623E+07         0.00000E+00
    0.27623E+07        -0.18936E+08         0.00000E+00
    0.00000E+00         0.00000E+00        -0.47662E+07
 
   -0.48764E+07         0.28334E+07         0.00000E+00
    0.28334E+07        -0.18945E+08         0.00000E+00
    0.00000E+00         0.00000E+00        -0.47642E+07
 
   -0.48576E+07         0.29048E+07         0.00000E+00
    0.29048E+07        -0.18953E+08         0.00000E+00
    0.00000E+00         0.00000E+00        -0.47622E+07
 
   -0.48386E+07         0.29766E+07         0.00000E+00
    0.29766E+07        -0.18962E+08         0.00000E+00
    0.00000E+00         0.00000E+00        -0.47601E+07
 
   -0.48193E+07         0.30488E+07         0.00000E+00
    0.30488E+07        -0.18971E+08         0.00000E+00
    0.00000E+00         0.00000E+00        -0.47580E+07
 
   -0.47999E+07         0.31213E+07         0.00000E+00
    0.31213E+07        -0.18980E+08         0.00000E+00
    0.00000E+00         0.00000E+00        -0.47559E+07
 
   -0.47802E+07         0.31943E+07         0.00000E+00
    0.31943E+07        -0.18988E+08         0.00000E+00
    0.00000E+00         0.00000E+00        -0.47537E+07
 
   -0.47604E+07         0.32676E+07         0.00000E+00
    0.32676E+07        -0.18997E+08         0.00000E+00
    0.00000E+00         0.00000E+00        -0.47515E+07
 
   -0.55271E+07         0.30123E+05         0.00000E+00
    0.30123E+05        -0.19223E+08         0.00000E+00
    0.00000E+00         0.00000E+00        -0.49500E+07
 
   -0.55268E+07         0.90355E+05         0.00000E+00
    0.90355E+05        -0.19223E+08         0.00000E+00
    0.00000E+00         0.00000E+00        -0.49500E+07
 
   -0.55259E+07         0.15060E+06         0.00000E+00
    0.15060E+06        -0.19224E+08         0.00000E+00
    0.00000E+00         0.00000E+00        -0.49499E+07
 
   -0.55243E+07         0.21088E+06         0.00000E+00
    0.21088E+06        -0.19225E+08         0.00000E+00
    0.00000E+00         0.00000E+00        -0.49498E+07
 
   -0.55221E+07         0.27120E+06         0.00000E+00
    0.27120E+06        -0.19226E+08         0.00000E+00
    0.00000E+00         0.00000E+00        -0.49496E+07
 
   -0.55193E+07         0.33159E+06         0.00000E+00
    0.33159E+06        -0.19228E+08         0.00000E+00
    0.00000E+00         0.00000E+00        -0.49494E+07
 
   -0.55158E+07         0.39205E+06         0.00000E+00
    0.39205E+06        -0.19230E+08         0.00000E+00
    0.00000E+00         0.00000E+00        -0.49491E+07
 
   -0.55117E+07         0.45260E+06         0.00000E+00
    0.45260E+06        -0.19232E+08         0.00000E+00
    0.00000E+00         0.00000E+00        -0.49487E+07
 
   -0.55070E+07         0.51326E+06         0.00000E+00
    0.51326E+06        -0.19234E+08         0.00000E+00
    0.00000E+00         0.00000E+00        -0.49483E+07
 
   -0.55017E+07         0.57404E+06         0.00000E+00
    0.57404E+06        -0.19237E+08         0.00000E+00
    0.00000E+00         0.00000E+00        -0.49478E+07
 
   -0.54958E+07         0.63495E+06         0.00000E+00
    0.63495E+06        -0.19240E+08         0.00000E+00
    0.00000E+00         0.00000E+00        -0.49472E+07
 
   -0.54893E+07         0.69600E+06         0.00000E+00
    0.69600E+06        -0.19244E+08         0.00000E+00
    0.00000E+00         0.00000E+00        -0.49466E+07
 
   -0.54822E+07         0.75722E+06         0.00000E+00
    0.75722E+06        -0.19247E+08         0.00000E+00
    0.00000E+00         0.00000E+00        -0.49459E+07
 
   -0.54745E+07         0.81861E+06         0.00000E+00
    0.81861E+06        -0.19251E+08         0.00000E+00
    0.00000E+00         0.00000E+00        -0.49452E+07
 
   -0.54662E+07         0.88018E+06         0.00000E+00
    0.88018E+06        -0.19256E+08         0.00000E+00
    0.00000E+00         0.00000E+00        -0.49444E+07
 
   -0.54574E+07         0.94195E+06         0.00000E+00
    0.94195E+06        -0.19260E+08         0.00000E+00
    0.00000E+00         0.00000E+00        -0.49435E+07
 
   -0.54480E+07         0.10039E+07         0.00000E+00
    0.10039E+07        -0.19265E+08         0.00000E+00
    0.00000E+00         0.00000E+00        -0.49426E+07
 
   -0.54381E+07         0.10661E+07         0.00000E+00
    0.10661E+07        -0.19270E+08         0.00000E+00
    0.00000E+00         0.00000E+00        -0.49416E+07
 
   -0.54276E+07         0.11285E+07         0.00000E+00
    0.11285E+07        -0.19275E+08         0.00000E+00
    0.00000E+00         0.00000E+00        -0.49406E+07
 
   -0.54166E+07         0.11912E+07         0.00000E+00
    0.11912E+07        -0.19281E+08         0.00000E+00
    0.00000E+00         0.00000E+00        -0.49395E+07
 
   -0.54051E+07         0.12541E+07         0.00000E+00
    0.12541E+07        -0.19287E+08         0.00000E+00
    0.00000E+00         0.00000E+00        -0.49384E+07
 
   -0.53931E+07         0.13173E+07         0.00000E+00
    0.13173E+07        -0.19293E+08         0.00000E+00
    0.00000E+00         0.00000E+00        -0.49372E+07
 
   -0.53806E+07         0.13807E+07         0.00000E+00
    0.13807E+07        -0.19299E+08         0.00000E+00
    0.00000E+00         0.00000E+00        -0.49359E+07
 
   -0.53676E+07         0.14445E+07         0.00000E+00
    0.14445E+07        -0.19305E+08         0.00000E+00
    0.00000E+00         0.00000E+00        -0.49346E+07
 
   -0.53541E+07         0.15085E+07         0.00000E+00
    0.15085E+07        -0.19312E+08         0.00000E+00
    0.00000E+00         0.00000E+00        -0.49333E+07
 
   -0.53402E+07         0.15728E+07         0.00000E+00
    0.15728E+07        -0.19319E+08         0.00000E+00
    0.00000E+00         0.00000E+00        -0.49318E+07
 
   -0.53258E+07         0.16374E+07         0.00000E+00
    0.16374E+07        -0.19326E+08         0.00000E+00
    0.00000E+00         0.00000E+00        -0.49304E+07
 
   -0.53109E+07         0.17023E+07         0.00000E+00
    0.17023E+07        -0.19333E+08         0.00000E+00
    0.00000E+00         0.00000E+00        -0.49289E+07
 
   -0.52956E+07         0.17675E+07         0.00000E+00
    0.17675E+07        -0.19341E+08         0.00000E+00
    0.00000E+00         0.00000E+00        -0.49273E+07
 
   -0.52799E+07         0.18331E+07         0.00000E+00
    0.18331E+07        -0.19349E+08         0.00000E+00
    0.00000E+00         0.00000E+00        -0.49257E+07
 
   -0.52638E+07         0.18990E+07         0.00000E+00
    0.18990E+07        -0.19356E+08         0.00000E+00
    0.00000E+00         0.00000E+00        -0.49241E+07
 
   -0.52473E+07         0.19652E+07         0.00000E+00
    0.19652E+07        -0.19364E+08         0.00000E+00
    0.00000E+00         0.00000E+00        -0.49224E+07
 
   -0.52304E+07         0.20318E+07         0.00000E+00
    0.20318E+07        -0.19373E+08         0.00000E+00
    0.00000E+00         0.00000E+00        -0.49206E+07
 
   -0.52132E+07         0.20987E+07         0.00000E+00
    0.20987E+07        -0.19381E+08         0.00000E+00
    0.00000E+00         0.00000E+00        -0.49188E+07
 
   -0.51955E+07         0.21660E+07         0.00000E+00
    0.21660E+07        -0.19389E+08         0.00000E+00
    0.00000E+00         0.00000E+00        -0.49170E+07
 
   -0.51775E+07         0.22336E+07         0.00000E+00
    0.22336E+07        -0.19398E+08         0.00000E+00
    0.00000E+00         0.00000E+00        -0.49151E+07
 
   -0.51592E+07         0.23017E+07         0.00000E+00
    0.23017E+07        -0.19407E+08         0.00000E+00
    0.00000E+00         0.00000E+00        -0.49132E+07
 
   -0.51405E+07         0.23700E+07         0.00000E+00
    0.23700E+07        -0.19416E+08         0.00000E+00
    0.00000E+00         0.00000E+00        -0.49112E+07
 
   -0.51215E+07         0.24388E+07         0.00000E+00
    0.24388E+07        -0.19424E+08         0.00000E+00
    0.00000E+00         0.00000E+00        -0.49092E+07
 
   -0.51022E+07         0.25079E+07         0.00000E+00
    0.25079E+07        -0.19434E+08         0.00000E+00
    0.00000E+00         0.00000E+00        -0.49072E+07
 
   -0.50826E+07         0.25774E+07         0.00000E+00
    0.25774E+07        -0.19443E+08         0.00000E+00
    0.00000E+00         0.00000E+00        -0.49051E+07
 
   -0.50627E+07         0.26473E+07         0.00000E+00
    0.26473E+07        -0.19452E+08         0.00000E+00
    0.00000E+00         0.00000E+00        -0.49029E+07
 
   -0.50425E+07         0.27176E+07         0.00000E+00
    0.27176E+07        -0.19461E+08         0.00000E+00
    0.00000E+00         0.00000E+00        -0.49008E+07
 
   -0.50221E+07         0.27883E+07         0.00000E+00
    0.27883E+07        -0.19471E+08         0.00000E+00
    0.00000E+00         0.00000E+00        -0.48986E+07
 
   -0.50014E+07         0.28594E+07         0.00000E+00
    0.28594E+07        -0.19480E+08         0.00000E+00
    0.00000E+00         0.00000E+00        -0.48963E+07
 
   -0.49804E+07         0.29309E+07         0.00000E+00
    0.29309E+07        -0.19490E+08         0.00000E+00
    0.00000E+00         0.00000E+00        -0.48941E+07
 
   -0.49592E+07         0.30028E+07         0.00000E+00
    0.30028E+07        -0.19499E+08         0.00000E+00
    0.00000E+00         0.00000E+00        -0.48917E+07
 
   -0.49378E+07         0.30751E+07         0.00000E+00
    0.30751E+07        -0.19509E+08         0.00000E+00
    0.00000E+00         0.00000E+00        -0.48894E+07
 
   -0.49162E+07         0.31478E+07         0.00000E+00
    0.31478E+07        -0.19519E+08         0.00000E+00
    0.00000E+00         0.00000E+00        -0.48870E+07
 
   -0.48944E+07         0.32209E+07         0.00000E+00
    0.32209E+07        -0.19529E+08         0.00000E+00
    0.00000E+00         0.00000E+00        -0.48846E+07
 
   -0.57313E+07         0.29263E+05         0.00000E+00
    0.29263E+05        -0.19724E+08         0.00000E+00
    0.00000E+00         0.00000E+00        -0.50910E+07
 
   -0.57309E+07         0.87786E+05         0.00000E+00
    0.87786E+05        -0.19724E+08         0.00000E+00
    0.00000E+00         0.00000E+00        -0.50910E+07
 
   -0.57299E+07         0.14633E+06         0.00000E+00
    0.14633E+06        -0.19725E+08         0.00000E+00
    0.00000E+00         0.00000E+00        -0.50910E+07
 
   -0.57281E+07         0.20492E+06         0.00000E+00
    0.20492E+06        -0.19726E+08         0.00000E+00
    0.00000E+00         0.00000E+00        -0.50908E+07
 
   -0.57256E+07         0.26357E+06         0.00000E+00
    0.26357E+06        -0.19728E+08         0.00000E+00
    0.00000E+00         0.00000E+00        -0.50906E+07
 
   -0.57223E+07         0.32229E+06         0.00000E+00
    0.32229E+06        -0.19729E+08         0.00000E+00
    0.00000E+00         0.00000E+00        -0.50903E+07
 
   -0.57184E+07         0.38110E+06         0.00000E+00
    0.38110E+06        -0.19732E+08         0.00000E+00
    0.00000E+00         0.00000E+00        -0.50900E+07
 
   -0.57138E+07         0.44003E+06         0.00000E+00
    0.44003E+06        -0.19734E+08         0.00000E+00
    0.00000E+00         0.00000E+00        -0.50896E+07
 
   -0.57085E+07         0.49908E+06         0.00000E+00
    0.49908E+06        -0.19737E+08         0.00000E+00
    0.00000E+00         0.00000E+00        -0.50891E+07
 
   -0.57025E+07         0.55827E+06         0.00000E+00
    0.55827E+06        -0.19740E+08         0.00000E+00
    0.00000E+00         0.00000E+00        -0.50885E+07
 
   -0.56958E+07         0.61762E+06         0.00000E+00
    0.61762E+06        -0.19744E+08         0.00000E+00
    0.00000E+00         0.00000E+00        -0.50879E+07
 
   -0.56884E+07         0.67715E+06         0.00000E+00
    0.67715E+06        -0.19747E+08         0.00000E+00
    0.00000E+00         0.00000E+00        -0.50872E+07
 
   -0.56804E+07         0.73686E+06         0.00000E+00
    0.73686E+06        -0.19752E+08         0.00000E+00
    0.00000E+00         0.00000E+00        -0.50864E+07
 
   -0.56718E+07         0.79677E+06         0.00000E+00
    0.79677E+06        -0.19756E+08         0.00000E+00
    0.00000E+00         0.00000E+00        -0.50856E+07
 
   -0.56625E+07         0.85689E+06         0.00000E+00
    0.85689E+06        -0.19761E+08         0.00000E+00
    0.00000E+00         0.00000E+00        -0.50847E+07
 
   -0.56526E+07         0.91724E+06         0.00000E+00
    0.91724E+06        -0.19766E+08         0.00000E+00
    0.00000E+00         0.00000E+00        -0.50837E+07
 
   -0.56421E+07         0.97783E+06         0.00000E+00
    0.97783E+06        -0.19771E+08         0.00000E+00
    0.00000E+00         0.00000E+00        -0.50827E+07
 
   -0.56309E+07         0.10387E+07         0.00000E+00
    0.10387E+07        -0.19777E+08         0.00000E+00
    0.00000E+00         0.00000E+00        -0.50816E+07
 
   -0.56192E+07         0.10998E+07         0.00000E+00
    0.10998E+07        -0.19783E+08         0.00000E+00
    0.00000E+00         0.00000E+00        -0.50804E+07
 
   -0.56069E+07         0.11612E+07         0.00000E+00
    0.11612E+07        -0.19789E+08         0.00000E+00
    0.00000E+00         0.00000E+00        -0.50792E+07
 
   -0.55940E+07         0.12228E+07         0.00000E+00
    0.12228E+07        -0.19796E+08         0.00000E+00
    0.00000E+00         0.00000E+00        -0.50779E+07
 
   -0.55806E+07         0.12848E+07         0.00000E+00
    0.12848E+07        -0.19802E+08         0.00000E+00
    0.00000E+00         0.00000E+00        -0.50766E+07
 
   -0.55666E+07         0.13471E+07         0.00000E+00
    0.13471E+07        -0.19809E+08         0.00000E+00
    0.00000E+00         0.00000E+00        -0.50752E+07
 
   -0.55521E+07         0.14097E+07         0.00000E+00
    0.14097E+07        -0.19817E+08         0.00000E+00
    0.00000E+00         0.00000E+00        -0.50737E+07
 
   -0.55371E+07         0.14726E+07         0.00000E+00
    0.14726E+07        -0.19824E+08         0.00000E+00
    0.00000E+00         0.00000E+00        -0.50722E+07
 
   -0.55216E+07         0.15358E+07         0.00000E+00
    0.15358E+07        -0.19832E+08         0.00000E+00
    0.00000E+00         0.00000E+00        -0.50707E+07
 
   -0.55055E+07         0.15994E+07         0.00000E+00
    0.15994E+07        -0.19840E+08         0.00000E+00
    0.00000E+00         0.00000E+00        -0.50690E+07
 
   -0.54890E+07         0.16633E+07         0.00000E+00
    0.16633E+07        -0.19848E+08         0.00000E+00
    0.00000E+00         0.00000E+00        -0.50674E+07
 
   -0.54720E+07         0.17276E+07         0.00000E+00
    0.17276E+07        -0.19856E+08         0.00000E+00
    0.00000E+00         0.00000E+00        -0.50656E+07
 
   -0.54546E+07         0.17923E+07         0.00000E+00
    0.17923E+07        -0.19865E+08         0.00000E+00
    0.00000E+00         0.00000E+00        -0.50638E+07
 
   -0.54367E+07         0.18573E+07         0.00000E+00
    0.18573E+07        -0.19873E+08         0.00000E+00
    0.00000E+00         0.00000E+00        -0.50620E+07
 
   -0.54184E+07         0.19227E+07         0.00000E+00
    0.19227E+07        -0.19882E+08         0.00000E+00
    0.00000E+00         0.00000E+00        -0.50601E+07
 
   -0.53997E+07         0.19885E+07         0.00000E+00
    0.19885E+07        -0.19891E+08         0.00000E+00
    0.00000E+00         0.00000E+00        -0.50582E+07
 
   -0.53806E+07         0.20546E+07         0.00000E+00
    0.20546E+07        -0.19900E+08         0.00000E+00
    0.00000E+00         0.00000E+00        -0.50562E+07
 
   -0.53610E+07         0.21212E+07         0.00000E+00
    0.21212E+07        -0.19910E+08         0.00000E+00
    0.00000E+00         0.00000E+00        -0.50542E+07
 
   -0.53411E+07         0.21882E+07         0.00000E+00
    0.21882E+07        -0.19919E+08         0.00000E+00
    0.00000E+00         0.00000E+00        -0.50521E+07
 
   -0.53209E+07         0.22555E+07         0.00000E+00
    0.22555E+07        -0.19929E+08         0.00000E+00
    0.00000E+00         0.00000E+00        -0.50500E+07
 
   -0.53002E+07         0.23233E+07         0.00000E+00
    0.23233E+07        -0.19939E+08         0.00000E+00
    0.00000E+00         0.00000E+00        -0.50478E+07
 
   -0.52793E+07         0.23915E+07         0.00000E+00
    0.23915E+07        -0.19949E+08         0.00000E+00
    0.00000E+00         0.00000E+00        -0.50456E+07
 
   -0.52580E+07         0.24601E+07         0.00000E+00
    0.24601E+07        -0.19959E+08         0.00000E+00
    0.00000E+00         0.00000E+00        -0.50433E+07
 
   -0.52364E+07         0.25291E+07         0.00000E+00
    0.25291E+07        -0.19969E+08         0.00000E+00
    0.00000E+00         0.00000E+00        -0.50410E+07
 
   -0.52144E+07         0.25985E+07         0.00000E+00
    0.25985E+07        -0.19979E+08         0.00000E+00
    0.00000E+00         0.00000E+00        -0.50387E+07
 
   -0.51922E+07         0.26684E+07         0.00000E+00
    0.26684E+07        -0.19989E+08         0.00000E+00
    0.00000E+00         0.00000E+00        -0.50363E+07
 
   -0.51697E+07         0.27387E+07         0.00000E+00
    0.27387E+07        -0.20000E+08         0.00000E+00
    0.00000E+00         0.00000E+00        -0.50338E+07
 
   -0.51469E+07         0.28094E+07         0.00000E+00
    0.28094E+07        -0.20010E+08         0.00000E+00
    0.00000E+00         0.00000E+00        -0.50314E+07
 
   -0.51238E+07         0.28805E+07         0.00000E+00
    0.28805E+07        -0.20020E+08         0.00000E+00
    0.00000E+00         0.00000E+00        -0.50289E+07
 
   -0.51005E+07         0.29521E+07         0.00000E+00
    0.29521E+07        -0.20031E+08         0.00000E+00
    0.00000E+00         0.00000E+00        -0.50263E+07
 
   -0.50770E+07         0.30242E+07         0.00000E+00
    0.30242E+07        -0.20042E+08         0.00000E+00
    0.00000E+00         0.00000E+00        -0.50237E+07
 
   -0.50532E+07         0.30967E+07         0.00000E+00
    0.30967E+07        -0.20052E+08         0.00000E+00
    0.00000E+00         0.00000E+00        -0.50211E+07
 
   -0.50292E+07         0.31696E+07         0.00000E+00
    0.31696E+07        -0.20063E+08         0.00000E+00
    0.00000E+00         0.00000E+00        -0.50185E+07
 
   -0.59446E+07         0.28283E+05         0.00000E+00
    0.28283E+05        -0.20225E+08         0.00000E+00
    0.00000E+00         0.00000E+00        -0.52339E+07
 
   -0.59441E+07         0.84866E+05         0.00000E+00
    0.84866E+05        -0.20225E+08         0.00000E+00
    0.00000E+00         0.00000E+00        -0.52339E+07
 
   -0.59429E+07         0.14148E+06         0.00000E+00
    0.14148E+06        -0.20226E+08         0.00000E+00
    0.00000E+00         0.00000E+00        -0.52338E+07
 
   -0.59408E+07         0.19816E+06         0.00000E+00
    0.19816E+06        -0.20228E+08         0.00000E+00
    0.00000E+00         0.00000E+00        -0.52337E+07
 
   -0.59379E+07         0.25491E+06         0.00000E+00
    0.25491E+06        -0.20229E+08         0.00000E+00
    0.00000E+00         0.00000E+00        -0.52334E+07
 
   -0.59342E+07         0.31175E+06         0.00000E+00
    0.31175E+06        -0.20231E+08         0.00000E+00
    0.00000E+00         0.00000E+00        -0.52331E+07
 
   -0.59297E+07         0.36872E+06         0.00000E+00
    0.36872E+06        -0.20234E+08         0.00000E+00
    0.00000E+00         0.00000E+00        -0.52327E+07
 
   -0.59244E+07         0.42581E+06         0.00000E+00
    0.42581E+06        -0.20237E+08         0.00000E+00
    0.00000E+00         0.00000E+00        -0.52322E+07
 
   -0.59184E+07         0.48306E+06         0.00000E+00
    0.48306E+06        -0.20240E+08         0.00000E+00
    0.00000E+00         0.00000E+00        -0.52316E+07
 
   -0.59116E+07         0.54048E+06         0.00000E+00
    0.54048E+06        -0.20243E+08         0.00000E+00
    0.00000E+00         0.00000E+00        -0.52310E+07
 
   -0.59040E+07         0.59809E+06         0.00000E+00
    0.59809E+06        -0.20247E+08         0.00000E+00
    0.00000E+00         0.00000E+00        -0.52303E+07
 
   -0.58957E+07         0.65590E+06         0.00000E+00
    0.65590E+06        -0.20252E+08         0.00000E+00
    0.00000E+00         0.00000E+00        -0.52295E+07
 
   -0.58866E+07         0.71394E+06         0.00000E+00
    0.71394E+06        -0.20256E+08         0.00000E+00
    0.00000E+00         0.00000E+00        -0.52286E+07
 
   -0.58768E+07         0.77221E+06         0.00000E+00
    0.77221E+06        -0.20261E+08         0.00000E+00
    0.00000E+00         0.00000E+00        -0.52276E+07
 
   -0.58664E+07         0.83073E+06         0.00000E+00
    0.83073E+06        -0.20267E+08         0.00000E+00
    0.00000E+00         0.00000E+00        -0.52266E+07
 
   -0.58552E+07         0.88951E+06         0.00000E+00
    0.88951E+06        -0.20272E+08         0.00000E+00
    0.00000E+00         0.00000E+00        -0.52255E+07
 
   -0.58433E+07         0.94858E+06         0.00000E+00
    0.94858E+06        -0.20278E+08         0.00000E+00
    0.00000E+00         0.00000E+00        -0.52244E+07
 
   -0.58308E+07         0.10079E+07         0.00000E+00
    0.10079E+07        -0.20285E+08         0.00000E+00
    0.00000E+00         0.00000E+00        -0.52231E+07
 
   -0.58176E+07         0.10676E+07         0.00000E+00
    0.10676E+07        -0.20292E+08         0.00000E+00
    0.00000E+00         0.00000E+00        -0.52218E+07
 
   -0.58038E+07         0.11276E+07         0.00000E+00
    0.11276E+07        -0.20298E+08         0.00000E+00
    0.00000E+00         0.00000E+00        -0.52205E+07
 
   -0.57894E+07         0.11879E+07         0.00000E+00
    0.11879E+07        -0.20306E+08         0.00000E+00
    0.00000E+00         0.00000E+00        -0.52190E+07
 
   -0.57743E+07         0.12485E+07         0.00000E+00
    0.12485E+07        -0.20313E+08         0.00000E+00
    0.00000E+00         0.00000E+00        -0.52175E+07
 
   -0.57587E+07         0.13095E+07         0.00000E+00
    0.13095E+07        -0.20321E+08         0.00000E+00
    0.00000E+00         0.00000E+00        -0.52160E+07
 
   -0.57425E+07         0.13709E+07         0.00000E+00
    0.13709E+07        -0.20329E+08         0.00000E+00
    0.00000E+00         0.00000E+00        -0.52143E+07
 
   -0.57257E+07         0.14326E+07         0.00000E+00
    0.14326E+07        -0.20337E+08         0.00000E+00
    0.00000E+00         0.00000E+00        -0.52126E+07
 
   -0.57084E+07         0.14947E+07         0.00000E+00
    0.14947E+07        -0.20346E+08         0.00000E+00
    0.00000E+00         0.00000E+00        -0.52109E+07
 
   -0.56905E+07         0.15572E+07         0.00000E+00
    0.15572E+07        -0.20355E+08         0.00000E+00
    0.00000E+00         0.00000E+00        -0.52091E+07
 
   -0.56722E+07         0.16200E+07         0.00000E+00
    0.16200E+07        -0.20364E+08         0.00000E+00
    0.00000E+00         0.00000E+00        -0.52072E+07
 
   -0.56533E+07         0.16833E+07         0.00000E+00
    0.16833E+07        -0.20373E+08         0.00000E+00
    0.00000E+00         0.00000E+00        -0.52053E+07
 
   -0.56339E+07         0.17470E+07         0.00000E+00
    0.17470E+07        -0.20382E+08         0.00000E+00
    0.00000E+00         0.00000E+00        -0.52033E+07
 
   -0.56141E+07         0.18111E+07         0.00000E+00
    0.18111E+07        -0.20392E+08         0.00000E+00
    0.00000E+00         0.00000E+00        -0.52012E+07
 
   -0.55937E+07         0.18756E+07         0.00000E+00
    0.18756E+07        -0.20402E+08         0.00000E+00
    0.00000E+00         0.00000E+00        -0.51991E+07
 
   -0.55730E+07         0.19405E+07         0.00000E+00
    0.19405E+07        -0.20412E+08         0.00000E+00
    0.00000E+00         0.00000E+00        -0.51970E+07
 
   -0.55518E+07         0.20059E+07         0.00000E+00
    0.20059E+07        -0.20422E+08         0.00000E+00
    0.00000E+00         0.00000E+00        -0.51948E+07
 
   -0.55302E+07         0.20717E+07         0.00000E+00
    0.20717E+07        -0.20432E+08         0.00000E+00
    0.00000E+00         0.00000E+00        -0.51925E+07
 
   -0.55082E+07         0.21379E+07         0.00000E+00
    0.21379E+07        -0.20443E+08         0.00000E+00
    0.00000E+00         0.00000E+00        -0.51902E+07
 
   -0.54858E+07         0.22046E+07         0.00000E+00
    0.22046E+07        -0.20454E+08         0.00000E+00
    0.00000E+00         0.00000E+00        -0.51879E+07
 
   -0.54630E+07         0.22717E+07         0.00000E+00
    0.22717E+07        -0.20464E+08         0.00000E+00
    0.00000E+00         0.00000E+00        -0.51855E+07
 
   -0.54399E+07         0.23393E+07         0.00000E+00
    0.23393E+07        -0.20475E+08         0.00000E+00
    0.00000E+00         0.00000E+00        -0.51830E+07
 
   -0.54164E+07         0.24073E+07         0.00000E+00
    0.24073E+07        -0.20486E+08         0.00000E+00
    0.00000E+00         0.00000E+00        -0.51805E+07
 
   -0.53926E+07         0.24758E+07         0.00000E+00
    0.24758E+07        -0.20497E+08         0.00000E+00
    0.00000E+00         0.00000E+00        -0.51780E+07
 
   -0.53685E+07         0.25448E+07         0.00000E+00
    0.25448E+07        -0.20509E+08         0.00000E+00
    0.00000E+00         0.00000E+00        -0.51754E+07
 
   -0.53440E+07         0.26142E+07         0.00000E+00
    0.26142E+07        -0.20520E+08         0.00000E+00
    0.00000E+00         0.00000E+00        -0.51728E+07
 
   -0.53192E+07         0.26841E+07         0.00000E+00
    0.26841E+07        -0.20531E+08         0.00000E+00
    0.00000E+00         0.00000E+00        -0.51701E+07
 
   -0.52942E+07         0.27544E+07         0.00000E+00
    0.27544E+07        -0.20543E+08         0.00000E+00
    0.00000E+00         0.00000E+00        -0.51674E+07
 
   -0.52689E+07         0.28252E+07         0.00000E+00
    0.28252E+07        -0.20554E+08         0.00000E+00
    0.00000E+00         0.00000E+00        -0.51646E+07
 
   -0.52433E+07         0.28965E+07         0.00000E+00
    0.28965E+07        -0.20566E+08         0.00000E+00
    0.00000E+00         0.00000E+00        -0.51618E+07
 
   -0.52174E+07         0.29683E+07         0.00000E+00
    0.29683E+07        -0.20578E+08         0.00000E+00
    0.00000E+00         0.00000E+00        -0.51590E+07
 
   -0.51913E+07         0.30405E+07         0.00000E+00
    0.30405E+07        -0.20589E+08         0.00000E+00
    0.00000E+00         0.00000E+00        -0.51561E+07
 
   -0.51650E+07         0.31133E+07         0.00000E+00
    0.31133E+07        -0.20601E+08         0.00000E+00
    0.00000E+00         0.00000E+00        -0.51532E+07
 
   -0.61683E+07         0.27162E+05         0.00000E+00
    0.27162E+05        -0.20726E+08         0.00000E+00
    0.00000E+00         0.00000E+00        -0.53789E+07
 
   -0.61677E+07         0.81536E+05         0.00000E+00
    0.81536E+05        -0.20727E+08         0.00000E+00
    0.00000E+00         0.00000E+00        -0.53789E+07
 
   -0.61662E+07         0.13596E+06         0.00000E+00
    0.13596E+06        -0.20728E+08         0.00000E+00
    0.00000E+00         0.00000E+00        -0.53788E+07
 
   -0.61637E+07         0.19047E+06         0.00000E+00
    0.19047E+06        -0.20729E+08         0.00000E+00
    0.00000E+00         0.00000E+00        -0.53785E+07
 
   -0.61603E+07         0.24507E+06         0.00000E+00
    0.24507E+06        -0.20731E+08         0.00000E+00
    0.00000E+00         0.00000E+00        -0.53782E+07
 
   -0.61560E+07         0.29980E+06         0.00000E+00
    0.29980E+06        -0.20733E+08         0.00000E+00
    0.00000E+00         0.00000E+00        -0.53778E+07
 
   -0.61508E+07         0.35467E+06         0.00000E+00
    0.35467E+06        -0.20736E+08         0.00000E+00
    0.00000E+00         0.00000E+00        -0.53774E+07
 
   -0.61447E+07         0.40971E+06         0.00000E+00
    0.40971E+06        -0.20739E+08         0.00000E+00
    0.00000E+00         0.00000E+00        -0.53768E+07
 
   -0.61378E+07         0.46494E+06         0.00000E+00
    0.46494E+06        -0.20743E+08         0.00000E+00
    0.00000E+00         0.00000E+00        -0.53761E+07
 
   -0.61300E+07         0.52038E+06         0.00000E+00
    0.52038E+06        -0.20747E+08         0.00000E+00
    0.00000E+00         0.00000E+00        -0.53754E+07
 
   -0.61213E+07         0.57604E+06         0.00000E+00
    0.57604E+06        -0.20751E+08         0.00000E+00
    0.00000E+00         0.00000E+00        -0.53745E+07
 
   -0.61118E+07         0.63195E+06         0.00000E+00
    0.63195E+06        -0.20756E+08         0.00000E+00
    0.00000E+00         0.00000E+00        -0.53736E+07
 
   -0.61015E+07         0.68812E+06         0.00000E+00
    0.68812E+06        -0.20762E+08         0.00000E+00
    0.00000E+00         0.00000E+00        -0.53726E+07
 
   -0.60904E+07         0.74457E+06         0.00000E+00
    0.74457E+06        -0.20767E+08         0.00000E+00
    0.00000E+00         0.00000E+00        -0.53715E+07
 
   -0.60786E+07         0.80131E+06         0.00000E+00
    0.80131E+06        -0.20773E+08         0.00000E+00
    0.00000E+00         0.00000E+00        -0.53704E+07
 
   -0.60659E+07         0.85837E+06         0.00000E+00
    0.85837E+06        -0.20780E+08         0.00000E+00
    0.00000E+00         0.00000E+00        -0.53691E+07
 
   -0.60525E+07         0.91575E+06         0.00000E+00
    0.91575E+06        -0.20787E+08         0.00000E+00
    0.00000E+00         0.00000E+00        -0.53678E+07
 
   -0.60384E+07         0.97347E+06         0.00000E+00
    0.97347E+06        -0.20794E+08         0.00000E+00
    0.00000E+00         0.00000E+00        -0.53664E+07
 
   -0.60235E+07         0.10315E+07         0.00000E+00
    0.10315E+07        -0.20801E+08         0.00000E+00
    0.00000E+00         0.00000E+00        -0.53649E+07
 
   -0.60080E+07         0.10900E+07         0.00000E+00
    0.10900E+07        -0.20809E+08         0.00000E+00
    0.00000E+00         0.00000E+00        -0.53634E+07
 
   -0.59918E+07         0.11488E+07         0.00000E+00
    0.11488E+07        -0.20817E+08         0.00000E+00
    0.00000E+00         0.00000E+00        -0.53618E+07
 
   -0.59749E+07         0.12080E+07         0.00000E+00
    0.12080E+07        -0.20825E+08         0.00000E+00
    0.00000E+00         0.00000E+00        -0.53601E+07
 
   -0.59574E+07         0.12676E+07         0.00000E+00
    0.12676E+07        -0.20834E+08         0.00000E+00
    0.00000E+00         0.00000E+00        -0.53583E+07
 
   -0.59392E+07         0.13276E+07         0.00000E+00
    0.13276E+07        -0.20843E+08         0.00000E+00
    0.00000E+00         0.00000E+00        -0.53565E+07
 
   -0.59205E+07         0.13881E+07         0.00000E+00
    0.13881E+07        -0.20852E+08         0.00000E+00
    0.00000E+00         0.00000E+00        -0.53546E+07
 
   -0.59011E+07         0.14489E+07         0.00000E+00
    0.14489E+07        -0.20862E+08         0.00000E+00
    0.00000E+00         0.00000E+00        -0.53526E+07
 
   -0.58812E+07         0.15102E+07         0.00000E+00
    0.15102E+07        -0.20872E+08         0.00000E+00
    0.00000E+00         0.00000E+00        -0.53506E+07
 
   -0.58607E+07         0.15719E+07         0.00000E+00
    0.15719E+07        -0.20882E+08         0.00000E+00
    0.00000E+00         0.00000E+00        -0.53485E+07
 
   -0.58397E+07         0.16341E+07         0.00000E+00
    0.16341E+07        -0.20892E+08         0.00000E+00
    0.00000E+00         0.00000E+00        -0.53463E+07
 
   -0.58181E+07         0.16968E+07         0.00000E+00
    0.16968E+07        -0.20902E+08         0.00000E+00
    0.00000E+00         0.00000E+00        -0.53441E+07
 
   -0.57961E+07         0.17599E+07         0.00000E+00
    0.17599E+07        -0.20913E+08         0.00000E+00
    0.00000E+00         0.00000E+00        -0.53418E+07
 
   -0.57735E+07         0.18235E+07         0.00000E+00
    0.18235E+07        -0.20924E+08         0.00000E+00
    0.00000E+00         0.00000E+00        -0.53395E+07
 
   -0.57505E+07         0.18875E+07         0.00000E+00
    0.18875E+07        -0.20935E+08         0.00000E+00
    0.00000E+00         0.00000E+00        -0.53371E+07
 
   -0.57271E+07         0.19520E+07         0.00000E+00
    0.19520E+07        -0.20946E+08         0.00000E+00
    0.00000E+00         0.00000E+00        -0.53347E+07
 
   -0.57032E+07         0.20170E+07         0.00000E+00
    0.20170E+07        -0.20958E+08         0.00000E+00
    0.00000E+00         0.00000E+00        -0.53322E+07
 
   -0.56789E+07         0.20825E+07         0.00000E+00
    0.20825E+07        -0.20969E+08         0.00000E+00
    0.00000E+00         0.00000E+00        -0.53296E+07
 
   -0.56541E+07         0.21485E+07         0.00000E+00
    0.21485E+07        -0.20981E+08         0.00000E+00
    0.00000E+00         0.00000E+00        -0.53270E+07
 
   -0.56290E+07         0.22149E+07         0.00000E+00
    0.22149E+07        -0.20993E+08         0.00000E+00
    0.00000E+00         0.00000E+00        -0.53243E+07
 
   -0.56035E+07         0.22819E+07         0.00000E+00
    0.22819E+07        -0.21005E+08         0.00000E+00
    0.00000E+00         0.00000E+00        -0.53216E+07
 
   -0.55776E+07         0.23493E+07         0.00000E+00
    0.23493E+07        -0.21017E+08         0.00000E+00
    0.00000E+00         0.00000E+00        -0.53189E+07
 
   -0.55514E+07         0.24173E+07         0.00000E+00
    0.24173E+07        -0.21029E+08         0.00000E+00
    0.00000E+00         0.00000E+00        -0.53161E+07
 
   -0.55249E+07         0.24857E+07         0.00000E+00
    0.24857E+07        -0.21041E+08         0.00000E+00
    0.00000E+00         0.00000E+00        -0.53132E+07
 
   -0.54980E+07         0.25547E+07         0.00000E+00
    0.25547E+07        -0.21054E+08         0.00000E+00
    0.00000E+00         0.00000E+00        -0.53103E+07
 
   -0.54708E+07         0.26242E+07         0.00000E+00
    0.26242E+07        -0.21066E+08         0.00000E+00
    0.00000E+00         0.00000E+00        -0.53074E+07
 
   -0.54433E+07         0.26941E+07         0.00000E+00
    0.26941E+07        -0.21079E+08         0.00000E+00
    0.00000E+00         0.00000E+00        -0.53044E+07
 
   -0.54155E+07         0.27646E+07         0.00000E+00
    0.27646E+07        -0.21091E+08         0.00000E+00
    0.00000E+00         0.00000E+00        -0.53014E+07
 
   -0.53875E+07         0.28356E+07         0.00000E+00
    0.28356E+07        -0.21104E+08         0.00000E+00
    0.00000E+00         0.00000E+00        -0.52983E+07
 
   -0.53592E+07         0.29071E+07         0.00000E+00
    0.29071E+07        -0.21117E+08         0.00000E+00
    0.00000E+00         0.00000E+00        -0.52952E+07
 
   -0.53306E+07         0.29791E+07         0.00000E+00
    0.29791E+07        -0.21130E+08         0.00000E+00
    0.00000E+00         0.00000E+00        -0.52921E+07
 
   -0.53018E+07         0.30516E+07         0.00000E+00
    0.30516E+07        -0.21143E+08         0.00000E+00
    0.00000E+00         0.00000E+00        -0.52889E+07
 
   -0.64039E+07         0.25877E+05         0.00000E+00
    0.25877E+05        -0.21227E+08         0.00000E+00
    0.00000E+00         0.00000E+00        -0.55262E+07
 
   -0.64030E+07         0.77731E+05         0.00000E+00
    0.77731E+05        -0.21228E+08         0.00000E+00
    0.00000E+00         0.00000E+00        -0.55262E+07
 
   -0.64011E+07         0.12967E+06         0.00000E+00
    0.12967E+06        -0.21229E+08         0.00000E+00
    0.00000E+00         0.00000E+00        -0.55260E+07
 
   -0.63981E+07         0.18171E+06         0.00000E+00
    0.18171E+06        -0.21231E+08         0.00000E+00
    0.00000E+00         0.00000E+00        -0.55257E+07
 
   -0.63941E+07         0.23388E+06         0.00000E+00
    0.23388E+06        -0.21233E+08         0.00000E+00
    0.00000E+00         0.00000E+00        -0.55254E+07
 
   -0.63890E+07         0.28622E+06         0.00000E+00
    0.28622E+06        -0.21235E+08         0.00000E+00
    0.00000E+00         0.00000E+00        -0.55249E+07
 
   -0.63829E+07         0.33874E+06         0.00000E+00
    0.33874E+06        -0.21239E+08         0.00000E+00
    0.00000E+00         0.00000E+00        -0.55243E+07
 
   -0.63759E+07         0.39147E+06         0.00000E+00
    0.39147E+06        -0.21242E+08         0.00000E+00
    0.00000E+00         0.00000E+00        -0.55236E+07
 
   -0.63678E+07         0.44443E+06         0.00000E+00
    0.44443E+06        -0.21246E+08         0.00000E+00
    0.00000E+00         0.00000E+00        -0.55228E+07
 
   -0.63588E+07         0.49764E+06         0.00000E+00
    0.49764E+06        -0.21251E+08         0.00000E+00
    0.00000E+00         0.00000E+00        -0.55219E+07
 
   -0.63489E+07         0.55113E+06         0.00000E+00
    0.55113E+06        -0.21256E+08         0.00000E+00
    0.00000E+00         0.00000E+00        -0.55210E+07
 
   -0.63380E+07         0.60492E+06         0.00000E+00
    0.60492E+06        -0.21261E+08         0.00000E+00
    0.00000E+00         0.00000E+00        -0.55199E+07
 
   -0.63262E+07         0.65902E+06         0.00000E+00
    0.65902E+06        -0.21267E+08         0.00000E+00
    0.00000E+00         0.00000E+00        -0.55187E+07
 
   -0.63135E+07         0.71345E+06         0.00000E+00
    0.71345E+06        -0.21274E+08         0.00000E+00
    0.00000E+00         0.00000E+00        -0.55175E+07
 
   -0.63000E+07         0.76823E+06         0.00000E+00
    0.76823E+06        -0.21281E+08         0.00000E+00
    0.00000E+00         0.00000E+00        -0.55161E+07
 
   -0.62856E+07         0.82338E+06         0.00000E+00
    0.82338E+06        -0.21288E+08         0.00000E+00
    0.00000E+00         0.00000E+00        -0.55147E+07
 
   -0.62704E+07         0.87891E+06         0.00000E+00
    0.87891E+06        -0.21295E+08         0.00000E+00
    0.00000E+00         0.00000E+00        -0.55132E+07
 
   -0.62544E+07         0.93484E+06         0.00000E+00
    0.93484E+06        -0.21303E+08         0.00000E+00
    0.00000E+00         0.00000E+00        -0.55116E+07
 
   -0.62376E+07         0.99118E+06         0.00000E+00
    0.99118E+06        -0.21312E+08         0.00000E+00
    0.00000E+00         0.00000E+00        -0.55099E+07
 
   -0.62201E+07         0.10479E+07         0.00000E+00
    0.10479E+07        -0.21321E+08         0.00000E+00
    0.00000E+00         0.00000E+00        -0.55081E+07
 
   -0.62018E+07         0.11051E+07         0.00000E+00
    0.11051E+07        -0.21330E+08         0.00000E+00
    0.00000E+00         0.00000E+00        -0.55063E+07
 
   -0.61828E+07         0.11628E+07         0.00000E+00
    0.11628E+07        -0.21339E+08         0.00000E+00
    0.00000E+00         0.00000E+00        -0.55044E+07
 
   -0.61631E+07         0.12209E+07         0.00000E+00
    0.12209E+07        -0.21349E+08         0.00000E+00
    0.00000E+00         0.00000E+00        -0.55024E+07
 
   -0.61428E+07         0.12795E+07         0.00000E+00
    0.12795E+07        -0.21359E+08         0.00000E+00
    0.00000E+00         0.00000E+00        -0.55003E+07
 
   -0.61217E+07         0.13385E+07         0.00000E+00
    0.13385E+07        -0.21369E+08         0.00000E+00
    0.00000E+00         0.00000E+00        -0.54982E+07
 
   -0.61001E+07         0.13981E+07         0.00000E+00
    0.13981E+07        -0.21380E+08         0.00000E+00
    0.00000E+00         0.00000E+00        -0.54959E+07
 
   -0.60778E+07         0.14581E+07         0.00000E+00
    0.14581E+07        -0.21390E+08         0.00000E+00
    0.00000E+00         0.00000E+00        -0.54937E+07
 
   -0.60550E+07         0.15186E+07         0.00000E+00
    0.15186E+07        -0.21402E+08         0.00000E+00
    0.00000E+00         0.00000E+00        -0.54913E+07
 
   -0.60316E+07         0.15797E+07         0.00000E+00
    0.15797E+07        -0.21413E+08         0.00000E+00
    0.00000E+00         0.00000E+00        -0.54889E+07
 
   -0.60076E+07         0.16412E+07         0.00000E+00
    0.16412E+07        -0.21425E+08         0.00000E+00
    0.00000E+00         0.00000E+00        -0.54864E+07
 
   -0.59831E+07         0.17033E+07         0.00000E+00
    0.17033E+07        -0.21436E+08         0.00000E+00
    0.00000E+00         0.00000E+00        -0.54839E+07
 
   -0.59581E+07         0.17659E+07         0.00000E+00
    0.17659E+07        -0.21448E+08         0.00000E+00
    0.00000E+00         0.00000E+00        -0.54813E+07
 
   -0.59326E+07         0.18290E+07         0.00000E+00
    0.18290E+07        -0.21461E+08         0.00000E+00
    0.00000E+00         0.00000E+00        -0.54786E+07
 
   -0.59066E+07         0.18926E+07         0.00000E+00
    0.18926E+07        -0.21473E+08         0.00000E+00
    0.00000E+00         0.00000E+00        -0.54759E+07
 
   -0.58801E+07         0.19568E+07         0.00000E+00
    0.19568E+07        -0.21485E+08         0.00000E+00
    0.00000E+00         0.00000E+00        -0.54731E+07
 
   -0.58533E+07         0.20215E+07         0.00000E+00
    0.20215E+07        -0.21498E+08         0.00000E+00
    0.00000E+00         0.00000E+00        -0.54703E+07
 
   -0.58260E+07         0.20867E+07         0.00000E+00
    0.20867E+07        -0.21511E+08         0.00000E+00
    0.00000E+00         0.00000E+00        -0.54674E+07
 
   -0.57983E+07         0.21525E+07         0.00000E+00
    0.21525E+07        -0.21524E+08         0.00000E+00
    0.00000E+00         0.00000E+00        -0.54645E+07
 
   -0.57702E+07         0.22188E+07         0.00000E+00
    0.22188E+07        -0.21537E+08         0.00000E+00
    0.00000E+00         0.00000E+00        -0.54615E+07
 
   -0.57417E+07         0.22857E+07         0.00000E+00
    0.22857E+07        -0.21550E+08         0.00000E+00
    0.00000E+00         0.00000E+00        -0.54584E+07
 
   -0.57129E+07         0.23531E+07         0.00000E+00
    0.23531E+07        -0.21564E+08         0.00000E+00
    0.00000E+00         0.00000E+00        -0.54554E+07
 
   -0.56837E+07         0.24210E+07         0.00000E+00
    0.24210E+07        -0.21577E+08         0.00000E+00
    0.00000E+00         0.00000E+00        -0.54522E+07
 
   -0.56542E+07         0.24895E+07         0.00000E+00
    0.24895E+07        -0.21591E+08         0.00000E+00
    0.00000E+00         0.00000E+00        -0.54490E+07
 
   -0.56244E+07         0.25585E+07         0.00000E+00
    0.25585E+07        -0.21605E+08         0.00000E+00
    0.00000E+00         0.00000E+00        -0.54458E+07
 
   -0.55943E+07         0.26281E+07         0.00000E+00
    0.26281E+07        -0.21618E+08         0.00000E+00
    0.00000E+00         0.00000E+00        -0.54425E+07
 
   -0.55639E+07         0.26982E+07         0.00000E+00
    0.26982E+07        -0.21632E+08         0.00000E+00
    0.00000E+00         0.00000E+00        -0.54392E+07
 
   -0.55332E+07         0.27689E+07         0.00000E+00
    0.27689E+07        -0.21646E+08         0.00000E+00
    0.00000E+00         0.00000E+00        -0.54359E+07
 
   -0.55023E+07         0.28401E+07         0.00000E+00
    0.28401E+07        -0.21660E+08         0.00000E+00
    0.00000E+00         0.00000E+00        -0.54325E+07
 
   -0.54711E+07         0.29119E+07         0.00000E+00
    0.29119E+07        -0.21674E+08         0.00000E+00
    0.00000E+00         0.00000E+00        -0.54290E+07
 
   -0.54396E+07         0.29841E+07         0.00000E+00
    0.29841E+07        -0.21688E+08         0.00000E+00
    0.00000E+00         0.00000E+00        -0.54255E+07
 
   -0.66530E+07         0.24401E+05         0.00000E+00
    0.24401E+05        -0.21728E+08         0.00000E+00
    0.00000E+00         0.00000E+00        -0.56763E+07
 
   -0.66518E+07         0.73379E+05         0.00000E+00
    0.73379E+05        -0.21729E+08         0.00000E+00
    0.00000E+00         0.00000E+00        -0.56762E+07
 
   -0.66493E+07         0.12247E+06         0.00000E+00
    0.12247E+06        -0.21730E+08         0.00000E+00
    0.00000E+00         0.00000E+00        -0.56759E+07
 
   -0.66456E+07         0.17172E+06         0.00000E+00
    0.17172E+06        -0.21732E+08         0.00000E+00
    0.00000E+00         0.00000E+00        -0.56756E+07
 
   -0.66407E+07         0.22114E+06         0.00000E+00
    0.22114E+06        -0.21735E+08         0.00000E+00
    0.00000E+00         0.00000E+00        -0.56751E+07
 
   -0.66347E+07         0.27077E+06         0.00000E+00
    0.27077E+06        -0.21738E+08         0.00000E+00
    0.00000E+00         0.00000E+00        -0.56745E+07
 
   -0.66275E+07         0.32064E+06         0.00000E+00
    0.32064E+06        -0.21741E+08         0.00000E+00
    0.00000E+00         0.00000E+00        -0.56737E+07
 
   -0.66192E+07         0.37077E+06         0.00000E+00
    0.37077E+06        -0.21745E+08         0.00000E+00
    0.00000E+00         0.00000E+00        -0.56729E+07
 
   -0.66098E+07         0.42119E+06         0.00000E+00
    0.42119E+06        -0.21750E+08         0.00000E+00
    0.00000E+00         0.00000E+00        -0.56720E+07
 
   -0.65993E+07         0.47193E+06         0.00000E+00
    0.47193E+06        -0.21755E+08         0.00000E+00
    0.00000E+00         0.00000E+00        -0.56709E+07
 
   -0.65878E+07         0.52299E+06         0.00000E+00
    0.52299E+06        -0.21761E+08         0.00000E+00
    0.00000E+00         0.00000E+00        -0.56697E+07
 
   -0.65752E+07         0.57442E+06         0.00000E+00
    0.57442E+06        -0.21767E+08         0.00000E+00
    0.00000E+00         0.00000E+00        -0.56685E+07
 
   -0.65616E+07         0.62622E+06         0.00000E+00
    0.62622E+06        -0.21774E+08         0.00000E+00
    0.00000E+00         0.00000E+00        -0.56671E+07
 
   -0.65471E+07         0.67843E+06         0.00000E+00
    0.67843E+06        -0.21781E+08         0.00000E+00
    0.00000E+00         0.00000E+00        -0.56656E+07
 
   -0.65316E+07         0.73105E+06         0.00000E+00
    0.73105E+06        -0.21789E+08         0.00000E+00
    0.00000E+00         0.00000E+00        -0.56641E+07
 
   -0.65152E+07         0.78410E+06         0.00000E+00
    0.78410E+06        -0.21797E+08         0.00000E+00
    0.00000E+00         0.00000E+00        -0.56624E+07
 
   -0.64979E+07         0.83760E+06         0.00000E+00
    0.83760E+06        -0.21805E+08         0.00000E+00
    0.00000E+00         0.00000E+00        -0.56607E+07
 
   -0.64797E+07         0.89157E+06         0.00000E+00
    0.89157E+06        -0.21814E+08         0.00000E+00
    0.00000E+00         0.00000E+00        -0.56588E+07
 
   -0.64607E+07         0.94603E+06         0.00000E+00
    0.94603E+06        -0.21824E+08         0.00000E+00
    0.00000E+00         0.00000E+00        -0.56569E+07
 
   -0.64408E+07         0.10010E+07         0.00000E+00
    0.10010E+07        -0.21833E+08         0.00000E+00
    0.00000E+00         0.00000E+00        -0.56549E+07
 
   -0.64201E+07         0.10564E+07         0.00000E+00
    0.10564E+07        -0.21844E+08         0.00000E+00
    0.00000E+00         0.00000E+00        -0.56527E+07
 
   -0.63987E+07         0.11124E+07         0.00000E+00
    0.11124E+07        -0.21854E+08         0.00000E+00
    0.00000E+00         0.00000E+00        -0.56506E+07
 
   -0.63765E+07         0.11689E+07         0.00000E+00
    0.11689E+07        -0.21865E+08         0.00000E+00
    0.00000E+00         0.00000E+00        -0.56483E+07
 
   -0.63536E+07         0.12259E+07         0.00000E+00
    0.12259E+07        -0.21876E+08         0.00000E+00
    0.00000E+00         0.00000E+00        -0.56459E+07
 
   -0.63300E+07         0.12835E+07         0.00000E+00
    0.12835E+07        -0.21887E+08         0.00000E+00
    0.00000E+00         0.00000E+00        -0.56435E+07
 
   -0.63058E+07         0.13416E+07         0.00000E+00
    0.13416E+07        -0.21899E+08         0.00000E+00
    0.00000E+00         0.00000E+00        -0.56410E+07
 
   -0.62809E+07         0.14003E+07         0.00000E+00
    0.14003E+07        -0.21911E+08         0.00000E+00
    0.00000E+00         0.00000E+00        -0.56384E+07
 
   -0.62553E+07         0.14595E+07         0.00000E+00
    0.14595E+07        -0.21924E+08         0.00000E+00
    0.00000E+00         0.00000E+00        -0.56358E+07
 
   -0.62292E+07         0.15194E+07         0.00000E+00
    0.15194E+07        -0.21936E+08         0.00000E+00
    0.00000E+00         0.00000E+00        -0.56331E+07
 
   -0.62025E+07         0.15798E+07         0.00000E+00
    0.15798E+07        -0.21949E+08         0.00000E+00
    0.00000E+00         0.00000E+00        -0.56303E+07
 
   -0.61753E+07         0.16407E+07         0.00000E+00
    0.16407E+07        -0.21962E+08         0.00000E+00
    0.00000E+00         0.00000E+00        -0.56274E+07
 
   -0.61475E+07         0.17023E+07         0.00000E+00
    0.17023E+07        -0.21975E+08         0.00000E+00
    0.00000E+00         0.00000E+00        -0.56245E+07
 
   -0.61192E+07         0.17645E+07         0.00000E+00
    0.17645E+07        -0.21989E+08         0.00000E+00
    0.00000E+00         0.00000E+00        -0.56216E+07
 
   -0.60904E+07         0.18272E+07         0.00000E+00
    0.18272E+07        -0.22002E+08         0.00000E+00
    0.00000E+00         0.00000E+00        -0.56185E+07
 
   -0.60612E+07         0.18905E+07         0.00000E+00
    0.18905E+07        -0.22016E+08         0.00000E+00
    0.00000E+00         0.00000E+00        -0.56154E+07
 
   -0.60315E+07         0.19544E+07         0.00000E+00
    0.19544E+07        -0.22030E+08         0.00000E+00
    0.00000E+00         0.00000E+00        -0.56123E+07
 
   -0.60014E+07         0.20189E+07         0.00000E+00
    0.20189E+07        -0.22044E+08         0.00000E+00
    0.00000E+00         0.00000E+00        -0.56091E+07
 
   -0.59709E+07         0.20840E+07         0.00000E+00
    0.20840E+07        -0.22058E+08         0.00000E+00
    0.00000E+00         0.00000E+00        -0.56059E+07
 
   -0.59400E+07         0.21497E+07         0.00000E+00
    0.21497E+07        -0.22073E+08         0.00000E+00
    0.00000E+00         0.00000E+00        -0.56026E+07
 
   -0.59087E+07         0.22159E+07         0.00000E+00
    0.22159E+07        -0.22087E+08         0.00000E+00
    0.00000E+00         0.00000E+00        -0.55992E+07
 
   -0.58770E+07         0.22828E+07         0.00000E+00
    0.22828E+07        -0.22102E+08         0.00000E+00
    0.00000E+00         0.00000E+00        -0.55958E+07
 
   -0.58451E+07         0.23502E+07         0.00000E+00
    0.23502E+07        -0.22117E+08         0.00000E+00
    0.00000E+00         0.00000E+00        -0.55924E+07
 
   -0.58127E+07         0.24183E+07         0.00000E+00
    0.24183E+07        -0.22132E+08         0.00000E+00
    0.00000E+00         0.00000E+00        -0.55889E+07
 
   -0.57801E+07         0.24869E+07         0.00000E+00
    0.24869E+07        -0.22147E+08         0.00000E+00
    0.00000E+00         0.00000E+00        -0.55853E+07
 
   -0.57472E+07         0.25561E+07         0.00000E+00
    0.25561E+07        -0.22162E+08         0.00000E+00
    0.00000E+00         0.00000E+00        -0.55817E+07
 
   -0.57140E+07         0.26258E+07         0.00000E+00
    0.26258E+07        -0.22177E+08         0.00000E+00
    0.00000E+00         0.00000E+00        -0.55781E+07
 
   -0.56805E+07         0.26962E+07         0.00000E+00
    0.26962E+07        -0.22192E+08         0.00000E+00
    0.00000E+00         0.00000E+00        -0.55745E+07
 
   -0.56467E+07         0.27671E+07         0.00000E+00
    0.27671E+07        -0.22207E+08         0.00000E+00
    0.00000E+00         0.00000E+00        -0.55707E+07
 
   -0.56127E+07         0.28386E+07         0.00000E+00
    0.28386E+07        -0.22222E+08         0.00000E+00
    0.00000E+00         0.00000E+00        -0.55670E+07
 
   -0.55785E+07         0.29107E+07         0.00000E+00
    0.29107E+07        -0.22238E+08         0.00000E+00
    0.00000E+00         0.00000E+00        -0.55632E+07
 
   -0.69177E+07         0.22704E+05         0.00000E+00
    0.22704E+05        -0.22230E+08         0.00000E+00
    0.00000E+00         0.00000E+00        -0.58295E+07
 
   -0.69158E+07         0.68398E+05         0.00000E+00
    0.68398E+05        -0.22230E+08         0.00000E+00
    0.00000E+00         0.00000E+00        -0.58292E+07
 
   -0.69125E+07         0.11426E+06         0.00000E+00
    0.11426E+06        -0.22232E+08         0.00000E+00
    0.00000E+00         0.00000E+00        -0.58289E+07
 
   -0.69078E+07         0.16033E+06         0.00000E+00
    0.16033E+06        -0.22234E+08         0.00000E+00
    0.00000E+00         0.00000E+00        -0.58284E+07
 
   -0.69019E+07         0.20664E+06         0.00000E+00
    0.20664E+06        -0.22237E+08         0.00000E+00
    0.00000E+00         0.00000E+00        -0.58277E+07
 
   -0.68945E+07         0.25322E+06         0.00000E+00
    0.25322E+06        -0.22240E+08         0.00000E+00
    0.00000E+00         0.00000E+00        -0.58269E+07
 
   -0.68859E+07         0.30010E+06         0.00000E+00
    0.30010E+06        -0.22244E+08         0.00000E+00
    0.00000E+00         0.00000E+00        -0.58260E+07
 
   -0.68761E+07         0.34732E+06         0.00000E+00
    0.34732E+06        -0.22249E+08         0.00000E+00
    0.00000E+00         0.00000E+00        -0.58250E+07
 
   -0.68650E+07         0.39490E+06         0.00000E+00
    0.39490E+06        -0.22254E+08         0.00000E+00
    0.00000E+00         0.00000E+00        -0.58238E+07
 
   -0.68527E+07         0.44286E+06         0.00000E+00
    0.44286E+06        -0.22260E+08         0.00000E+00
    0.00000E+00         0.00000E+00        -0.58226E+07
 
   -0.68393E+07         0.49123E+06         0.00000E+00
    0.49123E+06        -0.22267E+08         0.00000E+00
    0.00000E+00         0.00000E+00        -0.58212E+07
 
   -0.68247E+07         0.54004E+06         0.00000E+00
    0.54004E+06        -0.22274E+08         0.00000E+00
    0.00000E+00         0.00000E+00        -0.58196E+07
 
   -0.68090E+07         0.58931E+06         0.00000E+00
    0.58931E+06        -0.22281E+08         0.00000E+00
    0.00000E+00         0.00000E+00        -0.58180E+07
 
   -0.67922E+07         0.63905E+06         0.00000E+00
    0.63905E+06        -0.22289E+08         0.00000E+00
    0.00000E+00         0.00000E+00        -0.58163E+07
 
   -0.67744E+07         0.68929E+06         0.00000E+00
    0.68929E+06        -0.22298E+08         0.00000E+00
    0.00000E+00         0.00000E+00        -0.58144E+07
 
   -0.67556E+07         0.74005E+06         0.00000E+00
    0.74005E+06        -0.22307E+08         0.00000E+00
    0.00000E+00         0.00000E+00        -0.58125E+07
 
   -0.67358E+07         0.79134E+06         0.00000E+00
    0.79134E+06        -0.22316E+08         0.00000E+00
    0.00000E+00         0.00000E+00        -0.58104E+07
 
   -0.67150E+07         0.84318E+06         0.00000E+00
    0.84318E+06        -0.22326E+08         0.00000E+00
    0.00000E+00         0.00000E+00        -0.58083E+07
 
   -0.66934E+07         0.89558E+06         0.00000E+00
    0.89558E+06        -0.22337E+08         0.00000E+00
    0.00000E+00         0.00000E+00        -0.58061E+07
 
   -0.66708E+07         0.94855E+06         0.00000E+00
    0.94855E+06        -0.22348E+08         0.00000E+00
    0.00000E+00         0.00000E+00        -0.58037E+07
 
   -0.66474E+07         0.10021E+07         0.00000E+00
    0.10021E+07        -0.22359E+08         0.00000E+00
    0.00000E+00         0.00000E+00        -0.58013E+07
 
   -0.66231E+07         0.10563E+07         0.00000E+00
    0.10563E+07        -0.22371E+08         0.00000E+00
    0.00000E+00         0.00000E+00        -0.57988E+07
 
   -0.65981E+07         0.11110E+07         0.00000E+00
    0.11110E+07        -0.22383E+08         0.00000E+00
    0.00000E+00         0.00000E+00        -0.57962E+07
 
   -0.65723E+07         0.11664E+07         0.00000E+00
    0.11664E+07        -0.22395E+08         0.00000E+00
    0.00000E+00         0.00000E+00        -0.57935E+07
 
   -0.65458E+07         0.12224E+07         0.00000E+00
    0.12224E+07        -0.22408E+08         0.00000E+00
    0.00000E+00         0.00000E+00        -0.57907E+07
 
   -0.65186E+07         0.12791E+07         0.00000E+00
    0.12791E+07        -0.22421E+08         0.00000E+00
    0.00000E+00         0.00000E+00        -0.57879E+07
 
   -0.64907E+07         0.13363E+07         0.00000E+00
    0.13363E+07        -0.22434E+08         0.00000E+00
    0.00000E+00         0.00000E+00        -0.57850E+07
 
   -0.64621E+07         0.13942E+07         0.00000E+00
    0.13942E+07        -0.22448E+08         0.00000E+00
    0.00000E+00         0.00000E+00        -0.57820E+07
 
   -0.64329E+07         0.14528E+07         0.00000E+00
    0.14528E+07        -0.22462E+08         0.00000E+00
    0.00000E+00         0.00000E+00        -0.57789E+07
 
   -0.64032E+07         0.15120E+07         0.00000E+00
    0.15120E+07        -0.22476E+08         0.00000E+00
    0.00000E+00         0.00000E+00        -0.57758E+07
 
   -0.63729E+07         0.15718E+07         0.00000E+00
    0.15718E+07        -0.22490E+08         0.00000E+00
    0.00000E+00         0.00000E+00        -0.57726E+07
 
   -0.63420E+07         0.16323E+07         0.00000E+00
    0.16323E+07        -0.22505E+08         0.00000E+00
    0.00000E+00         0.00000E+00        -0.57693E+07
 
   -0.63106E+07         0.16935E+07         0.00000E+00
    0.16935E+07        -0.22519E+08         0.00000E+00
    0.00000E+00         0.00000E+00        -0.57660E+07
 
   -0.62787E+07         0.17553E+07         0.00000E+00
    0.17553E+07        -0.22534E+08         0.00000E+00
    0.00000E+00         0.00000E+00        -0.57626E+07
 
   -0.62464E+07         0.18178E+07         0.00000E+00
    0.18178E+07        -0.22549E+08         0.00000E+00
    0.00000E+00         0.00000E+00        -0.57592E+07
 
   -0.62136E+07         0.18809E+07         0.00000E+00
    0.18809E+07        -0.22565E+08         0.00000E+00
    0.00000E+00         0.00000E+00        -0.57557E+07
 
   -0.61804E+07         0.19446E+07         0.00000E+00
    0.19446E+07        -0.22580E+08         0.00000E+00
    0.00000E+00         0.00000E+00        -0.57521E+07
 
   -0.61468E+07         0.20090E+07         0.00000E+00
    0.20090E+07        -0.22596E+08         0.00000E+00
    0.00000E+00         0.00000E+00        -0.57485E+07
 
   -0.61128E+07         0.20740E+07         0.00000E+00
    0.20740E+07        -0.22612E+08         0.00000E+00
    0.00000E+00         0.00000E+00        -0.57449E+07
 
   -0.60785E+07         0.21397E+07         0.00000E+00
    0.21397E+07        -0.22627E+08         0.00000E+00
    0.00000E+00         0.00000E+00        -0.57412E+07
 
   -0.60438E+07         0.22060E+07         0.00000E+00
    0.22060E+07        -0.22643E+08         0.00000E+00
    0.00000E+00         0.00000E+00        -0.57374E+07
 
   -0.60088E+07         0.22730E+07         0.00000E+00
    0.22730E+07        -0.22660E+08         0.00000E+00
    0.00000E+00         0.00000E+00        -0.57337E+07
 
   -0.59734E+07         0.23406E+07         0.00000E+00
    0.23406E+07        -0.22676E+08         0.00000E+00
    0.00000E+00         0.00000E+00        -0.57298E+07
 
   -0.59378E+07         0.24088E+07         0.00000E+00
    0.24088E+07        -0.22692E+08         0.00000E+00
    0.00000E+00         0.00000E+00        -0.57259E+07
 
   -0.59019E+07         0.24776E+07         0.00000E+00
    0.24776E+07        -0.22708E+08         0.00000E+00
    0.00000E+00         0.00000E+00        -0.57220E+07
 
   -0.58657E+07         0.25471E+07         0.00000E+00
    0.25471E+07        -0.22725E+08         0.00000E+00
    0.00000E+00         0.00000E+00        -0.57181E+07
 
   -0.58292E+07         0.26171E+07         0.00000E+00
    0.26171E+07        -0.22741E+08         0.00000E+00
    0.00000E+00         0.00000E+00        -0.57141E+07
 
   -0.57925E+07         0.26878E+07         0.00000E+00
    0.26878E+07        -0.22758E+08         0.00000E+00
    0.00000E+00         0.00000E+00        -0.57100E+07
 
   -0.57556E+07         0.27590E+07         0.00000E+00
    0.27590E+07        -0.22774E+08         0.00000E+00
    0.00000E+00         0.00000E+00        -0.57059E+07
 
   -0.57184E+07         0.28309E+07         0.00000E+00
    0.28309E+07        -0.22791E+08         0.00000E+00
    0.00000E+00         0.00000E+00        -0.57018E+07
 
   -0.72001E+07         0.20754E+05         0.00000E+00
    0.20754E+05        -0.22731E+08         0.00000E+00
    0.00000E+00         0.00000E+00        -0.59862E+07
 
   -0.71973E+07         0.62701E+05         0.00000E+00
    0.62701E+05        -0.22732E+08         0.00000E+00
    0.00000E+00         0.00000E+00        -0.59858E+07
 
   -0.71928E+07         0.10489E+06         0.00000E+00
    0.10489E+06        -0.22733E+08         0.00000E+00
    0.00000E+00         0.00000E+00        -0.59852E+07
 
   -0.71869E+07         0.14736E+06         0.00000E+00
    0.14736E+06        -0.22736E+08         0.00000E+00
    0.00000E+00         0.00000E+00        -0.59845E+07
 
   -0.71794E+07         0.19015E+06         0.00000E+00
    0.19015E+06        -0.22739E+08         0.00000E+00
    0.00000E+00         0.00000E+00        -0.59837E+07
 
   -0.71705E+07         0.23329E+06         0.00000E+00
    0.23329E+06        -0.22743E+08         0.00000E+00
    0.00000E+00         0.00000E+00        -0.59826E+07
 
   -0.71601E+07         0.27682E+06         0.00000E+00
    0.27682E+06        -0.22747E+08         0.00000E+00
    0.00000E+00         0.00000E+00        -0.59815E+07
 
   -0.71483E+07         0.32078E+06         0.00000E+00
    0.32078E+06        -0.22753E+08         0.00000E+00
    0.00000E+00         0.00000E+00        -0.59802E+07
 
   -0.71351E+07         0.36518E+06         0.00000E+00
    0.36518E+06        -0.22759E+08         0.00000E+00
    0.00000E+00         0.00000E+00        -0.59788E+07
 
   -0.71206E+07         0.41006E+06         0.00000E+00
    0.41006E+06        -0.22765E+08         0.00000E+00
    0.00000E+00         0.00000E+00        -0.59772E+07
 
   -0.71048E+07         0.45545E+06         0.00000E+00
    0.45545E+06        -0.22773E+08         0.00000E+00
    0.00000E+00         0.00000E+00        -0.59755E+07
 
   -0.70878E+07         0.50136E+06         0.00000E+00
    0.50136E+06        -0.22780E+08         0.00000E+00
    0.00000E+00         0.00000E+00        -0.59736E+07
 
   -0.70695E+07         0.54783E+06         0.00000E+00
    0.54783E+06        -0.22789E+08         0.00000E+00
    0.00000E+00         0.00000E+00        -0.59717E+07
 
   -0.70500E+07         0.59487E+06         0.00000E+00
    0.59487E+06        -0.22798E+08         0.00000E+00
    0.00000E+00         0.00000E+00        -0.59696E+07
 
   -0.70295E+07         0.64251E+06         0.00000E+00
    0.64251E+06        -0.22808E+08         0.00000E+00
    0.00000E+00         0.00000E+00        -0.59674E+07
 
   -0.70078E+07         0.69076E+06         0.00000E+00
    0.69076E+06        -0.22818E+08         0.00000E+00
    0.00000E+00         0.00000E+00        -0.59651E+07
 
   -0.69850E+07         0.73964E+06         0.00000E+00
    0.73964E+06        -0.22829E+08         0.00000E+00
    0.00000E+00         0.00000E+00        -0.59627E+07
 
   -0.69613E+07         0.78916E+06         0.00000E+00
    0.78916E+06        -0.22840E+08         0.00000E+00
    0.00000E+00         0.00000E+00        -0.59602E+07
 
   -0.69365E+07         0.83935E+06         0.00000E+00
    0.83935E+06        -0.22851E+08         0.00000E+00
    0.00000E+00         0.00000E+00        -0.59576E+07
 
   -0.69108E+07         0.89020E+06         0.00000E+00
    0.89020E+06        -0.22863E+08         0.00000E+00
    0.00000E+00         0.00000E+00        -0.59548E+07
 
   -0.68842E+07         0.94173E+06         0.00000E+00
    0.94173E+06        -0.22876E+08         0.00000E+00
    0.00000E+00         0.00000E+00        -0.59520E+07
 
   -0.68567E+07         0.99396E+06         0.00000E+00
    0.99396E+06        -0.22889E+08         0.00000E+00
    0.00000E+00         0.00000E+00        -0.59491E+07
 
   -0.68284E+07         0.10469E+07         0.00000E+00
    0.10469E+07        -0.22902E+08         0.00000E+00
    0.00000E+00         0.00000E+00        -0.59461E+07
 
   -0.67993E+07         0.11005E+07         0.00000E+00
    0.11005E+07        -0.22916E+08         0.00000E+00
    0.00000E+00         0.00000E+00        -0.59430E+07
 
   -0.67694E+07         0.11549E+07         0.00000E+00
    0.11549E+07        -0.22930E+08         0.00000E+00
    0.00000E+00         0.00000E+00        -0.59399E+07
 
   -0.67388E+07         0.12099E+07         0.00000E+00
    0.12099E+07        -0.22944E+08         0.00000E+00
    0.00000E+00         0.00000E+00        -0.59366E+07
 
   -0.67075E+07         0.12657E+07         0.00000E+00
    0.12657E+07        -0.22959E+08         0.00000E+00
    0.00000E+00         0.00000E+00        -0.59333E+07
 
   -0.66756E+07         0.13222E+07         0.00000E+00
    0.13222E+07        -0.22974E+08         0.00000E+00
    0.00000E+00         0.00000E+00        -0.59299E+07
 
   -0.66430E+07         0.13794E+07         0.00000E+00
    0.13794E+07        -0.22989E+08         0.00000E+00
    0.00000E+00         0.00000E+00        -0.59264E+07
 
   -0.66098E+07         0.14374E+07         0.00000E+00
    0.14374E+07        -0.23005E+08         0.00000E+00
    0.00000E+00         0.00000E+00        -0.59229E+07
 
   -0.65760E+07         0.14961E+07         0.00000E+00
    0.14961E+07        -0.23020E+08         0.00000E+00
    0.00000E+00         0.00000E+00        -0.59193E+07
 
   -0.65417E+07         0.15555E+07         0.00000E+00
    0.15555E+07        -0.23036E+08         0.00000E+00
    0.00000E+00         0.00000E+00        -0.59156E+07
 
   -0.65069E+07         0.16157E+07         0.00000E+00
    0.16157E+07        -0.23053E+08         0.00000E+00
    0.00000E+00         0.00000E+00        -0.59119E+07
 
   -0.64716E+07         0.16765E+07         0.00000E+00
    0.16765E+07        -0.23069E+08         0.00000E+00
    0.00000E+00         0.00000E+00        -0.59081E+07
 
   -0.64358E+07         0.17381E+07         0.00000E+00
    0.17381E+07        -0.23086E+08         0.00000E+00
    0.00000E+00         0.00000E+00        -0.59043E+07
 
   -0.63997E+07         0.18004E+07         0.00000E+00
    0.18004E+07        -0.23102E+08         0.00000E+00
    0.00000E+00         0.00000E+00        -0.59004E+07
 
   -0.63631E+07         0.18634E+07         0.00000E+00
    0.18634E+07        -0.23119E+08         0.00000E+00
    0.00000E+00         0.00000E+00        -0.58964E+07
 
   -0.63261E+07         0.19271E+07         0.00000E+00
    0.19271E+07        -0.23136E+08         0.00000E+00
    0.00000E+00         0.00000E+00        -0.58925E+07
 
   -0.62888E+07         0.19916E+07         0.00000E+00
    0.19916E+07        -0.23153E+08         0.00000E+00
    0.00000E+00         0.00000E+00        -0.58884E+07
 
   -0.62511E+07         0.20567E+07         0.00000E+00
    0.20567E+07        -0.23171E+08         0.00000E+00
    0.00000E+00         0.00000E+00        -0.58843E+07
 
   -0.62131E+07         0.21225E+07         0.00000E+00
    0.21225E+07        -0.23188E+08         0.00000E+00
    0.00000E+00         0.00000E+00        -0.58802E+07
 
   -0.61748E+07         0.21890E+07         0.00000E+00
    0.21890E+07        -0.23205E+08         0.00000E+00
    0.00000E+00         0.00000E+00        -0.58761E+07
 
   -0.61362E+07         0.22561E+07         0.00000E+00
    0.22561E+07        -0.23223E+08         0.00000E+00
    0.00000E+00         0.00000E+00        -0.58718E+07
 
   -0.60974E+07         0.23240E+07         0.00000E+00
    0.23240E+07        -0.23241E+08         0.00000E+00
    0.00000E+00         0.00000E+00        -0.58676E+07
 
   -0.60582E+07         0.23924E+07         0.00000E+00
    0.23924E+07        -0.23258E+08         0.00000E+00
    0.00000E+00         0.00000E+00        -0.58633E+07
 
   -0.60189E+07         0.24616E+07         0.00000E+00
    0.24616E+07        -0.23276E+08         0.00000E+00
    0.00000E+00         0.00000E+00        -0.58590E+07
 
   -0.59793E+07         0.25314E+07         0.00000E+00
    0.25314E+07        -0.23294E+08         0.00000E+00
    0.00000E+00         0.00000E+00        -0.58546E+07
 
   -0.59395E+07         0.26018E+07         0.00000E+00
    0.26018E+07        -0.23312E+08         0.00000E+00
    0.00000E+00         0.00000E+00        -0.58503E+07
 
   -0.58995E+07         0.26728E+07         0.00000E+00
    0.26728E+07        -0.23330E+08         0.00000E+00
    0.00000E+00         0.00000E+00        -0.58458E+07
 
   -0.58593E+07         0.27445E+07         0.00000E+00
    0.27445E+07        -0.23348E+08         0.00000E+00
    0.00000E+00         0.00000E+00        -0.58414E+07
 
   -0.75027E+07         0.18516E+05         0.00000E+00
    0.18516E+05        -0.23232E+08         0.00000E+00
    0.00000E+00         0.00000E+00        -0.61470E+07
 
   -0.74985E+07         0.56198E+05         0.00000E+00
    0.56198E+05        -0.23233E+08         0.00000E+00
    0.00000E+00         0.00000E+00        -0.61463E+07
 
   -0.74926E+07         0.94218E+05         0.00000E+00
    0.94218E+05        -0.23235E+08         0.00000E+00
    0.00000E+00         0.00000E+00        -0.61455E+07
 
   -0.74849E+07         0.13262E+06         0.00000E+00
    0.13262E+06        -0.23238E+08         0.00000E+00
    0.00000E+00         0.00000E+00        -0.61445E+07
 
   -0.74755E+07         0.17144E+06         0.00000E+00
    0.17144E+06        -0.23241E+08         0.00000E+00
    0.00000E+00         0.00000E+00        -0.61433E+07
 
   -0.74644E+07         0.21073E+06         0.00000E+00
    0.21073E+06        -0.23246E+08         0.00000E+00
    0.00000E+00         0.00000E+00        -0.61420E+07
 
   -0.74517E+07         0.25051E+06         0.00000E+00
    0.25051E+06        -0.23251E+08         0.00000E+00
    0.00000E+00         0.00000E+00        -0.61405E+07
 
   -0.74375E+07         0.29082E+06         0.00000E+00
    0.29082E+06        -0.23257E+08         0.00000E+00
    0.00000E+00         0.00000E+00        -0.61388E+07
 
   -0.74217E+07         0.33169E+06         0.00000E+00
    0.33169E+06        -0.23263E+08         0.00000E+00
    0.00000E+00         0.00000E+00        -0.61370E+07
 
   -0.74045E+07         0.37316E+06         0.00000E+00
    0.37316E+06        -0.23271E+08         0.00000E+00
    0.00000E+00         0.00000E+00        -0.61351E+07
 
   -0.73858E+07         0.41525E+06         0.00000E+00
    0.41525E+06        -0.23279E+08         0.00000E+00
    0.00000E+00         0.00000E+00        -0.61330E+07
 
   -0.73658E+07         0.45798E+06         0.00000E+00
    0.45798E+06        -0.23288E+08         0.00000E+00
    0.00000E+00         0.00000E+00        -0.61308E+07
 
   -0.73444E+07         0.50138E+06         0.00000E+00
    0.50138E+06        -0.23297E+08         0.00000E+00
    0.00000E+00         0.00000E+00        -0.61284E+07
 
   -0.73218E+07         0.54547E+06         0.00000E+00
    0.54547E+06        -0.23308E+08         0.00000E+00
    0.00000E+00         0.00000E+00        -0.61259E+07
 
   -0.72979E+07         0.59027E+06         0.00000E+00
    0.59027E+06        -0.23318E+08         0.00000E+00
    0.00000E+00         0.00000E+00        -0.61232E+07
 
   -0.72728E+07         0.63580E+06         0.00000E+00
    0.63580E+06        -0.23330E+08         0.00000E+00
    0.00000E+00         0.00000E+00        -0.61205E+07
 
   -0.72466E+07         0.68207E+06         0.00000E+00
    0.68207E+06        -0.23342E+08         0.00000E+00
    0.00000E+00         0.00000E+00        -0.61176E+07
 
   -0.72193E+07         0.72909E+06         0.00000E+00
    0.72909E+06        -0.23354E+08         0.00000E+00
    0.00000E+00         0.00000E+00        -0.61147E+07
 
   -0.71910E+07         0.77689E+06         0.00000E+00
    0.77689E+06        -0.23367E+08         0.00000E+00
    0.00000E+00         0.00000E+00        -0.61116E+07
 
   -0.71616E+07         0.82547E+06         0.00000E+00
    0.82547E+06        -0.23380E+08         0.00000E+00
    0.00000E+00         0.00000E+00        -0.61084E+07
 
   -0.71313E+07         0.87483E+06         0.00000E+00
    0.87483E+06        -0.23394E+08         0.00000E+00
    0.00000E+00         0.00000E+00        -0.61051E+07
 
   -0.71001E+07         0.92500E+06         0.00000E+00
    0.92500E+06        -0.23408E+08         0.00000E+00
    0.00000E+00         0.00000E+00        -0.61017E+07
 
   -0.70680E+07         0.97597E+06         0.00000E+00
    0.97597E+06        -0.23423E+08         0.00000E+00
    0.00000E+00         0.00000E+00        -0.60982E+07
 
   -0.70351E+07         0.10278E+07         0.00000E+00
    0.10278E+07        -0.23438E+08         0.00000E+00
    0.00000E+00         0.00000E+00        -0.60947E+07
 
   -0.70014E+07         0.10803E+07         0.00000E+00
    0.10803E+07        -0.23454E+08         0.00000E+00
    0.00000E+00         0.00000E+00        -0.60910E+07
 
   -0.69670E+07         0.11338E+07         0.00000E+00
    0.11338E+07        -0.23469E+08         0.00000E+00
    0.00000E+00         0.00000E+00        -0.60873E+07
 
   -0.69318E+07         0.11880E+07         0.00000E+00
    0.11880E+07        -0.23486E+08         0.00000E+00
    0.00000E+00         0.00000E+00        -0.60835E+07
 
   -0.68960E+07         0.12430E+07         0.00000E+00
    0.12430E+07        -0.23502E+08         0.00000E+00
    0.00000E+00         0.00000E+00        -0.60796E+07
 
   -0.68595E+07         0.12989E+07         0.00000E+00
    0.12989E+07        -0.23519E+08         0.00000E+00
    0.00000E+00         0.00000E+00        -0.60756E+07
 
   -0.68225E+07         0.13556E+07         0.00000E+00
    0.13556E+07        -0.23536E+08         0.00000E+00
    0.00000E+00         0.00000E+00        -0.60716E+07
 
   -0.67849E+07         0.14131E+07         0.00000E+00
    0.14131E+07        -0.23553E+08         0.00000E+00
    0.00000E+00         0.00000E+00        -0.60676E+07
 
   -0.67467E+07         0.14714E+07         0.00000E+00
    0.14714E+07        -0.23570E+08         0.00000E+00
    0.00000E+00         0.00000E+00        -0.60634E+07
 
   -0.67081E+07         0.15305E+07         0.00000E+00
    0.15305E+07        -0.23588E+08         0.00000E+00
    0.00000E+00         0.00000E+00        -0.60592E+07
 
   -0.66690E+07         0.15905E+07         0.00000E+00
    0.15905E+07        -0.23606E+08         0.00000E+00
    0.00000E+00         0.00000E+00        -0.60550E+07
 
   -0.66295E+07         0.16512E+07         0.00000E+00
    0.16512E+07        -0.23624E+08         0.00000E+00
    0.00000E+00         0.00000E+00        -0.60507E+07
 
   -0.65895E+07         0.17127E+07         0.00000E+00
    0.17127E+07        -0.23642E+08         0.00000E+00
    0.00000E+00         0.00000E+00        -0.60464E+07
 
   -0.65492E+07         0.17750E+07         0.00000E+00
    0.17750E+07        -0.23661E+08         0.00000E+00
    0.00000E+00         0.00000E+00        -0.60420E+07
 
   -0.65086E+07         0.18380E+07         0.00000E+00
    0.18380E+07        -0.23679E+08         0.00000E+00
    0.00000E+00         0.00000E+00        -0.60375E+07
 
   -0.64676E+07         0.19019E+07         0.00000E+00
    0.19019E+07        -0.23698E+08         0.00000E+00
    0.00000E+00         0.00000E+00        -0.60331E+07
 
   -0.64263E+07         0.19664E+07         0.00000E+00
    0.19664E+07        -0.23716E+08         0.00000E+00
    0.00000E+00         0.00000E+00        -0.60286E+07
 
   -0.63848E+07         0.20318E+07         0.00000E+00
    0.20318E+07        -0.23735E+08         0.00000E+00
    0.00000E+00         0.00000E+00        -0.60240E+07
 
   -0.63430E+07         0.20978E+07         0.00000E+00
    0.20978E+07        -0.23754E+08         0.00000E+00
    0.00000E+00         0.00000E+00        -0.60194E+07
 
   -0.63009E+07         0.21646E+07         0.00000E+00
    0.21646E+07        -0.23773E+08         0.00000E+00
    0.00000E+00         0.00000E+00        -0.60148E+07
 
   -0.62586E+07         0.22321E+07         0.00000E+00
    0.22321E+07        -0.23792E+08         0.00000E+00
    0.00000E+00         0.00000E+00        -0.60102E+07
 
   -0.62161E+07         0.23003E+07         0.00000E+00
    0.23003E+07        -0.23811E+08         0.00000E+00
    0.00000E+00         0.00000E+00        -0.60055E+07
 
   -0.61735E+07         0.23692E+07         0.00000E+00
    0.23692E+07        -0.23831E+08         0.00000E+00
    0.00000E+00         0.00000E+00        -0.60008E+07
 
   -0.61306E+07         0.24387E+07         0.00000E+00
    0.24387E+07        -0.23850E+08         0.00000E+00
    0.00000E+00         0.00000E+00        -0.59961E+07
 
   -0.60876E+07         0.25090E+07         0.00000E+00
    0.25090E+07        -0.23869E+08         0.00000E+00
    0.00000E+00         0.00000E+00        -0.59913E+07
 
   -0.60444E+07         0.25798E+07         0.00000E+00
    0.25798E+07        -0.23888E+08         0.00000E+00
    0.00000E+00         0.00000E+00        -0.59865E+07
 
   -0.60010E+07         0.26514E+07         0.00000E+00
    0.26514E+07        -0.23908E+08         0.00000E+00
    0.00000E+00         0.00000E+00        -0.59817E+07
 
   -0.78283E+07         0.15955E+05         0.00000E+00
    0.15955E+05        -0.23733E+08         0.00000E+00
    0.00000E+00         0.00000E+00        -0.63123E+07
 
   -0.78223E+07         0.48800E+05         0.00000E+00
    0.48800E+05        -0.23734E+08         0.00000E+00
    0.00000E+00         0.00000E+00        -0.63113E+07
 
   -0.78142E+07         0.82110E+05         0.00000E+00
    0.82110E+05        -0.23736E+08         0.00000E+00
    0.00000E+00         0.00000E+00        -0.63101E+07
 
   -0.78042E+07         0.11593E+06         0.00000E+00
    0.11593E+06        -0.23740E+08         0.00000E+00
    0.00000E+00         0.00000E+00        -0.63088E+07
 
   -0.77923E+07         0.15031E+06         0.00000E+00
    0.15031E+06        -0.23744E+08         0.00000E+00
    0.00000E+00         0.00000E+00        -0.63072E+07
 
   -0.77785E+07         0.18528E+06         0.00000E+00
    0.18528E+06        -0.23749E+08         0.00000E+00
    0.00000E+00         0.00000E+00        -0.63054E+07
 
   -0.77629E+07         0.22088E+06         0.00000E+00
    0.22088E+06        -0.23754E+08         0.00000E+00
    0.00000E+00         0.00000E+00        -0.63035E+07
 
   -0.77456E+07         0.25716E+06         0.00000E+00
    0.25716E+06        -0.23761E+08         0.00000E+00
    0.00000E+00         0.00000E+00        -0.63013E+07
 
   -0.77266E+07         0.29413E+06         0.00000E+00
    0.29413E+06        -0.23769E+08         0.00000E+00
    0.00000E+00         0.00000E+00        -0.62990E+07
 
   -0.77060E+07         0.33184E+06         0.00000E+00
    0.33184E+06        -0.23777E+08         0.00000E+00
    0.00000E+00         0.00000E+00        -0.62966E+07
 
   -0.76838E+07         0.37030E+06         0.00000E+00
    0.37030E+06        -0.23786E+08         0.00000E+00
    0.00000E+00         0.00000E+00        -0.62940E+07
 
   -0.76601E+07         0.40955E+06         0.00000E+00
    0.40955E+06        -0.23796E+08         0.00000E+00
    0.00000E+00         0.00000E+00        -0.62912E+07
 
   -0.76351E+07         0.44961E+06         0.00000E+00
    0.44961E+06        -0.23807E+08         0.00000E+00
    0.00000E+00         0.00000E+00        -0.62883E+07
 
   -0.76086E+07         0.49049E+06         0.00000E+00
    0.49049E+06        -0.23818E+08         0.00000E+00
    0.00000E+00         0.00000E+00        -0.62853E+07
 
   -0.75808E+07         0.53221E+06         0.00000E+00
    0.53221E+06        -0.23830E+08         0.00000E+00
    0.00000E+00         0.00000E+00        -0.62821E+07
 
   -0.75517E+07         0.57480E+06         0.00000E+00
    0.57480E+06        -0.23842E+08         0.00000E+00
    0.00000E+00         0.00000E+00        -0.62788E+07
 
   -0.75214E+07         0.61826E+06         0.00000E+00
    0.61826E+06        -0.23855E+08         0.00000E+00
    0.00000E+00         0.00000E+00        -0.62754E+07
 
   -0.74900E+07         0.66261E+06         0.00000E+00
    0.66261E+06        -0.23869E+08         0.00000E+00
    0.00000E+00         0.00000E+00        -0.62718E+07
 
   -0.74575E+07         0.70786E+06         0.00000E+00
    0.70786E+06        -0.23883E+08         0.00000E+00
    0.00000E+00         0.00000E+00        -0.62682E+07
 
   -0.74239E+07         0.75401E+06         0.00000E+00
    0.75401E+06        -0.23898E+08         0.00000E+00
    0.00000E+00         0.00000E+00        -0.62644E+07
 
   -0.73893E+07         0.80108E+06         0.00000E+00
    0.80108E+06        -0.23913E+08         0.00000E+00
    0.00000E+00         0.00000E+00        -0.62605E+07
 
   -0.73538E+07         0.84906E+06         0.00000E+00
    0.84906E+06        -0.23929E+08         0.00000E+00
    0.00000E+00         0.00000E+00        -0.62566E+07
 
   -0.73174E+07         0.89798E+06         0.00000E+00
    0.89798E+06        -0.23945E+08         0.00000E+00
    0.00000E+00         0.00000E+00        -0.62525E+07
 
   -0.72801E+07         0.94781E+06         0.00000E+00
    0.94781E+06        -0.23962E+08         0.00000E+00
    0.00000E+00         0.00000E+00        -0.62483E+07
 
   -0.72421E+07         0.99858E+06         0.00000E+00
    0.99858E+06        -0.23979E+08         0.00000E+00
    0.00000E+00         0.00000E+00        -0.62441E+07
 
   -0.72033E+07         0.10503E+07         0.00000E+00
    0.10503E+07        -0.23996E+08         0.00000E+00
    0.00000E+00         0.00000E+00        -0.62398E+07
 
   -0.71638E+07         0.11029E+07         0.00000E+00
    0.11029E+07        -0.24013E+08         0.00000E+00
    0.00000E+00         0.00000E+00        -0.62354E+07
 
   -0.71236E+07         0.11564E+07         0.00000E+00
    0.11564E+07        -0.24031E+08         0.00000E+00
    0.00000E+00         0.00000E+00        -0.62310E+07
 
   -0.70828E+07         0.12109E+07         0.00000E+00
    0.12109E+07        -0.24050E+08         0.00000E+00
    0.00000E+00         0.00000E+00        -0.62265E+07
 
   -0.70414E+07         0.12663E+07         0.00000E+00
    0.12663E+07        -0.24068E+08         0.00000E+00
    0.00000E+00         0.00000E+00        -0.62219E+07
 
   -0.69995E+07         0.13226E+07         0.00000E+00
    0.13226E+07        -0.24087E+08         0.00000E+00
    0.00000E+00         0.00000E+00        -0.62173E+07
 
   -0.69571E+07         0.13798E+07         0.00000E+00
    0.13798E+07        -0.24106E+08         0.00000E+00
    0.00000E+00         0.00000E+00        -0.62126E+07
 
   -0.69142E+07         0.14378E+07         0.00000E+00
    0.14378E+07        -0.24125E+08         0.00000E+00
    0.00000E+00         0.00000E+00        -0.62079E+07
 
   -0.68709E+07         0.14968E+07         0.00000E+00
    0.14968E+07        -0.24145E+08         0.00000E+00
    0.00000E+00         0.00000E+00        -0.62031E+07
 
   -0.68273E+07         0.15567E+07         0.00000E+00
    0.15567E+07        -0.24164E+08         0.00000E+00
    0.00000E+00         0.00000E+00        -0.61983E+07
 
   -0.67832E+07         0.16174E+07         0.00000E+00
    0.16174E+07        -0.24184E+08         0.00000E+00
    0.00000E+00         0.00000E+00        -0.61934E+07
 
   -0.67388E+07         0.16790E+07         0.00000E+00
    0.16790E+07        -0.24204E+08         0.00000E+00
    0.00000E+00         0.00000E+00        -0.61885E+07
 
   -0.66942E+07         0.17414E+07         0.00000E+00
    0.17414E+07        -0.24224E+08         0.00000E+00
    0.00000E+00         0.00000E+00        -0.61836E+07
 
   -0.66492E+07         0.18047E+07         0.00000E+00
    0.18047E+07        -0.24244E+08         0.00000E+00
    0.00000E+00         0.00000E+00        -0.61786E+07
 
   -0.66040E+07         0.18687E+07         0.00000E+00
    0.18687E+07        -0.24264E+08         0.00000E+00
    0.00000E+00         0.00000E+00        -0.61737E+07
 
   -0.65586E+07         0.19336E+07         0.00000E+00
    0.19336E+07        -0.24285E+08         0.00000E+00
    0.00000E+00         0.00000E+00        -0.61687E+07
 
   -0.65131E+07         0.19993E+07         0.00000E+00
    0.19993E+07        -0.24305E+08         0.00000E+00
    0.00000E+00         0.00000E+00        -0.61636E+07
 
   -0.64673E+07         0.20658E+07         0.00000E+00
    0.20658E+07        -0.24326E+08         0.00000E+00
    0.00000E+00         0.00000E+00        -0.61586E+07
 
   -0.64214E+07         0.21330E+07         0.00000E+00
    0.21330E+07        -0.24346E+08         0.00000E+00
    0.00000E+00         0.00000E+00        -0.61535E+07
 
   -0.63753E+07         0.22009E+07         0.00000E+00
    0.22009E+07        -0.24367E+08         0.00000E+00
    0.00000E+00         0.00000E+00        -0.61484E+07
 
   -0.63291E+07         0.22696E+07         0.00000E+00
    0.22696E+07        -0.24387E+08         0.00000E+00
    0.00000E+00         0.00000E+00        -0.61433E+07
 
   -0.62828E+07         0.23390E+07         0.00000E+00
    0.23390E+07        -0.24408E+08         0.00000E+00
    0.00000E+00         0.00000E+00        -0.61382E+07
 
   -0.62364E+07         0.24091E+07         0.00000E+00
    0.24091E+07        -0.24429E+08         0.00000E+00
    0.00000E+00         0.00000E+00        -0.61330E+07
 
   -0.61900E+07         0.24798E+07         0.00000E+00
    0.24798E+07        -0.24449E+08         0.00000E+00
    0.00000E+00         0.00000E+00        -0.61279E+07
 
   -0.61434E+07         0.25513E+07         0.00000E+00
    0.25513E+07        -0.24470E+08         0.00000E+00
    0.00000E+00         0.00000E+00        -0.61227E+07
 
   -0.81800E+07         0.13039E+05         0.00000E+00
    0.13039E+05        -0.24235E+08         0.00000E+00
    0.00000E+00         0.00000E+00        -0.64829E+07
 
   -0.81714E+07         0.40428E+05         0.00000E+00
    0.40428E+05        -0.24236E+08         0.00000E+00
    0.00000E+00         0.00000E+00        -0.64814E+07
 
   -0.81605E+07         0.68447E+05         0.00000E+00
    0.68447E+05        -0.24238E+08         0.00000E+00
    0.00000E+00         0.00000E+00        -0.64797E+07
 
   -0.81474E+07         0.97144E+05         0.00000E+00
    0.97144E+05        -0.24242E+08         0.00000E+00
    0.00000E+00         0.00000E+00        -0.64778E+07
 
   -0.81322E+07         0.12656E+06         0.00000E+00
    0.12656E+06        -0.24246E+08         0.00000E+00
    0.00000E+00         0.00000E+00        -0.64757E+07
 
   -0.81149E+07         0.15675E+06         0.00000E+00
    0.15675E+06        -0.24252E+08         0.00000E+00
    0.00000E+00         0.00000E+00        -0.64733E+07
 
   -0.80957E+07         0.18774E+06         0.00000E+00
    0.18774E+06        -0.24258E+08         0.00000E+00
    0.00000E+00         0.00000E+00        -0.64708E+07
 
   -0.80745E+07         0.21956E+06         0.00000E+00
    0.21956E+06        -0.24266E+08         0.00000E+00
    0.00000E+00         0.00000E+00        -0.64680E+07
 
   -0.80515E+07         0.25226E+06         0.00000E+00
    0.25226E+06        -0.24274E+08         0.00000E+00
    0.00000E+00         0.00000E+00        -0.64651E+07
 
   -0.80268E+07         0.28586E+06         0.00000E+00
    0.28586E+06        -0.24283E+08         0.00000E+00
    0.00000E+00         0.00000E+00        -0.64620E+07
 
   -0.80004E+07         0.32038E+06         0.00000E+00
    0.32038E+06        -0.24293E+08         0.00000E+00
    0.00000E+00         0.00000E+00        -0.64588E+07
 
   -0.79723E+07         0.35584E+06         0.00000E+00
    0.35584E+06        -0.24304E+08         0.00000E+00
    0.00000E+00         0.00000E+00        -0.64553E+07
 
   -0.79428E+07         0.39228E+06         0.00000E+00
    0.39228E+06        -0.24316E+08         0.00000E+00
    0.00000E+00         0.00000E+00        -0.64517E+07
 
   -0.79117E+07         0.42970E+06         0.00000E+00
    0.42970E+06        -0.24328E+08         0.00000E+00
    0.00000E+00         0.00000E+00        -0.64480E+07
 
   -0.78793E+07         0.46812E+06         0.00000E+00
    0.46812E+06        -0.24341E+08         0.00000E+00
    0.00000E+00         0.00000E+00        -0.64442E+07
 
   -0.78455E+07         0.50756E+06         0.00000E+00
    0.50756E+06        -0.24355E+08         0.00000E+00
    0.00000E+00         0.00000E+00        -0.64401E+07
 
   -0.78104E+07         0.54803E+06         0.00000E+00
    0.54803E+06        -0.24370E+08         0.00000E+00
    0.00000E+00         0.00000E+00        -0.64360E+07
 
   -0.77742E+07         0.58952E+06         0.00000E+00
    0.58952E+06        -0.24385E+08         0.00000E+00
    0.00000E+00         0.00000E+00        -0.64318E+07
 
   -0.77368E+07         0.63207E+06         0.00000E+00
    0.63207E+06        -0.24400E+08         0.00000E+00
    0.00000E+00         0.00000E+00        -0.64274E+07
 
   -0.76983E+07         0.67565E+06         0.00000E+00
    0.67565E+06        -0.24416E+08         0.00000E+00
    0.00000E+00         0.00000E+00        -0.64229E+07
 
   -0.76588E+07         0.72029E+06         0.00000E+00
    0.72029E+06        -0.24433E+08         0.00000E+00
    0.00000E+00         0.00000E+00        -0.64184E+07
 
   -0.76184E+07         0.76599E+06         0.00000E+00
    0.76599E+06        -0.24450E+08         0.00000E+00
    0.00000E+00         0.00000E+00        -0.64137E+07
 
   -0.75770E+07         0.81274E+06         0.00000E+00
    0.81274E+06        -0.24468E+08         0.00000E+00
    0.00000E+00         0.00000E+00        -0.64089E+07
 
   -0.75348E+07         0.86054E+06         0.00000E+00
    0.86054E+06        -0.24486E+08         0.00000E+00
    0.00000E+00         0.00000E+00        -0.64041E+07
 
   -0.74918E+07         0.90939E+06         0.00000E+00
    0.90939E+06        -0.24504E+08         0.00000E+00
    0.00000E+00         0.00000E+00        -0.63992E+07
 
   -0.74481E+07         0.95929E+06         0.00000E+00
    0.95929E+06        -0.24523E+08         0.00000E+00
    0.00000E+00         0.00000E+00        -0.63942E+07
 
   -0.74037E+07         0.10102E+07         0.00000E+00
    0.10102E+07        -0.24542E+08         0.00000E+00
    0.00000E+00         0.00000E+00        -0.63891E+07
 
   -0.73586E+07         0.10622E+07         0.00000E+00
    0.10622E+07        -0.24561E+08         0.00000E+00
    0.00000E+00         0.00000E+00        -0.63840E+07
 
   -0.73130E+07         0.11152E+07         0.00000E+00
    0.11152E+07        -0.24581E+08         0.00000E+00
    0.00000E+00         0.00000E+00        -0.63788E+07
 
   -0.72668E+07         0.11693E+07         0.00000E+00
    0.11693E+07        -0.24601E+08         0.00000E+00
    0.00000E+00         0.00000E+00        -0.63736E+07
 
   -0.72201E+07         0.12243E+07         0.00000E+00
    0.12243E+07        -0.24621E+08         0.00000E+00
    0.00000E+00         0.00000E+00        -0.63683E+07
 
   -0.71729E+07         0.12804E+07         0.00000E+00
    0.12804E+07        -0.24642E+08         0.00000E+00
    0.00000E+00         0.00000E+00        -0.63630E+07
 
   -0.71254E+07         0.13374E+07         0.00000E+00
    0.13374E+07        -0.24663E+08         0.00000E+00
    0.00000E+00         0.00000E+00        -0.63576E+07
 
   -0.70774E+07         0.13954E+07         0.00000E+00
    0.13954E+07        -0.24684E+08         0.00000E+00
    0.00000E+00         0.00000E+00        -0.63522E+07
 
   -0.70292E+07         0.14544E+07         0.00000E+00
    0.14544E+07        -0.24705E+08         0.00000E+00
    0.00000E+00         0.00000E+00        -0.63468E+07
 
   -0.69806E+07         0.15144E+07         0.00000E+00
    0.15144E+07        -0.24726E+08         0.00000E+00
    0.00000E+00         0.00000E+00        -0.63414E+07
 
   -0.69318E+07         0.15752E+07         0.00000E+00
    0.15752E+07        -0.24748E+08         0.00000E+00
    0.00000E+00         0.00000E+00        -0.63359E+07
 
   -0.68827E+07         0.16371E+07         0.00000E+00
    0.16371E+07        -0.24769E+08         0.00000E+00
    0.00000E+00         0.00000E+00        -0.63304E+07
 
   -0.68335E+07         0.16998E+07         0.00000E+00
    0.16998E+07        -0.24791E+08         0.00000E+00
    0.00000E+00         0.00000E+00        -0.63249E+07
 
   -0.67841E+07         0.17634E+07         0.00000E+00
    0.17634E+07        -0.24813E+08         0.00000E+00
    0.00000E+00         0.00000E+00        -0.63194E+07
 
   -0.67345E+07         0.18279E+07         0.00000E+00
    0.18279E+07        -0.24835E+08         0.00000E+00
    0.00000E+00         0.00000E+00        -0.63139E+07
 
   -0.66848E+07         0.18932E+07         0.00000E+00
    0.18932E+07        -0.24857E+08         0.00000E+00
    0.00000E+00         0.00000E+00        -0.63083E+07
 
   -0.66351E+07         0.19594E+07         0.00000E+00
    0.19594E+07        -0.24879E+08         0.00000E+00
    0.00000E+00         0.00000E+00        -0.63028E+07
 
   -0.65853E+07         0.20264E+07         0.00000E+00
    0.20264E+07        -0.24901E+08         0.00000E+00
    0.00000E+00         0.00000E+00        -0.62972E+07
 
   -0.65354E+07         0.20941E+07         0.00000E+00
    0.20941E+07        -0.24923E+08         0.00000E+00
    0.00000E+00         0.00000E+00        -0.62917E+07
 
   -0.64856E+07         0.21627E+07         0.00000E+00
    0.21627E+07        -0.24945E+08         0.00000E+00
    0.00000E+00         0.00000E+00        -0.62861E+07
 
   -0.64357E+07         0.22320E+07         0.00000E+00
    0.22320E+07        -0.24967E+08         0.00000E+00
    0.00000E+00         0.00000E+00        -0.62806E+07
 
   -0.63858E+07         0.23020E+07         0.00000E+00
    0.23020E+07        -0.24989E+08         0.00000E+00
    0.00000E+00         0.00000E+00        -0.62750E+07
 
   -0.63359E+07         0.23727E+07         0.00000E+00
    0.23727E+07        -0.25011E+08         0.00000E+00
    0.00000E+00         0.00000E+00        -0.62695E+07
 
   -0.62861E+07         0.24441E+07         0.00000E+00
    0.24441E+07        -0.25034E+08         0.00000E+00
    0.00000E+00         0.00000E+00        -0.62639E+07
 
   -0.85611E+07         0.97399E+04         0.00000E+00
    0.97399E+04        -0.24736E+08         0.00000E+00
    0.00000E+00         0.00000E+00        -0.66594E+07
 
   -0.85490E+07         0.31022E+05         0.00000E+00
    0.31022E+05        -0.24737E+08         0.00000E+00
    0.00000E+00         0.00000E+00        -0.66572E+07
 
   -0.85343E+07         0.53144E+05         0.00000E+00
    0.53144E+05        -0.24740E+08         0.00000E+00
    0.00000E+00         0.00000E+00        -0.66548E+07
 
   -0.85172E+07         0.76156E+05         0.00000E+00
    0.76156E+05        -0.24744E+08         0.00000E+00
    0.00000E+00         0.00000E+00        -0.66522E+07
 
   -0.84977E+07         0.10010E+06         0.00000E+00
    0.10010E+06        -0.24749E+08         0.00000E+00
    0.00000E+00         0.00000E+00        -0.66493E+07
 
   -0.84760E+07         0.12502E+06         0.00000E+00
    0.12502E+06        -0.24755E+08         0.00000E+00
    0.00000E+00         0.00000E+00        -0.66462E+07
 
   -0.84522E+07         0.15096E+06         0.00000E+00
    0.15096E+06        -0.24762E+08         0.00000E+00
    0.00000E+00         0.00000E+00        -0.66428E+07
 
   -0.84262E+07         0.17793E+06         0.00000E+00
    0.17793E+06        -0.24770E+08         0.00000E+00
    0.00000E+00         0.00000E+00        -0.66393E+07
 
   -0.83983E+07         0.20598E+06         0.00000E+00
    0.20598E+06        -0.24780E+08         0.00000E+00
    0.00000E+00         0.00000E+00        -0.66356E+07
 
   -0.83686E+07         0.23513E+06         0.00000E+00
    0.23513E+06        -0.24790E+08         0.00000E+00
    0.00000E+00         0.00000E+00        -0.66317E+07
 
   -0.83370E+07         0.26540E+06         0.00000E+00
    0.26540E+06        -0.24801E+08         0.00000E+00
    0.00000E+00         0.00000E+00        -0.66276E+07
 
   -0.83037E+07         0.29681E+06         0.00000E+00
    0.29681E+06        -0.24813E+08         0.00000E+00
    0.00000E+00         0.00000E+00        -0.66233E+07
 
   -0.82688E+07         0.32937E+06         0.00000E+00
    0.32937E+06        -0.24825E+08         0.00000E+00
    0.00000E+00         0.00000E+00        -0.66189E+07
 
   -0.82323E+07         0.36310E+06         0.00000E+00
    0.36310E+06        -0.24839E+08         0.00000E+00
    0.00000E+00         0.00000E+00        -0.66143E+07
 
   -0.81944E+07         0.39802E+06         0.00000E+00
    0.39802E+06        -0.24853E+08         0.00000E+00
    0.00000E+00         0.00000E+00        -0.66095E+07
 
   -0.81551E+07         0.43412E+06         0.00000E+00
    0.43412E+06        -0.24868E+08         0.00000E+00
    0.00000E+00         0.00000E+00        -0.66047E+07
 
   -0.81145E+07         0.47142E+06         0.00000E+00
    0.47142E+06        -0.24884E+08         0.00000E+00
    0.00000E+00         0.00000E+00        -0.65997E+07
 
   -0.80727E+07         0.50991E+06         0.00000E+00
    0.50991E+06        -0.24900E+08         0.00000E+00
    0.00000E+00         0.00000E+00        -0.65946E+07
 
   -0.80297E+07         0.54961E+06         0.00000E+00
    0.54961E+06        -0.24917E+08         0.00000E+00
    0.00000E+00         0.00000E+00        -0.65893E+07
 
   -0.79856E+07         0.59050E+06         0.00000E+00
    0.59050E+06        -0.24934E+08         0.00000E+00
    0.00000E+00         0.00000E+00        -0.65840E+07
 
   -0.79405E+07         0.63260E+06         0.00000E+00
    0.63260E+06        -0.24952E+08         0.00000E+00
    0.00000E+00         0.00000E+00        -0.65786E+07
 
   -0.78944E+07         0.67589E+06         0.00000E+00
    0.67589E+06        -0.24971E+08         0.00000E+00
    0.00000E+00         0.00000E+00        -0.65730E+07
 
   -0.78474E+07         0.72038E+06         0.00000E+00
    0.72038E+06        -0.24990E+08         0.00000E+00
    0.00000E+00         0.00000E+00        -0.65674E+07
 
   -0.77996E+07         0.76606E+06         0.00000E+00
    0.76606E+06        -0.25009E+08         0.00000E+00
    0.00000E+00         0.00000E+00        -0.65618E+07
 
   -0.77511E+07         0.81292E+06         0.00000E+00
    0.81292E+06        -0.25029E+08         0.00000E+00
    0.00000E+00         0.00000E+00        -0.65560E+07
 
   -0.77018E+07         0.86095E+06         0.00000E+00
    0.86095E+06        -0.25049E+08         0.00000E+00
    0.00000E+00         0.00000E+00        -0.65502E+07
 
   -0.76519E+07         0.91014E+06         0.00000E+00
    0.91014E+06        -0.25070E+08         0.00000E+00
    0.00000E+00         0.00000E+00        -0.65443E+07
 
   -0.76014E+07         0.96050E+06         0.00000E+00
    0.96050E+06        -0.25091E+08         0.00000E+00
    0.00000E+00         0.00000E+00        -0.65384E+07
 
   -0.75503E+07         0.10120E+07         0.00000E+00
    0.10120E+07        -0.25112E+08         0.00000E+00
    0.00000E+00         0.00000E+00        -0.65324E+07
 
   -0.74988E+07         0.10646E+07         0.00000E+00
    0.10646E+07        -0.25133E+08         0.00000E+00
    0.00000E+00         0.00000E+00        -0.65264E+07
 
   -0.74468E+07         0.11184E+07         0.00000E+00
    0.11184E+07        -0.25155E+08         0.00000E+00
    0.00000E+00         0.00000E+00        -0.65204E+07
 
   -0.73944E+07         0.11732E+07         0.00000E+00
    0.11732E+07        -0.25177E+08         0.00000E+00
    0.00000E+00         0.00000E+00        -0.65143E+07
 
   -0.73416E+07         0.12292E+07         0.00000E+00
    0.12292E+07        -0.25200E+08         0.00000E+00
    0.00000E+00         0.00000E+00        -0.65082E+07
 
   -0.72886E+07         0.12862E+07         0.00000E+00
    0.12862E+07        -0.25222E+08         0.00000E+00
    0.00000E+00         0.00000E+00        -0.65021E+07
 
   -0.72353E+07         0.13444E+07         0.00000E+00
    0.13444E+07        -0.25245E+08         0.00000E+00
    0.00000E+00         0.00000E+00        -0.64960E+07
 
   -0.71817E+07         0.14035E+07         0.00000E+00
    0.14035E+07        -0.25268E+08         0.00000E+00
    0.00000E+00         0.00000E+00        -0.64899E+07
 
   -0.71280E+07         0.14637E+07         0.00000E+00
    0.14637E+07        -0.25291E+08         0.00000E+00
    0.00000E+00         0.00000E+00        -0.64837E+07
 
   -0.70742E+07         0.15249E+07         0.00000E+00
    0.15249E+07        -0.25314E+08         0.00000E+00
    0.00000E+00         0.00000E+00        -0.64776E+07
 
   -0.70202E+07         0.15871E+07         0.00000E+00
    0.15871E+07        -0.25337E+08         0.00000E+00
    0.00000E+00         0.00000E+00        -0.64715E+07
 
   -0.69662E+07         0.16502E+07         0.00000E+00
    0.16502E+07        -0.25361E+08         0.00000E+00
    0.00000E+00         0.00000E+00        -0.64653E+07
 
   -0.69122E+07         0.17143E+07         0.00000E+00
    0.17143E+07        -0.25384E+08         0.00000E+00
    0.00000E+00         0.00000E+00        -0.64592E+07
 
   -0.68581E+07         0.17794E+07         0.00000E+00
    0.17794E+07        -0.25408E+08         0.00000E+00
    0.00000E+00         0.00000E+00        -0.64531E+07
 
   -0.68041E+07         0.18453E+07         0.00000E+00
    0.18453E+07        -0.25431E+08         0.00000E+00
    0.00000E+00         0.00000E+00        -0.64470E+07
 
   -0.67501E+07         0.19121E+07         0.00000E+00
    0.19121E+07        -0.25455E+08         0.00000E+00
    0.00000E+00         0.00000E+00        -0.64410E+07
 
   -0.66962E+07         0.19798E+07         0.00000E+00
    0.19798E+07        -0.25478E+08         0.00000E+00
    0.00000E+00         0.00000E+00        -0.64349E+07
 
   -0.66424E+07         0.20482E+07         0.00000E+00
    0.20482E+07        -0.25502E+08         0.00000E+00
    0.00000E+00         0.00000E+00        -0.64289E+07
 
   -0.65888E+07         0.21175E+07         0.00000E+00
    0.21175E+07        -0.25526E+08         0.00000E+00
    0.00000E+00         0.00000E+00        -0.64229E+07
 
   -0.65352E+07         0.21875E+07         0.00000E+00
    0.21875E+07        -0.25549E+08         0.00000E+00
    0.00000E+00         0.00000E+00        -0.64169E+07
 
   -0.64819E+07         0.22583E+07         0.00000E+00
    0.22583E+07        -0.25573E+08         0.00000E+00
    0.00000E+00         0.00000E+00        -0.64110E+07
 
   -0.64287E+07         0.23298E+07         0.00000E+00
    0.23298E+07        -0.25597E+08         0.00000E+00
    0.00000E+00         0.00000E+00        -0.64050E+07
 
   -0.89750E+07         0.60403E+04         0.00000E+00
    0.60403E+04        -0.25237E+08         0.00000E+00
    0.00000E+00         0.00000E+00        -0.68424E+07
 
   -0.89582E+07         0.20551E+05         0.00000E+00
    0.20551E+05        -0.25239E+08         0.00000E+00
    0.00000E+00         0.00000E+00        -0.68394E+07
 
   -0.89385E+07         0.36170E+05         0.00000E+00
    0.36170E+05        -0.25241E+08         0.00000E+00
    0.00000E+00         0.00000E+00        -0.68360E+07
 
   -0.89162E+07         0.52942E+05         0.00000E+00
    0.52942E+05        -0.25246E+08         0.00000E+00
    0.00000E+00         0.00000E+00        -0.68324E+07
 
   -0.88913E+07         0.70910E+05         0.00000E+00
    0.70910E+05        -0.25251E+08         0.00000E+00
    0.00000E+00         0.00000E+00        -0.68285E+07
 
   -0.88640E+07         0.90110E+05         0.00000E+00
    0.90110E+05        -0.25258E+08         0.00000E+00
    0.00000E+00         0.00000E+00        -0.68244E+07
 
   -0.88344E+07         0.11057E+06         0.00000E+00
    0.11057E+06        -0.25266E+08         0.00000E+00
    0.00000E+00         0.00000E+00        -0.68201E+07
 
   -0.88026E+07         0.13233E+06         0.00000E+00
    0.13233E+06        -0.25275E+08         0.00000E+00
    0.00000E+00         0.00000E+00        -0.68155E+07
 
   -0.87687E+07         0.15540E+06         0.00000E+00
    0.15540E+06        -0.25285E+08         0.00000E+00
    0.00000E+00         0.00000E+00        -0.68107E+07
 
   -0.87328E+07         0.17981E+06         0.00000E+00
    0.17981E+06        -0.25296E+08         0.00000E+00
    0.00000E+00         0.00000E+00        -0.68058E+07
 
   -0.86951E+07         0.20556E+06         0.00000E+00
    0.20556E+06        -0.25308E+08         0.00000E+00
    0.00000E+00         0.00000E+00        -0.68006E+07
 
   -0.86555E+07         0.23267E+06         0.00000E+00
    0.23267E+06        -0.25321E+08         0.00000E+00
    0.00000E+00         0.00000E+00        -0.67953E+07
 
   -0.86143E+07         0.26116E+06         0.00000E+00
    0.26116E+06        -0.25335E+08         0.00000E+00
    0.00000E+00         0.00000E+00        -0.67898E+07
 
   -0.85714E+07         0.29102E+06         0.00000E+00
    0.29102E+06        -0.25349E+08         0.00000E+00
    0.00000E+00         0.00000E+00        -0.67841E+07
 
   -0.85271E+07         0.32226E+06         0.00000E+00
    0.32226E+06        -0.25364E+08         0.00000E+00
    0.00000E+00         0.00000E+00        -0.67783E+07
 
   -0.84814E+07         0.35487E+06         0.00000E+00
    0.35487E+06        -0.25380E+08         0.00000E+00
    0.00000E+00         0.00000E+00        -0.67724E+07
 
   -0.84344E+07         0.38887E+06         0.00000E+00
    0.38887E+06        -0.25397E+08         0.00000E+00
    0.00000E+00         0.00000E+00        -0.67663E+07
 
   -0.83861E+07         0.42424E+06         0.00000E+00
    0.42424E+06        -0.25415E+08         0.00000E+00
    0.00000E+00         0.00000E+00        -0.67601E+07
 
   -0.83367E+07         0.46098E+06         0.00000E+00
    0.46098E+06        -0.25433E+08         0.00000E+00
    0.00000E+00         0.00000E+00        -0.67539E+07
 
   -0.82862E+07         0.49908E+06         0.00000E+00
    0.49908E+06        -0.25451E+08         0.00000E+00
    0.00000E+00         0.00000E+00        -0.67475E+07
 
   -0.82347E+07         0.53854E+06         0.00000E+00
    0.53854E+06        -0.25470E+08         0.00000E+00
    0.00000E+00         0.00000E+00        -0.67410E+07
 
   -0.81823E+07         0.57934E+06         0.00000E+00
    0.57934E+06        -0.25490E+08         0.00000E+00
    0.00000E+00         0.00000E+00        -0.67345E+07
 
   -0.81290E+07         0.62148E+06         0.00000E+00
    0.62148E+06        -0.25510E+08         0.00000E+00
    0.00000E+00         0.00000E+00        -0.67278E+07
 
   -0.80750E+07         0.66494E+06         0.00000E+00
    0.66494E+06        -0.25531E+08         0.00000E+00
    0.00000E+00         0.00000E+00        -0.67211E+07
 
   -0.80202E+07         0.70971E+06         0.00000E+00
    0.70971E+06        -0.25552E+08         0.00000E+00
    0.00000E+00         0.00000E+00        -0.67144E+07
 
   -0.79648E+07         0.75579E+06         0.00000E+00
    0.75579E+06        -0.25573E+08         0.00000E+00
    0.00000E+00         0.00000E+00        -0.67076E+07
 
   -0.79088E+07         0.80315E+06         0.00000E+00
    0.80315E+06        -0.25595E+08         0.00000E+00
    0.00000E+00         0.00000E+00        -0.67008E+07
 
   -0.78522E+07         0.85179E+06         0.00000E+00
    0.85179E+06        -0.25617E+08         0.00000E+00
    0.00000E+00         0.00000E+00        -0.66939E+07
 
   -0.77952E+07         0.90168E+06         0.00000E+00
    0.90168E+06        -0.25640E+08         0.00000E+00
    0.00000E+00         0.00000E+00        -0.66870E+07
 
   -0.77377E+07         0.95283E+06         0.00000E+00
    0.95283E+06        -0.25663E+08         0.00000E+00
    0.00000E+00         0.00000E+00        -0.66801E+07
 
   -0.76799E+07         0.10052E+07         0.00000E+00
    0.10052E+07        -0.25686E+08         0.00000E+00
    0.00000E+00         0.00000E+00        -0.66732E+07
 
   -0.76217E+07         0.10588E+07         0.00000E+00
    0.10588E+07        -0.25709E+08         0.00000E+00
    0.00000E+00         0.00000E+00        -0.66662E+07
 
   -0.75633E+07         0.11136E+07         0.00000E+00
    0.11136E+07        -0.25733E+08         0.00000E+00
    0.00000E+00         0.00000E+00        -0.66593E+07
 
   -0.75046E+07         0.11696E+07         0.00000E+00
    0.11696E+07        -0.25757E+08         0.00000E+00
    0.00000E+00         0.00000E+00        -0.66523E+07
 
   -0.74458E+07         0.12267E+07         0.00000E+00
    0.12267E+07        -0.25781E+08         0.00000E+00
    0.00000E+00         0.00000E+00        -0.66454E+07
 
   -0.73868E+07         0.12850E+07         0.00000E+00
    0.12850E+07        -0.25806E+08         0.00000E+00
    0.00000E+00         0.00000E+00        -0.66385E+07
 
   -0.73278E+07         0.13444E+07         0.00000E+00
    0.13444E+07        -0.25830E+08         0.00000E+00
    0.00000E+00         0.00000E+00        -0.66316E+07
 
   -0.72687E+07         0.14049E+07         0.00000E+00
    0.14049E+07        -0.25855E+08         0.00000E+00
    0.00000E+00         0.00000E+00        -0.66247E+07
 
   -0.72096E+07         0.14665E+07         0.00000E+00
    0.14665E+07        -0.25880E+08         0.00000E+00
    0.00000E+00         0.00000E+00        -0.66178E+07
 
   -0.71505E+07         0.15292E+07         0.00000E+00
    0.15292E+07        -0.25905E+08         0.00000E+00
    0.00000E+00         0.00000E+00        -0.66110E+07
 
   -0.70916E+07         0.15929E+07         0.00000E+00
    0.15929E+07        -0.25930E+08         0.00000E+00
    0.00000E+00         0.00000E+00        -0.66042E+07
 
   -0.70328E+07         0.16576E+07         0.00000E+00
    0.16576E+07        -0.25955E+08         0.00000E+00
    0.00000E+00         0.00000E+00        -0.65975E+07
 
   -0.69741E+07         0.17233E+07         0.00000E+00
    0.17233E+07        -0.25980E+08         0.00000E+00
    0.00000E+00         0.00000E+00        -0.65908E+07
 
   -0.69156E+07         0.17900E+07         0.00000E+00
    0.17900E+07        -0.26005E+08         0.00000E+00
    0.00000E+00         0.00000E+00        -0.65842E+07
 
   -0.68574E+07         0.18576E+07         0.00000E+00
    0.18576E+07        -0.26030E+08         0.00000E+00
    0.00000E+00         0.00000E+00        -0.65776E+07
 
   -0.67994E+07         0.19260E+07         0.00000E+00
    0.19260E+07        -0.26056E+08         0.00000E+00
    0.00000E+00         0.00000E+00        -0.65710E+07
 
   -0.67417E+07         0.19954E+07         0.00000E+00
    0.19954E+07        -0.26081E+08         0.00000E+00
    0.00000E+00         0.00000E+00        -0.65645E+07
 
   -0.66843E+07         0.20655E+07         0.00000E+00
    0.20655E+07        -0.26106E+08         0.00000E+00
    0.00000E+00         0.00000E+00        -0.65581E+07
 
   -0.66272E+07         0.21365E+07         0.00000E+00
    0.21365E+07        -0.26131E+08         0.00000E+00
    0.00000E+00         0.00000E+00        -0.65517E+07
 
   -0.65705E+07         0.22081E+07         0.00000E+00
    0.22081E+07        -0.26156E+08         0.00000E+00
    0.00000E+00         0.00000E+00        -0.65454E+07
 
   -0.94252E+07         0.19354E+04         0.00000E+00
    0.19354E+04        -0.25738E+08         0.00000E+00
    0.00000E+00         0.00000E+00        -0.70327E+07
 
   -0.94021E+07         0.90314E+04         0.00000E+00
    0.90314E+04        -0.25740E+08         0.00000E+00
    0.00000E+00         0.00000E+00        -0.70284E+07
 
   -0.93760E+07         0.17568E+05         0.00000E+00
    0.17568E+05        -0.25743E+08         0.00000E+00
    0.00000E+00         0.00000E+00        -0.70238E+07
 
   -0.93470E+07         0.27587E+05         0.00000E+00
    0.27587E+05        -0.25748E+08         0.00000E+00
    0.00000E+00         0.00000E+00        -0.70190E+07
 
   -0.93153E+07         0.39123E+05         0.00000E+00
    0.39123E+05        -0.25754E+08         0.00000E+00
    0.00000E+00         0.00000E+00        -0.70138E+07
 
   -0.92810E+07         0.52205E+05         0.00000E+00
    0.52205E+05        -0.25761E+08         0.00000E+00
    0.00000E+00         0.00000E+00        -0.70084E+07
 
   -0.92443E+07         0.66855E+05         0.00000E+00
    0.66855E+05        -0.25770E+08         0.00000E+00
    0.00000E+00         0.00000E+00        -0.70028E+07
 
   -0.92052E+07         0.83091E+05         0.00000E+00
    0.83091E+05        -0.25779E+08         0.00000E+00
    0.00000E+00         0.00000E+00        -0.69969E+07
 
   -0.91640E+07         0.10093E+06         0.00000E+00
    0.10093E+06        -0.25790E+08         0.00000E+00
    0.00000E+00         0.00000E+00        -0.69908E+07
 
   -0.91208E+07         0.12037E+06         0.00000E+00
    0.12037E+06        -0.25802E+08         0.00000E+00
    0.00000E+00         0.00000E+00        -0.69845E+07
 
   -0.90756E+07         0.14143E+06         0.00000E+00
    0.14143E+06        -0.25814E+08         0.00000E+00
    0.00000E+00         0.00000E+00        -0.69780E+07
 
   -0.90286E+07         0.16409E+06         0.00000E+00
    0.16409E+06        -0.25828E+08         0.00000E+00
    0.00000E+00         0.00000E+00        -0.69713E+07
 
   -0.89799E+07         0.18837E+06         0.00000E+00
    0.18837E+06        -0.25843E+08         0.00000E+00
    0.00000E+00         0.00000E+00        -0.69645E+07
 
   -0.89297E+07         0.21425E+06         0.00000E+00
    0.21425E+06        -0.25858E+08         0.00000E+00
    0.00000E+00         0.00000E+00        -0.69575E+07
 
   -0.88780E+07         0.24172E+06         0.00000E+00
    0.24172E+06        -0.25874E+08         0.00000E+00
    0.00000E+00         0.00000E+00        -0.69504E+07
 
   -0.88249E+07         0.27077E+06         0.00000E+00
    0.27077E+06        -0.25891E+08         0.00000E+00
    0.00000E+00         0.00000E+00        -0.69432E+07
 
   -0.87705E+07         0.30139E+06         0.00000E+00
    0.30139E+06        -0.25909E+08         0.00000E+00
    0.00000E+00         0.00000E+00        -0.69358E+07
 
   -0.87149E+07         0.33357E+06         0.00000E+00
    0.33357E+06        -0.25927E+08         0.00000E+00
    0.00000E+00         0.00000E+00        -0.69283E+07
 
   -0.86583E+07         0.36729E+06         0.00000E+00
    0.36729E+06        -0.25946E+08         0.00000E+00
    0.00000E+00         0.00000E+00        -0.69208E+07
 
   -0.86006E+07         0.40253E+06         0.00000E+00
    0.40253E+06        -0.25965E+08         0.00000E+00
    0.00000E+00         0.00000E+00        -0.69131E+07
 
   -0.85420E+07         0.43927E+06         0.00000E+00
    0.43927E+06        -0.25985E+08         0.00000E+00
    0.00000E+00         0.00000E+00        -0.69054E+07
 
   -0.84826E+07         0.47750E+06         0.00000E+00
    0.47750E+06        -0.26006E+08         0.00000E+00
    0.00000E+00         0.00000E+00        -0.68976E+07
 
   -0.84223E+07         0.51720E+06         0.00000E+00
    0.51720E+06        -0.26027E+08         0.00000E+00
    0.00000E+00         0.00000E+00        -0.68898E+07
 
   -0.83614E+07         0.55835E+06         0.00000E+00
    0.55835E+06        -0.26048E+08         0.00000E+00
    0.00000E+00         0.00000E+00        -0.68819E+07
 
   -0.82998E+07         0.60094E+06         0.00000E+00
    0.60094E+06        -0.26070E+08         0.00000E+00
    0.00000E+00         0.00000E+00        -0.68740E+07
 
   -0.82376E+07         0.64494E+06         0.00000E+00
    0.64494E+06        -0.26093E+08         0.00000E+00
    0.00000E+00         0.00000E+00        -0.68660E+07
 
   -0.81749E+07         0.69034E+06         0.00000E+00
    0.69034E+06        -0.26115E+08         0.00000E+00
    0.00000E+00         0.00000E+00        -0.68581E+07
 
   -0.81117E+07         0.73712E+06         0.00000E+00
    0.73712E+06        -0.26139E+08         0.00000E+00
    0.00000E+00         0.00000E+00        -0.68501E+07
 
   -0.80482E+07         0.78527E+06         0.00000E+00
    0.78527E+06        -0.26162E+08         0.00000E+00
    0.00000E+00         0.00000E+00        -0.68421E+07
 
   -0.79843E+07         0.83476E+06         0.00000E+00
    0.83476E+06        -0.26186E+08         0.00000E+00
    0.00000E+00         0.00000E+00        -0.68341E+07
 
   -0.79200E+07         0.88559E+06         0.00000E+00
    0.88559E+06        -0.26211E+08         0.00000E+00
    0.00000E+00         0.00000E+00        -0.68261E+07
 
   -0.78556E+07         0.93774E+06         0.00000E+00
    0.93774E+06        -0.26235E+08         0.00000E+00
    0.00000E+00         0.00000E+00        -0.68181E+07
 
   -0.77909E+07         0.99118E+06         0.00000E+00
    0.99118E+06        -0.26260E+08         0.00000E+00
    0.00000E+00         0.00000E+00        -0.68102E+07
 
   -0.77262E+07         0.10459E+07         0.00000E+00
    0.10459E+07        -0.26285E+08         0.00000E+00
    0.00000E+00         0.00000E+00        -0.68023E+07
 
   -0.76613E+07         0.11019E+07         0.00000E+00
    0.11019E+07        -0.26311E+08         0.00000E+00
    0.00000E+00         0.00000E+00        -0.67944E+07
 
   -0.75964E+07         0.11592E+07         0.00000E+00
    0.11592E+07        -0.26337E+08         0.00000E+00
    0.00000E+00         0.00000E+00        -0.67866E+07
 
   -0.75315E+07         0.12176E+07         0.00000E+00
    0.12176E+07        -0.26363E+08         0.00000E+00
    0.00000E+00         0.00000E+00        -0.67788E+07
 
   -0.74666E+07         0.12773E+07         0.00000E+00
    0.12773E+07        -0.26389E+08         0.00000E+00
    0.00000E+00         0.00000E+00        -0.67711E+07
 
   -0.74019E+07         0.13382E+07         0.00000E+00
    0.13382E+07        -0.26415E+08         0.00000E+00
    0.00000E+00         0.00000E+00        -0.67634E+07
 
   -0.73374E+07         0.14003E+07         0.00000E+00
    0.14003E+07        -0.26442E+08         0.00000E+00
    0.00000E+00         0.00000E+00        -0.67558E+07
 
   -0.72730E+07         0.14635E+07         0.00000E+00
    0.14635E+07        -0.26468E+08         0.00000E+00
    0.00000E+00         0.00000E+00        -0.67482E+07
 
   -0.72090E+07         0.15278E+07         0.00000E+00
    0.15278E+07        -0.26495E+08         0.00000E+00
    0.00000E+00         0.00000E+00        -0.67408E+07
 
   -0.71452E+07         0.15932E+07         0.00000E+00
    0.15932E+07        -0.26522E+08         0.00000E+00
    0.00000E+00         0.00000E+00        -0.67334E+07
 
   -0.70817E+07         0.16597E+07         0.00000E+00
    0.16597E+07        -0.26549E+08         0.00000E+00
    0.00000E+00         0.00000E+00        -0.67261E+07
 
   -0.70187E+07         0.17272E+07         0.00000E+00
    0.17272E+07        -0.26576E+08         0.00000E+00
    0.00000E+00         0.00000E+00        -0.67189E+07
 
   -0.69561E+07         0.17957E+07         0.00000E+00
    0.17957E+07        -0.26602E+08         0.00000E+00
    0.00000E+00         0.00000E+00        -0.67117E+07
 
   -0.68940E+07         0.18652E+07         0.00000E+00
    0.18652E+07        -0.26629E+08         0.00000E+00
    0.00000E+00         0.00000E+00        -0.67047E+07
 
   -0.68324E+07         0.19355E+07         0.00000E+00
    0.19355E+07        -0.26656E+08         0.00000E+00
    0.00000E+00         0.00000E+00        -0.66977E+07
 
   -0.67713E+07         0.20068E+07         0.00000E+00
    0.20068E+07        -0.26683E+08         0.00000E+00
    0.00000E+00         0.00000E+00        -0.66909E+07
 
   -0.67109E+07         0.20788E+07         0.00000E+00
    0.20788E+07        -0.26710E+08         0.00000E+00
    0.00000E+00         0.00000E+00        -0.66841E+07
 
   -0.99148E+07        -0.25629E+04         0.00000E+00
   -0.25629E+04        -0.26240E+08         0.00000E+00
    0.00000E+00         0.00000E+00        -0.72309E+07
 
   -0.98836E+07        -0.34664E+04         0.00000E+00
   -0.34664E+04        -0.26241E+08         0.00000E+00
    0.00000E+00         0.00000E+00        -0.72250E+07
 
   -0.98492E+07        -0.25131E+04         0.00000E+00
   -0.25131E+04        -0.26245E+08         0.00000E+00
    0.00000E+00         0.00000E+00        -0.72188E+07
 
   -0.98118E+07         0.32665E+03         0.00000E+00
    0.32665E+03        -0.26250E+08         0.00000E+00
    0.00000E+00         0.00000E+00        -0.72123E+07
 
   -0.97715E+07         0.50768E+04         0.00000E+00
    0.50768E+04        -0.26256E+08         0.00000E+00
    0.00000E+00         0.00000E+00        -0.72055E+07
 
   -0.97285E+07         0.11753E+05         0.00000E+00
    0.11753E+05        -0.26264E+08         0.00000E+00
    0.00000E+00         0.00000E+00        -0.71985E+07
 
   -0.96830E+07         0.20363E+05         0.00000E+00
    0.20363E+05        -0.26273E+08         0.00000E+00
    0.00000E+00         0.00000E+00        -0.71912E+07
 
   -0.96352E+07         0.30910E+05         0.00000E+00
    0.30910E+05        -0.26283E+08         0.00000E+00
    0.00000E+00         0.00000E+00        -0.71836E+07
 
   -0.95852E+07         0.43389E+05         0.00000E+00
    0.43389E+05        -0.26294E+08         0.00000E+00
    0.00000E+00         0.00000E+00        -0.71759E+07
 
   -0.95331E+07         0.57790E+05         0.00000E+00
    0.57790E+05        -0.26306E+08         0.00000E+00
    0.00000E+00         0.00000E+00        -0.71679E+07
 
   -0.94792E+07         0.74101E+05         0.00000E+00
    0.74101E+05        -0.26320E+08         0.00000E+00
    0.00000E+00         0.00000E+00        -0.71598E+07
 
   -0.94235E+07         0.92303E+05         0.00000E+00
    0.92303E+05        -0.26334E+08         0.00000E+00
    0.00000E+00         0.00000E+00        -0.71515E+07
 
   -0.93661E+07         0.11237E+06         0.00000E+00
    0.11237E+06        -0.26349E+08         0.00000E+00
    0.00000E+00         0.00000E+00        -0.71430E+07
 
   -0.93073E+07         0.13429E+06         0.00000E+00
    0.13429E+06        -0.26365E+08         0.00000E+00
    0.00000E+00         0.00000E+00        -0.71344E+07
 
   -0.92471E+07         0.15802E+06         0.00000E+00
    0.15802E+06        -0.26381E+08         0.00000E+00
    0.00000E+00         0.00000E+00        -0.71257E+07
 
   -0.91857E+07         0.18353E+06         0.00000E+00
    0.18353E+06        -0.26398E+08         0.00000E+00
    0.00000E+00         0.00000E+00        -0.71168E+07
 
   -0.91230E+07         0.21081E+06         0.00000E+00
    0.21081E+06        -0.26416E+08         0.00000E+00
    0.00000E+00         0.00000E+00        -0.71079E+07
 
   -0.90593E+07         0.23981E+06         0.00000E+00
    0.23981E+06        -0.26435E+08         0.00000E+00
    0.00000E+00         0.00000E+00        -0.70989E+07
 
   -0.89947E+07         0.27050E+06         0.00000E+00
    0.27050E+06        -0.26454E+08         0.00000E+00
    0.00000E+00         0.00000E+00        -0.70898E+07
 
   -0.89291E+07         0.30286E+06         0.00000E+00
    0.30286E+06        -0.26474E+08         0.00000E+00
    0.00000E+00         0.00000E+00        -0.70806E+07
 
   -0.88627E+07         0.33686E+06         0.00000E+00
    0.33686E+06        -0.26494E+08         0.00000E+00
    0.00000E+00         0.00000E+00        -0.70714E+07
 
   -0.87956E+07         0.37245E+06         0.00000E+00
    0.37245E+06        -0.26515E+08         0.00000E+00
    0.00000E+00         0.00000E+00        -0.70621E+07
 
   -0.87278E+07         0.40963E+06         0.00000E+00
    0.40963E+06        -0.26537E+08         0.00000E+00
    0.00000E+00         0.00000E+00        -0.70529E+07
 
   -0.86594E+07         0.44836E+06         0.00000E+00
    0.44836E+06        -0.26558E+08         0.00000E+00
    0.00000E+00         0.00000E+00        -0.70436E+07
 
   -0.85904E+07         0.48861E+06         0.00000E+00
    0.48861E+06        -0.26581E+08         0.00000E+00
    0.00000E+00         0.00000E+00        -0.70342E+07
 
   -0.85210E+07         0.53036E+06         0.00000E+00
    0.53036E+06        -0.26604E+08         0.00000E+00
    0.00000E+00         0.00000E+00        -0.70249E+07
 
   -0.84511E+07         0.57360E+06         0.00000E+00
    0.57360E+06        -0.26627E+08         0.00000E+00
    0.00000E+00         0.00000E+00        -0.70156E+07
 
   -0.83809E+07         0.61830E+06         0.00000E+00
    0.61830E+06        -0.26651E+08         0.00000E+00
    0.00000E+00         0.00000E+00        -0.70063E+07
 
   -0.83103E+07         0.66445E+06         0.00000E+00
    0.66445E+06        -0.26675E+08         0.00000E+00
    0.00000E+00         0.00000E+00        -0.69971E+07
 
   -0.82395E+07         0.71202E+06         0.00000E+00
    0.71202E+06        -0.26700E+08         0.00000E+00
    0.00000E+00         0.00000E+00        -0.69878E+07
 
   -0.81684E+07         0.76101E+06         0.00000E+00
    0.76101E+06        -0.26725E+08         0.00000E+00
    0.00000E+00         0.00000E+00        -0.69786E+07
 
   -0.80972E+07         0.81140E+06         0.00000E+00
    0.81140E+06        -0.26750E+08         0.00000E+00
    0.00000E+00         0.00000E+00        -0.69695E+07
 
   -0.80259E+07         0.86318E+06         0.00000E+00
    0.86318E+06        -0.26776E+08         0.00000E+00
    0.00000E+00         0.00000E+00        -0.69604E+07
 
   -0.79545E+07         0.91634E+06         0.00000E+00
    0.91634E+06        -0.26802E+08         0.00000E+00
    0.00000E+00         0.00000E+00        -0.69514E+07
 
   -0.78830E+07         0.97087E+06         0.00000E+00
    0.97087E+06        -0.26829E+08         0.00000E+00
    0.00000E+00         0.00000E+00        -0.69424E+07
 
   -0.78117E+07         0.10268E+07         0.00000E+00
    0.10268E+07        -0.26856E+08         0.00000E+00
    0.00000E+00         0.00000E+00        -0.69335E+07
 
   -0.77404E+07         0.10840E+07         0.00000E+00
    0.10840E+07        -0.26883E+08         0.00000E+00
    0.00000E+00         0.00000E+00        -0.69247E+07
 
   -0.76692E+07         0.11425E+07         0.00000E+00
    0.11425E+07        -0.26911E+08         0.00000E+00
    0.00000E+00         0.00000E+00        -0.69160E+07
 
   -0.75983E+07         0.12024E+07         0.00000E+00
    0.12024E+07        -0.26938E+08         0.00000E+00
    0.00000E+00         0.00000E+00        -0.69073E+07
 
   -0.75276E+07         0.12636E+07         0.00000E+00
    0.12636E+07        -0.26966E+08         0.00000E+00
    0.00000E+00         0.00000E+00        -0.68988E+07
 
   -0.74573E+07         0.13260E+07         0.00000E+00
    0.13260E+07        -0.26995E+08         0.00000E+00
    0.00000E+00         0.00000E+00        -0.68904E+07
 
   -0.73873E+07         0.13897E+07         0.00000E+00
    0.13897E+07        -0.27023E+08         0.00000E+00
    0.00000E+00         0.00000E+00        -0.68821E+07
 
   -0.73178E+07         0.14547E+07         0.00000E+00
    0.14547E+07        -0.27052E+08         0.00000E+00
    0.00000E+00         0.00000E+00        -0.68739E+07
 
   -0.72488E+07         0.15209E+07         0.00000E+00
    0.15209E+07        -0.27080E+08         0.00000E+00
    0.00000E+00         0.00000E+00        -0.68658E+07
 
   -0.71804E+07         0.15882E+07         0.00000E+00
    0.15882E+07        -0.27109E+08         0.00000E+00
    0.00000E+00         0.00000E+00        -0.68579E+07
 
   -0.71126E+07         0.16567E+07         0.00000E+00
    0.16567E+07        -0.27138E+08         0.00000E+00
    0.00000E+00         0.00000E+00        -0.68501E+07
 
   -0.70454E+07         0.17262E+07         0.00000E+00
    0.17262E+07        -0.27167E+08         0.00000E+00
    0.00000E+00         0.00000E+00        -0.68424E+07
 
   -0.69791E+07         0.17969E+07         0.00000E+00
    0.17969E+07        -0.27195E+08         0.00000E+00
    0.00000E+00         0.00000E+00        -0.68349E+07
 
   -0.69135E+07         0.18685E+07         0.00000E+00
    0.18685E+07        -0.27224E+08         0.00000E+00
    0.00000E+00         0.00000E+00        -0.68275E+07
 
   -0.68488E+07         0.19411E+07         0.00000E+00
    0.19411E+07        -0.27253E+08         0.00000E+00
    0.00000E+00         0.00000E+00        -0.68203E+07
 
   -0.10447E+08        -0.74261E+04         0.00000E+00
   -0.74261E+04        -0.26741E+08         0.00000E+00
    0.00000E+00         0.00000E+00        -0.74376E+07
 
   -0.10405E+08        -0.16804E+05         0.00000E+00
   -0.16804E+05        -0.26743E+08         0.00000E+00
    0.00000E+00         0.00000E+00        -0.74296E+07
 
   -0.10360E+08        -0.23808E+05         0.00000E+00
   -0.23808E+05        -0.26746E+08         0.00000E+00
    0.00000E+00         0.00000E+00        -0.74213E+07
 
   -0.10312E+08        -0.28420E+05         0.00000E+00
   -0.28420E+05        -0.26752E+08         0.00000E+00
    0.00000E+00         0.00000E+00        -0.74127E+07
 
   -0.10261E+08        -0.30637E+05         0.00000E+00
   -0.30637E+05        -0.26758E+08         0.00000E+00
    0.00000E+00         0.00000E+00        -0.74039E+07
 
   -0.10207E+08        -0.30466E+05         0.00000E+00
   -0.30466E+05        -0.26766E+08         0.00000E+00
    0.00000E+00         0.00000E+00        -0.73947E+07
 
   -0.10151E+08        -0.27921E+05         0.00000E+00
   -0.27921E+05        -0.26775E+08         0.00000E+00
    0.00000E+00         0.00000E+00        -0.73853E+07
 
   -0.10093E+08        -0.23025E+05         0.00000E+00
   -0.23025E+05        -0.26786E+08         0.00000E+00
    0.00000E+00         0.00000E+00        -0.73757E+07
 
   -0.10032E+08        -0.15807E+05         0.00000E+00
   -0.15807E+05        -0.26797E+08         0.00000E+00
    0.00000E+00         0.00000E+00        -0.73658E+07
 
   -0.99696E+07        -0.63065E+04         0.00000E+00
   -0.63065E+04        -0.26810E+08         0.00000E+00
    0.00000E+00         0.00000E+00        -0.73558E+07
 
   -0.99054E+07         0.54345E+04         0.00000E+00
    0.54345E+04        -0.26823E+08         0.00000E+00
    0.00000E+00         0.00000E+00        -0.73456E+07
 
   -0.98396E+07         0.19368E+05         0.00000E+00
    0.19368E+05        -0.26837E+08         0.00000E+00
    0.00000E+00         0.00000E+00        -0.73353E+07
 
   -0.97723E+07         0.35443E+05         0.00000E+00
    0.35443E+05        -0.26852E+08         0.00000E+00
    0.00000E+00         0.00000E+00        -0.73248E+07
 
   -0.97038E+07         0.53605E+05         0.00000E+00
    0.53605E+05        -0.26868E+08         0.00000E+00
    0.00000E+00         0.00000E+00        -0.73143E+07
 
   -0.96341E+07         0.73799E+05         0.00000E+00
    0.73799E+05        -0.26884E+08         0.00000E+00
    0.00000E+00         0.00000E+00        -0.73036E+07
 
   -0.95633E+07         0.95970E+05         0.00000E+00
    0.95970E+05        -0.26901E+08         0.00000E+00
    0.00000E+00         0.00000E+00        -0.72928E+07
 
   -0.94916E+07         0.12006E+06         0.00000E+00
    0.12006E+06        -0.26918E+08         0.00000E+00
    0.00000E+00         0.00000E+00        -0.72820E+07
 
   -0.94190E+07         0.14602E+06         0.00000E+00
    0.14602E+06        -0.26937E+08         0.00000E+00
    0.00000E+00         0.00000E+00        -0.72711E+07
 
   -0.93457E+07         0.17379E+06         0.00000E+00
    0.17379E+06        -0.26955E+08         0.00000E+00
    0.00000E+00         0.00000E+00        -0.72602E+07
 
   -0.92716E+07         0.20332E+06         0.00000E+00
    0.20332E+06        -0.26975E+08         0.00000E+00
    0.00000E+00         0.00000E+00        -0.72493E+07
 
   -0.91969E+07         0.23457E+06         0.00000E+00
    0.23457E+06        -0.26995E+08         0.00000E+00
    0.00000E+00         0.00000E+00        -0.72383E+07
 
   -0.91217E+07         0.26749E+06         0.00000E+00
    0.26749E+06        -0.27015E+08         0.00000E+00
    0.00000E+00         0.00000E+00        -0.72273E+07
 
   -0.90459E+07         0.30204E+06         0.00000E+00
    0.30204E+06        -0.27036E+08         0.00000E+00
    0.00000E+00         0.00000E+00        -0.72164E+07
 
   -0.89697E+07         0.33818E+06         0.00000E+00
    0.33818E+06        -0.27057E+08         0.00000E+00
    0.00000E+00         0.00000E+00        -0.72054E+07
 
   -0.88931E+07         0.37589E+06         0.00000E+00
    0.37589E+06        -0.27079E+08         0.00000E+00
    0.00000E+00         0.00000E+00        -0.71945E+07
 
   -0.88161E+07         0.41514E+06         0.00000E+00
    0.41514E+06        -0.27102E+08         0.00000E+00
    0.00000E+00         0.00000E+00        -0.71836E+07
 
   -0.87388E+07         0.45589E+06         0.00000E+00
    0.45589E+06        -0.27125E+08         0.00000E+00
    0.00000E+00         0.00000E+00        -0.71728E+07
 
   -0.86612E+07         0.49814E+06         0.00000E+00
    0.49814E+06        -0.27149E+08         0.00000E+00
    0.00000E+00         0.00000E+00        -0.71620E+07
 
   -0.85834E+07         0.54187E+06         0.00000E+00
    0.54187E+06        -0.27173E+08         0.00000E+00
    0.00000E+00         0.00000E+00        -0.71513E+07
 
   -0.85053E+07         0.58706E+06         0.00000E+00
    0.58706E+06        -0.27198E+08         0.00000E+00
    0.00000E+00         0.00000E+00        -0.71406E+07
 
   -0.84271E+07         0.63372E+06         0.00000E+00
    0.63372E+06        -0.27223E+08         0.00000E+00
    0.00000E+00         0.00000E+00        -0.71300E+07
 
   -0.83487E+07         0.68182E+06         0.00000E+00
    0.68182E+06        -0.27249E+08         0.00000E+00
    0.00000E+00         0.00000E+00        -0.71195E+07
 
   -0.82703E+07         0.73138E+06         0.00000E+00
    0.73138E+06        -0.27275E+08         0.00000E+00
    0.00000E+00         0.00000E+00        -0.71091E+07
 
   -0.81918E+07         0.78238E+06         0.00000E+00
    0.78238E+06        -0.27302E+08         0.00000E+00
    0.00000E+00         0.00000E+00        -0.70987E+07
 
   -0.81134E+07         0.83484E+06         0.00000E+00
    0.83484E+06        -0.27329E+08         0.00000E+00
    0.00000E+00         0.00000E+00        -0.70885E+07
 
   -0.80350E+07         0.88876E+06         0.00000E+00
    0.88876E+06        -0.27357E+08         0.00000E+00
    0.00000E+00         0.00000E+00        -0.70784E+07
 
   -0.79567E+07         0.94413E+06         0.00000E+00
    0.94413E+06        -0.27385E+08         0.00000E+00
    0.00000E+00         0.00000E+00        -0.70684E+07
 
   -0.78786E+07         0.10010E+07         0.00000E+00
    0.10010E+07        -0.27414E+08         0.00000E+00
    0.00000E+00         0.00000E+00        -0.70585E+07
 
   -0.78008E+07         0.10593E+07         0.00000E+00
    0.10593E+07        -0.27443E+08         0.00000E+00
    0.00000E+00         0.00000E+00        -0.70488E+07
 
   -0.77232E+07         0.11190E+07         0.00000E+00
    0.11190E+07        -0.27473E+08         0.00000E+00
    0.00000E+00         0.00000E+00        -0.70392E+07
 
   -0.76461E+07         0.11802E+07         0.00000E+00
    0.11802E+07        -0.27503E+08         0.00000E+00
    0.00000E+00         0.00000E+00        -0.70298E+07
 
   -0.75694E+07         0.12429E+07         0.00000E+00
    0.12429E+07        -0.27533E+08         0.00000E+00
    0.00000E+00         0.00000E+00        -0.70205E+07
 
   -0.74933E+07         0.13070E+07         0.00000E+00
    0.13070E+07        -0.27563E+08         0.00000E+00
    0.00000E+00         0.00000E+00        -0.70113E+07
 
   -0.74178E+07         0.13725E+07         0.00000E+00
    0.13725E+07        -0.27594E+08         0.00000E+00
    0.00000E+00         0.00000E+00        -0.70024E+07
 
   -0.73430E+07         0.14394E+07         0.00000E+00
    0.14394E+07        -0.27625E+08         0.00000E+00
    0.00000E+00         0.00000E+00        -0.69936E+07
 
   -0.72691E+07         0.15077E+07         0.00000E+00
    0.15077E+07        -0.27656E+08         0.00000E+00
    0.00000E+00         0.00000E+00        -0.69850E+07
 
   -0.71960E+07         0.15773E+07         0.00000E+00
    0.15773E+07        -0.27687E+08         0.00000E+00
    0.00000E+00         0.00000E+00        -0.69766E+07
 
   -0.71240E+07         0.16482E+07         0.00000E+00
    0.16482E+07        -0.27718E+08         0.00000E+00
    0.00000E+00         0.00000E+00        -0.69683E+07
 
   -0.70530E+07         0.17203E+07         0.00000E+00
    0.17203E+07        -0.27749E+08         0.00000E+00
    0.00000E+00         0.00000E+00        -0.69603E+07
 
   -0.69832E+07         0.17936E+07         0.00000E+00
    0.17936E+07        -0.27779E+08         0.00000E+00
    0.00000E+00         0.00000E+00        -0.69525E+07
 
   -0.11024E+08        -0.12617E+05         0.00000E+00
   -0.12617E+05        -0.27242E+08         0.00000E+00
    0.00000E+00         0.00000E+00        -0.76532E+07
 
   -0.10969E+08        -0.30781E+05         0.00000E+00
   -0.30781E+05        -0.27244E+08         0.00000E+00
    0.00000E+00         0.00000E+00        -0.76426E+07
 
   -0.10910E+08        -0.45899E+05         0.00000E+00
   -0.45899E+05        -0.27248E+08         0.00000E+00
    0.00000E+00         0.00000E+00        -0.76316E+07
 
   -0.10849E+08        -0.58000E+05         0.00000E+00
   -0.58000E+05        -0.27253E+08         0.00000E+00
    0.00000E+00         0.00000E+00        -0.76204E+07
 
   -0.10784E+08        -0.67099E+05         0.00000E+00
   -0.67099E+05        -0.27260E+08         0.00000E+00
    0.00000E+00         0.00000E+00        -0.76088E+07
 
   -0.10717E+08        -0.73230E+05         0.00000E+00
   -0.73230E+05        -0.27268E+08         0.00000E+00
    0.00000E+00         0.00000E+00        -0.75970E+07
 
   -0.10648E+08        -0.76448E+05         0.00000E+00
   -0.76448E+05        -0.27277E+08         0.00000E+00
    0.00000E+00         0.00000E+00        -0.75850E+07
 
   -0.10577E+08        -0.76819E+05         0.00000E+00
   -0.76819E+05        -0.27287E+08         0.00000E+00
    0.00000E+00         0.00000E+00        -0.75727E+07
 
   -0.10503E+08        -0.74417E+05         0.00000E+00
   -0.74417E+05        -0.27298E+08         0.00000E+00
    0.00000E+00         0.00000E+00        -0.75603E+07
 
   -0.10429E+08        -0.69327E+05         0.00000E+00
   -0.69327E+05        -0.27310E+08         0.00000E+00
    0.00000E+00         0.00000E+00        -0.75478E+07
 
   -0.10353E+08        -0.61637E+05         0.00000E+00
   -0.61637E+05        -0.27323E+08         0.00000E+00
    0.00000E+00         0.00000E+00        -0.75351E+07
 
   -0.10275E+08        -0.51441E+05         0.00000E+00
   -0.51441E+05        -0.27336E+08         0.00000E+00
    0.00000E+00         0.00000E+00        -0.75223E+07
 
   -0.10197E+08        -0.38838E+05         0.00000E+00
   -0.38838E+05        -0.27350E+08         0.00000E+00
    0.00000E+00         0.00000E+00        -0.75094E+07
 
   -0.10117E+08        -0.23924E+05         0.00000E+00
   -0.23924E+05        -0.27365E+08         0.00000E+00
    0.00000E+00         0.00000E+00        -0.74964E+07
 
   -0.10037E+08        -0.67998E+04         0.00000E+00
   -0.67998E+04        -0.27380E+08         0.00000E+00
    0.00000E+00         0.00000E+00        -0.74834E+07
 
   -0.99565E+07         0.12440E+05         0.00000E+00
    0.12440E+05        -0.27395E+08         0.00000E+00
    0.00000E+00         0.00000E+00        -0.74704E+07
 
   -0.98750E+07         0.33702E+05         0.00000E+00
    0.33702E+05        -0.27412E+08         0.00000E+00
    0.00000E+00         0.00000E+00        -0.74573E+07
 
   -0.97931E+07         0.56899E+05         0.00000E+00
    0.56899E+05        -0.27428E+08         0.00000E+00
    0.00000E+00         0.00000E+00        -0.74443E+07
 
   -0.97107E+07         0.81948E+05         0.00000E+00
    0.81948E+05        -0.27445E+08         0.00000E+00
    0.00000E+00         0.00000E+00        -0.74312E+07
 
   -0.96280E+07         0.10877E+06         0.00000E+00
    0.10877E+06        -0.27463E+08         0.00000E+00
    0.00000E+00         0.00000E+00        -0.74182E+07
 
   -0.95448E+07         0.13731E+06         0.00000E+00
    0.13731E+06        -0.27481E+08         0.00000E+00
    0.00000E+00         0.00000E+00        -0.74052E+07
 
   -0.94614E+07         0.16749E+06         0.00000E+00
    0.16749E+06        -0.27500E+08         0.00000E+00
    0.00000E+00         0.00000E+00        -0.73923E+07
 
   -0.93776E+07         0.19926E+06         0.00000E+00
    0.19926E+06        -0.27520E+08         0.00000E+00
    0.00000E+00         0.00000E+00        -0.73794E+07
 
   -0.92936E+07         0.23258E+06         0.00000E+00
    0.23258E+06        -0.27539E+08         0.00000E+00
    0.00000E+00         0.00000E+00        -0.73666E+07
 
   -0.92094E+07         0.26741E+06         0.00000E+00
    0.26741E+06        -0.27560E+08         0.00000E+00
    0.00000E+00         0.00000E+00        -0.73539E+07
 
   -0.91249E+07         0.30372E+06         0.00000E+00
    0.30372E+06        -0.27581E+08         0.00000E+00
    0.00000E+00         0.00000E+00        -0.73412E+07
 
   -0.90402E+07         0.34149E+06         0.00000E+00
    0.34149E+06        -0.27603E+08         0.00000E+00
    0.00000E+00         0.00000E+00        -0.73286E+07
 
   -0.89552E+07         0.38070E+06         0.00000E+00
    0.38070E+06        -0.27626E+08         0.00000E+00
    0.00000E+00         0.00000E+00        -0.73162E+07
 
   -0.88701E+07         0.42134E+06         0.00000E+00
    0.42134E+06        -0.27649E+08         0.00000E+00
    0.00000E+00         0.00000E+00        -0.73038E+07
 
   -0.87848E+07         0.46342E+06         0.00000E+00
    0.46342E+06        -0.27673E+08         0.00000E+00
    0.00000E+00         0.00000E+00        -0.72915E+07
 
   -0.86993E+07         0.50693E+06         0.00000E+00
    0.50693E+06        -0.27697E+08         0.00000E+00
    0.00000E+00         0.00000E+00        -0.72793E+07
 
   -0.86137E+07         0.55189E+06         0.00000E+00
    0.55189E+06        -0.27723E+08         0.00000E+00
    0.00000E+00         0.00000E+00        -0.72673E+07
 
   -0.85279E+07         0.59831E+06         0.00000E+00
    0.59831E+06        -0.27749E+08         0.00000E+00
    0.00000E+00         0.00000E+00        -0.72554E+07
 
   -0.84421E+07         0.64622E+06         0.00000E+00
    0.64622E+06        -0.27776E+08         0.00000E+00
    0.00000E+00         0.00000E+00        -0.72436E+07
 
   -0.83561E+07         0.69564E+06         0.00000E+00
    0.69564E+06        -0.27803E+08         0.00000E+00
    0.00000E+00         0.00000E+00        -0.72319E+07
 
   -0.82702E+07         0.74659E+06         0.00000E+00
    0.74659E+06        -0.27832E+08         0.00000E+00
    0.00000E+00         0.00000E+00        -0.72204E+07
 
   -0.81844E+07         0.79911E+06         0.00000E+00
    0.79911E+06        -0.27861E+08         0.00000E+00
    0.00000E+00         0.00000E+00        -0.72091E+07
 
   -0.80986E+07         0.85323E+06         0.00000E+00
    0.85323E+06        -0.27891E+08         0.00000E+00
    0.00000E+00         0.00000E+00        -0.71979E+07
 
   -0.80130E+07         0.90897E+06         0.00000E+00
    0.90897E+06        -0.27921E+08         0.00000E+00
    0.00000E+00         0.00000E+00        -0.71868E+07
 
   -0.79277E+07         0.96637E+06         0.00000E+00
    0.96637E+06        -0.27952E+08         0.00000E+00
    0.00000E+00         0.00000E+00        -0.71760E+07
 
   -0.78427E+07         0.10255E+07         0.00000E+00
    0.10255E+07        -0.27984E+08         0.00000E+00
    0.00000E+00         0.00000E+00        -0.71653E+07
 
   -0.77582E+07         0.10862E+07         0.00000E+00
    0.10862E+07        -0.28016E+08         0.00000E+00
    0.00000E+00         0.00000E+00        -0.71549E+07
 
   -0.76742E+07         0.11487E+07         0.00000E+00
    0.11487E+07        -0.28049E+08         0.00000E+00
    0.00000E+00         0.00000E+00        -0.71446E+07
 
   -0.75909E+07         0.12130E+07         0.00000E+00
    0.12130E+07        -0.28082E+08         0.00000E+00
    0.00000E+00         0.00000E+00        -0.71345E+07
 
   -0.75084E+07         0.12789E+07         0.00000E+00
    0.12789E+07        -0.28115E+08         0.00000E+00
    0.00000E+00         0.00000E+00        -0.71247E+07
 
   -0.74269E+07         0.13466E+07         0.00000E+00
    0.13466E+07        -0.28149E+08         0.00000E+00
    0.00000E+00         0.00000E+00        -0.71151E+07
 
   -0.73464E+07         0.14159E+07         0.00000E+00
    0.14159E+07        -0.28183E+08         0.00000E+00
    0.00000E+00         0.00000E+00        -0.71058E+07
 
   -0.72671E+07         0.14870E+07         0.00000E+00
    0.14870E+07        -0.28216E+08         0.00000E+00
    0.00000E+00         0.00000E+00        -0.70967E+07
 
   -0.71892E+07         0.15596E+07         0.00000E+00
    0.15596E+07        -0.28250E+08         0.00000E+00
    0.00000E+00         0.00000E+00        -0.70879E+07
 
   -0.71129E+07         0.16338E+07         0.00000E+00
    0.16338E+07        -0.28284E+08         0.00000E+00
    0.00000E+00         0.00000E+00        -0.70793E+07
 
   -0.11647E+08        -0.18105E+05         0.00000E+00
   -0.18105E+05        -0.27744E+08         0.00000E+00
    0.00000E+00         0.00000E+00        -0.78781E+07
 
   -0.11574E+08        -0.45111E+05         0.00000E+00
   -0.45111E+05        -0.27746E+08         0.00000E+00
    0.00000E+00         0.00000E+00        -0.78640E+07
 
   -0.11499E+08        -0.68246E+05         0.00000E+00
   -0.68246E+05        -0.27749E+08         0.00000E+00
    0.00000E+00         0.00000E+00        -0.78496E+07
 
   -0.11420E+08        -0.87477E+05         0.00000E+00
   -0.87477E+05        -0.27755E+08         0.00000E+00
    0.00000E+00         0.00000E+00        -0.78349E+07
 
   -0.11339E+08        -0.10290E+06         0.00000E+00
   -0.10290E+06        -0.27761E+08         0.00000E+00
    0.00000E+00         0.00000E+00        -0.78200E+07
 
   -0.11255E+08        -0.11462E+06         0.00000E+00
   -0.11462E+06        -0.27769E+08         0.00000E+00
    0.00000E+00         0.00000E+00        -0.78048E+07
 
   -0.11170E+08        -0.12277E+06         0.00000E+00
   -0.12277E+06        -0.27777E+08         0.00000E+00
    0.00000E+00         0.00000E+00        -0.77895E+07
 
   -0.11083E+08        -0.12748E+06         0.00000E+00
   -0.12748E+06        -0.27786E+08         0.00000E+00
    0.00000E+00         0.00000E+00        -0.77740E+07
 
   -0.10995E+08        -0.12889E+06         0.00000E+00
   -0.12889E+06        -0.27796E+08         0.00000E+00
    0.00000E+00         0.00000E+00        -0.77584E+07
 
   -0.10906E+08        -0.12717E+06         0.00000E+00
   -0.12717E+06        -0.27807E+08         0.00000E+00
    0.00000E+00         0.00000E+00        -0.77426E+07
 
   -0.10817E+08        -0.12248E+06         0.00000E+00
   -0.12248E+06        -0.27818E+08         0.00000E+00
    0.00000E+00         0.00000E+00        -0.77269E+07
 
   -0.10727E+08        -0.11500E+06         0.00000E+00
   -0.11500E+06        -0.27829E+08         0.00000E+00
    0.00000E+00         0.00000E+00        -0.77111E+07
 
   -0.10636E+08        -0.10490E+06         0.00000E+00
   -0.10490E+06        -0.27841E+08         0.00000E+00
    0.00000E+00         0.00000E+00        -0.76953E+07
 
   -0.10545E+08        -0.92341E+05         0.00000E+00
   -0.92341E+05        -0.27853E+08         0.00000E+00
    0.00000E+00         0.00000E+00        -0.76795E+07
 
   -0.10454E+08        -0.77499E+05         0.00000E+00
   -0.77499E+05        -0.27865E+08         0.00000E+00
    0.00000E+00         0.00000E+00        -0.76638E+07
 
   -0.10363E+08        -0.60521E+05         0.00000E+00
   -0.60521E+05        -0.27878E+08         0.00000E+00
    0.00000E+00         0.00000E+00        -0.76481E+07
 
   -0.10271E+08        -0.41549E+05         0.00000E+00
   -0.41549E+05        -0.27891E+08         0.00000E+00
    0.00000E+00         0.00000E+00        -0.76325E+07
 
   -0.10180E+08        -0.20711E+05         0.00000E+00
   -0.20711E+05        -0.27905E+08         0.00000E+00
    0.00000E+00         0.00000E+00        -0.76169E+07
 
   -0.10089E+08         0.18768E+04         0.00000E+00
    0.18768E+04        -0.27919E+08         0.00000E+00
    0.00000E+00         0.00000E+00        -0.76015E+07
 
   -0.99978E+07         0.26113E+05         0.00000E+00
    0.26113E+05        -0.27933E+08         0.00000E+00
    0.00000E+00         0.00000E+00        -0.75862E+07
 
   -0.99066E+07         0.51908E+05         0.00000E+00
    0.51908E+05        -0.27948E+08         0.00000E+00
    0.00000E+00         0.00000E+00        -0.75709E+07
 
   -0.98154E+07         0.79187E+05         0.00000E+00
    0.79187E+05        -0.27964E+08         0.00000E+00
    0.00000E+00         0.00000E+00        -0.75558E+07
 
   -0.97243E+07         0.10789E+06         0.00000E+00
    0.10789E+06        -0.27980E+08         0.00000E+00
    0.00000E+00         0.00000E+00        -0.75408E+07
 
   -0.96330E+07         0.13796E+06         0.00000E+00
    0.13796E+06        -0.27997E+08         0.00000E+00
    0.00000E+00         0.00000E+00        -0.75260E+07
 
   -0.95417E+07         0.16936E+06         0.00000E+00
    0.16936E+06        -0.28014E+08         0.00000E+00
    0.00000E+00         0.00000E+00        -0.75112E+07
 
   -0.94503E+07         0.20206E+06         0.00000E+00
    0.20206E+06        -0.28033E+08         0.00000E+00
    0.00000E+00         0.00000E+00        -0.74966E+07
 
   -0.93587E+07         0.23605E+06         0.00000E+00
    0.23605E+06        -0.28052E+08         0.00000E+00
    0.00000E+00         0.00000E+00        -0.74822E+07
 
   -0.92669E+07         0.27132E+06         0.00000E+00
    0.27132E+06        -0.28072E+08         0.00000E+00
    0.00000E+00         0.00000E+00        -0.74678E+07
 
   -0.91749E+07         0.30788E+06         0.00000E+00
    0.30788E+06        -0.28093E+08         0.00000E+00
    0.00000E+00         0.00000E+00        -0.74537E+07
 
   -0.90827E+07         0.34573E+06         0.00000E+00
    0.34573E+06        -0.28116E+08         0.00000E+00
    0.00000E+00         0.00000E+00        -0.74396E+07
 
   -0.89902E+07         0.38491E+06         0.00000E+00
    0.38491E+06        -0.28139E+08         0.00000E+00
    0.00000E+00         0.00000E+00        -0.74258E+07
 
   -0.88975E+07         0.42544E+06         0.00000E+00
    0.42544E+06        -0.28163E+08         0.00000E+00
    0.00000E+00         0.00000E+00        -0.74120E+07
 
   -0.88045E+07         0.46737E+06         0.00000E+00
    0.46737E+06        -0.28188E+08         0.00000E+00
    0.00000E+00         0.00000E+00        -0.73985E+07
 
   -0.87112E+07         0.51075E+06         0.00000E+00
    0.51075E+06        -0.28214E+08         0.00000E+00
    0.00000E+00         0.00000E+00        -0.73850E+07
 
   -0.86176E+07         0.55564E+06         0.00000E+00
    0.55564E+06        -0.28241E+08         0.00000E+00
    0.00000E+00         0.00000E+00        -0.73718E+07
 
   -0.85237E+07         0.60210E+06         0.00000E+00
    0.60210E+06        -0.28270E+08         0.00000E+00
    0.00000E+00         0.00000E+00        -0.73587E+07
 
   -0.84297E+07         0.65021E+06         0.00000E+00
    0.65021E+06        -0.28299E+08         0.00000E+00
    0.00000E+00         0.00000E+00        -0.73458E+07
 
   -0.83355E+07         0.70003E+06         0.00000E+00
    0.70003E+06        -0.28330E+08         0.00000E+00
    0.00000E+00         0.00000E+00        -0.73331E+07
 
   -0.82412E+07         0.75166E+06         0.00000E+00
    0.75166E+06        -0.28362E+08         0.00000E+00
    0.00000E+00         0.00000E+00        -0.73206E+07
 
   -0.81469E+07         0.80517E+06         0.00000E+00
    0.80517E+06        -0.28394E+08         0.00000E+00
    0.00000E+00         0.00000E+00        -0.73082E+07
 
   -0.80527E+07         0.86065E+06         0.00000E+00
    0.86065E+06        -0.28428E+08         0.00000E+00
    0.00000E+00         0.00000E+00        -0.72961E+07
 
   -0.79588E+07         0.91816E+06         0.00000E+00
    0.91816E+06        -0.28462E+08         0.00000E+00
    0.00000E+00         0.00000E+00        -0.72843E+07
 
   -0.78652E+07         0.97778E+06         0.00000E+00
    0.97778E+06        -0.28498E+08         0.00000E+00
    0.00000E+00         0.00000E+00        -0.72726E+07
 
   -0.77722E+07         0.10396E+07         0.00000E+00
    0.10396E+07        -0.28534E+08         0.00000E+00
    0.00000E+00         0.00000E+00        -0.72612E+07
 
   -0.76799E+07         0.11035E+07         0.00000E+00
    0.11035E+07        -0.28571E+08         0.00000E+00
    0.00000E+00         0.00000E+00        -0.72501E+07
 
   -0.75885E+07         0.11698E+07         0.00000E+00
    0.11698E+07        -0.28608E+08         0.00000E+00
    0.00000E+00         0.00000E+00        -0.72392E+07
 
   -0.74982E+07         0.12383E+07         0.00000E+00
    0.12383E+07        -0.28645E+08         0.00000E+00
    0.00000E+00         0.00000E+00        -0.72287E+07
 
   -0.74093E+07         0.13090E+07         0.00000E+00
    0.13090E+07        -0.28683E+08         0.00000E+00
    0.00000E+00         0.00000E+00        -0.72184E+07
 
   -0.73220E+07         0.13821E+07         0.00000E+00
    0.13821E+07        -0.28721E+08         0.00000E+00
    0.00000E+00         0.00000E+00        -0.72085E+07
 
   -0.72365E+07         0.14572E+07         0.00000E+00
    0.14572E+07        -0.28758E+08         0.00000E+00
    0.00000E+00         0.00000E+00        -0.71990E+07
 
   -0.12316E+08        -0.23943E+05         0.00000E+00
   -0.23943E+05        -0.28245E+08         0.00000E+00
    0.00000E+00         0.00000E+00        -0.81122E+07
 
   -0.12221E+08        -0.59630E+05         0.00000E+00
   -0.59630E+05        -0.28247E+08         0.00000E+00
    0.00000E+00         0.00000E+00        -0.80937E+07
 
   -0.12123E+08        -0.89913E+05         0.00000E+00
   -0.89913E+05        -0.28251E+08         0.00000E+00
    0.00000E+00         0.00000E+00        -0.80747E+07
 
   -0.12022E+08        -0.11522E+06         0.00000E+00
   -0.11522E+06        -0.28256E+08         0.00000E+00
    0.00000E+00         0.00000E+00        -0.80556E+07
 
   -0.11920E+08        -0.13570E+06         0.00000E+00
   -0.13570E+06        -0.28261E+08         0.00000E+00
    0.00000E+00         0.00000E+00        -0.80363E+07
 
   -0.11816E+08        -0.15151E+06         0.00000E+00
   -0.15151E+06        -0.28268E+08         0.00000E+00
    0.00000E+00         0.00000E+00        -0.80168E+07
 
   -0.11711E+08        -0.16285E+06         0.00000E+00
   -0.16285E+06        -0.28275E+08         0.00000E+00
    0.00000E+00         0.00000E+00        -0.79973E+07
 
   -0.11606E+08        -0.16999E+06         0.00000E+00
   -0.16999E+06        -0.28282E+08         0.00000E+00
    0.00000E+00         0.00000E+00        -0.79777E+07
 
   -0.11501E+08        -0.17324E+06         0.00000E+00
   -0.17324E+06        -0.28289E+08         0.00000E+00
    0.00000E+00         0.00000E+00        -0.79580E+07
 
   -0.11396E+08        -0.17294E+06         0.00000E+00
   -0.17294E+06        -0.28296E+08         0.00000E+00
    0.00000E+00         0.00000E+00        -0.79385E+07
 
   -0.11291E+08        -0.16941E+06         0.00000E+00
   -0.16941E+06        -0.28304E+08         0.00000E+00
    0.00000E+00         0.00000E+00        -0.79190E+07
 
   -0.11187E+08        -0.16296E+06         0.00000E+00
   -0.16296E+06        -0.28311E+08         0.00000E+00
    0.00000E+00         0.00000E+00        -0.78996E+07
 
   -0.11084E+08        -0.15389E+06         0.00000E+00
   -0.15389E+06        -0.28318E+08         0.00000E+00
    0.00000E+00         0.00000E+00        -0.78804E+07
 
   -0.10981E+08        -0.14246E+06         0.00000E+00
   -0.14246E+06        -0.28325E+08         0.00000E+00
    0.00000E+00         0.00000E+00        -0.78614E+07
 
   -0.10880E+08        -0.12891E+06         0.00000E+00
   -0.12891E+06        -0.28333E+08         0.00000E+00
    0.00000E+00         0.00000E+00        -0.78425E+07
 
   -0.10779E+08        -0.11344E+06         0.00000E+00
   -0.11344E+06        -0.28340E+08         0.00000E+00
    0.00000E+00         0.00000E+00        -0.78238E+07
 
   -0.10678E+08        -0.96247E+05         0.00000E+00
   -0.96247E+05        -0.28348E+08         0.00000E+00
    0.00000E+00         0.00000E+00        -0.78053E+07
 
   -0.10579E+08        -0.77481E+05         0.00000E+00
   -0.77481E+05        -0.28356E+08         0.00000E+00
    0.00000E+00         0.00000E+00        -0.77871E+07
 
   -0.10480E+08        -0.57278E+05         0.00000E+00
   -0.57278E+05        -0.28365E+08         0.00000E+00
    0.00000E+00         0.00000E+00        -0.77690E+07
 
   -0.10381E+08        -0.35753E+05         0.00000E+00
   -0.35753E+05        -0.28374E+08         0.00000E+00
    0.00000E+00         0.00000E+00        -0.77512E+07
 
   -0.10283E+08        -0.12999E+05         0.00000E+00
   -0.12999E+05        -0.28384E+08         0.00000E+00
    0.00000E+00         0.00000E+00        -0.77336E+07
 
   -0.10186E+08         0.10909E+05         0.00000E+00
    0.10909E+05        -0.28395E+08         0.00000E+00
    0.00000E+00         0.00000E+00        -0.77162E+07
 
   -0.10088E+08         0.35910E+05         0.00000E+00
    0.35910E+05        -0.28406E+08         0.00000E+00
    0.00000E+00         0.00000E+00        -0.76990E+07
 
   -0.99912E+07         0.61959E+05         0.00000E+00
    0.61959E+05        -0.28419E+08         0.00000E+00
    0.00000E+00         0.00000E+00        -0.76820E+07
 
   -0.98940E+07         0.89027E+05         0.00000E+00
    0.89027E+05        -0.28432E+08         0.00000E+00
    0.00000E+00         0.00000E+00        -0.76652E+07
 
   -0.97967E+07         0.11710E+06         0.00000E+00
    0.11710E+06        -0.28446E+08         0.00000E+00
    0.00000E+00         0.00000E+00        -0.76486E+07
 
   -0.96994E+07         0.14616E+06         0.00000E+00
    0.14616E+06        -0.28462E+08         0.00000E+00
    0.00000E+00         0.00000E+00        -0.76322E+07
 
   -0.96019E+07         0.17623E+06         0.00000E+00
    0.17623E+06        -0.28478E+08         0.00000E+00
    0.00000E+00         0.00000E+00        -0.76160E+07
 
   -0.95040E+07         0.20732E+06         0.00000E+00
    0.20732E+06        -0.28496E+08         0.00000E+00
    0.00000E+00         0.00000E+00        -0.76000E+07
 
   -0.94058E+07         0.23947E+06         0.00000E+00
    0.23947E+06        -0.28515E+08         0.00000E+00
    0.00000E+00         0.00000E+00        -0.75842E+07
 
   -0.93071E+07         0.27271E+06         0.00000E+00
    0.27271E+06        -0.28535E+08         0.00000E+00
    0.00000E+00         0.00000E+00        -0.75685E+07
 
   -0.92079E+07         0.30711E+06         0.00000E+00
    0.30711E+06        -0.28557E+08         0.00000E+00
    0.00000E+00         0.00000E+00        -0.75530E+07
 
   -0.91081E+07         0.34273E+06         0.00000E+00
    0.34273E+06        -0.28580E+08         0.00000E+00
    0.00000E+00         0.00000E+00        -0.75377E+07
 
   -0.90077E+07         0.37965E+06         0.00000E+00
    0.37965E+06        -0.28605E+08         0.00000E+00
    0.00000E+00         0.00000E+00        -0.75226E+07
 
   -0.89066E+07         0.41796E+06         0.00000E+00
    0.41796E+06        -0.28631E+08         0.00000E+00
    0.00000E+00         0.00000E+00        -0.75076E+07
 
   -0.88048E+07         0.45778E+06         0.00000E+00
    0.45778E+06        -0.28659E+08         0.00000E+00
    0.00000E+00         0.00000E+00        -0.74928E+07
 
   -0.87023E+07         0.49923E+06         0.00000E+00
    0.49923E+06        -0.28689E+08         0.00000E+00
    0.00000E+00         0.00000E+00        -0.74782E+07
 
   -0.85991E+07         0.54244E+06         0.00000E+00
    0.54244E+06        -0.28720E+08         0.00000E+00
    0.00000E+00         0.00000E+00        -0.74637E+07
 
   -0.84952E+07         0.58756E+06         0.00000E+00
    0.58756E+06        -0.28752E+08         0.00000E+00
    0.00000E+00         0.00000E+00        -0.74495E+07
 
   -0.83906E+07         0.63476E+06         0.00000E+00
    0.63476E+06        -0.28786E+08         0.00000E+00
    0.00000E+00         0.00000E+00        -0.74354E+07
 
   -0.82856E+07         0.68421E+06         0.00000E+00
    0.68421E+06        -0.28822E+08         0.00000E+00
    0.00000E+00         0.00000E+00        -0.74216E+07
 
   -0.81802E+07         0.73609E+06         0.00000E+00
    0.73609E+06        -0.28860E+08         0.00000E+00
    0.00000E+00         0.00000E+00        -0.74080E+07
 
   -0.80746E+07         0.79060E+06         0.00000E+00
    0.79060E+06        -0.28898E+08         0.00000E+00
    0.00000E+00         0.00000E+00        -0.73946E+07
 
   -0.79690E+07         0.84789E+06         0.00000E+00
    0.84789E+06        -0.28938E+08         0.00000E+00
    0.00000E+00         0.00000E+00        -0.73815E+07
 
   -0.78637E+07         0.90811E+06         0.00000E+00
    0.90811E+06        -0.28980E+08         0.00000E+00
    0.00000E+00         0.00000E+00        -0.73687E+07
 
   -0.77591E+07         0.97140E+06         0.00000E+00
    0.97140E+06        -0.29022E+08         0.00000E+00
    0.00000E+00         0.00000E+00        -0.73562E+07
 
   -0.76553E+07         0.10378E+07         0.00000E+00
    0.10378E+07        -0.29065E+08         0.00000E+00
    0.00000E+00         0.00000E+00        -0.73440E+07
 
   -0.75528E+07         0.11074E+07         0.00000E+00
    0.11074E+07        -0.29108E+08         0.00000E+00
    0.00000E+00         0.00000E+00        -0.73321E+07
 
   -0.74518E+07         0.11801E+07         0.00000E+00
    0.11801E+07        -0.29151E+08         0.00000E+00
    0.00000E+00         0.00000E+00        -0.73206E+07
 
   -0.73531E+07         0.12564E+07         0.00000E+00
    0.12564E+07        -0.29195E+08         0.00000E+00
    0.00000E+00         0.00000E+00        -0.73097E+07
 
   -0.13031E+08        -0.30309E+05         0.00000E+00
   -0.30309E+05        -0.28747E+08         0.00000E+00
    0.00000E+00         0.00000E+00        -0.83555E+07
 
   -0.12905E+08        -0.73148E+05         0.00000E+00
   -0.73148E+05        -0.28748E+08         0.00000E+00
    0.00000E+00         0.00000E+00        -0.83305E+07
 
   -0.12777E+08        -0.10969E+06         0.00000E+00
   -0.10969E+06        -0.28752E+08         0.00000E+00
    0.00000E+00         0.00000E+00        -0.83057E+07
 
   -0.12647E+08        -0.13909E+06         0.00000E+00
   -0.13909E+06        -0.28756E+08         0.00000E+00
    0.00000E+00         0.00000E+00        -0.82806E+07
 
   -0.12516E+08        -0.16152E+06         0.00000E+00
   -0.16152E+06        -0.28761E+08         0.00000E+00
    0.00000E+00         0.00000E+00        -0.82554E+07
 
   -0.12386E+08        -0.17760E+06         0.00000E+00
   -0.17760E+06        -0.28765E+08         0.00000E+00
    0.00000E+00         0.00000E+00        -0.82302E+07
 
   -0.12258E+08        -0.18811E+06         0.00000E+00
   -0.18811E+06        -0.28767E+08         0.00000E+00
    0.00000E+00         0.00000E+00        -0.82051E+07
 
   -0.12132E+08        -0.19380E+06         0.00000E+00
   -0.19380E+06        -0.28769E+08         0.00000E+00
    0.00000E+00         0.00000E+00        -0.81802E+07
 
   -0.12007E+08        -0.19540E+06         0.00000E+00
   -0.19540E+06        -0.28770E+08         0.00000E+00
    0.00000E+00         0.00000E+00        -0.81555E+07
 
   -0.11886E+08        -0.19352E+06         0.00000E+00
   -0.19352E+06        -0.28771E+08         0.00000E+00
    0.00000E+00         0.00000E+00        -0.81313E+07
 
   -0.11766E+08        -0.18871E+06         0.00000E+00
   -0.18871E+06        -0.28771E+08         0.00000E+00
    0.00000E+00         0.00000E+00        -0.81074E+07
 
   -0.11649E+08        -0.18140E+06         0.00000E+00
   -0.18140E+06        -0.28770E+08         0.00000E+00
    0.00000E+00         0.00000E+00        -0.80839E+07
 
   -0.11535E+08        -0.17199E+06         0.00000E+00
   -0.17199E+06        -0.28769E+08         0.00000E+00
    0.00000E+00         0.00000E+00        -0.80608E+07
 
   -0.11422E+08        -0.16078E+06         0.00000E+00
   -0.16078E+06        -0.28769E+08         0.00000E+00
    0.00000E+00         0.00000E+00        -0.80382E+07
 
   -0.11312E+08        -0.14802E+06         0.00000E+00
   -0.14802E+06        -0.28768E+08         0.00000E+00
    0.00000E+00         0.00000E+00        -0.80159E+07
 
   -0.11203E+08        -0.13394E+06         0.00000E+00
   -0.13394E+06        -0.28768E+08         0.00000E+00
    0.00000E+00         0.00000E+00        -0.79941E+07
 
   -0.11096E+08        -0.11869E+06         0.00000E+00
   -0.11869E+06        -0.28768E+08         0.00000E+00
    0.00000E+00         0.00000E+00        -0.79727E+07
 
   -0.10990E+08        -0.10243E+06         0.00000E+00
   -0.10243E+06        -0.28768E+08         0.00000E+00
    0.00000E+00         0.00000E+00        -0.79517E+07
 
   -0.10885E+08        -0.85252E+05         0.00000E+00
   -0.85252E+05        -0.28770E+08         0.00000E+00
    0.00000E+00         0.00000E+00        -0.79310E+07
 
   -0.10782E+08        -0.67258E+05         0.00000E+00
   -0.67258E+05        -0.28772E+08         0.00000E+00
    0.00000E+00         0.00000E+00        -0.79108E+07
 
   -0.10679E+08        -0.48513E+05         0.00000E+00
   -0.48513E+05        -0.28775E+08         0.00000E+00
    0.00000E+00         0.00000E+00        -0.78908E+07
 
   -0.10577E+08        -0.29068E+05         0.00000E+00
   -0.29068E+05        -0.28779E+08         0.00000E+00
    0.00000E+00         0.00000E+00        -0.78712E+07
 
   -0.10475E+08        -0.89611E+04         0.00000E+00
   -0.89611E+04        -0.28785E+08         0.00000E+00
    0.00000E+00         0.00000E+00        -0.78519E+07
 
   -0.10373E+08         0.11784E+05         0.00000E+00
    0.11784E+05        -0.28791E+08         0.00000E+00
    0.00000E+00         0.00000E+00        -0.78329E+07
 
   -0.10272E+08         0.33156E+05         0.00000E+00
    0.33156E+05        -0.28799E+08         0.00000E+00
    0.00000E+00         0.00000E+00        -0.78142E+07
 
   -0.10171E+08         0.55154E+05         0.00000E+00
    0.55154E+05        -0.28808E+08         0.00000E+00
    0.00000E+00         0.00000E+00        -0.77957E+07
 
   -0.10069E+08         0.77788E+05         0.00000E+00
    0.77788E+05        -0.28818E+08         0.00000E+00
    0.00000E+00         0.00000E+00        -0.77775E+07
 
   -0.99675E+07         0.10108E+06         0.00000E+00
    0.10108E+06        -0.28830E+08         0.00000E+00
    0.00000E+00         0.00000E+00        -0.77596E+07
 
   -0.98652E+07         0.12505E+06         0.00000E+00
    0.12505E+06        -0.28844E+08         0.00000E+00
    0.00000E+00         0.00000E+00        -0.77418E+07
 
   -0.97624E+07         0.14976E+06         0.00000E+00
    0.14976E+06        -0.28859E+08         0.00000E+00
    0.00000E+00         0.00000E+00        -0.77243E+07
 
   -0.96588E+07         0.17524E+06         0.00000E+00
    0.17524E+06        -0.28876E+08         0.00000E+00
    0.00000E+00         0.00000E+00        -0.77070E+07
 
   -0.95544E+07         0.20156E+06         0.00000E+00
    0.20156E+06        -0.28895E+08         0.00000E+00
    0.00000E+00         0.00000E+00        -0.76898E+07
 
   -0.94490E+07         0.22881E+06         0.00000E+00
    0.22881E+06        -0.28915E+08         0.00000E+00
    0.00000E+00         0.00000E+00        -0.76728E+07
 
   -0.93425E+07         0.25707E+06         0.00000E+00
    0.25707E+06        -0.28937E+08         0.00000E+00
    0.00000E+00         0.00000E+00        -0.76560E+07
 
   -0.92347E+07         0.28646E+06         0.00000E+00
    0.28646E+06        -0.28962E+08         0.00000E+00
    0.00000E+00         0.00000E+00        -0.76393E+07
 
   -0.91256E+07         0.31710E+06         0.00000E+00
    0.31710E+06        -0.28988E+08         0.00000E+00
    0.00000E+00         0.00000E+00        -0.76228E+07
 
   -0.90150E+07         0.34914E+06         0.00000E+00
    0.34914E+06        -0.29017E+08         0.00000E+00
    0.00000E+00         0.00000E+00        -0.76064E+07
 
   -0.89029E+07         0.38277E+06         0.00000E+00
    0.38277E+06        -0.29047E+08         0.00000E+00
    0.00000E+00         0.00000E+00        -0.75901E+07
 
   -0.87891E+07         0.41819E+06         0.00000E+00
    0.41819E+06        -0.29080E+08         0.00000E+00
    0.00000E+00         0.00000E+00        -0.75739E+07
 
   -0.86737E+07         0.45563E+06         0.00000E+00
    0.45563E+06        -0.29116E+08         0.00000E+00
    0.00000E+00         0.00000E+00        -0.75579E+07
 
   -0.85565E+07         0.49539E+06         0.00000E+00
    0.49539E+06        -0.29153E+08         0.00000E+00
    0.00000E+00         0.00000E+00        -0.75420E+07
 
   -0.84376E+07         0.53779E+06         0.00000E+00
    0.53779E+06        -0.29193E+08         0.00000E+00
    0.00000E+00         0.00000E+00        -0.75262E+07
 
   -0.83172E+07         0.58319E+06         0.00000E+00
    0.58319E+06        -0.29236E+08         0.00000E+00
    0.00000E+00         0.00000E+00        -0.75106E+07
 
   -0.81953E+07         0.63201E+06         0.00000E+00
    0.63201E+06        -0.29281E+08         0.00000E+00
    0.00000E+00         0.00000E+00        -0.74952E+07
 
   -0.80724E+07         0.68470E+06         0.00000E+00
    0.68470E+06        -0.29328E+08         0.00000E+00
    0.00000E+00         0.00000E+00        -0.74801E+07
 
   -0.79489E+07         0.74172E+06         0.00000E+00
    0.74172E+06        -0.29377E+08         0.00000E+00
    0.00000E+00         0.00000E+00        -0.74652E+07
 
   -0.78255E+07         0.80351E+06         0.00000E+00
    0.80351E+06        -0.29428E+08         0.00000E+00
    0.00000E+00         0.00000E+00        -0.74508E+07
 
   -0.77030E+07         0.87033E+06         0.00000E+00
    0.87033E+06        -0.29481E+08         0.00000E+00
    0.00000E+00         0.00000E+00        -0.74367E+07
 
   -0.75820E+07         0.94209E+06         0.00000E+00
    0.94209E+06        -0.29533E+08         0.00000E+00
    0.00000E+00         0.00000E+00        -0.74231E+07
 
   -0.74623E+07         0.10179E+07         0.00000E+00
    0.10179E+07        -0.29585E+08         0.00000E+00
    0.00000E+00         0.00000E+00        -0.74095E+07
 
   -0.13788E+08        -0.38273E+05         0.00000E+00
   -0.38273E+05        -0.29247E+08         0.00000E+00
    0.00000E+00         0.00000E+00        -0.86071E+07
 
   -0.13615E+08        -0.89804E+05         0.00000E+00
   -0.89804E+05        -0.29255E+08         0.00000E+00
    0.00000E+00         0.00000E+00        -0.85740E+07
 
   -0.13438E+08        -0.12509E+06         0.00000E+00
   -0.12509E+06        -0.29259E+08         0.00000E+00
    0.00000E+00         0.00000E+00        -0.85394E+07
 
   -0.13265E+08        -0.14840E+06         0.00000E+00
   -0.14840E+06        -0.29258E+08         0.00000E+00
    0.00000E+00         0.00000E+00        -0.85046E+07
 
   -0.13099E+08        -0.16293E+06         0.00000E+00
   -0.16293E+06        -0.29253E+08         0.00000E+00
    0.00000E+00         0.00000E+00        -0.84704E+07
 
   -0.12939E+08        -0.17098E+06         0.00000E+00
   -0.17098E+06        -0.29246E+08         0.00000E+00
    0.00000E+00         0.00000E+00        -0.84370E+07
 
   -0.12786E+08        -0.17423E+06         0.00000E+00
   -0.17423E+06        -0.29237E+08         0.00000E+00
    0.00000E+00         0.00000E+00        -0.84046E+07
 
   -0.12640E+08        -0.17388E+06         0.00000E+00
   -0.17388E+06        -0.29226E+08         0.00000E+00
    0.00000E+00         0.00000E+00        -0.83732E+07
 
   -0.12500E+08        -0.17081E+06         0.00000E+00
   -0.17081E+06        -0.29214E+08         0.00000E+00
    0.00000E+00         0.00000E+00        -0.83428E+07
 
   -0.12365E+08        -0.16565E+06         0.00000E+00
   -0.16565E+06        -0.29202E+08         0.00000E+00
    0.00000E+00         0.00000E+00        -0.83134E+07
 
   -0.12235E+08        -0.15889E+06         0.00000E+00
   -0.15889E+06        -0.29189E+08         0.00000E+00
    0.00000E+00         0.00000E+00        -0.82848E+07
 
   -0.12109E+08        -0.15086E+06         0.00000E+00
   -0.15086E+06        -0.29177E+08         0.00000E+00
    0.00000E+00         0.00000E+00        -0.82572E+07
 
   -0.11987E+08        -0.14183E+06         0.00000E+00
   -0.14183E+06        -0.29164E+08         0.00000E+00
    0.00000E+00         0.00000E+00        -0.82304E+07
 
   -0.11869E+08        -0.13200E+06         0.00000E+00
   -0.13200E+06        -0.29153E+08         0.00000E+00
    0.00000E+00         0.00000E+00        -0.82043E+07
 
   -0.11753E+08        -0.12151E+06         0.00000E+00
   -0.12151E+06        -0.29142E+08         0.00000E+00
    0.00000E+00         0.00000E+00        -0.81790E+07
 
   -0.11640E+08        -0.11048E+06         0.00000E+00
   -0.11048E+06        -0.29132E+08         0.00000E+00
    0.00000E+00         0.00000E+00        -0.81544E+07
 
   -0.11529E+08        -0.98986E+05         0.00000E+00
   -0.98986E+05        -0.29123E+08         0.00000E+00
    0.00000E+00         0.00000E+00        -0.81304E+07
 
   -0.11420E+08        -0.87101E+05         0.00000E+00
   -0.87101E+05        -0.29115E+08         0.00000E+00
    0.00000E+00         0.00000E+00        -0.81070E+07
 
   -0.11312E+08        -0.74867E+05         0.00000E+00
   -0.74867E+05        -0.29109E+08         0.00000E+00
    0.00000E+00         0.00000E+00        -0.80841E+07
 
   -0.11205E+08        -0.62318E+05         0.00000E+00
   -0.62318E+05        -0.29103E+08         0.00000E+00
    0.00000E+00         0.00000E+00        -0.80617E+07
 
   -0.11100E+08        -0.49478E+05         0.00000E+00
   -0.49478E+05        -0.29099E+08         0.00000E+00
    0.00000E+00         0.00000E+00        -0.80399E+07
 
   -0.10995E+08        -0.36361E+05         0.00000E+00
   -0.36361E+05        -0.29097E+08         0.00000E+00
    0.00000E+00         0.00000E+00        -0.80185E+07
 
   -0.10891E+08        -0.22973E+05         0.00000E+00
   -0.22973E+05        -0.29096E+08         0.00000E+00
    0.00000E+00         0.00000E+00        -0.79975E+07
 
   -0.10788E+08        -0.93149E+04         0.00000E+00
   -0.93149E+04        -0.29097E+08         0.00000E+00
    0.00000E+00         0.00000E+00        -0.79768E+07
 
   -0.10684E+08         0.46199E+04         0.00000E+00
    0.46199E+04        -0.29099E+08         0.00000E+00
    0.00000E+00         0.00000E+00        -0.79566E+07
 
   -0.10580E+08         0.18843E+05         0.00000E+00
    0.18843E+05        -0.29103E+08         0.00000E+00
    0.00000E+00         0.00000E+00        -0.79366E+07
 
   -0.10476E+08         0.33371E+05         0.00000E+00
    0.33371E+05        -0.29109E+08         0.00000E+00
    0.00000E+00         0.00000E+00        -0.79170E+07
 
   -0.10372E+08         0.48227E+05         0.00000E+00
    0.48227E+05        -0.29116E+08         0.00000E+00
    0.00000E+00         0.00000E+00        -0.78976E+07
 
   -0.10267E+08         0.63440E+05         0.00000E+00
    0.63440E+05        -0.29126E+08         0.00000E+00
    0.00000E+00         0.00000E+00        -0.78785E+07
 
   -0.10161E+08         0.79045E+05         0.00000E+00
    0.79045E+05        -0.29137E+08         0.00000E+00
    0.00000E+00         0.00000E+00        -0.78596E+07
 
   -0.10054E+08         0.95085E+05         0.00000E+00
    0.95085E+05        -0.29150E+08         0.00000E+00
    0.00000E+00         0.00000E+00        -0.78409E+07
 
   -0.99464E+07         0.11161E+06         0.00000E+00
    0.11161E+06        -0.29166E+08         0.00000E+00
    0.00000E+00         0.00000E+00        -0.78224E+07
 
   -0.98371E+07         0.12868E+06         0.00000E+00
    0.12868E+06        -0.29183E+08         0.00000E+00
    0.00000E+00         0.00000E+00        -0.78040E+07
 
   -0.97262E+07         0.14638E+06         0.00000E+00
    0.14638E+06        -0.29203E+08         0.00000E+00
    0.00000E+00         0.00000E+00        -0.77858E+07
 
   -0.96135E+07         0.16478E+06         0.00000E+00
    0.16478E+06        -0.29225E+08         0.00000E+00
    0.00000E+00         0.00000E+00        -0.77677E+07
 
   -0.94988E+07         0.18398E+06         0.00000E+00
    0.18398E+06        -0.29249E+08         0.00000E+00
    0.00000E+00         0.00000E+00        -0.77496E+07
 
   -0.93818E+07         0.20413E+06         0.00000E+00
    0.20413E+06        -0.29276E+08         0.00000E+00
    0.00000E+00         0.00000E+00        -0.77316E+07
 
   -0.92624E+07         0.22536E+06         0.00000E+00
    0.22536E+06        -0.29306E+08         0.00000E+00
    0.00000E+00         0.00000E+00        -0.77136E+07
 
   -0.91402E+07         0.24786E+06         0.00000E+00
    0.24786E+06        -0.29338E+08         0.00000E+00
    0.00000E+00         0.00000E+00        -0.76956E+07
 
   -0.90150E+07         0.27186E+06         0.00000E+00
    0.27186E+06        -0.29373E+08         0.00000E+00
    0.00000E+00         0.00000E+00        -0.76776E+07
 
   -0.88865E+07         0.29764E+06         0.00000E+00
    0.29764E+06        -0.29411E+08         0.00000E+00
    0.00000E+00         0.00000E+00        -0.76595E+07
 
   -0.87544E+07         0.32555E+06         0.00000E+00
    0.32555E+06        -0.29453E+08         0.00000E+00
    0.00000E+00         0.00000E+00        -0.76414E+07
 
   -0.86184E+07         0.35604E+06         0.00000E+00
    0.35604E+06        -0.29498E+08         0.00000E+00
    0.00000E+00         0.00000E+00        -0.76232E+07
 
   -0.84782E+07         0.38969E+06         0.00000E+00
    0.38969E+06        -0.29546E+08         0.00000E+00
    0.00000E+00         0.00000E+00        -0.76049E+07
 
   -0.83337E+07         0.42723E+06         0.00000E+00
    0.42723E+06        -0.29599E+08         0.00000E+00
    0.00000E+00         0.00000E+00        -0.75864E+07
 
   -0.81847E+07         0.46962E+06         0.00000E+00
    0.46962E+06        -0.29655E+08         0.00000E+00
    0.00000E+00         0.00000E+00        -0.75679E+07
 
   -0.80315E+07         0.51815E+06         0.00000E+00
    0.51815E+06        -0.29716E+08         0.00000E+00
    0.00000E+00         0.00000E+00        -0.75495E+07
 
   -0.78752E+07         0.57449E+06         0.00000E+00
    0.57449E+06        -0.29781E+08         0.00000E+00
    0.00000E+00         0.00000E+00        -0.75313E+07
 
   -0.77179E+07         0.64083E+06         0.00000E+00
    0.64083E+06        -0.29851E+08         0.00000E+00
    0.00000E+00         0.00000E+00        -0.75138E+07
 
   -0.75651E+07         0.71997E+06         0.00000E+00
    0.71997E+06        -0.29925E+08         0.00000E+00
    0.00000E+00         0.00000E+00        -0.74980E+07
 
   -0.14553E+08        -0.57776E+05         0.00000E+00
   -0.57776E+05        -0.29760E+08         0.00000E+00
    0.00000E+00         0.00000E+00        -0.88626E+07
 
   -0.14279E+08        -0.73818E+05         0.00000E+00
   -0.73818E+05        -0.29740E+08         0.00000E+00
    0.00000E+00         0.00000E+00        -0.88038E+07
 
   -0.14039E+08        -0.81059E+05         0.00000E+00
   -0.81059E+05        -0.29716E+08         0.00000E+00
    0.00000E+00         0.00000E+00        -0.87511E+07
 
   -0.13826E+08        -0.83586E+05         0.00000E+00
   -0.83586E+05        -0.29689E+08         0.00000E+00
    0.00000E+00         0.00000E+00        -0.87030E+07
 
   -0.13631E+08        -0.83478E+05         0.00000E+00
   -0.83478E+05        -0.29661E+08         0.00000E+00
    0.00000E+00         0.00000E+00        -0.86584E+07
 
   -0.13453E+08        -0.81835E+05         0.00000E+00
   -0.81835E+05        -0.29632E+08         0.00000E+00
    0.00000E+00         0.00000E+00        -0.86169E+07
 
   -0.13286E+08        -0.79262E+05         0.00000E+00
   -0.79262E+05        -0.29603E+08         0.00000E+00
    0.00000E+00         0.00000E+00        -0.85779E+07
 
   -0.13130E+08        -0.76104E+05         0.00000E+00
   -0.76104E+05        -0.29575E+08         0.00000E+00
    0.00000E+00         0.00000E+00        -0.85410E+07
 
   -0.12983E+08        -0.72561E+05         0.00000E+00
   -0.72561E+05        -0.29548E+08         0.00000E+00
    0.00000E+00         0.00000E+00        -0.85061E+07
 
   -0.12842E+08        -0.68759E+05         0.00000E+00
   -0.68759E+05        -0.29522E+08         0.00000E+00
    0.00000E+00         0.00000E+00        -0.84728E+07
 
   -0.12708E+08        -0.64773E+05         0.00000E+00
   -0.64773E+05        -0.29497E+08         0.00000E+00
    0.00000E+00         0.00000E+00        -0.84409E+07
 
   -0.12579E+08        -0.60654E+05         0.00000E+00
   -0.60654E+05        -0.29473E+08         0.00000E+00
    0.00000E+00         0.00000E+00        -0.84104E+07
 
   -0.12455E+08        -0.56433E+05         0.00000E+00
   -0.56433E+05        -0.29451E+08         0.00000E+00
    0.00000E+00         0.00000E+00        -0.83811E+07
 
   -0.12334E+08        -0.52133E+05         0.00000E+00
   -0.52133E+05        -0.29430E+08         0.00000E+00
    0.00000E+00         0.00000E+00        -0.83528E+07
 
   -0.12217E+08        -0.47768E+05         0.00000E+00
   -0.47768E+05        -0.29411E+08         0.00000E+00
    0.00000E+00         0.00000E+00        -0.83255E+07
 
   -0.12102E+08        -0.43348E+05         0.00000E+00
   -0.43348E+05        -0.29394E+08         0.00000E+00
    0.00000E+00         0.00000E+00        -0.82991E+07
 
   -0.11990E+08        -0.38879E+05         0.00000E+00
   -0.38879E+05        -0.29378E+08         0.00000E+00
    0.00000E+00         0.00000E+00        -0.82736E+07
 
   -0.11879E+08        -0.34364E+05         0.00000E+00
   -0.34364E+05        -0.29364E+08         0.00000E+00
    0.00000E+00         0.00000E+00        -0.82487E+07
 
   -0.11771E+08        -0.29805E+05         0.00000E+00
   -0.29805E+05        -0.29352E+08         0.00000E+00
    0.00000E+00         0.00000E+00        -0.82245E+07
 
   -0.11663E+08        -0.25201E+05         0.00000E+00
   -0.25201E+05        -0.29342E+08         0.00000E+00
    0.00000E+00         0.00000E+00        -0.82010E+07
 
   -0.11557E+08        -0.20551E+05         0.00000E+00
   -0.20551E+05        -0.29333E+08         0.00000E+00
    0.00000E+00         0.00000E+00        -0.81780E+07
 
   -0.11452E+08        -0.15851E+05         0.00000E+00
   -0.15851E+05        -0.29326E+08         0.00000E+00
    0.00000E+00         0.00000E+00        -0.81555E+07
 
   -0.11347E+08        -0.11099E+05         0.00000E+00
   -0.11099E+05        -0.29321E+08         0.00000E+00
    0.00000E+00         0.00000E+00        -0.81336E+07
 
   -0.11242E+08        -0.62888E+04         0.00000E+00
   -0.62888E+04        -0.29318E+08         0.00000E+00
    0.00000E+00         0.00000E+00        -0.81120E+07
 
   -0.11138E+08        -0.14138E+04         0.00000E+00
   -0.14138E+04        -0.29317E+08         0.00000E+00
    0.00000E+00         0.00000E+00        -0.80909E+07
 
   -0.11033E+08         0.35333E+04         0.00000E+00
    0.35333E+04        -0.29317E+08         0.00000E+00
    0.00000E+00         0.00000E+00        -0.80701E+07
 
   -0.10928E+08         0.85614E+04         0.00000E+00
    0.85614E+04        -0.29320E+08         0.00000E+00
    0.00000E+00         0.00000E+00        -0.80497E+07
 
   -0.10823E+08         0.13681E+05         0.00000E+00
    0.13681E+05        -0.29325E+08         0.00000E+00
    0.00000E+00         0.00000E+00        -0.80295E+07
 
   -0.10716E+08         0.18904E+05         0.00000E+00
    0.18904E+05        -0.29332E+08         0.00000E+00
    0.00000E+00         0.00000E+00        -0.80096E+07
 
   -0.10609E+08         0.24244E+05         0.00000E+00
    0.24244E+05        -0.29341E+08         0.00000E+00
    0.00000E+00         0.00000E+00        -0.79900E+07
 
   -0.10501E+08         0.29717E+05         0.00000E+00
    0.29717E+05        -0.29352E+08         0.00000E+00
    0.00000E+00         0.00000E+00        -0.79705E+07
 
   -0.10391E+08         0.35344E+05         0.00000E+00
    0.35344E+05        -0.29365E+08         0.00000E+00
    0.00000E+00         0.00000E+00        -0.79512E+07
 
   -0.10280E+08         0.41146E+05         0.00000E+00
    0.41146E+05        -0.29380E+08         0.00000E+00
    0.00000E+00         0.00000E+00        -0.79320E+07
 
   -0.10167E+08         0.47151E+05         0.00000E+00
    0.47151E+05        -0.29398E+08         0.00000E+00
    0.00000E+00         0.00000E+00        -0.79130E+07
 
   -0.10052E+08         0.53390E+05         0.00000E+00
    0.53390E+05        -0.29418E+08         0.00000E+00
    0.00000E+00         0.00000E+00        -0.78940E+07
 
   -0.99338E+07         0.59901E+05         0.00000E+00
    0.59901E+05        -0.29441E+08         0.00000E+00
    0.00000E+00         0.00000E+00        -0.78750E+07
 
   -0.98134E+07         0.66733E+05         0.00000E+00
    0.66733E+05        -0.29466E+08         0.00000E+00
    0.00000E+00         0.00000E+00        -0.78560E+07
 
   -0.96899E+07         0.73944E+05         0.00000E+00
    0.73944E+05        -0.29495E+08         0.00000E+00
    0.00000E+00         0.00000E+00        -0.78369E+07
 
   -0.95629E+07         0.81605E+05         0.00000E+00
    0.81605E+05        -0.29526E+08         0.00000E+00
    0.00000E+00         0.00000E+00        -0.78177E+07
 
   -0.94319E+07         0.89809E+05         0.00000E+00
    0.89809E+05        -0.29560E+08         0.00000E+00
    0.00000E+00         0.00000E+00        -0.77984E+07
 
   -0.92964E+07         0.98675E+05         0.00000E+00
    0.98675E+05        -0.29598E+08         0.00000E+00
    0.00000E+00         0.00000E+00        -0.77788E+07
 
   -0.91557E+07         0.10836E+06         0.00000E+00
    0.10836E+06        -0.29639E+08         0.00000E+00
    0.00000E+00         0.00000E+00        -0.77590E+07
 
   -0.90091E+07         0.11907E+06         0.00000E+00
    0.11907E+06        -0.29684E+08         0.00000E+00
    0.00000E+00         0.00000E+00        -0.77387E+07
 
   -0.88556E+07         0.13109E+06         0.00000E+00
    0.13109E+06        -0.29734E+08         0.00000E+00
    0.00000E+00         0.00000E+00        -0.77179E+07
 
   -0.86940E+07         0.14482E+06         0.00000E+00
    0.14482E+06        -0.29789E+08         0.00000E+00
    0.00000E+00         0.00000E+00        -0.76965E+07
 
   -0.85226E+07         0.16086E+06         0.00000E+00
    0.16086E+06        -0.29849E+08         0.00000E+00
    0.00000E+00         0.00000E+00        -0.76743E+07
 
   -0.83395E+07         0.18009E+06         0.00000E+00
    0.18009E+06        -0.29916E+08         0.00000E+00
    0.00000E+00         0.00000E+00        -0.76510E+07
 
   -0.81417E+07         0.20391E+06         0.00000E+00
    0.20391E+06        -0.29990E+08         0.00000E+00
    0.00000E+00         0.00000E+00        -0.76263E+07
 
   -0.79250E+07         0.23466E+06         0.00000E+00
    0.23466E+06        -0.30073E+08         0.00000E+00
    0.00000E+00         0.00000E+00        -0.75997E+07
 
   -0.76831E+07         0.27644E+06         0.00000E+00
    0.27644E+06        -0.30168E+08         0.00000E+00
    0.00000E+00         0.00000E+00        -0.75703E+07
 
TENSORS stresstot double 
   -0.56240E+08        -0.80334E+05         0.00000E+00
   -0.80334E+05        -0.49987E+08         0.00000E+00
    0.00000E+00         0.00000E+00        -0.62066E+08
 
   -0.56711E+08        -0.12241E+06         0.00000E+00
   -0.12241E+06        -0.50022E+08         0.00000E+00
    0.00000E+00         0.00000E+00        -0.62180E+08
 
   -0.57119E+08        -0.14506E+06         0.00000E+00
   -0.14506E+06        -0.50069E+08         0.00000E+00
    0.00000E+00         0.00000E+00        -0.62287E+08
 
   -0.57474E+08        -0.15575E+06         0.00000E+00
   -0.15575E+06        -0.50123E+08         0.00000E+00
    0.00000E+00         0.00000E+00        -0.62391E+08
 
   -0.57787E+08        -0.15914E+06         0.00000E+00
   -0.15914E+06        -0.50181E+08         0.00000E+00
    0.00000E+00         0.00000E+00        -0.62491E+08
 
   -0.58066E+08        -0.15810E+06         0.00000E+00
   -0.15810E+06        -0.50240E+08         0.00000E+00
    0.00000E+00         0.00000E+00        -0.62587E+08
 
   -0.58319E+08        -0.15437E+06         0.00000E+00
   -0.15437E+06        -0.50298E+08         0.00000E+00
    0.00000E+00         0.00000E+00        -0.62678E+08
 
   -0.58550E+08        -0.14886E+06         0.00000E+00
   -0.14886E+06        -0.50356E+08         0.00000E+00
    0.00000E+00         0.00000E+00        -0.62766E+08
 
   -0.58763E+08        -0.14258E+06         0.00000E+00
   -0.14258E+06        -0.50412E+08         0.00000E+00
    0.00000E+00         0.00000E+00        -0.62849E+08
 
   -0.58965E+08        -0.13584E+06         0.00000E+00
   -0.13584E+06        -0.50465E+08         0.00000E+00
    0.00000E+00         0.00000E+00        -0.62926E+08
 
   -0.59153E+08        -0.12862E+06         0.00000E+00
   -0.12862E+06        -0.50516E+08         0.00000E+00
    0.00000E+00         0.00000E+00        -0.62998E+08
 
   -0.59332E+08        -0.12102E+06         0.00000E+00
   -0.12102E+06        -0.50565E+08         0.00000E+00
    0.00000E+00         0.00000E+00        -0.63065E+08
 
   -0.59501E+08        -0.11316E+06         0.00000E+00
   -0.11316E+06        -0.50611E+08         0.00000E+00
    0.00000E+00         0.00000E+00        -0.63126E+08
 
   -0.59661E+08        -0.10523E+06         0.00000E+00
   -0.10523E+06        -0.50653E+08         0.00000E+00
    0.00000E+00         0.00000E+00        -0.63182E+08
 
   -0.59815E+08        -0.97315E+05         0.00000E+00
   -0.97315E+05        -0.50693E+08         0.00000E+00
    0.00000E+00         0.00000E+00        -0.63231E+08
 
   -0.59963E+08        -0.89350E+05         0.00000E+00
   -0.89350E+05        -0.50730E+08         0.00000E+00
    0.00000E+00         0.00000E+00        -0.63274E+08
 
   -0.60104E+08        -0.81425E+05         0.00000E+00
   -0.81425E+05        -0.50763E+08         0.00000E+00
    0.00000E+00         0.00000E+00        -0.63310E+08
 
   -0.60239E+08        -0.73537E+05         0.00000E+00
   -0.73537E+05        -0.50794E+08         0.00000E+00
    0.00000E+00         0.00000E+00        -0.63341E+08
 
   -0.60368E+08        -0.65725E+05         0.00000E+00
   -0.65725E+05        -0.50822E+08         0.00000E+00
    0.00000E+00         0.00000E+00        -0.63365E+08
 
   -0.60490E+08        -0.58165E+05         0.00000E+00
   -0.58165E+05        -0.50846E+08         0.00000E+00
    0.00000E+00         0.00000E+00        -0.63382E+08
 
   -0.60607E+08        -0.50872E+05         0.00000E+00
   -0.50872E+05        -0.50868E+08         0.00000E+00
    0.00000E+00         0.00000E+00        -0.63394E+08
 
   -0.60717E+08        -0.43851E+05         0.00000E+00
   -0.43851E+05        -0.50887E+08         0.00000E+00
    0.00000E+00         0.00000E+00        -0.63400E+08
 
   -0.60821E+08        -0.37142E+05         0.00000E+00
   -0.37142E+05        -0.50903E+08         0.00000E+00
    0.00000E+00         0.00000E+00        -0.63401E+08
 
   -0.60918E+08        -0.30798E+05         0.00000E+00
   -0.30798E+05        -0.50916E+08         0.00000E+00
    0.00000E+00         0.00000E+00        -0.63398E+08
 
   -0.61009E+08        -0.24855E+05         0.00000E+00
   -0.24855E+05        -0.50927E+08         0.00000E+00
    0.00000E+00         0.00000E+00        -0.63389E+08
 
   -0.61094E+08        -0.19321E+05         0.00000E+00
   -0.19321E+05        -0.50936E+08         0.00000E+00
    0.00000E+00         0.00000E+00        -0.63377E+08
 
   -0.61174E+08        -0.14189E+05         0.00000E+00
   -0.14189E+05        -0.50942E+08         0.00000E+00
    0.00000E+00         0.00000E+00        -0.63361E+08
 
   -0.61247E+08        -0.94145E+04         0.00000E+00
   -0.94145E+04        -0.50947E+08         0.00000E+00
    0.00000E+00         0.00000E+00        -0.63342E+08
 
   -0.61315E+08        -0.49566E+04         0.00000E+00
   -0.49566E+04        -0.50949E+08         0.00000E+00
    0.00000E+00         0.00000E+00        -0.63320E+08
 
   -0.61378E+08        -0.77824E+03         0.00000E+00
   -0.77824E+03        -0.50950E+08         0.00000E+00
    0.00000E+00         0.00000E+00        -0.63296E+08
 
   -0.61435E+08         0.31568E+04         0.00000E+00
    0.31568E+04        -0.50949E+08         0.00000E+00
    0.00000E+00         0.00000E+00        -0.63269E+08
 
   -0.61488E+08         0.68861E+04         0.00000E+00
    0.68861E+04        -0.50947E+08         0.00000E+00
    0.00000E+00         0.00000E+00        -0.63240E+08
 
   -0.61537E+08         0.10437E+05         0.00000E+00
    0.10437E+05        -0.50943E+08         0.00000E+00
    0.00000E+00         0.00000E+00        -0.63209E+08
 
   -0.61583E+08         0.13801E+05         0.00000E+00
    0.13801E+05        -0.50938E+08         0.00000E+00
    0.00000E+00         0.00000E+00        -0.63176E+08
 
   -0.61627E+08         0.17176E+05         0.00000E+00
    0.17176E+05        -0.50932E+08         0.00000E+00
    0.00000E+00         0.00000E+00        -0.63140E+08
 
   -0.61670E+08         0.20567E+05         0.00000E+00
    0.20567E+05        -0.50924E+08         0.00000E+00
    0.00000E+00         0.00000E+00        -0.63100E+08
 
   -0.61711E+08         0.24225E+05         0.00000E+00
    0.24225E+05        -0.50915E+08         0.00000E+00
    0.00000E+00         0.00000E+00        -0.63057E+08
 
   -0.61748E+08         0.28020E+05         0.00000E+00
    0.28020E+05        -0.50904E+08         0.00000E+00
    0.00000E+00         0.00000E+00        -0.63012E+08
 
   -0.61784E+08         0.31778E+05         0.00000E+00
    0.31778E+05        -0.50892E+08         0.00000E+00
    0.00000E+00         0.00000E+00        -0.62963E+08
 
   -0.61817E+08         0.35818E+05         0.00000E+00
    0.35818E+05        -0.50878E+08         0.00000E+00
    0.00000E+00         0.00000E+00        -0.62911E+08
 
   -0.61848E+08         0.40201E+05         0.00000E+00
    0.40201E+05        -0.50862E+08         0.00000E+00
    0.00000E+00         0.00000E+00        -0.62855E+08
 
   -0.61877E+08         0.45011E+05         0.00000E+00
    0.45011E+05        -0.50845E+08         0.00000E+00
    0.00000E+00         0.00000E+00        -0.62796E+08
 
   -0.61905E+08         0.50403E+05         0.00000E+00
    0.50403E+05        -0.50825E+08         0.00000E+00
    0.00000E+00         0.00000E+00        -0.62731E+08
 
   -0.61933E+08         0.56635E+05         0.00000E+00
    0.56635E+05        -0.50804E+08         0.00000E+00
    0.00000E+00         0.00000E+00        -0.62658E+08
 
   -0.61959E+08         0.63914E+05         0.00000E+00
    0.63914E+05        -0.50780E+08         0.00000E+00
    0.00000E+00         0.00000E+00        -0.62580E+08
 
   -0.61982E+08         0.72554E+05         0.00000E+00
    0.72554E+05        -0.50753E+08         0.00000E+00
    0.00000E+00         0.00000E+00        -0.62495E+08
 
   -0.62001E+08         0.82941E+05         0.00000E+00
    0.82941E+05        -0.50723E+08         0.00000E+00
    0.00000E+00         0.00000E+00        -0.62403E+08
 
   -0.62016E+08         0.95635E+05         0.00000E+00
    0.95635E+05        -0.50690E+08         0.00000E+00
    0.00000E+00         0.00000E+00        -0.62303E+08
 
   -0.62023E+08         0.11158E+06         0.00000E+00
    0.11158E+06        -0.50653E+08         0.00000E+00
    0.00000E+00         0.00000E+00        -0.62194E+08
 
   -0.62024E+08         0.13292E+06         0.00000E+00
    0.13292E+06        -0.50613E+08         0.00000E+00
    0.00000E+00         0.00000E+00        -0.62078E+08
 
   -0.56781E+08        -0.11114E+06         0.00000E+00
   -0.11114E+06        -0.50021E+08         0.00000E+00
    0.00000E+00         0.00000E+00        -0.62497E+08
 
   -0.57059E+08        -0.21950E+06         0.00000E+00
   -0.21950E+06        -0.50020E+08         0.00000E+00
    0.00000E+00         0.00000E+00        -0.62515E+08
 
   -0.57334E+08        -0.29081E+06         0.00000E+00
   -0.29081E+06        -0.50026E+08         0.00000E+00
    0.00000E+00         0.00000E+00        -0.62536E+08
 
   -0.57599E+08        -0.33578E+06         0.00000E+00
   -0.33578E+06        -0.50040E+08         0.00000E+00
    0.00000E+00         0.00000E+00        -0.62563E+08
 
   -0.57851E+08        -0.36198E+06         0.00000E+00
   -0.36198E+06        -0.50060E+08         0.00000E+00
    0.00000E+00         0.00000E+00        -0.62594E+08
 
   -0.58090E+08        -0.37499E+06         0.00000E+00
   -0.37499E+06        -0.50085E+08         0.00000E+00
    0.00000E+00         0.00000E+00        -0.62630E+08
 
   -0.58315E+08        -0.37906E+06         0.00000E+00
   -0.37906E+06        -0.50115E+08         0.00000E+00
    0.00000E+00         0.00000E+00        -0.62670E+08
 
   -0.58527E+08        -0.37735E+06         0.00000E+00
   -0.37735E+06        -0.50147E+08         0.00000E+00
    0.00000E+00         0.00000E+00        -0.62712E+08
 
   -0.58728E+08        -0.37066E+06         0.00000E+00
   -0.37066E+06        -0.50182E+08         0.00000E+00
    0.00000E+00         0.00000E+00        -0.62758E+08
 
   -0.58918E+08        -0.35955E+06         0.00000E+00
   -0.35955E+06        -0.50218E+08         0.00000E+00
    0.00000E+00         0.00000E+00        -0.62803E+08
 
   -0.59098E+08        -0.34542E+06         0.00000E+00
   -0.34542E+06        -0.50254E+08         0.00000E+00
    0.00000E+00         0.00000E+00        -0.62848E+08
 
   -0.59271E+08        -0.32935E+06         0.00000E+00
   -0.32935E+06        -0.50289E+08         0.00000E+00
    0.00000E+00         0.00000E+00        -0.62891E+08
 
   -0.59437E+08        -0.31204E+06         0.00000E+00
   -0.31204E+06        -0.50324E+08         0.00000E+00
    0.00000E+00         0.00000E+00        -0.62932E+08
 
   -0.59595E+08        -0.29381E+06         0.00000E+00
   -0.29381E+06        -0.50358E+08         0.00000E+00
    0.00000E+00         0.00000E+00        -0.62971E+08
 
   -0.59747E+08        -0.27479E+06         0.00000E+00
   -0.27479E+06        -0.50391E+08         0.00000E+00
    0.00000E+00         0.00000E+00        -0.63006E+08
 
   -0.59893E+08        -0.25508E+06         0.00000E+00
   -0.25508E+06        -0.50423E+08         0.00000E+00
    0.00000E+00         0.00000E+00        -0.63039E+08
 
   -0.60033E+08        -0.23458E+06         0.00000E+00
   -0.23458E+06        -0.50452E+08         0.00000E+00
    0.00000E+00         0.00000E+00        -0.63067E+08
 
   -0.60168E+08        -0.21377E+06         0.00000E+00
   -0.21377E+06        -0.50480E+08         0.00000E+00
    0.00000E+00         0.00000E+00        -0.63091E+08
 
   -0.60297E+08        -0.19305E+06         0.00000E+00
   -0.19305E+06        -0.50506E+08         0.00000E+00
    0.00000E+00         0.00000E+00        -0.63111E+08
 
   -0.60421E+08        -0.17231E+06         0.00000E+00
   -0.17231E+06        -0.50530E+08         0.00000E+00
    0.00000E+00         0.00000E+00        -0.63126E+08
 
   -0.60539E+08        -0.15176E+06         0.00000E+00
   -0.15176E+06        -0.50551E+08         0.00000E+00
    0.00000E+00         0.00000E+00        -0.63135E+08
 
   -0.60651E+08        -0.13164E+06         0.00000E+00
   -0.13164E+06        -0.50570E+08         0.00000E+00
    0.00000E+00         0.00000E+00        -0.63139E+08
 
   -0.60757E+08        -0.11217E+06         0.00000E+00
   -0.11217E+06        -0.50586E+08         0.00000E+00
    0.00000E+00         0.00000E+00        -0.63138E+08
 
   -0.60858E+08        -0.93569E+05         0.00000E+00
   -0.93569E+05        -0.50600E+08         0.00000E+00
    0.00000E+00         0.00000E+00        -0.63133E+08
 
   -0.60953E+08        -0.76019E+05         0.00000E+00
   -0.76019E+05        -0.50612E+08         0.00000E+00
    0.00000E+00         0.00000E+00        -0.63123E+08
 
   -0.61042E+08        -0.59568E+05         0.00000E+00
   -0.59568E+05        -0.50621E+08         0.00000E+00
    0.00000E+00         0.00000E+00        -0.63109E+08
 
   -0.61124E+08        -0.44159E+05         0.00000E+00
   -0.44159E+05        -0.50629E+08         0.00000E+00
    0.00000E+00         0.00000E+00        -0.63091E+08
 
   -0.61201E+08        -0.29791E+05         0.00000E+00
   -0.29791E+05        -0.50634E+08         0.00000E+00
    0.00000E+00         0.00000E+00        -0.63069E+08
 
   -0.61272E+08        -0.16429E+05         0.00000E+00
   -0.16429E+05        -0.50637E+08         0.00000E+00
    0.00000E+00         0.00000E+00        -0.63045E+08
 
   -0.61337E+08        -0.39403E+04         0.00000E+00
   -0.39403E+04        -0.50639E+08         0.00000E+00
    0.00000E+00         0.00000E+00        -0.63018E+08
 
   -0.61397E+08         0.78509E+04         0.00000E+00
    0.78509E+04        -0.50639E+08         0.00000E+00
    0.00000E+00         0.00000E+00        -0.62989E+08
 
   -0.61452E+08         0.19034E+05         0.00000E+00
    0.19034E+05        -0.50637E+08         0.00000E+00
    0.00000E+00         0.00000E+00        -0.62958E+08
 
   -0.61503E+08         0.29714E+05         0.00000E+00
    0.29714E+05        -0.50634E+08         0.00000E+00
    0.00000E+00         0.00000E+00        -0.62925E+08
 
   -0.61549E+08         0.40078E+05         0.00000E+00
    0.40078E+05        -0.50629E+08         0.00000E+00
    0.00000E+00         0.00000E+00        -0.62890E+08
 
   -0.61592E+08         0.50391E+05         0.00000E+00
    0.50391E+05        -0.50623E+08         0.00000E+00
    0.00000E+00         0.00000E+00        -0.62853E+08
 
   -0.61634E+08         0.61007E+05         0.00000E+00
    0.61007E+05        -0.50616E+08         0.00000E+00
    0.00000E+00         0.00000E+00        -0.62813E+08
 
   -0.61673E+08         0.71919E+05         0.00000E+00
    0.71919E+05        -0.50607E+08         0.00000E+00
    0.00000E+00         0.00000E+00        -0.62769E+08
 
   -0.61710E+08         0.83134E+05         0.00000E+00
    0.83134E+05        -0.50597E+08         0.00000E+00
    0.00000E+00         0.00000E+00        -0.62722E+08
 
   -0.61743E+08         0.95027E+05         0.00000E+00
    0.95027E+05        -0.50585E+08         0.00000E+00
    0.00000E+00         0.00000E+00        -0.62673E+08
 
   -0.61773E+08         0.10761E+06         0.00000E+00
    0.10761E+06        -0.50572E+08         0.00000E+00
    0.00000E+00         0.00000E+00        -0.62620E+08
 
   -0.61801E+08         0.12104E+06         0.00000E+00
    0.12104E+06        -0.50556E+08         0.00000E+00
    0.00000E+00         0.00000E+00        -0.62564E+08
 
   -0.61824E+08         0.13574E+06         0.00000E+00
    0.13574E+06        -0.50539E+08         0.00000E+00
    0.00000E+00         0.00000E+00        -0.62504E+08
 
   -0.61845E+08         0.15218E+06         0.00000E+00
    0.15218E+06        -0.50520E+08         0.00000E+00
    0.00000E+00         0.00000E+00        -0.62441E+08
 
   -0.61864E+08         0.17080E+06         0.00000E+00
    0.17080E+06        -0.50499E+08         0.00000E+00
    0.00000E+00         0.00000E+00        -0.62372E+08
 
   -0.61878E+08         0.19232E+06         0.00000E+00
    0.19232E+06        -0.50475E+08         0.00000E+00
    0.00000E+00         0.00000E+00        -0.62298E+08
 
   -0.61887E+08         0.21709E+06         0.00000E+00
    0.21709E+06        -0.50449E+08         0.00000E+00
    0.00000E+00         0.00000E+00        -0.62220E+08
 
   -0.61890E+08         0.24554E+06         0.00000E+00
    0.24554E+06        -0.50420E+08         0.00000E+00
    0.00000E+00         0.00000E+00        -0.62137E+08
 
   -0.61883E+08         0.27824E+06         0.00000E+00
    0.27824E+06        -0.50387E+08         0.00000E+00
    0.00000E+00         0.00000E+00        -0.62050E+08
 
   -0.61864E+08         0.31564E+06         0.00000E+00
    0.31564E+06        -0.50350E+08         0.00000E+00
    0.00000E+00         0.00000E+00        -0.61955E+08
 
   -0.61826E+08         0.35727E+06         0.00000E+00
    0.35727E+06        -0.50306E+08         0.00000E+00
    0.00000E+00         0.00000E+00        -0.61854E+08
 
   -0.57457E+08        -0.87600E+05         0.00000E+00
   -0.87600E+05        -0.49967E+08         0.00000E+00
    0.00000E+00         0.00000E+00        -0.62701E+08
 
   -0.57569E+08        -0.20406E+06         0.00000E+00
   -0.20406E+06        -0.49956E+08         0.00000E+00
    0.00000E+00         0.00000E+00        -0.62704E+08
 
   -0.57706E+08        -0.29834E+06         0.00000E+00
   -0.29834E+06        -0.49944E+08         0.00000E+00
    0.00000E+00         0.00000E+00        -0.62707E+08
 
   -0.57861E+08        -0.37116E+06         0.00000E+00
   -0.37116E+06        -0.49937E+08         0.00000E+00
    0.00000E+00         0.00000E+00        -0.62710E+08
 
   -0.58025E+08        -0.42469E+06         0.00000E+00
   -0.42469E+06        -0.49942E+08         0.00000E+00
    0.00000E+00         0.00000E+00        -0.62706E+08
 
   -0.58194E+08        -0.46166E+06         0.00000E+00
   -0.46166E+06        -0.49951E+08         0.00000E+00
    0.00000E+00         0.00000E+00        -0.62709E+08
 
   -0.58367E+08        -0.48432E+06         0.00000E+00
   -0.48432E+06        -0.49965E+08         0.00000E+00
    0.00000E+00         0.00000E+00        -0.62719E+08
 
   -0.58541E+08        -0.49497E+06         0.00000E+00
   -0.49497E+06        -0.49982E+08         0.00000E+00
    0.00000E+00         0.00000E+00        -0.62733E+08
 
   -0.58709E+08        -0.49752E+06         0.00000E+00
   -0.49752E+06        -0.49995E+08         0.00000E+00
    0.00000E+00         0.00000E+00        -0.62740E+08
 
   -0.58874E+08        -0.49414E+06         0.00000E+00
   -0.49414E+06        -0.50012E+08         0.00000E+00
    0.00000E+00         0.00000E+00        -0.62752E+08
 
   -0.59036E+08        -0.48571E+06         0.00000E+00
   -0.48571E+06        -0.50033E+08         0.00000E+00
    0.00000E+00         0.00000E+00        -0.62768E+08
 
   -0.59194E+08        -0.47288E+06         0.00000E+00
   -0.47288E+06        -0.50055E+08         0.00000E+00
    0.00000E+00         0.00000E+00        -0.62788E+08
 
   -0.59348E+08        -0.45630E+06         0.00000E+00
   -0.45630E+06        -0.50079E+08         0.00000E+00
    0.00000E+00         0.00000E+00        -0.62810E+08
 
   -0.59496E+08        -0.43658E+06         0.00000E+00
   -0.43658E+06        -0.50103E+08         0.00000E+00
    0.00000E+00         0.00000E+00        -0.62830E+08
 
   -0.59641E+08        -0.41409E+06         0.00000E+00
   -0.41409E+06        -0.50126E+08         0.00000E+00
    0.00000E+00         0.00000E+00        -0.62851E+08
 
   -0.59780E+08        -0.38963E+06         0.00000E+00
   -0.38963E+06        -0.50150E+08         0.00000E+00
    0.00000E+00         0.00000E+00        -0.62870E+08
 
   -0.59915E+08        -0.36412E+06         0.00000E+00
   -0.36412E+06        -0.50173E+08         0.00000E+00
    0.00000E+00         0.00000E+00        -0.62887E+08
 
   -0.60045E+08        -0.33694E+06         0.00000E+00
   -0.33694E+06        -0.50196E+08         0.00000E+00
    0.00000E+00         0.00000E+00        -0.62904E+08
 
   -0.60172E+08        -0.30767E+06         0.00000E+00
   -0.30767E+06        -0.50218E+08         0.00000E+00
    0.00000E+00         0.00000E+00        -0.62917E+08
 
   -0.60294E+08        -0.27734E+06         0.00000E+00
   -0.27734E+06        -0.50238E+08         0.00000E+00
    0.00000E+00         0.00000E+00        -0.62927E+08
 
   -0.60412E+08        -0.24664E+06         0.00000E+00
   -0.24664E+06        -0.50257E+08         0.00000E+00
    0.00000E+00         0.00000E+00        -0.62933E+08
 
   -0.60527E+08        -0.21614E+06         0.00000E+00
   -0.21614E+06        -0.50274E+08         0.00000E+00
    0.00000E+00         0.00000E+00        -0.62934E+08
 
   -0.60637E+08        -0.18619E+06         0.00000E+00
   -0.18619E+06        -0.50290E+08         0.00000E+00
    0.00000E+00         0.00000E+00        -0.62931E+08
 
   -0.60742E+08        -0.15695E+06         0.00000E+00
   -0.15695E+06        -0.50304E+08         0.00000E+00
    0.00000E+00         0.00000E+00        -0.62923E+08
 
   -0.60842E+08        -0.12845E+06         0.00000E+00
   -0.12845E+06        -0.50316E+08         0.00000E+00
    0.00000E+00         0.00000E+00        -0.62911E+08
 
   -0.60936E+08        -0.10103E+06         0.00000E+00
   -0.10103E+06        -0.50325E+08         0.00000E+00
    0.00000E+00         0.00000E+00        -0.62894E+08
 
   -0.61025E+08        -0.75216E+05         0.00000E+00
   -0.75216E+05        -0.50333E+08         0.00000E+00
    0.00000E+00         0.00000E+00        -0.62873E+08
 
   -0.61108E+08        -0.50985E+05         0.00000E+00
   -0.50985E+05        -0.50338E+08         0.00000E+00
    0.00000E+00         0.00000E+00        -0.62848E+08
 
   -0.61185E+08        -0.28107E+05         0.00000E+00
   -0.28107E+05        -0.50341E+08         0.00000E+00
    0.00000E+00         0.00000E+00        -0.62819E+08
 
   -0.61255E+08        -0.65417E+04         0.00000E+00
   -0.65417E+04        -0.50342E+08         0.00000E+00
    0.00000E+00         0.00000E+00        -0.62786E+08
 
   -0.61319E+08         0.13643E+05         0.00000E+00
    0.13643E+05        -0.50341E+08         0.00000E+00
    0.00000E+00         0.00000E+00        -0.62751E+08
 
   -0.61378E+08         0.32720E+05         0.00000E+00
    0.32720E+05        -0.50338E+08         0.00000E+00
    0.00000E+00         0.00000E+00        -0.62713E+08
 
   -0.61431E+08         0.51056E+05         0.00000E+00
    0.51056E+05        -0.50334E+08         0.00000E+00
    0.00000E+00         0.00000E+00        -0.62673E+08
 
   -0.61479E+08         0.68810E+05         0.00000E+00
    0.68810E+05        -0.50328E+08         0.00000E+00
    0.00000E+00         0.00000E+00        -0.62631E+08
 
   -0.61522E+08         0.86306E+05         0.00000E+00
    0.86306E+05        -0.50321E+08         0.00000E+00
    0.00000E+00         0.00000E+00        -0.62587E+08
 
   -0.61562E+08         0.10405E+06         0.00000E+00
    0.10405E+06        -0.50312E+08         0.00000E+00
    0.00000E+00         0.00000E+00        -0.62541E+08
 
   -0.61597E+08         0.12249E+06         0.00000E+00
    0.12249E+06        -0.50302E+08         0.00000E+00
    0.00000E+00         0.00000E+00        -0.62493E+08
 
   -0.61629E+08         0.14192E+06         0.00000E+00
    0.14192E+06        -0.50290E+08         0.00000E+00
    0.00000E+00         0.00000E+00        -0.62442E+08
 
   -0.61658E+08         0.16233E+06         0.00000E+00
    0.16233E+06        -0.50277E+08         0.00000E+00
    0.00000E+00         0.00000E+00        -0.62388E+08
 
   -0.61683E+08         0.18392E+06         0.00000E+00
    0.18392E+06        -0.50261E+08         0.00000E+00
    0.00000E+00         0.00000E+00        -0.62330E+08
 
   -0.61704E+08         0.20712E+06         0.00000E+00
    0.20712E+06        -0.50245E+08         0.00000E+00
    0.00000E+00         0.00000E+00        -0.62271E+08
 
   -0.61719E+08         0.23221E+06         0.00000E+00
    0.23221E+06        -0.50226E+08         0.00000E+00
    0.00000E+00         0.00000E+00        -0.62209E+08
 
   -0.61728E+08         0.25913E+06         0.00000E+00
    0.25913E+06        -0.50205E+08         0.00000E+00
    0.00000E+00         0.00000E+00        -0.62145E+08
 
   -0.61732E+08         0.28870E+06         0.00000E+00
    0.28870E+06        -0.50182E+08         0.00000E+00
    0.00000E+00         0.00000E+00        -0.62077E+08
 
   -0.61731E+08         0.32101E+06         0.00000E+00
    0.32101E+06        -0.50157E+08         0.00000E+00
    0.00000E+00         0.00000E+00        -0.62006E+08
 
   -0.61724E+08         0.35635E+06         0.00000E+00
    0.35635E+06        -0.50131E+08         0.00000E+00
    0.00000E+00         0.00000E+00        -0.61934E+08
 
   -0.61709E+08         0.39494E+06         0.00000E+00
    0.39494E+06        -0.50103E+08         0.00000E+00
    0.00000E+00         0.00000E+00        -0.61863E+08
 
   -0.61688E+08         0.43622E+06         0.00000E+00
    0.43622E+06        -0.50073E+08         0.00000E+00
    0.00000E+00         0.00000E+00        -0.61791E+08
 
   -0.61661E+08         0.47827E+06         0.00000E+00
    0.47827E+06        -0.50043E+08         0.00000E+00
    0.00000E+00         0.00000E+00        -0.61719E+08
 
   -0.61632E+08         0.51913E+06         0.00000E+00
    0.51913E+06        -0.50014E+08         0.00000E+00
    0.00000E+00         0.00000E+00        -0.61651E+08
 
   -0.57984E+08        -0.35981E+05         0.00000E+00
   -0.35981E+05        -0.50015E+08         0.00000E+00
    0.00000E+00         0.00000E+00        -0.62552E+08
 
   -0.58043E+08        -0.12373E+06         0.00000E+00
   -0.12373E+06        -0.50007E+08         0.00000E+00
    0.00000E+00         0.00000E+00        -0.62563E+08
 
   -0.58117E+08        -0.20715E+06         0.00000E+00
   -0.20715E+06        -0.49994E+08         0.00000E+00
    0.00000E+00         0.00000E+00        -0.62575E+08
 
   -0.58204E+08        -0.28384E+06         0.00000E+00
   -0.28384E+06        -0.49974E+08         0.00000E+00
    0.00000E+00         0.00000E+00        -0.62588E+08
 
   -0.58301E+08        -0.35198E+06         0.00000E+00
   -0.35198E+06        -0.49945E+08         0.00000E+00
    0.00000E+00         0.00000E+00        -0.62602E+08
 
   -0.58409E+08        -0.41036E+06         0.00000E+00
   -0.41036E+06        -0.49916E+08         0.00000E+00
    0.00000E+00         0.00000E+00        -0.62618E+08
 
   -0.58524E+08        -0.45901E+06         0.00000E+00
   -0.45901E+06        -0.49891E+08         0.00000E+00
    0.00000E+00         0.00000E+00        -0.62636E+08
 
   -0.58645E+08        -0.49808E+06         0.00000E+00
   -0.49808E+06        -0.49869E+08         0.00000E+00
    0.00000E+00         0.00000E+00        -0.62653E+08
 
   -0.58766E+08        -0.52632E+06         0.00000E+00
   -0.52632E+06        -0.49857E+08         0.00000E+00
    0.00000E+00         0.00000E+00        -0.62655E+08
 
   -0.58892E+08        -0.54386E+06         0.00000E+00
   -0.54386E+06        -0.49848E+08         0.00000E+00
    0.00000E+00         0.00000E+00        -0.62662E+08
 
   -0.59020E+08        -0.55206E+06         0.00000E+00
   -0.55206E+06        -0.49843E+08         0.00000E+00
    0.00000E+00         0.00000E+00        -0.62673E+08
 
   -0.59149E+08        -0.55214E+06         0.00000E+00
   -0.55214E+06        -0.49841E+08         0.00000E+00
    0.00000E+00         0.00000E+00        -0.62687E+08
 
   -0.59279E+08        -0.54507E+06         0.00000E+00
   -0.54507E+06        -0.49844E+08         0.00000E+00
    0.00000E+00         0.00000E+00        -0.62704E+08
 
   -0.59405E+08        -0.53151E+06         0.00000E+00
   -0.53151E+06        -0.49858E+08         0.00000E+00
    0.00000E+00         0.00000E+00        -0.62709E+08
 
   -0.59530E+08        -0.51291E+06         0.00000E+00
   -0.51291E+06        -0.49874E+08         0.00000E+00
    0.00000E+00         0.00000E+00        -0.62718E+08
 
   -0.59655E+08        -0.48964E+06         0.00000E+00
   -0.48964E+06        -0.49892E+08         0.00000E+00
    0.00000E+00         0.00000E+00        -0.62729E+08
 
   -0.59780E+08        -0.46196E+06         0.00000E+00
   -0.46196E+06        -0.49910E+08         0.00000E+00
    0.00000E+00         0.00000E+00        -0.62741E+08
 
   -0.59898E+08        -0.43176E+06         0.00000E+00
   -0.43176E+06        -0.49924E+08         0.00000E+00
    0.00000E+00         0.00000E+00        -0.62743E+08
 
   -0.60016E+08        -0.39989E+06         0.00000E+00
   -0.39989E+06        -0.49939E+08         0.00000E+00
    0.00000E+00         0.00000E+00        -0.62747E+08
 
   -0.60132E+08        -0.36627E+06         0.00000E+00
   -0.36627E+06        -0.49955E+08         0.00000E+00
    0.00000E+00         0.00000E+00        -0.62751E+08
 
   -0.60246E+08        -0.33101E+06         0.00000E+00
   -0.33101E+06        -0.49972E+08         0.00000E+00
    0.00000E+00         0.00000E+00        -0.62755E+08
 
   -0.60360E+08        -0.29440E+06         0.00000E+00
   -0.29440E+06        -0.49988E+08         0.00000E+00
    0.00000E+00         0.00000E+00        -0.62757E+08
 
   -0.60469E+08        -0.25672E+06         0.00000E+00
   -0.25672E+06        -0.50003E+08         0.00000E+00
    0.00000E+00         0.00000E+00        -0.62754E+08
 
   -0.60576E+08        -0.21839E+06         0.00000E+00
   -0.21839E+06        -0.50016E+08         0.00000E+00
    0.00000E+00         0.00000E+00        -0.62746E+08
 
   -0.60679E+08        -0.18055E+06         0.00000E+00
   -0.18055E+06        -0.50027E+08         0.00000E+00
    0.00000E+00         0.00000E+00        -0.62734E+08
 
   -0.60779E+08        -0.14337E+06         0.00000E+00
   -0.14337E+06        -0.50037E+08         0.00000E+00
    0.00000E+00         0.00000E+00        -0.62717E+08
 
   -0.60874E+08        -0.10643E+06         0.00000E+00
   -0.10643E+06        -0.50046E+08         0.00000E+00
    0.00000E+00         0.00000E+00        -0.62696E+08
 
   -0.60964E+08        -0.70419E+05         0.00000E+00
   -0.70419E+05        -0.50051E+08         0.00000E+00
    0.00000E+00         0.00000E+00        -0.62668E+08
 
   -0.61048E+08        -0.36299E+05         0.00000E+00
   -0.36299E+05        -0.50054E+08         0.00000E+00
    0.00000E+00         0.00000E+00        -0.62634E+08
 
   -0.61126E+08        -0.42685E+04         0.00000E+00
   -0.42685E+04        -0.50054E+08         0.00000E+00
    0.00000E+00         0.00000E+00        -0.62595E+08
 
   -0.61197E+08         0.26148E+05         0.00000E+00
    0.26148E+05        -0.50053E+08         0.00000E+00
    0.00000E+00         0.00000E+00        -0.62552E+08
 
   -0.61262E+08         0.54877E+05         0.00000E+00
    0.54877E+05        -0.50048E+08         0.00000E+00
    0.00000E+00         0.00000E+00        -0.62505E+08
 
   -0.61319E+08         0.81798E+05         0.00000E+00
    0.81798E+05        -0.50042E+08         0.00000E+00
    0.00000E+00         0.00000E+00        -0.62455E+08
 
   -0.61370E+08         0.10773E+06         0.00000E+00
    0.10773E+06        -0.50034E+08         0.00000E+00
    0.00000E+00         0.00000E+00        -0.62403E+08
 
   -0.61414E+08         0.13327E+06         0.00000E+00
    0.13327E+06        -0.50024E+08         0.00000E+00
    0.00000E+00         0.00000E+00        -0.62349E+08
 
   -0.61451E+08         0.15872E+06         0.00000E+00
    0.15872E+06        -0.50012E+08         0.00000E+00
    0.00000E+00         0.00000E+00        -0.62293E+08
 
   -0.61483E+08         0.18475E+06         0.00000E+00
    0.18475E+06        -0.49999E+08         0.00000E+00
    0.00000E+00         0.00000E+00        -0.62236E+08
 
   -0.61509E+08         0.21187E+06         0.00000E+00
    0.21187E+06        -0.49984E+08         0.00000E+00
    0.00000E+00         0.00000E+00        -0.62177E+08
 
   -0.61531E+08         0.24032E+06         0.00000E+00
    0.24032E+06        -0.49968E+08         0.00000E+00
    0.00000E+00         0.00000E+00        -0.62117E+08
 
   -0.61548E+08         0.27031E+06         0.00000E+00
    0.27031E+06        -0.49951E+08         0.00000E+00
    0.00000E+00         0.00000E+00        -0.62055E+08
 
   -0.61559E+08         0.30187E+06         0.00000E+00
    0.30187E+06        -0.49931E+08         0.00000E+00
    0.00000E+00         0.00000E+00        -0.61991E+08
 
   -0.61565E+08         0.33491E+06         0.00000E+00
    0.33491E+06        -0.49911E+08         0.00000E+00
    0.00000E+00         0.00000E+00        -0.61926E+08
 
   -0.61565E+08         0.37010E+06         0.00000E+00
    0.37010E+06        -0.49889E+08         0.00000E+00
    0.00000E+00         0.00000E+00        -0.61861E+08
 
   -0.61559E+08         0.40732E+06         0.00000E+00
    0.40732E+06        -0.49866E+08         0.00000E+00
    0.00000E+00         0.00000E+00        -0.61797E+08
 
   -0.61547E+08         0.44643E+06         0.00000E+00
    0.44643E+06        -0.49842E+08         0.00000E+00
    0.00000E+00         0.00000E+00        -0.61733E+08
 
   -0.61529E+08         0.48650E+06         0.00000E+00
    0.48650E+06        -0.49817E+08         0.00000E+00
    0.00000E+00         0.00000E+00        -0.61669E+08
 
   -0.61506E+08         0.52719E+06         0.00000E+00
    0.52719E+06        -0.49791E+08         0.00000E+00
    0.00000E+00         0.00000E+00        -0.61606E+08
 
   -0.61479E+08         0.56812E+06         0.00000E+00
    0.56812E+06        -0.49765E+08         0.00000E+00
    0.00000E+00         0.00000E+00        -0.61546E+08
 
   -0.61450E+08         0.61036E+06         0.00000E+00
    0.61036E+06        -0.49740E+08         0.00000E+00
    0.00000E+00         0.00000E+00        -0.61488E+08
 
   -0.61417E+08         0.65429E+06         0.00000E+00
    0.65429E+06        -0.49714E+08         0.00000E+00
    0.00000E+00         0.00000E+00        -0.61429E+08
 
   -0.58347E+08        -0.37200E+05         0.00000E+00
   -0.37200E+05        -0.49998E+08         0.00000E+00
    0.00000E+00         0.00000E+00        -0.62322E+08
 
   -0.58398E+08        -0.98343E+05         0.00000E+00
   -0.98343E+05        -0.49997E+08         0.00000E+00
    0.00000E+00         0.00000E+00        -0.62333E+08
 
   -0.58453E+08        -0.15692E+06         0.00000E+00
   -0.15692E+06        -0.49992E+08         0.00000E+00
    0.00000E+00         0.00000E+00        -0.62343E+08
 
   -0.58514E+08        -0.21204E+06         0.00000E+00
   -0.21204E+06        -0.49984E+08         0.00000E+00
    0.00000E+00         0.00000E+00        -0.62353E+08
 
   -0.58580E+08        -0.26333E+06         0.00000E+00
   -0.26333E+06        -0.49973E+08         0.00000E+00
    0.00000E+00         0.00000E+00        -0.62364E+08
 
   -0.58653E+08        -0.31031E+06         0.00000E+00
   -0.31031E+06        -0.49959E+08         0.00000E+00
    0.00000E+00         0.00000E+00        -0.62376E+08
 
   -0.58730E+08        -0.35204E+06         0.00000E+00
   -0.35204E+06        -0.49941E+08         0.00000E+00
    0.00000E+00         0.00000E+00        -0.62388E+08
 
   -0.58812E+08        -0.38785E+06         0.00000E+00
   -0.38785E+06        -0.49921E+08         0.00000E+00
    0.00000E+00         0.00000E+00        -0.62400E+08
 
   -0.58898E+08        -0.41840E+06         0.00000E+00
   -0.41840E+06        -0.49902E+08         0.00000E+00
    0.00000E+00         0.00000E+00        -0.62413E+08
 
   -0.58987E+08        -0.44431E+06         0.00000E+00
   -0.44431E+06        -0.49880E+08         0.00000E+00
    0.00000E+00         0.00000E+00        -0.62427E+08
 
   -0.59080E+08        -0.46508E+06         0.00000E+00
   -0.46508E+06        -0.49859E+08         0.00000E+00
    0.00000E+00         0.00000E+00        -0.62441E+08
 
   -0.59176E+08        -0.48057E+06         0.00000E+00
   -0.48057E+06        -0.49838E+08         0.00000E+00
    0.00000E+00         0.00000E+00        -0.62456E+08
 
   -0.59275E+08        -0.49083E+06         0.00000E+00
   -0.49083E+06        -0.49819E+08         0.00000E+00
    0.00000E+00         0.00000E+00        -0.62472E+08
 
   -0.59373E+08        -0.49618E+06         0.00000E+00
   -0.49618E+06        -0.49791E+08         0.00000E+00
    0.00000E+00         0.00000E+00        -0.62486E+08
 
   -0.59473E+08        -0.49609E+06         0.00000E+00
   -0.49609E+06        -0.49766E+08         0.00000E+00
    0.00000E+00         0.00000E+00        -0.62501E+08
 
   -0.59575E+08        -0.49111E+06         0.00000E+00
   -0.49111E+06        -0.49745E+08         0.00000E+00
    0.00000E+00         0.00000E+00        -0.62517E+08
 
   -0.59678E+08        -0.48177E+06         0.00000E+00
   -0.48177E+06        -0.49728E+08         0.00000E+00
    0.00000E+00         0.00000E+00        -0.62535E+08
 
   -0.59775E+08        -0.46705E+06         0.00000E+00
   -0.46705E+06        -0.49717E+08         0.00000E+00
    0.00000E+00         0.00000E+00        -0.62538E+08
 
   -0.59874E+08        -0.44670E+06         0.00000E+00
   -0.44670E+06        -0.49710E+08         0.00000E+00
    0.00000E+00         0.00000E+00        -0.62543E+08
 
   -0.59975E+08        -0.42138E+06         0.00000E+00
   -0.42138E+06        -0.49704E+08         0.00000E+00
    0.00000E+00         0.00000E+00        -0.62551E+08
 
   -0.60076E+08        -0.39160E+06         0.00000E+00
   -0.39160E+06        -0.49702E+08         0.00000E+00
    0.00000E+00         0.00000E+00        -0.62561E+08
 
   -0.60178E+08        -0.35770E+06         0.00000E+00
   -0.35770E+06        -0.49701E+08         0.00000E+00
    0.00000E+00         0.00000E+00        -0.62572E+08
 
   -0.60276E+08        -0.31987E+06         0.00000E+00
   -0.31987E+06        -0.49711E+08         0.00000E+00
    0.00000E+00         0.00000E+00        -0.62571E+08
 
   -0.60375E+08        -0.27868E+06         0.00000E+00
   -0.27868E+06        -0.49724E+08         0.00000E+00
    0.00000E+00         0.00000E+00        -0.62568E+08
 
   -0.60475E+08        -0.23417E+06         0.00000E+00
   -0.23417E+06        -0.49737E+08         0.00000E+00
    0.00000E+00         0.00000E+00        -0.62564E+08
 
   -0.60572E+08        -0.18743E+06         0.00000E+00
   -0.18743E+06        -0.49747E+08         0.00000E+00
    0.00000E+00         0.00000E+00        -0.62552E+08
 
   -0.60667E+08        -0.13994E+06         0.00000E+00
   -0.13994E+06        -0.49754E+08         0.00000E+00
    0.00000E+00         0.00000E+00        -0.62531E+08
 
   -0.60761E+08        -0.92463E+05         0.00000E+00
   -0.92463E+05        -0.49762E+08         0.00000E+00
    0.00000E+00         0.00000E+00        -0.62506E+08
 
   -0.60854E+08        -0.45774E+05         0.00000E+00
   -0.45774E+05        -0.49767E+08         0.00000E+00
    0.00000E+00         0.00000E+00        -0.62477E+08
 
   -0.60940E+08        -0.45593E+03         0.00000E+00
   -0.45593E+03        -0.49769E+08         0.00000E+00
    0.00000E+00         0.00000E+00        -0.62438E+08
 
   -0.61020E+08         0.42449E+05         0.00000E+00
    0.42449E+05        -0.49768E+08         0.00000E+00
    0.00000E+00         0.00000E+00        -0.62391E+08
 
   -0.61094E+08         0.83022E+05         0.00000E+00
    0.83022E+05        -0.49765E+08         0.00000E+00
    0.00000E+00         0.00000E+00        -0.62340E+08
 
   -0.61159E+08         0.12225E+06         0.00000E+00
    0.12225E+06        -0.49758E+08         0.00000E+00
    0.00000E+00         0.00000E+00        -0.62283E+08
 
   -0.61215E+08         0.15966E+06         0.00000E+00
    0.15966E+06        -0.49748E+08         0.00000E+00
    0.00000E+00         0.00000E+00        -0.62220E+08
 
   -0.61262E+08         0.19530E+06         0.00000E+00
    0.19530E+06        -0.49736E+08         0.00000E+00
    0.00000E+00         0.00000E+00        -0.62154E+08
 
   -0.61300E+08         0.23003E+06         0.00000E+00
    0.23003E+06        -0.49721E+08         0.00000E+00
    0.00000E+00         0.00000E+00        -0.62086E+08
 
   -0.61330E+08         0.26382E+06         0.00000E+00
    0.26382E+06        -0.49704E+08         0.00000E+00
    0.00000E+00         0.00000E+00        -0.62016E+08
 
   -0.61353E+08         0.29706E+06         0.00000E+00
    0.29706E+06        -0.49686E+08         0.00000E+00
    0.00000E+00         0.00000E+00        -0.61946E+08
 
   -0.61369E+08         0.33117E+06         0.00000E+00
    0.33117E+06        -0.49666E+08         0.00000E+00
    0.00000E+00         0.00000E+00        -0.61877E+08
 
   -0.61378E+08         0.36663E+06         0.00000E+00
    0.36663E+06        -0.49646E+08         0.00000E+00
    0.00000E+00         0.00000E+00        -0.61808E+08
 
   -0.61382E+08         0.40382E+06         0.00000E+00
    0.40382E+06        -0.49625E+08         0.00000E+00
    0.00000E+00         0.00000E+00        -0.61741E+08
 
   -0.61380E+08         0.44273E+06         0.00000E+00
    0.44273E+06        -0.49603E+08         0.00000E+00
    0.00000E+00         0.00000E+00        -0.61674E+08
 
   -0.61373E+08         0.48219E+06         0.00000E+00
    0.48219E+06        -0.49580E+08         0.00000E+00
    0.00000E+00         0.00000E+00        -0.61608E+08
 
   -0.61360E+08         0.52204E+06         0.00000E+00
    0.52204E+06        -0.49557E+08         0.00000E+00
    0.00000E+00         0.00000E+00        -0.61544E+08
 
   -0.61343E+08         0.56263E+06         0.00000E+00
    0.56263E+06        -0.49534E+08         0.00000E+00
    0.00000E+00         0.00000E+00        -0.61481E+08
 
   -0.61322E+08         0.60424E+06         0.00000E+00
    0.60424E+06        -0.49511E+08         0.00000E+00
    0.00000E+00         0.00000E+00        -0.61422E+08
 
   -0.61298E+08         0.64667E+06         0.00000E+00
    0.64667E+06        -0.49488E+08         0.00000E+00
    0.00000E+00         0.00000E+00        -0.61366E+08
 
   -0.61268E+08         0.69004E+06         0.00000E+00
    0.69004E+06        -0.49465E+08         0.00000E+00
    0.00000E+00         0.00000E+00        -0.61311E+08
 
   -0.61234E+08         0.73303E+06         0.00000E+00
    0.73303E+06        -0.49441E+08         0.00000E+00
    0.00000E+00         0.00000E+00        -0.61256E+08
 
   -0.61197E+08         0.77603E+06         0.00000E+00
    0.77603E+06        -0.49416E+08         0.00000E+00
    0.00000E+00         0.00000E+00        -0.61204E+08
 
   -0.58637E+08        -0.28536E+05         0.00000E+00
   -0.28536E+05        -0.50001E+08         0.00000E+00
    0.00000E+00         0.00000E+00        -0.62082E+08
 
   -0.58668E+08        -0.78449E+05         0.00000E+00
   -0.78449E+05        -0.49998E+08         0.00000E+00
    0.00000E+00         0.00000E+00        -0.62088E+08
 
   -0.58705E+08        -0.12432E+06         0.00000E+00
   -0.12432E+06        -0.49993E+08         0.00000E+00
    0.00000E+00         0.00000E+00        -0.62094E+08
 
   -0.58747E+08        -0.16653E+06         0.00000E+00
   -0.16653E+06        -0.49985E+08         0.00000E+00
    0.00000E+00         0.00000E+00        -0.62101E+08
 
   -0.58794E+08        -0.20503E+06         0.00000E+00
   -0.20503E+06        -0.49975E+08         0.00000E+00
    0.00000E+00         0.00000E+00        -0.62108E+08
 
   -0.58845E+08        -0.23974E+06         0.00000E+00
   -0.23974E+06        -0.49963E+08         0.00000E+00
    0.00000E+00         0.00000E+00        -0.62116E+08
 
   -0.58900E+08        -0.27076E+06         0.00000E+00
   -0.27076E+06        -0.49948E+08         0.00000E+00
    0.00000E+00         0.00000E+00        -0.62124E+08
 
   -0.58959E+08        -0.29819E+06         0.00000E+00
   -0.29819E+06        -0.49932E+08         0.00000E+00
    0.00000E+00         0.00000E+00        -0.62133E+08
 
   -0.59023E+08        -0.32180E+06         0.00000E+00
   -0.32180E+06        -0.49914E+08         0.00000E+00
    0.00000E+00         0.00000E+00        -0.62142E+08
 
   -0.59090E+08        -0.34138E+06         0.00000E+00
   -0.34138E+06        -0.49894E+08         0.00000E+00
    0.00000E+00         0.00000E+00        -0.62151E+08
 
   -0.59160E+08        -0.35702E+06         0.00000E+00
   -0.35702E+06        -0.49873E+08         0.00000E+00
    0.00000E+00         0.00000E+00        -0.62161E+08
 
   -0.59233E+08        -0.36862E+06         0.00000E+00
   -0.36862E+06        -0.49850E+08         0.00000E+00
    0.00000E+00         0.00000E+00        -0.62171E+08
 
   -0.59308E+08        -0.37608E+06         0.00000E+00
   -0.37608E+06        -0.49827E+08         0.00000E+00
    0.00000E+00         0.00000E+00        -0.62181E+08
 
   -0.59385E+08        -0.37974E+06         0.00000E+00
   -0.37974E+06        -0.49804E+08         0.00000E+00
    0.00000E+00         0.00000E+00        -0.62192E+08
 
   -0.59464E+08        -0.38006E+06         0.00000E+00
   -0.38006E+06        -0.49780E+08         0.00000E+00
    0.00000E+00         0.00000E+00        -0.62203E+08
 
   -0.59544E+08        -0.37674E+06         0.00000E+00
   -0.37674E+06        -0.49755E+08         0.00000E+00
    0.00000E+00         0.00000E+00        -0.62214E+08
 
   -0.59624E+08        -0.36946E+06         0.00000E+00
   -0.36946E+06        -0.49730E+08         0.00000E+00
    0.00000E+00         0.00000E+00        -0.62225E+08
 
   -0.59705E+08        -0.35911E+06         0.00000E+00
   -0.35911E+06        -0.49705E+08         0.00000E+00
    0.00000E+00         0.00000E+00        -0.62236E+08
 
   -0.59786E+08        -0.34666E+06         0.00000E+00
   -0.34666E+06        -0.49681E+08         0.00000E+00
    0.00000E+00         0.00000E+00        -0.62248E+08
 
   -0.59868E+08        -0.33178E+06         0.00000E+00
   -0.33178E+06        -0.49657E+08         0.00000E+00
    0.00000E+00         0.00000E+00        -0.62259E+08
 
   -0.59950E+08        -0.31437E+06         0.00000E+00
   -0.31437E+06        -0.49634E+08         0.00000E+00
    0.00000E+00         0.00000E+00        -0.62271E+08
 
   -0.60034E+08        -0.29440E+06         0.00000E+00
   -0.29440E+06        -0.49612E+08         0.00000E+00
    0.00000E+00         0.00000E+00        -0.62283E+08
 
   -0.60116E+08        -0.27195E+06         0.00000E+00
   -0.27195E+06        -0.49582E+08         0.00000E+00
    0.00000E+00         0.00000E+00        -0.62294E+08
 
   -0.60199E+08        -0.24662E+06         0.00000E+00
   -0.24662E+06        -0.49553E+08         0.00000E+00
    0.00000E+00         0.00000E+00        -0.62305E+08
 
   -0.60284E+08        -0.21853E+06         0.00000E+00
   -0.21853E+06        -0.49527E+08         0.00000E+00
    0.00000E+00         0.00000E+00        -0.62317E+08
 
   -0.60366E+08        -0.18679E+06         0.00000E+00
   -0.18679E+06        -0.49507E+08         0.00000E+00
    0.00000E+00         0.00000E+00        -0.62319E+08
 
   -0.60447E+08        -0.15002E+06         0.00000E+00
   -0.15002E+06        -0.49490E+08         0.00000E+00
    0.00000E+00         0.00000E+00        -0.62314E+08
 
   -0.60531E+08        -0.10783E+06         0.00000E+00
   -0.10783E+06        -0.49476E+08         0.00000E+00
    0.00000E+00         0.00000E+00        -0.62310E+08
 
   -0.60618E+08        -0.60301E+05         0.00000E+00
   -0.60301E+05        -0.49467E+08         0.00000E+00
    0.00000E+00         0.00000E+00        -0.62303E+08
 
   -0.60699E+08        -0.80660E+04         0.00000E+00
   -0.80660E+04        -0.49473E+08         0.00000E+00
    0.00000E+00         0.00000E+00        -0.62279E+08
 
   -0.60783E+08         0.47985E+05         0.00000E+00
    0.47985E+05        -0.49480E+08         0.00000E+00
    0.00000E+00         0.00000E+00        -0.62252E+08
 
   -0.60859E+08         0.10579E+06         0.00000E+00
    0.10579E+06        -0.49479E+08         0.00000E+00
    0.00000E+00         0.00000E+00        -0.62207E+08
 
   -0.60931E+08         0.16257E+06         0.00000E+00
    0.16257E+06        -0.49475E+08         0.00000E+00
    0.00000E+00         0.00000E+00        -0.62151E+08
 
   -0.60998E+08         0.21643E+06         0.00000E+00
    0.21643E+06        -0.49468E+08         0.00000E+00
    0.00000E+00         0.00000E+00        -0.62089E+08
 
   -0.61055E+08         0.26686E+06         0.00000E+00
    0.26686E+06        -0.49457E+08         0.00000E+00
    0.00000E+00         0.00000E+00        -0.62017E+08
 
   -0.61102E+08         0.31306E+06         0.00000E+00
    0.31306E+06        -0.49442E+08         0.00000E+00
    0.00000E+00         0.00000E+00        -0.61939E+08
 
   -0.61140E+08         0.35623E+06         0.00000E+00
    0.35623E+06        -0.49425E+08         0.00000E+00
    0.00000E+00         0.00000E+00        -0.61861E+08
 
   -0.61166E+08         0.39805E+06         0.00000E+00
    0.39805E+06        -0.49405E+08         0.00000E+00
    0.00000E+00         0.00000E+00        -0.61779E+08
 
   -0.61181E+08         0.43795E+06         0.00000E+00
    0.43795E+06        -0.49382E+08         0.00000E+00
    0.00000E+00         0.00000E+00        -0.61696E+08
 
   -0.61188E+08         0.47717E+06         0.00000E+00
    0.47717E+06        -0.49358E+08         0.00000E+00
    0.00000E+00         0.00000E+00        -0.61615E+08
 
   -0.61187E+08         0.51586E+06         0.00000E+00
    0.51586E+06        -0.49333E+08         0.00000E+00
    0.00000E+00         0.00000E+00        -0.61536E+08
 
   -0.61181E+08         0.55422E+06         0.00000E+00
    0.55422E+06        -0.49308E+08         0.00000E+00
    0.00000E+00         0.00000E+00        -0.61461E+08
 
   -0.61170E+08         0.59411E+06         0.00000E+00
    0.59411E+06        -0.49285E+08         0.00000E+00
    0.00000E+00         0.00000E+00        -0.61391E+08
 
   -0.61155E+08         0.63547E+06         0.00000E+00
    0.63547E+06        -0.49261E+08         0.00000E+00
    0.00000E+00         0.00000E+00        -0.61324E+08
 
   -0.61136E+08         0.67758E+06         0.00000E+00
    0.67758E+06        -0.49238E+08         0.00000E+00
    0.00000E+00         0.00000E+00        -0.61261E+08
 
   -0.61112E+08         0.71994E+06         0.00000E+00
    0.71994E+06        -0.49215E+08         0.00000E+00
    0.00000E+00         0.00000E+00        -0.61199E+08
 
   -0.61083E+08         0.76165E+06         0.00000E+00
    0.76165E+06        -0.49191E+08         0.00000E+00
    0.00000E+00         0.00000E+00        -0.61141E+08
 
   -0.61051E+08         0.80303E+06         0.00000E+00
    0.80303E+06        -0.49168E+08         0.00000E+00
    0.00000E+00         0.00000E+00        -0.61085E+08
 
   -0.61017E+08         0.84532E+06         0.00000E+00
    0.84532E+06        -0.49146E+08         0.00000E+00
    0.00000E+00         0.00000E+00        -0.61034E+08
 
   -0.60980E+08         0.88802E+06         0.00000E+00
    0.88802E+06        -0.49124E+08         0.00000E+00
    0.00000E+00         0.00000E+00        -0.60985E+08
 
   -0.58860E+08        -0.22067E+05         0.00000E+00
   -0.22067E+05        -0.50001E+08         0.00000E+00
    0.00000E+00         0.00000E+00        -0.61827E+08
 
   -0.58875E+08        -0.58426E+05         0.00000E+00
   -0.58426E+05        -0.49998E+08         0.00000E+00
    0.00000E+00         0.00000E+00        -0.61830E+08
 
   -0.58895E+08        -0.91806E+05         0.00000E+00
   -0.91806E+05        -0.49993E+08         0.00000E+00
    0.00000E+00         0.00000E+00        -0.61833E+08
 
   -0.58920E+08        -0.12206E+06         0.00000E+00
   -0.12206E+06        -0.49985E+08         0.00000E+00
    0.00000E+00         0.00000E+00        -0.61836E+08
 
   -0.58949E+08        -0.14922E+06         0.00000E+00
   -0.14922E+06        -0.49975E+08         0.00000E+00
    0.00000E+00         0.00000E+00        -0.61840E+08
 
   -0.58983E+08        -0.17332E+06         0.00000E+00
   -0.17332E+06        -0.49962E+08         0.00000E+00
    0.00000E+00         0.00000E+00        -0.61844E+08
 
   -0.59022E+08        -0.19432E+06         0.00000E+00
   -0.19432E+06        -0.49948E+08         0.00000E+00
    0.00000E+00         0.00000E+00        -0.61849E+08
 
   -0.59064E+08        -0.21220E+06         0.00000E+00
   -0.21220E+06        -0.49931E+08         0.00000E+00
    0.00000E+00         0.00000E+00        -0.61854E+08
 
   -0.59110E+08        -0.22698E+06         0.00000E+00
   -0.22698E+06        -0.49913E+08         0.00000E+00
    0.00000E+00         0.00000E+00        -0.61860E+08
 
   -0.59159E+08        -0.23868E+06         0.00000E+00
   -0.23868E+06        -0.49893E+08         0.00000E+00
    0.00000E+00         0.00000E+00        -0.61866E+08
 
   -0.59212E+08        -0.24728E+06         0.00000E+00
   -0.24728E+06        -0.49871E+08         0.00000E+00
    0.00000E+00         0.00000E+00        -0.61872E+08
 
   -0.59267E+08        -0.25285E+06         0.00000E+00
   -0.25285E+06        -0.49848E+08         0.00000E+00
    0.00000E+00         0.00000E+00        -0.61878E+08
 
   -0.59325E+08        -0.25548E+06         0.00000E+00
   -0.25548E+06        -0.49824E+08         0.00000E+00
    0.00000E+00         0.00000E+00        -0.61885E+08
 
   -0.59386E+08        -0.25511E+06         0.00000E+00
   -0.25511E+06        -0.49798E+08         0.00000E+00
    0.00000E+00         0.00000E+00        -0.61892E+08
 
   -0.59448E+08        -0.25166E+06         0.00000E+00
   -0.25166E+06        -0.49772E+08         0.00000E+00
    0.00000E+00         0.00000E+00        -0.61899E+08
 
   -0.59512E+08        -0.24537E+06         0.00000E+00
   -0.24537E+06        -0.49744E+08         0.00000E+00
    0.00000E+00         0.00000E+00        -0.61906E+08
 
   -0.59578E+08        -0.23653E+06         0.00000E+00
   -0.23653E+06        -0.49717E+08         0.00000E+00
    0.00000E+00         0.00000E+00        -0.61914E+08
 
   -0.59645E+08        -0.22510E+06         0.00000E+00
   -0.22510E+06        -0.49688E+08         0.00000E+00
    0.00000E+00         0.00000E+00        -0.61922E+08
 
   -0.59713E+08        -0.21100E+06         0.00000E+00
   -0.21100E+06        -0.49658E+08         0.00000E+00
    0.00000E+00         0.00000E+00        -0.61930E+08
 
   -0.59783E+08        -0.19440E+06         0.00000E+00
   -0.19440E+06        -0.49628E+08         0.00000E+00
    0.00000E+00         0.00000E+00        -0.61937E+08
 
   -0.59853E+08        -0.17529E+06         0.00000E+00
   -0.17529E+06        -0.49598E+08         0.00000E+00
    0.00000E+00         0.00000E+00        -0.61945E+08
 
   -0.59923E+08        -0.15355E+06         0.00000E+00
   -0.15355E+06        -0.49566E+08         0.00000E+00
    0.00000E+00         0.00000E+00        -0.61953E+08
 
   -0.59993E+08        -0.12951E+06         0.00000E+00
   -0.12951E+06        -0.49536E+08         0.00000E+00
    0.00000E+00         0.00000E+00        -0.61961E+08
 
   -0.60063E+08        -0.10353E+06         0.00000E+00
   -0.10353E+06        -0.49505E+08         0.00000E+00
    0.00000E+00         0.00000E+00        -0.61969E+08
 
   -0.60133E+08        -0.75203E+05         0.00000E+00
   -0.75203E+05        -0.49473E+08         0.00000E+00
    0.00000E+00         0.00000E+00        -0.61976E+08
 
   -0.60201E+08        -0.44943E+05         0.00000E+00
   -0.44943E+05        -0.49442E+08         0.00000E+00
    0.00000E+00         0.00000E+00        -0.61984E+08
 
   -0.60268E+08        -0.13994E+05         0.00000E+00
   -0.13994E+05        -0.49412E+08         0.00000E+00
    0.00000E+00         0.00000E+00        -0.61991E+08
 
   -0.60336E+08         0.17455E+05         0.00000E+00
    0.17455E+05        -0.49382E+08         0.00000E+00
    0.00000E+00         0.00000E+00        -0.61999E+08
 
   -0.60404E+08         0.49996E+05         0.00000E+00
    0.49996E+05        -0.49350E+08         0.00000E+00
    0.00000E+00         0.00000E+00        -0.62006E+08
 
   -0.60471E+08         0.84271E+05         0.00000E+00
    0.84271E+05        -0.49305E+08         0.00000E+00
    0.00000E+00         0.00000E+00        -0.62010E+08
 
   -0.60542E+08         0.12079E+06         0.00000E+00
    0.12079E+06        -0.49262E+08         0.00000E+00
    0.00000E+00         0.00000E+00        -0.62016E+08
 
   -0.60605E+08         0.16155E+06         0.00000E+00
    0.16155E+06        -0.49228E+08         0.00000E+00
    0.00000E+00         0.00000E+00        -0.62002E+08
 
   -0.60669E+08         0.20891E+06         0.00000E+00
    0.20891E+06        -0.49197E+08         0.00000E+00
    0.00000E+00         0.00000E+00        -0.61981E+08
 
   -0.60735E+08         0.26318E+06         0.00000E+00
    0.26318E+06        -0.49177E+08         0.00000E+00
    0.00000E+00         0.00000E+00        -0.61953E+08
 
   -0.60793E+08         0.32244E+06         0.00000E+00
    0.32244E+06        -0.49175E+08         0.00000E+00
    0.00000E+00         0.00000E+00        -0.61905E+08
 
   -0.60852E+08         0.38500E+06         0.00000E+00
    0.38500E+06        -0.49173E+08         0.00000E+00
    0.00000E+00         0.00000E+00        -0.61852E+08
 
   -0.60894E+08         0.44758E+06         0.00000E+00
    0.44758E+06        -0.49158E+08         0.00000E+00
    0.00000E+00         0.00000E+00        -0.61772E+08
 
   -0.60934E+08         0.50546E+06         0.00000E+00
    0.50546E+06        -0.49143E+08         0.00000E+00
    0.00000E+00         0.00000E+00        -0.61689E+08
 
   -0.60963E+08         0.55782E+06         0.00000E+00
    0.55782E+06        -0.49122E+08         0.00000E+00
    0.00000E+00         0.00000E+00        -0.61597E+08
 
   -0.60980E+08         0.60369E+06         0.00000E+00
    0.60369E+06        -0.49097E+08         0.00000E+00
    0.00000E+00         0.00000E+00        -0.61501E+08
 
   -0.60989E+08         0.64474E+06         0.00000E+00
    0.64474E+06        -0.49072E+08         0.00000E+00
    0.00000E+00         0.00000E+00        -0.61410E+08
 
   -0.60985E+08         0.68401E+06         0.00000E+00
    0.68401E+06        -0.49044E+08         0.00000E+00
    0.00000E+00         0.00000E+00        -0.61318E+08
 
   -0.60972E+08         0.72133E+06         0.00000E+00
    0.72133E+06        -0.49014E+08         0.00000E+00
    0.00000E+00         0.00000E+00        -0.61231E+08
 
   -0.60952E+08         0.75821E+06         0.00000E+00
    0.75821E+06        -0.48985E+08         0.00000E+00
    0.00000E+00         0.00000E+00        -0.61149E+08
 
   -0.60929E+08         0.79531E+06         0.00000E+00
    0.79531E+06        -0.48957E+08         0.00000E+00
    0.00000E+00         0.00000E+00        -0.61073E+08
 
   -0.60903E+08         0.83343E+06         0.00000E+00
    0.83343E+06        -0.48931E+08         0.00000E+00
    0.00000E+00         0.00000E+00        -0.61004E+08
 
   -0.60876E+08         0.87389E+06         0.00000E+00
    0.87389E+06        -0.48908E+08         0.00000E+00
    0.00000E+00         0.00000E+00        -0.60942E+08
 
   -0.60847E+08         0.91564E+06         0.00000E+00
    0.91564E+06        -0.48886E+08         0.00000E+00
    0.00000E+00         0.00000E+00        -0.60884E+08
 
   -0.60814E+08         0.95631E+06         0.00000E+00
    0.95631E+06        -0.48864E+08         0.00000E+00
    0.00000E+00         0.00000E+00        -0.60829E+08
 
   -0.60776E+08         0.99538E+06         0.00000E+00
    0.99538E+06        -0.48841E+08         0.00000E+00
    0.00000E+00         0.00000E+00        -0.60779E+08
 
   -0.59016E+08        -0.14585E+05         0.00000E+00
   -0.14585E+05        -0.50001E+08         0.00000E+00
    0.00000E+00         0.00000E+00        -0.61559E+08
 
   -0.59017E+08        -0.37782E+05         0.00000E+00
   -0.37782E+05        -0.49998E+08         0.00000E+00
    0.00000E+00         0.00000E+00        -0.61559E+08
 
   -0.59023E+08        -0.58406E+05         0.00000E+00
   -0.58406E+05        -0.49992E+08         0.00000E+00
    0.00000E+00         0.00000E+00        -0.61559E+08
 
   -0.59034E+08        -0.76535E+05         0.00000E+00
   -0.76535E+05        -0.49984E+08         0.00000E+00
    0.00000E+00         0.00000E+00        -0.61559E+08
 
   -0.59049E+08        -0.92172E+05         0.00000E+00
   -0.92172E+05        -0.49974E+08         0.00000E+00
    0.00000E+00         0.00000E+00        -0.61560E+08
 
   -0.59069E+08        -0.10531E+06         0.00000E+00
   -0.10531E+06        -0.49961E+08         0.00000E+00
    0.00000E+00         0.00000E+00        -0.61562E+08
 
   -0.59094E+08        -0.11596E+06         0.00000E+00
   -0.11596E+06        -0.49946E+08         0.00000E+00
    0.00000E+00         0.00000E+00        -0.61564E+08
 
   -0.59122E+08        -0.12413E+06         0.00000E+00
   -0.12413E+06        -0.49929E+08         0.00000E+00
    0.00000E+00         0.00000E+00        -0.61566E+08
 
   -0.59154E+08        -0.12982E+06         0.00000E+00
   -0.12982E+06        -0.49910E+08         0.00000E+00
    0.00000E+00         0.00000E+00        -0.61569E+08
 
   -0.59190E+08        -0.13303E+06         0.00000E+00
   -0.13303E+06        -0.49890E+08         0.00000E+00
    0.00000E+00         0.00000E+00        -0.61572E+08
 
   -0.59228E+08        -0.13379E+06         0.00000E+00
   -0.13379E+06        -0.49868E+08         0.00000E+00
    0.00000E+00         0.00000E+00        -0.61575E+08
 
   -0.59270E+08        -0.13210E+06         0.00000E+00
   -0.13210E+06        -0.49844E+08         0.00000E+00
    0.00000E+00         0.00000E+00        -0.61579E+08
 
   -0.59315E+08        -0.12794E+06         0.00000E+00
   -0.12794E+06        -0.49818E+08         0.00000E+00
    0.00000E+00         0.00000E+00        -0.61583E+08
 
   -0.59362E+08        -0.12138E+06         0.00000E+00
   -0.12138E+06        -0.49792E+08         0.00000E+00
    0.00000E+00         0.00000E+00        -0.61587E+08
 
   -0.59411E+08        -0.11250E+06         0.00000E+00
   -0.11250E+06        -0.49764E+08         0.00000E+00
    0.00000E+00         0.00000E+00        -0.61591E+08
 
   -0.59463E+08        -0.10128E+06         0.00000E+00
   -0.10128E+06        -0.49734E+08         0.00000E+00
    0.00000E+00         0.00000E+00        -0.61595E+08
 
   -0.59516E+08        -0.87708E+05         0.00000E+00
   -0.87708E+05        -0.49704E+08         0.00000E+00
    0.00000E+00         0.00000E+00        -0.61600E+08
 
   -0.59571E+08        -0.71853E+05         0.00000E+00
   -0.71853E+05        -0.49673E+08         0.00000E+00
    0.00000E+00         0.00000E+00        -0.61605E+08
 
   -0.59627E+08        -0.53788E+05         0.00000E+00
   -0.53788E+05        -0.49640E+08         0.00000E+00
    0.00000E+00         0.00000E+00        -0.61609E+08
 
   -0.59685E+08        -0.33531E+05         0.00000E+00
   -0.33531E+05        -0.49607E+08         0.00000E+00
    0.00000E+00         0.00000E+00        -0.61614E+08
 
   -0.59744E+08        -0.11175E+05         0.00000E+00
   -0.11175E+05        -0.49573E+08         0.00000E+00
    0.00000E+00         0.00000E+00        -0.61619E+08
 
   -0.59803E+08         0.13127E+05         0.00000E+00
    0.13127E+05        -0.49538E+08         0.00000E+00
    0.00000E+00         0.00000E+00        -0.61624E+08
 
   -0.59863E+08         0.39407E+05         0.00000E+00
    0.39407E+05        -0.49502E+08         0.00000E+00
    0.00000E+00         0.00000E+00        -0.61629E+08
 
   -0.59923E+08         0.67708E+05         0.00000E+00
    0.67708E+05        -0.49466E+08         0.00000E+00
    0.00000E+00         0.00000E+00        -0.61634E+08
 
   -0.59983E+08         0.97723E+05         0.00000E+00
    0.97723E+05        -0.49429E+08         0.00000E+00
    0.00000E+00         0.00000E+00        -0.61638E+08
 
   -0.60044E+08         0.12936E+06         0.00000E+00
    0.12936E+06        -0.49392E+08         0.00000E+00
    0.00000E+00         0.00000E+00        -0.61643E+08
 
   -0.60104E+08         0.16282E+06         0.00000E+00
    0.16282E+06        -0.49353E+08         0.00000E+00
    0.00000E+00         0.00000E+00        -0.61647E+08
 
   -0.60164E+08         0.19821E+06         0.00000E+00
    0.19821E+06        -0.49314E+08         0.00000E+00
    0.00000E+00         0.00000E+00        -0.61651E+08
 
   -0.60222E+08         0.23549E+06         0.00000E+00
    0.23549E+06        -0.49275E+08         0.00000E+00
    0.00000E+00         0.00000E+00        -0.61655E+08
 
   -0.60280E+08         0.27417E+06         0.00000E+00
    0.27417E+06        -0.49237E+08         0.00000E+00
    0.00000E+00         0.00000E+00        -0.61659E+08
 
   -0.60334E+08         0.31434E+06         0.00000E+00
    0.31434E+06        -0.49198E+08         0.00000E+00
    0.00000E+00         0.00000E+00        -0.61662E+08
 
   -0.60387E+08         0.35482E+06         0.00000E+00
    0.35482E+06        -0.49161E+08         0.00000E+00
    0.00000E+00         0.00000E+00        -0.61665E+08
 
   -0.60438E+08         0.39367E+06         0.00000E+00
    0.39367E+06        -0.49124E+08         0.00000E+00
    0.00000E+00         0.00000E+00        -0.61668E+08
 
   -0.60488E+08         0.43147E+06         0.00000E+00
    0.43147E+06        -0.49081E+08         0.00000E+00
    0.00000E+00         0.00000E+00        -0.61670E+08
 
   -0.60539E+08         0.46982E+06         0.00000E+00
    0.46982E+06        -0.49021E+08         0.00000E+00
    0.00000E+00         0.00000E+00        -0.61668E+08
 
   -0.60593E+08         0.50936E+06         0.00000E+00
    0.50936E+06        -0.48965E+08         0.00000E+00
    0.00000E+00         0.00000E+00        -0.61663E+08
 
   -0.60631E+08         0.55338E+06         0.00000E+00
    0.55338E+06        -0.48920E+08         0.00000E+00
    0.00000E+00         0.00000E+00        -0.61627E+08
 
   -0.60679E+08         0.60486E+06         0.00000E+00
    0.60486E+06        -0.48878E+08         0.00000E+00
    0.00000E+00         0.00000E+00        -0.61594E+08
 
   -0.60712E+08         0.66084E+06         0.00000E+00
    0.66084E+06        -0.48866E+08         0.00000E+00
    0.00000E+00         0.00000E+00        -0.61530E+08
 
   -0.60749E+08         0.72003E+06         0.00000E+00
    0.72003E+06        -0.48859E+08         0.00000E+00
    0.00000E+00         0.00000E+00        -0.61464E+08
 
   -0.60765E+08         0.77901E+06         0.00000E+00
    0.77901E+06        -0.48838E+08         0.00000E+00
    0.00000E+00         0.00000E+00        -0.61370E+08
 
   -0.60778E+08         0.83152E+06         0.00000E+00
    0.83152E+06        -0.48814E+08         0.00000E+00
    0.00000E+00         0.00000E+00        -0.61270E+08
 
   -0.60781E+08         0.87649E+06         0.00000E+00
    0.87649E+06        -0.48786E+08         0.00000E+00
    0.00000E+00         0.00000E+00        -0.61165E+08
 
   -0.60772E+08         0.91344E+06         0.00000E+00
    0.91344E+06        -0.48752E+08         0.00000E+00
    0.00000E+00         0.00000E+00        -0.61059E+08
 
   -0.60754E+08         0.94462E+06         0.00000E+00
    0.94462E+06        -0.48719E+08         0.00000E+00
    0.00000E+00         0.00000E+00        -0.60961E+08
 
   -0.60726E+08         0.97384E+06         0.00000E+00
    0.97384E+06        -0.48684E+08         0.00000E+00
    0.00000E+00         0.00000E+00        -0.60869E+08
 
   -0.60691E+08         0.10024E+07         0.00000E+00
    0.10024E+07        -0.48650E+08         0.00000E+00
    0.00000E+00         0.00000E+00        -0.60785E+08
 
   -0.60654E+08         0.10323E+07         0.00000E+00
    0.10323E+07        -0.48620E+08         0.00000E+00
    0.00000E+00         0.00000E+00        -0.60710E+08
 
   -0.60617E+08         0.10656E+07         0.00000E+00
    0.10656E+07        -0.48593E+08         0.00000E+00
    0.00000E+00         0.00000E+00        -0.60645E+08
 
   -0.60580E+08         0.11034E+07         0.00000E+00
    0.11034E+07        -0.48569E+08         0.00000E+00
    0.00000E+00         0.00000E+00        -0.60589E+08
 
   -0.59104E+08        -0.69092E+04         0.00000E+00
   -0.69092E+04        -0.50001E+08         0.00000E+00
    0.00000E+00         0.00000E+00        -0.61278E+08
 
   -0.59093E+08        -0.16509E+05         0.00000E+00
   -0.16509E+05        -0.49998E+08         0.00000E+00
    0.00000E+00         0.00000E+00        -0.61275E+08
 
   -0.59088E+08        -0.24291E+05         0.00000E+00
   -0.24291E+05        -0.49992E+08         0.00000E+00
    0.00000E+00         0.00000E+00        -0.61273E+08
 
   -0.59088E+08        -0.30215E+05         0.00000E+00
   -0.30215E+05        -0.49984E+08         0.00000E+00
    0.00000E+00         0.00000E+00        -0.61271E+08
 
   -0.59093E+08        -0.34259E+05         0.00000E+00
   -0.34259E+05        -0.49974E+08         0.00000E+00
    0.00000E+00         0.00000E+00        -0.61270E+08
 
   -0.59102E+08        -0.36406E+05         0.00000E+00
   -0.36406E+05        -0.49961E+08         0.00000E+00
    0.00000E+00         0.00000E+00        -0.61269E+08
 
   -0.59115E+08        -0.36636E+05         0.00000E+00
   -0.36636E+05        -0.49946E+08         0.00000E+00
    0.00000E+00         0.00000E+00        -0.61269E+08
 
   -0.59133E+08        -0.34928E+05         0.00000E+00
   -0.34928E+05        -0.49929E+08         0.00000E+00
    0.00000E+00         0.00000E+00        -0.61269E+08
 
   -0.59154E+08        -0.31268E+05         0.00000E+00
   -0.31268E+05        -0.49911E+08         0.00000E+00
    0.00000E+00         0.00000E+00        -0.61270E+08
 
   -0.59178E+08        -0.25644E+05         0.00000E+00
   -0.25644E+05        -0.49890E+08         0.00000E+00
    0.00000E+00         0.00000E+00        -0.61270E+08
 
   -0.59206E+08        -0.18042E+05         0.00000E+00
   -0.18042E+05        -0.49868E+08         0.00000E+00
    0.00000E+00         0.00000E+00        -0.61271E+08
 
   -0.59237E+08        -0.84593E+04         0.00000E+00
   -0.84593E+04        -0.49844E+08         0.00000E+00
    0.00000E+00         0.00000E+00        -0.61273E+08
 
   -0.59270E+08         0.30962E+04         0.00000E+00
    0.30962E+04        -0.49818E+08         0.00000E+00
    0.00000E+00         0.00000E+00        -0.61274E+08
 
   -0.59306E+08         0.16631E+05         0.00000E+00
    0.16631E+05        -0.49791E+08         0.00000E+00
    0.00000E+00         0.00000E+00        -0.61276E+08
 
   -0.59345E+08         0.32152E+05         0.00000E+00
    0.32152E+05        -0.49763E+08         0.00000E+00
    0.00000E+00         0.00000E+00        -0.61278E+08
 
   -0.59386E+08         0.49637E+05         0.00000E+00
    0.49637E+05        -0.49733E+08         0.00000E+00
    0.00000E+00         0.00000E+00        -0.61280E+08
 
   -0.59428E+08         0.69062E+05         0.00000E+00
    0.69062E+05        -0.49702E+08         0.00000E+00
    0.00000E+00         0.00000E+00        -0.61283E+08
 
   -0.59473E+08         0.90411E+05         0.00000E+00
    0.90411E+05        -0.49670E+08         0.00000E+00
    0.00000E+00         0.00000E+00        -0.61285E+08
 
   -0.59519E+08         0.11366E+06         0.00000E+00
    0.11366E+06        -0.49637E+08         0.00000E+00
    0.00000E+00         0.00000E+00        -0.61288E+08
 
   -0.59567E+08         0.13877E+06         0.00000E+00
    0.13877E+06        -0.49603E+08         0.00000E+00
    0.00000E+00         0.00000E+00        -0.61291E+08
 
   -0.59616E+08         0.16571E+06         0.00000E+00
    0.16571E+06        -0.49567E+08         0.00000E+00
    0.00000E+00         0.00000E+00        -0.61293E+08
 
   -0.59666E+08         0.19447E+06         0.00000E+00
    0.19447E+06        -0.49531E+08         0.00000E+00
    0.00000E+00         0.00000E+00        -0.61296E+08
 
   -0.59717E+08         0.22496E+06         0.00000E+00
    0.22496E+06        -0.49494E+08         0.00000E+00
    0.00000E+00         0.00000E+00        -0.61299E+08
 
   -0.59768E+08         0.25711E+06         0.00000E+00
    0.25711E+06        -0.49456E+08         0.00000E+00
    0.00000E+00         0.00000E+00        -0.61301E+08
 
   -0.59820E+08         0.29092E+06         0.00000E+00
    0.29092E+06        -0.49417E+08         0.00000E+00
    0.00000E+00         0.00000E+00        -0.61304E+08
 
   -0.59872E+08         0.32636E+06         0.00000E+00
    0.32636E+06        -0.49377E+08         0.00000E+00
    0.00000E+00         0.00000E+00        -0.61306E+08
 
   -0.59924E+08         0.36330E+06         0.00000E+00
    0.36330E+06        -0.49336E+08         0.00000E+00
    0.00000E+00         0.00000E+00        -0.61309E+08
 
   -0.59976E+08         0.40162E+06         0.00000E+00
    0.40162E+06        -0.49295E+08         0.00000E+00
    0.00000E+00         0.00000E+00        -0.61311E+08
 
   -0.60028E+08         0.44115E+06         0.00000E+00
    0.44115E+06        -0.49253E+08         0.00000E+00
    0.00000E+00         0.00000E+00        -0.61313E+08
 
   -0.60079E+08         0.48194E+06         0.00000E+00
    0.48194E+06        -0.49209E+08         0.00000E+00
    0.00000E+00         0.00000E+00        -0.61314E+08
 
   -0.60129E+08         0.52375E+06         0.00000E+00
    0.52375E+06        -0.49166E+08         0.00000E+00
    0.00000E+00         0.00000E+00        -0.61316E+08
 
   -0.60179E+08         0.56656E+06         0.00000E+00
    0.56656E+06        -0.49121E+08         0.00000E+00
    0.00000E+00         0.00000E+00        -0.61317E+08
 
   -0.60227E+08         0.61080E+06         0.00000E+00
    0.61080E+06        -0.49076E+08         0.00000E+00
    0.00000E+00         0.00000E+00        -0.61317E+08
 
   -0.60274E+08         0.65620E+06         0.00000E+00
    0.65620E+06        -0.49031E+08         0.00000E+00
    0.00000E+00         0.00000E+00        -0.61318E+08
 
   -0.60318E+08         0.70188E+06         0.00000E+00
    0.70188E+06        -0.48988E+08         0.00000E+00
    0.00000E+00         0.00000E+00        -0.61318E+08
 
   -0.60359E+08         0.74773E+06         0.00000E+00
    0.74773E+06        -0.48944E+08         0.00000E+00
    0.00000E+00         0.00000E+00        -0.61317E+08
 
   -0.60397E+08         0.79081E+06         0.00000E+00
    0.79081E+06        -0.48903E+08         0.00000E+00
    0.00000E+00         0.00000E+00        -0.61317E+08
 
   -0.60435E+08         0.82921E+06         0.00000E+00
    0.82921E+06        -0.48861E+08         0.00000E+00
    0.00000E+00         0.00000E+00        -0.61316E+08
 
   -0.60470E+08         0.86639E+06         0.00000E+00
    0.86639E+06        -0.48790E+08         0.00000E+00
    0.00000E+00         0.00000E+00        -0.61309E+08
 
   -0.60514E+08         0.90215E+06         0.00000E+00
    0.90215E+06        -0.48719E+08         0.00000E+00
    0.00000E+00         0.00000E+00        -0.61303E+08
 
   -0.60538E+08         0.93957E+06         0.00000E+00
    0.93957E+06        -0.48658E+08         0.00000E+00
    0.00000E+00         0.00000E+00        -0.61261E+08
 
   -0.60568E+08         0.98317E+06         0.00000E+00
    0.98317E+06        -0.48603E+08         0.00000E+00
    0.00000E+00         0.00000E+00        -0.61217E+08
 
   -0.60585E+08         0.10296E+07         0.00000E+00
    0.10296E+07        -0.48576E+08         0.00000E+00
    0.00000E+00         0.00000E+00        -0.61147E+08
 
   -0.60601E+08         0.10770E+07         0.00000E+00
    0.10770E+07        -0.48562E+08         0.00000E+00
    0.00000E+00         0.00000E+00        -0.61067E+08
 
   -0.60595E+08         0.11229E+07         0.00000E+00
    0.11229E+07        -0.48533E+08         0.00000E+00
    0.00000E+00         0.00000E+00        -0.60961E+08
 
   -0.60581E+08         0.11603E+07         0.00000E+00
    0.11603E+07        -0.48498E+08         0.00000E+00
    0.00000E+00         0.00000E+00        -0.60847E+08
 
   -0.60557E+08         0.11875E+07         0.00000E+00
    0.11875E+07        -0.48458E+08         0.00000E+00
    0.00000E+00         0.00000E+00        -0.60731E+08
 
   -0.60519E+08         0.12061E+07         0.00000E+00
    0.12061E+07        -0.48413E+08         0.00000E+00
    0.00000E+00         0.00000E+00        -0.60618E+08
 
   -0.60475E+08         0.12207E+07         0.00000E+00
    0.12207E+07        -0.48371E+08         0.00000E+00
    0.00000E+00         0.00000E+00        -0.60523E+08
 
   -0.60427E+08         0.12379E+07         0.00000E+00
    0.12379E+07        -0.48333E+08         0.00000E+00
    0.00000E+00         0.00000E+00        -0.60441E+08
 
   -0.59122E+08         0.61404E+03         0.00000E+00
    0.61404E+03        -0.50001E+08         0.00000E+00
    0.00000E+00         0.00000E+00        -0.60982E+08
 
   -0.59104E+08         0.42463E+04         0.00000E+00
    0.42463E+04        -0.49998E+08         0.00000E+00
    0.00000E+00         0.00000E+00        -0.60978E+08
 
   -0.59092E+08         0.90163E+04         0.00000E+00
    0.90163E+04        -0.49993E+08         0.00000E+00
    0.00000E+00         0.00000E+00        -0.60974E+08
 
   -0.59084E+08         0.14991E+05         0.00000E+00
    0.14991E+05        -0.49985E+08         0.00000E+00
    0.00000E+00         0.00000E+00        -0.60971E+08
 
   -0.59081E+08         0.22239E+05         0.00000E+00
    0.22239E+05        -0.49975E+08         0.00000E+00
    0.00000E+00         0.00000E+00        -0.60969E+08
 
   -0.59082E+08         0.30819E+05         0.00000E+00
    0.30819E+05        -0.49963E+08         0.00000E+00
    0.00000E+00         0.00000E+00        -0.60966E+08
 
   -0.59087E+08         0.40784E+05         0.00000E+00
    0.40784E+05        -0.49949E+08         0.00000E+00
    0.00000E+00         0.00000E+00        -0.60965E+08
 
   -0.59095E+08         0.52183E+05         0.00000E+00
    0.52183E+05        -0.49933E+08         0.00000E+00
    0.00000E+00         0.00000E+00        -0.60963E+08
 
   -0.59108E+08         0.65058E+05         0.00000E+00
    0.65058E+05        -0.49915E+08         0.00000E+00
    0.00000E+00         0.00000E+00        -0.60962E+08
 
   -0.59124E+08         0.79446E+05         0.00000E+00
    0.79446E+05        -0.49895E+08         0.00000E+00
    0.00000E+00         0.00000E+00        -0.60961E+08
 
   -0.59142E+08         0.95378E+05         0.00000E+00
    0.95378E+05        -0.49874E+08         0.00000E+00
    0.00000E+00         0.00000E+00        -0.60961E+08
 
   -0.59164E+08         0.11288E+06         0.00000E+00
    0.11288E+06        -0.49851E+08         0.00000E+00
    0.00000E+00         0.00000E+00        -0.60961E+08
 
   -0.59189E+08         0.13199E+06         0.00000E+00
    0.13199E+06        -0.49827E+08         0.00000E+00
    0.00000E+00         0.00000E+00        -0.60961E+08
 
   -0.59216E+08         0.15270E+06         0.00000E+00
    0.15270E+06        -0.49801E+08         0.00000E+00
    0.00000E+00         0.00000E+00        -0.60961E+08
 
   -0.59246E+08         0.17505E+06         0.00000E+00
    0.17505E+06        -0.49773E+08         0.00000E+00
    0.00000E+00         0.00000E+00        -0.60961E+08
 
   -0.59278E+08         0.19902E+06         0.00000E+00
    0.19902E+06        -0.49745E+08         0.00000E+00
    0.00000E+00         0.00000E+00        -0.60962E+08
 
   -0.59311E+08         0.22464E+06         0.00000E+00
    0.22464E+06        -0.49715E+08         0.00000E+00
    0.00000E+00         0.00000E+00        -0.60963E+08
 
   -0.59347E+08         0.25189E+06         0.00000E+00
    0.25189E+06        -0.49684E+08         0.00000E+00
    0.00000E+00         0.00000E+00        -0.60964E+08
 
   -0.59385E+08         0.28077E+06         0.00000E+00
    0.28077E+06        -0.49652E+08         0.00000E+00
    0.00000E+00         0.00000E+00        -0.60965E+08
 
   -0.59424E+08         0.31127E+06         0.00000E+00
    0.31127E+06        -0.49619E+08         0.00000E+00
    0.00000E+00         0.00000E+00        -0.60966E+08
 
   -0.59464E+08         0.34337E+06         0.00000E+00
    0.34337E+06        -0.49584E+08         0.00000E+00
    0.00000E+00         0.00000E+00        -0.60967E+08
 
   -0.59506E+08         0.37703E+06         0.00000E+00
    0.37703E+06        -0.49549E+08         0.00000E+00
    0.00000E+00         0.00000E+00        -0.60968E+08
 
   -0.59548E+08         0.41225E+06         0.00000E+00
    0.41225E+06        -0.49513E+08         0.00000E+00
    0.00000E+00         0.00000E+00        -0.60970E+08
 
   -0.59592E+08         0.44900E+06         0.00000E+00
    0.44900E+06        -0.49475E+08         0.00000E+00
    0.00000E+00         0.00000E+00        -0.60971E+08
 
   -0.59636E+08         0.48721E+06         0.00000E+00
    0.48721E+06        -0.49437E+08         0.00000E+00
    0.00000E+00         0.00000E+00        -0.60972E+08
 
   -0.59681E+08         0.52683E+06         0.00000E+00
    0.52683E+06        -0.49398E+08         0.00000E+00
    0.00000E+00         0.00000E+00        -0.60973E+08
 
   -0.59726E+08         0.56781E+06         0.00000E+00
    0.56781E+06        -0.49359E+08         0.00000E+00
    0.00000E+00         0.00000E+00        -0.60974E+08
 
   -0.59772E+08         0.61008E+06         0.00000E+00
    0.61008E+06        -0.49318E+08         0.00000E+00
    0.00000E+00         0.00000E+00        -0.60975E+08
 
   -0.59817E+08         0.65360E+06         0.00000E+00
    0.65360E+06        -0.49276E+08         0.00000E+00
    0.00000E+00         0.00000E+00        -0.60976E+08
 
   -0.59863E+08         0.69823E+06         0.00000E+00
    0.69823E+06        -0.49234E+08         0.00000E+00
    0.00000E+00         0.00000E+00        -0.60977E+08
 
   -0.59908E+08         0.74391E+06         0.00000E+00
    0.74391E+06        -0.49191E+08         0.00000E+00
    0.00000E+00         0.00000E+00        -0.60977E+08
 
   -0.59953E+08         0.79055E+06         0.00000E+00
    0.79055E+06        -0.49148E+08         0.00000E+00
    0.00000E+00         0.00000E+00        -0.60978E+08
 
   -0.59998E+08         0.83783E+06         0.00000E+00
    0.83783E+06        -0.49103E+08         0.00000E+00
    0.00000E+00         0.00000E+00        -0.60978E+08
 
   -0.60042E+08         0.88560E+06         0.00000E+00
    0.88560E+06        -0.49058E+08         0.00000E+00
    0.00000E+00         0.00000E+00        -0.60977E+08
 
   -0.60085E+08         0.93388E+06         0.00000E+00
    0.93388E+06        -0.49011E+08         0.00000E+00
    0.00000E+00         0.00000E+00        -0.60977E+08
 
   -0.60128E+08         0.98230E+06         0.00000E+00
    0.98230E+06        -0.48964E+08         0.00000E+00
    0.00000E+00         0.00000E+00        -0.60976E+08
 
   -0.60170E+08         0.10312E+07         0.00000E+00
    0.10312E+07        -0.48915E+08         0.00000E+00
    0.00000E+00         0.00000E+00        -0.60974E+08
 
   -0.60209E+08         0.10812E+07         0.00000E+00
    0.10812E+07        -0.48864E+08         0.00000E+00
    0.00000E+00         0.00000E+00        -0.60972E+08
 
   -0.60248E+08         0.11305E+07         0.00000E+00
    0.11305E+07        -0.48819E+08         0.00000E+00
    0.00000E+00         0.00000E+00        -0.60971E+08
 
   -0.60282E+08         0.11791E+07         0.00000E+00
    0.11791E+07        -0.48770E+08         0.00000E+00
    0.00000E+00         0.00000E+00        -0.60968E+08
 
   -0.60314E+08         0.12236E+07         0.00000E+00
    0.12236E+07        -0.48725E+08         0.00000E+00
    0.00000E+00         0.00000E+00        -0.60965E+08
 
   -0.60347E+08         0.12608E+07         0.00000E+00
    0.12608E+07        -0.48677E+08         0.00000E+00
    0.00000E+00         0.00000E+00        -0.60962E+08
 
   -0.60379E+08         0.12945E+07         0.00000E+00
    0.12945E+07        -0.48601E+08         0.00000E+00
    0.00000E+00         0.00000E+00        -0.60954E+08
 
   -0.60421E+08         0.13244E+07         0.00000E+00
    0.13244E+07        -0.48515E+08         0.00000E+00
    0.00000E+00         0.00000E+00        -0.60944E+08
 
   -0.60442E+08         0.13525E+07         0.00000E+00
    0.13525E+07        -0.48437E+08         0.00000E+00
    0.00000E+00         0.00000E+00        -0.60899E+08
 
   -0.60463E+08         0.13841E+07         0.00000E+00
    0.13841E+07        -0.48365E+08         0.00000E+00
    0.00000E+00         0.00000E+00        -0.60844E+08
 
   -0.60468E+08         0.14144E+07         0.00000E+00
    0.14144E+07        -0.48323E+08         0.00000E+00
    0.00000E+00         0.00000E+00        -0.60761E+08
 
   -0.60463E+08         0.14402E+07         0.00000E+00
    0.14402E+07        -0.48296E+08         0.00000E+00
    0.00000E+00         0.00000E+00        -0.60666E+08
 
   -0.60424E+08         0.14586E+07         0.00000E+00
    0.14586E+07        -0.48247E+08         0.00000E+00
    0.00000E+00         0.00000E+00        -0.60538E+08
 
   -0.60372E+08         0.14592E+07         0.00000E+00
    0.14592E+07        -0.48188E+08         0.00000E+00
    0.00000E+00         0.00000E+00        -0.60406E+08
 
   -0.59075E+08         0.75323E+04         0.00000E+00
    0.75323E+04        -0.50001E+08         0.00000E+00
    0.00000E+00         0.00000E+00        -0.60673E+08
 
   -0.59053E+08         0.23435E+05         0.00000E+00
    0.23435E+05        -0.49998E+08         0.00000E+00
    0.00000E+00         0.00000E+00        -0.60668E+08
 
   -0.59036E+08         0.39859E+05         0.00000E+00
    0.39859E+05        -0.49993E+08         0.00000E+00
    0.00000E+00         0.00000E+00        -0.60664E+08
 
   -0.59024E+08         0.56918E+05         0.00000E+00
    0.56918E+05        -0.49986E+08         0.00000E+00
    0.00000E+00         0.00000E+00        -0.60660E+08
 
   -0.59015E+08         0.74711E+05         0.00000E+00
    0.74711E+05        -0.49977E+08         0.00000E+00
    0.00000E+00         0.00000E+00        -0.60657E+08
 
   -0.59011E+08         0.93329E+05         0.00000E+00
    0.93329E+05        -0.49967E+08         0.00000E+00
    0.00000E+00         0.00000E+00        -0.60654E+08
 
   -0.59010E+08         0.11285E+06         0.00000E+00
    0.11285E+06        -0.49954E+08         0.00000E+00
    0.00000E+00         0.00000E+00        -0.60651E+08
 
   -0.59012E+08         0.13336E+06         0.00000E+00
    0.13336E+06        -0.49939E+08         0.00000E+00
    0.00000E+00         0.00000E+00        -0.60649E+08
 
   -0.59018E+08         0.15491E+06         0.00000E+00
    0.15491E+06        -0.49923E+08         0.00000E+00
    0.00000E+00         0.00000E+00        -0.60646E+08
 
   -0.59027E+08         0.17756E+06         0.00000E+00
    0.17756E+06        -0.49905E+08         0.00000E+00
    0.00000E+00         0.00000E+00        -0.60645E+08
 
   -0.59039E+08         0.20138E+06         0.00000E+00
    0.20138E+06        -0.49886E+08         0.00000E+00
    0.00000E+00         0.00000E+00        -0.60643E+08
 
   -0.59054E+08         0.22639E+06         0.00000E+00
    0.22639E+06        -0.49865E+08         0.00000E+00
    0.00000E+00         0.00000E+00        -0.60642E+08
 
   -0.59072E+08         0.25266E+06         0.00000E+00
    0.25266E+06        -0.49842E+08         0.00000E+00
    0.00000E+00         0.00000E+00        -0.60641E+08
 
   -0.59092E+08         0.28020E+06         0.00000E+00
    0.28020E+06        -0.49819E+08         0.00000E+00
    0.00000E+00         0.00000E+00        -0.60640E+08
 
   -0.59114E+08         0.30905E+06         0.00000E+00
    0.30905E+06        -0.49794E+08         0.00000E+00
    0.00000E+00         0.00000E+00        -0.60640E+08
 
   -0.59138E+08         0.33924E+06         0.00000E+00
    0.33924E+06        -0.49768E+08         0.00000E+00
    0.00000E+00         0.00000E+00        -0.60639E+08
 
   -0.59165E+08         0.37078E+06         0.00000E+00
    0.37078E+06        -0.49740E+08         0.00000E+00
    0.00000E+00         0.00000E+00        -0.60639E+08
 
   -0.59193E+08         0.40368E+06         0.00000E+00
    0.40368E+06        -0.49712E+08         0.00000E+00
    0.00000E+00         0.00000E+00        -0.60639E+08
 
   -0.59223E+08         0.43796E+06         0.00000E+00
    0.43796E+06        -0.49682E+08         0.00000E+00
    0.00000E+00         0.00000E+00        -0.60639E+08
 
   -0.59255E+08         0.47361E+06         0.00000E+00
    0.47361E+06        -0.49652E+08         0.00000E+00
    0.00000E+00         0.00000E+00        -0.60640E+08
 
   -0.59288E+08         0.51064E+06         0.00000E+00
    0.51064E+06        -0.49621E+08         0.00000E+00
    0.00000E+00         0.00000E+00        -0.60640E+08
 
   -0.59322E+08         0.54903E+06         0.00000E+00
    0.54903E+06        -0.49588E+08         0.00000E+00
    0.00000E+00         0.00000E+00        -0.60640E+08
 
   -0.59357E+08         0.58878E+06         0.00000E+00
    0.58878E+06        -0.49555E+08         0.00000E+00
    0.00000E+00         0.00000E+00        -0.60641E+08
 
   -0.59394E+08         0.62987E+06         0.00000E+00
    0.62987E+06        -0.49521E+08         0.00000E+00
    0.00000E+00         0.00000E+00        -0.60641E+08
 
   -0.59431E+08         0.67226E+06         0.00000E+00
    0.67226E+06        -0.49487E+08         0.00000E+00
    0.00000E+00         0.00000E+00        -0.60642E+08
 
   -0.59470E+08         0.71593E+06         0.00000E+00
    0.71593E+06        -0.49451E+08         0.00000E+00
    0.00000E+00         0.00000E+00        -0.60642E+08
 
   -0.59509E+08         0.76085E+06         0.00000E+00
    0.76085E+06        -0.49415E+08         0.00000E+00
    0.00000E+00         0.00000E+00        -0.60643E+08
 
   -0.59548E+08         0.80697E+06         0.00000E+00
    0.80697E+06        -0.49378E+08         0.00000E+00
    0.00000E+00         0.00000E+00        -0.60643E+08
 
   -0.59588E+08         0.85423E+06         0.00000E+00
    0.85423E+06        -0.49340E+08         0.00000E+00
    0.00000E+00         0.00000E+00        -0.60644E+08
 
   -0.59628E+08         0.90258E+06         0.00000E+00
    0.90258E+06        -0.49302E+08         0.00000E+00
    0.00000E+00         0.00000E+00        -0.60644E+08
 
   -0.59669E+08         0.95195E+06         0.00000E+00
    0.95195E+06        -0.49263E+08         0.00000E+00
    0.00000E+00         0.00000E+00        -0.60645E+08
 
   -0.59710E+08         0.10022E+07         0.00000E+00
    0.10022E+07        -0.49223E+08         0.00000E+00
    0.00000E+00         0.00000E+00        -0.60645E+08
 
   -0.59750E+08         0.10534E+07         0.00000E+00
    0.10534E+07        -0.49183E+08         0.00000E+00
    0.00000E+00         0.00000E+00        -0.60645E+08
 
   -0.59791E+08         0.11054E+07         0.00000E+00
    0.11054E+07        -0.49142E+08         0.00000E+00
    0.00000E+00         0.00000E+00        -0.60645E+08
 
   -0.59832E+08         0.11580E+07         0.00000E+00
    0.11580E+07        -0.49101E+08         0.00000E+00
    0.00000E+00         0.00000E+00        -0.60645E+08
 
   -0.59873E+08         0.12112E+07         0.00000E+00
    0.12112E+07        -0.49058E+08         0.00000E+00
    0.00000E+00         0.00000E+00        -0.60644E+08
 
   -0.59913E+08         0.12648E+07         0.00000E+00
    0.12648E+07        -0.49016E+08         0.00000E+00
    0.00000E+00         0.00000E+00        -0.60644E+08
 
   -0.59954E+08         0.13183E+07         0.00000E+00
    0.13183E+07        -0.48972E+08         0.00000E+00
    0.00000E+00         0.00000E+00        -0.60643E+08
 
   -0.59994E+08         0.13719E+07         0.00000E+00
    0.13719E+07        -0.48927E+08         0.00000E+00
    0.00000E+00         0.00000E+00        -0.60642E+08
 
   -0.60035E+08         0.14254E+07         0.00000E+00
    0.14254E+07        -0.48881E+08         0.00000E+00
    0.00000E+00         0.00000E+00        -0.60641E+08
 
   -0.60076E+08         0.14789E+07         0.00000E+00
    0.14789E+07        -0.48833E+08         0.00000E+00
    0.00000E+00         0.00000E+00        -0.60640E+08
 
   -0.60117E+08         0.15334E+07         0.00000E+00
    0.15334E+07        -0.48782E+08         0.00000E+00
    0.00000E+00         0.00000E+00        -0.60638E+08
 
   -0.60157E+08         0.15870E+07         0.00000E+00
    0.15870E+07        -0.48736E+08         0.00000E+00
    0.00000E+00         0.00000E+00        -0.60637E+08
 
   -0.60195E+08         0.16396E+07         0.00000E+00
    0.16396E+07        -0.48688E+08         0.00000E+00
    0.00000E+00         0.00000E+00        -0.60635E+08
 
   -0.60232E+08         0.16873E+07         0.00000E+00
    0.16873E+07        -0.48643E+08         0.00000E+00
    0.00000E+00         0.00000E+00        -0.60633E+08
 
   -0.60273E+08         0.17256E+07         0.00000E+00
    0.17256E+07        -0.48595E+08         0.00000E+00
    0.00000E+00         0.00000E+00        -0.60632E+08
 
   -0.60317E+08         0.17586E+07         0.00000E+00
    0.17586E+07        -0.48513E+08         0.00000E+00
    0.00000E+00         0.00000E+00        -0.60624E+08
 
   -0.60377E+08         0.17853E+07         0.00000E+00
    0.17853E+07        -0.48412E+08         0.00000E+00
    0.00000E+00         0.00000E+00        -0.60616E+08
 
   -0.60408E+08         0.18057E+07         0.00000E+00
    0.18057E+07        -0.48320E+08         0.00000E+00
    0.00000E+00         0.00000E+00        -0.60559E+08
 
   -0.60440E+08         0.18251E+07         0.00000E+00
    0.18251E+07        -0.48231E+08         0.00000E+00
    0.00000E+00         0.00000E+00        -0.60491E+08
 
   -0.58968E+08         0.13525E+05         0.00000E+00
    0.13525E+05        -0.50001E+08         0.00000E+00
    0.00000E+00         0.00000E+00        -0.60353E+08
 
   -0.58945E+08         0.40215E+05         0.00000E+00
    0.40215E+05        -0.49998E+08         0.00000E+00
    0.00000E+00         0.00000E+00        -0.60348E+08
 
   -0.58927E+08         0.66947E+05         0.00000E+00
    0.66947E+05        -0.49994E+08         0.00000E+00
    0.00000E+00         0.00000E+00        -0.60343E+08
 
   -0.58912E+08         0.93853E+05         0.00000E+00
    0.93853E+05        -0.49988E+08         0.00000E+00
    0.00000E+00         0.00000E+00        -0.60339E+08
 
   -0.58901E+08         0.12105E+06         0.00000E+00
    0.12105E+06        -0.49981E+08         0.00000E+00
    0.00000E+00         0.00000E+00        -0.60335E+08
 
   -0.58893E+08         0.14865E+06         0.00000E+00
    0.14865E+06        -0.49971E+08         0.00000E+00
    0.00000E+00         0.00000E+00        -0.60332E+08
 
   -0.58888E+08         0.17676E+06         0.00000E+00
    0.17676E+06        -0.49960E+08         0.00000E+00
    0.00000E+00         0.00000E+00        -0.60329E+08
 
   -0.58887E+08         0.20545E+06         0.00000E+00
    0.20545E+06        -0.49948E+08         0.00000E+00
    0.00000E+00         0.00000E+00        -0.60326E+08
 
   -0.58888E+08         0.23482E+06         0.00000E+00
    0.23482E+06        -0.49933E+08         0.00000E+00
    0.00000E+00         0.00000E+00        -0.60323E+08
 
   -0.58893E+08         0.26493E+06         0.00000E+00
    0.26493E+06        -0.49918E+08         0.00000E+00
    0.00000E+00         0.00000E+00        -0.60321E+08
 
   -0.58900E+08         0.29586E+06         0.00000E+00
    0.29586E+06        -0.49901E+08         0.00000E+00
    0.00000E+00         0.00000E+00        -0.60319E+08
 
   -0.58909E+08         0.32766E+06         0.00000E+00
    0.32766E+06        -0.49883E+08         0.00000E+00
    0.00000E+00         0.00000E+00        -0.60317E+08
 
   -0.58921E+08         0.36038E+06         0.00000E+00
    0.36038E+06        -0.49863E+08         0.00000E+00
    0.00000E+00         0.00000E+00        -0.60316E+08
 
   -0.58936E+08         0.39406E+06         0.00000E+00
    0.39406E+06        -0.49843E+08         0.00000E+00
    0.00000E+00         0.00000E+00        -0.60315E+08
 
   -0.58952E+08         0.42876E+06         0.00000E+00
    0.42876E+06        -0.49821E+08         0.00000E+00
    0.00000E+00         0.00000E+00        -0.60314E+08
 
   -0.58970E+08         0.46451E+06         0.00000E+00
    0.46451E+06        -0.49798E+08         0.00000E+00
    0.00000E+00         0.00000E+00        -0.60313E+08
 
   -0.58991E+08         0.50132E+06         0.00000E+00
    0.50132E+06        -0.49774E+08         0.00000E+00
    0.00000E+00         0.00000E+00        -0.60312E+08
 
   -0.59013E+08         0.53923E+06         0.00000E+00
    0.53923E+06        -0.49749E+08         0.00000E+00
    0.00000E+00         0.00000E+00        -0.60311E+08
 
   -0.59037E+08         0.57826E+06         0.00000E+00
    0.57826E+06        -0.49724E+08         0.00000E+00
    0.00000E+00         0.00000E+00        -0.60311E+08
 
   -0.59062E+08         0.61842E+06         0.00000E+00
    0.61842E+06        -0.49697E+08         0.00000E+00
    0.00000E+00         0.00000E+00        -0.60311E+08
 
   -0.59089E+08         0.65971E+06         0.00000E+00
    0.65971E+06        -0.49670E+08         0.00000E+00
    0.00000E+00         0.00000E+00        -0.60311E+08
 
   -0.59117E+08         0.70213E+06         0.00000E+00
    0.70213E+06        -0.49642E+08         0.00000E+00
    0.00000E+00         0.00000E+00        -0.60311E+08
 
   -0.59146E+08         0.74570E+06         0.00000E+00
    0.74570E+06        -0.49613E+08         0.00000E+00
    0.00000E+00         0.00000E+00        -0.60311E+08
 
   -0.59177E+08         0.79039E+06         0.00000E+00
    0.79039E+06        -0.49584E+08         0.00000E+00
    0.00000E+00         0.00000E+00        -0.60311E+08
 
   -0.59208E+08         0.83620E+06         0.00000E+00
    0.83620E+06        -0.49554E+08         0.00000E+00
    0.00000E+00         0.00000E+00        -0.60311E+08
 
   -0.59240E+08         0.88310E+06         0.00000E+00
    0.88310E+06        -0.49523E+08         0.00000E+00
    0.00000E+00         0.00000E+00        -0.60312E+08
 
   -0.59274E+08         0.93108E+06         0.00000E+00
    0.93108E+06        -0.49492E+08         0.00000E+00
    0.00000E+00         0.00000E+00        -0.60312E+08
 
   -0.59308E+08         0.98010E+06         0.00000E+00
    0.98010E+06        -0.49460E+08         0.00000E+00
    0.00000E+00         0.00000E+00        -0.60313E+08
 
   -0.59342E+08         0.10301E+07         0.00000E+00
    0.10301E+07        -0.49428E+08         0.00000E+00
    0.00000E+00         0.00000E+00        -0.60313E+08
 
   -0.59378E+08         0.10811E+07         0.00000E+00
    0.10811E+07        -0.49396E+08         0.00000E+00
    0.00000E+00         0.00000E+00        -0.60314E+08
 
   -0.59414E+08         0.11331E+07         0.00000E+00
    0.11331E+07        -0.49363E+08         0.00000E+00
    0.00000E+00         0.00000E+00        -0.60314E+08
 
   -0.59450E+08         0.11859E+07         0.00000E+00
    0.11859E+07        -0.49330E+08         0.00000E+00
    0.00000E+00         0.00000E+00        -0.60315E+08
 
   -0.59487E+08         0.12395E+07         0.00000E+00
    0.12395E+07        -0.49296E+08         0.00000E+00
    0.00000E+00         0.00000E+00        -0.60316E+08
 
   -0.59524E+08         0.12938E+07         0.00000E+00
    0.12938E+07        -0.49262E+08         0.00000E+00
    0.00000E+00         0.00000E+00        -0.60316E+08
 
   -0.59562E+08         0.13489E+07         0.00000E+00
    0.13489E+07        -0.49228E+08         0.00000E+00
    0.00000E+00         0.00000E+00        -0.60317E+08
 
   -0.59600E+08         0.14045E+07         0.00000E+00
    0.14045E+07        -0.49194E+08         0.00000E+00
    0.00000E+00         0.00000E+00        -0.60318E+08
 
   -0.59639E+08         0.14606E+07         0.00000E+00
    0.14606E+07        -0.49159E+08         0.00000E+00
    0.00000E+00         0.00000E+00        -0.60319E+08
 
   -0.59678E+08         0.15172E+07         0.00000E+00
    0.15172E+07        -0.49124E+08         0.00000E+00
    0.00000E+00         0.00000E+00        -0.60319E+08
 
   -0.59718E+08         0.15741E+07         0.00000E+00
    0.15741E+07        -0.49089E+08         0.00000E+00
    0.00000E+00         0.00000E+00        -0.60320E+08
 
   -0.59758E+08         0.16312E+07         0.00000E+00
    0.16312E+07        -0.49053E+08         0.00000E+00
    0.00000E+00         0.00000E+00        -0.60321E+08
 
   -0.59800E+08         0.16884E+07         0.00000E+00
    0.16884E+07        -0.49018E+08         0.00000E+00
    0.00000E+00         0.00000E+00        -0.60323E+08
 
   -0.59842E+08         0.17452E+07         0.00000E+00
    0.17452E+07        -0.48983E+08         0.00000E+00
    0.00000E+00         0.00000E+00        -0.60324E+08
 
   -0.59886E+08         0.18017E+07         0.00000E+00
    0.18017E+07        -0.48946E+08         0.00000E+00
    0.00000E+00         0.00000E+00        -0.60325E+08
 
   -0.59933E+08         0.18575E+07         0.00000E+00
    0.18575E+07        -0.48909E+08         0.00000E+00
    0.00000E+00         0.00000E+00        -0.60327E+08
 
   -0.59983E+08         0.19133E+07         0.00000E+00
    0.19133E+07        -0.48871E+08         0.00000E+00
    0.00000E+00         0.00000E+00        -0.60330E+08
 
   -0.60035E+08         0.19699E+07         0.00000E+00
    0.19699E+07        -0.48831E+08         0.00000E+00
    0.00000E+00         0.00000E+00        -0.60332E+08
 
   -0.60092E+08         0.20257E+07         0.00000E+00
    0.20257E+07        -0.48797E+08         0.00000E+00
    0.00000E+00         0.00000E+00        -0.60337E+08
 
   -0.60152E+08         0.20804E+07         0.00000E+00
    0.20804E+07        -0.48763E+08         0.00000E+00
    0.00000E+00         0.00000E+00        -0.60342E+08
 
   -0.60222E+08         0.21284E+07         0.00000E+00
    0.21284E+07        -0.48734E+08         0.00000E+00
    0.00000E+00         0.00000E+00        -0.60350E+08
 
   -0.60315E+08         0.21639E+07         0.00000E+00
    0.21639E+07        -0.48704E+08         0.00000E+00
    0.00000E+00         0.00000E+00        -0.60363E+08
 
   -0.58811E+08         0.18431E+05         0.00000E+00
    0.18431E+05        -0.50000E+08         0.00000E+00
    0.00000E+00         0.00000E+00        -0.60022E+08
 
   -0.58789E+08         0.54151E+05         0.00000E+00
    0.54151E+05        -0.49999E+08         0.00000E+00
    0.00000E+00         0.00000E+00        -0.60017E+08
 
   -0.58771E+08         0.89581E+05         0.00000E+00
    0.89581E+05        -0.49995E+08         0.00000E+00
    0.00000E+00         0.00000E+00        -0.60013E+08
 
   -0.58756E+08         0.12485E+06         0.00000E+00
    0.12485E+06        -0.49991E+08         0.00000E+00
    0.00000E+00         0.00000E+00        -0.60009E+08
 
   -0.58744E+08         0.16009E+06         0.00000E+00
    0.16009E+06        -0.49984E+08         0.00000E+00
    0.00000E+00         0.00000E+00        -0.60005E+08
 
   -0.58734E+08         0.19542E+06         0.00000E+00
    0.19542E+06        -0.49976E+08         0.00000E+00
    0.00000E+00         0.00000E+00        -0.60002E+08
 
   -0.58728E+08         0.23092E+06         0.00000E+00
    0.23092E+06        -0.49967E+08         0.00000E+00
    0.00000E+00         0.00000E+00        -0.59999E+08
 
   -0.58724E+08         0.26670E+06         0.00000E+00
    0.26670E+06        -0.49957E+08         0.00000E+00
    0.00000E+00         0.00000E+00        -0.59996E+08
 
   -0.58723E+08         0.30285E+06         0.00000E+00
    0.30285E+06        -0.49945E+08         0.00000E+00
    0.00000E+00         0.00000E+00        -0.59993E+08
 
   -0.58724E+08         0.33945E+06         0.00000E+00
    0.33945E+06        -0.49932E+08         0.00000E+00
    0.00000E+00         0.00000E+00        -0.59991E+08
 
   -0.58728E+08         0.37655E+06         0.00000E+00
    0.37655E+06        -0.49918E+08         0.00000E+00
    0.00000E+00         0.00000E+00        -0.59989E+08
 
   -0.58733E+08         0.41424E+06         0.00000E+00
    0.41424E+06        -0.49903E+08         0.00000E+00
    0.00000E+00         0.00000E+00        -0.59987E+08
 
   -0.58741E+08         0.45256E+06         0.00000E+00
    0.45256E+06        -0.49886E+08         0.00000E+00
    0.00000E+00         0.00000E+00        -0.59985E+08
 
   -0.58751E+08         0.49157E+06         0.00000E+00
    0.49157E+06        -0.49869E+08         0.00000E+00
    0.00000E+00         0.00000E+00        -0.59984E+08
 
   -0.58763E+08         0.53131E+06         0.00000E+00
    0.53131E+06        -0.49851E+08         0.00000E+00
    0.00000E+00         0.00000E+00        -0.59983E+08
 
   -0.58777E+08         0.57182E+06         0.00000E+00
    0.57182E+06        -0.49831E+08         0.00000E+00
    0.00000E+00         0.00000E+00        -0.59981E+08
 
   -0.58793E+08         0.61314E+06         0.00000E+00
    0.61314E+06        -0.49811E+08         0.00000E+00
    0.00000E+00         0.00000E+00        -0.59981E+08
 
   -0.58810E+08         0.65529E+06         0.00000E+00
    0.65529E+06        -0.49790E+08         0.00000E+00
    0.00000E+00         0.00000E+00        -0.59980E+08
 
   -0.58829E+08         0.69830E+06         0.00000E+00
    0.69830E+06        -0.49769E+08         0.00000E+00
    0.00000E+00         0.00000E+00        -0.59979E+08
 
   -0.58849E+08         0.74218E+06         0.00000E+00
    0.74218E+06        -0.49747E+08         0.00000E+00
    0.00000E+00         0.00000E+00        -0.59979E+08
 
   -0.58871E+08         0.78695E+06         0.00000E+00
    0.78695E+06        -0.49724E+08         0.00000E+00
    0.00000E+00         0.00000E+00        -0.59979E+08
 
   -0.58894E+08         0.83261E+06         0.00000E+00
    0.83261E+06        -0.49700E+08         0.00000E+00
    0.00000E+00         0.00000E+00        -0.59979E+08
 
   -0.58918E+08         0.87917E+06         0.00000E+00
    0.87917E+06        -0.49676E+08         0.00000E+00
    0.00000E+00         0.00000E+00        -0.59979E+08
 
   -0.58944E+08         0.92663E+06         0.00000E+00
    0.92663E+06        -0.49651E+08         0.00000E+00
    0.00000E+00         0.00000E+00        -0.59979E+08
 
   -0.58970E+08         0.97497E+06         0.00000E+00
    0.97497E+06        -0.49626E+08         0.00000E+00
    0.00000E+00         0.00000E+00        -0.59979E+08
 
   -0.58998E+08         0.10242E+07         0.00000E+00
    0.10242E+07        -0.49601E+08         0.00000E+00
    0.00000E+00         0.00000E+00        -0.59979E+08
 
   -0.59026E+08         0.10743E+07         0.00000E+00
    0.10743E+07        -0.49575E+08         0.00000E+00
    0.00000E+00         0.00000E+00        -0.59980E+08
 
   -0.59056E+08         0.11252E+07         0.00000E+00
    0.11252E+07        -0.49549E+08         0.00000E+00
    0.00000E+00         0.00000E+00        -0.59981E+08
 
   -0.59086E+08         0.11769E+07         0.00000E+00
    0.11769E+07        -0.49522E+08         0.00000E+00
    0.00000E+00         0.00000E+00        -0.59981E+08
 
   -0.59117E+08         0.12294E+07         0.00000E+00
    0.12294E+07        -0.49496E+08         0.00000E+00
    0.00000E+00         0.00000E+00        -0.59982E+08
 
   -0.59149E+08         0.12826E+07         0.00000E+00
    0.12826E+07        -0.49469E+08         0.00000E+00
    0.00000E+00         0.00000E+00        -0.59983E+08
 
   -0.59181E+08         0.13365E+07         0.00000E+00
    0.13365E+07        -0.49442E+08         0.00000E+00
    0.00000E+00         0.00000E+00        -0.59984E+08
 
   -0.59215E+08         0.13910E+07         0.00000E+00
    0.13910E+07        -0.49415E+08         0.00000E+00
    0.00000E+00         0.00000E+00        -0.59986E+08
 
   -0.59249E+08         0.14462E+07         0.00000E+00
    0.14462E+07        -0.49387E+08         0.00000E+00
    0.00000E+00         0.00000E+00        -0.59987E+08
 
   -0.59284E+08         0.15018E+07         0.00000E+00
    0.15018E+07        -0.49360E+08         0.00000E+00
    0.00000E+00         0.00000E+00        -0.59989E+08
 
   -0.59320E+08         0.15580E+07         0.00000E+00
    0.15580E+07        -0.49333E+08         0.00000E+00
    0.00000E+00         0.00000E+00        -0.59990E+08
 
   -0.59357E+08         0.16145E+07         0.00000E+00
    0.16145E+07        -0.49305E+08         0.00000E+00
    0.00000E+00         0.00000E+00        -0.59992E+08
 
   -0.59394E+08         0.16713E+07         0.00000E+00
    0.16713E+07        -0.49278E+08         0.00000E+00
    0.00000E+00         0.00000E+00        -0.59994E+08
 
   -0.59433E+08         0.17283E+07         0.00000E+00
    0.17283E+07        -0.49251E+08         0.00000E+00
    0.00000E+00         0.00000E+00        -0.59996E+08
 
   -0.59473E+08         0.17854E+07         0.00000E+00
    0.17854E+07        -0.49223E+08         0.00000E+00
    0.00000E+00         0.00000E+00        -0.59999E+08
 
   -0.59515E+08         0.18426E+07         0.00000E+00
    0.18426E+07        -0.49196E+08         0.00000E+00
    0.00000E+00         0.00000E+00        -0.60002E+08
 
   -0.59558E+08         0.18998E+07         0.00000E+00
    0.18998E+07        -0.49169E+08         0.00000E+00
    0.00000E+00         0.00000E+00        -0.60005E+08
 
   -0.59603E+08         0.19568E+07         0.00000E+00
    0.19568E+07        -0.49142E+08         0.00000E+00
    0.00000E+00         0.00000E+00        -0.60009E+08
 
   -0.59651E+08         0.20138E+07         0.00000E+00
    0.20138E+07        -0.49114E+08         0.00000E+00
    0.00000E+00         0.00000E+00        -0.60013E+08
 
   -0.59701E+08         0.20706E+07         0.00000E+00
    0.20706E+07        -0.49087E+08         0.00000E+00
    0.00000E+00         0.00000E+00        -0.60017E+08
 
   -0.59756E+08         0.21268E+07         0.00000E+00
    0.21268E+07        -0.49059E+08         0.00000E+00
    0.00000E+00         0.00000E+00        -0.60023E+08
 
   -0.59814E+08         0.21831E+07         0.00000E+00
    0.21831E+07        -0.49030E+08         0.00000E+00
    0.00000E+00         0.00000E+00        -0.60029E+08
 
   -0.59878E+08         0.22396E+07         0.00000E+00
    0.22396E+07        -0.49001E+08         0.00000E+00
    0.00000E+00         0.00000E+00        -0.60035E+08
 
   -0.59947E+08         0.22986E+07         0.00000E+00
    0.22986E+07        -0.48968E+08         0.00000E+00
    0.00000E+00         0.00000E+00        -0.60043E+08
 
   -0.60018E+08         0.23639E+07         0.00000E+00
    0.23639E+07        -0.48932E+08         0.00000E+00
    0.00000E+00         0.00000E+00        -0.60050E+08
 
   -0.58612E+08         0.22254E+05         0.00000E+00
    0.22254E+05        -0.50000E+08         0.00000E+00
    0.00000E+00         0.00000E+00        -0.59683E+08
 
   -0.58593E+08         0.65212E+05         0.00000E+00
    0.65212E+05        -0.49999E+08         0.00000E+00
    0.00000E+00         0.00000E+00        -0.59679E+08
 
   -0.58576E+08         0.10769E+06         0.00000E+00
    0.10769E+06        -0.49996E+08         0.00000E+00
    0.00000E+00         0.00000E+00        -0.59675E+08
 
   -0.58562E+08         0.14980E+06         0.00000E+00
    0.14980E+06        -0.49993E+08         0.00000E+00
    0.00000E+00         0.00000E+00        -0.59671E+08
 
   -0.58551E+08         0.19167E+06         0.00000E+00
    0.19167E+06        -0.49988E+08         0.00000E+00
    0.00000E+00         0.00000E+00        -0.59668E+08
 
   -0.58541E+08         0.23339E+06         0.00000E+00
    0.23339E+06        -0.49981E+08         0.00000E+00
    0.00000E+00         0.00000E+00        -0.59665E+08
 
   -0.58534E+08         0.27508E+06         0.00000E+00
    0.27508E+06        -0.49974E+08         0.00000E+00
    0.00000E+00         0.00000E+00        -0.59662E+08
 
   -0.58529E+08         0.31681E+06         0.00000E+00
    0.31681E+06        -0.49966E+08         0.00000E+00
    0.00000E+00         0.00000E+00        -0.59660E+08
 
   -0.58527E+08         0.35866E+06         0.00000E+00
    0.35866E+06        -0.49956E+08         0.00000E+00
    0.00000E+00         0.00000E+00        -0.59657E+08
 
   -0.58526E+08         0.40073E+06         0.00000E+00
    0.40073E+06        -0.49946E+08         0.00000E+00
    0.00000E+00         0.00000E+00        -0.59655E+08
 
   -0.58528E+08         0.44307E+06         0.00000E+00
    0.44307E+06        -0.49934E+08         0.00000E+00
    0.00000E+00         0.00000E+00        -0.59653E+08
 
   -0.58531E+08         0.48574E+06         0.00000E+00
    0.48574E+06        -0.49922E+08         0.00000E+00
    0.00000E+00         0.00000E+00        -0.59651E+08
 
   -0.58536E+08         0.52882E+06         0.00000E+00
    0.52882E+06        -0.49908E+08         0.00000E+00
    0.00000E+00         0.00000E+00        -0.59649E+08
 
   -0.58543E+08         0.57233E+06         0.00000E+00
    0.57233E+06        -0.49894E+08         0.00000E+00
    0.00000E+00         0.00000E+00        -0.59648E+08
 
   -0.58552E+08         0.61634E+06         0.00000E+00
    0.61634E+06        -0.49879E+08         0.00000E+00
    0.00000E+00         0.00000E+00        -0.59647E+08
 
   -0.58563E+08         0.66088E+06         0.00000E+00
    0.66088E+06        -0.49864E+08         0.00000E+00
    0.00000E+00         0.00000E+00        -0.59646E+08
 
   -0.58575E+08         0.70598E+06         0.00000E+00
    0.70598E+06        -0.49847E+08         0.00000E+00
    0.00000E+00         0.00000E+00        -0.59645E+08
 
   -0.58589E+08         0.75168E+06         0.00000E+00
    0.75168E+06        -0.49830E+08         0.00000E+00
    0.00000E+00         0.00000E+00        -0.59644E+08
 
   -0.58604E+08         0.79800E+06         0.00000E+00
    0.79800E+06        -0.49812E+08         0.00000E+00
    0.00000E+00         0.00000E+00        -0.59644E+08
 
   -0.58620E+08         0.84496E+06         0.00000E+00
    0.84496E+06        -0.49794E+08         0.00000E+00
    0.00000E+00         0.00000E+00        -0.59643E+08
 
   -0.58638E+08         0.89257E+06         0.00000E+00
    0.89257E+06        -0.49775E+08         0.00000E+00
    0.00000E+00         0.00000E+00        -0.59643E+08
 
   -0.58657E+08         0.94085E+06         0.00000E+00
    0.94085E+06        -0.49756E+08         0.00000E+00
    0.00000E+00         0.00000E+00        -0.59643E+08
 
   -0.58678E+08         0.98980E+06         0.00000E+00
    0.98980E+06        -0.49736E+08         0.00000E+00
    0.00000E+00         0.00000E+00        -0.59643E+08
 
   -0.58699E+08         0.10394E+07         0.00000E+00
    0.10394E+07        -0.49716E+08         0.00000E+00
    0.00000E+00         0.00000E+00        -0.59643E+08
 
   -0.58722E+08         0.10897E+07         0.00000E+00
    0.10897E+07        -0.49695E+08         0.00000E+00
    0.00000E+00         0.00000E+00        -0.59644E+08
 
   -0.58745E+08         0.11407E+07         0.00000E+00
    0.11407E+07        -0.49674E+08         0.00000E+00
    0.00000E+00         0.00000E+00        -0.59644E+08
 
   -0.58770E+08         0.11923E+07         0.00000E+00
    0.11923E+07        -0.49653E+08         0.00000E+00
    0.00000E+00         0.00000E+00        -0.59645E+08
 
   -0.58796E+08         0.12445E+07         0.00000E+00
    0.12445E+07        -0.49631E+08         0.00000E+00
    0.00000E+00         0.00000E+00        -0.59646E+08
 
   -0.58823E+08         0.12974E+07         0.00000E+00
    0.12974E+07        -0.49609E+08         0.00000E+00
    0.00000E+00         0.00000E+00        -0.59647E+08
 
   -0.58851E+08         0.13508E+07         0.00000E+00
    0.13508E+07        -0.49587E+08         0.00000E+00
    0.00000E+00         0.00000E+00        -0.59648E+08
 
   -0.58879E+08         0.14048E+07         0.00000E+00
    0.14048E+07        -0.49565E+08         0.00000E+00
    0.00000E+00         0.00000E+00        -0.59649E+08
 
   -0.58909E+08         0.14593E+07         0.00000E+00
    0.14593E+07        -0.49543E+08         0.00000E+00
    0.00000E+00         0.00000E+00        -0.59651E+08
 
   -0.58940E+08         0.15144E+07         0.00000E+00
    0.15144E+07        -0.49521E+08         0.00000E+00
    0.00000E+00         0.00000E+00        -0.59653E+08
 
   -0.58971E+08         0.15699E+07         0.00000E+00
    0.15699E+07        -0.49498E+08         0.00000E+00
    0.00000E+00         0.00000E+00        -0.59654E+08
 
   -0.59004E+08         0.16258E+07         0.00000E+00
    0.16258E+07        -0.49476E+08         0.00000E+00
    0.00000E+00         0.00000E+00        -0.59656E+08
 
   -0.59038E+08         0.16821E+07         0.00000E+00
    0.16821E+07        -0.49453E+08         0.00000E+00
    0.00000E+00         0.00000E+00        -0.59659E+08
 
   -0.59073E+08         0.17387E+07         0.00000E+00
    0.17387E+07        -0.49430E+08         0.00000E+00
    0.00000E+00         0.00000E+00        -0.59661E+08
 
   -0.59109E+08         0.17957E+07         0.00000E+00
    0.17957E+07        -0.49407E+08         0.00000E+00
    0.00000E+00         0.00000E+00        -0.59664E+08
 
   -0.59147E+08         0.18529E+07         0.00000E+00
    0.18529E+07        -0.49384E+08         0.00000E+00
    0.00000E+00         0.00000E+00        -0.59667E+08
 
   -0.59186E+08         0.19104E+07         0.00000E+00
    0.19104E+07        -0.49361E+08         0.00000E+00
    0.00000E+00         0.00000E+00        -0.59670E+08
 
   -0.59227E+08         0.19682E+07         0.00000E+00
    0.19682E+07        -0.49338E+08         0.00000E+00
    0.00000E+00         0.00000E+00        -0.59673E+08
 
   -0.59270E+08         0.20263E+07         0.00000E+00
    0.20263E+07        -0.49314E+08         0.00000E+00
    0.00000E+00         0.00000E+00        -0.59677E+08
 
   -0.59314E+08         0.20846E+07         0.00000E+00
    0.20846E+07        -0.49291E+08         0.00000E+00
    0.00000E+00         0.00000E+00        -0.59681E+08
 
   -0.59361E+08         0.21434E+07         0.00000E+00
    0.21434E+07        -0.49266E+08         0.00000E+00
    0.00000E+00         0.00000E+00        -0.59686E+08
 
   -0.59410E+08         0.22027E+07         0.00000E+00
    0.22027E+07        -0.49241E+08         0.00000E+00
    0.00000E+00         0.00000E+00        -0.59691E+08
 
   -0.59462E+08         0.22628E+07         0.00000E+00
    0.22628E+07        -0.49216E+08         0.00000E+00
    0.00000E+00         0.00000E+00        -0.59696E+08
 
   -0.59516E+08         0.23240E+07         0.00000E+00
    0.23240E+07        -0.49190E+08         0.00000E+00
    0.00000E+00         0.00000E+00        -0.59702E+08
 
   -0.59573E+08         0.23866E+07         0.00000E+00
    0.23866E+07        -0.49162E+08         0.00000E+00
    0.00000E+00         0.00000E+00        -0.59707E+08
 
   -0.59631E+08         0.24506E+07         0.00000E+00
    0.24506E+07        -0.49135E+08         0.00000E+00
    0.00000E+00         0.00000E+00        -0.59714E+08
 
   -0.59693E+08         0.25152E+07         0.00000E+00
    0.25152E+07        -0.49108E+08         0.00000E+00
    0.00000E+00         0.00000E+00        -0.59721E+08
 
   -0.58381E+08         0.25113E+05         0.00000E+00
    0.25113E+05        -0.50000E+08         0.00000E+00
    0.00000E+00         0.00000E+00        -0.59338E+08
 
   -0.58365E+08         0.73675E+05         0.00000E+00
    0.73675E+05        -0.49999E+08         0.00000E+00
    0.00000E+00         0.00000E+00        -0.59334E+08
 
   -0.58351E+08         0.12167E+06         0.00000E+00
    0.12167E+06        -0.49997E+08         0.00000E+00
    0.00000E+00         0.00000E+00        -0.59331E+08
 
   -0.58338E+08         0.16921E+06         0.00000E+00
    0.16921E+06        -0.49994E+08         0.00000E+00
    0.00000E+00         0.00000E+00        -0.59328E+08
 
   -0.58328E+08         0.21638E+06         0.00000E+00
    0.21638E+06        -0.49991E+08         0.00000E+00
    0.00000E+00         0.00000E+00        -0.59325E+08
 
   -0.58320E+08         0.26328E+06         0.00000E+00
    0.26328E+06        -0.49986E+08         0.00000E+00
    0.00000E+00         0.00000E+00        -0.59322E+08
 
   -0.58313E+08         0.31000E+06         0.00000E+00
    0.31000E+06        -0.49980E+08         0.00000E+00
    0.00000E+00         0.00000E+00        -0.59320E+08
 
   -0.58308E+08         0.35660E+06         0.00000E+00
    0.35660E+06        -0.49973E+08         0.00000E+00
    0.00000E+00         0.00000E+00        -0.59318E+08
 
   -0.58305E+08         0.40318E+06         0.00000E+00
    0.40318E+06        -0.49966E+08         0.00000E+00
    0.00000E+00         0.00000E+00        -0.59315E+08
 
   -0.58304E+08         0.44978E+06         0.00000E+00
    0.44978E+06        -0.49958E+08         0.00000E+00
    0.00000E+00         0.00000E+00        -0.59314E+08
 
   -0.58304E+08         0.49649E+06         0.00000E+00
    0.49649E+06        -0.49949E+08         0.00000E+00
    0.00000E+00         0.00000E+00        -0.59312E+08
 
   -0.58306E+08         0.54334E+06         0.00000E+00
    0.54334E+06        -0.49939E+08         0.00000E+00
    0.00000E+00         0.00000E+00        -0.59310E+08
 
   -0.58310E+08         0.59041E+06         0.00000E+00
    0.59041E+06        -0.49928E+08         0.00000E+00
    0.00000E+00         0.00000E+00        -0.59309E+08
 
   -0.58315E+08         0.63773E+06         0.00000E+00
    0.63773E+06        -0.49917E+08         0.00000E+00
    0.00000E+00         0.00000E+00        -0.59308E+08
 
   -0.58322E+08         0.68535E+06         0.00000E+00
    0.68535E+06        -0.49905E+08         0.00000E+00
    0.00000E+00         0.00000E+00        -0.59307E+08
 
   -0.58330E+08         0.73330E+06         0.00000E+00
    0.73330E+06        -0.49892E+08         0.00000E+00
    0.00000E+00         0.00000E+00        -0.59306E+08
 
   -0.58340E+08         0.78162E+06         0.00000E+00
    0.78162E+06        -0.49879E+08         0.00000E+00
    0.00000E+00         0.00000E+00        -0.59305E+08
 
   -0.58351E+08         0.83035E+06         0.00000E+00
    0.83035E+06        -0.49865E+08         0.00000E+00
    0.00000E+00         0.00000E+00        -0.59304E+08
 
   -0.58364E+08         0.87950E+06         0.00000E+00
    0.87950E+06        -0.49850E+08         0.00000E+00
    0.00000E+00         0.00000E+00        -0.59304E+08
 
   -0.58377E+08         0.92909E+06         0.00000E+00
    0.92909E+06        -0.49835E+08         0.00000E+00
    0.00000E+00         0.00000E+00        -0.59304E+08
 
   -0.58392E+08         0.97916E+06         0.00000E+00
    0.97916E+06        -0.49820E+08         0.00000E+00
    0.00000E+00         0.00000E+00        -0.59304E+08
 
   -0.58409E+08         0.10297E+07         0.00000E+00
    0.10297E+07        -0.49804E+08         0.00000E+00
    0.00000E+00         0.00000E+00        -0.59304E+08
 
   -0.58426E+08         0.10807E+07         0.00000E+00
    0.10807E+07        -0.49788E+08         0.00000E+00
    0.00000E+00         0.00000E+00        -0.59304E+08
 
   -0.58445E+08         0.11322E+07         0.00000E+00
    0.11322E+07        -0.49771E+08         0.00000E+00
    0.00000E+00         0.00000E+00        -0.59304E+08
 
   -0.58465E+08         0.11843E+07         0.00000E+00
    0.11843E+07        -0.49754E+08         0.00000E+00
    0.00000E+00         0.00000E+00        -0.59305E+08
 
   -0.58485E+08         0.12368E+07         0.00000E+00
    0.12368E+07        -0.49737E+08         0.00000E+00
    0.00000E+00         0.00000E+00        -0.59306E+08
 
   -0.58507E+08         0.12898E+07         0.00000E+00
    0.12898E+07        -0.49719E+08         0.00000E+00
    0.00000E+00         0.00000E+00        -0.59307E+08
 
   -0.58530E+08         0.13433E+07         0.00000E+00
    0.13433E+07        -0.49701E+08         0.00000E+00
    0.00000E+00         0.00000E+00        -0.59308E+08
 
   -0.58555E+08         0.13973E+07         0.00000E+00
    0.13973E+07        -0.49683E+08         0.00000E+00
    0.00000E+00         0.00000E+00        -0.59309E+08
 
   -0.58580E+08         0.14517E+07         0.00000E+00
    0.14517E+07        -0.49665E+08         0.00000E+00
    0.00000E+00         0.00000E+00        -0.59310E+08
 
   -0.58606E+08         0.15066E+07         0.00000E+00
    0.15066E+07        -0.49646E+08         0.00000E+00
    0.00000E+00         0.00000E+00        -0.59312E+08
 
   -0.58633E+08         0.15620E+07         0.00000E+00
    0.15620E+07        -0.49627E+08         0.00000E+00
    0.00000E+00         0.00000E+00        -0.59313E+08
 
   -0.58662E+08         0.16178E+07         0.00000E+00
    0.16178E+07        -0.49608E+08         0.00000E+00
    0.00000E+00         0.00000E+00        -0.59315E+08
 
   -0.58691E+08         0.16740E+07         0.00000E+00
    0.16740E+07        -0.49589E+08         0.00000E+00
    0.00000E+00         0.00000E+00        -0.59317E+08
 
   -0.58722E+08         0.17306E+07         0.00000E+00
    0.17306E+07        -0.49569E+08         0.00000E+00
    0.00000E+00         0.00000E+00        -0.59320E+08
 
   -0.58754E+08         0.17877E+07         0.00000E+00
    0.17877E+07        -0.49550E+08         0.00000E+00
    0.00000E+00         0.00000E+00        -0.59322E+08
 
   -0.58787E+08         0.18451E+07         0.00000E+00
    0.18451E+07        -0.49530E+08         0.00000E+00
    0.00000E+00         0.00000E+00        -0.59325E+08
 
   -0.58821E+08         0.19030E+07         0.00000E+00
    0.19030E+07        -0.49510E+08         0.00000E+00
    0.00000E+00         0.00000E+00        -0.59328E+08
 
   -0.58857E+08         0.19613E+07         0.00000E+00
    0.19613E+07        -0.49490E+08         0.00000E+00
    0.00000E+00         0.00000E+00        -0.59331E+08
 
   -0.58895E+08         0.20200E+07         0.00000E+00
    0.20200E+07        -0.49469E+08         0.00000E+00
    0.00000E+00         0.00000E+00        -0.59334E+08
 
   -0.58933E+08         0.20793E+07         0.00000E+00
    0.20793E+07        -0.49448E+08         0.00000E+00
    0.00000E+00         0.00000E+00        -0.59338E+08
 
   -0.58974E+08         0.21391E+07         0.00000E+00
    0.21391E+07        -0.49427E+08         0.00000E+00
    0.00000E+00         0.00000E+00        -0.59341E+08
 
   -0.59016E+08         0.21995E+07         0.00000E+00
    0.21995E+07        -0.49405E+08         0.00000E+00
    0.00000E+00         0.00000E+00        -0.59345E+08
 
   -0.59059E+08         0.22606E+07         0.00000E+00
    0.22606E+07        -0.49383E+08         0.00000E+00
    0.00000E+00         0.00000E+00        -0.59350E+08
 
   -0.59105E+08         0.23224E+07         0.00000E+00
    0.23224E+07        -0.49361E+08         0.00000E+00
    0.00000E+00         0.00000E+00        -0.59354E+08
 
   -0.59152E+08         0.23852E+07         0.00000E+00
    0.23852E+07        -0.49338E+08         0.00000E+00
    0.00000E+00         0.00000E+00        -0.59359E+08
 
   -0.59200E+08         0.24489E+07         0.00000E+00
    0.24489E+07        -0.49315E+08         0.00000E+00
    0.00000E+00         0.00000E+00        -0.59364E+08
 
   -0.59251E+08         0.25137E+07         0.00000E+00
    0.25137E+07        -0.49291E+08         0.00000E+00
    0.00000E+00         0.00000E+00        -0.59370E+08
 
   -0.59303E+08         0.25796E+07         0.00000E+00
    0.25796E+07        -0.49267E+08         0.00000E+00
    0.00000E+00         0.00000E+00        -0.59375E+08
 
   -0.59357E+08         0.26469E+07         0.00000E+00
    0.26469E+07        -0.49243E+08         0.00000E+00
    0.00000E+00         0.00000E+00        -0.59381E+08
 
   -0.58126E+08         0.27191E+05         0.00000E+00
    0.27191E+05        -0.50000E+08         0.00000E+00
    0.00000E+00         0.00000E+00        -0.58987E+08
 
   -0.58113E+08         0.79988E+05         0.00000E+00
    0.79988E+05        -0.50000E+08         0.00000E+00
    0.00000E+00         0.00000E+00        -0.58984E+08
 
   -0.58101E+08         0.13222E+06         0.00000E+00
    0.13222E+06        -0.49998E+08         0.00000E+00
    0.00000E+00         0.00000E+00        -0.58982E+08
 
   -0.58091E+08         0.18397E+06         0.00000E+00
    0.18397E+06        -0.49996E+08         0.00000E+00
    0.00000E+00         0.00000E+00        -0.58979E+08
 
   -0.58082E+08         0.23531E+06         0.00000E+00
    0.23531E+06        -0.49993E+08         0.00000E+00
    0.00000E+00         0.00000E+00        -0.58977E+08
 
   -0.58075E+08         0.28632E+06         0.00000E+00
    0.28632E+06        -0.49989E+08         0.00000E+00
    0.00000E+00         0.00000E+00        -0.58975E+08
 
   -0.58069E+08         0.33707E+06         0.00000E+00
    0.33707E+06        -0.49985E+08         0.00000E+00
    0.00000E+00         0.00000E+00        -0.58973E+08
 
   -0.58065E+08         0.38763E+06         0.00000E+00
    0.38763E+06        -0.49980E+08         0.00000E+00
    0.00000E+00         0.00000E+00        -0.58971E+08
 
   -0.58062E+08         0.43805E+06         0.00000E+00
    0.43805E+06        -0.49974E+08         0.00000E+00
    0.00000E+00         0.00000E+00        -0.58969E+08
 
   -0.58061E+08         0.48840E+06         0.00000E+00
    0.48840E+06        -0.49968E+08         0.00000E+00
    0.00000E+00         0.00000E+00        -0.58968E+08
 
   -0.58061E+08         0.53872E+06         0.00000E+00
    0.53872E+06        -0.49960E+08         0.00000E+00
    0.00000E+00         0.00000E+00        -0.58966E+08
 
   -0.58063E+08         0.58907E+06         0.00000E+00
    0.58907E+06        -0.49953E+08         0.00000E+00
    0.00000E+00         0.00000E+00        -0.58965E+08
 
   -0.58066E+08         0.63950E+06         0.00000E+00
    0.63950E+06        -0.49944E+08         0.00000E+00
    0.00000E+00         0.00000E+00        -0.58964E+08
 
   -0.58070E+08         0.69005E+06         0.00000E+00
    0.69005E+06        -0.49935E+08         0.00000E+00
    0.00000E+00         0.00000E+00        -0.58963E+08
 
   -0.58075E+08         0.74076E+06         0.00000E+00
    0.74076E+06        -0.49925E+08         0.00000E+00
    0.00000E+00         0.00000E+00        -0.58962E+08
 
   -0.58082E+08         0.79166E+06         0.00000E+00
    0.79166E+06        -0.49915E+08         0.00000E+00
    0.00000E+00         0.00000E+00        -0.58961E+08
 
   -0.58090E+08         0.84278E+06         0.00000E+00
    0.84278E+06        -0.49905E+08         0.00000E+00
    0.00000E+00         0.00000E+00        -0.58961E+08
 
   -0.58100E+08         0.89416E+06         0.00000E+00
    0.89416E+06        -0.49893E+08         0.00000E+00
    0.00000E+00         0.00000E+00        -0.58961E+08
 
   -0.58111E+08         0.94583E+06         0.00000E+00
    0.94583E+06        -0.49882E+08         0.00000E+00
    0.00000E+00         0.00000E+00        -0.58960E+08
 
   -0.58122E+08         0.99779E+06         0.00000E+00
    0.99779E+06        -0.49869E+08         0.00000E+00
    0.00000E+00         0.00000E+00        -0.58960E+08
 
   -0.58135E+08         0.10501E+07         0.00000E+00
    0.10501E+07        -0.49857E+08         0.00000E+00
    0.00000E+00         0.00000E+00        -0.58960E+08
 
   -0.58150E+08         0.11027E+07         0.00000E+00
    0.11027E+07        -0.49844E+08         0.00000E+00
    0.00000E+00         0.00000E+00        -0.58961E+08
 
   -0.58165E+08         0.11557E+07         0.00000E+00
    0.11557E+07        -0.49830E+08         0.00000E+00
    0.00000E+00         0.00000E+00        -0.58961E+08
 
   -0.58181E+08         0.12090E+07         0.00000E+00
    0.12090E+07        -0.49816E+08         0.00000E+00
    0.00000E+00         0.00000E+00        -0.58962E+08
 
   -0.58199E+08         0.12628E+07         0.00000E+00
    0.12628E+07        -0.49802E+08         0.00000E+00
    0.00000E+00         0.00000E+00        -0.58962E+08
 
   -0.58218E+08         0.13169E+07         0.00000E+00
    0.13169E+07        -0.49788E+08         0.00000E+00
    0.00000E+00         0.00000E+00        -0.58963E+08
 
   -0.58237E+08         0.13714E+07         0.00000E+00
    0.13714E+07        -0.49773E+08         0.00000E+00
    0.00000E+00         0.00000E+00        -0.58964E+08
 
   -0.58258E+08         0.14263E+07         0.00000E+00
    0.14263E+07        -0.49758E+08         0.00000E+00
    0.00000E+00         0.00000E+00        -0.58965E+08
 
   -0.58280E+08         0.14816E+07         0.00000E+00
    0.14816E+07        -0.49742E+08         0.00000E+00
    0.00000E+00         0.00000E+00        -0.58966E+08
 
   -0.58303E+08         0.15373E+07         0.00000E+00
    0.15373E+07        -0.49726E+08         0.00000E+00
    0.00000E+00         0.00000E+00        -0.58968E+08
 
   -0.58327E+08         0.15934E+07         0.00000E+00
    0.15934E+07        -0.49710E+08         0.00000E+00
    0.00000E+00         0.00000E+00        -0.58970E+08
 
   -0.58353E+08         0.16500E+07         0.00000E+00
    0.16500E+07        -0.49694E+08         0.00000E+00
    0.00000E+00         0.00000E+00        -0.58971E+08
 
   -0.58379E+08         0.17069E+07         0.00000E+00
    0.17069E+07        -0.49678E+08         0.00000E+00
    0.00000E+00         0.00000E+00        -0.58973E+08
 
   -0.58406E+08         0.17643E+07         0.00000E+00
    0.17643E+07        -0.49661E+08         0.00000E+00
    0.00000E+00         0.00000E+00        -0.58975E+08
 
   -0.58435E+08         0.18221E+07         0.00000E+00
    0.18221E+07        -0.49644E+08         0.00000E+00
    0.00000E+00         0.00000E+00        -0.58978E+08
 
   -0.58464E+08         0.18804E+07         0.00000E+00
    0.18804E+07        -0.49627E+08         0.00000E+00
    0.00000E+00         0.00000E+00        -0.58980E+08
 
   -0.58495E+08         0.19391E+07         0.00000E+00
    0.19391E+07        -0.49609E+08         0.00000E+00
    0.00000E+00         0.00000E+00        -0.58983E+08
 
   -0.58527E+08         0.19983E+07         0.00000E+00
    0.19983E+07        -0.49591E+08         0.00000E+00
    0.00000E+00         0.00000E+00        -0.58986E+08
 
   -0.58561E+08         0.20581E+07         0.00000E+00
    0.20581E+07        -0.49573E+08         0.00000E+00
    0.00000E+00         0.00000E+00        -0.58989E+08
 
   -0.58595E+08         0.21183E+07         0.00000E+00
    0.21183E+07        -0.49555E+08         0.00000E+00
    0.00000E+00         0.00000E+00        -0.58992E+08
 
   -0.58631E+08         0.21792E+07         0.00000E+00
    0.21792E+07        -0.49536E+08         0.00000E+00
    0.00000E+00         0.00000E+00        -0.58995E+08
 
   -0.58669E+08         0.22407E+07         0.00000E+00
    0.22407E+07        -0.49517E+08         0.00000E+00
    0.00000E+00         0.00000E+00        -0.58999E+08
 
   -0.58707E+08         0.23029E+07         0.00000E+00
    0.23029E+07        -0.49497E+08         0.00000E+00
    0.00000E+00         0.00000E+00        -0.59003E+08
 
   -0.58747E+08         0.23658E+07         0.00000E+00
    0.23658E+07        -0.49478E+08         0.00000E+00
    0.00000E+00         0.00000E+00        -0.59007E+08
 
   -0.58788E+08         0.24295E+07         0.00000E+00
    0.24295E+07        -0.49457E+08         0.00000E+00
    0.00000E+00         0.00000E+00        -0.59011E+08
 
   -0.58831E+08         0.24941E+07         0.00000E+00
    0.24941E+07        -0.49437E+08         0.00000E+00
    0.00000E+00         0.00000E+00        -0.59016E+08
 
   -0.58875E+08         0.25596E+07         0.00000E+00
    0.25596E+07        -0.49416E+08         0.00000E+00
    0.00000E+00         0.00000E+00        -0.59020E+08
 
   -0.58920E+08         0.26260E+07         0.00000E+00
    0.26260E+07        -0.49395E+08         0.00000E+00
    0.00000E+00         0.00000E+00        -0.59025E+08
 
   -0.58966E+08         0.26936E+07         0.00000E+00
    0.26936E+07        -0.49374E+08         0.00000E+00
    0.00000E+00         0.00000E+00        -0.59030E+08
 
   -0.59014E+08         0.27621E+07         0.00000E+00
    0.27621E+07        -0.49352E+08         0.00000E+00
    0.00000E+00         0.00000E+00        -0.59035E+08
 
   -0.57852E+08         0.28680E+05         0.00000E+00
    0.28680E+05        -0.50000E+08         0.00000E+00
    0.00000E+00         0.00000E+00        -0.58633E+08
 
   -0.57842E+08         0.84641E+05         0.00000E+00
    0.84641E+05        -0.50000E+08         0.00000E+00
    0.00000E+00         0.00000E+00        -0.58631E+08
 
   -0.57833E+08         0.14009E+06         0.00000E+00
    0.14009E+06        -0.49999E+08         0.00000E+00
    0.00000E+00         0.00000E+00        -0.58629E+08
 
   -0.57825E+08         0.19507E+06         0.00000E+00
    0.19507E+06        -0.49997E+08         0.00000E+00
    0.00000E+00         0.00000E+00        -0.58627E+08
 
   -0.57818E+08         0.24967E+06         0.00000E+00
    0.24967E+06        -0.49995E+08         0.00000E+00
    0.00000E+00         0.00000E+00        -0.58625E+08
 
   -0.57812E+08         0.30392E+06         0.00000E+00
    0.30392E+06        -0.49992E+08         0.00000E+00
    0.00000E+00         0.00000E+00        -0.58624E+08
 
   -0.57808E+08         0.35789E+06         0.00000E+00
    0.35789E+06        -0.49989E+08         0.00000E+00
    0.00000E+00         0.00000E+00        -0.58622E+08
 
   -0.57805E+08         0.41163E+06         0.00000E+00
    0.41163E+06        -0.49985E+08         0.00000E+00
    0.00000E+00         0.00000E+00        -0.58621E+08
 
   -0.57803E+08         0.46519E+06         0.00000E+00
    0.46519E+06        -0.49980E+08         0.00000E+00
    0.00000E+00         0.00000E+00        -0.58619E+08
 
   -0.57802E+08         0.51862E+06         0.00000E+00
    0.51862E+06        -0.49975E+08         0.00000E+00
    0.00000E+00         0.00000E+00        -0.58618E+08
 
   -0.57802E+08         0.57195E+06         0.00000E+00
    0.57195E+06        -0.49969E+08         0.00000E+00
    0.00000E+00         0.00000E+00        -0.58617E+08
 
   -0.57803E+08         0.62524E+06         0.00000E+00
    0.62524E+06        -0.49963E+08         0.00000E+00
    0.00000E+00         0.00000E+00        -0.58616E+08
 
   -0.57806E+08         0.67852E+06         0.00000E+00
    0.67852E+06        -0.49957E+08         0.00000E+00
    0.00000E+00         0.00000E+00        -0.58615E+08
 
   -0.57810E+08         0.73184E+06         0.00000E+00
    0.73184E+06        -0.49949E+08         0.00000E+00
    0.00000E+00         0.00000E+00        -0.58615E+08
 
   -0.57815E+08         0.78522E+06         0.00000E+00
    0.78522E+06        -0.49942E+08         0.00000E+00
    0.00000E+00         0.00000E+00        -0.58614E+08
 
   -0.57821E+08         0.83870E+06         0.00000E+00
    0.83870E+06        -0.49933E+08         0.00000E+00
    0.00000E+00         0.00000E+00        -0.58614E+08
 
   -0.57828E+08         0.89231E+06         0.00000E+00
    0.89231E+06        -0.49925E+08         0.00000E+00
    0.00000E+00         0.00000E+00        -0.58613E+08
 
   -0.57836E+08         0.94607E+06         0.00000E+00
    0.94607E+06        -0.49916E+08         0.00000E+00
    0.00000E+00         0.00000E+00        -0.58613E+08
 
   -0.57846E+08         0.10000E+07         0.00000E+00
    0.10000E+07        -0.49906E+08         0.00000E+00
    0.00000E+00         0.00000E+00        -0.58613E+08
 
   -0.57856E+08         0.10542E+07         0.00000E+00
    0.10542E+07        -0.49896E+08         0.00000E+00
    0.00000E+00         0.00000E+00        -0.58613E+08
 
   -0.57868E+08         0.11086E+07         0.00000E+00
    0.11086E+07        -0.49886E+08         0.00000E+00
    0.00000E+00         0.00000E+00        -0.58613E+08
 
   -0.57881E+08         0.11632E+07         0.00000E+00
    0.11632E+07        -0.49875E+08         0.00000E+00
    0.00000E+00         0.00000E+00        -0.58614E+08
 
   -0.57894E+08         0.12181E+07         0.00000E+00
    0.12181E+07        -0.49863E+08         0.00000E+00
    0.00000E+00         0.00000E+00        -0.58614E+08
 
   -0.57909E+08         0.12733E+07         0.00000E+00
    0.12733E+07        -0.49852E+08         0.00000E+00
    0.00000E+00         0.00000E+00        -0.58615E+08
 
   -0.57925E+08         0.13287E+07         0.00000E+00
    0.13287E+07        -0.49840E+08         0.00000E+00
    0.00000E+00         0.00000E+00        -0.58616E+08
 
   -0.57942E+08         0.13845E+07         0.00000E+00
    0.13845E+07        -0.49828E+08         0.00000E+00
    0.00000E+00         0.00000E+00        -0.58617E+08
 
   -0.57960E+08         0.14406E+07         0.00000E+00
    0.14406E+07        -0.49815E+08         0.00000E+00
    0.00000E+00         0.00000E+00        -0.58618E+08
 
   -0.57979E+08         0.14971E+07         0.00000E+00
    0.14971E+07        -0.49802E+08         0.00000E+00
    0.00000E+00         0.00000E+00        -0.58619E+08
 
   -0.57999E+08         0.15539E+07         0.00000E+00
    0.15539E+07        -0.49789E+08         0.00000E+00
    0.00000E+00         0.00000E+00        -0.58620E+08
 
   -0.58020E+08         0.16111E+07         0.00000E+00
    0.16111E+07        -0.49775E+08         0.00000E+00
    0.00000E+00         0.00000E+00        -0.58622E+08
 
   -0.58042E+08         0.16686E+07         0.00000E+00
    0.16686E+07        -0.49761E+08         0.00000E+00
    0.00000E+00         0.00000E+00        -0.58623E+08
 
   -0.58065E+08         0.17266E+07         0.00000E+00
    0.17266E+07        -0.49747E+08         0.00000E+00
    0.00000E+00         0.00000E+00        -0.58625E+08
 
   -0.58089E+08         0.17849E+07         0.00000E+00
    0.17849E+07        -0.49733E+08         0.00000E+00
    0.00000E+00         0.00000E+00        -0.58627E+08
 
   -0.58115E+08         0.18437E+07         0.00000E+00
    0.18437E+07        -0.49718E+08         0.00000E+00
    0.00000E+00         0.00000E+00        -0.58629E+08
 
   -0.58141E+08         0.19029E+07         0.00000E+00
    0.19029E+07        -0.49703E+08         0.00000E+00
    0.00000E+00         0.00000E+00        -0.58631E+08
 
   -0.58168E+08         0.19626E+07         0.00000E+00
    0.19626E+07        -0.49687E+08         0.00000E+00
    0.00000E+00         0.00000E+00        -0.58634E+08
 
   -0.58197E+08         0.20228E+07         0.00000E+00
    0.20228E+07        -0.49672E+08         0.00000E+00
    0.00000E+00         0.00000E+00        -0.58636E+08
 
   -0.58226E+08         0.20835E+07         0.00000E+00
    0.20835E+07        -0.49656E+08         0.00000E+00
    0.00000E+00         0.00000E+00        -0.58639E+08
 
   -0.58257E+08         0.21447E+07         0.00000E+00
    0.21447E+07        -0.49640E+08         0.00000E+00
    0.00000E+00         0.00000E+00        -0.58642E+08
 
   -0.58289E+08         0.22065E+07         0.00000E+00
    0.22065E+07        -0.49623E+08         0.00000E+00
    0.00000E+00         0.00000E+00        -0.58645E+08
 
   -0.58321E+08         0.22689E+07         0.00000E+00
    0.22689E+07        -0.49606E+08         0.00000E+00
    0.00000E+00         0.00000E+00        -0.58648E+08
 
   -0.58355E+08         0.23319E+07         0.00000E+00
    0.23319E+07        -0.49589E+08         0.00000E+00
    0.00000E+00         0.00000E+00        -0.58652E+08
 
   -0.58390E+08         0.23956E+07         0.00000E+00
    0.23956E+07        -0.49572E+08         0.00000E+00
    0.00000E+00         0.00000E+00        -0.58655E+08
 
   -0.58426E+08         0.24601E+07         0.00000E+00
    0.24601E+07        -0.49554E+08         0.00000E+00
    0.00000E+00         0.00000E+00        -0.58659E+08
 
   -0.58464E+08         0.25252E+07         0.00000E+00
    0.25252E+07        -0.49536E+08         0.00000E+00
    0.00000E+00         0.00000E+00        -0.58663E+08
 
   -0.58502E+08         0.25912E+07         0.00000E+00
    0.25912E+07        -0.49518E+08         0.00000E+00
    0.00000E+00         0.00000E+00        -0.58667E+08
 
   -0.58541E+08         0.26581E+07         0.00000E+00
    0.26581E+07        -0.49499E+08         0.00000E+00
    0.00000E+00         0.00000E+00        -0.58671E+08
 
   -0.58582E+08         0.27258E+07         0.00000E+00
    0.27258E+07        -0.49481E+08         0.00000E+00
    0.00000E+00         0.00000E+00        -0.58675E+08
 
   -0.58623E+08         0.27944E+07         0.00000E+00
    0.27944E+07        -0.49462E+08         0.00000E+00
    0.00000E+00         0.00000E+00        -0.58680E+08
 
   -0.58665E+08         0.28641E+07         0.00000E+00
    0.28641E+07        -0.49443E+08         0.00000E+00
    0.00000E+00         0.00000E+00        -0.58684E+08
 
   -0.57565E+08         0.29752E+05         0.00000E+00
    0.29752E+05        -0.50000E+08         0.00000E+00
    0.00000E+00         0.00000E+00        -0.58276E+08
 
   -0.57557E+08         0.88084E+05         0.00000E+00
    0.88084E+05        -0.50000E+08         0.00000E+00
    0.00000E+00         0.00000E+00        -0.58275E+08
 
   -0.57550E+08         0.14597E+06         0.00000E+00
    0.14597E+06        -0.49999E+08         0.00000E+00
    0.00000E+00         0.00000E+00        -0.58273E+08
 
   -0.57544E+08         0.20346E+06         0.00000E+00
    0.20346E+06        -0.49998E+08         0.00000E+00
    0.00000E+00         0.00000E+00        -0.58272E+08
 
   -0.57539E+08         0.26060E+06         0.00000E+00
    0.26060E+06        -0.49996E+08         0.00000E+00
    0.00000E+00         0.00000E+00        -0.58270E+08
 
   -0.57535E+08         0.31742E+06         0.00000E+00
    0.31742E+06        -0.49994E+08         0.00000E+00
    0.00000E+00         0.00000E+00        -0.58269E+08
 
   -0.57532E+08         0.37396E+06         0.00000E+00
    0.37396E+06        -0.49991E+08         0.00000E+00
    0.00000E+00         0.00000E+00        -0.58268E+08
 
   -0.57530E+08         0.43028E+06         0.00000E+00
    0.43028E+06        -0.49988E+08         0.00000E+00
    0.00000E+00         0.00000E+00        -0.58267E+08
 
   -0.57529E+08         0.48640E+06         0.00000E+00
    0.48640E+06        -0.49985E+08         0.00000E+00
    0.00000E+00         0.00000E+00        -0.58266E+08
 
   -0.57528E+08         0.54237E+06         0.00000E+00
    0.54237E+06        -0.49981E+08         0.00000E+00
    0.00000E+00         0.00000E+00        -0.58265E+08
 
   -0.57529E+08         0.59823E+06         0.00000E+00
    0.59823E+06        -0.49976E+08         0.00000E+00
    0.00000E+00         0.00000E+00        -0.58264E+08
 
   -0.57531E+08         0.65400E+06         0.00000E+00
    0.65400E+06        -0.49971E+08         0.00000E+00
    0.00000E+00         0.00000E+00        -0.58264E+08
 
   -0.57533E+08         0.70972E+06         0.00000E+00
    0.70972E+06        -0.49966E+08         0.00000E+00
    0.00000E+00         0.00000E+00        -0.58263E+08
 
   -0.57537E+08         0.76542E+06         0.00000E+00
    0.76542E+06        -0.49960E+08         0.00000E+00
    0.00000E+00         0.00000E+00        -0.58263E+08
 
   -0.57542E+08         0.82114E+06         0.00000E+00
    0.82114E+06        -0.49954E+08         0.00000E+00
    0.00000E+00         0.00000E+00        -0.58263E+08
 
   -0.57547E+08         0.87690E+06         0.00000E+00
    0.87690E+06        -0.49947E+08         0.00000E+00
    0.00000E+00         0.00000E+00        -0.58262E+08
 
   -0.57554E+08         0.93273E+06         0.00000E+00
    0.93273E+06        -0.49940E+08         0.00000E+00
    0.00000E+00         0.00000E+00        -0.58262E+08
 
   -0.57562E+08         0.98866E+06         0.00000E+00
    0.98866E+06        -0.49933E+08         0.00000E+00
    0.00000E+00         0.00000E+00        -0.58262E+08
 
   -0.57570E+08         0.10447E+07         0.00000E+00
    0.10447E+07        -0.49925E+08         0.00000E+00
    0.00000E+00         0.00000E+00        -0.58262E+08
 
   -0.57580E+08         0.11009E+07         0.00000E+00
    0.11009E+07        -0.49916E+08         0.00000E+00
    0.00000E+00         0.00000E+00        -0.58263E+08
 
   -0.57590E+08         0.11573E+07         0.00000E+00
    0.11573E+07        -0.49908E+08         0.00000E+00
    0.00000E+00         0.00000E+00        -0.58263E+08
 
   -0.57602E+08         0.12138E+07         0.00000E+00
    0.12138E+07        -0.49898E+08         0.00000E+00
    0.00000E+00         0.00000E+00        -0.58264E+08
 
   -0.57615E+08         0.12706E+07         0.00000E+00
    0.12706E+07        -0.49889E+08         0.00000E+00
    0.00000E+00         0.00000E+00        -0.58264E+08
 
   -0.57628E+08         0.13276E+07         0.00000E+00
    0.13276E+07        -0.49879E+08         0.00000E+00
    0.00000E+00         0.00000E+00        -0.58265E+08
 
   -0.57643E+08         0.13848E+07         0.00000E+00
    0.13848E+07        -0.49869E+08         0.00000E+00
    0.00000E+00         0.00000E+00        -0.58266E+08
 
   -0.57658E+08         0.14423E+07         0.00000E+00
    0.14423E+07        -0.49858E+08         0.00000E+00
    0.00000E+00         0.00000E+00        -0.58267E+08
 
   -0.57674E+08         0.15001E+07         0.00000E+00
    0.15001E+07        -0.49848E+08         0.00000E+00
    0.00000E+00         0.00000E+00        -0.58268E+08
 
   -0.57692E+08         0.15581E+07         0.00000E+00
    0.15581E+07        -0.49836E+08         0.00000E+00
    0.00000E+00         0.00000E+00        -0.58269E+08
 
   -0.57710E+08         0.16165E+07         0.00000E+00
    0.16165E+07        -0.49825E+08         0.00000E+00
    0.00000E+00         0.00000E+00        -0.58270E+08
 
   -0.57729E+08         0.16753E+07         0.00000E+00
    0.16753E+07        -0.49813E+08         0.00000E+00
    0.00000E+00         0.00000E+00        -0.58272E+08
 
   -0.57750E+08         0.17343E+07         0.00000E+00
    0.17343E+07        -0.49801E+08         0.00000E+00
    0.00000E+00         0.00000E+00        -0.58273E+08
 
   -0.57771E+08         0.17938E+07         0.00000E+00
    0.17938E+07        -0.49788E+08         0.00000E+00
    0.00000E+00         0.00000E+00        -0.58275E+08
 
   -0.57793E+08         0.18536E+07         0.00000E+00
    0.18536E+07        -0.49776E+08         0.00000E+00
    0.00000E+00         0.00000E+00        -0.58277E+08
 
   -0.57816E+08         0.19139E+07         0.00000E+00
    0.19139E+07        -0.49763E+08         0.00000E+00
    0.00000E+00         0.00000E+00        -0.58279E+08
 
   -0.57840E+08         0.19746E+07         0.00000E+00
    0.19746E+07        -0.49749E+08         0.00000E+00
    0.00000E+00         0.00000E+00        -0.58281E+08
 
   -0.57865E+08         0.20357E+07         0.00000E+00
    0.20357E+07        -0.49736E+08         0.00000E+00
    0.00000E+00         0.00000E+00        -0.58284E+08
 
   -0.57891E+08         0.20973E+07         0.00000E+00
    0.20973E+07        -0.49722E+08         0.00000E+00
    0.00000E+00         0.00000E+00        -0.58286E+08
 
   -0.57918E+08         0.21594E+07         0.00000E+00
    0.21594E+07        -0.49708E+08         0.00000E+00
    0.00000E+00         0.00000E+00        -0.58288E+08
 
   -0.57946E+08         0.22221E+07         0.00000E+00
    0.22221E+07        -0.49693E+08         0.00000E+00
    0.00000E+00         0.00000E+00        -0.58291E+08
 
   -0.57975E+08         0.22853E+07         0.00000E+00
    0.22853E+07        -0.49678E+08         0.00000E+00
    0.00000E+00         0.00000E+00        -0.58294E+08
 
   -0.58004E+08         0.23491E+07         0.00000E+00
    0.23491E+07        -0.49663E+08         0.00000E+00
    0.00000E+00         0.00000E+00        -0.58297E+08
 
   -0.58035E+08         0.24135E+07         0.00000E+00
    0.24135E+07        -0.49648E+08         0.00000E+00
    0.00000E+00         0.00000E+00        -0.58300E+08
 
   -0.58067E+08         0.24785E+07         0.00000E+00
    0.24785E+07        -0.49633E+08         0.00000E+00
    0.00000E+00         0.00000E+00        -0.58303E+08
 
   -0.58099E+08         0.25442E+07         0.00000E+00
    0.25442E+07        -0.49617E+08         0.00000E+00
    0.00000E+00         0.00000E+00        -0.58307E+08
 
   -0.58133E+08         0.26106E+07         0.00000E+00
    0.26106E+07        -0.49601E+08         0.00000E+00
    0.00000E+00         0.00000E+00        -0.58310E+08
 
   -0.58167E+08         0.26778E+07         0.00000E+00
    0.26778E+07        -0.49584E+08         0.00000E+00
    0.00000E+00         0.00000E+00        -0.58314E+08
 
   -0.58202E+08         0.27457E+07         0.00000E+00
    0.27457E+07        -0.49568E+08         0.00000E+00
    0.00000E+00         0.00000E+00        -0.58317E+08
 
   -0.58238E+08         0.28144E+07         0.00000E+00
    0.28144E+07        -0.49551E+08         0.00000E+00
    0.00000E+00         0.00000E+00        -0.58321E+08
 
   -0.58275E+08         0.28840E+07         0.00000E+00
    0.28840E+07        -0.49535E+08         0.00000E+00
    0.00000E+00         0.00000E+00        -0.58325E+08
 
   -0.58313E+08         0.29545E+07         0.00000E+00
    0.29545E+07        -0.49518E+08         0.00000E+00
    0.00000E+00         0.00000E+00        -0.58329E+08
 
   -0.57267E+08         0.30541E+05         0.00000E+00
    0.30541E+05        -0.50000E+08         0.00000E+00
    0.00000E+00         0.00000E+00        -0.57918E+08
 
   -0.57262E+08         0.90683E+05         0.00000E+00
    0.90683E+05        -0.50000E+08         0.00000E+00
    0.00000E+00         0.00000E+00        -0.57916E+08
 
   -0.57257E+08         0.15046E+06         0.00000E+00
    0.15046E+06        -0.49999E+08         0.00000E+00
    0.00000E+00         0.00000E+00        -0.57915E+08
 
   -0.57253E+08         0.20991E+06         0.00000E+00
    0.20991E+06        -0.49998E+08         0.00000E+00
    0.00000E+00         0.00000E+00        -0.57914E+08
 
   -0.57249E+08         0.26905E+06         0.00000E+00
    0.26905E+06        -0.49997E+08         0.00000E+00
    0.00000E+00         0.00000E+00        -0.57913E+08
 
   -0.57246E+08         0.32792E+06         0.00000E+00
    0.32792E+06        -0.49995E+08         0.00000E+00
    0.00000E+00         0.00000E+00        -0.57912E+08
 
   -0.57244E+08         0.38655E+06         0.00000E+00
    0.38655E+06        -0.49993E+08         0.00000E+00
    0.00000E+00         0.00000E+00        -0.57912E+08
 
   -0.57243E+08         0.44497E+06         0.00000E+00
    0.44497E+06        -0.49991E+08         0.00000E+00
    0.00000E+00         0.00000E+00        -0.57911E+08
 
   -0.57243E+08         0.50322E+06         0.00000E+00
    0.50322E+06        -0.49988E+08         0.00000E+00
    0.00000E+00         0.00000E+00        -0.57910E+08
 
   -0.57243E+08         0.56131E+06         0.00000E+00
    0.56131E+06        -0.49985E+08         0.00000E+00
    0.00000E+00         0.00000E+00        -0.57910E+08
 
   -0.57244E+08         0.61929E+06         0.00000E+00
    0.61929E+06        -0.49981E+08         0.00000E+00
    0.00000E+00         0.00000E+00        -0.57909E+08
 
   -0.57247E+08         0.67717E+06         0.00000E+00
    0.67717E+06        -0.49977E+08         0.00000E+00
    0.00000E+00         0.00000E+00        -0.57909E+08
 
   -0.57249E+08         0.73498E+06         0.00000E+00
    0.73498E+06        -0.49973E+08         0.00000E+00
    0.00000E+00         0.00000E+00        -0.57909E+08
 
   -0.57253E+08         0.79277E+06         0.00000E+00
    0.79277E+06        -0.49968E+08         0.00000E+00
    0.00000E+00         0.00000E+00        -0.57908E+08
 
   -0.57258E+08         0.85054E+06         0.00000E+00
    0.85054E+06        -0.49963E+08         0.00000E+00
    0.00000E+00         0.00000E+00        -0.57908E+08
 
   -0.57263E+08         0.90832E+06         0.00000E+00
    0.90832E+06        -0.49957E+08         0.00000E+00
    0.00000E+00         0.00000E+00        -0.57908E+08
 
   -0.57270E+08         0.96614E+06         0.00000E+00
    0.96614E+06        -0.49951E+08         0.00000E+00
    0.00000E+00         0.00000E+00        -0.57908E+08
 
   -0.57277E+08         0.10240E+07         0.00000E+00
    0.10240E+07        -0.49945E+08         0.00000E+00
    0.00000E+00         0.00000E+00        -0.57908E+08
 
   -0.57285E+08         0.10820E+07         0.00000E+00
    0.10820E+07        -0.49939E+08         0.00000E+00
    0.00000E+00         0.00000E+00        -0.57909E+08
 
   -0.57294E+08         0.11401E+07         0.00000E+00
    0.11401E+07        -0.49931E+08         0.00000E+00
    0.00000E+00         0.00000E+00        -0.57909E+08
 
   -0.57304E+08         0.11983E+07         0.00000E+00
    0.11983E+07        -0.49924E+08         0.00000E+00
    0.00000E+00         0.00000E+00        -0.57910E+08
 
   -0.57314E+08         0.12567E+07         0.00000E+00
    0.12567E+07        -0.49916E+08         0.00000E+00
    0.00000E+00         0.00000E+00        -0.57910E+08
 
   -0.57326E+08         0.13152E+07         0.00000E+00
    0.13152E+07        -0.49908E+08         0.00000E+00
    0.00000E+00         0.00000E+00        -0.57911E+08
 
   -0.57338E+08         0.13739E+07         0.00000E+00
    0.13739E+07        -0.49900E+08         0.00000E+00
    0.00000E+00         0.00000E+00        -0.57912E+08
 
   -0.57351E+08         0.14328E+07         0.00000E+00
    0.14328E+07        -0.49891E+08         0.00000E+00
    0.00000E+00         0.00000E+00        -0.57913E+08
 
   -0.57366E+08         0.14920E+07         0.00000E+00
    0.14920E+07        -0.49882E+08         0.00000E+00
    0.00000E+00         0.00000E+00        -0.57914E+08
 
   -0.57381E+08         0.15514E+07         0.00000E+00
    0.15514E+07        -0.49873E+08         0.00000E+00
    0.00000E+00         0.00000E+00        -0.57915E+08
 
   -0.57397E+08         0.16111E+07         0.00000E+00
    0.16111E+07        -0.49863E+08         0.00000E+00
    0.00000E+00         0.00000E+00        -0.57916E+08
 
   -0.57413E+08         0.16711E+07         0.00000E+00
    0.16711E+07        -0.49853E+08         0.00000E+00
    0.00000E+00         0.00000E+00        -0.57917E+08
 
   -0.57431E+08         0.17314E+07         0.00000E+00
    0.17314E+07        -0.49842E+08         0.00000E+00
    0.00000E+00         0.00000E+00        -0.57919E+08
 
   -0.57449E+08         0.17920E+07         0.00000E+00
    0.17920E+07        -0.49832E+08         0.00000E+00
    0.00000E+00         0.00000E+00        -0.57920E+08
 
   -0.57469E+08         0.18529E+07         0.00000E+00
    0.18529E+07        -0.49821E+08         0.00000E+00
    0.00000E+00         0.00000E+00        -0.57922E+08
 
   -0.57489E+08         0.19142E+07         0.00000E+00
    0.19142E+07        -0.49810E+08         0.00000E+00
    0.00000E+00         0.00000E+00        -0.57924E+08
 
   -0.57510E+08         0.19760E+07         0.00000E+00
    0.19760E+07        -0.49798E+08         0.00000E+00
    0.00000E+00         0.00000E+00        -0.57926E+08
 
   -0.57532E+08         0.20381E+07         0.00000E+00
    0.20381E+07        -0.49786E+08         0.00000E+00
    0.00000E+00         0.00000E+00        -0.57928E+08
 
   -0.57555E+08         0.21006E+07         0.00000E+00
    0.21006E+07        -0.49774E+08         0.00000E+00
    0.00000E+00         0.00000E+00        -0.57930E+08
 
   -0.57578E+08         0.21636E+07         0.00000E+00
    0.21636E+07        -0.49762E+08         0.00000E+00
    0.00000E+00         0.00000E+00        -0.57932E+08
 
   -0.57603E+08         0.22271E+07         0.00000E+00
    0.22271E+07        -0.49749E+08         0.00000E+00
    0.00000E+00         0.00000E+00        -0.57934E+08
 
   -0.57628E+08         0.22910E+07         0.00000E+00
    0.22910E+07        -0.49736E+08         0.00000E+00
    0.00000E+00         0.00000E+00        -0.57937E+08
 
   -0.57654E+08         0.23555E+07         0.00000E+00
    0.23555E+07        -0.49723E+08         0.00000E+00
    0.00000E+00         0.00000E+00        -0.57940E+08
 
   -0.57681E+08         0.24206E+07         0.00000E+00
    0.24206E+07        -0.49710E+08         0.00000E+00
    0.00000E+00         0.00000E+00        -0.57942E+08
 
   -0.57708E+08         0.24862E+07         0.00000E+00
    0.24862E+07        -0.49696E+08         0.00000E+00
    0.00000E+00         0.00000E+00        -0.57945E+08
 
   -0.57737E+08         0.25524E+07         0.00000E+00
    0.25524E+07        -0.49682E+08         0.00000E+00
    0.00000E+00         0.00000E+00        -0.57948E+08
 
   -0.57766E+08         0.26192E+07         0.00000E+00
    0.26192E+07        -0.49668E+08         0.00000E+00
    0.00000E+00         0.00000E+00        -0.57951E+08
 
   -0.57796E+08         0.26867E+07         0.00000E+00
    0.26867E+07        -0.49654E+08         0.00000E+00
    0.00000E+00         0.00000E+00        -0.57954E+08
 
   -0.57827E+08         0.27548E+07         0.00000E+00
    0.27548E+07        -0.49640E+08         0.00000E+00
    0.00000E+00         0.00000E+00        -0.57957E+08
 
   -0.57858E+08         0.28237E+07         0.00000E+00
    0.28237E+07        -0.49625E+08         0.00000E+00
    0.00000E+00         0.00000E+00        -0.57961E+08
 
   -0.57890E+08         0.28933E+07         0.00000E+00
    0.28933E+07        -0.49610E+08         0.00000E+00
    0.00000E+00         0.00000E+00        -0.57964E+08
 
   -0.57923E+08         0.29636E+07         0.00000E+00
    0.29636E+07        -0.49595E+08         0.00000E+00
    0.00000E+00         0.00000E+00        -0.57968E+08
 
   -0.57956E+08         0.30347E+07         0.00000E+00
    0.30347E+07        -0.49580E+08         0.00000E+00
    0.00000E+00         0.00000E+00        -0.57971E+08
 
   -0.56962E+08         0.31148E+05         0.00000E+00
    0.31148E+05        -0.50000E+08         0.00000E+00
    0.00000E+00         0.00000E+00        -0.57557E+08
 
   -0.56958E+08         0.92712E+05         0.00000E+00
    0.92712E+05        -0.50000E+08         0.00000E+00
    0.00000E+00         0.00000E+00        -0.57556E+08
 
   -0.56955E+08         0.15399E+06         0.00000E+00
    0.15399E+06        -0.49999E+08         0.00000E+00
    0.00000E+00         0.00000E+00        -0.57556E+08
 
   -0.56952E+08         0.21500E+06         0.00000E+00
    0.21500E+06        -0.49999E+08         0.00000E+00
    0.00000E+00         0.00000E+00        -0.57555E+08
 
   -0.56950E+08         0.27576E+06         0.00000E+00
    0.27576E+06        -0.49998E+08         0.00000E+00
    0.00000E+00         0.00000E+00        -0.57554E+08
 
   -0.56948E+08         0.33631E+06         0.00000E+00
    0.33631E+06        -0.49996E+08         0.00000E+00
    0.00000E+00         0.00000E+00        -0.57554E+08
 
   -0.56947E+08         0.39665E+06         0.00000E+00
    0.39665E+06        -0.49995E+08         0.00000E+00
    0.00000E+00         0.00000E+00        -0.57553E+08
 
   -0.56947E+08         0.45682E+06         0.00000E+00
    0.45682E+06        -0.49993E+08         0.00000E+00
    0.00000E+00         0.00000E+00        -0.57553E+08
 
   -0.56947E+08         0.51684E+06         0.00000E+00
    0.51684E+06        -0.49990E+08         0.00000E+00
    0.00000E+00         0.00000E+00        -0.57552E+08
 
   -0.56949E+08         0.57672E+06         0.00000E+00
    0.57672E+06        -0.49988E+08         0.00000E+00
    0.00000E+00         0.00000E+00        -0.57552E+08
 
   -0.56950E+08         0.63650E+06         0.00000E+00
    0.63650E+06        -0.49985E+08         0.00000E+00
    0.00000E+00         0.00000E+00        -0.57552E+08
 
   -0.56953E+08         0.69619E+06         0.00000E+00
    0.69619E+06        -0.49981E+08         0.00000E+00
    0.00000E+00         0.00000E+00        -0.57552E+08
 
   -0.56956E+08         0.75582E+06         0.00000E+00
    0.75582E+06        -0.49978E+08         0.00000E+00
    0.00000E+00         0.00000E+00        -0.57551E+08
 
   -0.56960E+08         0.81541E+06         0.00000E+00
    0.81541E+06        -0.49974E+08         0.00000E+00
    0.00000E+00         0.00000E+00        -0.57551E+08
 
   -0.56964E+08         0.87498E+06         0.00000E+00
    0.87498E+06        -0.49969E+08         0.00000E+00
    0.00000E+00         0.00000E+00        -0.57552E+08
 
   -0.56970E+08         0.93456E+06         0.00000E+00
    0.93456E+06        -0.49965E+08         0.00000E+00
    0.00000E+00         0.00000E+00        -0.57552E+08
 
   -0.56976E+08         0.99417E+06         0.00000E+00
    0.99417E+06        -0.49960E+08         0.00000E+00
    0.00000E+00         0.00000E+00        -0.57552E+08
 
   -0.56983E+08         0.10538E+07         0.00000E+00
    0.10538E+07        -0.49954E+08         0.00000E+00
    0.00000E+00         0.00000E+00        -0.57552E+08
 
   -0.56990E+08         0.11135E+07         0.00000E+00
    0.11135E+07        -0.49949E+08         0.00000E+00
    0.00000E+00         0.00000E+00        -0.57553E+08
 
   -0.56999E+08         0.11733E+07         0.00000E+00
    0.11733E+07        -0.49943E+08         0.00000E+00
    0.00000E+00         0.00000E+00        -0.57553E+08
 
   -0.57008E+08         0.12333E+07         0.00000E+00
    0.12333E+07        -0.49936E+08         0.00000E+00
    0.00000E+00         0.00000E+00        -0.57554E+08
 
   -0.57018E+08         0.12933E+07         0.00000E+00
    0.12933E+07        -0.49930E+08         0.00000E+00
    0.00000E+00         0.00000E+00        -0.57554E+08
 
   -0.57028E+08         0.13535E+07         0.00000E+00
    0.13535E+07        -0.49923E+08         0.00000E+00
    0.00000E+00         0.00000E+00        -0.57555E+08
 
   -0.57040E+08         0.14139E+07         0.00000E+00
    0.14139E+07        -0.49916E+08         0.00000E+00
    0.00000E+00         0.00000E+00        -0.57556E+08
 
   -0.57052E+08         0.14744E+07         0.00000E+00
    0.14744E+07        -0.49908E+08         0.00000E+00
    0.00000E+00         0.00000E+00        -0.57557E+08
 
   -0.57065E+08         0.15352E+07         0.00000E+00
    0.15352E+07        -0.49900E+08         0.00000E+00
    0.00000E+00         0.00000E+00        -0.57558E+08
 
   -0.57079E+08         0.15961E+07         0.00000E+00
    0.15961E+07        -0.49892E+08         0.00000E+00
    0.00000E+00         0.00000E+00        -0.57559E+08
 
   -0.57094E+08         0.16574E+07         0.00000E+00
    0.16574E+07        -0.49883E+08         0.00000E+00
    0.00000E+00         0.00000E+00        -0.57560E+08
 
   -0.57109E+08         0.17188E+07         0.00000E+00
    0.17188E+07        -0.49875E+08         0.00000E+00
    0.00000E+00         0.00000E+00        -0.57561E+08
 
   -0.57125E+08         0.17806E+07         0.00000E+00
    0.17806E+07        -0.49866E+08         0.00000E+00
    0.00000E+00         0.00000E+00        -0.57563E+08
 
   -0.57142E+08         0.18427E+07         0.00000E+00
    0.18427E+07        -0.49856E+08         0.00000E+00
    0.00000E+00         0.00000E+00        -0.57564E+08
 
   -0.57159E+08         0.19051E+07         0.00000E+00
    0.19051E+07        -0.49846E+08         0.00000E+00
    0.00000E+00         0.00000E+00        -0.57566E+08
 
   -0.57178E+08         0.19678E+07         0.00000E+00
    0.19678E+07        -0.49837E+08         0.00000E+00
    0.00000E+00         0.00000E+00        -0.57568E+08
 
   -0.57197E+08         0.20309E+07         0.00000E+00
    0.20309E+07        -0.49826E+08         0.00000E+00
    0.00000E+00         0.00000E+00        -0.57569E+08
 
   -0.57217E+08         0.20943E+07         0.00000E+00
    0.20943E+07        -0.49816E+08         0.00000E+00
    0.00000E+00         0.00000E+00        -0.57571E+08
 
   -0.57237E+08         0.21582E+07         0.00000E+00
    0.21582E+07        -0.49805E+08         0.00000E+00
    0.00000E+00         0.00000E+00        -0.57573E+08
 
   -0.57259E+08         0.22225E+07         0.00000E+00
    0.22225E+07        -0.49794E+08         0.00000E+00
    0.00000E+00         0.00000E+00        -0.57575E+08
 
   -0.57281E+08         0.22872E+07         0.00000E+00
    0.22872E+07        -0.49783E+08         0.00000E+00
    0.00000E+00         0.00000E+00        -0.57578E+08
 
   -0.57304E+08         0.23524E+07         0.00000E+00
    0.23524E+07        -0.49772E+08         0.00000E+00
    0.00000E+00         0.00000E+00        -0.57580E+08
 
   -0.57327E+08         0.24180E+07         0.00000E+00
    0.24180E+07        -0.49760E+08         0.00000E+00
    0.00000E+00         0.00000E+00        -0.57582E+08
 
   -0.57351E+08         0.24842E+07         0.00000E+00
    0.24842E+07        -0.49748E+08         0.00000E+00
    0.00000E+00         0.00000E+00        -0.57585E+08
 
   -0.57376E+08         0.25509E+07         0.00000E+00
    0.25509E+07        -0.49736E+08         0.00000E+00
    0.00000E+00         0.00000E+00        -0.57587E+08
 
   -0.57402E+08         0.26181E+07         0.00000E+00
    0.26181E+07        -0.49724E+08         0.00000E+00
    0.00000E+00         0.00000E+00        -0.57590E+08
 
   -0.57428E+08         0.26859E+07         0.00000E+00
    0.26859E+07        -0.49711E+08         0.00000E+00
    0.00000E+00         0.00000E+00        -0.57593E+08
 
   -0.57455E+08         0.27543E+07         0.00000E+00
    0.27543E+07        -0.49698E+08         0.00000E+00
    0.00000E+00         0.00000E+00        -0.57595E+08
 
   -0.57482E+08         0.28233E+07         0.00000E+00
    0.28233E+07        -0.49686E+08         0.00000E+00
    0.00000E+00         0.00000E+00        -0.57598E+08
 
   -0.57510E+08         0.28930E+07         0.00000E+00
    0.28930E+07        -0.49673E+08         0.00000E+00
    0.00000E+00         0.00000E+00        -0.57601E+08
 
   -0.57539E+08         0.29633E+07         0.00000E+00
    0.29633E+07        -0.49659E+08         0.00000E+00
    0.00000E+00         0.00000E+00        -0.57604E+08
 
   -0.57568E+08         0.30342E+07         0.00000E+00
    0.30342E+07        -0.49646E+08         0.00000E+00
    0.00000E+00         0.00000E+00        -0.57608E+08
 
   -0.57598E+08         0.31059E+07         0.00000E+00
    0.31059E+07        -0.49633E+08         0.00000E+00
    0.00000E+00         0.00000E+00        -0.57611E+08
 
   -0.56651E+08         0.31640E+05         0.00000E+00
    0.31640E+05        -0.50000E+08         0.00000E+00
    0.00000E+00         0.00000E+00        -0.57196E+08
 
   -0.56648E+08         0.94366E+05         0.00000E+00
    0.94366E+05        -0.50000E+08         0.00000E+00
    0.00000E+00         0.00000E+00        -0.57195E+08
 
   -0.56646E+08         0.15687E+06         0.00000E+00
    0.15687E+06        -0.49999E+08         0.00000E+00
    0.00000E+00         0.00000E+00        -0.57195E+08
 
   -0.56644E+08         0.21917E+06         0.00000E+00
    0.21917E+06        -0.49999E+08         0.00000E+00
    0.00000E+00         0.00000E+00        -0.57194E+08
 
   -0.56643E+08         0.28128E+06         0.00000E+00
    0.28128E+06        -0.49998E+08         0.00000E+00
    0.00000E+00         0.00000E+00        -0.57194E+08
 
   -0.56643E+08         0.34322E+06         0.00000E+00
    0.34322E+06        -0.49997E+08         0.00000E+00
    0.00000E+00         0.00000E+00        -0.57193E+08
 
   -0.56642E+08         0.40500E+06         0.00000E+00
    0.40500E+06        -0.49995E+08         0.00000E+00
    0.00000E+00         0.00000E+00        -0.57193E+08
 
   -0.56643E+08         0.46663E+06         0.00000E+00
    0.46663E+06        -0.49994E+08         0.00000E+00
    0.00000E+00         0.00000E+00        -0.57193E+08
 
   -0.56644E+08         0.52815E+06         0.00000E+00
    0.52815E+06        -0.49992E+08         0.00000E+00
    0.00000E+00         0.00000E+00        -0.57193E+08
 
   -0.56645E+08         0.58956E+06         0.00000E+00
    0.58956E+06        -0.49990E+08         0.00000E+00
    0.00000E+00         0.00000E+00        -0.57192E+08
 
   -0.56648E+08         0.65089E+06         0.00000E+00
    0.65089E+06        -0.49987E+08         0.00000E+00
    0.00000E+00         0.00000E+00        -0.57192E+08
 
   -0.56650E+08         0.71214E+06         0.00000E+00
    0.71214E+06        -0.49984E+08         0.00000E+00
    0.00000E+00         0.00000E+00        -0.57192E+08
 
   -0.56654E+08         0.77335E+06         0.00000E+00
    0.77335E+06        -0.49981E+08         0.00000E+00
    0.00000E+00         0.00000E+00        -0.57192E+08
 
   -0.56658E+08         0.83452E+06         0.00000E+00
    0.83452E+06        -0.49978E+08         0.00000E+00
    0.00000E+00         0.00000E+00        -0.57193E+08
 
   -0.56662E+08         0.89568E+06         0.00000E+00
    0.89568E+06        -0.49974E+08         0.00000E+00
    0.00000E+00         0.00000E+00        -0.57193E+08
 
   -0.56668E+08         0.95685E+06         0.00000E+00
    0.95685E+06        -0.49970E+08         0.00000E+00
    0.00000E+00         0.00000E+00        -0.57193E+08
 
   -0.56674E+08         0.10180E+07         0.00000E+00
    0.10180E+07        -0.49966E+08         0.00000E+00
    0.00000E+00         0.00000E+00        -0.57193E+08
 
   -0.56680E+08         0.10793E+07         0.00000E+00
    0.10793E+07        -0.49961E+08         0.00000E+00
    0.00000E+00         0.00000E+00        -0.57194E+08
 
   -0.56687E+08         0.11406E+07         0.00000E+00
    0.11406E+07        -0.49956E+08         0.00000E+00
    0.00000E+00         0.00000E+00        -0.57194E+08
 
   -0.56695E+08         0.12019E+07         0.00000E+00
    0.12019E+07        -0.49951E+08         0.00000E+00
    0.00000E+00         0.00000E+00        -0.57195E+08
 
   -0.56704E+08         0.12634E+07         0.00000E+00
    0.12634E+07        -0.49946E+08         0.00000E+00
    0.00000E+00         0.00000E+00        -0.57195E+08
 
   -0.56713E+08         0.13250E+07         0.00000E+00
    0.13250E+07        -0.49940E+08         0.00000E+00
    0.00000E+00         0.00000E+00        -0.57196E+08
 
   -0.56723E+08         0.13867E+07         0.00000E+00
    0.13867E+07        -0.49934E+08         0.00000E+00
    0.00000E+00         0.00000E+00        -0.57197E+08
 
   -0.56734E+08         0.14486E+07         0.00000E+00
    0.14486E+07        -0.49928E+08         0.00000E+00
    0.00000E+00         0.00000E+00        -0.57198E+08
 
   -0.56745E+08         0.15106E+07         0.00000E+00
    0.15106E+07        -0.49921E+08         0.00000E+00
    0.00000E+00         0.00000E+00        -0.57199E+08
 
   -0.56757E+08         0.15729E+07         0.00000E+00
    0.15729E+07        -0.49914E+08         0.00000E+00
    0.00000E+00         0.00000E+00        -0.57200E+08
 
   -0.56770E+08         0.16353E+07         0.00000E+00
    0.16353E+07        -0.49907E+08         0.00000E+00
    0.00000E+00         0.00000E+00        -0.57201E+08
 
   -0.56783E+08         0.16979E+07         0.00000E+00
    0.16979E+07        -0.49899E+08         0.00000E+00
    0.00000E+00         0.00000E+00        -0.57202E+08
 
   -0.56797E+08         0.17608E+07         0.00000E+00
    0.17608E+07        -0.49892E+08         0.00000E+00
    0.00000E+00         0.00000E+00        -0.57203E+08
 
   -0.56812E+08         0.18240E+07         0.00000E+00
    0.18240E+07        -0.49884E+08         0.00000E+00
    0.00000E+00         0.00000E+00        -0.57205E+08
 
   -0.56827E+08         0.18874E+07         0.00000E+00
    0.18874E+07        -0.49875E+08         0.00000E+00
    0.00000E+00         0.00000E+00        -0.57206E+08
 
   -0.56843E+08         0.19511E+07         0.00000E+00
    0.19511E+07        -0.49867E+08         0.00000E+00
    0.00000E+00         0.00000E+00        -0.57207E+08
 
   -0.56860E+08         0.20152E+07         0.00000E+00
    0.20152E+07        -0.49858E+08         0.00000E+00
    0.00000E+00         0.00000E+00        -0.57209E+08
 
   -0.56877E+08         0.20795E+07         0.00000E+00
    0.20795E+07        -0.49849E+08         0.00000E+00
    0.00000E+00         0.00000E+00        -0.57211E+08
 
   -0.56895E+08         0.21442E+07         0.00000E+00
    0.21442E+07        -0.49840E+08         0.00000E+00
    0.00000E+00         0.00000E+00        -0.57212E+08
 
   -0.56914E+08         0.22093E+07         0.00000E+00
    0.22093E+07        -0.49830E+08         0.00000E+00
    0.00000E+00         0.00000E+00        -0.57214E+08
 
   -0.56933E+08         0.22748E+07         0.00000E+00
    0.22748E+07        -0.49820E+08         0.00000E+00
    0.00000E+00         0.00000E+00        -0.57216E+08
 
   -0.56953E+08         0.23406E+07         0.00000E+00
    0.23406E+07        -0.49811E+08         0.00000E+00
    0.00000E+00         0.00000E+00        -0.57218E+08
 
   -0.56974E+08         0.24069E+07         0.00000E+00
    0.24069E+07        -0.49800E+08         0.00000E+00
    0.00000E+00         0.00000E+00        -0.57220E+08
 
   -0.56995E+08         0.24736E+07         0.00000E+00
    0.24736E+07        -0.49790E+08         0.00000E+00
    0.00000E+00         0.00000E+00        -0.57222E+08
 
   -0.57016E+08         0.25408E+07         0.00000E+00
    0.25408E+07        -0.49779E+08         0.00000E+00
    0.00000E+00         0.00000E+00        -0.57225E+08
 
   -0.57039E+08         0.26085E+07         0.00000E+00
    0.26085E+07        -0.49769E+08         0.00000E+00
    0.00000E+00         0.00000E+00        -0.57227E+08
 
   -0.57062E+08         0.26766E+07         0.00000E+00
    0.26766E+07        -0.49758E+08         0.00000E+00
    0.00000E+00         0.00000E+00        -0.57229E+08
 
   -0.57085E+08         0.27453E+07         0.00000E+00
    0.27453E+07        -0.49747E+08         0.00000E+00
    0.00000E+00         0.00000E+00        -0.57232E+08
 
   -0.57109E+08         0.28145E+07         0.00000E+00
    0.28145E+07        -0.49735E+08         0.00000E+00
    0.00000E+00         0.00000E+00        -0.57234E+08
 
   -0.57134E+08         0.28842E+07         0.00000E+00
    0.28842E+07        -0.49724E+08         0.00000E+00
    0.00000E+00         0.00000E+00        -0.57237E+08
 
   -0.57159E+08         0.29545E+07         0.00000E+00
    0.29545E+07        -0.49712E+08         0.00000E+00
    0.00000E+00         0.00000E+00        -0.57240E+08
 
   -0.57184E+08         0.30254E+07         0.00000E+00
    0.30254E+07        -0.49701E+08         0.00000E+00
    0.00000E+00         0.00000E+00        -0.57242E+08
 
   -0.57210E+08         0.30969E+07         0.00000E+00
    0.30969E+07        -0.49689E+08         0.00000E+00
    0.00000E+00         0.00000E+00        -0.57245E+08
 
   -0.57236E+08         0.31691E+07         0.00000E+00
    0.31691E+07        -0.49677E+08         0.00000E+00
    0.00000E+00         0.00000E+00        -0.57248E+08
 
   -0.56334E+08         0.32061E+05         0.00000E+00
    0.32061E+05        -0.50000E+08         0.00000E+00
    0.00000E+00         0.00000E+00        -0.56833E+08
 
   -0.56332E+08         0.95773E+05         0.00000E+00
    0.95773E+05        -0.50000E+08         0.00000E+00
    0.00000E+00         0.00000E+00        -0.56833E+08
 
   -0.56331E+08         0.15932E+06         0.00000E+00
    0.15932E+06        -0.50000E+08         0.00000E+00
    0.00000E+00         0.00000E+00        -0.56832E+08
 
   -0.56330E+08         0.22272E+06         0.00000E+00
    0.22272E+06        -0.49999E+08         0.00000E+00
    0.00000E+00         0.00000E+00        -0.56832E+08
 
   -0.56330E+08         0.28597E+06         0.00000E+00
    0.28597E+06        -0.49998E+08         0.00000E+00
    0.00000E+00         0.00000E+00        -0.56832E+08
 
   -0.56330E+08         0.34909E+06         0.00000E+00
    0.34909E+06        -0.49997E+08         0.00000E+00
    0.00000E+00         0.00000E+00        -0.56832E+08
 
   -0.56331E+08         0.41210E+06         0.00000E+00
    0.41210E+06        -0.49996E+08         0.00000E+00
    0.00000E+00         0.00000E+00        -0.56831E+08
 
   -0.56332E+08         0.47500E+06         0.00000E+00
    0.47500E+06        -0.49995E+08         0.00000E+00
    0.00000E+00         0.00000E+00        -0.56831E+08
 
   -0.56333E+08         0.53780E+06         0.00000E+00
    0.53780E+06        -0.49993E+08         0.00000E+00
    0.00000E+00         0.00000E+00        -0.56831E+08
 
   -0.56335E+08         0.60053E+06         0.00000E+00
    0.60053E+06        -0.49991E+08         0.00000E+00
    0.00000E+00         0.00000E+00        -0.56831E+08
 
   -0.56338E+08         0.66320E+06         0.00000E+00
    0.66320E+06        -0.49989E+08         0.00000E+00
    0.00000E+00         0.00000E+00        -0.56831E+08
 
   -0.56341E+08         0.72581E+06         0.00000E+00
    0.72581E+06        -0.49986E+08         0.00000E+00
    0.00000E+00         0.00000E+00        -0.56832E+08
 
   -0.56344E+08         0.78840E+06         0.00000E+00
    0.78840E+06        -0.49984E+08         0.00000E+00
    0.00000E+00         0.00000E+00        -0.56832E+08
 
   -0.56348E+08         0.85096E+06         0.00000E+00
    0.85096E+06        -0.49981E+08         0.00000E+00
    0.00000E+00         0.00000E+00        -0.56832E+08
 
   -0.56353E+08         0.91352E+06         0.00000E+00
    0.91352E+06        -0.49978E+08         0.00000E+00
    0.00000E+00         0.00000E+00        -0.56832E+08
 
   -0.56358E+08         0.97610E+06         0.00000E+00
    0.97610E+06        -0.49974E+08         0.00000E+00
    0.00000E+00         0.00000E+00        -0.56833E+08
 
   -0.56364E+08         0.10387E+07         0.00000E+00
    0.10387E+07        -0.49970E+08         0.00000E+00
    0.00000E+00         0.00000E+00        -0.56833E+08
 
   -0.56370E+08         0.11013E+07         0.00000E+00
    0.11013E+07        -0.49966E+08         0.00000E+00
    0.00000E+00         0.00000E+00        -0.56833E+08
 
   -0.56377E+08         0.11640E+07         0.00000E+00
    0.11640E+07        -0.49962E+08         0.00000E+00
    0.00000E+00         0.00000E+00        -0.56834E+08
 
   -0.56385E+08         0.12268E+07         0.00000E+00
    0.12268E+07        -0.49958E+08         0.00000E+00
    0.00000E+00         0.00000E+00        -0.56835E+08
 
   -0.56393E+08         0.12897E+07         0.00000E+00
    0.12897E+07        -0.49953E+08         0.00000E+00
    0.00000E+00         0.00000E+00        -0.56835E+08
 
   -0.56401E+08         0.13527E+07         0.00000E+00
    0.13527E+07        -0.49948E+08         0.00000E+00
    0.00000E+00         0.00000E+00        -0.56836E+08
 
   -0.56411E+08         0.14158E+07         0.00000E+00
    0.14158E+07        -0.49943E+08         0.00000E+00
    0.00000E+00         0.00000E+00        -0.56837E+08
 
   -0.56421E+08         0.14790E+07         0.00000E+00
    0.14790E+07        -0.49937E+08         0.00000E+00
    0.00000E+00         0.00000E+00        -0.56838E+08
 
   -0.56431E+08         0.15424E+07         0.00000E+00
    0.15424E+07        -0.49931E+08         0.00000E+00
    0.00000E+00         0.00000E+00        -0.56839E+08
 
   -0.56442E+08         0.16060E+07         0.00000E+00
    0.16060E+07        -0.49925E+08         0.00000E+00
    0.00000E+00         0.00000E+00        -0.56840E+08
 
   -0.56454E+08         0.16697E+07         0.00000E+00
    0.16697E+07        -0.49919E+08         0.00000E+00
    0.00000E+00         0.00000E+00        -0.56841E+08
 
   -0.56466E+08         0.17337E+07         0.00000E+00
    0.17337E+07        -0.49912E+08         0.00000E+00
    0.00000E+00         0.00000E+00        -0.56842E+08
 
   -0.56479E+08         0.17979E+07         0.00000E+00
    0.17979E+07        -0.49905E+08         0.00000E+00
    0.00000E+00         0.00000E+00        -0.56843E+08
 
   -0.56492E+08         0.18623E+07         0.00000E+00
    0.18623E+07        -0.49898E+08         0.00000E+00
    0.00000E+00         0.00000E+00        -0.56844E+08
 
   -0.56506E+08         0.19270E+07         0.00000E+00
    0.19270E+07        -0.49891E+08         0.00000E+00
    0.00000E+00         0.00000E+00        -0.56846E+08
 
   -0.56521E+08         0.19919E+07         0.00000E+00
    0.19919E+07        -0.49883E+08         0.00000E+00
    0.00000E+00         0.00000E+00        -0.56847E+08
 
   -0.56536E+08         0.20571E+07         0.00000E+00
    0.20571E+07        -0.49875E+08         0.00000E+00
    0.00000E+00         0.00000E+00        -0.56848E+08
 
   -0.56552E+08         0.21226E+07         0.00000E+00
    0.21226E+07        -0.49867E+08         0.00000E+00
    0.00000E+00         0.00000E+00        -0.56850E+08
 
   -0.56568E+08         0.21885E+07         0.00000E+00
    0.21885E+07        -0.49859E+08         0.00000E+00
    0.00000E+00         0.00000E+00        -0.56852E+08
 
   -0.56585E+08         0.22547E+07         0.00000E+00
    0.22547E+07        -0.49851E+08         0.00000E+00
    0.00000E+00         0.00000E+00        -0.56853E+08
 
   -0.56602E+08         0.23212E+07         0.00000E+00
    0.23212E+07        -0.49842E+08         0.00000E+00
    0.00000E+00         0.00000E+00        -0.56855E+08
 
   -0.56620E+08         0.23881E+07         0.00000E+00
    0.23881E+07        -0.49833E+08         0.00000E+00
    0.00000E+00         0.00000E+00        -0.56857E+08
 
   -0.56639E+08         0.24554E+07         0.00000E+00
    0.24554E+07        -0.49824E+08         0.00000E+00
    0.00000E+00         0.00000E+00        -0.56859E+08
 
   -0.56658E+08         0.25230E+07         0.00000E+00
    0.25230E+07        -0.49815E+08         0.00000E+00
    0.00000E+00         0.00000E+00        -0.56861E+08
 
   -0.56677E+08         0.25911E+07         0.00000E+00
    0.25911E+07        -0.49806E+08         0.00000E+00
    0.00000E+00         0.00000E+00        -0.56863E+08
 
   -0.56697E+08         0.26596E+07         0.00000E+00
    0.26596E+07        -0.49796E+08         0.00000E+00
    0.00000E+00         0.00000E+00        -0.56865E+08
 
   -0.56718E+08         0.27286E+07         0.00000E+00
    0.27286E+07        -0.49786E+08         0.00000E+00
    0.00000E+00         0.00000E+00        -0.56867E+08
 
   -0.56739E+08         0.27980E+07         0.00000E+00
    0.27980E+07        -0.49776E+08         0.00000E+00
    0.00000E+00         0.00000E+00        -0.56869E+08
 
   -0.56760E+08         0.28679E+07         0.00000E+00
    0.28679E+07        -0.49766E+08         0.00000E+00
    0.00000E+00         0.00000E+00        -0.56871E+08
 
   -0.56782E+08         0.29383E+07         0.00000E+00
    0.29383E+07        -0.49756E+08         0.00000E+00
    0.00000E+00         0.00000E+00        -0.56874E+08
 
   -0.56804E+08         0.30092E+07         0.00000E+00
    0.30092E+07        -0.49746E+08         0.00000E+00
    0.00000E+00         0.00000E+00        -0.56876E+08
 
   -0.56827E+08         0.30806E+07         0.00000E+00
    0.30806E+07        -0.49736E+08         0.00000E+00
    0.00000E+00         0.00000E+00        -0.56879E+08
 
   -0.56850E+08         0.31526E+07         0.00000E+00
    0.31526E+07        -0.49725E+08         0.00000E+00
    0.00000E+00         0.00000E+00        -0.56881E+08
 
   -0.56873E+08         0.32251E+07         0.00000E+00
    0.32251E+07        -0.49715E+08         0.00000E+00
    0.00000E+00         0.00000E+00        -0.56884E+08
 
   -0.56013E+08         0.32437E+05         0.00000E+00
    0.32437E+05        -0.50000E+08         0.00000E+00
    0.00000E+00         0.00000E+00        -0.56469E+08
 
   -0.56012E+08         0.97018E+05         0.00000E+00
    0.97018E+05        -0.50000E+08         0.00000E+00
    0.00000E+00         0.00000E+00        -0.56469E+08
 
   -0.56011E+08         0.16148E+06         0.00000E+00
    0.16148E+06        -0.50000E+08         0.00000E+00
    0.00000E+00         0.00000E+00        -0.56469E+08
 
   -0.56011E+08         0.22583E+06         0.00000E+00
    0.22583E+06        -0.49999E+08         0.00000E+00
    0.00000E+00         0.00000E+00        -0.56469E+08
 
   -0.56012E+08         0.29008E+06         0.00000E+00
    0.29008E+06        -0.49998E+08         0.00000E+00
    0.00000E+00         0.00000E+00        -0.56469E+08
 
   -0.56012E+08         0.35424E+06         0.00000E+00
    0.35424E+06        -0.49998E+08         0.00000E+00
    0.00000E+00         0.00000E+00        -0.56469E+08
 
   -0.56013E+08         0.41831E+06         0.00000E+00
    0.41831E+06        -0.49996E+08         0.00000E+00
    0.00000E+00         0.00000E+00        -0.56469E+08
 
   -0.56015E+08         0.48231E+06         0.00000E+00
    0.48231E+06        -0.49995E+08         0.00000E+00
    0.00000E+00         0.00000E+00        -0.56469E+08
 
   -0.56016E+08         0.54624E+06         0.00000E+00
    0.54624E+06        -0.49994E+08         0.00000E+00
    0.00000E+00         0.00000E+00        -0.56469E+08
 
   -0.56019E+08         0.61012E+06         0.00000E+00
    0.61012E+06        -0.49992E+08         0.00000E+00
    0.00000E+00         0.00000E+00        -0.56469E+08
 
   -0.56021E+08         0.67396E+06         0.00000E+00
    0.67396E+06        -0.49990E+08         0.00000E+00
    0.00000E+00         0.00000E+00        -0.56469E+08
 
   -0.56025E+08         0.73777E+06         0.00000E+00
    0.73777E+06        -0.49988E+08         0.00000E+00
    0.00000E+00         0.00000E+00        -0.56469E+08
 
   -0.56028E+08         0.80156E+06         0.00000E+00
    0.80156E+06        -0.49986E+08         0.00000E+00
    0.00000E+00         0.00000E+00        -0.56470E+08
 
   -0.56032E+08         0.86535E+06         0.00000E+00
    0.86535E+06        -0.49983E+08         0.00000E+00
    0.00000E+00         0.00000E+00        -0.56470E+08
 
   -0.56037E+08         0.92914E+06         0.00000E+00
    0.92914E+06        -0.49980E+08         0.00000E+00
    0.00000E+00         0.00000E+00        -0.56470E+08
 
   -0.56042E+08         0.99296E+06         0.00000E+00
    0.99296E+06        -0.49977E+08         0.00000E+00
    0.00000E+00         0.00000E+00        -0.56471E+08
 
   -0.56048E+08         0.10568E+07         0.00000E+00
    0.10568E+07        -0.49974E+08         0.00000E+00
    0.00000E+00         0.00000E+00        -0.56471E+08
 
   -0.56054E+08         0.11207E+07         0.00000E+00
    0.11207E+07        -0.49970E+08         0.00000E+00
    0.00000E+00         0.00000E+00        -0.56472E+08
 
   -0.56060E+08         0.11847E+07         0.00000E+00
    0.11847E+07        -0.49967E+08         0.00000E+00
    0.00000E+00         0.00000E+00        -0.56472E+08
 
   -0.56067E+08         0.12487E+07         0.00000E+00
    0.12487E+07        -0.49963E+08         0.00000E+00
    0.00000E+00         0.00000E+00        -0.56473E+08
 
   -0.56075E+08         0.13128E+07         0.00000E+00
    0.13128E+07        -0.49958E+08         0.00000E+00
    0.00000E+00         0.00000E+00        -0.56473E+08
 
   -0.56083E+08         0.13771E+07         0.00000E+00
    0.13771E+07        -0.49954E+08         0.00000E+00
    0.00000E+00         0.00000E+00        -0.56474E+08
 
   -0.56092E+08         0.14414E+07         0.00000E+00
    0.14414E+07        -0.49949E+08         0.00000E+00
    0.00000E+00         0.00000E+00        -0.56475E+08
 
   -0.56101E+08         0.15059E+07         0.00000E+00
    0.15059E+07        -0.49944E+08         0.00000E+00
    0.00000E+00         0.00000E+00        -0.56476E+08
 
   -0.56111E+08         0.15705E+07         0.00000E+00
    0.15705E+07        -0.49939E+08         0.00000E+00
    0.00000E+00         0.00000E+00        -0.56477E+08
 
   -0.56121E+08         0.16353E+07         0.00000E+00
    0.16353E+07        -0.49934E+08         0.00000E+00
    0.00000E+00         0.00000E+00        -0.56478E+08
 
   -0.56131E+08         0.17002E+07         0.00000E+00
    0.17002E+07        -0.49928E+08         0.00000E+00
    0.00000E+00         0.00000E+00        -0.56479E+08
 
   -0.56143E+08         0.17654E+07         0.00000E+00
    0.17654E+07        -0.49922E+08         0.00000E+00
    0.00000E+00         0.00000E+00        -0.56480E+08
 
   -0.56154E+08         0.18307E+07         0.00000E+00
    0.18307E+07        -0.49916E+08         0.00000E+00
    0.00000E+00         0.00000E+00        -0.56481E+08
 
   -0.56167E+08         0.18963E+07         0.00000E+00
    0.18963E+07        -0.49910E+08         0.00000E+00
    0.00000E+00         0.00000E+00        -0.56482E+08
 
   -0.56179E+08         0.19621E+07         0.00000E+00
    0.19621E+07        -0.49903E+08         0.00000E+00
    0.00000E+00         0.00000E+00        -0.56483E+08
 
   -0.56193E+08         0.20281E+07         0.00000E+00
    0.20281E+07        -0.49897E+08         0.00000E+00
    0.00000E+00         0.00000E+00        -0.56485E+08
 
   -0.56206E+08         0.20944E+07         0.00000E+00
    0.20944E+07        -0.49890E+08         0.00000E+00
    0.00000E+00         0.00000E+00        -0.56486E+08
 
   -0.56221E+08         0.21610E+07         0.00000E+00
    0.21610E+07        -0.49883E+08         0.00000E+00
    0.00000E+00         0.00000E+00        -0.56487E+08
 
   -0.56235E+08         0.22278E+07         0.00000E+00
    0.22278E+07        -0.49875E+08         0.00000E+00
    0.00000E+00         0.00000E+00        -0.56489E+08
 
   -0.56251E+08         0.22950E+07         0.00000E+00
    0.22950E+07        -0.49868E+08         0.00000E+00
    0.00000E+00         0.00000E+00        -0.56490E+08
 
   -0.56266E+08         0.23625E+07         0.00000E+00
    0.23625E+07        -0.49860E+08         0.00000E+00
    0.00000E+00         0.00000E+00        -0.56492E+08
 
   -0.56282E+08         0.24303E+07         0.00000E+00
    0.24303E+07        -0.49852E+08         0.00000E+00
    0.00000E+00         0.00000E+00        -0.56494E+08
 
   -0.56299E+08         0.24984E+07         0.00000E+00
    0.24984E+07        -0.49844E+08         0.00000E+00
    0.00000E+00         0.00000E+00        -0.56495E+08
 
   -0.56316E+08         0.25669E+07         0.00000E+00
    0.25669E+07        -0.49836E+08         0.00000E+00
    0.00000E+00         0.00000E+00        -0.56497E+08
 
   -0.56334E+08         0.26358E+07         0.00000E+00
    0.26358E+07        -0.49827E+08         0.00000E+00
    0.00000E+00         0.00000E+00        -0.56499E+08
 
   -0.56352E+08         0.27051E+07         0.00000E+00
    0.27051E+07        -0.49819E+08         0.00000E+00
    0.00000E+00         0.00000E+00        -0.56501E+08
 
   -0.56370E+08         0.27748E+07         0.00000E+00
    0.27748E+07        -0.49810E+08         0.00000E+00
    0.00000E+00         0.00000E+00        -0.56503E+08
 
   -0.56389E+08         0.28449E+07         0.00000E+00
    0.28449E+07        -0.49802E+08         0.00000E+00
    0.00000E+00         0.00000E+00        -0.56505E+08
 
   -0.56408E+08         0.29154E+07         0.00000E+00
    0.29154E+07        -0.49793E+08         0.00000E+00
    0.00000E+00         0.00000E+00        -0.56507E+08
 
   -0.56427E+08         0.29863E+07         0.00000E+00
    0.29863E+07        -0.49784E+08         0.00000E+00
    0.00000E+00         0.00000E+00        -0.56509E+08
 
   -0.56447E+08         0.30577E+07         0.00000E+00
    0.30577E+07        -0.49775E+08         0.00000E+00
    0.00000E+00         0.00000E+00        -0.56511E+08
 
   -0.56467E+08         0.31296E+07         0.00000E+00
    0.31296E+07        -0.49765E+08         0.00000E+00
    0.00000E+00         0.00000E+00        -0.56513E+08
 
   -0.56488E+08         0.32019E+07         0.00000E+00
    0.32019E+07        -0.49756E+08         0.00000E+00
    0.00000E+00         0.00000E+00        -0.56516E+08
 
   -0.56508E+08         0.32748E+07         0.00000E+00
    0.32748E+07        -0.49747E+08         0.00000E+00
    0.00000E+00         0.00000E+00        -0.56518E+08
 
   -0.55688E+08         0.32785E+05         0.00000E+00
    0.32785E+05        -0.50000E+08         0.00000E+00
    0.00000E+00         0.00000E+00        -0.56105E+08
 
   -0.55687E+08         0.98150E+05         0.00000E+00
    0.98150E+05        -0.50000E+08         0.00000E+00
    0.00000E+00         0.00000E+00        -0.56105E+08
 
   -0.55687E+08         0.16343E+06         0.00000E+00
    0.16343E+06        -0.50000E+08         0.00000E+00
    0.00000E+00         0.00000E+00        -0.56105E+08
 
   -0.55688E+08         0.22864E+06         0.00000E+00
    0.22864E+06        -0.49999E+08         0.00000E+00
    0.00000E+00         0.00000E+00        -0.56105E+08
 
   -0.55688E+08         0.29378E+06         0.00000E+00
    0.29378E+06        -0.49999E+08         0.00000E+00
    0.00000E+00         0.00000E+00        -0.56105E+08
 
   -0.55689E+08         0.35885E+06         0.00000E+00
    0.35885E+06        -0.49998E+08         0.00000E+00
    0.00000E+00         0.00000E+00        -0.56105E+08
 
   -0.55691E+08         0.42386E+06         0.00000E+00
    0.42386E+06        -0.49997E+08         0.00000E+00
    0.00000E+00         0.00000E+00        -0.56105E+08
 
   -0.55692E+08         0.48883E+06         0.00000E+00
    0.48883E+06        -0.49996E+08         0.00000E+00
    0.00000E+00         0.00000E+00        -0.56105E+08
 
   -0.55694E+08         0.55376E+06         0.00000E+00
    0.55376E+06        -0.49994E+08         0.00000E+00
    0.00000E+00         0.00000E+00        -0.56105E+08
 
   -0.55697E+08         0.61866E+06         0.00000E+00
    0.61866E+06        -0.49993E+08         0.00000E+00
    0.00000E+00         0.00000E+00        -0.56105E+08
 
   -0.55700E+08         0.68353E+06         0.00000E+00
    0.68353E+06        -0.49991E+08         0.00000E+00
    0.00000E+00         0.00000E+00        -0.56106E+08
 
   -0.55703E+08         0.74840E+06         0.00000E+00
    0.74840E+06        -0.49989E+08         0.00000E+00
    0.00000E+00         0.00000E+00        -0.56106E+08
 
   -0.55707E+08         0.81326E+06         0.00000E+00
    0.81326E+06        -0.49987E+08         0.00000E+00
    0.00000E+00         0.00000E+00        -0.56106E+08
 
   -0.55711E+08         0.87813E+06         0.00000E+00
    0.87813E+06        -0.49985E+08         0.00000E+00
    0.00000E+00         0.00000E+00        -0.56106E+08
 
   -0.55715E+08         0.94302E+06         0.00000E+00
    0.94302E+06        -0.49982E+08         0.00000E+00
    0.00000E+00         0.00000E+00        -0.56107E+08
 
   -0.55720E+08         0.10079E+07         0.00000E+00
    0.10079E+07        -0.49979E+08         0.00000E+00
    0.00000E+00         0.00000E+00        -0.56107E+08
 
   -0.55725E+08         0.10729E+07         0.00000E+00
    0.10729E+07        -0.49977E+08         0.00000E+00
    0.00000E+00         0.00000E+00        -0.56108E+08
 
   -0.55731E+08         0.11379E+07         0.00000E+00
    0.11379E+07        -0.49973E+08         0.00000E+00
    0.00000E+00         0.00000E+00        -0.56108E+08
 
   -0.55737E+08         0.12030E+07         0.00000E+00
    0.12030E+07        -0.49970E+08         0.00000E+00
    0.00000E+00         0.00000E+00        -0.56109E+08
 
   -0.55744E+08         0.12681E+07         0.00000E+00
    0.12681E+07        -0.49966E+08         0.00000E+00
    0.00000E+00         0.00000E+00        -0.56110E+08
 
   -0.55751E+08         0.13334E+07         0.00000E+00
    0.13334E+07        -0.49963E+08         0.00000E+00
    0.00000E+00         0.00000E+00        -0.56110E+08
 
   -0.55759E+08         0.13987E+07         0.00000E+00
    0.13987E+07        -0.49959E+08         0.00000E+00
    0.00000E+00         0.00000E+00        -0.56111E+08
 
   -0.55767E+08         0.14642E+07         0.00000E+00
    0.14642E+07        -0.49955E+08         0.00000E+00
    0.00000E+00         0.00000E+00        -0.56112E+08
 
   -0.55775E+08         0.15297E+07         0.00000E+00
    0.15297E+07        -0.49950E+08         0.00000E+00
    0.00000E+00         0.00000E+00        -0.56112E+08
 
   -0.55784E+08         0.15955E+07         0.00000E+00
    0.15955E+07        -0.49946E+08         0.00000E+00
    0.00000E+00         0.00000E+00        -0.56113E+08
 
   -0.55794E+08         0.16613E+07         0.00000E+00
    0.16613E+07        -0.49941E+08         0.00000E+00
    0.00000E+00         0.00000E+00        -0.56114E+08
 
   -0.55803E+08         0.17273E+07         0.00000E+00
    0.17273E+07        -0.49936E+08         0.00000E+00
    0.00000E+00         0.00000E+00        -0.56115E+08
 
   -0.55814E+08         0.17935E+07         0.00000E+00
    0.17935E+07        -0.49930E+08         0.00000E+00
    0.00000E+00         0.00000E+00        -0.56116E+08
 
   -0.55824E+08         0.18599E+07         0.00000E+00
    0.18599E+07        -0.49925E+08         0.00000E+00
    0.00000E+00         0.00000E+00        -0.56117E+08
 
   -0.55836E+08         0.19265E+07         0.00000E+00
    0.19265E+07        -0.49919E+08         0.00000E+00
    0.00000E+00         0.00000E+00        -0.56118E+08
 
   -0.55847E+08         0.19933E+07         0.00000E+00
    0.19933E+07        -0.49914E+08         0.00000E+00
    0.00000E+00         0.00000E+00        -0.56120E+08
 
   -0.55859E+08         0.20603E+07         0.00000E+00
    0.20603E+07        -0.49908E+08         0.00000E+00
    0.00000E+00         0.00000E+00        -0.56121E+08
 
   -0.55872E+08         0.21276E+07         0.00000E+00
    0.21276E+07        -0.49901E+08         0.00000E+00
    0.00000E+00         0.00000E+00        -0.56122E+08
 
   -0.55885E+08         0.21951E+07         0.00000E+00
    0.21951E+07        -0.49895E+08         0.00000E+00
    0.00000E+00         0.00000E+00        -0.56123E+08
 
   -0.55898E+08         0.22628E+07         0.00000E+00
    0.22628E+07        -0.49889E+08         0.00000E+00
    0.00000E+00         0.00000E+00        -0.56125E+08
 
   -0.55912E+08         0.23309E+07         0.00000E+00
    0.23309E+07        -0.49882E+08         0.00000E+00
    0.00000E+00         0.00000E+00        -0.56126E+08
 
   -0.55926E+08         0.23992E+07         0.00000E+00
    0.23992E+07        -0.49875E+08         0.00000E+00
    0.00000E+00         0.00000E+00        -0.56128E+08
 
   -0.55940E+08         0.24678E+07         0.00000E+00
    0.24678E+07        -0.49868E+08         0.00000E+00
    0.00000E+00         0.00000E+00        -0.56129E+08
 
   -0.55955E+08         0.25368E+07         0.00000E+00
    0.25368E+07        -0.49861E+08         0.00000E+00
    0.00000E+00         0.00000E+00        -0.56131E+08
 
   -0.55971E+08         0.26060E+07         0.00000E+00
    0.26060E+07        -0.49854E+08         0.00000E+00
    0.00000E+00         0.00000E+00        -0.56132E+08
 
   -0.55986E+08         0.26756E+07         0.00000E+00
    0.26756E+07        -0.49846E+08         0.00000E+00
    0.00000E+00         0.00000E+00        -0.56134E+08
 
   -0.56003E+08         0.27456E+07         0.00000E+00
    0.27456E+07        -0.49839E+08         0.00000E+00
    0.00000E+00         0.00000E+00        -0.56136E+08
 
   -0.56019E+08         0.28159E+07         0.00000E+00
    0.28159E+07        -0.49831E+08         0.00000E+00
    0.00000E+00         0.00000E+00        -0.56137E+08
 
   -0.56036E+08         0.28865E+07         0.00000E+00
    0.28865E+07        -0.49823E+08         0.00000E+00
    0.00000E+00         0.00000E+00        -0.56139E+08
 
   -0.56053E+08         0.29576E+07         0.00000E+00
    0.29576E+07        -0.49815E+08         0.00000E+00
    0.00000E+00         0.00000E+00        -0.56141E+08
 
   -0.56070E+08         0.30290E+07         0.00000E+00
    0.30290E+07        -0.49807E+08         0.00000E+00
    0.00000E+00         0.00000E+00        -0.56143E+08
 
   -0.56088E+08         0.31009E+07         0.00000E+00
    0.31009E+07        -0.49799E+08         0.00000E+00
    0.00000E+00         0.00000E+00        -0.56145E+08
 
   -0.56106E+08         0.31731E+07         0.00000E+00
    0.31731E+07        -0.49791E+08         0.00000E+00
    0.00000E+00         0.00000E+00        -0.56147E+08
 
   -0.56124E+08         0.32458E+07         0.00000E+00
    0.32458E+07        -0.49783E+08         0.00000E+00
    0.00000E+00         0.00000E+00        -0.56149E+08
 
   -0.56142E+08         0.33189E+07         0.00000E+00
    0.33189E+07        -0.49774E+08         0.00000E+00
    0.00000E+00         0.00000E+00        -0.56151E+08
 
   -0.55359E+08         0.33113E+05         0.00000E+00
    0.33113E+05        -0.50000E+08         0.00000E+00
    0.00000E+00         0.00000E+00        -0.55740E+08
 
   -0.55359E+08         0.99200E+05         0.00000E+00
    0.99200E+05        -0.50000E+08         0.00000E+00
    0.00000E+00         0.00000E+00        -0.55740E+08
 
   -0.55359E+08         0.16523E+06         0.00000E+00
    0.16523E+06        -0.50000E+08         0.00000E+00
    0.00000E+00         0.00000E+00        -0.55740E+08
 
   -0.55360E+08         0.23122E+06         0.00000E+00
    0.23122E+06        -0.49999E+08         0.00000E+00
    0.00000E+00         0.00000E+00        -0.55740E+08
 
   -0.55361E+08         0.29715E+06         0.00000E+00
    0.29715E+06        -0.49999E+08         0.00000E+00
    0.00000E+00         0.00000E+00        -0.55740E+08
 
   -0.55362E+08         0.36305E+06         0.00000E+00
    0.36305E+06        -0.49998E+08         0.00000E+00
    0.00000E+00         0.00000E+00        -0.55740E+08
 
   -0.55363E+08         0.42891E+06         0.00000E+00
    0.42891E+06        -0.49997E+08         0.00000E+00
    0.00000E+00         0.00000E+00        -0.55740E+08
 
   -0.55365E+08         0.49475E+06         0.00000E+00
    0.49475E+06        -0.49996E+08         0.00000E+00
    0.00000E+00         0.00000E+00        -0.55740E+08
 
   -0.55368E+08         0.56057E+06         0.00000E+00
    0.56057E+06        -0.49995E+08         0.00000E+00
    0.00000E+00         0.00000E+00        -0.55740E+08
 
   -0.55370E+08         0.62637E+06         0.00000E+00
    0.62637E+06        -0.49993E+08         0.00000E+00
    0.00000E+00         0.00000E+00        -0.55741E+08
 
   -0.55373E+08         0.69217E+06         0.00000E+00
    0.69217E+06        -0.49992E+08         0.00000E+00
    0.00000E+00         0.00000E+00        -0.55741E+08
 
   -0.55376E+08         0.75797E+06         0.00000E+00
    0.75797E+06        -0.49990E+08         0.00000E+00
    0.00000E+00         0.00000E+00        -0.55741E+08
 
   -0.55380E+08         0.82378E+06         0.00000E+00
    0.82378E+06        -0.49988E+08         0.00000E+00
    0.00000E+00         0.00000E+00        -0.55742E+08
 
   -0.55384E+08         0.88961E+06         0.00000E+00
    0.88961E+06        -0.49986E+08         0.00000E+00
    0.00000E+00         0.00000E+00        -0.55742E+08
 
   -0.55388E+08         0.95547E+06         0.00000E+00
    0.95547E+06        -0.49984E+08         0.00000E+00
    0.00000E+00         0.00000E+00        -0.55742E+08
 
   -0.55393E+08         0.10214E+07         0.00000E+00
    0.10214E+07        -0.49981E+08         0.00000E+00
    0.00000E+00         0.00000E+00        -0.55743E+08
 
   -0.55398E+08         0.10873E+07         0.00000E+00
    0.10873E+07        -0.49979E+08         0.00000E+00
    0.00000E+00         0.00000E+00        -0.55743E+08
 
   -0.55403E+08         0.11533E+07         0.00000E+00
    0.11533E+07        -0.49976E+08         0.00000E+00
    0.00000E+00         0.00000E+00        -0.55744E+08
 
   -0.55409E+08         0.12194E+07         0.00000E+00
    0.12194E+07        -0.49973E+08         0.00000E+00
    0.00000E+00         0.00000E+00        -0.55744E+08
 
   -0.55416E+08         0.12855E+07         0.00000E+00
    0.12855E+07        -0.49970E+08         0.00000E+00
    0.00000E+00         0.00000E+00        -0.55745E+08
 
   -0.55422E+08         0.13518E+07         0.00000E+00
    0.13518E+07        -0.49966E+08         0.00000E+00
    0.00000E+00         0.00000E+00        -0.55746E+08
 
   -0.55429E+08         0.14181E+07         0.00000E+00
    0.14181E+07        -0.49963E+08         0.00000E+00
    0.00000E+00         0.00000E+00        -0.55746E+08
 
   -0.55437E+08         0.14845E+07         0.00000E+00
    0.14845E+07        -0.49959E+08         0.00000E+00
    0.00000E+00         0.00000E+00        -0.55747E+08
 
   -0.55445E+08         0.15511E+07         0.00000E+00
    0.15511E+07        -0.49955E+08         0.00000E+00
    0.00000E+00         0.00000E+00        -0.55748E+08
 
   -0.55453E+08         0.16178E+07         0.00000E+00
    0.16178E+07        -0.49951E+08         0.00000E+00
    0.00000E+00         0.00000E+00        -0.55749E+08
 
   -0.55461E+08         0.16846E+07         0.00000E+00
    0.16846E+07        -0.49947E+08         0.00000E+00
    0.00000E+00         0.00000E+00        -0.55750E+08
 
   -0.55471E+08         0.17516E+07         0.00000E+00
    0.17516E+07        -0.49942E+08         0.00000E+00
    0.00000E+00         0.00000E+00        -0.55751E+08
 
   -0.55480E+08         0.18187E+07         0.00000E+00
    0.18187E+07        -0.49937E+08         0.00000E+00
    0.00000E+00         0.00000E+00        -0.55751E+08
 
   -0.55490E+08         0.18860E+07         0.00000E+00
    0.18860E+07        -0.49933E+08         0.00000E+00
    0.00000E+00         0.00000E+00        -0.55752E+08
 
   -0.55500E+08         0.19535E+07         0.00000E+00
    0.19535E+07        -0.49928E+08         0.00000E+00
    0.00000E+00         0.00000E+00        -0.55753E+08
 
   -0.55510E+08         0.20212E+07         0.00000E+00
    0.20212E+07        -0.49922E+08         0.00000E+00
    0.00000E+00         0.00000E+00        -0.55755E+08
 
   -0.55521E+08         0.20891E+07         0.00000E+00
    0.20891E+07        -0.49917E+08         0.00000E+00
    0.00000E+00         0.00000E+00        -0.55756E+08
 
   -0.55533E+08         0.21572E+07         0.00000E+00
    0.21572E+07        -0.49911E+08         0.00000E+00
    0.00000E+00         0.00000E+00        -0.55757E+08
 
   -0.55544E+08         0.22255E+07         0.00000E+00
    0.22255E+07        -0.49906E+08         0.00000E+00
    0.00000E+00         0.00000E+00        -0.55758E+08
 
   -0.55557E+08         0.22941E+07         0.00000E+00
    0.22941E+07        -0.49900E+08         0.00000E+00
    0.00000E+00         0.00000E+00        -0.55759E+08
 
   -0.55569E+08         0.23629E+07         0.00000E+00
    0.23629E+07        -0.49894E+08         0.00000E+00
    0.00000E+00         0.00000E+00        -0.55761E+08
 
   -0.55582E+08         0.24320E+07         0.00000E+00
    0.24320E+07        -0.49888E+08         0.00000E+00
    0.00000E+00         0.00000E+00        -0.55762E+08
 
   -0.55595E+08         0.25013E+07         0.00000E+00
    0.25013E+07        -0.49882E+08         0.00000E+00
    0.00000E+00         0.00000E+00        -0.55763E+08
 
   -0.55608E+08         0.25710E+07         0.00000E+00
    0.25710E+07        -0.49875E+08         0.00000E+00
    0.00000E+00         0.00000E+00        -0.55765E+08
 
   -0.55622E+08         0.26409E+07         0.00000E+00
    0.26409E+07        -0.49869E+08         0.00000E+00
    0.00000E+00         0.00000E+00        -0.55766E+08
 
   -0.55636E+08         0.27111E+07         0.00000E+00
    0.27111E+07        -0.49862E+08         0.00000E+00
    0.00000E+00         0.00000E+00        -0.55768E+08
 
   -0.55650E+08         0.27816E+07         0.00000E+00
    0.27816E+07        -0.49855E+08         0.00000E+00
    0.00000E+00         0.00000E+00        -0.55769E+08
 
   -0.55665E+08         0.28525E+07         0.00000E+00
    0.28525E+07        -0.49848E+08         0.00000E+00
    0.00000E+00         0.00000E+00        -0.55771E+08
 
   -0.55680E+08         0.29236E+07         0.00000E+00
    0.29236E+07        -0.49841E+08         0.00000E+00
    0.00000E+00         0.00000E+00        -0.55772E+08
 
   -0.55695E+08         0.29951E+07         0.00000E+00
    0.29951E+07        -0.49834E+08         0.00000E+00
    0.00000E+00         0.00000E+00        -0.55774E+08
 
   -0.55711E+08         0.30670E+07         0.00000E+00
    0.30670E+07        -0.49827E+08         0.00000E+00
    0.00000E+00         0.00000E+00        -0.55776E+08
 
   -0.55727E+08         0.31392E+07         0.00000E+00
    0.31392E+07        -0.49820E+08         0.00000E+00
    0.00000E+00         0.00000E+00        -0.55777E+08
 
   -0.55743E+08         0.32118E+07         0.00000E+00
    0.32118E+07        -0.49813E+08         0.00000E+00
    0.00000E+00         0.00000E+00        -0.55779E+08
 
   -0.55759E+08         0.32847E+07         0.00000E+00
    0.32847E+07        -0.49806E+08         0.00000E+00
    0.00000E+00         0.00000E+00        -0.55781E+08
 
   -0.55775E+08         0.33581E+07         0.00000E+00
    0.33581E+07        -0.49798E+08         0.00000E+00
    0.00000E+00         0.00000E+00        -0.55783E+08
 
   -0.55027E+08         0.33425E+05         0.00000E+00
    0.33425E+05        -0.50000E+08         0.00000E+00
    0.00000E+00         0.00000E+00        -0.55374E+08
 
   -0.55027E+08         0.10019E+06         0.00000E+00
    0.10019E+06        -0.50000E+08         0.00000E+00
    0.00000E+00         0.00000E+00        -0.55374E+08
 
   -0.55027E+08         0.16691E+06         0.00000E+00
    0.16691E+06        -0.50000E+08         0.00000E+00
    0.00000E+00         0.00000E+00        -0.55374E+08
 
   -0.55028E+08         0.23361E+06         0.00000E+00
    0.23361E+06        -0.49999E+08         0.00000E+00
    0.00000E+00         0.00000E+00        -0.55374E+08
 
   -0.55029E+08         0.30028E+06         0.00000E+00
    0.30028E+06        -0.49999E+08         0.00000E+00
    0.00000E+00         0.00000E+00        -0.55374E+08
 
   -0.55031E+08         0.36693E+06         0.00000E+00
    0.36693E+06        -0.49998E+08         0.00000E+00
    0.00000E+00         0.00000E+00        -0.55374E+08
 
   -0.55032E+08         0.43356E+06         0.00000E+00
    0.43356E+06        -0.49997E+08         0.00000E+00
    0.00000E+00         0.00000E+00        -0.55374E+08
 
   -0.55034E+08         0.50018E+06         0.00000E+00
    0.50018E+06        -0.49996E+08         0.00000E+00
    0.00000E+00         0.00000E+00        -0.55375E+08
 
   -0.55036E+08         0.56679E+06         0.00000E+00
    0.56679E+06        -0.49995E+08         0.00000E+00
    0.00000E+00         0.00000E+00        -0.55375E+08
 
   -0.55039E+08         0.63341E+06         0.00000E+00
    0.63341E+06        -0.49994E+08         0.00000E+00
    0.00000E+00         0.00000E+00        -0.55375E+08
 
   -0.55042E+08         0.70003E+06         0.00000E+00
    0.70003E+06        -0.49992E+08         0.00000E+00
    0.00000E+00         0.00000E+00        -0.55375E+08
 
   -0.55045E+08         0.76667E+06         0.00000E+00
    0.76667E+06        -0.49991E+08         0.00000E+00
    0.00000E+00         0.00000E+00        -0.55376E+08
 
   -0.55049E+08         0.83333E+06         0.00000E+00
    0.83333E+06        -0.49989E+08         0.00000E+00
    0.00000E+00         0.00000E+00        -0.55376E+08
 
   -0.55052E+08         0.90002E+06         0.00000E+00
    0.90002E+06        -0.49987E+08         0.00000E+00
    0.00000E+00         0.00000E+00        -0.55377E+08
 
   -0.55057E+08         0.96674E+06         0.00000E+00
    0.96674E+06        -0.49985E+08         0.00000E+00
    0.00000E+00         0.00000E+00        -0.55377E+08
 
   -0.55061E+08         0.10335E+07         0.00000E+00
    0.10335E+07        -0.49983E+08         0.00000E+00
    0.00000E+00         0.00000E+00        -0.55377E+08
 
   -0.55066E+08         0.11003E+07         0.00000E+00
    0.11003E+07        -0.49981E+08         0.00000E+00
    0.00000E+00         0.00000E+00        -0.55378E+08
 
   -0.55071E+08         0.11672E+07         0.00000E+00
    0.11672E+07        -0.49978E+08         0.00000E+00
    0.00000E+00         0.00000E+00        -0.55378E+08
 
   -0.55077E+08         0.12342E+07         0.00000E+00
    0.12342E+07        -0.49975E+08         0.00000E+00
    0.00000E+00         0.00000E+00        -0.55379E+08
 
   -0.55082E+08         0.13012E+07         0.00000E+00
    0.13012E+07        -0.49972E+08         0.00000E+00
    0.00000E+00         0.00000E+00        -0.55380E+08
 
   -0.55089E+08         0.13683E+07         0.00000E+00
    0.13683E+07        -0.49969E+08         0.00000E+00
    0.00000E+00         0.00000E+00        -0.55380E+08
 
   -0.55095E+08         0.14355E+07         0.00000E+00
    0.14355E+07        -0.49966E+08         0.00000E+00
    0.00000E+00         0.00000E+00        -0.55381E+08
 
   -0.55102E+08         0.15028E+07         0.00000E+00
    0.15028E+07        -0.49963E+08         0.00000E+00
    0.00000E+00         0.00000E+00        -0.55382E+08
 
   -0.55109E+08         0.15702E+07         0.00000E+00
    0.15702E+07        -0.49959E+08         0.00000E+00
    0.00000E+00         0.00000E+00        -0.55382E+08
 
   -0.55117E+08         0.16378E+07         0.00000E+00
    0.16378E+07        -0.49955E+08         0.00000E+00
    0.00000E+00         0.00000E+00        -0.55383E+08
 
   -0.55125E+08         0.17055E+07         0.00000E+00
    0.17055E+07        -0.49952E+08         0.00000E+00
    0.00000E+00         0.00000E+00        -0.55384E+08
 
   -0.55133E+08         0.17733E+07         0.00000E+00
    0.17733E+07        -0.49948E+08         0.00000E+00
    0.00000E+00         0.00000E+00        -0.55385E+08
 
   -0.55142E+08         0.18412E+07         0.00000E+00
    0.18412E+07        -0.49943E+08         0.00000E+00
    0.00000E+00         0.00000E+00        -0.55386E+08
 
   -0.55151E+08         0.19094E+07         0.00000E+00
    0.19094E+07        -0.49939E+08         0.00000E+00
    0.00000E+00         0.00000E+00        -0.55386E+08
 
   -0.55160E+08         0.19777E+07         0.00000E+00
    0.19777E+07        -0.49934E+08         0.00000E+00
    0.00000E+00         0.00000E+00        -0.55387E+08
 
   -0.55170E+08         0.20461E+07         0.00000E+00
    0.20461E+07        -0.49930E+08         0.00000E+00
    0.00000E+00         0.00000E+00        -0.55388E+08
 
   -0.55179E+08         0.21148E+07         0.00000E+00
    0.21148E+07        -0.49925E+08         0.00000E+00
    0.00000E+00         0.00000E+00        -0.55389E+08
 
   -0.55190E+08         0.21837E+07         0.00000E+00
    0.21837E+07        -0.49920E+08         0.00000E+00
    0.00000E+00         0.00000E+00        -0.55391E+08
 
   -0.55200E+08         0.22527E+07         0.00000E+00
    0.22527E+07        -0.49915E+08         0.00000E+00
    0.00000E+00         0.00000E+00        -0.55392E+08
 
   -0.55211E+08         0.23220E+07         0.00000E+00
    0.23220E+07        -0.49910E+08         0.00000E+00
    0.00000E+00         0.00000E+00        -0.55393E+08
 
   -0.55222E+08         0.23915E+07         0.00000E+00
    0.23915E+07        -0.49904E+08         0.00000E+00
    0.00000E+00         0.00000E+00        -0.55394E+08
 
   -0.55234E+08         0.24612E+07         0.00000E+00
    0.24612E+07        -0.49899E+08         0.00000E+00
    0.00000E+00         0.00000E+00        -0.55395E+08
 
   -0.55246E+08         0.25312E+07         0.00000E+00
    0.25312E+07        -0.49893E+08         0.00000E+00
    0.00000E+00         0.00000E+00        -0.55396E+08
 
   -0.55258E+08         0.26015E+07         0.00000E+00
    0.26015E+07        -0.49888E+08         0.00000E+00
    0.00000E+00         0.00000E+00        -0.55398E+08
 
   -0.55270E+08         0.26719E+07         0.00000E+00
    0.26719E+07        -0.49882E+08         0.00000E+00
    0.00000E+00         0.00000E+00        -0.55399E+08
 
   -0.55283E+08         0.27427E+07         0.00000E+00
    0.27427E+07        -0.49876E+08         0.00000E+00
    0.00000E+00         0.00000E+00        -0.55400E+08
 
   -0.55296E+08         0.28137E+07         0.00000E+00
    0.28137E+07        -0.49870E+08         0.00000E+00
    0.00000E+00         0.00000E+00        -0.55402E+08
 
   -0.55309E+08         0.28851E+07         0.00000E+00
    0.28851E+07        -0.49864E+08         0.00000E+00
    0.00000E+00         0.00000E+00        -0.55403E+08
 
   -0.55322E+08         0.29567E+07         0.00000E+00
    0.29567E+07        -0.49858E+08         0.00000E+00
    0.00000E+00         0.00000E+00        -0.55405E+08
 
   -0.55336E+08         0.30286E+07         0.00000E+00
    0.30286E+07        -0.49851E+08         0.00000E+00
    0.00000E+00         0.00000E+00        -0.55406E+08
 
   -0.55350E+08         0.31008E+07         0.00000E+00
    0.31008E+07        -0.49845E+08         0.00000E+00
    0.00000E+00         0.00000E+00        -0.55408E+08
 
   -0.55364E+08         0.31733E+07         0.00000E+00
    0.31733E+07        -0.49839E+08         0.00000E+00
    0.00000E+00         0.00000E+00        -0.55409E+08
 
   -0.55378E+08         0.32462E+07         0.00000E+00
    0.32462E+07        -0.49832E+08         0.00000E+00
    0.00000E+00         0.00000E+00        -0.55411E+08
 
   -0.55393E+08         0.33194E+07         0.00000E+00
    0.33194E+07        -0.49826E+08         0.00000E+00
    0.00000E+00         0.00000E+00        -0.55412E+08
 
   -0.55407E+08         0.33929E+07         0.00000E+00
    0.33929E+07        -0.49819E+08         0.00000E+00
    0.00000E+00         0.00000E+00        -0.55414E+08
 
   -0.54691E+08         0.33723E+05         0.00000E+00
    0.33723E+05        -0.50000E+08         0.00000E+00
    0.00000E+00         0.00000E+00        -0.55007E+08
 
   -0.54691E+08         0.10111E+06         0.00000E+00
    0.10111E+06        -0.50000E+08         0.00000E+00
    0.00000E+00         0.00000E+00        -0.55007E+08
 
   -0.54692E+08         0.16849E+06         0.00000E+00
    0.16849E+06        -0.50000E+08         0.00000E+00
    0.00000E+00         0.00000E+00        -0.55008E+08
 
   -0.54693E+08         0.23584E+06         0.00000E+00
    0.23584E+06        -0.49999E+08         0.00000E+00
    0.00000E+00         0.00000E+00        -0.55008E+08
 
   -0.54694E+08         0.30318E+06         0.00000E+00
    0.30318E+06        -0.49999E+08         0.00000E+00
    0.00000E+00         0.00000E+00        -0.55008E+08
 
   -0.54696E+08         0.37052E+06         0.00000E+00
    0.37052E+06        -0.49998E+08         0.00000E+00
    0.00000E+00         0.00000E+00        -0.55008E+08
 
   -0.54697E+08         0.43785E+06         0.00000E+00
    0.43785E+06        -0.49997E+08         0.00000E+00
    0.00000E+00         0.00000E+00        -0.55008E+08
 
   -0.54699E+08         0.50519E+06         0.00000E+00
    0.50519E+06        -0.49997E+08         0.00000E+00
    0.00000E+00         0.00000E+00        -0.55008E+08
 
   -0.54702E+08         0.57253E+06         0.00000E+00
    0.57253E+06        -0.49996E+08         0.00000E+00
    0.00000E+00         0.00000E+00        -0.55009E+08
 
   -0.54704E+08         0.63988E+06         0.00000E+00
    0.63988E+06        -0.49994E+08         0.00000E+00
    0.00000E+00         0.00000E+00        -0.55009E+08
 
   -0.54707E+08         0.70724E+06         0.00000E+00
    0.70724E+06        -0.49993E+08         0.00000E+00
    0.00000E+00         0.00000E+00        -0.55009E+08
 
   -0.54710E+08         0.77463E+06         0.00000E+00
    0.77463E+06        -0.49992E+08         0.00000E+00
    0.00000E+00         0.00000E+00        -0.55009E+08
 
   -0.54713E+08         0.84205E+06         0.00000E+00
    0.84205E+06        -0.49990E+08         0.00000E+00
    0.00000E+00         0.00000E+00        -0.55010E+08
 
   -0.54717E+08         0.90951E+06         0.00000E+00
    0.90951E+06        -0.49988E+08         0.00000E+00
    0.00000E+00         0.00000E+00        -0.55010E+08
 
   -0.54721E+08         0.97701E+06         0.00000E+00
    0.97701E+06        -0.49986E+08         0.00000E+00
    0.00000E+00         0.00000E+00        -0.55011E+08
 
   -0.54725E+08         0.10446E+07         0.00000E+00
    0.10446E+07        -0.49984E+08         0.00000E+00
    0.00000E+00         0.00000E+00        -0.55011E+08
 
   -0.54730E+08         0.11122E+07         0.00000E+00
    0.11122E+07        -0.49982E+08         0.00000E+00
    0.00000E+00         0.00000E+00        -0.55012E+08
 
   -0.54735E+08         0.11798E+07         0.00000E+00
    0.11798E+07        -0.49980E+08         0.00000E+00
    0.00000E+00         0.00000E+00        -0.55012E+08
 
   -0.54740E+08         0.12475E+07         0.00000E+00
    0.12475E+07        -0.49977E+08         0.00000E+00
    0.00000E+00         0.00000E+00        -0.55013E+08
 
   -0.54745E+08         0.13154E+07         0.00000E+00
    0.13154E+07        -0.49975E+08         0.00000E+00
    0.00000E+00         0.00000E+00        -0.55013E+08
 
   -0.54751E+08         0.13832E+07         0.00000E+00
    0.13832E+07        -0.49972E+08         0.00000E+00
    0.00000E+00         0.00000E+00        -0.55014E+08
 
   -0.54757E+08         0.14512E+07         0.00000E+00
    0.14512E+07        -0.49969E+08         0.00000E+00
    0.00000E+00         0.00000E+00        -0.55014E+08
 
   -0.54763E+08         0.15193E+07         0.00000E+00
    0.15193E+07        -0.49966E+08         0.00000E+00
    0.00000E+00         0.00000E+00        -0.55015E+08
 
   -0.54770E+08         0.15875E+07         0.00000E+00
    0.15875E+07        -0.49963E+08         0.00000E+00
    0.00000E+00         0.00000E+00        -0.55016E+08
 
   -0.54777E+08         0.16558E+07         0.00000E+00
    0.16558E+07        -0.49959E+08         0.00000E+00
    0.00000E+00         0.00000E+00        -0.55016E+08
 
   -0.54784E+08         0.17242E+07         0.00000E+00
    0.17242E+07        -0.49956E+08         0.00000E+00
    0.00000E+00         0.00000E+00        -0.55017E+08
 
   -0.54792E+08         0.17928E+07         0.00000E+00
    0.17928E+07        -0.49952E+08         0.00000E+00
    0.00000E+00         0.00000E+00        -0.55018E+08
 
   -0.54800E+08         0.18615E+07         0.00000E+00
    0.18615E+07        -0.49948E+08         0.00000E+00
    0.00000E+00         0.00000E+00        -0.55019E+08
 
   -0.54808E+08         0.19304E+07         0.00000E+00
    0.19304E+07        -0.49945E+08         0.00000E+00
    0.00000E+00         0.00000E+00        -0.55020E+08
 
   -0.54816E+08         0.19994E+07         0.00000E+00
    0.19994E+07        -0.49941E+08         0.00000E+00
    0.00000E+00         0.00000E+00        -0.55020E+08
 
   -0.54825E+08         0.20685E+07         0.00000E+00
    0.20685E+07        -0.49936E+08         0.00000E+00
    0.00000E+00         0.00000E+00        -0.55021E+08
 
   -0.54834E+08         0.21379E+07         0.00000E+00
    0.21379E+07        -0.49932E+08         0.00000E+00
    0.00000E+00         0.00000E+00        -0.55022E+08
 
   -0.54843E+08         0.22074E+07         0.00000E+00
    0.22074E+07        -0.49928E+08         0.00000E+00
    0.00000E+00         0.00000E+00        -0.55023E+08
 
   -0.54853E+08         0.22771E+07         0.00000E+00
    0.22771E+07        -0.49923E+08         0.00000E+00
    0.00000E+00         0.00000E+00        -0.55024E+08
 
   -0.54863E+08         0.23470E+07         0.00000E+00
    0.23470E+07        -0.49918E+08         0.00000E+00
    0.00000E+00         0.00000E+00        -0.55025E+08
 
   -0.54873E+08         0.24171E+07         0.00000E+00
    0.24171E+07        -0.49914E+08         0.00000E+00
    0.00000E+00         0.00000E+00        -0.55026E+08
 
   -0.54883E+08         0.24874E+07         0.00000E+00
    0.24874E+07        -0.49909E+08         0.00000E+00
    0.00000E+00         0.00000E+00        -0.55028E+08
 
   -0.54894E+08         0.25580E+07         0.00000E+00
    0.25580E+07        -0.49904E+08         0.00000E+00
    0.00000E+00         0.00000E+00        -0.55029E+08
 
   -0.54905E+08         0.26287E+07         0.00000E+00
    0.26287E+07        -0.49899E+08         0.00000E+00
    0.00000E+00         0.00000E+00        -0.55030E+08
 
   -0.54916E+08         0.26997E+07         0.00000E+00
    0.26997E+07        -0.49893E+08         0.00000E+00
    0.00000E+00         0.00000E+00        -0.55031E+08
 
   -0.54927E+08         0.27709E+07         0.00000E+00
    0.27709E+07        -0.49888E+08         0.00000E+00
    0.00000E+00         0.00000E+00        -0.55032E+08
 
   -0.54939E+08         0.28424E+07         0.00000E+00
    0.28424E+07        -0.49883E+08         0.00000E+00
    0.00000E+00         0.00000E+00        -0.55033E+08
 
   -0.54951E+08         0.29142E+07         0.00000E+00
    0.29142E+07        -0.49877E+08         0.00000E+00
    0.00000E+00         0.00000E+00        -0.55035E+08
 
   -0.54963E+08         0.29861E+07         0.00000E+00
    0.29861E+07        -0.49872E+08         0.00000E+00
    0.00000E+00         0.00000E+00        -0.55036E+08
 
   -0.54975E+08         0.30584E+07         0.00000E+00
    0.30584E+07        -0.49866E+08         0.00000E+00
    0.00000E+00         0.00000E+00        -0.55037E+08
 
   -0.54987E+08         0.31309E+07         0.00000E+00
    0.31309E+07        -0.49860E+08         0.00000E+00
    0.00000E+00         0.00000E+00        -0.55039E+08
 
   -0.55000E+08         0.32038E+07         0.00000E+00
    0.32038E+07        -0.49855E+08         0.00000E+00
    0.00000E+00         0.00000E+00        -0.55040E+08
 
   -0.55013E+08         0.32769E+07         0.00000E+00
    0.32769E+07        -0.49849E+08         0.00000E+00
    0.00000E+00         0.00000E+00        -0.55041E+08
 
   -0.55025E+08         0.33502E+07         0.00000E+00
    0.33502E+07        -0.49843E+08         0.00000E+00
    0.00000E+00         0.00000E+00        -0.55043E+08
 
   -0.55038E+08         0.34239E+07         0.00000E+00
    0.34239E+07        -0.49837E+08         0.00000E+00
    0.00000E+00         0.00000E+00        -0.55044E+08
 
   -0.54353E+08         0.34006E+05         0.00000E+00
    0.34006E+05        -0.50000E+08         0.00000E+00
    0.00000E+00         0.00000E+00        -0.54640E+08
 
   -0.54353E+08         0.10199E+06         0.00000E+00
    0.10199E+06        -0.50000E+08         0.00000E+00
    0.00000E+00         0.00000E+00        -0.54640E+08
 
   -0.54354E+08         0.16996E+06         0.00000E+00
    0.16996E+06        -0.50000E+08         0.00000E+00
    0.00000E+00         0.00000E+00        -0.54640E+08
 
   -0.54355E+08         0.23793E+06         0.00000E+00
    0.23793E+06        -0.49999E+08         0.00000E+00
    0.00000E+00         0.00000E+00        -0.54641E+08
 
   -0.54356E+08         0.30590E+06         0.00000E+00
    0.30590E+06        -0.49999E+08         0.00000E+00
    0.00000E+00         0.00000E+00        -0.54641E+08
 
   -0.54357E+08         0.37387E+06         0.00000E+00
    0.37387E+06        -0.49998E+08         0.00000E+00
    0.00000E+00         0.00000E+00        -0.54641E+08
 
   -0.54359E+08         0.44184E+06         0.00000E+00
    0.44184E+06        -0.49998E+08         0.00000E+00
    0.00000E+00         0.00000E+00        -0.54641E+08
 
   -0.54361E+08         0.50982E+06         0.00000E+00
    0.50982E+06        -0.49997E+08         0.00000E+00
    0.00000E+00         0.00000E+00        -0.54641E+08
 
   -0.54363E+08         0.57782E+06         0.00000E+00
    0.57782E+06        -0.49996E+08         0.00000E+00
    0.00000E+00         0.00000E+00        -0.54641E+08
 
   -0.54366E+08         0.64584E+06         0.00000E+00
    0.64584E+06        -0.49995E+08         0.00000E+00
    0.00000E+00         0.00000E+00        -0.54642E+08
 
   -0.54368E+08         0.71388E+06         0.00000E+00
    0.71388E+06        -0.49994E+08         0.00000E+00
    0.00000E+00         0.00000E+00        -0.54642E+08
 
   -0.54371E+08         0.78195E+06         0.00000E+00
    0.78195E+06        -0.49992E+08         0.00000E+00
    0.00000E+00         0.00000E+00        -0.54642E+08
 
   -0.54374E+08         0.85005E+06         0.00000E+00
    0.85005E+06        -0.49991E+08         0.00000E+00
    0.00000E+00         0.00000E+00        -0.54643E+08
 
   -0.54378E+08         0.91820E+06         0.00000E+00
    0.91820E+06        -0.49989E+08         0.00000E+00
    0.00000E+00         0.00000E+00        -0.54643E+08
 
   -0.54382E+08         0.98638E+06         0.00000E+00
    0.98638E+06        -0.49987E+08         0.00000E+00
    0.00000E+00         0.00000E+00        -0.54643E+08
 
   -0.54386E+08         0.10546E+07         0.00000E+00
    0.10546E+07        -0.49986E+08         0.00000E+00
    0.00000E+00         0.00000E+00        -0.54644E+08
 
   -0.54390E+08         0.11229E+07         0.00000E+00
    0.11229E+07        -0.49984E+08         0.00000E+00
    0.00000E+00         0.00000E+00        -0.54644E+08
 
   -0.54394E+08         0.11913E+07         0.00000E+00
    0.11913E+07        -0.49981E+08         0.00000E+00
    0.00000E+00         0.00000E+00        -0.54645E+08
 
   -0.54399E+08         0.12597E+07         0.00000E+00
    0.12597E+07        -0.49979E+08         0.00000E+00
    0.00000E+00         0.00000E+00        -0.54645E+08
 
   -0.54404E+08         0.13282E+07         0.00000E+00
    0.13282E+07        -0.49977E+08         0.00000E+00
    0.00000E+00         0.00000E+00        -0.54646E+08
 
   -0.54409E+08         0.13968E+07         0.00000E+00
    0.13968E+07        -0.49974E+08         0.00000E+00
    0.00000E+00         0.00000E+00        -0.54646E+08
 
   -0.54415E+08         0.14655E+07         0.00000E+00
    0.14655E+07        -0.49972E+08         0.00000E+00
    0.00000E+00         0.00000E+00        -0.54647E+08
 
   -0.54421E+08         0.15343E+07         0.00000E+00
    0.15343E+07        -0.49969E+08         0.00000E+00
    0.00000E+00         0.00000E+00        -0.54648E+08
 
   -0.54427E+08         0.16031E+07         0.00000E+00
    0.16031E+07        -0.49966E+08         0.00000E+00
    0.00000E+00         0.00000E+00        -0.54648E+08
 
   -0.54433E+08         0.16721E+07         0.00000E+00
    0.16721E+07        -0.49963E+08         0.00000E+00
    0.00000E+00         0.00000E+00        -0.54649E+08
 
   -0.54440E+08         0.17412E+07         0.00000E+00
    0.17412E+07        -0.49960E+08         0.00000E+00
    0.00000E+00         0.00000E+00        -0.54650E+08
 
   -0.54447E+08         0.18104E+07         0.00000E+00
    0.18104E+07        -0.49956E+08         0.00000E+00
    0.00000E+00         0.00000E+00        -0.54650E+08
 
   -0.54454E+08         0.18798E+07         0.00000E+00
    0.18798E+07        -0.49953E+08         0.00000E+00
    0.00000E+00         0.00000E+00        -0.54651E+08
 
   -0.54462E+08         0.19493E+07         0.00000E+00
    0.19493E+07        -0.49950E+08         0.00000E+00
    0.00000E+00         0.00000E+00        -0.54652E+08
 
   -0.54469E+08         0.20189E+07         0.00000E+00
    0.20189E+07        -0.49946E+08         0.00000E+00
    0.00000E+00         0.00000E+00        -0.54653E+08
 
   -0.54477E+08         0.20887E+07         0.00000E+00
    0.20887E+07        -0.49942E+08         0.00000E+00
    0.00000E+00         0.00000E+00        -0.54654E+08
 
   -0.54485E+08         0.21586E+07         0.00000E+00
    0.21586E+07        -0.49938E+08         0.00000E+00
    0.00000E+00         0.00000E+00        -0.54654E+08
 
   -0.54494E+08         0.22287E+07         0.00000E+00
    0.22287E+07        -0.49934E+08         0.00000E+00
    0.00000E+00         0.00000E+00        -0.54655E+08
 
   -0.54502E+08         0.22990E+07         0.00000E+00
    0.22990E+07        -0.49930E+08         0.00000E+00
    0.00000E+00         0.00000E+00        -0.54656E+08
 
   -0.54511E+08         0.23694E+07         0.00000E+00
    0.23694E+07        -0.49926E+08         0.00000E+00
    0.00000E+00         0.00000E+00        -0.54657E+08
 
   -0.54520E+08         0.24401E+07         0.00000E+00
    0.24401E+07        -0.49922E+08         0.00000E+00
    0.00000E+00         0.00000E+00        -0.54658E+08
 
   -0.54530E+08         0.25109E+07         0.00000E+00
    0.25109E+07        -0.49917E+08         0.00000E+00
    0.00000E+00         0.00000E+00        -0.54659E+08
 
   -0.54539E+08         0.25819E+07         0.00000E+00
    0.25819E+07        -0.49913E+08         0.00000E+00
    0.00000E+00         0.00000E+00        -0.54660E+08
 
   -0.54549E+08         0.26531E+07         0.00000E+00
    0.26531E+07        -0.49908E+08         0.00000E+00
    0.00000E+00         0.00000E+00        -0.54661E+08
 
   -0.54559E+08         0.27245E+07         0.00000E+00
    0.27245E+07        -0.49904E+08         0.00000E+00
    0.00000E+00         0.00000E+00        -0.54662E+08
 
   -0.54569E+08         0.27962E+07         0.00000E+00
    0.27962E+07        -0.49899E+08         0.00000E+00
    0.00000E+00         0.00000E+00        -0.54663E+08
 
   -0.54580E+08         0.28681E+07         0.00000E+00
    0.28681E+07        -0.49894E+08         0.00000E+00
    0.00000E+00         0.00000E+00        -0.54664E+08
 
   -0.54590E+08         0.29401E+07         0.00000E+00
    0.29401E+07        -0.49889E+08         0.00000E+00
    0.00000E+00         0.00000E+00        -0.54666E+08
 
   -0.54601E+08         0.30125E+07         0.00000E+00
    0.30125E+07        -0.49884E+08         0.00000E+00
    0.00000E+00         0.00000E+00        -0.54667E+08
 
   -0.54612E+08         0.30850E+07         0.00000E+00
    0.30850E+07        -0.49879E+08         0.00000E+00
    0.00000E+00         0.00000E+00        -0.54668E+08
 
   -0.54623E+08         0.31578E+07         0.00000E+00
    0.31578E+07        -0.49874E+08         0.00000E+00
    0.00000E+00         0.00000E+00        -0.54669E+08
 
   -0.54634E+08         0.32309E+07         0.00000E+00
    0.32309E+07        -0.49869E+08         0.00000E+00
    0.00000E+00         0.00000E+00        -0.54670E+08
 
   -0.54646E+08         0.33042E+07         0.00000E+00
    0.33042E+07        -0.49864E+08         0.00000E+00
    0.00000E+00         0.00000E+00        -0.54672E+08
 
   -0.54657E+08         0.33778E+07         0.00000E+00
    0.33778E+07        -0.49859E+08         0.00000E+00
    0.00000E+00         0.00000E+00        -0.54673E+08
 
   -0.54669E+08         0.34516E+07         0.00000E+00
    0.34516E+07        -0.49853E+08         0.00000E+00
    0.00000E+00         0.00000E+00        -0.54674E+08
 
   -0.54011E+08         0.34275E+05         0.00000E+00
    0.34275E+05        -0.50000E+08         0.00000E+00
    0.00000E+00         0.00000E+00        -0.54272E+08
 
   -0.54012E+08         0.10281E+06         0.00000E+00
    0.10281E+06        -0.50000E+08         0.00000E+00
    0.00000E+00         0.00000E+00        -0.54273E+08
 
   -0.54013E+08         0.17135E+06         0.00000E+00
    0.17135E+06        -0.50000E+08         0.00000E+00
    0.00000E+00         0.00000E+00        -0.54273E+08
 
   -0.54013E+08         0.23989E+06         0.00000E+00
    0.23989E+06        -0.49999E+08         0.00000E+00
    0.00000E+00         0.00000E+00        -0.54273E+08
 
   -0.54015E+08         0.30843E+06         0.00000E+00
    0.30843E+06        -0.49999E+08         0.00000E+00
    0.00000E+00         0.00000E+00        -0.54273E+08
 
   -0.54016E+08         0.37698E+06         0.00000E+00
    0.37698E+06        -0.49998E+08         0.00000E+00
    0.00000E+00         0.00000E+00        -0.54273E+08
 
   -0.54018E+08         0.44554E+06         0.00000E+00
    0.44554E+06        -0.49998E+08         0.00000E+00
    0.00000E+00         0.00000E+00        -0.54273E+08
 
   -0.54020E+08         0.51412E+06         0.00000E+00
    0.51412E+06        -0.49997E+08         0.00000E+00
    0.00000E+00         0.00000E+00        -0.54274E+08
 
   -0.54022E+08         0.58272E+06         0.00000E+00
    0.58272E+06        -0.49996E+08         0.00000E+00
    0.00000E+00         0.00000E+00        -0.54274E+08
 
   -0.54024E+08         0.65134E+06         0.00000E+00
    0.65134E+06        -0.49995E+08         0.00000E+00
    0.00000E+00         0.00000E+00        -0.54274E+08
 
   -0.54026E+08         0.71999E+06         0.00000E+00
    0.71999E+06        -0.49994E+08         0.00000E+00
    0.00000E+00         0.00000E+00        -0.54274E+08
 
   -0.54029E+08         0.78868E+06         0.00000E+00
    0.78868E+06        -0.49993E+08         0.00000E+00
    0.00000E+00         0.00000E+00        -0.54275E+08
 
   -0.54032E+08         0.85740E+06         0.00000E+00
    0.85740E+06        -0.49991E+08         0.00000E+00
    0.00000E+00         0.00000E+00        -0.54275E+08
 
   -0.54035E+08         0.92616E+06         0.00000E+00
    0.92616E+06        -0.49990E+08         0.00000E+00
    0.00000E+00         0.00000E+00        -0.54275E+08
 
   -0.54039E+08         0.99497E+06         0.00000E+00
    0.99497E+06        -0.49988E+08         0.00000E+00
    0.00000E+00         0.00000E+00        -0.54276E+08
 
   -0.54043E+08         0.10638E+07         0.00000E+00
    0.10638E+07        -0.49987E+08         0.00000E+00
    0.00000E+00         0.00000E+00        -0.54276E+08
 
   -0.54047E+08         0.11328E+07         0.00000E+00
    0.11328E+07        -0.49985E+08         0.00000E+00
    0.00000E+00         0.00000E+00        -0.54277E+08
 
   -0.54051E+08         0.12017E+07         0.00000E+00
    0.12017E+07        -0.49983E+08         0.00000E+00
    0.00000E+00         0.00000E+00        -0.54277E+08
 
   -0.54055E+08         0.12708E+07         0.00000E+00
    0.12708E+07        -0.49981E+08         0.00000E+00
    0.00000E+00         0.00000E+00        -0.54277E+08
 
   -0.54060E+08         0.13399E+07         0.00000E+00
    0.13399E+07        -0.49979E+08         0.00000E+00
    0.00000E+00         0.00000E+00        -0.54278E+08
 
   -0.54065E+08         0.14091E+07         0.00000E+00
    0.14091E+07        -0.49976E+08         0.00000E+00
    0.00000E+00         0.00000E+00        -0.54278E+08
 
   -0.54070E+08         0.14784E+07         0.00000E+00
    0.14784E+07        -0.49974E+08         0.00000E+00
    0.00000E+00         0.00000E+00        -0.54279E+08
 
   -0.54075E+08         0.15478E+07         0.00000E+00
    0.15478E+07        -0.49971E+08         0.00000E+00
    0.00000E+00         0.00000E+00        -0.54280E+08
 
   -0.54081E+08         0.16173E+07         0.00000E+00
    0.16173E+07        -0.49969E+08         0.00000E+00
    0.00000E+00         0.00000E+00        -0.54280E+08
 
   -0.54087E+08         0.16868E+07         0.00000E+00
    0.16868E+07        -0.49966E+08         0.00000E+00
    0.00000E+00         0.00000E+00        -0.54281E+08
 
   -0.54093E+08         0.17565E+07         0.00000E+00
    0.17565E+07        -0.49963E+08         0.00000E+00
    0.00000E+00         0.00000E+00        -0.54281E+08
 
   -0.54099E+08         0.18263E+07         0.00000E+00
    0.18263E+07        -0.49960E+08         0.00000E+00
    0.00000E+00         0.00000E+00        -0.54282E+08
 
   -0.54106E+08         0.18963E+07         0.00000E+00
    0.18963E+07        -0.49957E+08         0.00000E+00
    0.00000E+00         0.00000E+00        -0.54283E+08
 
   -0.54112E+08         0.19663E+07         0.00000E+00
    0.19663E+07        -0.49954E+08         0.00000E+00
    0.00000E+00         0.00000E+00        -0.54283E+08
 
   -0.54119E+08         0.20365E+07         0.00000E+00
    0.20365E+07        -0.49951E+08         0.00000E+00
    0.00000E+00         0.00000E+00        -0.54284E+08
 
   -0.54127E+08         0.21068E+07         0.00000E+00
    0.21068E+07        -0.49947E+08         0.00000E+00
    0.00000E+00         0.00000E+00        -0.54285E+08
 
   -0.54134E+08         0.21773E+07         0.00000E+00
    0.21773E+07        -0.49944E+08         0.00000E+00
    0.00000E+00         0.00000E+00        -0.54286E+08
 
   -0.54142E+08         0.22479E+07         0.00000E+00
    0.22479E+07        -0.49940E+08         0.00000E+00
    0.00000E+00         0.00000E+00        -0.54287E+08
 
   -0.54149E+08         0.23186E+07         0.00000E+00
    0.23186E+07        -0.49937E+08         0.00000E+00
    0.00000E+00         0.00000E+00        -0.54287E+08
 
   -0.54157E+08         0.23896E+07         0.00000E+00
    0.23896E+07        -0.49933E+08         0.00000E+00
    0.00000E+00         0.00000E+00        -0.54288E+08
 
   -0.54166E+08         0.24607E+07         0.00000E+00
    0.24607E+07        -0.49929E+08         0.00000E+00
    0.00000E+00         0.00000E+00        -0.54289E+08
 
   -0.54174E+08         0.25319E+07         0.00000E+00
    0.25319E+07        -0.49925E+08         0.00000E+00
    0.00000E+00         0.00000E+00        -0.54290E+08
 
   -0.54183E+08         0.26034E+07         0.00000E+00
    0.26034E+07        -0.49921E+08         0.00000E+00
    0.00000E+00         0.00000E+00        -0.54291E+08
 
   -0.54192E+08         0.26750E+07         0.00000E+00
    0.26750E+07        -0.49917E+08         0.00000E+00
    0.00000E+00         0.00000E+00        -0.54292E+08
 
   -0.54201E+08         0.27468E+07         0.00000E+00
    0.27468E+07        -0.49913E+08         0.00000E+00
    0.00000E+00         0.00000E+00        -0.54293E+08
 
   -0.54210E+08         0.28188E+07         0.00000E+00
    0.28188E+07        -0.49908E+08         0.00000E+00
    0.00000E+00         0.00000E+00        -0.54294E+08
 
   -0.54219E+08         0.28910E+07         0.00000E+00
    0.28910E+07        -0.49904E+08         0.00000E+00
    0.00000E+00         0.00000E+00        -0.54295E+08
 
   -0.54229E+08         0.29634E+07         0.00000E+00
    0.29634E+07        -0.49900E+08         0.00000E+00
    0.00000E+00         0.00000E+00        -0.54296E+08
 
   -0.54238E+08         0.30360E+07         0.00000E+00
    0.30360E+07        -0.49895E+08         0.00000E+00
    0.00000E+00         0.00000E+00        -0.54297E+08
 
   -0.54248E+08         0.31088E+07         0.00000E+00
    0.31088E+07        -0.49891E+08         0.00000E+00
    0.00000E+00         0.00000E+00        -0.54298E+08
 
   -0.54258E+08         0.31819E+07         0.00000E+00
    0.31819E+07        -0.49886E+08         0.00000E+00
    0.00000E+00         0.00000E+00        -0.54299E+08
 
   -0.54268E+08         0.32551E+07         0.00000E+00
    0.32551E+07        -0.49882E+08         0.00000E+00
    0.00000E+00         0.00000E+00        -0.54300E+08
 
   -0.54278E+08         0.33286E+07         0.00000E+00
    0.33286E+07        -0.49877E+08         0.00000E+00
    0.00000E+00         0.00000E+00        -0.54301E+08
 
   -0.54289E+08         0.34023E+07         0.00000E+00
    0.34023E+07        -0.49872E+08         0.00000E+00
    0.00000E+00         0.00000E+00        -0.54302E+08
 
   -0.54299E+08         0.34763E+07         0.00000E+00
    0.34763E+07        -0.49868E+08         0.00000E+00
    0.00000E+00         0.00000E+00        -0.54304E+08
 
   -0.53667E+08         0.34529E+05         0.00000E+00
    0.34529E+05        -0.50000E+08         0.00000E+00
    0.00000E+00         0.00000E+00        -0.53904E+08
 
   -0.53668E+08         0.10358E+06         0.00000E+00
    0.10358E+06        -0.50000E+08         0.00000E+00
    0.00000E+00         0.00000E+00        -0.53904E+08
 
   -0.53669E+08         0.17264E+06         0.00000E+00
    0.17264E+06        -0.50000E+08         0.00000E+00
    0.00000E+00         0.00000E+00        -0.53904E+08
 
   -0.53669E+08         0.24171E+06         0.00000E+00
    0.24171E+06        -0.49999E+08         0.00000E+00
    0.00000E+00         0.00000E+00        -0.53905E+08
 
   -0.53671E+08         0.31079E+06         0.00000E+00
    0.31079E+06        -0.49999E+08         0.00000E+00
    0.00000E+00         0.00000E+00        -0.53905E+08
 
   -0.53672E+08         0.37987E+06         0.00000E+00
    0.37987E+06        -0.49999E+08         0.00000E+00
    0.00000E+00         0.00000E+00        -0.53905E+08
 
   -0.53673E+08         0.44898E+06         0.00000E+00
    0.44898E+06        -0.49998E+08         0.00000E+00
    0.00000E+00         0.00000E+00        -0.53905E+08
 
   -0.53675E+08         0.51810E+06         0.00000E+00
    0.51810E+06        -0.49997E+08         0.00000E+00
    0.00000E+00         0.00000E+00        -0.53905E+08
 
   -0.53677E+08         0.58725E+06         0.00000E+00
    0.58725E+06        -0.49996E+08         0.00000E+00
    0.00000E+00         0.00000E+00        -0.53905E+08
 
   -0.53679E+08         0.65642E+06         0.00000E+00
    0.65642E+06        -0.49995E+08         0.00000E+00
    0.00000E+00         0.00000E+00        -0.53906E+08
 
   -0.53682E+08         0.72563E+06         0.00000E+00
    0.72563E+06        -0.49994E+08         0.00000E+00
    0.00000E+00         0.00000E+00        -0.53906E+08
 
   -0.53684E+08         0.79487E+06         0.00000E+00
    0.79487E+06        -0.49993E+08         0.00000E+00
    0.00000E+00         0.00000E+00        -0.53906E+08
 
   -0.53687E+08         0.86415E+06         0.00000E+00
    0.86415E+06        -0.49992E+08         0.00000E+00
    0.00000E+00         0.00000E+00        -0.53907E+08
 
   -0.53690E+08         0.93347E+06         0.00000E+00
    0.93347E+06        -0.49991E+08         0.00000E+00
    0.00000E+00         0.00000E+00        -0.53907E+08
 
   -0.53693E+08         0.10028E+07         0.00000E+00
    0.10028E+07        -0.49989E+08         0.00000E+00
    0.00000E+00         0.00000E+00        -0.53907E+08
 
   -0.53697E+08         0.10723E+07         0.00000E+00
    0.10723E+07        -0.49988E+08         0.00000E+00
    0.00000E+00         0.00000E+00        -0.53908E+08
 
   -0.53700E+08         0.11417E+07         0.00000E+00
    0.11417E+07        -0.49986E+08         0.00000E+00
    0.00000E+00         0.00000E+00        -0.53908E+08
 
   -0.53704E+08         0.12113E+07         0.00000E+00
    0.12113E+07        -0.49984E+08         0.00000E+00
    0.00000E+00         0.00000E+00        -0.53908E+08
 
   -0.53708E+08         0.12809E+07         0.00000E+00
    0.12809E+07        -0.49982E+08         0.00000E+00
    0.00000E+00         0.00000E+00        -0.53909E+08
 
   -0.53713E+08         0.13506E+07         0.00000E+00
    0.13506E+07        -0.49980E+08         0.00000E+00
    0.00000E+00         0.00000E+00        -0.53909E+08
 
   -0.53717E+08         0.14203E+07         0.00000E+00
    0.14203E+07        -0.49978E+08         0.00000E+00
    0.00000E+00         0.00000E+00        -0.53910E+08
 
   -0.53722E+08         0.14902E+07         0.00000E+00
    0.14902E+07        -0.49976E+08         0.00000E+00
    0.00000E+00         0.00000E+00        -0.53910E+08
 
   -0.53727E+08         0.15601E+07         0.00000E+00
    0.15601E+07        -0.49974E+08         0.00000E+00
    0.00000E+00         0.00000E+00        -0.53911E+08
 
   -0.53732E+08         0.16301E+07         0.00000E+00
    0.16301E+07        -0.49971E+08         0.00000E+00
    0.00000E+00         0.00000E+00        -0.53911E+08
 
   -0.53737E+08         0.17002E+07         0.00000E+00
    0.17002E+07        -0.49969E+08         0.00000E+00
    0.00000E+00         0.00000E+00        -0.53912E+08
 
   -0.53743E+08         0.17704E+07         0.00000E+00
    0.17704E+07        -0.49966E+08         0.00000E+00
    0.00000E+00         0.00000E+00        -0.53913E+08
 
   -0.53748E+08         0.18407E+07         0.00000E+00
    0.18407E+07        -0.49964E+08         0.00000E+00
    0.00000E+00         0.00000E+00        -0.53913E+08
 
   -0.53754E+08         0.19112E+07         0.00000E+00
    0.19112E+07        -0.49961E+08         0.00000E+00
    0.00000E+00         0.00000E+00        -0.53914E+08
 
   -0.53761E+08         0.19817E+07         0.00000E+00
    0.19817E+07        -0.49958E+08         0.00000E+00
    0.00000E+00         0.00000E+00        -0.53914E+08
 
   -0.53767E+08         0.20524E+07         0.00000E+00
    0.20524E+07        -0.49955E+08         0.00000E+00
    0.00000E+00         0.00000E+00        -0.53915E+08
 
   -0.53773E+08         0.21231E+07         0.00000E+00
    0.21231E+07        -0.49952E+08         0.00000E+00
    0.00000E+00         0.00000E+00        -0.53916E+08
 
   -0.53780E+08         0.21941E+07         0.00000E+00
    0.21941E+07        -0.49949E+08         0.00000E+00
    0.00000E+00         0.00000E+00        -0.53917E+08
 
   -0.53787E+08         0.22651E+07         0.00000E+00
    0.22651E+07        -0.49946E+08         0.00000E+00
    0.00000E+00         0.00000E+00        -0.53917E+08
 
   -0.53794E+08         0.23363E+07         0.00000E+00
    0.23363E+07        -0.49942E+08         0.00000E+00
    0.00000E+00         0.00000E+00        -0.53918E+08
 
   -0.53801E+08         0.24077E+07         0.00000E+00
    0.24077E+07        -0.49939E+08         0.00000E+00
    0.00000E+00         0.00000E+00        -0.53919E+08
 
   -0.53809E+08         0.24792E+07         0.00000E+00
    0.24792E+07        -0.49935E+08         0.00000E+00
    0.00000E+00         0.00000E+00        -0.53920E+08
 
   -0.53816E+08         0.25508E+07         0.00000E+00
    0.25508E+07        -0.49932E+08         0.00000E+00
    0.00000E+00         0.00000E+00        -0.53920E+08
 
   -0.53824E+08         0.26226E+07         0.00000E+00
    0.26226E+07        -0.49928E+08         0.00000E+00
    0.00000E+00         0.00000E+00        -0.53921E+08
 
   -0.53832E+08         0.26946E+07         0.00000E+00
    0.26946E+07        -0.49925E+08         0.00000E+00
    0.00000E+00         0.00000E+00        -0.53922E+08
 
   -0.53840E+08         0.27667E+07         0.00000E+00
    0.27667E+07        -0.49921E+08         0.00000E+00
    0.00000E+00         0.00000E+00        -0.53923E+08
 
   -0.53848E+08         0.28391E+07         0.00000E+00
    0.28391E+07        -0.49917E+08         0.00000E+00
    0.00000E+00         0.00000E+00        -0.53924E+08
 
   -0.53857E+08         0.29116E+07         0.00000E+00
    0.29116E+07        -0.49913E+08         0.00000E+00
    0.00000E+00         0.00000E+00        -0.53925E+08
 
   -0.53865E+08         0.29842E+07         0.00000E+00
    0.29842E+07        -0.49909E+08         0.00000E+00
    0.00000E+00         0.00000E+00        -0.53926E+08
 
   -0.53874E+08         0.30571E+07         0.00000E+00
    0.30571E+07        -0.49905E+08         0.00000E+00
    0.00000E+00         0.00000E+00        -0.53927E+08
 
   -0.53883E+08         0.31301E+07         0.00000E+00
    0.31301E+07        -0.49901E+08         0.00000E+00
    0.00000E+00         0.00000E+00        -0.53928E+08
 
   -0.53892E+08         0.32034E+07         0.00000E+00
    0.32034E+07        -0.49897E+08         0.00000E+00
    0.00000E+00         0.00000E+00        -0.53929E+08
 
   -0.53901E+08         0.32768E+07         0.00000E+00
    0.32768E+07        -0.49893E+08         0.00000E+00
    0.00000E+00         0.00000E+00        -0.53930E+08
 
   -0.53910E+08         0.33505E+07         0.00000E+00
    0.33505E+07        -0.49889E+08         0.00000E+00
    0.00000E+00         0.00000E+00        -0.53931E+08
 
   -0.53919E+08         0.34243E+07         0.00000E+00
    0.34243E+07        -0.49885E+08         0.00000E+00
    0.00000E+00         0.00000E+00        -0.53932E+08
 
   -0.53928E+08         0.34984E+07         0.00000E+00
    0.34984E+07        -0.49881E+08         0.00000E+00
    0.00000E+00         0.00000E+00        -0.53933E+08
 
   -0.53321E+08         0.34767E+05         0.00000E+00
    0.34767E+05        -0.50000E+08         0.00000E+00
    0.00000E+00         0.00000E+00        -0.53535E+08
 
   -0.53321E+08         0.10431E+06         0.00000E+00
    0.10431E+06        -0.50000E+08         0.00000E+00
    0.00000E+00         0.00000E+00        -0.53535E+08
 
   -0.53322E+08         0.17385E+06         0.00000E+00
    0.17385E+06        -0.50000E+08         0.00000E+00
    0.00000E+00         0.00000E+00        -0.53536E+08
 
   -0.53323E+08         0.24341E+06         0.00000E+00
    0.24341E+06        -0.49999E+08         0.00000E+00
    0.00000E+00         0.00000E+00        -0.53536E+08
 
   -0.53324E+08         0.31297E+06         0.00000E+00
    0.31297E+06        -0.49999E+08         0.00000E+00
    0.00000E+00         0.00000E+00        -0.53536E+08
 
   -0.53325E+08         0.38256E+06         0.00000E+00
    0.38256E+06        -0.49999E+08         0.00000E+00
    0.00000E+00         0.00000E+00        -0.53536E+08
 
   -0.53327E+08         0.45216E+06         0.00000E+00
    0.45216E+06        -0.49998E+08         0.00000E+00
    0.00000E+00         0.00000E+00        -0.53536E+08
 
   -0.53328E+08         0.52178E+06         0.00000E+00
    0.52178E+06        -0.49997E+08         0.00000E+00
    0.00000E+00         0.00000E+00        -0.53536E+08
 
   -0.53330E+08         0.59143E+06         0.00000E+00
    0.59143E+06        -0.49997E+08         0.00000E+00
    0.00000E+00         0.00000E+00        -0.53537E+08
 
   -0.53332E+08         0.66110E+06         0.00000E+00
    0.66110E+06        -0.49996E+08         0.00000E+00
    0.00000E+00         0.00000E+00        -0.53537E+08
 
   -0.53334E+08         0.73081E+06         0.00000E+00
    0.73081E+06        -0.49995E+08         0.00000E+00
    0.00000E+00         0.00000E+00        -0.53537E+08
 
   -0.53337E+08         0.80056E+06         0.00000E+00
    0.80056E+06        -0.49994E+08         0.00000E+00
    0.00000E+00         0.00000E+00        -0.53537E+08
 
   -0.53339E+08         0.87034E+06         0.00000E+00
    0.87034E+06        -0.49993E+08         0.00000E+00
    0.00000E+00         0.00000E+00        -0.53538E+08
 
   -0.53342E+08         0.94017E+06         0.00000E+00
    0.94017E+06        -0.49991E+08         0.00000E+00
    0.00000E+00         0.00000E+00        -0.53538E+08
 
   -0.53345E+08         0.10100E+07         0.00000E+00
    0.10100E+07        -0.49990E+08         0.00000E+00
    0.00000E+00         0.00000E+00        -0.53538E+08
 
   -0.53348E+08         0.10800E+07         0.00000E+00
    0.10800E+07        -0.49989E+08         0.00000E+00
    0.00000E+00         0.00000E+00        -0.53539E+08
 
   -0.53352E+08         0.11499E+07         0.00000E+00
    0.11499E+07        -0.49987E+08         0.00000E+00
    0.00000E+00         0.00000E+00        -0.53539E+08
 
   -0.53355E+08         0.12200E+07         0.00000E+00
    0.12200E+07        -0.49986E+08         0.00000E+00
    0.00000E+00         0.00000E+00        -0.53539E+08
 
   -0.53359E+08         0.12901E+07         0.00000E+00
    0.12901E+07        -0.49984E+08         0.00000E+00
    0.00000E+00         0.00000E+00        -0.53540E+08
 
   -0.53363E+08         0.13603E+07         0.00000E+00
    0.13603E+07        -0.49982E+08         0.00000E+00
    0.00000E+00         0.00000E+00        -0.53540E+08
 
   -0.53367E+08         0.14305E+07         0.00000E+00
    0.14305E+07        -0.49980E+08         0.00000E+00
    0.00000E+00         0.00000E+00        -0.53541E+08
 
   -0.53371E+08         0.15008E+07         0.00000E+00
    0.15008E+07        -0.49978E+08         0.00000E+00
    0.00000E+00         0.00000E+00        -0.53541E+08
 
   -0.53376E+08         0.15712E+07         0.00000E+00
    0.15712E+07        -0.49976E+08         0.00000E+00
    0.00000E+00         0.00000E+00        -0.53542E+08
 
   -0.53380E+08         0.16417E+07         0.00000E+00
    0.16417E+07        -0.49974E+08         0.00000E+00
    0.00000E+00         0.00000E+00        -0.53542E+08
 
   -0.53385E+08         0.17123E+07         0.00000E+00
    0.17123E+07        -0.49972E+08         0.00000E+00
    0.00000E+00         0.00000E+00        -0.53543E+08
 
   -0.53390E+08         0.17830E+07         0.00000E+00
    0.17830E+07        -0.49969E+08         0.00000E+00
    0.00000E+00         0.00000E+00        -0.53543E+08
 
   -0.53395E+08         0.18537E+07         0.00000E+00
    0.18537E+07        -0.49967E+08         0.00000E+00
    0.00000E+00         0.00000E+00        -0.53544E+08
 
   -0.53401E+08         0.19246E+07         0.00000E+00
    0.19246E+07        -0.49964E+08         0.00000E+00
    0.00000E+00         0.00000E+00        -0.53544E+08
 
   -0.53406E+08         0.19956E+07         0.00000E+00
    0.19956E+07        -0.49962E+08         0.00000E+00
    0.00000E+00         0.00000E+00        -0.53545E+08
 
   -0.53412E+08         0.20667E+07         0.00000E+00
    0.20667E+07        -0.49959E+08         0.00000E+00
    0.00000E+00         0.00000E+00        -0.53545E+08
 
   -0.53418E+08         0.21379E+07         0.00000E+00
    0.21379E+07        -0.49956E+08         0.00000E+00
    0.00000E+00         0.00000E+00        -0.53546E+08
 
   -0.53424E+08         0.22092E+07         0.00000E+00
    0.22092E+07        -0.49953E+08         0.00000E+00
    0.00000E+00         0.00000E+00        -0.53547E+08
 
   -0.53430E+08         0.22807E+07         0.00000E+00
    0.22807E+07        -0.49951E+08         0.00000E+00
    0.00000E+00         0.00000E+00        -0.53547E+08
 
   -0.53437E+08         0.23522E+07         0.00000E+00
    0.23522E+07        -0.49948E+08         0.00000E+00
    0.00000E+00         0.00000E+00        -0.53548E+08
 
   -0.53443E+08         0.24240E+07         0.00000E+00
    0.24240E+07        -0.49944E+08         0.00000E+00
    0.00000E+00         0.00000E+00        -0.53549E+08
 
   -0.53450E+08         0.24958E+07         0.00000E+00
    0.24958E+07        -0.49941E+08         0.00000E+00
    0.00000E+00         0.00000E+00        -0.53550E+08
 
   -0.53457E+08         0.25678E+07         0.00000E+00
    0.25678E+07        -0.49938E+08         0.00000E+00
    0.00000E+00         0.00000E+00        -0.53550E+08
 
   -0.53464E+08         0.26399E+07         0.00000E+00
    0.26399E+07        -0.49935E+08         0.00000E+00
    0.00000E+00         0.00000E+00        -0.53551E+08
 
   -0.53471E+08         0.27122E+07         0.00000E+00
    0.27122E+07        -0.49932E+08         0.00000E+00
    0.00000E+00         0.00000E+00        -0.53552E+08
 
   -0.53478E+08         0.27847E+07         0.00000E+00
    0.27847E+07        -0.49928E+08         0.00000E+00
    0.00000E+00         0.00000E+00        -0.53553E+08
 
   -0.53486E+08         0.28572E+07         0.00000E+00
    0.28572E+07        -0.49925E+08         0.00000E+00
    0.00000E+00         0.00000E+00        -0.53553E+08
 
   -0.53493E+08         0.29300E+07         0.00000E+00
    0.29300E+07        -0.49921E+08         0.00000E+00
    0.00000E+00         0.00000E+00        -0.53554E+08
 
   -0.53501E+08         0.30029E+07         0.00000E+00
    0.30029E+07        -0.49918E+08         0.00000E+00
    0.00000E+00         0.00000E+00        -0.53555E+08
 
   -0.53509E+08         0.30760E+07         0.00000E+00
    0.30760E+07        -0.49914E+08         0.00000E+00
    0.00000E+00         0.00000E+00        -0.53556E+08
 
   -0.53517E+08         0.31492E+07         0.00000E+00
    0.31492E+07        -0.49911E+08         0.00000E+00
    0.00000E+00         0.00000E+00        -0.53557E+08
 
   -0.53525E+08         0.32227E+07         0.00000E+00
    0.32227E+07        -0.49907E+08         0.00000E+00
    0.00000E+00         0.00000E+00        -0.53558E+08
 
   -0.53533E+08         0.32962E+07         0.00000E+00
    0.32962E+07        -0.49903E+08         0.00000E+00
    0.00000E+00         0.00000E+00        -0.53558E+08
 
   -0.53541E+08         0.33700E+07         0.00000E+00
    0.33700E+07        -0.49900E+08         0.00000E+00
    0.00000E+00         0.00000E+00        -0.53559E+08
 
   -0.53549E+08         0.34440E+07         0.00000E+00
    0.34440E+07        -0.49896E+08         0.00000E+00
    0.00000E+00         0.00000E+00        -0.53560E+08
 
   -0.53557E+08         0.35181E+07         0.00000E+00
    0.35181E+07        -0.49892E+08         0.00000E+00
    0.00000E+00         0.00000E+00        -0.53561E+08
 
   -0.52972E+08         0.34989E+05         0.00000E+00
    0.34989E+05        -0.50000E+08         0.00000E+00
    0.00000E+00         0.00000E+00        -0.53166E+08
 
   -0.52972E+08         0.10498E+06         0.00000E+00
    0.10498E+06        -0.50000E+08         0.00000E+00
    0.00000E+00         0.00000E+00        -0.53166E+08
 
   -0.52973E+08         0.17497E+06         0.00000E+00
    0.17497E+06        -0.50000E+08         0.00000E+00
    0.00000E+00         0.00000E+00        -0.53166E+08
 
   -0.52974E+08         0.24498E+06         0.00000E+00
    0.24498E+06        -0.50000E+08         0.00000E+00
    0.00000E+00         0.00000E+00        -0.53166E+08
 
   -0.52975E+08         0.31500E+06         0.00000E+00
    0.31500E+06        -0.49999E+08         0.00000E+00
    0.00000E+00         0.00000E+00        -0.53167E+08
 
   -0.52976E+08         0.38504E+06         0.00000E+00
    0.38504E+06        -0.49999E+08         0.00000E+00
    0.00000E+00         0.00000E+00        -0.53167E+08
 
   -0.52977E+08         0.45509E+06         0.00000E+00
    0.45509E+06        -0.49998E+08         0.00000E+00
    0.00000E+00         0.00000E+00        -0.53167E+08
 
   -0.52979E+08         0.52517E+06         0.00000E+00
    0.52517E+06        -0.49998E+08         0.00000E+00
    0.00000E+00         0.00000E+00        -0.53167E+08
 
   -0.52981E+08         0.59528E+06         0.00000E+00
    0.59528E+06        -0.49997E+08         0.00000E+00
    0.00000E+00         0.00000E+00        -0.53167E+08
 
   -0.52982E+08         0.66541E+06         0.00000E+00
    0.66541E+06        -0.49996E+08         0.00000E+00
    0.00000E+00         0.00000E+00        -0.53167E+08
 
   -0.52984E+08         0.73558E+06         0.00000E+00
    0.73558E+06        -0.49995E+08         0.00000E+00
    0.00000E+00         0.00000E+00        -0.53168E+08
 
   -0.52987E+08         0.80578E+06         0.00000E+00
    0.80578E+06        -0.49994E+08         0.00000E+00
    0.00000E+00         0.00000E+00        -0.53168E+08
 
   -0.52989E+08         0.87602E+06         0.00000E+00
    0.87602E+06        -0.49993E+08         0.00000E+00
    0.00000E+00         0.00000E+00        -0.53168E+08
 
   -0.52992E+08         0.94630E+06         0.00000E+00
    0.94630E+06        -0.49992E+08         0.00000E+00
    0.00000E+00         0.00000E+00        -0.53168E+08
 
   -0.52994E+08         0.10166E+07         0.00000E+00
    0.10166E+07        -0.49991E+08         0.00000E+00
    0.00000E+00         0.00000E+00        -0.53169E+08
 
   -0.52997E+08         0.10870E+07         0.00000E+00
    0.10870E+07        -0.49990E+08         0.00000E+00
    0.00000E+00         0.00000E+00        -0.53169E+08
 
   -0.53000E+08         0.11574E+07         0.00000E+00
    0.11574E+07        -0.49988E+08         0.00000E+00
    0.00000E+00         0.00000E+00        -0.53169E+08
 
   -0.53004E+08         0.12279E+07         0.00000E+00
    0.12279E+07        -0.49987E+08         0.00000E+00
    0.00000E+00         0.00000E+00        -0.53170E+08
 
   -0.53007E+08         0.12985E+07         0.00000E+00
    0.12985E+07        -0.49985E+08         0.00000E+00
    0.00000E+00         0.00000E+00        -0.53170E+08
 
   -0.53011E+08         0.13691E+07         0.00000E+00
    0.13691E+07        -0.49984E+08         0.00000E+00
    0.00000E+00         0.00000E+00        -0.53171E+08
 
   -0.53014E+08         0.14398E+07         0.00000E+00
    0.14398E+07        -0.49982E+08         0.00000E+00
    0.00000E+00         0.00000E+00        -0.53171E+08
 
   -0.53018E+08         0.15105E+07         0.00000E+00
    0.15105E+07        -0.49980E+08         0.00000E+00
    0.00000E+00         0.00000E+00        -0.53171E+08
 
   -0.53022E+08         0.15814E+07         0.00000E+00
    0.15814E+07        -0.49978E+08         0.00000E+00
    0.00000E+00         0.00000E+00        -0.53172E+08
 
   -0.53027E+08         0.16523E+07         0.00000E+00
    0.16523E+07        -0.49976E+08         0.00000E+00
    0.00000E+00         0.00000E+00        -0.53172E+08
 
   -0.53031E+08         0.17233E+07         0.00000E+00
    0.17233E+07        -0.49974E+08         0.00000E+00
    0.00000E+00         0.00000E+00        -0.53173E+08
 
   -0.53036E+08         0.17943E+07         0.00000E+00
    0.17943E+07        -0.49972E+08         0.00000E+00
    0.00000E+00         0.00000E+00        -0.53173E+08
 
   -0.53040E+08         0.18655E+07         0.00000E+00
    0.18655E+07        -0.49970E+08         0.00000E+00
    0.00000E+00         0.00000E+00        -0.53174E+08
 
   -0.53045E+08         0.19368E+07         0.00000E+00
    0.19368E+07        -0.49968E+08         0.00000E+00
    0.00000E+00         0.00000E+00        -0.53174E+08
 
   -0.53050E+08         0.20082E+07         0.00000E+00
    0.20082E+07        -0.49965E+08         0.00000E+00
    0.00000E+00         0.00000E+00        -0.53175E+08
 
   -0.53055E+08         0.20796E+07         0.00000E+00
    0.20796E+07        -0.49963E+08         0.00000E+00
    0.00000E+00         0.00000E+00        -0.53175E+08
 
   -0.53061E+08         0.21512E+07         0.00000E+00
    0.21512E+07        -0.49960E+08         0.00000E+00
    0.00000E+00         0.00000E+00        -0.53176E+08
 
   -0.53066E+08         0.22229E+07         0.00000E+00
    0.22229E+07        -0.49958E+08         0.00000E+00
    0.00000E+00         0.00000E+00        -0.53177E+08
 
   -0.53072E+08         0.22947E+07         0.00000E+00
    0.22947E+07        -0.49955E+08         0.00000E+00
    0.00000E+00         0.00000E+00        -0.53177E+08
 
   -0.53078E+08         0.23666E+07         0.00000E+00
    0.23666E+07        -0.49952E+08         0.00000E+00
    0.00000E+00         0.00000E+00        -0.53178E+08
 
   -0.53084E+08         0.24386E+07         0.00000E+00
    0.24386E+07        -0.49950E+08         0.00000E+00
    0.00000E+00         0.00000E+00        -0.53178E+08
 
   -0.53090E+08         0.25108E+07         0.00000E+00
    0.25108E+07        -0.49947E+08         0.00000E+00
    0.00000E+00         0.00000E+00        -0.53179E+08
 
   -0.53096E+08         0.25831E+07         0.00000E+00
    0.25831E+07        -0.49944E+08         0.00000E+00
    0.00000E+00         0.00000E+00        -0.53180E+08
 
   -0.53102E+08         0.26555E+07         0.00000E+00
    0.26555E+07        -0.49941E+08         0.00000E+00
    0.00000E+00         0.00000E+00        -0.53180E+08
 
   -0.53109E+08         0.27280E+07         0.00000E+00
    0.27280E+07        -0.49938E+08         0.00000E+00
    0.00000E+00         0.00000E+00        -0.53181E+08
 
   -0.53115E+08         0.28007E+07         0.00000E+00
    0.28007E+07        -0.49935E+08         0.00000E+00
    0.00000E+00         0.00000E+00        -0.53182E+08
 
   -0.53122E+08         0.28736E+07         0.00000E+00
    0.28736E+07        -0.49932E+08         0.00000E+00
    0.00000E+00         0.00000E+00        -0.53182E+08
 
   -0.53129E+08         0.29465E+07         0.00000E+00
    0.29465E+07        -0.49929E+08         0.00000E+00
    0.00000E+00         0.00000E+00        -0.53183E+08
 
   -0.53135E+08         0.30197E+07         0.00000E+00
    0.30197E+07        -0.49926E+08         0.00000E+00
    0.00000E+00         0.00000E+00        -0.53184E+08
 
   -0.53142E+08         0.30929E+07         0.00000E+00
    0.30929E+07        -0.49922E+08         0.00000E+00
    0.00000E+00         0.00000E+00        -0.53185E+08
 
   -0.53150E+08         0.31663E+07         0.00000E+00
    0.31663E+07        -0.49919E+08         0.00000E+00
    0.00000E+00         0.00000E+00        -0.53185E+08
 
   -0.53157E+08         0.32399E+07         0.00000E+00
    0.32399E+07        -0.49916E+08         0.00000E+00
    0.00000E+00         0.00000E+00        -0.53186E+08
 
   -0.53164E+08         0.33136E+07         0.00000E+00
    0.33136E+07        -0.49913E+08         0.00000E+00
    0.00000E+00         0.00000E+00        -0.53187E+08
 
   -0.53171E+08         0.33875E+07         0.00000E+00
    0.33875E+07        -0.49909E+08         0.00000E+00
    0.00000E+00         0.00000E+00        -0.53188E+08
 
   -0.53179E+08         0.34616E+07         0.00000E+00
    0.34616E+07        -0.49906E+08         0.00000E+00
    0.00000E+00         0.00000E+00        -0.53189E+08
 
   -0.53186E+08         0.35358E+07         0.00000E+00
    0.35358E+07        -0.49903E+08         0.00000E+00
    0.00000E+00         0.00000E+00        -0.53189E+08
 
   -0.52621E+08         0.35195E+05         0.00000E+00
    0.35195E+05        -0.50000E+08         0.00000E+00
    0.00000E+00         0.00000E+00        -0.52796E+08
 
   -0.52621E+08         0.10560E+06         0.00000E+00
    0.10560E+06        -0.50000E+08         0.00000E+00
    0.00000E+00         0.00000E+00        -0.52796E+08
 
   -0.52622E+08         0.17601E+06         0.00000E+00
    0.17601E+06        -0.50000E+08         0.00000E+00
    0.00000E+00         0.00000E+00        -0.52797E+08
 
   -0.52623E+08         0.24643E+06         0.00000E+00
    0.24643E+06        -0.50000E+08         0.00000E+00
    0.00000E+00         0.00000E+00        -0.52797E+08
 
   -0.52624E+08         0.31687E+06         0.00000E+00
    0.31687E+06        -0.49999E+08         0.00000E+00
    0.00000E+00         0.00000E+00        -0.52797E+08
 
   -0.52625E+08         0.38732E+06         0.00000E+00
    0.38732E+06        -0.49999E+08         0.00000E+00
    0.00000E+00         0.00000E+00        -0.52797E+08
 
   -0.52626E+08         0.45779E+06         0.00000E+00
    0.45779E+06        -0.49998E+08         0.00000E+00
    0.00000E+00         0.00000E+00        -0.52797E+08
 
   -0.52627E+08         0.52829E+06         0.00000E+00
    0.52829E+06        -0.49998E+08         0.00000E+00
    0.00000E+00         0.00000E+00        -0.52797E+08
 
   -0.52629E+08         0.59881E+06         0.00000E+00
    0.59881E+06        -0.49997E+08         0.00000E+00
    0.00000E+00         0.00000E+00        -0.52797E+08
 
   -0.52631E+08         0.66936E+06         0.00000E+00
    0.66936E+06        -0.49996E+08         0.00000E+00
    0.00000E+00         0.00000E+00        -0.52798E+08
 
   -0.52633E+08         0.73994E+06         0.00000E+00
    0.73994E+06        -0.49996E+08         0.00000E+00
    0.00000E+00         0.00000E+00        -0.52798E+08
 
   -0.52635E+08         0.81056E+06         0.00000E+00
    0.81056E+06        -0.49995E+08         0.00000E+00
    0.00000E+00         0.00000E+00        -0.52798E+08
 
   -0.52637E+08         0.88121E+06         0.00000E+00
    0.88121E+06        -0.49994E+08         0.00000E+00
    0.00000E+00         0.00000E+00        -0.52798E+08
 
   -0.52639E+08         0.95191E+06         0.00000E+00
    0.95191E+06        -0.49993E+08         0.00000E+00
    0.00000E+00         0.00000E+00        -0.52799E+08
 
   -0.52642E+08         0.10226E+07         0.00000E+00
    0.10226E+07        -0.49992E+08         0.00000E+00
    0.00000E+00         0.00000E+00        -0.52799E+08
 
   -0.52644E+08         0.10934E+07         0.00000E+00
    0.10934E+07        -0.49990E+08         0.00000E+00
    0.00000E+00         0.00000E+00        -0.52799E+08
 
   -0.52647E+08         0.11643E+07         0.00000E+00
    0.11643E+07        -0.49989E+08         0.00000E+00
    0.00000E+00         0.00000E+00        -0.52799E+08
 
   -0.52650E+08         0.12352E+07         0.00000E+00
    0.12352E+07        -0.49988E+08         0.00000E+00
    0.00000E+00         0.00000E+00        -0.52800E+08
 
   -0.52653E+08         0.13061E+07         0.00000E+00
    0.13061E+07        -0.49986E+08         0.00000E+00
    0.00000E+00         0.00000E+00        -0.52800E+08
 
   -0.52656E+08         0.13771E+07         0.00000E+00
    0.13771E+07        -0.49985E+08         0.00000E+00
    0.00000E+00         0.00000E+00        -0.52800E+08
 
   -0.52660E+08         0.14482E+07         0.00000E+00
    0.14482E+07        -0.49983E+08         0.00000E+00
    0.00000E+00         0.00000E+00        -0.52801E+08
 
   -0.52663E+08         0.15193E+07         0.00000E+00
    0.15193E+07        -0.49982E+08         0.00000E+00
    0.00000E+00         0.00000E+00        -0.52801E+08
 
   -0.52667E+08         0.15905E+07         0.00000E+00
    0.15905E+07        -0.49980E+08         0.00000E+00
    0.00000E+00         0.00000E+00        -0.52802E+08
 
   -0.52671E+08         0.16618E+07         0.00000E+00
    0.16618E+07        -0.49978E+08         0.00000E+00
    0.00000E+00         0.00000E+00        -0.52802E+08
 
   -0.52675E+08         0.17332E+07         0.00000E+00
    0.17332E+07        -0.49976E+08         0.00000E+00
    0.00000E+00         0.00000E+00        -0.52802E+08
 
   -0.52679E+08         0.18046E+07         0.00000E+00
    0.18046E+07        -0.49974E+08         0.00000E+00
    0.00000E+00         0.00000E+00        -0.52803E+08
 
   -0.52683E+08         0.18762E+07         0.00000E+00
    0.18762E+07        -0.49973E+08         0.00000E+00
    0.00000E+00         0.00000E+00        -0.52803E+08
 
   -0.52688E+08         0.19478E+07         0.00000E+00
    0.19478E+07        -0.49970E+08         0.00000E+00
    0.00000E+00         0.00000E+00        -0.52804E+08
 
   -0.52692E+08         0.20195E+07         0.00000E+00
    0.20195E+07        -0.49968E+08         0.00000E+00
    0.00000E+00         0.00000E+00        -0.52804E+08
 
   -0.52697E+08         0.20913E+07         0.00000E+00
    0.20913E+07        -0.49966E+08         0.00000E+00
    0.00000E+00         0.00000E+00        -0.52805E+08
 
   -0.52702E+08         0.21632E+07         0.00000E+00
    0.21632E+07        -0.49964E+08         0.00000E+00
    0.00000E+00         0.00000E+00        -0.52805E+08
 
   -0.52707E+08         0.22352E+07         0.00000E+00
    0.22352E+07        -0.49962E+08         0.00000E+00
    0.00000E+00         0.00000E+00        -0.52806E+08
 
   -0.52712E+08         0.23073E+07         0.00000E+00
    0.23073E+07        -0.49959E+08         0.00000E+00
    0.00000E+00         0.00000E+00        -0.52806E+08
 
   -0.52717E+08         0.23795E+07         0.00000E+00
    0.23795E+07        -0.49957E+08         0.00000E+00
    0.00000E+00         0.00000E+00        -0.52807E+08
 
   -0.52722E+08         0.24518E+07         0.00000E+00
    0.24518E+07        -0.49954E+08         0.00000E+00
    0.00000E+00         0.00000E+00        -0.52808E+08
 
   -0.52728E+08         0.25243E+07         0.00000E+00
    0.25243E+07        -0.49952E+08         0.00000E+00
    0.00000E+00         0.00000E+00        -0.52808E+08
 
   -0.52733E+08         0.25968E+07         0.00000E+00
    0.25968E+07        -0.49949E+08         0.00000E+00
    0.00000E+00         0.00000E+00        -0.52809E+08
 
   -0.52739E+08         0.26695E+07         0.00000E+00
    0.26695E+07        -0.49947E+08         0.00000E+00
    0.00000E+00         0.00000E+00        -0.52809E+08
 
   -0.52745E+08         0.27423E+07         0.00000E+00
    0.27423E+07        -0.49944E+08         0.00000E+00
    0.00000E+00         0.00000E+00        -0.52810E+08
 
   -0.52751E+08         0.28152E+07         0.00000E+00
    0.28152E+07        -0.49941E+08         0.00000E+00
    0.00000E+00         0.00000E+00        -0.52811E+08
 
   -0.52757E+08         0.28882E+07         0.00000E+00
    0.28882E+07        -0.49938E+08         0.00000E+00
    0.00000E+00         0.00000E+00        -0.52811E+08
 
   -0.52763E+08         0.29614E+07         0.00000E+00
    0.29614E+07        -0.49936E+08         0.00000E+00
    0.00000E+00         0.00000E+00        -0.52812E+08
 
   -0.52769E+08         0.30347E+07         0.00000E+00
    0.30347E+07        -0.49933E+08         0.00000E+00
    0.00000E+00         0.00000E+00        -0.52813E+08
 
   -0.52775E+08         0.31081E+07         0.00000E+00
    0.31081E+07        -0.49930E+08         0.00000E+00
    0.00000E+00         0.00000E+00        -0.52813E+08
 
   -0.52782E+08         0.31817E+07         0.00000E+00
    0.31817E+07        -0.49927E+08         0.00000E+00
    0.00000E+00         0.00000E+00        -0.52814E+08
 
   -0.52788E+08         0.32554E+07         0.00000E+00
    0.32554E+07        -0.49924E+08         0.00000E+00
    0.00000E+00         0.00000E+00        -0.52815E+08
 
   -0.52795E+08         0.33292E+07         0.00000E+00
    0.33292E+07        -0.49921E+08         0.00000E+00
    0.00000E+00         0.00000E+00        -0.52815E+08
 
   -0.52801E+08         0.34032E+07         0.00000E+00
    0.34032E+07        -0.49918E+08         0.00000E+00
    0.00000E+00         0.00000E+00        -0.52816E+08
 
   -0.52808E+08         0.34774E+07         0.00000E+00
    0.34774E+07        -0.49915E+08         0.00000E+00
    0.00000E+00         0.00000E+00        -0.52817E+08
 
   -0.52815E+08         0.35517E+07         0.00000E+00
    0.35517E+07        -0.49912E+08         0.00000E+00
    0.00000E+00         0.00000E+00        -0.52818E+08
 
   -0.52268E+08         0.35385E+05         0.00000E+00
    0.35385E+05        -0.50000E+08         0.00000E+00
    0.00000E+00         0.00000E+00        -0.52426E+08
 
   -0.52268E+08         0.10617E+06         0.00000E+00
    0.10617E+06        -0.50000E+08         0.00000E+00
    0.00000E+00         0.00000E+00        -0.52426E+08
 
   -0.52269E+08         0.17696E+06         0.00000E+00
    0.17696E+06        -0.50000E+08         0.00000E+00
    0.00000E+00         0.00000E+00        -0.52426E+08
 
   -0.52270E+08         0.24776E+06         0.00000E+00
    0.24776E+06        -0.50000E+08         0.00000E+00
    0.00000E+00         0.00000E+00        -0.52426E+08
 
   -0.52271E+08         0.31858E+06         0.00000E+00
    0.31858E+06        -0.49999E+08         0.00000E+00
    0.00000E+00         0.00000E+00        -0.52427E+08
 
   -0.52271E+08         0.38941E+06         0.00000E+00
    0.38941E+06        -0.49999E+08         0.00000E+00
    0.00000E+00         0.00000E+00        -0.52427E+08
 
   -0.52273E+08         0.46027E+06         0.00000E+00
    0.46027E+06        -0.49998E+08         0.00000E+00
    0.00000E+00         0.00000E+00        -0.52427E+08
 
   -0.52274E+08         0.53114E+06         0.00000E+00
    0.53114E+06        -0.49998E+08         0.00000E+00
    0.00000E+00         0.00000E+00        -0.52427E+08
 
   -0.52275E+08         0.60204E+06         0.00000E+00
    0.60204E+06        -0.49997E+08         0.00000E+00
    0.00000E+00         0.00000E+00        -0.52427E+08
 
   -0.52277E+08         0.67297E+06         0.00000E+00
    0.67297E+06        -0.49997E+08         0.00000E+00
    0.00000E+00         0.00000E+00        -0.52427E+08
 
   -0.52279E+08         0.74393E+06         0.00000E+00
    0.74393E+06        -0.49996E+08         0.00000E+00
    0.00000E+00         0.00000E+00        -0.52428E+08
 
   -0.52280E+08         0.81492E+06         0.00000E+00
    0.81492E+06        -0.49995E+08         0.00000E+00
    0.00000E+00         0.00000E+00        -0.52428E+08
 
   -0.52282E+08         0.88595E+06         0.00000E+00
    0.88595E+06        -0.49994E+08         0.00000E+00
    0.00000E+00         0.00000E+00        -0.52428E+08
 
   -0.52285E+08         0.95702E+06         0.00000E+00
    0.95702E+06        -0.49993E+08         0.00000E+00
    0.00000E+00         0.00000E+00        -0.52428E+08
 
   -0.52287E+08         0.10281E+07         0.00000E+00
    0.10281E+07        -0.49992E+08         0.00000E+00
    0.00000E+00         0.00000E+00        -0.52428E+08
 
   -0.52289E+08         0.10993E+07         0.00000E+00
    0.10993E+07        -0.49991E+08         0.00000E+00
    0.00000E+00         0.00000E+00        -0.52429E+08
 
   -0.52292E+08         0.11705E+07         0.00000E+00
    0.11705E+07        -0.49990E+08         0.00000E+00
    0.00000E+00         0.00000E+00        -0.52429E+08
 
   -0.52294E+08         0.12417E+07         0.00000E+00
    0.12417E+07        -0.49989E+08         0.00000E+00
    0.00000E+00         0.00000E+00        -0.52429E+08
 
   -0.52297E+08         0.13130E+07         0.00000E+00
    0.13130E+07        -0.49988E+08         0.00000E+00
    0.00000E+00         0.00000E+00        -0.52430E+08
 
   -0.52300E+08         0.13844E+07         0.00000E+00
    0.13844E+07        -0.49986E+08         0.00000E+00
    0.00000E+00         0.00000E+00        -0.52430E+08
 
   -0.52303E+08         0.14558E+07         0.00000E+00
    0.14558E+07        -0.49985E+08         0.00000E+00
    0.00000E+00         0.00000E+00        -0.52430E+08
 
   -0.52307E+08         0.15273E+07         0.00000E+00
    0.15273E+07        -0.49983E+08         0.00000E+00
    0.00000E+00         0.00000E+00        -0.52431E+08
 
   -0.52310E+08         0.15989E+07         0.00000E+00
    0.15989E+07        -0.49982E+08         0.00000E+00
    0.00000E+00         0.00000E+00        -0.52431E+08
 
   -0.52313E+08         0.16705E+07         0.00000E+00
    0.16705E+07        -0.49980E+08         0.00000E+00
    0.00000E+00         0.00000E+00        -0.52431E+08
 
   -0.52317E+08         0.17422E+07         0.00000E+00
    0.17422E+07        -0.49979E+08         0.00000E+00
    0.00000E+00         0.00000E+00        -0.52432E+08
 
   -0.52321E+08         0.18139E+07         0.00000E+00
    0.18139E+07        -0.49977E+08         0.00000E+00
    0.00000E+00         0.00000E+00        -0.52432E+08
 
   -0.52325E+08         0.18858E+07         0.00000E+00
    0.18858E+07        -0.49975E+08         0.00000E+00
    0.00000E+00         0.00000E+00        -0.52433E+08
 
   -0.52329E+08         0.19577E+07         0.00000E+00
    0.19577E+07        -0.49973E+08         0.00000E+00
    0.00000E+00         0.00000E+00        -0.52433E+08
 
   -0.52333E+08         0.20297E+07         0.00000E+00
    0.20297E+07        -0.49971E+08         0.00000E+00
    0.00000E+00         0.00000E+00        -0.52433E+08
 
   -0.52337E+08         0.21018E+07         0.00000E+00
    0.21018E+07        -0.49969E+08         0.00000E+00
    0.00000E+00         0.00000E+00        -0.52434E+08
 
   -0.52341E+08         0.21740E+07         0.00000E+00
    0.21740E+07        -0.49967E+08         0.00000E+00
    0.00000E+00         0.00000E+00        -0.52434E+08
 
   -0.52346E+08         0.22463E+07         0.00000E+00
    0.22463E+07        -0.49965E+08         0.00000E+00
    0.00000E+00         0.00000E+00        -0.52435E+08
 
   -0.52350E+08         0.23187E+07         0.00000E+00
    0.23187E+07        -0.49963E+08         0.00000E+00
    0.00000E+00         0.00000E+00        -0.52435E+08
 
   -0.52355E+08         0.23911E+07         0.00000E+00
    0.23911E+07        -0.49961E+08         0.00000E+00
    0.00000E+00         0.00000E+00        -0.52436E+08
 
   -0.52360E+08         0.24637E+07         0.00000E+00
    0.24637E+07        -0.49959E+08         0.00000E+00
    0.00000E+00         0.00000E+00        -0.52436E+08
 
   -0.52365E+08         0.25364E+07         0.00000E+00
    0.25364E+07        -0.49956E+08         0.00000E+00
    0.00000E+00         0.00000E+00        -0.52437E+08
 
   -0.52370E+08         0.26091E+07         0.00000E+00
    0.26091E+07        -0.49954E+08         0.00000E+00
    0.00000E+00         0.00000E+00        -0.52437E+08
 
   -0.52375E+08         0.26820E+07         0.00000E+00
    0.26820E+07        -0.49952E+08         0.00000E+00
    0.00000E+00         0.00000E+00        -0.52438E+08
 
   -0.52380E+08         0.27550E+07         0.00000E+00
    0.27550E+07        -0.49949E+08         0.00000E+00
    0.00000E+00         0.00000E+00        -0.52438E+08
 
   -0.52385E+08         0.28281E+07         0.00000E+00
    0.28281E+07        -0.49947E+08         0.00000E+00
    0.00000E+00         0.00000E+00        -0.52439E+08
 
   -0.52391E+08         0.29014E+07         0.00000E+00
    0.29014E+07        -0.49944E+08         0.00000E+00
    0.00000E+00         0.00000E+00        -0.52440E+08
 
   -0.52396E+08         0.29747E+07         0.00000E+00
    0.29747E+07        -0.49942E+08         0.00000E+00
    0.00000E+00         0.00000E+00        -0.52440E+08
 
   -0.52402E+08         0.30482E+07         0.00000E+00
    0.30482E+07        -0.49939E+08         0.00000E+00
    0.00000E+00         0.00000E+00        -0.52441E+08
 
   -0.52407E+08         0.31217E+07         0.00000E+00
    0.31217E+07        -0.49937E+08         0.00000E+00
    0.00000E+00         0.00000E+00        -0.52441E+08
 
   -0.52413E+08         0.31954E+07         0.00000E+00
    0.31954E+07        -0.49934E+08         0.00000E+00
    0.00000E+00         0.00000E+00        -0.52442E+08
 
   -0.52419E+08         0.32693E+07         0.00000E+00
    0.32693E+07        -0.49932E+08         0.00000E+00
    0.00000E+00         0.00000E+00        -0.52443E+08
 
   -0.52425E+08         0.33432E+07         0.00000E+00
    0.33432E+07        -0.49929E+08         0.00000E+00
    0.00000E+00         0.00000E+00        -0.52443E+08
 
   -0.52431E+08         0.34173E+07         0.00000E+00
    0.34173E+07        -0.49926E+08         0.00000E+00
    0.00000E+00         0.00000E+00        -0.52444E+08
 
   -0.52437E+08         0.34915E+07         0.00000E+00
    0.34915E+07        -0.49924E+08         0.00000E+00
    0.00000E+00         0.00000E+00        -0.52445E+08
 
   -0.52443E+08         0.35659E+07         0.00000E+00
    0.35659E+07        -0.49921E+08         0.00000E+00
    0.00000E+00         0.00000E+00        -0.52445E+08
 
   -0.51913E+08         0.35560E+05         0.00000E+00
    0.35560E+05        -0.50000E+08         0.00000E+00
    0.00000E+00         0.00000E+00        -0.52056E+08
 
   -0.51914E+08         0.10669E+06         0.00000E+00
    0.10669E+06        -0.50000E+08         0.00000E+00
    0.00000E+00         0.00000E+00        -0.52056E+08
 
   -0.51914E+08         0.17783E+06         0.00000E+00
    0.17783E+06        -0.50000E+08         0.00000E+00
    0.00000E+00         0.00000E+00        -0.52056E+08
 
   -0.51915E+08         0.24898E+06         0.00000E+00
    0.24898E+06        -0.50000E+08         0.00000E+00
    0.00000E+00         0.00000E+00        -0.52056E+08
 
   -0.51915E+08         0.32015E+06         0.00000E+00
    0.32015E+06        -0.49999E+08         0.00000E+00
    0.00000E+00         0.00000E+00        -0.52056E+08
 
   -0.51916E+08         0.39133E+06         0.00000E+00
    0.39133E+06        -0.49999E+08         0.00000E+00
    0.00000E+00         0.00000E+00        -0.52056E+08
 
   -0.51917E+08         0.46253E+06         0.00000E+00
    0.46253E+06        -0.49999E+08         0.00000E+00
    0.00000E+00         0.00000E+00        -0.52056E+08
 
   -0.51919E+08         0.53375E+06         0.00000E+00
    0.53375E+06        -0.49998E+08         0.00000E+00
    0.00000E+00         0.00000E+00        -0.52056E+08
 
   -0.51920E+08         0.60499E+06         0.00000E+00
    0.60499E+06        -0.49998E+08         0.00000E+00
    0.00000E+00         0.00000E+00        -0.52056E+08
 
   -0.51921E+08         0.67626E+06         0.00000E+00
    0.67626E+06        -0.49997E+08         0.00000E+00
    0.00000E+00         0.00000E+00        -0.52057E+08
 
   -0.51923E+08         0.74756E+06         0.00000E+00
    0.74756E+06        -0.49996E+08         0.00000E+00
    0.00000E+00         0.00000E+00        -0.52057E+08
 
   -0.51925E+08         0.81889E+06         0.00000E+00
    0.81889E+06        -0.49996E+08         0.00000E+00
    0.00000E+00         0.00000E+00        -0.52057E+08
 
   -0.51926E+08         0.89026E+06         0.00000E+00
    0.89026E+06        -0.49995E+08         0.00000E+00
    0.00000E+00         0.00000E+00        -0.52057E+08
 
   -0.51928E+08         0.96166E+06         0.00000E+00
    0.96166E+06        -0.49994E+08         0.00000E+00
    0.00000E+00         0.00000E+00        -0.52057E+08
 
   -0.51930E+08         0.10331E+07         0.00000E+00
    0.10331E+07        -0.49993E+08         0.00000E+00
    0.00000E+00         0.00000E+00        -0.52058E+08
 
   -0.51932E+08         0.11046E+07         0.00000E+00
    0.11046E+07        -0.49992E+08         0.00000E+00
    0.00000E+00         0.00000E+00        -0.52058E+08
 
   -0.51935E+08         0.11761E+07         0.00000E+00
    0.11761E+07        -0.49991E+08         0.00000E+00
    0.00000E+00         0.00000E+00        -0.52058E+08
 
   -0.51937E+08         0.12477E+07         0.00000E+00
    0.12477E+07        -0.49990E+08         0.00000E+00
    0.00000E+00         0.00000E+00        -0.52058E+08
 
   -0.51940E+08         0.13193E+07         0.00000E+00
    0.13193E+07        -0.49989E+08         0.00000E+00
    0.00000E+00         0.00000E+00        -0.52059E+08
 
   -0.51942E+08         0.13910E+07         0.00000E+00
    0.13910E+07        -0.49988E+08         0.00000E+00
    0.00000E+00         0.00000E+00        -0.52059E+08
 
   -0.51945E+08         0.14627E+07         0.00000E+00
    0.14627E+07        -0.49986E+08         0.00000E+00
    0.00000E+00         0.00000E+00        -0.52059E+08
 
   -0.51948E+08         0.15345E+07         0.00000E+00
    0.15345E+07        -0.49985E+08         0.00000E+00
    0.00000E+00         0.00000E+00        -0.52060E+08
 
   -0.51951E+08         0.16064E+07         0.00000E+00
    0.16064E+07        -0.49984E+08         0.00000E+00
    0.00000E+00         0.00000E+00        -0.52060E+08
 
   -0.51954E+08         0.16783E+07         0.00000E+00
    0.16783E+07        -0.49982E+08         0.00000E+00
    0.00000E+00         0.00000E+00        -0.52060E+08
 
   -0.51958E+08         0.17503E+07         0.00000E+00
    0.17503E+07        -0.49981E+08         0.00000E+00
    0.00000E+00         0.00000E+00        -0.52061E+08
 
   -0.51961E+08         0.18223E+07         0.00000E+00
    0.18223E+07        -0.49979E+08         0.00000E+00
    0.00000E+00         0.00000E+00        -0.52061E+08
 
   -0.51965E+08         0.18945E+07         0.00000E+00
    0.18945E+07        -0.49977E+08         0.00000E+00
    0.00000E+00         0.00000E+00        -0.52061E+08
 
   -0.51968E+08         0.19667E+07         0.00000E+00
    0.19667E+07        -0.49976E+08         0.00000E+00
    0.00000E+00         0.00000E+00        -0.52062E+08
 
   -0.51972E+08         0.20390E+07         0.00000E+00
    0.20390E+07        -0.49974E+08         0.00000E+00
    0.00000E+00         0.00000E+00        -0.52062E+08
 
   -0.51976E+08         0.21113E+07         0.00000E+00
    0.21113E+07        -0.49972E+08         0.00000E+00
    0.00000E+00         0.00000E+00        -0.52063E+08
 
   -0.51980E+08         0.21837E+07         0.00000E+00
    0.21837E+07        -0.49970E+08         0.00000E+00
    0.00000E+00         0.00000E+00        -0.52063E+08
 
   -0.51984E+08         0.22563E+07         0.00000E+00
    0.22563E+07        -0.49969E+08         0.00000E+00
    0.00000E+00         0.00000E+00        -0.52063E+08
 
   -0.51988E+08         0.23289E+07         0.00000E+00
    0.23289E+07        -0.49967E+08         0.00000E+00
    0.00000E+00         0.00000E+00        -0.52064E+08
 
   -0.51992E+08         0.24016E+07         0.00000E+00
    0.24016E+07        -0.49965E+08         0.00000E+00
    0.00000E+00         0.00000E+00        -0.52064E+08
 
   -0.51996E+08         0.24744E+07         0.00000E+00
    0.24744E+07        -0.49963E+08         0.00000E+00
    0.00000E+00         0.00000E+00        -0.52065E+08
 
   -0.52001E+08         0.25473E+07         0.00000E+00
    0.25473E+07        -0.49961E+08         0.00000E+00
    0.00000E+00         0.00000E+00        -0.52065E+08
 
   -0.52005E+08         0.26202E+07         0.00000E+00
    0.26202E+07        -0.49959E+08         0.00000E+00
    0.00000E+00         0.00000E+00        -0.52066E+08
 
   -0.52010E+08         0.26933E+07         0.00000E+00
    0.26933E+07        -0.49956E+08         0.00000E+00
    0.00000E+00         0.00000E+00        -0.52066E+08
 
   -0.52014E+08         0.27665E+07         0.00000E+00
    0.27665E+07        -0.49954E+08         0.00000E+00
    0.00000E+00         0.00000E+00        -0.52067E+08
 
   -0.52019E+08         0.28398E+07         0.00000E+00
    0.28398E+07        -0.49952E+08         0.00000E+00
    0.00000E+00         0.00000E+00        -0.52067E+08
 
   -0.52024E+08         0.29132E+07         0.00000E+00
    0.29132E+07        -0.49950E+08         0.00000E+00
    0.00000E+00         0.00000E+00        -0.52068E+08
 
   -0.52029E+08         0.29866E+07         0.00000E+00
    0.29866E+07        -0.49948E+08         0.00000E+00
    0.00000E+00         0.00000E+00        -0.52068E+08
 
   -0.52034E+08         0.30602E+07         0.00000E+00
    0.30602E+07        -0.49945E+08         0.00000E+00
    0.00000E+00         0.00000E+00        -0.52069E+08
 
   -0.52039E+08         0.31340E+07         0.00000E+00
    0.31340E+07        -0.49943E+08         0.00000E+00
    0.00000E+00         0.00000E+00        -0.52069E+08
 
   -0.52044E+08         0.32078E+07         0.00000E+00
    0.32078E+07        -0.49941E+08         0.00000E+00
    0.00000E+00         0.00000E+00        -0.52070E+08
 
   -0.52049E+08         0.32817E+07         0.00000E+00
    0.32817E+07        -0.49938E+08         0.00000E+00
    0.00000E+00         0.00000E+00        -0.52070E+08
 
   -0.52054E+08         0.33558E+07         0.00000E+00
    0.33558E+07        -0.49936E+08         0.00000E+00
    0.00000E+00         0.00000E+00        -0.52071E+08
 
   -0.52060E+08         0.34299E+07         0.00000E+00
    0.34299E+07        -0.49934E+08         0.00000E+00
    0.00000E+00         0.00000E+00        -0.52072E+08
 
   -0.52065E+08         0.35042E+07         0.00000E+00
    0.35042E+07        -0.49931E+08         0.00000E+00
    0.00000E+00         0.00000E+00        -0.52072E+08
 
   -0.52070E+08         0.35786E+07         0.00000E+00
    0.35786E+07        -0.49929E+08         0.00000E+00
    0.00000E+00         0.00000E+00        -0.52073E+08
 
   -0.51557E+08         0.35719E+05         0.00000E+00
    0.35719E+05        -0.50000E+08         0.00000E+00
    0.00000E+00         0.00000E+00        -0.51685E+08
 
   -0.51557E+08         0.10717E+06         0.00000E+00
    0.10717E+06        -0.50000E+08         0.00000E+00
    0.00000E+00         0.00000E+00        -0.51685E+08
 
   -0.51558E+08         0.17863E+06         0.00000E+00
    0.17863E+06        -0.50000E+08         0.00000E+00
    0.00000E+00         0.00000E+00        -0.51685E+08
 
   -0.51558E+08         0.25009E+06         0.00000E+00
    0.25009E+06        -0.50000E+08         0.00000E+00
    0.00000E+00         0.00000E+00        -0.51685E+08
 
   -0.51559E+08         0.32157E+06         0.00000E+00
    0.32157E+06        -0.49999E+08         0.00000E+00
    0.00000E+00         0.00000E+00        -0.51685E+08
 
   -0.51560E+08         0.39307E+06         0.00000E+00
    0.39307E+06        -0.49999E+08         0.00000E+00
    0.00000E+00         0.00000E+00        -0.51685E+08
 
   -0.51561E+08         0.46458E+06         0.00000E+00
    0.46458E+06        -0.49999E+08         0.00000E+00
    0.00000E+00         0.00000E+00        -0.51685E+08
 
   -0.51562E+08         0.53612E+06         0.00000E+00
    0.53612E+06        -0.49998E+08         0.00000E+00
    0.00000E+00         0.00000E+00        -0.51685E+08
 
   -0.51563E+08         0.60767E+06         0.00000E+00
    0.60767E+06        -0.49998E+08         0.00000E+00
    0.00000E+00         0.00000E+00        -0.51686E+08
 
   -0.51564E+08         0.67925E+06         0.00000E+00
    0.67925E+06        -0.49997E+08         0.00000E+00
    0.00000E+00         0.00000E+00        -0.51686E+08
 
   -0.51565E+08         0.75086E+06         0.00000E+00
    0.75086E+06        -0.49997E+08         0.00000E+00
    0.00000E+00         0.00000E+00        -0.51686E+08
 
   -0.51567E+08         0.82250E+06         0.00000E+00
    0.82250E+06        -0.49996E+08         0.00000E+00
    0.00000E+00         0.00000E+00        -0.51686E+08
 
   -0.51569E+08         0.89417E+06         0.00000E+00
    0.89417E+06        -0.49995E+08         0.00000E+00
    0.00000E+00         0.00000E+00        -0.51686E+08
 
   -0.51570E+08         0.96587E+06         0.00000E+00
    0.96587E+06        -0.49995E+08         0.00000E+00
    0.00000E+00         0.00000E+00        -0.51686E+08
 
   -0.51572E+08         0.10376E+07         0.00000E+00
    0.10376E+07        -0.49994E+08         0.00000E+00
    0.00000E+00         0.00000E+00        -0.51687E+08
 
   -0.51574E+08         0.11094E+07         0.00000E+00
    0.11094E+07        -0.49993E+08         0.00000E+00
    0.00000E+00         0.00000E+00        -0.51687E+08
 
   -0.51576E+08         0.11812E+07         0.00000E+00
    0.11812E+07        -0.49992E+08         0.00000E+00
    0.00000E+00         0.00000E+00        -0.51687E+08
 
   -0.51579E+08         0.12531E+07         0.00000E+00
    0.12531E+07        -0.49991E+08         0.00000E+00
    0.00000E+00         0.00000E+00        -0.51687E+08
 
   -0.51581E+08         0.13250E+07         0.00000E+00
    0.13250E+07        -0.49990E+08         0.00000E+00
    0.00000E+00         0.00000E+00        -0.51688E+08
 
   -0.51583E+08         0.13970E+07         0.00000E+00
    0.13970E+07        -0.49989E+08         0.00000E+00
    0.00000E+00         0.00000E+00        -0.51688E+08
 
   -0.51586E+08         0.14690E+07         0.00000E+00
    0.14690E+07        -0.49988E+08         0.00000E+00
    0.00000E+00         0.00000E+00        -0.51688E+08
 
   -0.51588E+08         0.15410E+07         0.00000E+00
    0.15410E+07        -0.49986E+08         0.00000E+00
    0.00000E+00         0.00000E+00        -0.51688E+08
 
   -0.51591E+08         0.16132E+07         0.00000E+00
    0.16132E+07        -0.49985E+08         0.00000E+00
    0.00000E+00         0.00000E+00        -0.51689E+08
 
   -0.51594E+08         0.16854E+07         0.00000E+00
    0.16854E+07        -0.49984E+08         0.00000E+00
    0.00000E+00         0.00000E+00        -0.51689E+08
 
   -0.51597E+08         0.17576E+07         0.00000E+00
    0.17576E+07        -0.49982E+08         0.00000E+00
    0.00000E+00         0.00000E+00        -0.51689E+08
 
   -0.51600E+08         0.18299E+07         0.00000E+00
    0.18299E+07        -0.49981E+08         0.00000E+00
    0.00000E+00         0.00000E+00        -0.51690E+08
 
   -0.51603E+08         0.19023E+07         0.00000E+00
    0.19023E+07        -0.49980E+08         0.00000E+00
    0.00000E+00         0.00000E+00        -0.51690E+08
 
   -0.51606E+08         0.19747E+07         0.00000E+00
    0.19747E+07        -0.49978E+08         0.00000E+00
    0.00000E+00         0.00000E+00        -0.51690E+08
 
   -0.51610E+08         0.20472E+07         0.00000E+00
    0.20472E+07        -0.49977E+08         0.00000E+00
    0.00000E+00         0.00000E+00        -0.51691E+08
 
   -0.51613E+08         0.21198E+07         0.00000E+00
    0.21198E+07        -0.49975E+08         0.00000E+00
    0.00000E+00         0.00000E+00        -0.51691E+08
 
   -0.51617E+08         0.21925E+07         0.00000E+00
    0.21925E+07        -0.49973E+08         0.00000E+00
    0.00000E+00         0.00000E+00        -0.51691E+08
 
   -0.51620E+08         0.22652E+07         0.00000E+00
    0.22652E+07        -0.49972E+08         0.00000E+00
    0.00000E+00         0.00000E+00        -0.51692E+08
 
   -0.51624E+08         0.23381E+07         0.00000E+00
    0.23381E+07        -0.49970E+08         0.00000E+00
    0.00000E+00         0.00000E+00        -0.51692E+08
 
   -0.51628E+08         0.24110E+07         0.00000E+00
    0.24110E+07        -0.49968E+08         0.00000E+00
    0.00000E+00         0.00000E+00        -0.51693E+08
 
   -0.51632E+08         0.24840E+07         0.00000E+00
    0.24840E+07        -0.49966E+08         0.00000E+00
    0.00000E+00         0.00000E+00        -0.51693E+08
 
   -0.51636E+08         0.25570E+07         0.00000E+00
    0.25570E+07        -0.49965E+08         0.00000E+00
    0.00000E+00         0.00000E+00        -0.51693E+08
 
   -0.51640E+08         0.26302E+07         0.00000E+00
    0.26302E+07        -0.49963E+08         0.00000E+00
    0.00000E+00         0.00000E+00        -0.51694E+08
 
   -0.51644E+08         0.27034E+07         0.00000E+00
    0.27034E+07        -0.49961E+08         0.00000E+00
    0.00000E+00         0.00000E+00        -0.51694E+08
 
   -0.51648E+08         0.27768E+07         0.00000E+00
    0.27768E+07        -0.49959E+08         0.00000E+00
    0.00000E+00         0.00000E+00        -0.51695E+08
 
   -0.51652E+08         0.28502E+07         0.00000E+00
    0.28502E+07        -0.49957E+08         0.00000E+00
    0.00000E+00         0.00000E+00        -0.51695E+08
 
   -0.51656E+08         0.29237E+07         0.00000E+00
    0.29237E+07        -0.49955E+08         0.00000E+00
    0.00000E+00         0.00000E+00        -0.51696E+08
 
   -0.51661E+08         0.29974E+07         0.00000E+00
    0.29974E+07        -0.49953E+08         0.00000E+00
    0.00000E+00         0.00000E+00        -0.51696E+08
 
   -0.51665E+08         0.30711E+07         0.00000E+00
    0.30711E+07        -0.49951E+08         0.00000E+00
    0.00000E+00         0.00000E+00        -0.51697E+08
 
   -0.51670E+08         0.31449E+07         0.00000E+00
    0.31449E+07        -0.49949E+08         0.00000E+00
    0.00000E+00         0.00000E+00        -0.51697E+08
 
   -0.51674E+08         0.32188E+07         0.00000E+00
    0.32188E+07        -0.49947E+08         0.00000E+00
    0.00000E+00         0.00000E+00        -0.51698E+08
 
   -0.51679E+08         0.32929E+07         0.00000E+00
    0.32929E+07        -0.49945E+08         0.00000E+00
    0.00000E+00         0.00000E+00        -0.51698E+08
 
   -0.51684E+08         0.33670E+07         0.00000E+00
    0.33670E+07        -0.49942E+08         0.00000E+00
    0.00000E+00         0.00000E+00        -0.51699E+08
 
   -0.51688E+08         0.34412E+07         0.00000E+00
    0.34412E+07        -0.49940E+08         0.00000E+00
    0.00000E+00         0.00000E+00        -0.51699E+08
 
   -0.51693E+08         0.35156E+07         0.00000E+00
    0.35156E+07        -0.49938E+08         0.00000E+00
    0.00000E+00         0.00000E+00        -0.51700E+08
 
   -0.51698E+08         0.35900E+07         0.00000E+00
    0.35900E+07        -0.49936E+08         0.00000E+00
    0.00000E+00         0.00000E+00        -0.51700E+08
 
   -0.51199E+08         0.35864E+05         0.00000E+00
    0.35864E+05        -0.50000E+08         0.00000E+00
    0.00000E+00         0.00000E+00        -0.51314E+08
 
   -0.51199E+08         0.10760E+06         0.00000E+00
    0.10760E+06        -0.50000E+08         0.00000E+00
    0.00000E+00         0.00000E+00        -0.51314E+08
 
   -0.51200E+08         0.17935E+06         0.00000E+00
    0.17935E+06        -0.50000E+08         0.00000E+00
    0.00000E+00         0.00000E+00        -0.51314E+08
 
   -0.51200E+08         0.25110E+06         0.00000E+00
    0.25110E+06        -0.50000E+08         0.00000E+00
    0.00000E+00         0.00000E+00        -0.51314E+08
 
   -0.51201E+08         0.32287E+06         0.00000E+00
    0.32287E+06        -0.49999E+08         0.00000E+00
    0.00000E+00         0.00000E+00        -0.51314E+08
 
   -0.51201E+08         0.39465E+06         0.00000E+00
    0.39465E+06        -0.49999E+08         0.00000E+00
    0.00000E+00         0.00000E+00        -0.51314E+08
 
   -0.51202E+08         0.46644E+06         0.00000E+00
    0.46644E+06        -0.49999E+08         0.00000E+00
    0.00000E+00         0.00000E+00        -0.51314E+08
 
   -0.51203E+08         0.53826E+06         0.00000E+00
    0.53826E+06        -0.49998E+08         0.00000E+00
    0.00000E+00         0.00000E+00        -0.51314E+08
 
   -0.51204E+08         0.61009E+06         0.00000E+00
    0.61009E+06        -0.49998E+08         0.00000E+00
    0.00000E+00         0.00000E+00        -0.51314E+08
 
   -0.51205E+08         0.68195E+06         0.00000E+00
    0.68195E+06        -0.49998E+08         0.00000E+00
    0.00000E+00         0.00000E+00        -0.51314E+08
 
   -0.51207E+08         0.75384E+06         0.00000E+00
    0.75384E+06        -0.49997E+08         0.00000E+00
    0.00000E+00         0.00000E+00        -0.51314E+08
 
   -0.51208E+08         0.82575E+06         0.00000E+00
    0.82575E+06        -0.49996E+08         0.00000E+00
    0.00000E+00         0.00000E+00        -0.51315E+08
 
   -0.51210E+08         0.89769E+06         0.00000E+00
    0.89769E+06        -0.49996E+08         0.00000E+00
    0.00000E+00         0.00000E+00        -0.51315E+08
 
   -0.51211E+08         0.96967E+06         0.00000E+00
    0.96967E+06        -0.49995E+08         0.00000E+00
    0.00000E+00         0.00000E+00        -0.51315E+08
 
   -0.51213E+08         0.10417E+07         0.00000E+00
    0.10417E+07        -0.49994E+08         0.00000E+00
    0.00000E+00         0.00000E+00        -0.51315E+08
 
   -0.51215E+08         0.11137E+07         0.00000E+00
    0.11137E+07        -0.49994E+08         0.00000E+00
    0.00000E+00         0.00000E+00        -0.51315E+08
 
   -0.51216E+08         0.11858E+07         0.00000E+00
    0.11858E+07        -0.49993E+08         0.00000E+00
    0.00000E+00         0.00000E+00        -0.51316E+08
 
   -0.51218E+08         0.12579E+07         0.00000E+00
    0.12579E+07        -0.49992E+08         0.00000E+00
    0.00000E+00         0.00000E+00        -0.51316E+08
 
   -0.51220E+08         0.13301E+07         0.00000E+00
    0.13301E+07        -0.49991E+08         0.00000E+00
    0.00000E+00         0.00000E+00        -0.51316E+08
 
   -0.51223E+08         0.14023E+07         0.00000E+00
    0.14023E+07        -0.49990E+08         0.00000E+00
    0.00000E+00         0.00000E+00        -0.51316E+08
 
   -0.51225E+08         0.14746E+07         0.00000E+00
    0.14746E+07        -0.49989E+08         0.00000E+00
    0.00000E+00         0.00000E+00        -0.51316E+08
 
   -0.51227E+08         0.15469E+07         0.00000E+00
    0.15469E+07        -0.49988E+08         0.00000E+00
    0.00000E+00         0.00000E+00        -0.51317E+08
 
   -0.51230E+08         0.16193E+07         0.00000E+00
    0.16193E+07        -0.49987E+08         0.00000E+00
    0.00000E+00         0.00000E+00        -0.51317E+08
 
   -0.51232E+08         0.16917E+07         0.00000E+00
    0.16917E+07        -0.49985E+08         0.00000E+00
    0.00000E+00         0.00000E+00        -0.51317E+08
 
   -0.51235E+08         0.17642E+07         0.00000E+00
    0.17642E+07        -0.49984E+08         0.00000E+00
    0.00000E+00         0.00000E+00        -0.51318E+08
 
   -0.51238E+08         0.18367E+07         0.00000E+00
    0.18367E+07        -0.49983E+08         0.00000E+00
    0.00000E+00         0.00000E+00        -0.51318E+08
 
   -0.51240E+08         0.19093E+07         0.00000E+00
    0.19093E+07        -0.49982E+08         0.00000E+00
    0.00000E+00         0.00000E+00        -0.51318E+08
 
   -0.51243E+08         0.19820E+07         0.00000E+00
    0.19820E+07        -0.49980E+08         0.00000E+00
    0.00000E+00         0.00000E+00        -0.51318E+08
 
   -0.51246E+08         0.20547E+07         0.00000E+00
    0.20547E+07        -0.49979E+08         0.00000E+00
    0.00000E+00         0.00000E+00        -0.51319E+08
 
   -0.51249E+08         0.21275E+07         0.00000E+00
    0.21275E+07        -0.49977E+08         0.00000E+00
    0.00000E+00         0.00000E+00        -0.51319E+08
 
   -0.51253E+08         0.22004E+07         0.00000E+00
    0.22004E+07        -0.49976E+08         0.00000E+00
    0.00000E+00         0.00000E+00        -0.51319E+08
 
   -0.51256E+08         0.22733E+07         0.00000E+00
    0.22733E+07        -0.49974E+08         0.00000E+00
    0.00000E+00         0.00000E+00        -0.51320E+08
 
   -0.51259E+08         0.23463E+07         0.00000E+00
    0.23463E+07        -0.49973E+08         0.00000E+00
    0.00000E+00         0.00000E+00        -0.51320E+08
 
   -0.51263E+08         0.24194E+07         0.00000E+00
    0.24194E+07        -0.49971E+08         0.00000E+00
    0.00000E+00         0.00000E+00        -0.51321E+08
 
   -0.51266E+08         0.24925E+07         0.00000E+00
    0.24925E+07        -0.49970E+08         0.00000E+00
    0.00000E+00         0.00000E+00        -0.51321E+08
 
   -0.51270E+08         0.25658E+07         0.00000E+00
    0.25658E+07        -0.49968E+08         0.00000E+00
    0.00000E+00         0.00000E+00        -0.51321E+08
 
   -0.51273E+08         0.26391E+07         0.00000E+00
    0.26391E+07        -0.49966E+08         0.00000E+00
    0.00000E+00         0.00000E+00        -0.51322E+08
 
   -0.51277E+08         0.27125E+07         0.00000E+00
    0.27125E+07        -0.49965E+08         0.00000E+00
    0.00000E+00         0.00000E+00        -0.51322E+08
 
   -0.51281E+08         0.27860E+07         0.00000E+00
    0.27860E+07        -0.49963E+08         0.00000E+00
    0.00000E+00         0.00000E+00        -0.51322E+08
 
   -0.51284E+08         0.28595E+07         0.00000E+00
    0.28595E+07        -0.49961E+08         0.00000E+00
    0.00000E+00         0.00000E+00        -0.51323E+08
 
   -0.51288E+08         0.29332E+07         0.00000E+00
    0.29332E+07        -0.49959E+08         0.00000E+00
    0.00000E+00         0.00000E+00        -0.51323E+08
 
   -0.51292E+08         0.30069E+07         0.00000E+00
    0.30069E+07        -0.49958E+08         0.00000E+00
    0.00000E+00         0.00000E+00        -0.51324E+08
 
   -0.51296E+08         0.30808E+07         0.00000E+00
    0.30808E+07        -0.49956E+08         0.00000E+00
    0.00000E+00         0.00000E+00        -0.51324E+08
 
   -0.51300E+08         0.31547E+07         0.00000E+00
    0.31547E+07        -0.49954E+08         0.00000E+00
    0.00000E+00         0.00000E+00        -0.51325E+08
 
   -0.51304E+08         0.32287E+07         0.00000E+00
    0.32287E+07        -0.49952E+08         0.00000E+00
    0.00000E+00         0.00000E+00        -0.51325E+08
 
   -0.51308E+08         0.33028E+07         0.00000E+00
    0.33028E+07        -0.49950E+08         0.00000E+00
    0.00000E+00         0.00000E+00        -0.51325E+08
 
   -0.51313E+08         0.33770E+07         0.00000E+00
    0.33770E+07        -0.49948E+08         0.00000E+00
    0.00000E+00         0.00000E+00        -0.51326E+08
 
   -0.51317E+08         0.34513E+07         0.00000E+00
    0.34513E+07        -0.49947E+08         0.00000E+00
    0.00000E+00         0.00000E+00        -0.51326E+08
 
   -0.51321E+08         0.35257E+07         0.00000E+00
    0.35257E+07        -0.49945E+08         0.00000E+00
    0.00000E+00         0.00000E+00        -0.51327E+08
 
   -0.51325E+08         0.36002E+07         0.00000E+00
    0.36002E+07        -0.49943E+08         0.00000E+00
    0.00000E+00         0.00000E+00        -0.51327E+08
 
   -0.50839E+08         0.35994E+05         0.00000E+00
    0.35994E+05        -0.50000E+08         0.00000E+00
    0.00000E+00         0.00000E+00        -0.50942E+08
 
   -0.50840E+08         0.10799E+06         0.00000E+00
    0.10799E+06        -0.50000E+08         0.00000E+00
    0.00000E+00         0.00000E+00        -0.50942E+08
 
   -0.50840E+08         0.17999E+06         0.00000E+00
    0.17999E+06        -0.50000E+08         0.00000E+00
    0.00000E+00         0.00000E+00        -0.50942E+08
 
   -0.50841E+08         0.25201E+06         0.00000E+00
    0.25201E+06        -0.50000E+08         0.00000E+00
    0.00000E+00         0.00000E+00        -0.50942E+08
 
   -0.50841E+08         0.32403E+06         0.00000E+00
    0.32403E+06        -0.50000E+08         0.00000E+00
    0.00000E+00         0.00000E+00        -0.50942E+08
 
   -0.50842E+08         0.39607E+06         0.00000E+00
    0.39607E+06        -0.49999E+08         0.00000E+00
    0.00000E+00         0.00000E+00        -0.50942E+08
 
   -0.50843E+08         0.46812E+06         0.00000E+00
    0.46812E+06        -0.49999E+08         0.00000E+00
    0.00000E+00         0.00000E+00        -0.50942E+08
 
   -0.50843E+08         0.54019E+06         0.00000E+00
    0.54019E+06        -0.49999E+08         0.00000E+00
    0.00000E+00         0.00000E+00        -0.50942E+08
 
   -0.50844E+08         0.61228E+06         0.00000E+00
    0.61228E+06        -0.49998E+08         0.00000E+00
    0.00000E+00         0.00000E+00        -0.50943E+08
 
   -0.50845E+08         0.68439E+06         0.00000E+00
    0.68439E+06        -0.49998E+08         0.00000E+00
    0.00000E+00         0.00000E+00        -0.50943E+08
 
   -0.50847E+08         0.75652E+06         0.00000E+00
    0.75652E+06        -0.49997E+08         0.00000E+00
    0.00000E+00         0.00000E+00        -0.50943E+08
 
   -0.50848E+08         0.82868E+06         0.00000E+00
    0.82868E+06        -0.49997E+08         0.00000E+00
    0.00000E+00         0.00000E+00        -0.50943E+08
 
   -0.50849E+08         0.90087E+06         0.00000E+00
    0.90087E+06        -0.49996E+08         0.00000E+00
    0.00000E+00         0.00000E+00        -0.50943E+08
 
   -0.50851E+08         0.97309E+06         0.00000E+00
    0.97309E+06        -0.49996E+08         0.00000E+00
    0.00000E+00         0.00000E+00        -0.50943E+08
 
   -0.50852E+08         0.10453E+07         0.00000E+00
    0.10453E+07        -0.49995E+08         0.00000E+00
    0.00000E+00         0.00000E+00        -0.50943E+08
 
   -0.50854E+08         0.11176E+07         0.00000E+00
    0.11176E+07        -0.49994E+08         0.00000E+00
    0.00000E+00         0.00000E+00        -0.50944E+08
 
   -0.50855E+08         0.11899E+07         0.00000E+00
    0.11899E+07        -0.49993E+08         0.00000E+00
    0.00000E+00         0.00000E+00        -0.50944E+08
 
   -0.50857E+08         0.12623E+07         0.00000E+00
    0.12623E+07        -0.49993E+08         0.00000E+00
    0.00000E+00         0.00000E+00        -0.50944E+08
 
   -0.50859E+08         0.13347E+07         0.00000E+00
    0.13347E+07        -0.49992E+08         0.00000E+00
    0.00000E+00         0.00000E+00        -0.50944E+08
 
   -0.50861E+08         0.14071E+07         0.00000E+00
    0.14071E+07        -0.49991E+08         0.00000E+00
    0.00000E+00         0.00000E+00        -0.50944E+08
 
   -0.50863E+08         0.14796E+07         0.00000E+00
    0.14796E+07        -0.49990E+08         0.00000E+00
    0.00000E+00         0.00000E+00        -0.50945E+08
 
   -0.50865E+08         0.15522E+07         0.00000E+00
    0.15522E+07        -0.49989E+08         0.00000E+00
    0.00000E+00         0.00000E+00        -0.50945E+08
 
   -0.50867E+08         0.16247E+07         0.00000E+00
    0.16247E+07        -0.49988E+08         0.00000E+00
    0.00000E+00         0.00000E+00        -0.50945E+08
 
   -0.50870E+08         0.16974E+07         0.00000E+00
    0.16974E+07        -0.49987E+08         0.00000E+00
    0.00000E+00         0.00000E+00        -0.50945E+08
 
   -0.50872E+08         0.17701E+07         0.00000E+00
    0.17701E+07        -0.49986E+08         0.00000E+00
    0.00000E+00         0.00000E+00        -0.50946E+08
 
   -0.50874E+08         0.18428E+07         0.00000E+00
    0.18428E+07        -0.49985E+08         0.00000E+00
    0.00000E+00         0.00000E+00        -0.50946E+08
 
   -0.50877E+08         0.19156E+07         0.00000E+00
    0.19156E+07        -0.49984E+08         0.00000E+00
    0.00000E+00         0.00000E+00        -0.50946E+08
 
   -0.50879E+08         0.19885E+07         0.00000E+00
    0.19885E+07        -0.49982E+08         0.00000E+00
    0.00000E+00         0.00000E+00        -0.50946E+08
 
   -0.50882E+08         0.20614E+07         0.00000E+00
    0.20614E+07        -0.49981E+08         0.00000E+00
    0.00000E+00         0.00000E+00        -0.50947E+08
 
   -0.50885E+08         0.21343E+07         0.00000E+00
    0.21343E+07        -0.49980E+08         0.00000E+00
    0.00000E+00         0.00000E+00        -0.50947E+08
 
   -0.50888E+08         0.22074E+07         0.00000E+00
    0.22074E+07        -0.49978E+08         0.00000E+00
    0.00000E+00         0.00000E+00        -0.50947E+08
 
   -0.50891E+08         0.22805E+07         0.00000E+00
    0.22805E+07        -0.49977E+08         0.00000E+00
    0.00000E+00         0.00000E+00        -0.50948E+08
 
   -0.50894E+08         0.23537E+07         0.00000E+00
    0.23537E+07        -0.49976E+08         0.00000E+00
    0.00000E+00         0.00000E+00        -0.50948E+08
 
   -0.50897E+08         0.24269E+07         0.00000E+00
    0.24269E+07        -0.49974E+08         0.00000E+00
    0.00000E+00         0.00000E+00        -0.50948E+08
 
   -0.50900E+08         0.25002E+07         0.00000E+00
    0.25002E+07        -0.49973E+08         0.00000E+00
    0.00000E+00         0.00000E+00        -0.50949E+08
 
   -0.50903E+08         0.25736E+07         0.00000E+00
    0.25736E+07        -0.49971E+08         0.00000E+00
    0.00000E+00         0.00000E+00        -0.50949E+08
 
   -0.50906E+08         0.26471E+07         0.00000E+00
    0.26471E+07        -0.49970E+08         0.00000E+00
    0.00000E+00         0.00000E+00        -0.50949E+08
 
   -0.50909E+08         0.27206E+07         0.00000E+00
    0.27206E+07        -0.49968E+08         0.00000E+00
    0.00000E+00         0.00000E+00        -0.50950E+08
 
   -0.50913E+08         0.27942E+07         0.00000E+00
    0.27942E+07        -0.49967E+08         0.00000E+00
    0.00000E+00         0.00000E+00        -0.50950E+08
 
   -0.50916E+08         0.28679E+07         0.00000E+00
    0.28679E+07        -0.49965E+08         0.00000E+00
    0.00000E+00         0.00000E+00        -0.50950E+08
 
   -0.50920E+08         0.29416E+07         0.00000E+00
    0.29416E+07        -0.49964E+08         0.00000E+00
    0.00000E+00         0.00000E+00        -0.50951E+08
 
   -0.50923E+08         0.30155E+07         0.00000E+00
    0.30155E+07        -0.49962E+08         0.00000E+00
    0.00000E+00         0.00000E+00        -0.50951E+08
 
   -0.50927E+08         0.30894E+07         0.00000E+00
    0.30894E+07        -0.49961E+08         0.00000E+00
    0.00000E+00         0.00000E+00        -0.50951E+08
 
   -0.50930E+08         0.31634E+07         0.00000E+00
    0.31634E+07        -0.49959E+08         0.00000E+00
    0.00000E+00         0.00000E+00        -0.50952E+08
 
   -0.50934E+08         0.32375E+07         0.00000E+00
    0.32375E+07        -0.49957E+08         0.00000E+00
    0.00000E+00         0.00000E+00        -0.50952E+08
 
   -0.50937E+08         0.33117E+07         0.00000E+00
    0.33117E+07        -0.49956E+08         0.00000E+00
    0.00000E+00         0.00000E+00        -0.50953E+08
 
   -0.50941E+08         0.33860E+07         0.00000E+00
    0.33860E+07        -0.49954E+08         0.00000E+00
    0.00000E+00         0.00000E+00        -0.50953E+08
 
   -0.50945E+08         0.34603E+07         0.00000E+00
    0.34603E+07        -0.49952E+08         0.00000E+00
    0.00000E+00         0.00000E+00        -0.50954E+08
 
   -0.50949E+08         0.35348E+07         0.00000E+00
    0.35348E+07        -0.49950E+08         0.00000E+00
    0.00000E+00         0.00000E+00        -0.50954E+08
 
   -0.50953E+08         0.36093E+07         0.00000E+00
    0.36093E+07        -0.49949E+08         0.00000E+00
    0.00000E+00         0.00000E+00        -0.50954E+08
 
   -0.50479E+08         0.36111E+05         0.00000E+00
    0.36111E+05        -0.50000E+08         0.00000E+00
    0.00000E+00         0.00000E+00        -0.50570E+08
 
   -0.50479E+08         0.10834E+06         0.00000E+00
    0.10834E+06        -0.50000E+08         0.00000E+00
    0.00000E+00         0.00000E+00        -0.50570E+08
 
   -0.50479E+08         0.18058E+06         0.00000E+00
    0.18058E+06        -0.50000E+08         0.00000E+00
    0.00000E+00         0.00000E+00        -0.50570E+08
 
   -0.50480E+08         0.25282E+06         0.00000E+00
    0.25282E+06        -0.50000E+08         0.00000E+00
    0.00000E+00         0.00000E+00        -0.50570E+08
 
   -0.50480E+08         0.32508E+06         0.00000E+00
    0.32508E+06        -0.50000E+08         0.00000E+00
    0.00000E+00         0.00000E+00        -0.50570E+08
 
   -0.50481E+08         0.39734E+06         0.00000E+00
    0.39734E+06        -0.49999E+08         0.00000E+00
    0.00000E+00         0.00000E+00        -0.50570E+08
 
   -0.50482E+08         0.46962E+06         0.00000E+00
    0.46962E+06        -0.49999E+08         0.00000E+00
    0.00000E+00         0.00000E+00        -0.50571E+08
 
   -0.50482E+08         0.54192E+06         0.00000E+00
    0.54192E+06        -0.49999E+08         0.00000E+00
    0.00000E+00         0.00000E+00        -0.50571E+08
 
   -0.50483E+08         0.61423E+06         0.00000E+00
    0.61423E+06        -0.49998E+08         0.00000E+00
    0.00000E+00         0.00000E+00        -0.50571E+08
 
   -0.50484E+08         0.68657E+06         0.00000E+00
    0.68657E+06        -0.49998E+08         0.00000E+00
    0.00000E+00         0.00000E+00        -0.50571E+08
 
   -0.50485E+08         0.75892E+06         0.00000E+00
    0.75892E+06        -0.49998E+08         0.00000E+00
    0.00000E+00         0.00000E+00        -0.50571E+08
 
   -0.50486E+08         0.83131E+06         0.00000E+00
    0.83131E+06        -0.49997E+08         0.00000E+00
    0.00000E+00         0.00000E+00        -0.50571E+08
 
   -0.50488E+08         0.90371E+06         0.00000E+00
    0.90371E+06        -0.49997E+08         0.00000E+00
    0.00000E+00         0.00000E+00        -0.50571E+08
 
   -0.50489E+08         0.97615E+06         0.00000E+00
    0.97615E+06        -0.49996E+08         0.00000E+00
    0.00000E+00         0.00000E+00        -0.50571E+08
 
   -0.50490E+08         0.10486E+07         0.00000E+00
    0.10486E+07        -0.49995E+08         0.00000E+00
    0.00000E+00         0.00000E+00        -0.50572E+08
 
   -0.50492E+08         0.11211E+07         0.00000E+00
    0.11211E+07        -0.49995E+08         0.00000E+00
    0.00000E+00         0.00000E+00        -0.50572E+08
 
   -0.50493E+08         0.11936E+07         0.00000E+00
    0.11936E+07        -0.49994E+08         0.00000E+00
    0.00000E+00         0.00000E+00        -0.50572E+08
 
   -0.50495E+08         0.12662E+07         0.00000E+00
    0.12662E+07        -0.49993E+08         0.00000E+00
    0.00000E+00         0.00000E+00        -0.50572E+08
 
   -0.50496E+08         0.13388E+07         0.00000E+00
    0.13388E+07        -0.49993E+08         0.00000E+00
    0.00000E+00         0.00000E+00        -0.50572E+08
 
   -0.50498E+08         0.14115E+07         0.00000E+00
    0.14115E+07        -0.49992E+08         0.00000E+00
    0.00000E+00         0.00000E+00        -0.50572E+08
 
   -0.50500E+08         0.14841E+07         0.00000E+00
    0.14841E+07        -0.49991E+08         0.00000E+00
    0.00000E+00         0.00000E+00        -0.50573E+08
 
   -0.50502E+08         0.15569E+07         0.00000E+00
    0.15569E+07        -0.49990E+08         0.00000E+00
    0.00000E+00         0.00000E+00        -0.50573E+08
 
   -0.50504E+08         0.16296E+07         0.00000E+00
    0.16296E+07        -0.49989E+08         0.00000E+00
    0.00000E+00         0.00000E+00        -0.50573E+08
 
   -0.50506E+08         0.17025E+07         0.00000E+00
    0.17025E+07        -0.49988E+08         0.00000E+00
    0.00000E+00         0.00000E+00        -0.50573E+08
 
   -0.50508E+08         0.17753E+07         0.00000E+00
    0.17753E+07        -0.49987E+08         0.00000E+00
    0.00000E+00         0.00000E+00        -0.50573E+08
 
   -0.50510E+08         0.18482E+07         0.00000E+00
    0.18482E+07        -0.49986E+08         0.00000E+00
    0.00000E+00         0.00000E+00        -0.50574E+08
 
   -0.50512E+08         0.19212E+07         0.00000E+00
    0.19212E+07        -0.49985E+08         0.00000E+00
    0.00000E+00         0.00000E+00        -0.50574E+08
 
   -0.50515E+08         0.19942E+07         0.00000E+00
    0.19942E+07        -0.49984E+08         0.00000E+00
    0.00000E+00         0.00000E+00        -0.50574E+08
 
   -0.50517E+08         0.20673E+07         0.00000E+00
    0.20673E+07        -0.49983E+08         0.00000E+00
    0.00000E+00         0.00000E+00        -0.50574E+08
 
   -0.50519E+08         0.21405E+07         0.00000E+00
    0.21405E+07        -0.49982E+08         0.00000E+00
    0.00000E+00         0.00000E+00        -0.50575E+08
 
   -0.50522E+08         0.22136E+07         0.00000E+00
    0.22136E+07        -0.49981E+08         0.00000E+00
    0.00000E+00         0.00000E+00        -0.50575E+08
 
   -0.50525E+08         0.22869E+07         0.00000E+00
    0.22869E+07        -0.49980E+08         0.00000E+00
    0.00000E+00         0.00000E+00        -0.50575E+08
 
   -0.50527E+08         0.23602E+07         0.00000E+00
    0.23602E+07        -0.49978E+08         0.00000E+00
    0.00000E+00         0.00000E+00        -0.50575E+08
 
   -0.50530E+08         0.24336E+07         0.00000E+00
    0.24336E+07        -0.49977E+08         0.00000E+00
    0.00000E+00         0.00000E+00        -0.50576E+08
 
   -0.50533E+08         0.25070E+07         0.00000E+00
    0.25070E+07        -0.49976E+08         0.00000E+00
    0.00000E+00         0.00000E+00        -0.50576E+08
 
   -0.50535E+08         0.25806E+07         0.00000E+00
    0.25806E+07        -0.49975E+08         0.00000E+00
    0.00000E+00         0.00000E+00        -0.50576E+08
 
   -0.50538E+08         0.26541E+07         0.00000E+00
    0.26541E+07        -0.49973E+08         0.00000E+00
    0.00000E+00         0.00000E+00        -0.50577E+08
 
   -0.50541E+08         0.27278E+07         0.00000E+00
    0.27278E+07        -0.49972E+08         0.00000E+00
    0.00000E+00         0.00000E+00        -0.50577E+08
 
   -0.50544E+08         0.28015E+07         0.00000E+00
    0.28015E+07        -0.49971E+08         0.00000E+00
    0.00000E+00         0.00000E+00        -0.50577E+08
 
   -0.50547E+08         0.28753E+07         0.00000E+00
    0.28753E+07        -0.49969E+08         0.00000E+00
    0.00000E+00         0.00000E+00        -0.50578E+08
 
   -0.50550E+08         0.29492E+07         0.00000E+00
    0.29492E+07        -0.49968E+08         0.00000E+00
    0.00000E+00         0.00000E+00        -0.50578E+08
 
   -0.50553E+08         0.30231E+07         0.00000E+00
    0.30231E+07        -0.49966E+08         0.00000E+00
    0.00000E+00         0.00000E+00        -0.50578E+08
 
   -0.50557E+08         0.30971E+07         0.00000E+00
    0.30971E+07        -0.49965E+08         0.00000E+00
    0.00000E+00         0.00000E+00        -0.50579E+08
 
   -0.50560E+08         0.31712E+07         0.00000E+00
    0.31712E+07        -0.49963E+08         0.00000E+00
    0.00000E+00         0.00000E+00        -0.50579E+08
 
   -0.50563E+08         0.32454E+07         0.00000E+00
    0.32454E+07        -0.49962E+08         0.00000E+00
    0.00000E+00         0.00000E+00        -0.50579E+08
 
   -0.50566E+08         0.33196E+07         0.00000E+00
    0.33196E+07        -0.49960E+08         0.00000E+00
    0.00000E+00         0.00000E+00        -0.50580E+08
 
   -0.50570E+08         0.33939E+07         0.00000E+00
    0.33939E+07        -0.49959E+08         0.00000E+00
    0.00000E+00         0.00000E+00        -0.50580E+08
 
   -0.50573E+08         0.34684E+07         0.00000E+00
    0.34684E+07        -0.49957E+08         0.00000E+00
    0.00000E+00         0.00000E+00        -0.50580E+08
 
   -0.50576E+08         0.35428E+07         0.00000E+00
    0.35428E+07        -0.49956E+08         0.00000E+00
    0.00000E+00         0.00000E+00        -0.50581E+08
 
   -0.50580E+08         0.36174E+07         0.00000E+00
    0.36174E+07        -0.49954E+08         0.00000E+00
    0.00000E+00         0.00000E+00        -0.50581E+08
 
   -0.50117E+08         0.36215E+05         0.00000E+00
    0.36215E+05        -0.50000E+08         0.00000E+00
    0.00000E+00         0.00000E+00        -0.50198E+08
 
   -0.50117E+08         0.10865E+06         0.00000E+00
    0.10865E+06        -0.50000E+08         0.00000E+00
    0.00000E+00         0.00000E+00        -0.50198E+08
 
   -0.50118E+08         0.18110E+06         0.00000E+00
    0.18110E+06        -0.50000E+08         0.00000E+00
    0.00000E+00         0.00000E+00        -0.50198E+08
 
   -0.50118E+08         0.25355E+06         0.00000E+00
    0.25355E+06        -0.50000E+08         0.00000E+00
    0.00000E+00         0.00000E+00        -0.50198E+08
 
   -0.50119E+08         0.32601E+06         0.00000E+00
    0.32601E+06        -0.50000E+08         0.00000E+00
    0.00000E+00         0.00000E+00        -0.50198E+08
 
   -0.50119E+08         0.39848E+06         0.00000E+00
    0.39848E+06        -0.49999E+08         0.00000E+00
    0.00000E+00         0.00000E+00        -0.50198E+08
 
   -0.50120E+08         0.47096E+06         0.00000E+00
    0.47096E+06        -0.49999E+08         0.00000E+00
    0.00000E+00         0.00000E+00        -0.50198E+08
 
   -0.50120E+08         0.54346E+06         0.00000E+00
    0.54346E+06        -0.49999E+08         0.00000E+00
    0.00000E+00         0.00000E+00        -0.50199E+08
 
   -0.50121E+08         0.61598E+06         0.00000E+00
    0.61598E+06        -0.49999E+08         0.00000E+00
    0.00000E+00         0.00000E+00        -0.50199E+08
 
   -0.50122E+08         0.68851E+06         0.00000E+00
    0.68851E+06        -0.49998E+08         0.00000E+00
    0.00000E+00         0.00000E+00        -0.50199E+08
 
   -0.50123E+08         0.76106E+06         0.00000E+00
    0.76106E+06        -0.49998E+08         0.00000E+00
    0.00000E+00         0.00000E+00        -0.50199E+08
 
   -0.50124E+08         0.83364E+06         0.00000E+00
    0.83364E+06        -0.49997E+08         0.00000E+00
    0.00000E+00         0.00000E+00        -0.50199E+08
 
   -0.50125E+08         0.90624E+06         0.00000E+00
    0.90624E+06        -0.49997E+08         0.00000E+00
    0.00000E+00         0.00000E+00        -0.50199E+08
 
   -0.50126E+08         0.97887E+06         0.00000E+00
    0.97887E+06        -0.49997E+08         0.00000E+00
    0.00000E+00         0.00000E+00        -0.50199E+08
 
   -0.50127E+08         0.10515E+07         0.00000E+00
    0.10515E+07        -0.49996E+08         0.00000E+00
    0.00000E+00         0.00000E+00        -0.50199E+08
 
   -0.50129E+08         0.11242E+07         0.00000E+00
    0.11242E+07        -0.49995E+08         0.00000E+00
    0.00000E+00         0.00000E+00        -0.50199E+08
 
   -0.50130E+08         0.11969E+07         0.00000E+00
    0.11969E+07        -0.49995E+08         0.00000E+00
    0.00000E+00         0.00000E+00        -0.50200E+08
 
   -0.50131E+08         0.12697E+07         0.00000E+00
    0.12697E+07        -0.49994E+08         0.00000E+00
    0.00000E+00         0.00000E+00        -0.50200E+08
 
   -0.50133E+08         0.13425E+07         0.00000E+00
    0.13425E+07        -0.49994E+08         0.00000E+00
    0.00000E+00         0.00000E+00        -0.50200E+08
 
   -0.50134E+08         0.14153E+07         0.00000E+00
    0.14153E+07        -0.49993E+08         0.00000E+00
    0.00000E+00         0.00000E+00        -0.50200E+08
 
   -0.50136E+08         0.14881E+07         0.00000E+00
    0.14881E+07        -0.49992E+08         0.00000E+00
    0.00000E+00         0.00000E+00        -0.50200E+08
 
   -0.50138E+08         0.15610E+07         0.00000E+00
    0.15610E+07        -0.49991E+08         0.00000E+00
    0.00000E+00         0.00000E+00        -0.50200E+08
 
   -0.50139E+08         0.16340E+07         0.00000E+00
    0.16340E+07        -0.49990E+08         0.00000E+00
    0.00000E+00         0.00000E+00        -0.50201E+08
 
   -0.50141E+08         0.17070E+07         0.00000E+00
    0.17070E+07        -0.49990E+08         0.00000E+00
    0.00000E+00         0.00000E+00        -0.50201E+08
 
   -0.50143E+08         0.17800E+07         0.00000E+00
    0.17800E+07        -0.49989E+08         0.00000E+00
    0.00000E+00         0.00000E+00        -0.50201E+08
 
   -0.50145E+08         0.18531E+07         0.00000E+00
    0.18531E+07        -0.49988E+08         0.00000E+00
    0.00000E+00         0.00000E+00        -0.50201E+08
 
   -0.50147E+08         0.19262E+07         0.00000E+00
    0.19262E+07        -0.49987E+08         0.00000E+00
    0.00000E+00         0.00000E+00        -0.50201E+08
 
   -0.50149E+08         0.19994E+07         0.00000E+00
    0.19994E+07        -0.49986E+08         0.00000E+00
    0.00000E+00         0.00000E+00        -0.50202E+08
 
   -0.50151E+08         0.20726E+07         0.00000E+00
    0.20726E+07        -0.49985E+08         0.00000E+00
    0.00000E+00         0.00000E+00        -0.50202E+08
 
   -0.50153E+08         0.21459E+07         0.00000E+00
    0.21459E+07        -0.49984E+08         0.00000E+00
    0.00000E+00         0.00000E+00        -0.50202E+08
 
   -0.50155E+08         0.22192E+07         0.00000E+00
    0.22192E+07        -0.49983E+08         0.00000E+00
    0.00000E+00         0.00000E+00        -0.50202E+08
 
   -0.50158E+08         0.22926E+07         0.00000E+00
    0.22926E+07        -0.49982E+08         0.00000E+00
    0.00000E+00         0.00000E+00        -0.50203E+08
 
   -0.50160E+08         0.23660E+07         0.00000E+00
    0.23660E+07        -0.49981E+08         0.00000E+00
    0.00000E+00         0.00000E+00        -0.50203E+08
 
   -0.50162E+08         0.24395E+07         0.00000E+00
    0.24395E+07        -0.49980E+08         0.00000E+00
    0.00000E+00         0.00000E+00        -0.50203E+08
 
   -0.50165E+08         0.25131E+07         0.00000E+00
    0.25131E+07        -0.49979E+08         0.00000E+00
    0.00000E+00         0.00000E+00        -0.50203E+08
 
   -0.50167E+08         0.25867E+07         0.00000E+00
    0.25867E+07        -0.49977E+08         0.00000E+00
    0.00000E+00         0.00000E+00        -0.50204E+08
 
   -0.50170E+08         0.26604E+07         0.00000E+00
    0.26604E+07        -0.49976E+08         0.00000E+00
    0.00000E+00         0.00000E+00        -0.50204E+08
 
   -0.50173E+08         0.27342E+07         0.00000E+00
    0.27342E+07        -0.49975E+08         0.00000E+00
    0.00000E+00         0.00000E+00        -0.50204E+08
 
   -0.50175E+08         0.28080E+07         0.00000E+00
    0.28080E+07        -0.49974E+08         0.00000E+00
    0.00000E+00         0.00000E+00        -0.50204E+08
 
   -0.50178E+08         0.28819E+07         0.00000E+00
    0.28819E+07        -0.49973E+08         0.00000E+00
    0.00000E+00         0.00000E+00        -0.50205E+08
 
   -0.50181E+08         0.29558E+07         0.00000E+00
    0.29558E+07        -0.49971E+08         0.00000E+00
    0.00000E+00         0.00000E+00        -0.50205E+08
 
   -0.50183E+08         0.30299E+07         0.00000E+00
    0.30299E+07        -0.49970E+08         0.00000E+00
    0.00000E+00         0.00000E+00        -0.50205E+08
 
   -0.50186E+08         0.31039E+07         0.00000E+00
    0.31039E+07        -0.49969E+08         0.00000E+00
    0.00000E+00         0.00000E+00        -0.50206E+08
 
   -0.50189E+08         0.31781E+07         0.00000E+00
    0.31781E+07        -0.49968E+08         0.00000E+00
    0.00000E+00         0.00000E+00        -0.50206E+08
 
   -0.50192E+08         0.32523E+07         0.00000E+00
    0.32523E+07        -0.49966E+08         0.00000E+00
    0.00000E+00         0.00000E+00        -0.50206E+08
 
   -0.50195E+08         0.33266E+07         0.00000E+00
    0.33266E+07        -0.49965E+08         0.00000E+00
    0.00000E+00         0.00000E+00        -0.50207E+08
 
   -0.50198E+08         0.34010E+07         0.00000E+00
    0.34010E+07        -0.49964E+08         0.00000E+00
    0.00000E+00         0.00000E+00        -0.50207E+08
 
   -0.50201E+08         0.34755E+07         0.00000E+00
    0.34755E+07        -0.49962E+08         0.00000E+00
    0.00000E+00         0.00000E+00        -0.50207E+08
 
   -0.50204E+08         0.35500E+07         0.00000E+00
    0.35500E+07        -0.49961E+08         0.00000E+00
    0.00000E+00         0.00000E+00        -0.50208E+08
 
   -0.50207E+08         0.36246E+07         0.00000E+00
    0.36246E+07        -0.49960E+08         0.00000E+00
    0.00000E+00         0.00000E+00        -0.50208E+08
 
   -0.49755E+08         0.36308E+05         0.00000E+00
    0.36308E+05        -0.50000E+08         0.00000E+00
    0.00000E+00         0.00000E+00        -0.49826E+08
 
   -0.49755E+08         0.10893E+06         0.00000E+00
    0.10893E+06        -0.50000E+08         0.00000E+00
    0.00000E+00         0.00000E+00        -0.49826E+08
 
   -0.49755E+08         0.18156E+06         0.00000E+00
    0.18156E+06        -0.50000E+08         0.00000E+00
    0.00000E+00         0.00000E+00        -0.49826E+08
 
   -0.49755E+08         0.25419E+06         0.00000E+00
    0.25419E+06        -0.50000E+08         0.00000E+00
    0.00000E+00         0.00000E+00        -0.49826E+08
 
   -0.49756E+08         0.32683E+06         0.00000E+00
    0.32683E+06        -0.50000E+08         0.00000E+00
    0.00000E+00         0.00000E+00        -0.49826E+08
 
   -0.49756E+08         0.39948E+06         0.00000E+00
    0.39948E+06        -0.49999E+08         0.00000E+00
    0.00000E+00         0.00000E+00        -0.49826E+08
 
   -0.49757E+08         0.47215E+06         0.00000E+00
    0.47215E+06        -0.49999E+08         0.00000E+00
    0.00000E+00         0.00000E+00        -0.49826E+08
 
   -0.49757E+08         0.54483E+06         0.00000E+00
    0.54483E+06        -0.49999E+08         0.00000E+00
    0.00000E+00         0.00000E+00        -0.49826E+08
 
   -0.49758E+08         0.61752E+06         0.00000E+00
    0.61752E+06        -0.49999E+08         0.00000E+00
    0.00000E+00         0.00000E+00        -0.49826E+08
 
   -0.49759E+08         0.69023E+06         0.00000E+00
    0.69023E+06        -0.49998E+08         0.00000E+00
    0.00000E+00         0.00000E+00        -0.49826E+08
 
   -0.49760E+08         0.76296E+06         0.00000E+00
    0.76296E+06        -0.49998E+08         0.00000E+00
    0.00000E+00         0.00000E+00        -0.49826E+08
 
   -0.49761E+08         0.83571E+06         0.00000E+00
    0.83571E+06        -0.49998E+08         0.00000E+00
    0.00000E+00         0.00000E+00        -0.49827E+08
 
   -0.49761E+08         0.90848E+06         0.00000E+00
    0.90848E+06        -0.49997E+08         0.00000E+00
    0.00000E+00         0.00000E+00        -0.49827E+08
 
   -0.49762E+08         0.98128E+06         0.00000E+00
    0.98128E+06        -0.49997E+08         0.00000E+00
    0.00000E+00         0.00000E+00        -0.49827E+08
 
   -0.49763E+08         0.10541E+07         0.00000E+00
    0.10541E+07        -0.49996E+08         0.00000E+00
    0.00000E+00         0.00000E+00        -0.49827E+08
 
   -0.49765E+08         0.11270E+07         0.00000E+00
    0.11270E+07        -0.49996E+08         0.00000E+00
    0.00000E+00         0.00000E+00        -0.49827E+08
 
   -0.49766E+08         0.11998E+07         0.00000E+00
    0.11998E+07        -0.49995E+08         0.00000E+00
    0.00000E+00         0.00000E+00        -0.49827E+08
 
   -0.49767E+08         0.12727E+07         0.00000E+00
    0.12727E+07        -0.49995E+08         0.00000E+00
    0.00000E+00         0.00000E+00        -0.49827E+08
 
   -0.49768E+08         0.13457E+07         0.00000E+00
    0.13457E+07        -0.49994E+08         0.00000E+00
    0.00000E+00         0.00000E+00        -0.49827E+08
 
   -0.49770E+08         0.14187E+07         0.00000E+00
    0.14187E+07        -0.49994E+08         0.00000E+00
    0.00000E+00         0.00000E+00        -0.49828E+08
 
   -0.49771E+08         0.14917E+07         0.00000E+00
    0.14917E+07        -0.49993E+08         0.00000E+00
    0.00000E+00         0.00000E+00        -0.49828E+08
 
   -0.49773E+08         0.15647E+07         0.00000E+00
    0.15647E+07        -0.49992E+08         0.00000E+00
    0.00000E+00         0.00000E+00        -0.49828E+08
 
   -0.49774E+08         0.16378E+07         0.00000E+00
    0.16378E+07        -0.49992E+08         0.00000E+00
    0.00000E+00         0.00000E+00        -0.49828E+08
 
   -0.49776E+08         0.17109E+07         0.00000E+00
    0.17109E+07        -0.49991E+08         0.00000E+00
    0.00000E+00         0.00000E+00        -0.49828E+08
 
   -0.49777E+08         0.17841E+07         0.00000E+00
    0.17841E+07        -0.49990E+08         0.00000E+00
    0.00000E+00         0.00000E+00        -0.49828E+08
 
   -0.49779E+08         0.18573E+07         0.00000E+00
    0.18573E+07        -0.49989E+08         0.00000E+00
    0.00000E+00         0.00000E+00        -0.49829E+08
 
   -0.49781E+08         0.19306E+07         0.00000E+00
    0.19306E+07        -0.49989E+08         0.00000E+00
    0.00000E+00         0.00000E+00        -0.49829E+08
 
   -0.49783E+08         0.20039E+07         0.00000E+00
    0.20039E+07        -0.49988E+08         0.00000E+00
    0.00000E+00         0.00000E+00        -0.49829E+08
 
   -0.49784E+08         0.20773E+07         0.00000E+00
    0.20773E+07        -0.49987E+08         0.00000E+00
    0.00000E+00         0.00000E+00        -0.49829E+08
 
   -0.49786E+08         0.21507E+07         0.00000E+00
    0.21507E+07        -0.49986E+08         0.00000E+00
    0.00000E+00         0.00000E+00        -0.49829E+08
 
   -0.49788E+08         0.22241E+07         0.00000E+00
    0.22241E+07        -0.49985E+08         0.00000E+00
    0.00000E+00         0.00000E+00        -0.49830E+08
 
   -0.49790E+08         0.22976E+07         0.00000E+00
    0.22976E+07        -0.49984E+08         0.00000E+00
    0.00000E+00         0.00000E+00        -0.49830E+08
 
   -0.49792E+08         0.23712E+07         0.00000E+00
    0.23712E+07        -0.49983E+08         0.00000E+00
    0.00000E+00         0.00000E+00        -0.49830E+08
 
   -0.49795E+08         0.24448E+07         0.00000E+00
    0.24448E+07        -0.49982E+08         0.00000E+00
    0.00000E+00         0.00000E+00        -0.49830E+08
 
   -0.49797E+08         0.25185E+07         0.00000E+00
    0.25185E+07        -0.49981E+08         0.00000E+00
    0.00000E+00         0.00000E+00        -0.49830E+08
 
   -0.49799E+08         0.25922E+07         0.00000E+00
    0.25922E+07        -0.49980E+08         0.00000E+00
    0.00000E+00         0.00000E+00        -0.49831E+08
 
   -0.49801E+08         0.26660E+07         0.00000E+00
    0.26660E+07        -0.49979E+08         0.00000E+00
    0.00000E+00         0.00000E+00        -0.49831E+08
 
   -0.49803E+08         0.27398E+07         0.00000E+00
    0.27398E+07        -0.49978E+08         0.00000E+00
    0.00000E+00         0.00000E+00        -0.49831E+08
 
   -0.49806E+08         0.28137E+07         0.00000E+00
    0.28137E+07        -0.49977E+08         0.00000E+00
    0.00000E+00         0.00000E+00        -0.49831E+08
 
   -0.49808E+08         0.28877E+07         0.00000E+00
    0.28877E+07        -0.49976E+08         0.00000E+00
    0.00000E+00         0.00000E+00        -0.49832E+08
 
   -0.49810E+08         0.29617E+07         0.00000E+00
    0.29617E+07        -0.49975E+08         0.00000E+00
    0.00000E+00         0.00000E+00        -0.49832E+08
 
   -0.49813E+08         0.30358E+07         0.00000E+00
    0.30358E+07        -0.49974E+08         0.00000E+00
    0.00000E+00         0.00000E+00        -0.49832E+08
 
   -0.49815E+08         0.31100E+07         0.00000E+00
    0.31100E+07        -0.49973E+08         0.00000E+00
    0.00000E+00         0.00000E+00        -0.49833E+08
 
   -0.49818E+08         0.31842E+07         0.00000E+00
    0.31842E+07        -0.49972E+08         0.00000E+00
    0.00000E+00         0.00000E+00        -0.49833E+08
 
   -0.49820E+08         0.32585E+07         0.00000E+00
    0.32585E+07        -0.49970E+08         0.00000E+00
    0.00000E+00         0.00000E+00        -0.49833E+08
 
   -0.49823E+08         0.33328E+07         0.00000E+00
    0.33328E+07        -0.49969E+08         0.00000E+00
    0.00000E+00         0.00000E+00        -0.49833E+08
 
   -0.49825E+08         0.34072E+07         0.00000E+00
    0.34072E+07        -0.49968E+08         0.00000E+00
    0.00000E+00         0.00000E+00        -0.49834E+08
 
   -0.49828E+08         0.34817E+07         0.00000E+00
    0.34817E+07        -0.49967E+08         0.00000E+00
    0.00000E+00         0.00000E+00        -0.49834E+08
 
   -0.49831E+08         0.35563E+07         0.00000E+00
    0.35563E+07        -0.49966E+08         0.00000E+00
    0.00000E+00         0.00000E+00        -0.49834E+08
 
   -0.49833E+08         0.36309E+07         0.00000E+00
    0.36309E+07        -0.49965E+08         0.00000E+00
    0.00000E+00         0.00000E+00        -0.49834E+08
 
   -0.49391E+08         0.36389E+05         0.00000E+00
    0.36389E+05        -0.50000E+08         0.00000E+00
    0.00000E+00         0.00000E+00        -0.49453E+08
 
   -0.49391E+08         0.10917E+06         0.00000E+00
    0.10917E+06        -0.50000E+08         0.00000E+00
    0.00000E+00         0.00000E+00        -0.49453E+08
 
   -0.49392E+08         0.18196E+06         0.00000E+00
    0.18196E+06        -0.50000E+08         0.00000E+00
    0.00000E+00         0.00000E+00        -0.49453E+08
 
   -0.49392E+08         0.25475E+06         0.00000E+00
    0.25475E+06        -0.50000E+08         0.00000E+00
    0.00000E+00         0.00000E+00        -0.49454E+08
 
   -0.49392E+08         0.32755E+06         0.00000E+00
    0.32755E+06        -0.50000E+08         0.00000E+00
    0.00000E+00         0.00000E+00        -0.49454E+08
 
   -0.49393E+08         0.40037E+06         0.00000E+00
    0.40037E+06        -0.50000E+08         0.00000E+00
    0.00000E+00         0.00000E+00        -0.49454E+08
 
   -0.49393E+08         0.47319E+06         0.00000E+00
    0.47319E+06        -0.49999E+08         0.00000E+00
    0.00000E+00         0.00000E+00        -0.49454E+08
 
   -0.49394E+08         0.54602E+06         0.00000E+00
    0.54602E+06        -0.49999E+08         0.00000E+00
    0.00000E+00         0.00000E+00        -0.49454E+08
 
   -0.49394E+08         0.61887E+06         0.00000E+00
    0.61887E+06        -0.49999E+08         0.00000E+00
    0.00000E+00         0.00000E+00        -0.49454E+08
 
   -0.49395E+08         0.69174E+06         0.00000E+00
    0.69174E+06        -0.49999E+08         0.00000E+00
    0.00000E+00         0.00000E+00        -0.49454E+08
 
   -0.49396E+08         0.76462E+06         0.00000E+00
    0.76462E+06        -0.49998E+08         0.00000E+00
    0.00000E+00         0.00000E+00        -0.49454E+08
 
   -0.49396E+08         0.83752E+06         0.00000E+00
    0.83752E+06        -0.49998E+08         0.00000E+00
    0.00000E+00         0.00000E+00        -0.49454E+08
 
   -0.49397E+08         0.91045E+06         0.00000E+00
    0.91045E+06        -0.49998E+08         0.00000E+00
    0.00000E+00         0.00000E+00        -0.49454E+08
 
   -0.49398E+08         0.98339E+06         0.00000E+00
    0.98339E+06        -0.49997E+08         0.00000E+00
    0.00000E+00         0.00000E+00        -0.49454E+08
 
   -0.49399E+08         0.10564E+07         0.00000E+00
    0.10564E+07        -0.49997E+08         0.00000E+00
    0.00000E+00         0.00000E+00        -0.49454E+08
 
   -0.49400E+08         0.11294E+07         0.00000E+00
    0.11294E+07        -0.49996E+08         0.00000E+00
    0.00000E+00         0.00000E+00        -0.49454E+08
 
   -0.49401E+08         0.12024E+07         0.00000E+00
    0.12024E+07        -0.49996E+08         0.00000E+00
    0.00000E+00         0.00000E+00        -0.49455E+08
 
   -0.49402E+08         0.12754E+07         0.00000E+00
    0.12754E+07        -0.49996E+08         0.00000E+00
    0.00000E+00         0.00000E+00        -0.49455E+08
 
   -0.49403E+08         0.13485E+07         0.00000E+00
    0.13485E+07        -0.49995E+08         0.00000E+00
    0.00000E+00         0.00000E+00        -0.49455E+08
 
   -0.49404E+08         0.14216E+07         0.00000E+00
    0.14216E+07        -0.49994E+08         0.00000E+00
    0.00000E+00         0.00000E+00        -0.49455E+08
 
   -0.49406E+08         0.14948E+07         0.00000E+00
    0.14948E+07        -0.49994E+08         0.00000E+00
    0.00000E+00         0.00000E+00        -0.49455E+08
 
   -0.49407E+08         0.15680E+07         0.00000E+00
    0.15680E+07        -0.49993E+08         0.00000E+00
    0.00000E+00         0.00000E+00        -0.49455E+08
 
   -0.49408E+08         0.16412E+07         0.00000E+00
    0.16412E+07        -0.49993E+08         0.00000E+00
    0.00000E+00         0.00000E+00        -0.49455E+08
 
   -0.49410E+08         0.17144E+07         0.00000E+00
    0.17144E+07        -0.49992E+08         0.00000E+00
    0.00000E+00         0.00000E+00        -0.49456E+08
 
   -0.49411E+08         0.17877E+07         0.00000E+00
    0.17877E+07        -0.49991E+08         0.00000E+00
    0.00000E+00         0.00000E+00        -0.49456E+08
 
   -0.49413E+08         0.18611E+07         0.00000E+00
    0.18611E+07        -0.49991E+08         0.00000E+00
    0.00000E+00         0.00000E+00        -0.49456E+08
 
   -0.49414E+08         0.19344E+07         0.00000E+00
    0.19344E+07        -0.49990E+08         0.00000E+00
    0.00000E+00         0.00000E+00        -0.49456E+08
 
   -0.49416E+08         0.20079E+07         0.00000E+00
    0.20079E+07        -0.49989E+08         0.00000E+00
    0.00000E+00         0.00000E+00        -0.49456E+08
 
   -0.49417E+08         0.20813E+07         0.00000E+00
    0.20813E+07        -0.49989E+08         0.00000E+00
    0.00000E+00         0.00000E+00        -0.49456E+08
 
   -0.49419E+08         0.21548E+07         0.00000E+00
    0.21548E+07        -0.49988E+08         0.00000E+00
    0.00000E+00         0.00000E+00        -0.49457E+08
 
   -0.49421E+08         0.22284E+07         0.00000E+00
    0.22284E+07        -0.49987E+08         0.00000E+00
    0.00000E+00         0.00000E+00        -0.49457E+08
 
   -0.49422E+08         0.23020E+07         0.00000E+00
    0.23020E+07        -0.49986E+08         0.00000E+00
    0.00000E+00         0.00000E+00        -0.49457E+08
 
   -0.49424E+08         0.23757E+07         0.00000E+00
    0.23757E+07        -0.49985E+08         0.00000E+00
    0.00000E+00         0.00000E+00        -0.49457E+08
 
   -0.49426E+08         0.24494E+07         0.00000E+00
    0.24494E+07        -0.49984E+08         0.00000E+00
    0.00000E+00         0.00000E+00        -0.49457E+08
 
   -0.49428E+08         0.25231E+07         0.00000E+00
    0.25231E+07        -0.49984E+08         0.00000E+00
    0.00000E+00         0.00000E+00        -0.49457E+08
 
   -0.49430E+08         0.25970E+07         0.00000E+00
    0.25970E+07        -0.49983E+08         0.00000E+00
    0.00000E+00         0.00000E+00        -0.49458E+08
 
   -0.49432E+08         0.26708E+07         0.00000E+00
    0.26708E+07        -0.49982E+08         0.00000E+00
    0.00000E+00         0.00000E+00        -0.49458E+08
 
   -0.49434E+08         0.27448E+07         0.00000E+00
    0.27448E+07        -0.49981E+08         0.00000E+00
    0.00000E+00         0.00000E+00        -0.49458E+08
 
   -0.49436E+08         0.28187E+07         0.00000E+00
    0.28187E+07        -0.49980E+08         0.00000E+00
    0.00000E+00         0.00000E+00        -0.49458E+08
 
   -0.49438E+08         0.28928E+07         0.00000E+00
    0.28928E+07        -0.49979E+08         0.00000E+00
    0.00000E+00         0.00000E+00        -0.49459E+08
 
   -0.49440E+08         0.29669E+07         0.00000E+00
    0.29669E+07        -0.49978E+08         0.00000E+00
    0.00000E+00         0.00000E+00        -0.49459E+08
 
   -0.49442E+08         0.30410E+07         0.00000E+00
    0.30410E+07        -0.49977E+08         0.00000E+00
    0.00000E+00         0.00000E+00        -0.49459E+08
 
   -0.49444E+08         0.31152E+07         0.00000E+00
    0.31152E+07        -0.49976E+08         0.00000E+00
    0.00000E+00         0.00000E+00        -0.49459E+08
 
   -0.49446E+08         0.31895E+07         0.00000E+00
    0.31895E+07        -0.49975E+08         0.00000E+00
    0.00000E+00         0.00000E+00        -0.49459E+08
 
   -0.49449E+08         0.32638E+07         0.00000E+00
    0.32638E+07        -0.49974E+08         0.00000E+00
    0.00000E+00         0.00000E+00        -0.49460E+08
 
   -0.49451E+08         0.33382E+07         0.00000E+00
    0.33382E+07        -0.49973E+08         0.00000E+00
    0.00000E+00         0.00000E+00        -0.49460E+08
 
   -0.49453E+08         0.34127E+07         0.00000E+00
    0.34127E+07        -0.49972E+08         0.00000E+00
    0.00000E+00         0.00000E+00        -0.49460E+08
 
   -0.49455E+08         0.34872E+07         0.00000E+00
    0.34872E+07        -0.49971E+08         0.00000E+00
    0.00000E+00         0.00000E+00        -0.49460E+08
 
   -0.49458E+08         0.35618E+07         0.00000E+00
    0.35618E+07        -0.49970E+08         0.00000E+00
    0.00000E+00         0.00000E+00        -0.49461E+08
 
   -0.49460E+08         0.36365E+07         0.00000E+00
    0.36365E+07        -0.49969E+08         0.00000E+00
    0.00000E+00         0.00000E+00        -0.49461E+08
 
   -0.49027E+08         0.36459E+05         0.00000E+00
    0.36459E+05        -0.50000E+08         0.00000E+00
    0.00000E+00         0.00000E+00        -0.49081E+08
 
   -0.49027E+08         0.10938E+06         0.00000E+00
    0.10938E+06        -0.50000E+08         0.00000E+00
    0.00000E+00         0.00000E+00        -0.49081E+08
 
   -0.49027E+08         0.18231E+06         0.00000E+00
    0.18231E+06        -0.50000E+08         0.00000E+00
    0.00000E+00         0.00000E+00        -0.49081E+08
 
   -0.49027E+08         0.25524E+06         0.00000E+00
    0.25524E+06        -0.50000E+08         0.00000E+00
    0.00000E+00         0.00000E+00        -0.49081E+08
 
   -0.49028E+08         0.32818E+06         0.00000E+00
    0.32818E+06        -0.50000E+08         0.00000E+00
    0.00000E+00         0.00000E+00        -0.49081E+08
 
   -0.49028E+08         0.40113E+06         0.00000E+00
    0.40113E+06        -0.50000E+08         0.00000E+00
    0.00000E+00         0.00000E+00        -0.49081E+08
 
   -0.49029E+08         0.47409E+06         0.00000E+00
    0.47409E+06        -0.49999E+08         0.00000E+00
    0.00000E+00         0.00000E+00        -0.49081E+08
 
   -0.49029E+08         0.54706E+06         0.00000E+00
    0.54706E+06        -0.49999E+08         0.00000E+00
    0.00000E+00         0.00000E+00        -0.49081E+08
 
   -0.49030E+08         0.62005E+06         0.00000E+00
    0.62005E+06        -0.49999E+08         0.00000E+00
    0.00000E+00         0.00000E+00        -0.49081E+08
 
   -0.49030E+08         0.69305E+06         0.00000E+00
    0.69305E+06        -0.49999E+08         0.00000E+00
    0.00000E+00         0.00000E+00        -0.49081E+08
 
   -0.49031E+08         0.76606E+06         0.00000E+00
    0.76606E+06        -0.49999E+08         0.00000E+00
    0.00000E+00         0.00000E+00        -0.49081E+08
 
   -0.49031E+08         0.83910E+06         0.00000E+00
    0.83910E+06        -0.49998E+08         0.00000E+00
    0.00000E+00         0.00000E+00        -0.49081E+08
 
   -0.49032E+08         0.91215E+06         0.00000E+00
    0.91215E+06        -0.49998E+08         0.00000E+00
    0.00000E+00         0.00000E+00        -0.49081E+08
 
   -0.49033E+08         0.98523E+06         0.00000E+00
    0.98523E+06        -0.49998E+08         0.00000E+00
    0.00000E+00         0.00000E+00        -0.49081E+08
 
   -0.49034E+08         0.10583E+07         0.00000E+00
    0.10583E+07        -0.49997E+08         0.00000E+00
    0.00000E+00         0.00000E+00        -0.49082E+08
 
   -0.49035E+08         0.11314E+07         0.00000E+00
    0.11314E+07        -0.49997E+08         0.00000E+00
    0.00000E+00         0.00000E+00        -0.49082E+08
 
   -0.49035E+08         0.12046E+07         0.00000E+00
    0.12046E+07        -0.49997E+08         0.00000E+00
    0.00000E+00         0.00000E+00        -0.49082E+08
 
   -0.49036E+08         0.12778E+07         0.00000E+00
    0.12778E+07        -0.49996E+08         0.00000E+00
    0.00000E+00         0.00000E+00        -0.49082E+08
 
   -0.49037E+08         0.13510E+07         0.00000E+00
    0.13510E+07        -0.49996E+08         0.00000E+00
    0.00000E+00         0.00000E+00        -0.49082E+08
 
   -0.49038E+08         0.14242E+07         0.00000E+00
    0.14242E+07        -0.49995E+08         0.00000E+00
    0.00000E+00         0.00000E+00        -0.49082E+08
 
   -0.49039E+08         0.14975E+07         0.00000E+00
    0.14975E+07        -0.49995E+08         0.00000E+00
    0.00000E+00         0.00000E+00        -0.49082E+08
 
   -0.49041E+08         0.15708E+07         0.00000E+00
    0.15708E+07        -0.49994E+08         0.00000E+00
    0.00000E+00         0.00000E+00        -0.49082E+08
 
   -0.49042E+08         0.16441E+07         0.00000E+00
    0.16441E+07        -0.49994E+08         0.00000E+00
    0.00000E+00         0.00000E+00        -0.49082E+08
 
   -0.49043E+08         0.17175E+07         0.00000E+00
    0.17175E+07        -0.49993E+08         0.00000E+00
    0.00000E+00         0.00000E+00        -0.49083E+08
 
   -0.49044E+08         0.17909E+07         0.00000E+00
    0.17909E+07        -0.49993E+08         0.00000E+00
    0.00000E+00         0.00000E+00        -0.49083E+08
 
   -0.49046E+08         0.18643E+07         0.00000E+00
    0.18643E+07        -0.49992E+08         0.00000E+00
    0.00000E+00         0.00000E+00        -0.49083E+08
 
   -0.49047E+08         0.19378E+07         0.00000E+00
    0.19378E+07        -0.49991E+08         0.00000E+00
    0.00000E+00         0.00000E+00        -0.49083E+08
 
   -0.49048E+08         0.20113E+07         0.00000E+00
    0.20113E+07        -0.49991E+08         0.00000E+00
    0.00000E+00         0.00000E+00        -0.49083E+08
 
   -0.49050E+08         0.20849E+07         0.00000E+00
    0.20849E+07        -0.49990E+08         0.00000E+00
    0.00000E+00         0.00000E+00        -0.49083E+08
 
   -0.49051E+08         0.21585E+07         0.00000E+00
    0.21585E+07        -0.49989E+08         0.00000E+00
    0.00000E+00         0.00000E+00        -0.49083E+08
 
   -0.49053E+08         0.22321E+07         0.00000E+00
    0.22321E+07        -0.49989E+08         0.00000E+00
    0.00000E+00         0.00000E+00        -0.49084E+08
 
   -0.49054E+08         0.23058E+07         0.00000E+00
    0.23058E+07        -0.49988E+08         0.00000E+00
    0.00000E+00         0.00000E+00        -0.49084E+08
 
   -0.49056E+08         0.23796E+07         0.00000E+00
    0.23796E+07        -0.49987E+08         0.00000E+00
    0.00000E+00         0.00000E+00        -0.49084E+08
 
   -0.49057E+08         0.24534E+07         0.00000E+00
    0.24534E+07        -0.49987E+08         0.00000E+00
    0.00000E+00         0.00000E+00        -0.49084E+08
 
   -0.49059E+08         0.25272E+07         0.00000E+00
    0.25272E+07        -0.49986E+08         0.00000E+00
    0.00000E+00         0.00000E+00        -0.49084E+08
 
   -0.49060E+08         0.26011E+07         0.00000E+00
    0.26011E+07        -0.49985E+08         0.00000E+00
    0.00000E+00         0.00000E+00        -0.49084E+08
 
   -0.49062E+08         0.26750E+07         0.00000E+00
    0.26750E+07        -0.49984E+08         0.00000E+00
    0.00000E+00         0.00000E+00        -0.49085E+08
 
   -0.49064E+08         0.27490E+07         0.00000E+00
    0.27490E+07        -0.49984E+08         0.00000E+00
    0.00000E+00         0.00000E+00        -0.49085E+08
 
   -0.49066E+08         0.28231E+07         0.00000E+00
    0.28231E+07        -0.49983E+08         0.00000E+00
    0.00000E+00         0.00000E+00        -0.49085E+08
 
   -0.49067E+08         0.28972E+07         0.00000E+00
    0.28972E+07        -0.49982E+08         0.00000E+00
    0.00000E+00         0.00000E+00        -0.49085E+08
 
   -0.49069E+08         0.29713E+07         0.00000E+00
    0.29713E+07        -0.49981E+08         0.00000E+00
    0.00000E+00         0.00000E+00        -0.49085E+08
 
   -0.49071E+08         0.30455E+07         0.00000E+00
    0.30455E+07        -0.49980E+08         0.00000E+00
    0.00000E+00         0.00000E+00        -0.49086E+08
 
   -0.49073E+08         0.31198E+07         0.00000E+00
    0.31198E+07        -0.49979E+08         0.00000E+00
    0.00000E+00         0.00000E+00        -0.49086E+08
 
   -0.49075E+08         0.31941E+07         0.00000E+00
    0.31941E+07        -0.49979E+08         0.00000E+00
    0.00000E+00         0.00000E+00        -0.49086E+08
 
   -0.49077E+08         0.32685E+07         0.00000E+00
    0.32685E+07        -0.49978E+08         0.00000E+00
    0.00000E+00         0.00000E+00        -0.49086E+08
 
   -0.49079E+08         0.33429E+07         0.00000E+00
    0.33429E+07        -0.49977E+08         0.00000E+00
    0.00000E+00         0.00000E+00        -0.49086E+08
 
   -0.49080E+08         0.34174E+07         0.00000E+00
    0.34174E+07        -0.49976E+08         0.00000E+00
    0.00000E+00         0.00000E+00        -0.49087E+08
 
   -0.49082E+08         0.34920E+07         0.00000E+00
    0.34920E+07        -0.49975E+08         0.00000E+00
    0.00000E+00         0.00000E+00        -0.49087E+08
 
   -0.49084E+08         0.35666E+07         0.00000E+00
    0.35666E+07        -0.49974E+08         0.00000E+00
    0.00000E+00         0.00000E+00        -0.49087E+08
 
   -0.49086E+08         0.36413E+07         0.00000E+00
    0.36413E+07        -0.49973E+08         0.00000E+00
    0.00000E+00         0.00000E+00        -0.49087E+08
 
   -0.48662E+08         0.36520E+05         0.00000E+00
    0.36520E+05        -0.50000E+08         0.00000E+00
    0.00000E+00         0.00000E+00        -0.48708E+08
 
   -0.48662E+08         0.10956E+06         0.00000E+00
    0.10956E+06        -0.50000E+08         0.00000E+00
    0.00000E+00         0.00000E+00        -0.48708E+08
 
   -0.48662E+08         0.18261E+06         0.00000E+00
    0.18261E+06        -0.50000E+08         0.00000E+00
    0.00000E+00         0.00000E+00        -0.48708E+08
 
   -0.48662E+08         0.25566E+06         0.00000E+00
    0.25566E+06        -0.50000E+08         0.00000E+00
    0.00000E+00         0.00000E+00        -0.48708E+08
 
   -0.48663E+08         0.32872E+06         0.00000E+00
    0.32872E+06        -0.50000E+08         0.00000E+00
    0.00000E+00         0.00000E+00        -0.48708E+08
 
   -0.48663E+08         0.40179E+06         0.00000E+00
    0.40179E+06        -0.50000E+08         0.00000E+00
    0.00000E+00         0.00000E+00        -0.48708E+08
 
   -0.48663E+08         0.47486E+06         0.00000E+00
    0.47486E+06        -0.50000E+08         0.00000E+00
    0.00000E+00         0.00000E+00        -0.48708E+08
 
   -0.48664E+08         0.54795E+06         0.00000E+00
    0.54795E+06        -0.49999E+08         0.00000E+00
    0.00000E+00         0.00000E+00        -0.48708E+08
 
   -0.48664E+08         0.62105E+06         0.00000E+00
    0.62105E+06        -0.49999E+08         0.00000E+00
    0.00000E+00         0.00000E+00        -0.48708E+08
 
   -0.48665E+08         0.69417E+06         0.00000E+00
    0.69417E+06        -0.49999E+08         0.00000E+00
    0.00000E+00         0.00000E+00        -0.48708E+08
 
   -0.48665E+08         0.76730E+06         0.00000E+00
    0.76730E+06        -0.49999E+08         0.00000E+00
    0.00000E+00         0.00000E+00        -0.48708E+08
 
   -0.48666E+08         0.84045E+06         0.00000E+00
    0.84045E+06        -0.49999E+08         0.00000E+00
    0.00000E+00         0.00000E+00        -0.48708E+08
 
   -0.48667E+08         0.91361E+06         0.00000E+00
    0.91361E+06        -0.49998E+08         0.00000E+00
    0.00000E+00         0.00000E+00        -0.48709E+08
 
   -0.48667E+08         0.98680E+06         0.00000E+00
    0.98680E+06        -0.49998E+08         0.00000E+00
    0.00000E+00         0.00000E+00        -0.48709E+08
 
   -0.48668E+08         0.10600E+07         0.00000E+00
    0.10600E+07        -0.49998E+08         0.00000E+00
    0.00000E+00         0.00000E+00        -0.48709E+08
 
   -0.48669E+08         0.11332E+07         0.00000E+00
    0.11332E+07        -0.49997E+08         0.00000E+00
    0.00000E+00         0.00000E+00        -0.48709E+08
 
   -0.48669E+08         0.12065E+07         0.00000E+00
    0.12065E+07        -0.49997E+08         0.00000E+00
    0.00000E+00         0.00000E+00        -0.48709E+08
 
   -0.48670E+08         0.12798E+07         0.00000E+00
    0.12798E+07        -0.49997E+08         0.00000E+00
    0.00000E+00         0.00000E+00        -0.48709E+08
 
   -0.48671E+08         0.13531E+07         0.00000E+00
    0.13531E+07        -0.49996E+08         0.00000E+00
    0.00000E+00         0.00000E+00        -0.48709E+08
 
   -0.48672E+08         0.14264E+07         0.00000E+00
    0.14264E+07        -0.49996E+08         0.00000E+00
    0.00000E+00         0.00000E+00        -0.48709E+08
 
   -0.48673E+08         0.14998E+07         0.00000E+00
    0.14998E+07        -0.49996E+08         0.00000E+00
    0.00000E+00         0.00000E+00        -0.48709E+08
 
   -0.48674E+08         0.15732E+07         0.00000E+00
    0.15732E+07        -0.49995E+08         0.00000E+00
    0.00000E+00         0.00000E+00        -0.48709E+08
 
   -0.48675E+08         0.16466E+07         0.00000E+00
    0.16466E+07        -0.49995E+08         0.00000E+00
    0.00000E+00         0.00000E+00        -0.48709E+08
 
   -0.48676E+08         0.17201E+07         0.00000E+00
    0.17201E+07        -0.49994E+08         0.00000E+00
    0.00000E+00         0.00000E+00        -0.48710E+08
 
   -0.48677E+08         0.17936E+07         0.00000E+00
    0.17936E+07        -0.49994E+08         0.00000E+00
    0.00000E+00         0.00000E+00        -0.48710E+08
 
   -0.48678E+08         0.18671E+07         0.00000E+00
    0.18671E+07        -0.49993E+08         0.00000E+00
    0.00000E+00         0.00000E+00        -0.48710E+08
 
   -0.48679E+08         0.19407E+07         0.00000E+00
    0.19407E+07        -0.49993E+08         0.00000E+00
    0.00000E+00         0.00000E+00        -0.48710E+08
 
   -0.48680E+08         0.20143E+07         0.00000E+00
    0.20143E+07        -0.49992E+08         0.00000E+00
    0.00000E+00         0.00000E+00        -0.48710E+08
 
   -0.48681E+08         0.20879E+07         0.00000E+00
    0.20879E+07        -0.49992E+08         0.00000E+00
    0.00000E+00         0.00000E+00        -0.48710E+08
 
   -0.48683E+08         0.21616E+07         0.00000E+00
    0.21616E+07        -0.49991E+08         0.00000E+00
    0.00000E+00         0.00000E+00        -0.48710E+08
 
   -0.48684E+08         0.22353E+07         0.00000E+00
    0.22353E+07        -0.49990E+08         0.00000E+00
    0.00000E+00         0.00000E+00        -0.48710E+08
 
   -0.48685E+08         0.23091E+07         0.00000E+00
    0.23091E+07        -0.49990E+08         0.00000E+00
    0.00000E+00         0.00000E+00        -0.48711E+08
 
   -0.48687E+08         0.23829E+07         0.00000E+00
    0.23829E+07        -0.49989E+08         0.00000E+00
    0.00000E+00         0.00000E+00        -0.48711E+08
 
   -0.48688E+08         0.24568E+07         0.00000E+00
    0.24568E+07        -0.49989E+08         0.00000E+00
    0.00000E+00         0.00000E+00        -0.48711E+08
 
   -0.48689E+08         0.25307E+07         0.00000E+00
    0.25307E+07        -0.49988E+08         0.00000E+00
    0.00000E+00         0.00000E+00        -0.48711E+08
 
   -0.48691E+08         0.26046E+07         0.00000E+00
    0.26046E+07        -0.49987E+08         0.00000E+00
    0.00000E+00         0.00000E+00        -0.48711E+08
 
   -0.48692E+08         0.26786E+07         0.00000E+00
    0.26786E+07        -0.49987E+08         0.00000E+00
    0.00000E+00         0.00000E+00        -0.48711E+08
 
   -0.48694E+08         0.27527E+07         0.00000E+00
    0.27527E+07        -0.49986E+08         0.00000E+00
    0.00000E+00         0.00000E+00        -0.48711E+08
 
   -0.48695E+08         0.28268E+07         0.00000E+00
    0.28268E+07        -0.49985E+08         0.00000E+00
    0.00000E+00         0.00000E+00        -0.48712E+08
 
   -0.48697E+08         0.29010E+07         0.00000E+00
    0.29010E+07        -0.49985E+08         0.00000E+00
    0.00000E+00         0.00000E+00        -0.48712E+08
 
   -0.48698E+08         0.29752E+07         0.00000E+00
    0.29752E+07        -0.49984E+08         0.00000E+00
    0.00000E+00         0.00000E+00        -0.48712E+08
 
   -0.48700E+08         0.30494E+07         0.00000E+00
    0.30494E+07        -0.49983E+08         0.00000E+00
    0.00000E+00         0.00000E+00        -0.48712E+08
 
   -0.48701E+08         0.31237E+07         0.00000E+00
    0.31237E+07        -0.49983E+08         0.00000E+00
    0.00000E+00         0.00000E+00        -0.48712E+08
 
   -0.48703E+08         0.31981E+07         0.00000E+00
    0.31981E+07        -0.49982E+08         0.00000E+00
    0.00000E+00         0.00000E+00        -0.48712E+08
 
   -0.48704E+08         0.32725E+07         0.00000E+00
    0.32725E+07        -0.49981E+08         0.00000E+00
    0.00000E+00         0.00000E+00        -0.48713E+08
 
   -0.48706E+08         0.33470E+07         0.00000E+00
    0.33470E+07        -0.49980E+08         0.00000E+00
    0.00000E+00         0.00000E+00        -0.48713E+08
 
   -0.48708E+08         0.34215E+07         0.00000E+00
    0.34215E+07        -0.49980E+08         0.00000E+00
    0.00000E+00         0.00000E+00        -0.48713E+08
 
   -0.48709E+08         0.34961E+07         0.00000E+00
    0.34961E+07        -0.49979E+08         0.00000E+00
    0.00000E+00         0.00000E+00        -0.48713E+08
 
   -0.48711E+08         0.35707E+07         0.00000E+00
    0.35707E+07        -0.49978E+08         0.00000E+00
    0.00000E+00         0.00000E+00        -0.48713E+08
 
   -0.48713E+08         0.36454E+07         0.00000E+00
    0.36454E+07        -0.49977E+08         0.00000E+00
    0.00000E+00         0.00000E+00        -0.48714E+08
 
   -0.48296E+08         0.36570E+05         0.00000E+00
    0.36570E+05        -0.50000E+08         0.00000E+00
    0.00000E+00         0.00000E+00        -0.48335E+08
 
   -0.48297E+08         0.10971E+06         0.00000E+00
    0.10971E+06        -0.50000E+08         0.00000E+00
    0.00000E+00         0.00000E+00        -0.48335E+08
 
   -0.48297E+08         0.18286E+06         0.00000E+00
    0.18286E+06        -0.50000E+08         0.00000E+00
    0.00000E+00         0.00000E+00        -0.48335E+08
 
   -0.48297E+08         0.25601E+06         0.00000E+00
    0.25601E+06        -0.50000E+08         0.00000E+00
    0.00000E+00         0.00000E+00        -0.48335E+08
 
   -0.48297E+08         0.32917E+06         0.00000E+00
    0.32917E+06        -0.50000E+08         0.00000E+00
    0.00000E+00         0.00000E+00        -0.48335E+08
 
   -0.48297E+08         0.40234E+06         0.00000E+00
    0.40234E+06        -0.50000E+08         0.00000E+00
    0.00000E+00         0.00000E+00        -0.48335E+08
 
   -0.48298E+08         0.47552E+06         0.00000E+00
    0.47552E+06        -0.50000E+08         0.00000E+00
    0.00000E+00         0.00000E+00        -0.48335E+08
 
   -0.48298E+08         0.54870E+06         0.00000E+00
    0.54870E+06        -0.49999E+08         0.00000E+00
    0.00000E+00         0.00000E+00        -0.48335E+08
 
   -0.48299E+08         0.62190E+06         0.00000E+00
    0.62190E+06        -0.49999E+08         0.00000E+00
    0.00000E+00         0.00000E+00        -0.48335E+08
 
   -0.48299E+08         0.69511E+06         0.00000E+00
    0.69511E+06        -0.49999E+08         0.00000E+00
    0.00000E+00         0.00000E+00        -0.48335E+08
 
   -0.48299E+08         0.76834E+06         0.00000E+00
    0.76834E+06        -0.49999E+08         0.00000E+00
    0.00000E+00         0.00000E+00        -0.48335E+08
 
   -0.48300E+08         0.84158E+06         0.00000E+00
    0.84158E+06        -0.49999E+08         0.00000E+00
    0.00000E+00         0.00000E+00        -0.48335E+08
 
   -0.48300E+08         0.91484E+06         0.00000E+00
    0.91484E+06        -0.49999E+08         0.00000E+00
    0.00000E+00         0.00000E+00        -0.48336E+08
 
   -0.48301E+08         0.98812E+06         0.00000E+00
    0.98812E+06        -0.49998E+08         0.00000E+00
    0.00000E+00         0.00000E+00        -0.48336E+08
 
   -0.48302E+08         0.10614E+07         0.00000E+00
    0.10614E+07        -0.49998E+08         0.00000E+00
    0.00000E+00         0.00000E+00        -0.48336E+08
 
   -0.48302E+08         0.11347E+07         0.00000E+00
    0.11347E+07        -0.49998E+08         0.00000E+00
    0.00000E+00         0.00000E+00        -0.48336E+08
 
   -0.48303E+08         0.12081E+07         0.00000E+00
    0.12081E+07        -0.49998E+08         0.00000E+00
    0.00000E+00         0.00000E+00        -0.48336E+08
 
   -0.48303E+08         0.12814E+07         0.00000E+00
    0.12814E+07        -0.49997E+08         0.00000E+00
    0.00000E+00         0.00000E+00        -0.48336E+08
 
   -0.48304E+08         0.13548E+07         0.00000E+00
    0.13548E+07        -0.49997E+08         0.00000E+00
    0.00000E+00         0.00000E+00        -0.48336E+08
 
   -0.48305E+08         0.14283E+07         0.00000E+00
    0.14283E+07        -0.49997E+08         0.00000E+00
    0.00000E+00         0.00000E+00        -0.48336E+08
 
   -0.48306E+08         0.15017E+07         0.00000E+00
    0.15017E+07        -0.49996E+08         0.00000E+00
    0.00000E+00         0.00000E+00        -0.48336E+08
 
   -0.48307E+08         0.15752E+07         0.00000E+00
    0.15752E+07        -0.49996E+08         0.00000E+00
    0.00000E+00         0.00000E+00        -0.48336E+08
 
   -0.48307E+08         0.16487E+07         0.00000E+00
    0.16487E+07        -0.49996E+08         0.00000E+00
    0.00000E+00         0.00000E+00        -0.48336E+08
 
   -0.48308E+08         0.17222E+07         0.00000E+00
    0.17222E+07        -0.49995E+08         0.00000E+00
    0.00000E+00         0.00000E+00        -0.48336E+08
 
   -0.48309E+08         0.17958E+07         0.00000E+00
    0.17958E+07        -0.49995E+08         0.00000E+00
    0.00000E+00         0.00000E+00        -0.48336E+08
 
   -0.48310E+08         0.18694E+07         0.00000E+00
    0.18694E+07        -0.49994E+08         0.00000E+00
    0.00000E+00         0.00000E+00        -0.48337E+08
 
   -0.48311E+08         0.19431E+07         0.00000E+00
    0.19431E+07        -0.49994E+08         0.00000E+00
    0.00000E+00         0.00000E+00        -0.48337E+08
 
   -0.48312E+08         0.20167E+07         0.00000E+00
    0.20167E+07        -0.49993E+08         0.00000E+00
    0.00000E+00         0.00000E+00        -0.48337E+08
 
   -0.48313E+08         0.20905E+07         0.00000E+00
    0.20905E+07        -0.49993E+08         0.00000E+00
    0.00000E+00         0.00000E+00        -0.48337E+08
 
   -0.48314E+08         0.21642E+07         0.00000E+00
    0.21642E+07        -0.49993E+08         0.00000E+00
    0.00000E+00         0.00000E+00        -0.48337E+08
 
   -0.48315E+08         0.22380E+07         0.00000E+00
    0.22380E+07        -0.49992E+08         0.00000E+00
    0.00000E+00         0.00000E+00        -0.48337E+08
 
   -0.48316E+08         0.23119E+07         0.00000E+00
    0.23119E+07        -0.49992E+08         0.00000E+00
    0.00000E+00         0.00000E+00        -0.48337E+08
 
   -0.48317E+08         0.23857E+07         0.00000E+00
    0.23857E+07        -0.49991E+08         0.00000E+00
    0.00000E+00         0.00000E+00        -0.48337E+08
 
   -0.48318E+08         0.24597E+07         0.00000E+00
    0.24597E+07        -0.49991E+08         0.00000E+00
    0.00000E+00         0.00000E+00        -0.48337E+08
 
   -0.48320E+08         0.25336E+07         0.00000E+00
    0.25336E+07        -0.49990E+08         0.00000E+00
    0.00000E+00         0.00000E+00        -0.48338E+08
 
   -0.48321E+08         0.26076E+07         0.00000E+00
    0.26076E+07        -0.49989E+08         0.00000E+00
    0.00000E+00         0.00000E+00        -0.48338E+08
 
   -0.48322E+08         0.26817E+07         0.00000E+00
    0.26817E+07        -0.49989E+08         0.00000E+00
    0.00000E+00         0.00000E+00        -0.48338E+08
 
   -0.48323E+08         0.27558E+07         0.00000E+00
    0.27558E+07        -0.49988E+08         0.00000E+00
    0.00000E+00         0.00000E+00        -0.48338E+08
 
   -0.48324E+08         0.28299E+07         0.00000E+00
    0.28299E+07        -0.49988E+08         0.00000E+00
    0.00000E+00         0.00000E+00        -0.48338E+08
 
   -0.48326E+08         0.29041E+07         0.00000E+00
    0.29041E+07        -0.49987E+08         0.00000E+00
    0.00000E+00         0.00000E+00        -0.48338E+08
 
   -0.48327E+08         0.29784E+07         0.00000E+00
    0.29784E+07        -0.49987E+08         0.00000E+00
    0.00000E+00         0.00000E+00        -0.48338E+08
 
   -0.48328E+08         0.30527E+07         0.00000E+00
    0.30527E+07        -0.49986E+08         0.00000E+00
    0.00000E+00         0.00000E+00        -0.48339E+08
 
   -0.48329E+08         0.31270E+07         0.00000E+00
    0.31270E+07        -0.49985E+08         0.00000E+00
    0.00000E+00         0.00000E+00        -0.48339E+08
 
   -0.48331E+08         0.32014E+07         0.00000E+00
    0.32014E+07        -0.49985E+08         0.00000E+00
    0.00000E+00         0.00000E+00        -0.48339E+08
 
   -0.48332E+08         0.32759E+07         0.00000E+00
    0.32759E+07        -0.49984E+08         0.00000E+00
    0.00000E+00         0.00000E+00        -0.48339E+08
 
   -0.48334E+08         0.33504E+07         0.00000E+00
    0.33504E+07        -0.49984E+08         0.00000E+00
    0.00000E+00         0.00000E+00        -0.48339E+08
 
   -0.48335E+08         0.34249E+07         0.00000E+00
    0.34249E+07        -0.49983E+08         0.00000E+00
    0.00000E+00         0.00000E+00        -0.48339E+08
 
   -0.48336E+08         0.34995E+07         0.00000E+00
    0.34995E+07        -0.49982E+08         0.00000E+00
    0.00000E+00         0.00000E+00        -0.48339E+08
 
   -0.48338E+08         0.35742E+07         0.00000E+00
    0.35742E+07        -0.49982E+08         0.00000E+00
    0.00000E+00         0.00000E+00        -0.48340E+08
 
   -0.48339E+08         0.36489E+07         0.00000E+00
    0.36489E+07        -0.49981E+08         0.00000E+00
    0.00000E+00         0.00000E+00        -0.48340E+08
 
   -0.47931E+08         0.36612E+05         0.00000E+00
    0.36612E+05        -0.50000E+08         0.00000E+00
    0.00000E+00         0.00000E+00        -0.47962E+08
 
   -0.47931E+08         0.10984E+06         0.00000E+00
    0.10984E+06        -0.50000E+08         0.00000E+00
    0.00000E+00         0.00000E+00        -0.47962E+08
 
   -0.47931E+08         0.18307E+06         0.00000E+00
    0.18307E+06        -0.50000E+08         0.00000E+00
    0.00000E+00         0.00000E+00        -0.47962E+08
 
   -0.47931E+08         0.25630E+06         0.00000E+00
    0.25630E+06        -0.50000E+08         0.00000E+00
    0.00000E+00         0.00000E+00        -0.47962E+08
 
   -0.47931E+08         0.32954E+06         0.00000E+00
    0.32954E+06        -0.50000E+08         0.00000E+00
    0.00000E+00         0.00000E+00        -0.47962E+08
 
   -0.47931E+08         0.40279E+06         0.00000E+00
    0.40279E+06        -0.50000E+08         0.00000E+00
    0.00000E+00         0.00000E+00        -0.47962E+08
 
   -0.47932E+08         0.47605E+06         0.00000E+00
    0.47605E+06        -0.50000E+08         0.00000E+00
    0.00000E+00         0.00000E+00        -0.47962E+08
 
   -0.47932E+08         0.54932E+06         0.00000E+00
    0.54932E+06        -0.50000E+08         0.00000E+00
    0.00000E+00         0.00000E+00        -0.47962E+08
 
   -0.47932E+08         0.62259E+06         0.00000E+00
    0.62259E+06        -0.49999E+08         0.00000E+00
    0.00000E+00         0.00000E+00        -0.47962E+08
 
   -0.47933E+08         0.69588E+06         0.00000E+00
    0.69588E+06        -0.49999E+08         0.00000E+00
    0.00000E+00         0.00000E+00        -0.47962E+08
 
   -0.47933E+08         0.76919E+06         0.00000E+00
    0.76919E+06        -0.49999E+08         0.00000E+00
    0.00000E+00         0.00000E+00        -0.47962E+08
 
   -0.47933E+08         0.84251E+06         0.00000E+00
    0.84251E+06        -0.49999E+08         0.00000E+00
    0.00000E+00         0.00000E+00        -0.47962E+08
 
   -0.47934E+08         0.91585E+06         0.00000E+00
    0.91585E+06        -0.49999E+08         0.00000E+00
    0.00000E+00         0.00000E+00        -0.47962E+08
 
   -0.47934E+08         0.98920E+06         0.00000E+00
    0.98920E+06        -0.49999E+08         0.00000E+00
    0.00000E+00         0.00000E+00        -0.47962E+08
 
   -0.47935E+08         0.10626E+07         0.00000E+00
    0.10626E+07        -0.49998E+08         0.00000E+00
    0.00000E+00         0.00000E+00        -0.47963E+08
 
   -0.47935E+08         0.11360E+07         0.00000E+00
    0.11360E+07        -0.49998E+08         0.00000E+00
    0.00000E+00         0.00000E+00        -0.47963E+08
 
   -0.47936E+08         0.12094E+07         0.00000E+00
    0.12094E+07        -0.49998E+08         0.00000E+00
    0.00000E+00         0.00000E+00        -0.47963E+08
 
   -0.47936E+08         0.12828E+07         0.00000E+00
    0.12828E+07        -0.49998E+08         0.00000E+00
    0.00000E+00         0.00000E+00        -0.47963E+08
 
   -0.47937E+08         0.13563E+07         0.00000E+00
    0.13563E+07        -0.49998E+08         0.00000E+00
    0.00000E+00         0.00000E+00        -0.47963E+08
 
   -0.47938E+08         0.14298E+07         0.00000E+00
    0.14298E+07        -0.49997E+08         0.00000E+00
    0.00000E+00         0.00000E+00        -0.47963E+08
 
   -0.47938E+08         0.15033E+07         0.00000E+00
    0.15033E+07        -0.49997E+08         0.00000E+00
    0.00000E+00         0.00000E+00        -0.47963E+08
 
   -0.47939E+08         0.15768E+07         0.00000E+00
    0.15768E+07        -0.49997E+08         0.00000E+00
    0.00000E+00         0.00000E+00        -0.47963E+08
 
   -0.47940E+08         0.16504E+07         0.00000E+00
    0.16504E+07        -0.49996E+08         0.00000E+00
    0.00000E+00         0.00000E+00        -0.47963E+08
 
   -0.47940E+08         0.17240E+07         0.00000E+00
    0.17240E+07        -0.49996E+08         0.00000E+00
    0.00000E+00         0.00000E+00        -0.47963E+08
 
   -0.47941E+08         0.17977E+07         0.00000E+00
    0.17977E+07        -0.49996E+08         0.00000E+00
    0.00000E+00         0.00000E+00        -0.47963E+08
 
   -0.47942E+08         0.18713E+07         0.00000E+00
    0.18713E+07        -0.49995E+08         0.00000E+00
    0.00000E+00         0.00000E+00        -0.47963E+08
 
   -0.47943E+08         0.19450E+07         0.00000E+00
    0.19450E+07        -0.49995E+08         0.00000E+00
    0.00000E+00         0.00000E+00        -0.47963E+08
 
   -0.47943E+08         0.20188E+07         0.00000E+00
    0.20188E+07        -0.49995E+08         0.00000E+00
    0.00000E+00         0.00000E+00        -0.47963E+08
 
   -0.47944E+08         0.20926E+07         0.00000E+00
    0.20926E+07        -0.49994E+08         0.00000E+00
    0.00000E+00         0.00000E+00        -0.47964E+08
 
   -0.47945E+08         0.21664E+07         0.00000E+00
    0.21664E+07        -0.49994E+08         0.00000E+00
    0.00000E+00         0.00000E+00        -0.47964E+08
 
   -0.47946E+08         0.22402E+07         0.00000E+00
    0.22402E+07        -0.49994E+08         0.00000E+00
    0.00000E+00         0.00000E+00        -0.47964E+08
 
   -0.47947E+08         0.23141E+07         0.00000E+00
    0.23141E+07        -0.49993E+08         0.00000E+00
    0.00000E+00         0.00000E+00        -0.47964E+08
 
   -0.47948E+08         0.23880E+07         0.00000E+00
    0.23880E+07        -0.49993E+08         0.00000E+00
    0.00000E+00         0.00000E+00        -0.47964E+08
 
   -0.47949E+08         0.24620E+07         0.00000E+00
    0.24620E+07        -0.49992E+08         0.00000E+00
    0.00000E+00         0.00000E+00        -0.47964E+08
 
   -0.47949E+08         0.25360E+07         0.00000E+00
    0.25360E+07        -0.49992E+08         0.00000E+00
    0.00000E+00         0.00000E+00        -0.47964E+08
 
   -0.47950E+08         0.26101E+07         0.00000E+00
    0.26101E+07        -0.49992E+08         0.00000E+00
    0.00000E+00         0.00000E+00        -0.47964E+08
 
   -0.47951E+08         0.26842E+07         0.00000E+00
    0.26842E+07        -0.49991E+08         0.00000E+00
    0.00000E+00         0.00000E+00        -0.47964E+08
 
   -0.47952E+08         0.27583E+07         0.00000E+00
    0.27583E+07        -0.49991E+08         0.00000E+00
    0.00000E+00         0.00000E+00        -0.47964E+08
 
   -0.47953E+08         0.28325E+07         0.00000E+00
    0.28325E+07        -0.49990E+08         0.00000E+00
    0.00000E+00         0.00000E+00        -0.47965E+08
 
   -0.47954E+08         0.29067E+07         0.00000E+00
    0.29067E+07        -0.49990E+08         0.00000E+00
    0.00000E+00         0.00000E+00        -0.47965E+08
 
   -0.47955E+08         0.29810E+07         0.00000E+00
    0.29810E+07        -0.49989E+08         0.00000E+00
    0.00000E+00         0.00000E+00        -0.47965E+08
 
   -0.47956E+08         0.30554E+07         0.00000E+00
    0.30554E+07        -0.49989E+08         0.00000E+00
    0.00000E+00         0.00000E+00        -0.47965E+08
 
   -0.47958E+08         0.31297E+07         0.00000E+00
    0.31297E+07        -0.49988E+08         0.00000E+00
    0.00000E+00         0.00000E+00        -0.47965E+08
 
   -0.47959E+08         0.32042E+07         0.00000E+00
    0.32042E+07        -0.49988E+08         0.00000E+00
    0.00000E+00         0.00000E+00        -0.47965E+08
 
   -0.47960E+08         0.32786E+07         0.00000E+00
    0.32786E+07        -0.49987E+08         0.00000E+00
    0.00000E+00         0.00000E+00        -0.47965E+08
 
   -0.47961E+08         0.33532E+07         0.00000E+00
    0.33532E+07        -0.49987E+08         0.00000E+00
    0.00000E+00         0.00000E+00        -0.47965E+08
 
   -0.47962E+08         0.34278E+07         0.00000E+00
    0.34278E+07        -0.49986E+08         0.00000E+00
    0.00000E+00         0.00000E+00        -0.47965E+08
 
   -0.47963E+08         0.35024E+07         0.00000E+00
    0.35024E+07        -0.49986E+08         0.00000E+00
    0.00000E+00         0.00000E+00        -0.47966E+08
 
   -0.47964E+08         0.35771E+07         0.00000E+00
    0.35771E+07        -0.49985E+08         0.00000E+00
    0.00000E+00         0.00000E+00        -0.47966E+08
 
   -0.47965E+08         0.36518E+07         0.00000E+00
    0.36518E+07        -0.49985E+08         0.00000E+00
    0.00000E+00         0.00000E+00        -0.47966E+08
 
   -0.47564E+08         0.36645E+05         0.00000E+00
    0.36645E+05        -0.50000E+08         0.00000E+00
    0.00000E+00         0.00000E+00        -0.47589E+08
 
   -0.47564E+08         0.10994E+06         0.00000E+00
    0.10994E+06        -0.50000E+08         0.00000E+00
    0.00000E+00         0.00000E+00        -0.47589E+08
 
   -0.47564E+08         0.18323E+06         0.00000E+00
    0.18323E+06        -0.50000E+08         0.00000E+00
    0.00000E+00         0.00000E+00        -0.47589E+08
 
   -0.47565E+08         0.25653E+06         0.00000E+00
    0.25653E+06        -0.50000E+08         0.00000E+00
    0.00000E+00         0.00000E+00        -0.47589E+08
 
   -0.47565E+08         0.32984E+06         0.00000E+00
    0.32984E+06        -0.50000E+08         0.00000E+00
    0.00000E+00         0.00000E+00        -0.47589E+08
 
   -0.47565E+08         0.40315E+06         0.00000E+00
    0.40315E+06        -0.50000E+08         0.00000E+00
    0.00000E+00         0.00000E+00        -0.47589E+08
 
   -0.47565E+08         0.47647E+06         0.00000E+00
    0.47647E+06        -0.50000E+08         0.00000E+00
    0.00000E+00         0.00000E+00        -0.47589E+08
 
   -0.47565E+08         0.54980E+06         0.00000E+00
    0.54980E+06        -0.50000E+08         0.00000E+00
    0.00000E+00         0.00000E+00        -0.47589E+08
 
   -0.47566E+08         0.62314E+06         0.00000E+00
    0.62314E+06        -0.50000E+08         0.00000E+00
    0.00000E+00         0.00000E+00        -0.47589E+08
 
   -0.47566E+08         0.69649E+06         0.00000E+00
    0.69649E+06        -0.49999E+08         0.00000E+00
    0.00000E+00         0.00000E+00        -0.47589E+08
 
   -0.47566E+08         0.76986E+06         0.00000E+00
    0.76986E+06        -0.49999E+08         0.00000E+00
    0.00000E+00         0.00000E+00        -0.47589E+08
 
   -0.47567E+08         0.84324E+06         0.00000E+00
    0.84324E+06        -0.49999E+08         0.00000E+00
    0.00000E+00         0.00000E+00        -0.47589E+08
 
   -0.47567E+08         0.91664E+06         0.00000E+00
    0.91664E+06        -0.49999E+08         0.00000E+00
    0.00000E+00         0.00000E+00        -0.47589E+08
 
   -0.47567E+08         0.99005E+06         0.00000E+00
    0.99005E+06        -0.49999E+08         0.00000E+00
    0.00000E+00         0.00000E+00        -0.47589E+08
 
   -0.47568E+08         0.10635E+07         0.00000E+00
    0.10635E+07        -0.49999E+08         0.00000E+00
    0.00000E+00         0.00000E+00        -0.47589E+08
 
   -0.47568E+08         0.11369E+07         0.00000E+00
    0.11369E+07        -0.49999E+08         0.00000E+00
    0.00000E+00         0.00000E+00        -0.47589E+08
 
   -0.47569E+08         0.12104E+07         0.00000E+00
    0.12104E+07        -0.49998E+08         0.00000E+00
    0.00000E+00         0.00000E+00        -0.47589E+08
 
   -0.47569E+08         0.12839E+07         0.00000E+00
    0.12839E+07        -0.49998E+08         0.00000E+00
    0.00000E+00         0.00000E+00        -0.47589E+08
 
   -0.47569E+08         0.13574E+07         0.00000E+00
    0.13574E+07        -0.49998E+08         0.00000E+00
    0.00000E+00         0.00000E+00        -0.47589E+08
 
   -0.47570E+08         0.14310E+07         0.00000E+00
    0.14310E+07        -0.49998E+08         0.00000E+00
    0.00000E+00         0.00000E+00        -0.47590E+08
 
   -0.47570E+08         0.15046E+07         0.00000E+00
    0.15046E+07        -0.49998E+08         0.00000E+00
    0.00000E+00         0.00000E+00        -0.47590E+08
 
   -0.47571E+08         0.15782E+07         0.00000E+00
    0.15782E+07        -0.49997E+08         0.00000E+00
    0.00000E+00         0.00000E+00        -0.47590E+08
 
   -0.47571E+08         0.16518E+07         0.00000E+00
    0.16518E+07        -0.49997E+08         0.00000E+00
    0.00000E+00         0.00000E+00        -0.47590E+08
 
   -0.47572E+08         0.17254E+07         0.00000E+00
    0.17254E+07        -0.49997E+08         0.00000E+00
    0.00000E+00         0.00000E+00        -0.47590E+08
 
   -0.47573E+08         0.17991E+07         0.00000E+00
    0.17991E+07        -0.49997E+08         0.00000E+00
    0.00000E+00         0.00000E+00        -0.47590E+08
 
   -0.47573E+08         0.18728E+07         0.00000E+00
    0.18728E+07        -0.49996E+08         0.00000E+00
    0.00000E+00         0.00000E+00        -0.47590E+08
 
   -0.47574E+08         0.19466E+07         0.00000E+00
    0.19466E+07        -0.49996E+08         0.00000E+00
    0.00000E+00         0.00000E+00        -0.47590E+08
 
   -0.47574E+08         0.20204E+07         0.00000E+00
    0.20204E+07        -0.49996E+08         0.00000E+00
    0.00000E+00         0.00000E+00        -0.47590E+08
 
   -0.47575E+08         0.20942E+07         0.00000E+00
    0.20942E+07        -0.49996E+08         0.00000E+00
    0.00000E+00         0.00000E+00        -0.47590E+08
 
   -0.47576E+08         0.21681E+07         0.00000E+00
    0.21681E+07        -0.49995E+08         0.00000E+00
    0.00000E+00         0.00000E+00        -0.47590E+08
 
   -0.47576E+08         0.22420E+07         0.00000E+00
    0.22420E+07        -0.49995E+08         0.00000E+00
    0.00000E+00         0.00000E+00        -0.47590E+08
 
   -0.47577E+08         0.23159E+07         0.00000E+00
    0.23159E+07        -0.49995E+08         0.00000E+00
    0.00000E+00         0.00000E+00        -0.47590E+08
 
   -0.47578E+08         0.23899E+07         0.00000E+00
    0.23899E+07        -0.49994E+08         0.00000E+00
    0.00000E+00         0.00000E+00        -0.47590E+08
 
   -0.47578E+08         0.24639E+07         0.00000E+00
    0.24639E+07        -0.49994E+08         0.00000E+00
    0.00000E+00         0.00000E+00        -0.47590E+08
 
   -0.47579E+08         0.25379E+07         0.00000E+00
    0.25379E+07        -0.49994E+08         0.00000E+00
    0.00000E+00         0.00000E+00        -0.47591E+08
 
   -0.47580E+08         0.26120E+07         0.00000E+00
    0.26120E+07        -0.49993E+08         0.00000E+00
    0.00000E+00         0.00000E+00        -0.47591E+08
 
   -0.47581E+08         0.26861E+07         0.00000E+00
    0.26861E+07        -0.49993E+08         0.00000E+00
    0.00000E+00         0.00000E+00        -0.47591E+08
 
   -0.47581E+08         0.27603E+07         0.00000E+00
    0.27603E+07        -0.49993E+08         0.00000E+00
    0.00000E+00         0.00000E+00        -0.47591E+08
 
   -0.47582E+08         0.28345E+07         0.00000E+00
    0.28345E+07        -0.49992E+08         0.00000E+00
    0.00000E+00         0.00000E+00        -0.47591E+08
 
   -0.47583E+08         0.29088E+07         0.00000E+00
    0.29088E+07        -0.49992E+08         0.00000E+00
    0.00000E+00         0.00000E+00        -0.47591E+08
 
   -0.47584E+08         0.29831E+07         0.00000E+00
    0.29831E+07        -0.49992E+08         0.00000E+00
    0.00000E+00         0.00000E+00        -0.47591E+08
 
   -0.47585E+08         0.30575E+07         0.00000E+00
    0.30575E+07        -0.49991E+08         0.00000E+00
    0.00000E+00         0.00000E+00        -0.47591E+08
 
   -0.47585E+08         0.31319E+07         0.00000E+00
    0.31319E+07        -0.49991E+08         0.00000E+00
    0.00000E+00         0.00000E+00        -0.47591E+08
 
   -0.47586E+08         0.32063E+07         0.00000E+00
    0.32063E+07        -0.49991E+08         0.00000E+00
    0.00000E+00         0.00000E+00        -0.47591E+08
 
   -0.47587E+08         0.32808E+07         0.00000E+00
    0.32808E+07        -0.49990E+08         0.00000E+00
    0.00000E+00         0.00000E+00        -0.47591E+08
 
   -0.47588E+08         0.33554E+07         0.00000E+00
    0.33554E+07        -0.49990E+08         0.00000E+00
    0.00000E+00         0.00000E+00        -0.47592E+08
 
   -0.47589E+08         0.34300E+07         0.00000E+00
    0.34300E+07        -0.49989E+08         0.00000E+00
    0.00000E+00         0.00000E+00        -0.47592E+08
 
   -0.47590E+08         0.35046E+07         0.00000E+00
    0.35046E+07        -0.49989E+08         0.00000E+00
    0.00000E+00         0.00000E+00        -0.47592E+08
 
   -0.47591E+08         0.35793E+07         0.00000E+00
    0.35793E+07        -0.49989E+08         0.00000E+00
    0.00000E+00         0.00000E+00        -0.47592E+08
 
   -0.47592E+08         0.36541E+07         0.00000E+00
    0.36541E+07        -0.49988E+08         0.00000E+00
    0.00000E+00         0.00000E+00        -0.47592E+08
 
   -0.47198E+08         0.36669E+05         0.00000E+00
    0.36669E+05        -0.50000E+08         0.00000E+00
    0.00000E+00         0.00000E+00        -0.47216E+08
 
   -0.47198E+08         0.11001E+06         0.00000E+00
    0.11001E+06        -0.50000E+08         0.00000E+00
    0.00000E+00         0.00000E+00        -0.47216E+08
 
   -0.47198E+08         0.18335E+06         0.00000E+00
    0.18335E+06        -0.50000E+08         0.00000E+00
    0.00000E+00         0.00000E+00        -0.47216E+08
 
   -0.47198E+08         0.25670E+06         0.00000E+00
    0.25670E+06        -0.50000E+08         0.00000E+00
    0.00000E+00         0.00000E+00        -0.47216E+08
 
   -0.47198E+08         0.33005E+06         0.00000E+00
    0.33005E+06        -0.50000E+08         0.00000E+00
    0.00000E+00         0.00000E+00        -0.47216E+08
 
   -0.47198E+08         0.40341E+06         0.00000E+00
    0.40341E+06        -0.50000E+08         0.00000E+00
    0.00000E+00         0.00000E+00        -0.47216E+08
 
   -0.47198E+08         0.47678E+06         0.00000E+00
    0.47678E+06        -0.50000E+08         0.00000E+00
    0.00000E+00         0.00000E+00        -0.47216E+08
 
   -0.47199E+08         0.55016E+06         0.00000E+00
    0.55016E+06        -0.50000E+08         0.00000E+00
    0.00000E+00         0.00000E+00        -0.47216E+08
 
   -0.47199E+08         0.62354E+06         0.00000E+00
    0.62354E+06        -0.50000E+08         0.00000E+00
    0.00000E+00         0.00000E+00        -0.47216E+08
 
   -0.47199E+08         0.69694E+06         0.00000E+00
    0.69694E+06        -0.50000E+08         0.00000E+00
    0.00000E+00         0.00000E+00        -0.47216E+08
 
   -0.47199E+08         0.77036E+06         0.00000E+00
    0.77036E+06        -0.50000E+08         0.00000E+00
    0.00000E+00         0.00000E+00        -0.47216E+08
 
   -0.47200E+08         0.84378E+06         0.00000E+00
    0.84378E+06        -0.49999E+08         0.00000E+00
    0.00000E+00         0.00000E+00        -0.47216E+08
 
   -0.47200E+08         0.91723E+06         0.00000E+00
    0.91723E+06        -0.49999E+08         0.00000E+00
    0.00000E+00         0.00000E+00        -0.47216E+08
 
   -0.47200E+08         0.99069E+06         0.00000E+00
    0.99069E+06        -0.49999E+08         0.00000E+00
    0.00000E+00         0.00000E+00        -0.47216E+08
 
   -0.47200E+08         0.10642E+07         0.00000E+00
    0.10642E+07        -0.49999E+08         0.00000E+00
    0.00000E+00         0.00000E+00        -0.47216E+08
 
   -0.47201E+08         0.11377E+07         0.00000E+00
    0.11377E+07        -0.49999E+08         0.00000E+00
    0.00000E+00         0.00000E+00        -0.47216E+08
 
   -0.47201E+08         0.12112E+07         0.00000E+00
    0.12112E+07        -0.49999E+08         0.00000E+00
    0.00000E+00         0.00000E+00        -0.47216E+08
 
   -0.47201E+08         0.12847E+07         0.00000E+00
    0.12847E+07        -0.49999E+08         0.00000E+00
    0.00000E+00         0.00000E+00        -0.47216E+08
 
   -0.47202E+08         0.13583E+07         0.00000E+00
    0.13583E+07        -0.49999E+08         0.00000E+00
    0.00000E+00         0.00000E+00        -0.47216E+08
 
   -0.47202E+08         0.14319E+07         0.00000E+00
    0.14319E+07        -0.49999E+08         0.00000E+00
    0.00000E+00         0.00000E+00        -0.47216E+08
 
   -0.47202E+08         0.15055E+07         0.00000E+00
    0.15055E+07        -0.49998E+08         0.00000E+00
    0.00000E+00         0.00000E+00        -0.47216E+08
 
   -0.47203E+08         0.15791E+07         0.00000E+00
    0.15791E+07        -0.49998E+08         0.00000E+00
    0.00000E+00         0.00000E+00        -0.47216E+08
 
   -0.47203E+08         0.16528E+07         0.00000E+00
    0.16528E+07        -0.49998E+08         0.00000E+00
    0.00000E+00         0.00000E+00        -0.47216E+08
 
   -0.47204E+08         0.17265E+07         0.00000E+00
    0.17265E+07        -0.49998E+08         0.00000E+00
    0.00000E+00         0.00000E+00        -0.47216E+08
 
   -0.47204E+08         0.18002E+07         0.00000E+00
    0.18002E+07        -0.49998E+08         0.00000E+00
    0.00000E+00         0.00000E+00        -0.47216E+08
 
   -0.47204E+08         0.18740E+07         0.00000E+00
    0.18740E+07        -0.49998E+08         0.00000E+00
    0.00000E+00         0.00000E+00        -0.47216E+08
 
   -0.47205E+08         0.19478E+07         0.00000E+00
    0.19478E+07        -0.49997E+08         0.00000E+00
    0.00000E+00         0.00000E+00        -0.47216E+08
 
   -0.47205E+08         0.20216E+07         0.00000E+00
    0.20216E+07        -0.49997E+08         0.00000E+00
    0.00000E+00         0.00000E+00        -0.47217E+08
 
   -0.47206E+08         0.20954E+07         0.00000E+00
    0.20954E+07        -0.49997E+08         0.00000E+00
    0.00000E+00         0.00000E+00        -0.47217E+08
 
   -0.47206E+08         0.21693E+07         0.00000E+00
    0.21693E+07        -0.49997E+08         0.00000E+00
    0.00000E+00         0.00000E+00        -0.47217E+08
 
   -0.47207E+08         0.22432E+07         0.00000E+00
    0.22432E+07        -0.49997E+08         0.00000E+00
    0.00000E+00         0.00000E+00        -0.47217E+08
 
   -0.47207E+08         0.23172E+07         0.00000E+00
    0.23172E+07        -0.49996E+08         0.00000E+00
    0.00000E+00         0.00000E+00        -0.47217E+08
 
   -0.47208E+08         0.23912E+07         0.00000E+00
    0.23912E+07        -0.49996E+08         0.00000E+00
    0.00000E+00         0.00000E+00        -0.47217E+08
 
   -0.47208E+08         0.24653E+07         0.00000E+00
    0.24653E+07        -0.49996E+08         0.00000E+00
    0.00000E+00         0.00000E+00        -0.47217E+08
 
   -0.47209E+08         0.25393E+07         0.00000E+00
    0.25393E+07        -0.49996E+08         0.00000E+00
    0.00000E+00         0.00000E+00        -0.47217E+08
 
   -0.47209E+08         0.26135E+07         0.00000E+00
    0.26135E+07        -0.49995E+08         0.00000E+00
    0.00000E+00         0.00000E+00        -0.47217E+08
 
   -0.47210E+08         0.26876E+07         0.00000E+00
    0.26876E+07        -0.49995E+08         0.00000E+00
    0.00000E+00         0.00000E+00        -0.47217E+08
 
   -0.47210E+08         0.27618E+07         0.00000E+00
    0.27618E+07        -0.49995E+08         0.00000E+00
    0.00000E+00         0.00000E+00        -0.47217E+08
 
   -0.47211E+08         0.28361E+07         0.00000E+00
    0.28361E+07        -0.49995E+08         0.00000E+00
    0.00000E+00         0.00000E+00        -0.47217E+08
 
   -0.47212E+08         0.29104E+07         0.00000E+00
    0.29104E+07        -0.49994E+08         0.00000E+00
    0.00000E+00         0.00000E+00        -0.47217E+08
 
   -0.47212E+08         0.29847E+07         0.00000E+00
    0.29847E+07        -0.49994E+08         0.00000E+00
    0.00000E+00         0.00000E+00        -0.47217E+08
 
   -0.47213E+08         0.30591E+07         0.00000E+00
    0.30591E+07        -0.49994E+08         0.00000E+00
    0.00000E+00         0.00000E+00        -0.47217E+08
 
   -0.47213E+08         0.31335E+07         0.00000E+00
    0.31335E+07        -0.49994E+08         0.00000E+00
    0.00000E+00         0.00000E+00        -0.47217E+08
 
   -0.47214E+08         0.32080E+07         0.00000E+00
    0.32080E+07        -0.49993E+08         0.00000E+00
    0.00000E+00         0.00000E+00        -0.47217E+08
 
   -0.47214E+08         0.32825E+07         0.00000E+00
    0.32825E+07        -0.49993E+08         0.00000E+00
    0.00000E+00         0.00000E+00        -0.47218E+08
 
   -0.47215E+08         0.33570E+07         0.00000E+00
    0.33570E+07        -0.49993E+08         0.00000E+00
    0.00000E+00         0.00000E+00        -0.47218E+08
 
   -0.47216E+08         0.34317E+07         0.00000E+00
    0.34317E+07        -0.49993E+08         0.00000E+00
    0.00000E+00         0.00000E+00        -0.47218E+08
 
   -0.47216E+08         0.35063E+07         0.00000E+00
    0.35063E+07        -0.49992E+08         0.00000E+00
    0.00000E+00         0.00000E+00        -0.47218E+08
 
   -0.47217E+08         0.35810E+07         0.00000E+00
    0.35810E+07        -0.49992E+08         0.00000E+00
    0.00000E+00         0.00000E+00        -0.47218E+08
 
   -0.47218E+08         0.36558E+07         0.00000E+00
    0.36558E+07        -0.49992E+08         0.00000E+00
    0.00000E+00         0.00000E+00        -0.47218E+08
 
   -0.46831E+08         0.36685E+05         0.00000E+00
    0.36685E+05        -0.50000E+08         0.00000E+00
    0.00000E+00         0.00000E+00        -0.46842E+08
 
   -0.46831E+08         0.11006E+06         0.00000E+00
    0.11006E+06        -0.50000E+08         0.00000E+00
    0.00000E+00         0.00000E+00        -0.46842E+08
 
   -0.46831E+08         0.18343E+06         0.00000E+00
    0.18343E+06        -0.50000E+08         0.00000E+00
    0.00000E+00         0.00000E+00        -0.46842E+08
 
   -0.46831E+08         0.25681E+06         0.00000E+00
    0.25681E+06        -0.50000E+08         0.00000E+00
    0.00000E+00         0.00000E+00        -0.46842E+08
 
   -0.46831E+08         0.33019E+06         0.00000E+00
    0.33019E+06        -0.50000E+08         0.00000E+00
    0.00000E+00         0.00000E+00        -0.46842E+08
 
   -0.46831E+08         0.40358E+06         0.00000E+00
    0.40358E+06        -0.50000E+08         0.00000E+00
    0.00000E+00         0.00000E+00        -0.46842E+08
 
   -0.46832E+08         0.47698E+06         0.00000E+00
    0.47698E+06        -0.50000E+08         0.00000E+00
    0.00000E+00         0.00000E+00        -0.46842E+08
 
   -0.46832E+08         0.55039E+06         0.00000E+00
    0.55039E+06        -0.50000E+08         0.00000E+00
    0.00000E+00         0.00000E+00        -0.46842E+08
 
   -0.46832E+08         0.62381E+06         0.00000E+00
    0.62381E+06        -0.50000E+08         0.00000E+00
    0.00000E+00         0.00000E+00        -0.46842E+08
 
   -0.46832E+08         0.69724E+06         0.00000E+00
    0.69724E+06        -0.50000E+08         0.00000E+00
    0.00000E+00         0.00000E+00        -0.46842E+08
 
   -0.46832E+08         0.77068E+06         0.00000E+00
    0.77068E+06        -0.50000E+08         0.00000E+00
    0.00000E+00         0.00000E+00        -0.46842E+08
 
   -0.46832E+08         0.84414E+06         0.00000E+00
    0.84414E+06        -0.50000E+08         0.00000E+00
    0.00000E+00         0.00000E+00        -0.46843E+08
 
   -0.46832E+08         0.91761E+06         0.00000E+00
    0.91761E+06        -0.50000E+08         0.00000E+00
    0.00000E+00         0.00000E+00        -0.46843E+08
 
   -0.46833E+08         0.99110E+06         0.00000E+00
    0.99110E+06        -0.50000E+08         0.00000E+00
    0.00000E+00         0.00000E+00        -0.46843E+08
 
   -0.46833E+08         0.10646E+07         0.00000E+00
    0.10646E+07        -0.50000E+08         0.00000E+00
    0.00000E+00         0.00000E+00        -0.46843E+08
 
   -0.46833E+08         0.11381E+07         0.00000E+00
    0.11381E+07        -0.49999E+08         0.00000E+00
    0.00000E+00         0.00000E+00        -0.46843E+08
 
   -0.46833E+08         0.12117E+07         0.00000E+00
    0.12117E+07        -0.49999E+08         0.00000E+00
    0.00000E+00         0.00000E+00        -0.46843E+08
 
   -0.46833E+08         0.12852E+07         0.00000E+00
    0.12852E+07        -0.49999E+08         0.00000E+00
    0.00000E+00         0.00000E+00        -0.46843E+08
 
   -0.46834E+08         0.13588E+07         0.00000E+00
    0.13588E+07        -0.49999E+08         0.00000E+00
    0.00000E+00         0.00000E+00        -0.46843E+08
 
   -0.46834E+08         0.14325E+07         0.00000E+00
    0.14325E+07        -0.49999E+08         0.00000E+00
    0.00000E+00         0.00000E+00        -0.46843E+08
 
   -0.46834E+08         0.15061E+07         0.00000E+00
    0.15061E+07        -0.49999E+08         0.00000E+00
    0.00000E+00         0.00000E+00        -0.46843E+08
 
   -0.46834E+08         0.15798E+07         0.00000E+00
    0.15798E+07        -0.49999E+08         0.00000E+00
    0.00000E+00         0.00000E+00        -0.46843E+08
 
   -0.46835E+08         0.16535E+07         0.00000E+00
    0.16535E+07        -0.49999E+08         0.00000E+00
    0.00000E+00         0.00000E+00        -0.46843E+08
 
   -0.46835E+08         0.17272E+07         0.00000E+00
    0.17272E+07        -0.49999E+08         0.00000E+00
    0.00000E+00         0.00000E+00        -0.46843E+08
 
   -0.46835E+08         0.18009E+07         0.00000E+00
    0.18009E+07        -0.49999E+08         0.00000E+00
    0.00000E+00         0.00000E+00        -0.46843E+08
 
   -0.46835E+08         0.18747E+07         0.00000E+00
    0.18747E+07        -0.49999E+08         0.00000E+00
    0.00000E+00         0.00000E+00        -0.46843E+08
 
   -0.46836E+08         0.19485E+07         0.00000E+00
    0.19485E+07        -0.49998E+08         0.00000E+00
    0.00000E+00         0.00000E+00        -0.46843E+08
 
   -0.46836E+08         0.20224E+07         0.00000E+00
    0.20224E+07        -0.49998E+08         0.00000E+00
    0.00000E+00         0.00000E+00        -0.46843E+08
 
   -0.46836E+08         0.20962E+07         0.00000E+00
    0.20962E+07        -0.49998E+08         0.00000E+00
    0.00000E+00         0.00000E+00        -0.46843E+08
 
   -0.46837E+08         0.21702E+07         0.00000E+00
    0.21702E+07        -0.49998E+08         0.00000E+00
    0.00000E+00         0.00000E+00        -0.46843E+08
 
   -0.46837E+08         0.22441E+07         0.00000E+00
    0.22441E+07        -0.49998E+08         0.00000E+00
    0.00000E+00         0.00000E+00        -0.46843E+08
 
   -0.46837E+08         0.23181E+07         0.00000E+00
    0.23181E+07        -0.49998E+08         0.00000E+00
    0.00000E+00         0.00000E+00        -0.46843E+08
 
   -0.46838E+08         0.23921E+07         0.00000E+00
    0.23921E+07        -0.49998E+08         0.00000E+00
    0.00000E+00         0.00000E+00        -0.46843E+08
 
   -0.46838E+08         0.24662E+07         0.00000E+00
    0.24662E+07        -0.49998E+08         0.00000E+00
    0.00000E+00         0.00000E+00        -0.46843E+08
 
   -0.46838E+08         0.25403E+07         0.00000E+00
    0.25403E+07        -0.49997E+08         0.00000E+00
    0.00000E+00         0.00000E+00        -0.46843E+08
 
   -0.46839E+08         0.26144E+07         0.00000E+00
    0.26144E+07        -0.49997E+08         0.00000E+00
    0.00000E+00         0.00000E+00        -0.46843E+08
 
   -0.46839E+08         0.26886E+07         0.00000E+00
    0.26886E+07        -0.49997E+08         0.00000E+00
    0.00000E+00         0.00000E+00        -0.46843E+08
 
   -0.46839E+08         0.27628E+07         0.00000E+00
    0.27628E+07        -0.49997E+08         0.00000E+00
    0.00000E+00         0.00000E+00        -0.46843E+08
 
   -0.46840E+08         0.28371E+07         0.00000E+00
    0.28371E+07        -0.49997E+08         0.00000E+00
    0.00000E+00         0.00000E+00        -0.46843E+08
 
   -0.46840E+08         0.29114E+07         0.00000E+00
    0.29114E+07        -0.49997E+08         0.00000E+00
    0.00000E+00         0.00000E+00        -0.46843E+08
 
   -0.46840E+08         0.29857E+07         0.00000E+00
    0.29857E+07        -0.49997E+08         0.00000E+00
    0.00000E+00         0.00000E+00        -0.46843E+08
 
   -0.46841E+08         0.30601E+07         0.00000E+00
    0.30601E+07        -0.49996E+08         0.00000E+00
    0.00000E+00         0.00000E+00        -0.46843E+08
 
   -0.46841E+08         0.31346E+07         0.00000E+00
    0.31346E+07        -0.49996E+08         0.00000E+00
    0.00000E+00         0.00000E+00        -0.46844E+08
 
   -0.46841E+08         0.32090E+07         0.00000E+00
    0.32090E+07        -0.49996E+08         0.00000E+00
    0.00000E+00         0.00000E+00        -0.46844E+08
 
   -0.46842E+08         0.32836E+07         0.00000E+00
    0.32836E+07        -0.49996E+08         0.00000E+00
    0.00000E+00         0.00000E+00        -0.46844E+08
 
   -0.46842E+08         0.33582E+07         0.00000E+00
    0.33582E+07        -0.49996E+08         0.00000E+00
    0.00000E+00         0.00000E+00        -0.46844E+08
 
   -0.46842E+08         0.34328E+07         0.00000E+00
    0.34328E+07        -0.49996E+08         0.00000E+00
    0.00000E+00         0.00000E+00        -0.46844E+08
 
   -0.46843E+08         0.35075E+07         0.00000E+00
    0.35075E+07        -0.49995E+08         0.00000E+00
    0.00000E+00         0.00000E+00        -0.46844E+08
 
   -0.46843E+08         0.35822E+07         0.00000E+00
    0.35822E+07        -0.49995E+08         0.00000E+00
    0.00000E+00         0.00000E+00        -0.46844E+08
 
   -0.46844E+08         0.36570E+07         0.00000E+00
    0.36570E+07        -0.49995E+08         0.00000E+00
    0.00000E+00         0.00000E+00        -0.46844E+08
 
   -0.46464E+08         0.36692E+05         0.00000E+00
    0.36692E+05        -0.50000E+08         0.00000E+00
    0.00000E+00         0.00000E+00        -0.46469E+08
 
   -0.46464E+08         0.11008E+06         0.00000E+00
    0.11008E+06        -0.50000E+08         0.00000E+00
    0.00000E+00         0.00000E+00        -0.46469E+08
 
   -0.46464E+08         0.18347E+06         0.00000E+00
    0.18347E+06        -0.50000E+08         0.00000E+00
    0.00000E+00         0.00000E+00        -0.46469E+08
 
   -0.46464E+08         0.25686E+06         0.00000E+00
    0.25686E+06        -0.50000E+08         0.00000E+00
    0.00000E+00         0.00000E+00        -0.46469E+08
 
   -0.46464E+08         0.33026E+06         0.00000E+00
    0.33026E+06        -0.50000E+08         0.00000E+00
    0.00000E+00         0.00000E+00        -0.46469E+08
 
   -0.46464E+08         0.40367E+06         0.00000E+00
    0.40367E+06        -0.50000E+08         0.00000E+00
    0.00000E+00         0.00000E+00        -0.46469E+08
 
   -0.46464E+08         0.47708E+06         0.00000E+00
    0.47708E+06        -0.50000E+08         0.00000E+00
    0.00000E+00         0.00000E+00        -0.46469E+08
 
   -0.46465E+08         0.55050E+06         0.00000E+00
    0.55050E+06        -0.50000E+08         0.00000E+00
    0.00000E+00         0.00000E+00        -0.46469E+08
 
   -0.46465E+08         0.62394E+06         0.00000E+00
    0.62394E+06        -0.50000E+08         0.00000E+00
    0.00000E+00         0.00000E+00        -0.46469E+08
 
   -0.46465E+08         0.69738E+06         0.00000E+00
    0.69738E+06        -0.50000E+08         0.00000E+00
    0.00000E+00         0.00000E+00        -0.46469E+08
 
   -0.46465E+08         0.77084E+06         0.00000E+00
    0.77084E+06        -0.50000E+08         0.00000E+00
    0.00000E+00         0.00000E+00        -0.46469E+08
 
   -0.46465E+08         0.84431E+06         0.00000E+00
    0.84431E+06        -0.50000E+08         0.00000E+00
    0.00000E+00         0.00000E+00        -0.46469E+08
 
   -0.46465E+08         0.91780E+06         0.00000E+00
    0.91780E+06        -0.50000E+08         0.00000E+00
    0.00000E+00         0.00000E+00        -0.46469E+08
 
   -0.46465E+08         0.99130E+06         0.00000E+00
    0.99130E+06        -0.50000E+08         0.00000E+00
    0.00000E+00         0.00000E+00        -0.46469E+08
 
   -0.46465E+08         0.10648E+07         0.00000E+00
    0.10648E+07        -0.50000E+08         0.00000E+00
    0.00000E+00         0.00000E+00        -0.46469E+08
 
   -0.46465E+08         0.11384E+07         0.00000E+00
    0.11384E+07        -0.50000E+08         0.00000E+00
    0.00000E+00         0.00000E+00        -0.46469E+08
 
   -0.46465E+08         0.12119E+07         0.00000E+00
    0.12119E+07        -0.50000E+08         0.00000E+00
    0.00000E+00         0.00000E+00        -0.46469E+08
 
   -0.46466E+08         0.12855E+07         0.00000E+00
    0.12855E+07        -0.50000E+08         0.00000E+00
    0.00000E+00         0.00000E+00        -0.46469E+08
 
   -0.46466E+08         0.13591E+07         0.00000E+00
    0.13591E+07        -0.50000E+08         0.00000E+00
    0.00000E+00         0.00000E+00        -0.46469E+08
 
   -0.46466E+08         0.14327E+07         0.00000E+00
    0.14327E+07        -0.50000E+08         0.00000E+00
    0.00000E+00         0.00000E+00        -0.46469E+08
 
   -0.46466E+08         0.15064E+07         0.00000E+00
    0.15064E+07        -0.50000E+08         0.00000E+00
    0.00000E+00         0.00000E+00        -0.46469E+08
 
   -0.46466E+08         0.15801E+07         0.00000E+00
    0.15801E+07        -0.50000E+08         0.00000E+00
    0.00000E+00         0.00000E+00        -0.46469E+08
 
   -0.46466E+08         0.16538E+07         0.00000E+00
    0.16538E+07        -0.50000E+08         0.00000E+00
    0.00000E+00         0.00000E+00        -0.46469E+08
 
   -0.46466E+08         0.17275E+07         0.00000E+00
    0.17275E+07        -0.50000E+08         0.00000E+00
    0.00000E+00         0.00000E+00        -0.46469E+08
 
   -0.46466E+08         0.18013E+07         0.00000E+00
    0.18013E+07        -0.50000E+08         0.00000E+00
    0.00000E+00         0.00000E+00        -0.46469E+08
 
   -0.46466E+08         0.18751E+07         0.00000E+00
    0.18751E+07        -0.50000E+08         0.00000E+00
    0.00000E+00         0.00000E+00        -0.46469E+08
 
   -0.46467E+08         0.19489E+07         0.00000E+00
    0.19489E+07        -0.50000E+08         0.00000E+00
    0.00000E+00         0.00000E+00        -0.46469E+08
 
   -0.46467E+08         0.20227E+07         0.00000E+00
    0.20227E+07        -0.49999E+08         0.00000E+00
    0.00000E+00         0.00000E+00        -0.46469E+08
 
   -0.46467E+08         0.20966E+07         0.00000E+00
    0.20966E+07        -0.49999E+08         0.00000E+00
    0.00000E+00         0.00000E+00        -0.46469E+08
 
   -0.46467E+08         0.21706E+07         0.00000E+00
    0.21706E+07        -0.49999E+08         0.00000E+00
    0.00000E+00         0.00000E+00        -0.46469E+08
 
   -0.46467E+08         0.22445E+07         0.00000E+00
    0.22445E+07        -0.49999E+08         0.00000E+00
    0.00000E+00         0.00000E+00        -0.46469E+08
 
   -0.46467E+08         0.23185E+07         0.00000E+00
    0.23185E+07        -0.49999E+08         0.00000E+00
    0.00000E+00         0.00000E+00        -0.46469E+08
 
   -0.46467E+08         0.23926E+07         0.00000E+00
    0.23926E+07        -0.49999E+08         0.00000E+00
    0.00000E+00         0.00000E+00        -0.46469E+08
 
   -0.46467E+08         0.24666E+07         0.00000E+00
    0.24666E+07        -0.49999E+08         0.00000E+00
    0.00000E+00         0.00000E+00        -0.46469E+08
 
   -0.46468E+08         0.25407E+07         0.00000E+00
    0.25407E+07        -0.49999E+08         0.00000E+00
    0.00000E+00         0.00000E+00        -0.46469E+08
 
   -0.46468E+08         0.26149E+07         0.00000E+00
    0.26149E+07        -0.49999E+08         0.00000E+00
    0.00000E+00         0.00000E+00        -0.46469E+08
 
   -0.46468E+08         0.26891E+07         0.00000E+00
    0.26891E+07        -0.49999E+08         0.00000E+00
    0.00000E+00         0.00000E+00        -0.46470E+08
 
   -0.46468E+08         0.27633E+07         0.00000E+00
    0.27633E+07        -0.49999E+08         0.00000E+00
    0.00000E+00         0.00000E+00        -0.46470E+08
 
   -0.46468E+08         0.28376E+07         0.00000E+00
    0.28376E+07        -0.49999E+08         0.00000E+00
    0.00000E+00         0.00000E+00        -0.46470E+08
 
   -0.46468E+08         0.29119E+07         0.00000E+00
    0.29119E+07        -0.49999E+08         0.00000E+00
    0.00000E+00         0.00000E+00        -0.46470E+08
 
   -0.46468E+08         0.29863E+07         0.00000E+00
    0.29863E+07        -0.49999E+08         0.00000E+00
    0.00000E+00         0.00000E+00        -0.46470E+08
 
   -0.46469E+08         0.30607E+07         0.00000E+00
    0.30607E+07        -0.49999E+08         0.00000E+00
    0.00000E+00         0.00000E+00        -0.46470E+08
 
   -0.46469E+08         0.31351E+07         0.00000E+00
    0.31351E+07        -0.49999E+08         0.00000E+00
    0.00000E+00         0.00000E+00        -0.46470E+08
 
   -0.46469E+08         0.32096E+07         0.00000E+00
    0.32096E+07        -0.49999E+08         0.00000E+00
    0.00000E+00         0.00000E+00        -0.46470E+08
 
   -0.46469E+08         0.32841E+07         0.00000E+00
    0.32841E+07        -0.49999E+08         0.00000E+00
    0.00000E+00         0.00000E+00        -0.46470E+08
 
   -0.46469E+08         0.33587E+07         0.00000E+00
    0.33587E+07        -0.49999E+08         0.00000E+00
    0.00000E+00         0.00000E+00        -0.46470E+08
 
   -0.46469E+08         0.34334E+07         0.00000E+00
    0.34334E+07        -0.49999E+08         0.00000E+00
    0.00000E+00         0.00000E+00        -0.46470E+08
 
   -0.46469E+08         0.35080E+07         0.00000E+00
    0.35080E+07        -0.49998E+08         0.00000E+00
    0.00000E+00         0.00000E+00        -0.46470E+08
 
   -0.46470E+08         0.35828E+07         0.00000E+00
    0.35828E+07        -0.49998E+08         0.00000E+00
    0.00000E+00         0.00000E+00        -0.46470E+08
 
   -0.46470E+08         0.36576E+07         0.00000E+00
    0.36576E+07        -0.49998E+08         0.00000E+00
    0.00000E+00         0.00000E+00        -0.46470E+08
 
   -0.46097E+08         0.36692E+05         0.00000E+00
    0.36692E+05        -0.50000E+08         0.00000E+00
    0.00000E+00         0.00000E+00        -0.46096E+08
 
   -0.46097E+08         0.11008E+06         0.00000E+00
    0.11008E+06        -0.50000E+08         0.00000E+00
    0.00000E+00         0.00000E+00        -0.46096E+08
 
   -0.46097E+08         0.18347E+06         0.00000E+00
    0.18347E+06        -0.50000E+08         0.00000E+00
    0.00000E+00         0.00000E+00        -0.46096E+08
 
   -0.46097E+08         0.25686E+06         0.00000E+00
    0.25686E+06        -0.50000E+08         0.00000E+00
    0.00000E+00         0.00000E+00        -0.46096E+08
 
   -0.46097E+08         0.33026E+06         0.00000E+00
    0.33026E+06        -0.50000E+08         0.00000E+00
    0.00000E+00         0.00000E+00        -0.46096E+08
 
   -0.46097E+08         0.40366E+06         0.00000E+00
    0.40366E+06        -0.50000E+08         0.00000E+00
    0.00000E+00         0.00000E+00        -0.46096E+08
 
   -0.46097E+08         0.47708E+06         0.00000E+00
    0.47708E+06        -0.50000E+08         0.00000E+00
    0.00000E+00         0.00000E+00        -0.46096E+08
 
   -0.46097E+08         0.55050E+06         0.00000E+00
    0.55050E+06        -0.50000E+08         0.00000E+00
    0.00000E+00         0.00000E+00        -0.46096E+08
 
   -0.46097E+08         0.62393E+06         0.00000E+00
    0.62393E+06        -0.50000E+08         0.00000E+00
    0.00000E+00         0.00000E+00        -0.46096E+08
 
   -0.46097E+08         0.69737E+06         0.00000E+00
    0.69737E+06        -0.50000E+08         0.00000E+00
    0.00000E+00         0.00000E+00        -0.46096E+08
 
   -0.46098E+08         0.77083E+06         0.00000E+00
    0.77083E+06        -0.50000E+08         0.00000E+00
    0.00000E+00         0.00000E+00        -0.46096E+08
 
   -0.46098E+08         0.84430E+06         0.00000E+00
    0.84430E+06        -0.50000E+08         0.00000E+00
    0.00000E+00         0.00000E+00        -0.46096E+08
 
   -0.46098E+08         0.91779E+06         0.00000E+00
    0.91779E+06        -0.50000E+08         0.00000E+00
    0.00000E+00         0.00000E+00        -0.46096E+08
 
   -0.46098E+08         0.99129E+06         0.00000E+00
    0.99129E+06        -0.50000E+08         0.00000E+00
    0.00000E+00         0.00000E+00        -0.46096E+08
 
   -0.46098E+08         0.10648E+07         0.00000E+00
    0.10648E+07        -0.50000E+08         0.00000E+00
    0.00000E+00         0.00000E+00        -0.46096E+08
 
   -0.46098E+08         0.11384E+07         0.00000E+00
    0.11384E+07        -0.50000E+08         0.00000E+00
    0.00000E+00         0.00000E+00        -0.46096E+08
 
   -0.46098E+08         0.12119E+07         0.00000E+00
    0.12119E+07        -0.50000E+08         0.00000E+00
    0.00000E+00         0.00000E+00        -0.46096E+08
 
   -0.46098E+08         0.12855E+07         0.00000E+00
    0.12855E+07        -0.50000E+08         0.00000E+00
    0.00000E+00         0.00000E+00        -0.46096E+08
 
   -0.46098E+08         0.13591E+07         0.00000E+00
    0.13591E+07        -0.50000E+08         0.00000E+00
    0.00000E+00         0.00000E+00        -0.46096E+08
 
   -0.46098E+08         0.14327E+07         0.00000E+00
    0.14327E+07        -0.50000E+08         0.00000E+00
    0.00000E+00         0.00000E+00        -0.46096E+08
 
   -0.46098E+08         0.15064E+07         0.00000E+00
    0.15064E+07        -0.50000E+08         0.00000E+00
    0.00000E+00         0.00000E+00        -0.46096E+08
 
   -0.46098E+08         0.15801E+07         0.00000E+00
    0.15801E+07        -0.50000E+08         0.00000E+00
    0.00000E+00         0.00000E+00        -0.46096E+08
 
   -0.46098E+08         0.16538E+07         0.00000E+00
    0.16538E+07        -0.50000E+08         0.00000E+00
    0.00000E+00         0.00000E+00        -0.46096E+08
 
   -0.46097E+08         0.17275E+07         0.00000E+00
    0.17275E+07        -0.50000E+08         0.00000E+00
    0.00000E+00         0.00000E+00        -0.46096E+08
 
   -0.46097E+08         0.18013E+07         0.00000E+00
    0.18013E+07        -0.50001E+08         0.00000E+00
    0.00000E+00         0.00000E+00        -0.46096E+08
 
   -0.46097E+08         0.18751E+07         0.00000E+00
    0.18751E+07        -0.50001E+08         0.00000E+00
    0.00000E+00         0.00000E+00        -0.46096E+08
 
   -0.46097E+08         0.19489E+07         0.00000E+00
    0.19489E+07        -0.50001E+08         0.00000E+00
    0.00000E+00         0.00000E+00        -0.46096E+08
 
   -0.46097E+08         0.20227E+07         0.00000E+00
    0.20227E+07        -0.50001E+08         0.00000E+00
    0.00000E+00         0.00000E+00        -0.46096E+08
 
   -0.46097E+08         0.20966E+07         0.00000E+00
    0.20966E+07        -0.50001E+08         0.00000E+00
    0.00000E+00         0.00000E+00        -0.46096E+08
 
   -0.46097E+08         0.21706E+07         0.00000E+00
    0.21706E+07        -0.50001E+08         0.00000E+00
    0.00000E+00         0.00000E+00        -0.46096E+08
 
   -0.46097E+08         0.22445E+07         0.00000E+00
    0.22445E+07        -0.50001E+08         0.00000E+00
    0.00000E+00         0.00000E+00        -0.46096E+08
 
   -0.46097E+08         0.23185E+07         0.00000E+00
    0.23185E+07        -0.50001E+08         0.00000E+00
    0.00000E+00         0.00000E+00        -0.46096E+08
 
   -0.46097E+08         0.23926E+07         0.00000E+00
    0.23926E+07        -0.50001E+08         0.00000E+00
    0.00000E+00         0.00000E+00        -0.46096E+08
 
   -0.46097E+08         0.24666E+07         0.00000E+00
    0.24666E+07        -0.50001E+08         0.00000E+00
    0.00000E+00         0.00000E+00        -0.46096E+08
 
   -0.46097E+08         0.25407E+07         0.00000E+00
    0.25407E+07        -0.50001E+08         0.00000E+00
    0.00000E+00         0.00000E+00        -0.46096E+08
 
   -0.46097E+08         0.26149E+07         0.00000E+00
    0.26149E+07        -0.50001E+08         0.00000E+00
    0.00000E+00         0.00000E+00        -0.46096E+08
 
   -0.46097E+08         0.26891E+07         0.00000E+00
    0.26891E+07        -0.50001E+08         0.00000E+00
    0.00000E+00         0.00000E+00        -0.46096E+08
 
   -0.46097E+08         0.27633E+07         0.00000E+00
    0.27633E+07        -0.50001E+08         0.00000E+00
    0.00000E+00         0.00000E+00        -0.46096E+08
 
   -0.46097E+08         0.28376E+07         0.00000E+00
    0.28376E+07        -0.50001E+08         0.00000E+00
    0.00000E+00         0.00000E+00        -0.46096E+08
 
   -0.46097E+08         0.29119E+07         0.00000E+00
    0.29119E+07        -0.50001E+08         0.00000E+00
    0.00000E+00         0.00000E+00        -0.46096E+08
 
   -0.46096E+08         0.29863E+07         0.00000E+00
    0.29863E+07        -0.50001E+08         0.00000E+00
    0.00000E+00         0.00000E+00        -0.46096E+08
 
   -0.46096E+08         0.30607E+07         0.00000E+00
    0.30607E+07        -0.50001E+08         0.00000E+00
    0.00000E+00         0.00000E+00        -0.46096E+08
 
   -0.46096E+08         0.31351E+07         0.00000E+00
    0.31351E+07        -0.50001E+08         0.00000E+00
    0.00000E+00         0.00000E+00        -0.46096E+08
 
   -0.46096E+08         0.32096E+07         0.00000E+00
    0.32096E+07        -0.50001E+08         0.00000E+00
    0.00000E+00         0.00000E+00        -0.46096E+08
 
   -0.46096E+08         0.32842E+07         0.00000E+00
    0.32842E+07        -0.50001E+08         0.00000E+00
    0.00000E+00         0.00000E+00        -0.46096E+08
 
   -0.46096E+08         0.33588E+07         0.00000E+00
    0.33588E+07        -0.50001E+08         0.00000E+00
    0.00000E+00         0.00000E+00        -0.46096E+08
 
   -0.46096E+08         0.34334E+07         0.00000E+00
    0.34334E+07        -0.50002E+08         0.00000E+00
    0.00000E+00         0.00000E+00        -0.46096E+08
 
   -0.46096E+08         0.35081E+07         0.00000E+00
    0.35081E+07        -0.50002E+08         0.00000E+00
    0.00000E+00         0.00000E+00        -0.46096E+08
 
   -0.46096E+08         0.35828E+07         0.00000E+00
    0.35828E+07        -0.50002E+08         0.00000E+00
    0.00000E+00         0.00000E+00        -0.46096E+08
 
   -0.46096E+08         0.36576E+07         0.00000E+00
    0.36576E+07        -0.50002E+08         0.00000E+00
    0.00000E+00         0.00000E+00        -0.46096E+08
 
   -0.45730E+08         0.36683E+05         0.00000E+00
    0.36683E+05        -0.50000E+08         0.00000E+00
    0.00000E+00         0.00000E+00        -0.45722E+08
 
   -0.45730E+08         0.11005E+06         0.00000E+00
    0.11005E+06        -0.50000E+08         0.00000E+00
    0.00000E+00         0.00000E+00        -0.45722E+08
 
   -0.45730E+08         0.18342E+06         0.00000E+00
    0.18342E+06        -0.50000E+08         0.00000E+00
    0.00000E+00         0.00000E+00        -0.45722E+08
 
   -0.45730E+08         0.25680E+06         0.00000E+00
    0.25680E+06        -0.50000E+08         0.00000E+00
    0.00000E+00         0.00000E+00        -0.45722E+08
 
   -0.45730E+08         0.33018E+06         0.00000E+00
    0.33018E+06        -0.50000E+08         0.00000E+00
    0.00000E+00         0.00000E+00        -0.45722E+08
 
   -0.45730E+08         0.40357E+06         0.00000E+00
    0.40357E+06        -0.50000E+08         0.00000E+00
    0.00000E+00         0.00000E+00        -0.45722E+08
 
   -0.45730E+08         0.47696E+06         0.00000E+00
    0.47696E+06        -0.50000E+08         0.00000E+00
    0.00000E+00         0.00000E+00        -0.45722E+08
 
   -0.45730E+08         0.55037E+06         0.00000E+00
    0.55037E+06        -0.50000E+08         0.00000E+00
    0.00000E+00         0.00000E+00        -0.45722E+08
 
   -0.45730E+08         0.62379E+06         0.00000E+00
    0.62379E+06        -0.50000E+08         0.00000E+00
    0.00000E+00         0.00000E+00        -0.45722E+08
 
   -0.45730E+08         0.69721E+06         0.00000E+00
    0.69721E+06        -0.50000E+08         0.00000E+00
    0.00000E+00         0.00000E+00        -0.45722E+08
 
   -0.45730E+08         0.77065E+06         0.00000E+00
    0.77065E+06        -0.50000E+08         0.00000E+00
    0.00000E+00         0.00000E+00        -0.45722E+08
 
   -0.45730E+08         0.84411E+06         0.00000E+00
    0.84411E+06        -0.50000E+08         0.00000E+00
    0.00000E+00         0.00000E+00        -0.45722E+08
 
   -0.45730E+08         0.91758E+06         0.00000E+00
    0.91758E+06        -0.50000E+08         0.00000E+00
    0.00000E+00         0.00000E+00        -0.45722E+08
 
   -0.45730E+08         0.99107E+06         0.00000E+00
    0.99107E+06        -0.50000E+08         0.00000E+00
    0.00000E+00         0.00000E+00        -0.45722E+08
 
   -0.45730E+08         0.10646E+07         0.00000E+00
    0.10646E+07        -0.50001E+08         0.00000E+00
    0.00000E+00         0.00000E+00        -0.45722E+08
 
   -0.45730E+08         0.11381E+07         0.00000E+00
    0.11381E+07        -0.50001E+08         0.00000E+00
    0.00000E+00         0.00000E+00        -0.45722E+08
 
   -0.45730E+08         0.12116E+07         0.00000E+00
    0.12116E+07        -0.50001E+08         0.00000E+00
    0.00000E+00         0.00000E+00        -0.45722E+08
 
   -0.45730E+08         0.12852E+07         0.00000E+00
    0.12852E+07        -0.50001E+08         0.00000E+00
    0.00000E+00         0.00000E+00        -0.45722E+08
 
   -0.45730E+08         0.13588E+07         0.00000E+00
    0.13588E+07        -0.50001E+08         0.00000E+00
    0.00000E+00         0.00000E+00        -0.45722E+08
 
   -0.45729E+08         0.14324E+07         0.00000E+00
    0.14324E+07        -0.50001E+08         0.00000E+00
    0.00000E+00         0.00000E+00        -0.45722E+08
 
   -0.45729E+08         0.15061E+07         0.00000E+00
    0.15061E+07        -0.50001E+08         0.00000E+00
    0.00000E+00         0.00000E+00        -0.45722E+08
 
   -0.45729E+08         0.15797E+07         0.00000E+00
    0.15797E+07        -0.50001E+08         0.00000E+00
    0.00000E+00         0.00000E+00        -0.45722E+08
 
   -0.45729E+08         0.16534E+07         0.00000E+00
    0.16534E+07        -0.50001E+08         0.00000E+00
    0.00000E+00         0.00000E+00        -0.45722E+08
 
   -0.45729E+08         0.17271E+07         0.00000E+00
    0.17271E+07        -0.50001E+08         0.00000E+00
    0.00000E+00         0.00000E+00        -0.45722E+08
 
   -0.45729E+08         0.18009E+07         0.00000E+00
    0.18009E+07        -0.50001E+08         0.00000E+00
    0.00000E+00         0.00000E+00        -0.45722E+08
 
   -0.45728E+08         0.18747E+07         0.00000E+00
    0.18747E+07        -0.50002E+08         0.00000E+00
    0.00000E+00         0.00000E+00        -0.45722E+08
 
   -0.45728E+08         0.19485E+07         0.00000E+00
    0.19485E+07        -0.50002E+08         0.00000E+00
    0.00000E+00         0.00000E+00        -0.45722E+08
 
   -0.45728E+08         0.20223E+07         0.00000E+00
    0.20223E+07        -0.50002E+08         0.00000E+00
    0.00000E+00         0.00000E+00        -0.45722E+08
 
   -0.45728E+08         0.20962E+07         0.00000E+00
    0.20962E+07        -0.50002E+08         0.00000E+00
    0.00000E+00         0.00000E+00        -0.45722E+08
 
   -0.45728E+08         0.21701E+07         0.00000E+00
    0.21701E+07        -0.50002E+08         0.00000E+00
    0.00000E+00         0.00000E+00        -0.45722E+08
 
   -0.45727E+08         0.22441E+07         0.00000E+00
    0.22441E+07        -0.50002E+08         0.00000E+00
    0.00000E+00         0.00000E+00        -0.45722E+08
 
   -0.45727E+08         0.23181E+07         0.00000E+00
    0.23181E+07        -0.50002E+08         0.00000E+00
    0.00000E+00         0.00000E+00        -0.45722E+08
 
   -0.45727E+08         0.23921E+07         0.00000E+00
    0.23921E+07        -0.50002E+08         0.00000E+00
    0.00000E+00         0.00000E+00        -0.45722E+08
 
   -0.45727E+08         0.24662E+07         0.00000E+00
    0.24662E+07        -0.50003E+08         0.00000E+00
    0.00000E+00         0.00000E+00        -0.45722E+08
 
   -0.45726E+08         0.25403E+07         0.00000E+00
    0.25403E+07        -0.50003E+08         0.00000E+00
    0.00000E+00         0.00000E+00        -0.45722E+08
 
   -0.45726E+08         0.26144E+07         0.00000E+00
    0.26144E+07        -0.50003E+08         0.00000E+00
    0.00000E+00         0.00000E+00        -0.45722E+08
 
   -0.45726E+08         0.26886E+07         0.00000E+00
    0.26886E+07        -0.50003E+08         0.00000E+00
    0.00000E+00         0.00000E+00        -0.45722E+08
 
   -0.45725E+08         0.27628E+07         0.00000E+00
    0.27628E+07        -0.50003E+08         0.00000E+00
    0.00000E+00         0.00000E+00        -0.45722E+08
 
   -0.45725E+08         0.28371E+07         0.00000E+00
    0.28371E+07        -0.50003E+08         0.00000E+00
    0.00000E+00         0.00000E+00        -0.45722E+08
 
   -0.45725E+08         0.29114E+07         0.00000E+00
    0.29114E+07        -0.50003E+08         0.00000E+00
    0.00000E+00         0.00000E+00        -0.45722E+08
 
   -0.45725E+08         0.29858E+07         0.00000E+00
    0.29858E+07        -0.50004E+08         0.00000E+00
    0.00000E+00         0.00000E+00        -0.45722E+08
 
   -0.45724E+08         0.30602E+07         0.00000E+00
    0.30602E+07        -0.50004E+08         0.00000E+00
    0.00000E+00         0.00000E+00        -0.45722E+08
 
   -0.45724E+08         0.31346E+07         0.00000E+00
    0.31346E+07        -0.50004E+08         0.00000E+00
    0.00000E+00         0.00000E+00        -0.45722E+08
 
   -0.45724E+08         0.32091E+07         0.00000E+00
    0.32091E+07        -0.50004E+08         0.00000E+00
    0.00000E+00         0.00000E+00        -0.45722E+08
 
   -0.45723E+08         0.32837E+07         0.00000E+00
    0.32837E+07        -0.50004E+08         0.00000E+00
    0.00000E+00         0.00000E+00        -0.45722E+08
 
   -0.45723E+08         0.33583E+07         0.00000E+00
    0.33583E+07        -0.50004E+08         0.00000E+00
    0.00000E+00         0.00000E+00        -0.45722E+08
 
   -0.45723E+08         0.34329E+07         0.00000E+00
    0.34329E+07        -0.50005E+08         0.00000E+00
    0.00000E+00         0.00000E+00        -0.45722E+08
 
   -0.45722E+08         0.35076E+07         0.00000E+00
    0.35076E+07        -0.50005E+08         0.00000E+00
    0.00000E+00         0.00000E+00        -0.45721E+08
 
   -0.45722E+08         0.35823E+07         0.00000E+00
    0.35823E+07        -0.50005E+08         0.00000E+00
    0.00000E+00         0.00000E+00        -0.45721E+08
 
   -0.45722E+08         0.36571E+07         0.00000E+00
    0.36571E+07        -0.50005E+08         0.00000E+00
    0.00000E+00         0.00000E+00        -0.45721E+08
 
   -0.45363E+08         0.36666E+05         0.00000E+00
    0.36666E+05        -0.50000E+08         0.00000E+00
    0.00000E+00         0.00000E+00        -0.45349E+08
 
   -0.45363E+08         0.11000E+06         0.00000E+00
    0.11000E+06        -0.50000E+08         0.00000E+00
    0.00000E+00         0.00000E+00        -0.45349E+08
 
   -0.45363E+08         0.18334E+06         0.00000E+00
    0.18334E+06        -0.50000E+08         0.00000E+00
    0.00000E+00         0.00000E+00        -0.45349E+08
 
   -0.45363E+08         0.25668E+06         0.00000E+00
    0.25668E+06        -0.50000E+08         0.00000E+00
    0.00000E+00         0.00000E+00        -0.45349E+08
 
   -0.45363E+08         0.33003E+06         0.00000E+00
    0.33003E+06        -0.50000E+08         0.00000E+00
    0.00000E+00         0.00000E+00        -0.45349E+08
 
   -0.45363E+08         0.40338E+06         0.00000E+00
    0.40338E+06        -0.50000E+08         0.00000E+00
    0.00000E+00         0.00000E+00        -0.45349E+08
 
   -0.45363E+08         0.47675E+06         0.00000E+00
    0.47675E+06        -0.50000E+08         0.00000E+00
    0.00000E+00         0.00000E+00        -0.45349E+08
 
   -0.45363E+08         0.55012E+06         0.00000E+00
    0.55012E+06        -0.50000E+08         0.00000E+00
    0.00000E+00         0.00000E+00        -0.45349E+08
 
   -0.45363E+08         0.62350E+06         0.00000E+00
    0.62350E+06        -0.50000E+08         0.00000E+00
    0.00000E+00         0.00000E+00        -0.45349E+08
 
   -0.45363E+08         0.69690E+06         0.00000E+00
    0.69690E+06        -0.50000E+08         0.00000E+00
    0.00000E+00         0.00000E+00        -0.45349E+08
 
   -0.45363E+08         0.77031E+06         0.00000E+00
    0.77031E+06        -0.50000E+08         0.00000E+00
    0.00000E+00         0.00000E+00        -0.45349E+08
 
   -0.45363E+08         0.84373E+06         0.00000E+00
    0.84373E+06        -0.50001E+08         0.00000E+00
    0.00000E+00         0.00000E+00        -0.45349E+08
 
   -0.45363E+08         0.91717E+06         0.00000E+00
    0.91717E+06        -0.50001E+08         0.00000E+00
    0.00000E+00         0.00000E+00        -0.45349E+08
 
   -0.45363E+08         0.99062E+06         0.00000E+00
    0.99062E+06        -0.50001E+08         0.00000E+00
    0.00000E+00         0.00000E+00        -0.45349E+08
 
   -0.45362E+08         0.10641E+07         0.00000E+00
    0.10641E+07        -0.50001E+08         0.00000E+00
    0.00000E+00         0.00000E+00        -0.45349E+08
 
   -0.45362E+08         0.11376E+07         0.00000E+00
    0.11376E+07        -0.50001E+08         0.00000E+00
    0.00000E+00         0.00000E+00        -0.45349E+08
 
   -0.45362E+08         0.12111E+07         0.00000E+00
    0.12111E+07        -0.50001E+08         0.00000E+00
    0.00000E+00         0.00000E+00        -0.45349E+08
 
   -0.45362E+08         0.12846E+07         0.00000E+00
    0.12846E+07        -0.50001E+08         0.00000E+00
    0.00000E+00         0.00000E+00        -0.45349E+08
 
   -0.45362E+08         0.13582E+07         0.00000E+00
    0.13582E+07        -0.50001E+08         0.00000E+00
    0.00000E+00         0.00000E+00        -0.45349E+08
 
   -0.45361E+08         0.14318E+07         0.00000E+00
    0.14318E+07        -0.50002E+08         0.00000E+00
    0.00000E+00         0.00000E+00        -0.45349E+08
 
   -0.45361E+08         0.15054E+07         0.00000E+00
    0.15054E+07        -0.50002E+08         0.00000E+00
    0.00000E+00         0.00000E+00        -0.45349E+08
 
   -0.45361E+08         0.15790E+07         0.00000E+00
    0.15790E+07        -0.50002E+08         0.00000E+00
    0.00000E+00         0.00000E+00        -0.45349E+08
 
   -0.45360E+08         0.16527E+07         0.00000E+00
    0.16527E+07        -0.50002E+08         0.00000E+00
    0.00000E+00         0.00000E+00        -0.45349E+08
 
   -0.45360E+08         0.17264E+07         0.00000E+00
    0.17264E+07        -0.50002E+08         0.00000E+00
    0.00000E+00         0.00000E+00        -0.45349E+08
 
   -0.45360E+08         0.18001E+07         0.00000E+00
    0.18001E+07        -0.50002E+08         0.00000E+00
    0.00000E+00         0.00000E+00        -0.45349E+08
 
   -0.45359E+08         0.18739E+07         0.00000E+00
    0.18739E+07        -0.50003E+08         0.00000E+00
    0.00000E+00         0.00000E+00        -0.45348E+08
 
   -0.45359E+08         0.19477E+07         0.00000E+00
    0.19477E+07        -0.50003E+08         0.00000E+00
    0.00000E+00         0.00000E+00        -0.45348E+08
 
   -0.45359E+08         0.20215E+07         0.00000E+00
    0.20215E+07        -0.50003E+08         0.00000E+00
    0.00000E+00         0.00000E+00        -0.45348E+08
 
   -0.45358E+08         0.20954E+07         0.00000E+00
    0.20954E+07        -0.50003E+08         0.00000E+00
    0.00000E+00         0.00000E+00        -0.45348E+08
 
   -0.45358E+08         0.21693E+07         0.00000E+00
    0.21693E+07        -0.50003E+08         0.00000E+00
    0.00000E+00         0.00000E+00        -0.45348E+08
 
   -0.45357E+08         0.22432E+07         0.00000E+00
    0.22432E+07        -0.50004E+08         0.00000E+00
    0.00000E+00         0.00000E+00        -0.45348E+08
 
   -0.45357E+08         0.23172E+07         0.00000E+00
    0.23172E+07        -0.50004E+08         0.00000E+00
    0.00000E+00         0.00000E+00        -0.45348E+08
 
   -0.45357E+08         0.23912E+07         0.00000E+00
    0.23912E+07        -0.50004E+08         0.00000E+00
    0.00000E+00         0.00000E+00        -0.45348E+08
 
   -0.45356E+08         0.24652E+07         0.00000E+00
    0.24652E+07        -0.50004E+08         0.00000E+00
    0.00000E+00         0.00000E+00        -0.45348E+08
 
   -0.45356E+08         0.25393E+07         0.00000E+00
    0.25393E+07        -0.50005E+08         0.00000E+00
    0.00000E+00         0.00000E+00        -0.45348E+08
 
   -0.45355E+08         0.26135E+07         0.00000E+00
    0.26135E+07        -0.50005E+08         0.00000E+00
    0.00000E+00         0.00000E+00        -0.45348E+08
 
   -0.45355E+08         0.26876E+07         0.00000E+00
    0.26876E+07        -0.50005E+08         0.00000E+00
    0.00000E+00         0.00000E+00        -0.45348E+08
 
   -0.45354E+08         0.27618E+07         0.00000E+00
    0.27618E+07        -0.50005E+08         0.00000E+00
    0.00000E+00         0.00000E+00        -0.45348E+08
 
   -0.45354E+08         0.28361E+07         0.00000E+00
    0.28361E+07        -0.50006E+08         0.00000E+00
    0.00000E+00         0.00000E+00        -0.45348E+08
 
   -0.45353E+08         0.29104E+07         0.00000E+00
    0.29104E+07        -0.50006E+08         0.00000E+00
    0.00000E+00         0.00000E+00        -0.45348E+08
 
   -0.45353E+08         0.29848E+07         0.00000E+00
    0.29848E+07        -0.50006E+08         0.00000E+00
    0.00000E+00         0.00000E+00        -0.45348E+08
 
   -0.45352E+08         0.30592E+07         0.00000E+00
    0.30592E+07        -0.50006E+08         0.00000E+00
    0.00000E+00         0.00000E+00        -0.45348E+08
 
   -0.45352E+08         0.31336E+07         0.00000E+00
    0.31336E+07        -0.50007E+08         0.00000E+00
    0.00000E+00         0.00000E+00        -0.45348E+08
 
   -0.45351E+08         0.32081E+07         0.00000E+00
    0.32081E+07        -0.50007E+08         0.00000E+00
    0.00000E+00         0.00000E+00        -0.45348E+08
 
   -0.45350E+08         0.32826E+07         0.00000E+00
    0.32826E+07        -0.50007E+08         0.00000E+00
    0.00000E+00         0.00000E+00        -0.45348E+08
 
   -0.45350E+08         0.33572E+07         0.00000E+00
    0.33572E+07        -0.50007E+08         0.00000E+00
    0.00000E+00         0.00000E+00        -0.45347E+08
 
   -0.45349E+08         0.34318E+07         0.00000E+00
    0.34318E+07        -0.50008E+08         0.00000E+00
    0.00000E+00         0.00000E+00        -0.45347E+08
 
   -0.45349E+08         0.35065E+07         0.00000E+00
    0.35065E+07        -0.50008E+08         0.00000E+00
    0.00000E+00         0.00000E+00        -0.45347E+08
 
   -0.45348E+08         0.35813E+07         0.00000E+00
    0.35813E+07        -0.50008E+08         0.00000E+00
    0.00000E+00         0.00000E+00        -0.45347E+08
 
   -0.45348E+08         0.36561E+07         0.00000E+00
    0.36561E+07        -0.50008E+08         0.00000E+00
    0.00000E+00         0.00000E+00        -0.45347E+08
 
   -0.44997E+08         0.36641E+05         0.00000E+00
    0.36641E+05        -0.50000E+08         0.00000E+00
    0.00000E+00         0.00000E+00        -0.44975E+08
 
   -0.44997E+08         0.10993E+06         0.00000E+00
    0.10993E+06        -0.50000E+08         0.00000E+00
    0.00000E+00         0.00000E+00        -0.44975E+08
 
   -0.44997E+08         0.18321E+06         0.00000E+00
    0.18321E+06        -0.50000E+08         0.00000E+00
    0.00000E+00         0.00000E+00        -0.44975E+08
 
   -0.44997E+08         0.25651E+06         0.00000E+00
    0.25651E+06        -0.50000E+08         0.00000E+00
    0.00000E+00         0.00000E+00        -0.44975E+08
 
   -0.44997E+08         0.32980E+06         0.00000E+00
    0.32980E+06        -0.50000E+08         0.00000E+00
    0.00000E+00         0.00000E+00        -0.44975E+08
 
   -0.44997E+08         0.40311E+06         0.00000E+00
    0.40311E+06        -0.50000E+08         0.00000E+00
    0.00000E+00         0.00000E+00        -0.44975E+08
 
   -0.44997E+08         0.47642E+06         0.00000E+00
    0.47642E+06        -0.50000E+08         0.00000E+00
    0.00000E+00         0.00000E+00        -0.44975E+08
 
   -0.44997E+08         0.54974E+06         0.00000E+00
    0.54974E+06        -0.50000E+08         0.00000E+00
    0.00000E+00         0.00000E+00        -0.44975E+08
 
   -0.44996E+08         0.62308E+06         0.00000E+00
    0.62308E+06        -0.50000E+08         0.00000E+00
    0.00000E+00         0.00000E+00        -0.44975E+08
 
   -0.44996E+08         0.69643E+06         0.00000E+00
    0.69643E+06        -0.50001E+08         0.00000E+00
    0.00000E+00         0.00000E+00        -0.44975E+08
 
   -0.44996E+08         0.76979E+06         0.00000E+00
    0.76979E+06        -0.50001E+08         0.00000E+00
    0.00000E+00         0.00000E+00        -0.44975E+08
 
   -0.44996E+08         0.84316E+06         0.00000E+00
    0.84316E+06        -0.50001E+08         0.00000E+00
    0.00000E+00         0.00000E+00        -0.44975E+08
 
   -0.44996E+08         0.91655E+06         0.00000E+00
    0.91655E+06        -0.50001E+08         0.00000E+00
    0.00000E+00         0.00000E+00        -0.44975E+08
 
   -0.44995E+08         0.98996E+06         0.00000E+00
    0.98996E+06        -0.50001E+08         0.00000E+00
    0.00000E+00         0.00000E+00        -0.44975E+08
 
   -0.44995E+08         0.10634E+07         0.00000E+00
    0.10634E+07        -0.50001E+08         0.00000E+00
    0.00000E+00         0.00000E+00        -0.44975E+08
 
   -0.44995E+08         0.11368E+07         0.00000E+00
    0.11368E+07        -0.50001E+08         0.00000E+00
    0.00000E+00         0.00000E+00        -0.44975E+08
 
   -0.44995E+08         0.12103E+07         0.00000E+00
    0.12103E+07        -0.50002E+08         0.00000E+00
    0.00000E+00         0.00000E+00        -0.44975E+08
 
   -0.44994E+08         0.12838E+07         0.00000E+00
    0.12838E+07        -0.50002E+08         0.00000E+00
    0.00000E+00         0.00000E+00        -0.44975E+08
 
   -0.44994E+08         0.13573E+07         0.00000E+00
    0.13573E+07        -0.50002E+08         0.00000E+00
    0.00000E+00         0.00000E+00        -0.44975E+08
 
   -0.44993E+08         0.14309E+07         0.00000E+00
    0.14309E+07        -0.50002E+08         0.00000E+00
    0.00000E+00         0.00000E+00        -0.44975E+08
 
   -0.44993E+08         0.15044E+07         0.00000E+00
    0.15044E+07        -0.50002E+08         0.00000E+00
    0.00000E+00         0.00000E+00        -0.44975E+08
 
   -0.44993E+08         0.15780E+07         0.00000E+00
    0.15780E+07        -0.50003E+08         0.00000E+00
    0.00000E+00         0.00000E+00        -0.44975E+08
 
   -0.44992E+08         0.16517E+07         0.00000E+00
    0.16517E+07        -0.50003E+08         0.00000E+00
    0.00000E+00         0.00000E+00        -0.44975E+08
 
   -0.44992E+08         0.17253E+07         0.00000E+00
    0.17253E+07        -0.50003E+08         0.00000E+00
    0.00000E+00         0.00000E+00        -0.44975E+08
 
   -0.44991E+08         0.17990E+07         0.00000E+00
    0.17990E+07        -0.50003E+08         0.00000E+00
    0.00000E+00         0.00000E+00        -0.44975E+08
 
   -0.44991E+08         0.18727E+07         0.00000E+00
    0.18727E+07        -0.50004E+08         0.00000E+00
    0.00000E+00         0.00000E+00        -0.44975E+08
 
   -0.44990E+08         0.19465E+07         0.00000E+00
    0.19465E+07        -0.50004E+08         0.00000E+00
    0.00000E+00         0.00000E+00        -0.44975E+08
 
   -0.44990E+08         0.20203E+07         0.00000E+00
    0.20203E+07        -0.50004E+08         0.00000E+00
    0.00000E+00         0.00000E+00        -0.44975E+08
 
   -0.44989E+08         0.20941E+07         0.00000E+00
    0.20941E+07        -0.50005E+08         0.00000E+00
    0.00000E+00         0.00000E+00        -0.44975E+08
 
   -0.44988E+08         0.21680E+07         0.00000E+00
    0.21680E+07        -0.50005E+08         0.00000E+00
    0.00000E+00         0.00000E+00        -0.44975E+08
 
   -0.44988E+08         0.22419E+07         0.00000E+00
    0.22419E+07        -0.50005E+08         0.00000E+00
    0.00000E+00         0.00000E+00        -0.44975E+08
 
   -0.44987E+08         0.23158E+07         0.00000E+00
    0.23158E+07        -0.50005E+08         0.00000E+00
    0.00000E+00         0.00000E+00        -0.44975E+08
 
   -0.44987E+08         0.23898E+07         0.00000E+00
    0.23898E+07        -0.50006E+08         0.00000E+00
    0.00000E+00         0.00000E+00        -0.44974E+08
 
   -0.44986E+08         0.24638E+07         0.00000E+00
    0.24638E+07        -0.50006E+08         0.00000E+00
    0.00000E+00         0.00000E+00        -0.44974E+08
 
   -0.44985E+08         0.25379E+07         0.00000E+00
    0.25379E+07        -0.50006E+08         0.00000E+00
    0.00000E+00         0.00000E+00        -0.44974E+08
 
   -0.44984E+08         0.26120E+07         0.00000E+00
    0.26120E+07        -0.50007E+08         0.00000E+00
    0.00000E+00         0.00000E+00        -0.44974E+08
 
   -0.44984E+08         0.26861E+07         0.00000E+00
    0.26861E+07        -0.50007E+08         0.00000E+00
    0.00000E+00         0.00000E+00        -0.44974E+08
 
   -0.44983E+08         0.27603E+07         0.00000E+00
    0.27603E+07        -0.50007E+08         0.00000E+00
    0.00000E+00         0.00000E+00        -0.44974E+08
 
   -0.44982E+08         0.28346E+07         0.00000E+00
    0.28346E+07        -0.50008E+08         0.00000E+00
    0.00000E+00         0.00000E+00        -0.44974E+08
 
   -0.44982E+08         0.29089E+07         0.00000E+00
    0.29089E+07        -0.50008E+08         0.00000E+00
    0.00000E+00         0.00000E+00        -0.44974E+08
 
   -0.44981E+08         0.29832E+07         0.00000E+00
    0.29832E+07        -0.50009E+08         0.00000E+00
    0.00000E+00         0.00000E+00        -0.44974E+08
 
   -0.44980E+08         0.30576E+07         0.00000E+00
    0.30576E+07        -0.50009E+08         0.00000E+00
    0.00000E+00         0.00000E+00        -0.44974E+08
 
   -0.44979E+08         0.31320E+07         0.00000E+00
    0.31320E+07        -0.50009E+08         0.00000E+00
    0.00000E+00         0.00000E+00        -0.44974E+08
 
   -0.44978E+08         0.32065E+07         0.00000E+00
    0.32065E+07        -0.50010E+08         0.00000E+00
    0.00000E+00         0.00000E+00        -0.44974E+08
 
   -0.44978E+08         0.32810E+07         0.00000E+00
    0.32810E+07        -0.50010E+08         0.00000E+00
    0.00000E+00         0.00000E+00        -0.44974E+08
 
   -0.44977E+08         0.33556E+07         0.00000E+00
    0.33556E+07        -0.50010E+08         0.00000E+00
    0.00000E+00         0.00000E+00        -0.44973E+08
 
   -0.44976E+08         0.34302E+07         0.00000E+00
    0.34302E+07        -0.50011E+08         0.00000E+00
    0.00000E+00         0.00000E+00        -0.44973E+08
 
   -0.44975E+08         0.35049E+07         0.00000E+00
    0.35049E+07        -0.50011E+08         0.00000E+00
    0.00000E+00         0.00000E+00        -0.44973E+08
 
   -0.44974E+08         0.35796E+07         0.00000E+00
    0.35796E+07        -0.50012E+08         0.00000E+00
    0.00000E+00         0.00000E+00        -0.44973E+08
 
   -0.44973E+08         0.36544E+07         0.00000E+00
    0.36544E+07        -0.50012E+08         0.00000E+00
    0.00000E+00         0.00000E+00        -0.44973E+08
 
   -0.44631E+08         0.36607E+05         0.00000E+00
    0.36607E+05        -0.50000E+08         0.00000E+00
    0.00000E+00         0.00000E+00        -0.44602E+08
 
   -0.44631E+08         0.10982E+06         0.00000E+00
    0.10982E+06        -0.50000E+08         0.00000E+00
    0.00000E+00         0.00000E+00        -0.44602E+08
 
   -0.44631E+08         0.18304E+06         0.00000E+00
    0.18304E+06        -0.50000E+08         0.00000E+00
    0.00000E+00         0.00000E+00        -0.44602E+08
 
   -0.44631E+08         0.25627E+06         0.00000E+00
    0.25627E+06        -0.50000E+08         0.00000E+00
    0.00000E+00         0.00000E+00        -0.44602E+08
 
   -0.44630E+08         0.32950E+06         0.00000E+00
    0.32950E+06        -0.50000E+08         0.00000E+00
    0.00000E+00         0.00000E+00        -0.44602E+08
 
   -0.44630E+08         0.40274E+06         0.00000E+00
    0.40274E+06        -0.50000E+08         0.00000E+00
    0.00000E+00         0.00000E+00        -0.44602E+08
 
   -0.44630E+08         0.47598E+06         0.00000E+00
    0.47598E+06        -0.50000E+08         0.00000E+00
    0.00000E+00         0.00000E+00        -0.44602E+08
 
   -0.44630E+08         0.54924E+06         0.00000E+00
    0.54924E+06        -0.50000E+08         0.00000E+00
    0.00000E+00         0.00000E+00        -0.44602E+08
 
   -0.44630E+08         0.62251E+06         0.00000E+00
    0.62251E+06        -0.50001E+08         0.00000E+00
    0.00000E+00         0.00000E+00        -0.44602E+08
 
   -0.44630E+08         0.69579E+06         0.00000E+00
    0.69579E+06        -0.50001E+08         0.00000E+00
    0.00000E+00         0.00000E+00        -0.44602E+08
 
   -0.44629E+08         0.76909E+06         0.00000E+00
    0.76909E+06        -0.50001E+08         0.00000E+00
    0.00000E+00         0.00000E+00        -0.44602E+08
 
   -0.44629E+08         0.84240E+06         0.00000E+00
    0.84240E+06        -0.50001E+08         0.00000E+00
    0.00000E+00         0.00000E+00        -0.44602E+08
 
   -0.44629E+08         0.91573E+06         0.00000E+00
    0.91573E+06        -0.50001E+08         0.00000E+00
    0.00000E+00         0.00000E+00        -0.44602E+08
 
   -0.44628E+08         0.98907E+06         0.00000E+00
    0.98907E+06        -0.50001E+08         0.00000E+00
    0.00000E+00         0.00000E+00        -0.44602E+08
 
   -0.44628E+08         0.10624E+07         0.00000E+00
    0.10624E+07        -0.50002E+08         0.00000E+00
    0.00000E+00         0.00000E+00        -0.44602E+08
 
   -0.44628E+08         0.11358E+07         0.00000E+00
    0.11358E+07        -0.50002E+08         0.00000E+00
    0.00000E+00         0.00000E+00        -0.44602E+08
 
   -0.44627E+08         0.12092E+07         0.00000E+00
    0.12092E+07        -0.50002E+08         0.00000E+00
    0.00000E+00         0.00000E+00        -0.44602E+08
 
   -0.44627E+08         0.12827E+07         0.00000E+00
    0.12827E+07        -0.50002E+08         0.00000E+00
    0.00000E+00         0.00000E+00        -0.44602E+08
 
   -0.44626E+08         0.13561E+07         0.00000E+00
    0.13561E+07        -0.50003E+08         0.00000E+00
    0.00000E+00         0.00000E+00        -0.44602E+08
 
   -0.44626E+08         0.14296E+07         0.00000E+00
    0.14296E+07        -0.50003E+08         0.00000E+00
    0.00000E+00         0.00000E+00        -0.44602E+08
 
   -0.44625E+08         0.15031E+07         0.00000E+00
    0.15031E+07        -0.50003E+08         0.00000E+00
    0.00000E+00         0.00000E+00        -0.44602E+08
 
   -0.44625E+08         0.15767E+07         0.00000E+00
    0.15767E+07        -0.50003E+08         0.00000E+00
    0.00000E+00         0.00000E+00        -0.44602E+08
 
   -0.44624E+08         0.16503E+07         0.00000E+00
    0.16503E+07        -0.50004E+08         0.00000E+00
    0.00000E+00         0.00000E+00        -0.44601E+08
 
   -0.44623E+08         0.17239E+07         0.00000E+00
    0.17239E+07        -0.50004E+08         0.00000E+00
    0.00000E+00         0.00000E+00        -0.44601E+08
 
   -0.44623E+08         0.17975E+07         0.00000E+00
    0.17975E+07        -0.50004E+08         0.00000E+00
    0.00000E+00         0.00000E+00        -0.44601E+08
 
   -0.44622E+08         0.18712E+07         0.00000E+00
    0.18712E+07        -0.50005E+08         0.00000E+00
    0.00000E+00         0.00000E+00        -0.44601E+08
 
   -0.44621E+08         0.19449E+07         0.00000E+00
    0.19449E+07        -0.50005E+08         0.00000E+00
    0.00000E+00         0.00000E+00        -0.44601E+08
 
   -0.44621E+08         0.20186E+07         0.00000E+00
    0.20186E+07        -0.50005E+08         0.00000E+00
    0.00000E+00         0.00000E+00        -0.44601E+08
 
   -0.44620E+08         0.20924E+07         0.00000E+00
    0.20924E+07        -0.50006E+08         0.00000E+00
    0.00000E+00         0.00000E+00        -0.44601E+08
 
   -0.44619E+08         0.21662E+07         0.00000E+00
    0.21662E+07        -0.50006E+08         0.00000E+00
    0.00000E+00         0.00000E+00        -0.44601E+08
 
   -0.44618E+08         0.22401E+07         0.00000E+00
    0.22401E+07        -0.50007E+08         0.00000E+00
    0.00000E+00         0.00000E+00        -0.44601E+08
 
   -0.44617E+08         0.23140E+07         0.00000E+00
    0.23140E+07        -0.50007E+08         0.00000E+00
    0.00000E+00         0.00000E+00        -0.44601E+08
 
   -0.44617E+08         0.23879E+07         0.00000E+00
    0.23879E+07        -0.50007E+08         0.00000E+00
    0.00000E+00         0.00000E+00        -0.44601E+08
 
   -0.44616E+08         0.24619E+07         0.00000E+00
    0.24619E+07        -0.50008E+08         0.00000E+00
    0.00000E+00         0.00000E+00        -0.44601E+08
 
   -0.44615E+08         0.25359E+07         0.00000E+00
    0.25359E+07        -0.50008E+08         0.00000E+00
    0.00000E+00         0.00000E+00        -0.44601E+08
 
   -0.44614E+08         0.26100E+07         0.00000E+00
    0.26100E+07        -0.50009E+08         0.00000E+00
    0.00000E+00         0.00000E+00        -0.44600E+08
 
   -0.44613E+08         0.26841E+07         0.00000E+00
    0.26841E+07        -0.50009E+08         0.00000E+00
    0.00000E+00         0.00000E+00        -0.44600E+08
 
   -0.44612E+08         0.27583E+07         0.00000E+00
    0.27583E+07        -0.50010E+08         0.00000E+00
    0.00000E+00         0.00000E+00        -0.44600E+08
 
   -0.44611E+08         0.28325E+07         0.00000E+00
    0.28325E+07        -0.50010E+08         0.00000E+00
    0.00000E+00         0.00000E+00        -0.44600E+08
 
   -0.44610E+08         0.29068E+07         0.00000E+00
    0.29068E+07        -0.50011E+08         0.00000E+00
    0.00000E+00         0.00000E+00        -0.44600E+08
 
   -0.44609E+08         0.29811E+07         0.00000E+00
    0.29811E+07        -0.50011E+08         0.00000E+00
    0.00000E+00         0.00000E+00        -0.44600E+08
 
   -0.44608E+08         0.30555E+07         0.00000E+00
    0.30555E+07        -0.50012E+08         0.00000E+00
    0.00000E+00         0.00000E+00        -0.44600E+08
 
   -0.44607E+08         0.31299E+07         0.00000E+00
    0.31299E+07        -0.50012E+08         0.00000E+00
    0.00000E+00         0.00000E+00        -0.44600E+08
 
   -0.44606E+08         0.32043E+07         0.00000E+00
    0.32043E+07        -0.50013E+08         0.00000E+00
    0.00000E+00         0.00000E+00        -0.44600E+08
 
   -0.44605E+08         0.32788E+07         0.00000E+00
    0.32788E+07        -0.50013E+08         0.00000E+00
    0.00000E+00         0.00000E+00        -0.44599E+08
 
   -0.44604E+08         0.33534E+07         0.00000E+00
    0.33534E+07        -0.50014E+08         0.00000E+00
    0.00000E+00         0.00000E+00        -0.44599E+08
 
   -0.44603E+08         0.34280E+07         0.00000E+00
    0.34280E+07        -0.50014E+08         0.00000E+00
    0.00000E+00         0.00000E+00        -0.44599E+08
 
   -0.44602E+08         0.35027E+07         0.00000E+00
    0.35027E+07        -0.50015E+08         0.00000E+00
    0.00000E+00         0.00000E+00        -0.44599E+08
 
   -0.44600E+08         0.35774E+07         0.00000E+00
    0.35774E+07        -0.50015E+08         0.00000E+00
    0.00000E+00         0.00000E+00        -0.44599E+08
 
   -0.44599E+08         0.36522E+07         0.00000E+00
    0.36522E+07        -0.50016E+08         0.00000E+00
    0.00000E+00         0.00000E+00        -0.44599E+08
 
   -0.44265E+08         0.36564E+05         0.00000E+00
    0.36564E+05        -0.50000E+08         0.00000E+00
    0.00000E+00         0.00000E+00        -0.44229E+08
 
   -0.44265E+08         0.10970E+06         0.00000E+00
    0.10970E+06        -0.50000E+08         0.00000E+00
    0.00000E+00         0.00000E+00        -0.44229E+08
 
   -0.44265E+08         0.18283E+06         0.00000E+00
    0.18283E+06        -0.50000E+08         0.00000E+00
    0.00000E+00         0.00000E+00        -0.44229E+08
 
   -0.44265E+08         0.25597E+06         0.00000E+00
    0.25597E+06        -0.50000E+08         0.00000E+00
    0.00000E+00         0.00000E+00        -0.44229E+08
 
   -0.44265E+08         0.32911E+06         0.00000E+00
    0.32911E+06        -0.50000E+08         0.00000E+00
    0.00000E+00         0.00000E+00        -0.44229E+08
 
   -0.44264E+08         0.40227E+06         0.00000E+00
    0.40227E+06        -0.50000E+08         0.00000E+00
    0.00000E+00         0.00000E+00        -0.44229E+08
 
   -0.44264E+08         0.47543E+06         0.00000E+00
    0.47543E+06        -0.50000E+08         0.00000E+00
    0.00000E+00         0.00000E+00        -0.44229E+08
 
   -0.44264E+08         0.54860E+06         0.00000E+00
    0.54860E+06        -0.50001E+08         0.00000E+00
    0.00000E+00         0.00000E+00        -0.44229E+08
 
   -0.44264E+08         0.62179E+06         0.00000E+00
    0.62179E+06        -0.50001E+08         0.00000E+00
    0.00000E+00         0.00000E+00        -0.44229E+08
 
   -0.44263E+08         0.69498E+06         0.00000E+00
    0.69498E+06        -0.50001E+08         0.00000E+00
    0.00000E+00         0.00000E+00        -0.44229E+08
 
   -0.44263E+08         0.76820E+06         0.00000E+00
    0.76820E+06        -0.50001E+08         0.00000E+00
    0.00000E+00         0.00000E+00        -0.44229E+08
 
   -0.44263E+08         0.84143E+06         0.00000E+00
    0.84143E+06        -0.50001E+08         0.00000E+00
    0.00000E+00         0.00000E+00        -0.44229E+08
 
   -0.44262E+08         0.91468E+06         0.00000E+00
    0.91468E+06        -0.50001E+08         0.00000E+00
    0.00000E+00         0.00000E+00        -0.44229E+08
 
   -0.44262E+08         0.98794E+06         0.00000E+00
    0.98794E+06        -0.50002E+08         0.00000E+00
    0.00000E+00         0.00000E+00        -0.44228E+08
 
   -0.44261E+08         0.10612E+07         0.00000E+00
    0.10612E+07        -0.50002E+08         0.00000E+00
    0.00000E+00         0.00000E+00        -0.44228E+08
 
   -0.44261E+08         0.11345E+07         0.00000E+00
    0.11345E+07        -0.50002E+08         0.00000E+00
    0.00000E+00         0.00000E+00        -0.44228E+08
 
   -0.44260E+08         0.12079E+07         0.00000E+00
    0.12079E+07        -0.50003E+08         0.00000E+00
    0.00000E+00         0.00000E+00        -0.44228E+08
 
   -0.44260E+08         0.12812E+07         0.00000E+00
    0.12812E+07        -0.50003E+08         0.00000E+00
    0.00000E+00         0.00000E+00        -0.44228E+08
 
   -0.44259E+08         0.13546E+07         0.00000E+00
    0.13546E+07        -0.50003E+08         0.00000E+00
    0.00000E+00         0.00000E+00        -0.44228E+08
 
   -0.44258E+08         0.14280E+07         0.00000E+00
    0.14280E+07        -0.50004E+08         0.00000E+00
    0.00000E+00         0.00000E+00        -0.44228E+08
 
   -0.44258E+08         0.15015E+07         0.00000E+00
    0.15015E+07        -0.50004E+08         0.00000E+00
    0.00000E+00         0.00000E+00        -0.44228E+08
 
   -0.44257E+08         0.15750E+07         0.00000E+00
    0.15750E+07        -0.50004E+08         0.00000E+00
    0.00000E+00         0.00000E+00        -0.44228E+08
 
   -0.44256E+08         0.16485E+07         0.00000E+00
    0.16485E+07        -0.50005E+08         0.00000E+00
    0.00000E+00         0.00000E+00        -0.44228E+08
 
   -0.44255E+08         0.17220E+07         0.00000E+00
    0.17220E+07        -0.50005E+08         0.00000E+00
    0.00000E+00         0.00000E+00        -0.44228E+08
 
   -0.44255E+08         0.17956E+07         0.00000E+00
    0.17956E+07        -0.50005E+08         0.00000E+00
    0.00000E+00         0.00000E+00        -0.44228E+08
 
   -0.44254E+08         0.18692E+07         0.00000E+00
    0.18692E+07        -0.50006E+08         0.00000E+00
    0.00000E+00         0.00000E+00        -0.44228E+08
 
   -0.44253E+08         0.19428E+07         0.00000E+00
    0.19428E+07        -0.50006E+08         0.00000E+00
    0.00000E+00         0.00000E+00        -0.44228E+08
 
   -0.44252E+08         0.20165E+07         0.00000E+00
    0.20165E+07        -0.50007E+08         0.00000E+00
    0.00000E+00         0.00000E+00        -0.44228E+08
 
   -0.44251E+08         0.20902E+07         0.00000E+00
    0.20902E+07        -0.50007E+08         0.00000E+00
    0.00000E+00         0.00000E+00        -0.44227E+08
 
   -0.44250E+08         0.21640E+07         0.00000E+00
    0.21640E+07        -0.50008E+08         0.00000E+00
    0.00000E+00         0.00000E+00        -0.44227E+08
 
   -0.44249E+08         0.22378E+07         0.00000E+00
    0.22378E+07        -0.50008E+08         0.00000E+00
    0.00000E+00         0.00000E+00        -0.44227E+08
 
   -0.44248E+08         0.23117E+07         0.00000E+00
    0.23117E+07        -0.50009E+08         0.00000E+00
    0.00000E+00         0.00000E+00        -0.44227E+08
 
   -0.44247E+08         0.23856E+07         0.00000E+00
    0.23856E+07        -0.50009E+08         0.00000E+00
    0.00000E+00         0.00000E+00        -0.44227E+08
 
   -0.44246E+08         0.24595E+07         0.00000E+00
    0.24595E+07        -0.50010E+08         0.00000E+00
    0.00000E+00         0.00000E+00        -0.44227E+08
 
   -0.44245E+08         0.25335E+07         0.00000E+00
    0.25335E+07        -0.50010E+08         0.00000E+00
    0.00000E+00         0.00000E+00        -0.44227E+08
 
   -0.44244E+08         0.26075E+07         0.00000E+00
    0.26075E+07        -0.50011E+08         0.00000E+00
    0.00000E+00         0.00000E+00        -0.44227E+08
 
   -0.44242E+08         0.26816E+07         0.00000E+00
    0.26816E+07        -0.50011E+08         0.00000E+00
    0.00000E+00         0.00000E+00        -0.44227E+08
 
   -0.44241E+08         0.27557E+07         0.00000E+00
    0.27557E+07        -0.50012E+08         0.00000E+00
    0.00000E+00         0.00000E+00        -0.44226E+08
 
   -0.44240E+08         0.28299E+07         0.00000E+00
    0.28299E+07        -0.50013E+08         0.00000E+00
    0.00000E+00         0.00000E+00        -0.44226E+08
 
   -0.44239E+08         0.29041E+07         0.00000E+00
    0.29041E+07        -0.50013E+08         0.00000E+00
    0.00000E+00         0.00000E+00        -0.44226E+08
 
   -0.44237E+08         0.29784E+07         0.00000E+00
    0.29784E+07        -0.50014E+08         0.00000E+00
    0.00000E+00         0.00000E+00        -0.44226E+08
 
   -0.44236E+08         0.30527E+07         0.00000E+00
    0.30527E+07        -0.50014E+08         0.00000E+00
    0.00000E+00         0.00000E+00        -0.44226E+08
 
   -0.44235E+08         0.31271E+07         0.00000E+00
    0.31271E+07        -0.50015E+08         0.00000E+00
    0.00000E+00         0.00000E+00        -0.44226E+08
 
   -0.44234E+08         0.32016E+07         0.00000E+00
    0.32016E+07        -0.50016E+08         0.00000E+00
    0.00000E+00         0.00000E+00        -0.44226E+08
 
   -0.44232E+08         0.32761E+07         0.00000E+00
    0.32761E+07        -0.50016E+08         0.00000E+00
    0.00000E+00         0.00000E+00        -0.44225E+08
 
   -0.44231E+08         0.33506E+07         0.00000E+00
    0.33506E+07        -0.50017E+08         0.00000E+00
    0.00000E+00         0.00000E+00        -0.44225E+08
 
   -0.44230E+08         0.34252E+07         0.00000E+00
    0.34252E+07        -0.50017E+08         0.00000E+00
    0.00000E+00         0.00000E+00        -0.44225E+08
 
   -0.44228E+08         0.34999E+07         0.00000E+00
    0.34999E+07        -0.50018E+08         0.00000E+00
    0.00000E+00         0.00000E+00        -0.44225E+08
 
   -0.44227E+08         0.35746E+07         0.00000E+00
    0.35746E+07        -0.50019E+08         0.00000E+00
    0.00000E+00         0.00000E+00        -0.44225E+08
 
   -0.44225E+08         0.36494E+07         0.00000E+00
    0.36494E+07        -0.50019E+08         0.00000E+00
    0.00000E+00         0.00000E+00        -0.44225E+08
 
   -0.43899E+08         0.36512E+05         0.00000E+00
    0.36512E+05        -0.50000E+08         0.00000E+00
    0.00000E+00         0.00000E+00        -0.43855E+08
 
   -0.43899E+08         0.10954E+06         0.00000E+00
    0.10954E+06        -0.50000E+08         0.00000E+00
    0.00000E+00         0.00000E+00        -0.43855E+08
 
   -0.43899E+08         0.18257E+06         0.00000E+00
    0.18257E+06        -0.50000E+08         0.00000E+00
    0.00000E+00         0.00000E+00        -0.43855E+08
 
   -0.43899E+08         0.25560E+06         0.00000E+00
    0.25560E+06        -0.50000E+08         0.00000E+00
    0.00000E+00         0.00000E+00        -0.43855E+08
 
   -0.43899E+08         0.32864E+06         0.00000E+00
    0.32864E+06        -0.50000E+08         0.00000E+00
    0.00000E+00         0.00000E+00        -0.43855E+08
 
   -0.43899E+08         0.40169E+06         0.00000E+00
    0.40169E+06        -0.50000E+08         0.00000E+00
    0.00000E+00         0.00000E+00        -0.43855E+08
 
   -0.43899E+08         0.47475E+06         0.00000E+00
    0.47475E+06        -0.50000E+08         0.00000E+00
    0.00000E+00         0.00000E+00        -0.43855E+08
 
   -0.43898E+08         0.54782E+06         0.00000E+00
    0.54782E+06        -0.50001E+08         0.00000E+00
    0.00000E+00         0.00000E+00        -0.43855E+08
 
   -0.43898E+08         0.62090E+06         0.00000E+00
    0.62090E+06        -0.50001E+08         0.00000E+00
    0.00000E+00         0.00000E+00        -0.43855E+08
 
   -0.43898E+08         0.69400E+06         0.00000E+00
    0.69400E+06        -0.50001E+08         0.00000E+00
    0.00000E+00         0.00000E+00        -0.43855E+08
 
   -0.43897E+08         0.76711E+06         0.00000E+00
    0.76711E+06        -0.50001E+08         0.00000E+00
    0.00000E+00         0.00000E+00        -0.43855E+08
 
   -0.43897E+08         0.84025E+06         0.00000E+00
    0.84025E+06        -0.50001E+08         0.00000E+00
    0.00000E+00         0.00000E+00        -0.43855E+08
 
   -0.43896E+08         0.91340E+06         0.00000E+00
    0.91340E+06        -0.50002E+08         0.00000E+00
    0.00000E+00         0.00000E+00        -0.43855E+08
 
   -0.43896E+08         0.98657E+06         0.00000E+00
    0.98657E+06        -0.50002E+08         0.00000E+00
    0.00000E+00         0.00000E+00        -0.43855E+08
 
   -0.43895E+08         0.10598E+07         0.00000E+00
    0.10598E+07        -0.50002E+08         0.00000E+00
    0.00000E+00         0.00000E+00        -0.43855E+08
 
   -0.43894E+08         0.11330E+07         0.00000E+00
    0.11330E+07        -0.50003E+08         0.00000E+00
    0.00000E+00         0.00000E+00        -0.43855E+08
 
   -0.43894E+08         0.12062E+07         0.00000E+00
    0.12062E+07        -0.50003E+08         0.00000E+00
    0.00000E+00         0.00000E+00        -0.43855E+08
 
   -0.43893E+08         0.12795E+07         0.00000E+00
    0.12795E+07        -0.50003E+08         0.00000E+00
    0.00000E+00         0.00000E+00        -0.43855E+08
 
   -0.43892E+08         0.13528E+07         0.00000E+00
    0.13528E+07        -0.50004E+08         0.00000E+00
    0.00000E+00         0.00000E+00        -0.43855E+08
 
   -0.43892E+08         0.14261E+07         0.00000E+00
    0.14261E+07        -0.50004E+08         0.00000E+00
    0.00000E+00         0.00000E+00        -0.43855E+08
 
   -0.43891E+08         0.14995E+07         0.00000E+00
    0.14995E+07        -0.50005E+08         0.00000E+00
    0.00000E+00         0.00000E+00        -0.43855E+08
 
   -0.43890E+08         0.15729E+07         0.00000E+00
    0.15729E+07        -0.50005E+08         0.00000E+00
    0.00000E+00         0.00000E+00        -0.43855E+08
 
   -0.43889E+08         0.16463E+07         0.00000E+00
    0.16463E+07        -0.50006E+08         0.00000E+00
    0.00000E+00         0.00000E+00        -0.43854E+08
 
   -0.43888E+08         0.17197E+07         0.00000E+00
    0.17197E+07        -0.50006E+08         0.00000E+00
    0.00000E+00         0.00000E+00        -0.43854E+08
 
   -0.43887E+08         0.17932E+07         0.00000E+00
    0.17932E+07        -0.50007E+08         0.00000E+00
    0.00000E+00         0.00000E+00        -0.43854E+08
 
   -0.43886E+08         0.18668E+07         0.00000E+00
    0.18668E+07        -0.50007E+08         0.00000E+00
    0.00000E+00         0.00000E+00        -0.43854E+08
 
   -0.43885E+08         0.19403E+07         0.00000E+00
    0.19403E+07        -0.50008E+08         0.00000E+00
    0.00000E+00         0.00000E+00        -0.43854E+08
 
   -0.43884E+08         0.20139E+07         0.00000E+00
    0.20139E+07        -0.50008E+08         0.00000E+00
    0.00000E+00         0.00000E+00        -0.43854E+08
 
   -0.43882E+08         0.20876E+07         0.00000E+00
    0.20876E+07        -0.50009E+08         0.00000E+00
    0.00000E+00         0.00000E+00        -0.43854E+08
 
   -0.43881E+08         0.21613E+07         0.00000E+00
    0.21613E+07        -0.50009E+08         0.00000E+00
    0.00000E+00         0.00000E+00        -0.43854E+08
 
   -0.43880E+08         0.22350E+07         0.00000E+00
    0.22350E+07        -0.50010E+08         0.00000E+00
    0.00000E+00         0.00000E+00        -0.43854E+08
 
   -0.43879E+08         0.23088E+07         0.00000E+00
    0.23088E+07        -0.50011E+08         0.00000E+00
    0.00000E+00         0.00000E+00        -0.43853E+08
 
   -0.43877E+08         0.23827E+07         0.00000E+00
    0.23827E+07        -0.50011E+08         0.00000E+00
    0.00000E+00         0.00000E+00        -0.43853E+08
 
   -0.43876E+08         0.24565E+07         0.00000E+00
    0.24565E+07        -0.50012E+08         0.00000E+00
    0.00000E+00         0.00000E+00        -0.43853E+08
 
   -0.43875E+08         0.25305E+07         0.00000E+00
    0.25305E+07        -0.50013E+08         0.00000E+00
    0.00000E+00         0.00000E+00        -0.43853E+08
 
   -0.43873E+08         0.26044E+07         0.00000E+00
    0.26044E+07        -0.50013E+08         0.00000E+00
    0.00000E+00         0.00000E+00        -0.43853E+08
 
   -0.43872E+08         0.26785E+07         0.00000E+00
    0.26785E+07        -0.50014E+08         0.00000E+00
    0.00000E+00         0.00000E+00        -0.43853E+08
 
   -0.43871E+08         0.27526E+07         0.00000E+00
    0.27526E+07        -0.50015E+08         0.00000E+00
    0.00000E+00         0.00000E+00        -0.43853E+08
 
   -0.43869E+08         0.28267E+07         0.00000E+00
    0.28267E+07        -0.50015E+08         0.00000E+00
    0.00000E+00         0.00000E+00        -0.43852E+08
 
   -0.43868E+08         0.29009E+07         0.00000E+00
    0.29009E+07        -0.50016E+08         0.00000E+00
    0.00000E+00         0.00000E+00        -0.43852E+08
 
   -0.43866E+08         0.29751E+07         0.00000E+00
    0.29751E+07        -0.50017E+08         0.00000E+00
    0.00000E+00         0.00000E+00        -0.43852E+08
 
   -0.43864E+08         0.30494E+07         0.00000E+00
    0.30494E+07        -0.50017E+08         0.00000E+00
    0.00000E+00         0.00000E+00        -0.43852E+08
 
   -0.43863E+08         0.31238E+07         0.00000E+00
    0.31238E+07        -0.50018E+08         0.00000E+00
    0.00000E+00         0.00000E+00        -0.43852E+08
 
   -0.43861E+08         0.31982E+07         0.00000E+00
    0.31982E+07        -0.50019E+08         0.00000E+00
    0.00000E+00         0.00000E+00        -0.43852E+08
 
   -0.43860E+08         0.32726E+07         0.00000E+00
    0.32726E+07        -0.50020E+08         0.00000E+00
    0.00000E+00         0.00000E+00        -0.43851E+08
 
   -0.43858E+08         0.33472E+07         0.00000E+00
    0.33472E+07        -0.50020E+08         0.00000E+00
    0.00000E+00         0.00000E+00        -0.43851E+08
 
   -0.43856E+08         0.34218E+07         0.00000E+00
    0.34218E+07        -0.50021E+08         0.00000E+00
    0.00000E+00         0.00000E+00        -0.43851E+08
 
   -0.43855E+08         0.34964E+07         0.00000E+00
    0.34964E+07        -0.50022E+08         0.00000E+00
    0.00000E+00         0.00000E+00        -0.43851E+08
 
   -0.43853E+08         0.35711E+07         0.00000E+00
    0.35711E+07        -0.50023E+08         0.00000E+00
    0.00000E+00         0.00000E+00        -0.43851E+08
 
   -0.43851E+08         0.36459E+07         0.00000E+00
    0.36459E+07        -0.50023E+08         0.00000E+00
    0.00000E+00         0.00000E+00        -0.43851E+08
 
   -0.43534E+08         0.36449E+05         0.00000E+00
    0.36449E+05        -0.50000E+08         0.00000E+00
    0.00000E+00         0.00000E+00        -0.43482E+08
 
   -0.43534E+08         0.10935E+06         0.00000E+00
    0.10935E+06        -0.50000E+08         0.00000E+00
    0.00000E+00         0.00000E+00        -0.43482E+08
 
   -0.43534E+08         0.18225E+06         0.00000E+00
    0.18225E+06        -0.50000E+08         0.00000E+00
    0.00000E+00         0.00000E+00        -0.43482E+08
 
   -0.43534E+08         0.25516E+06         0.00000E+00
    0.25516E+06        -0.50000E+08         0.00000E+00
    0.00000E+00         0.00000E+00        -0.43482E+08
 
   -0.43534E+08         0.32808E+06         0.00000E+00
    0.32808E+06        -0.50000E+08         0.00000E+00
    0.00000E+00         0.00000E+00        -0.43482E+08
 
   -0.43534E+08         0.40101E+06         0.00000E+00
    0.40101E+06        -0.50000E+08         0.00000E+00
    0.00000E+00         0.00000E+00        -0.43482E+08
 
   -0.43534E+08         0.47394E+06         0.00000E+00
    0.47394E+06        -0.50001E+08         0.00000E+00
    0.00000E+00         0.00000E+00        -0.43482E+08
 
   -0.43533E+08         0.54689E+06         0.00000E+00
    0.54689E+06        -0.50001E+08         0.00000E+00
    0.00000E+00         0.00000E+00        -0.43482E+08
 
   -0.43533E+08         0.61985E+06         0.00000E+00
    0.61985E+06        -0.50001E+08         0.00000E+00
    0.00000E+00         0.00000E+00        -0.43482E+08
 
   -0.43532E+08         0.69283E+06         0.00000E+00
    0.69283E+06        -0.50001E+08         0.00000E+00
    0.00000E+00         0.00000E+00        -0.43482E+08
 
   -0.43532E+08         0.76582E+06         0.00000E+00
    0.76582E+06        -0.50001E+08         0.00000E+00
    0.00000E+00         0.00000E+00        -0.43482E+08
 
   -0.43531E+08         0.83884E+06         0.00000E+00
    0.83884E+06        -0.50002E+08         0.00000E+00
    0.00000E+00         0.00000E+00        -0.43482E+08
 
   -0.43531E+08         0.91187E+06         0.00000E+00
    0.91187E+06        -0.50002E+08         0.00000E+00
    0.00000E+00         0.00000E+00        -0.43482E+08
 
   -0.43530E+08         0.98492E+06         0.00000E+00
    0.98492E+06        -0.50002E+08         0.00000E+00
    0.00000E+00         0.00000E+00        -0.43482E+08
 
   -0.43529E+08         0.10580E+07         0.00000E+00
    0.10580E+07        -0.50003E+08         0.00000E+00
    0.00000E+00         0.00000E+00        -0.43482E+08
 
   -0.43529E+08         0.11311E+07         0.00000E+00
    0.11311E+07        -0.50003E+08         0.00000E+00
    0.00000E+00         0.00000E+00        -0.43482E+08
 
   -0.43528E+08         0.12042E+07         0.00000E+00
    0.12042E+07        -0.50004E+08         0.00000E+00
    0.00000E+00         0.00000E+00        -0.43482E+08
 
   -0.43527E+08         0.12774E+07         0.00000E+00
    0.12774E+07        -0.50004E+08         0.00000E+00
    0.00000E+00         0.00000E+00        -0.43482E+08
 
   -0.43526E+08         0.13506E+07         0.00000E+00
    0.13506E+07        -0.50005E+08         0.00000E+00
    0.00000E+00         0.00000E+00        -0.43482E+08
 
   -0.43525E+08         0.14238E+07         0.00000E+00
    0.14238E+07        -0.50005E+08         0.00000E+00
    0.00000E+00         0.00000E+00        -0.43481E+08
 
   -0.43524E+08         0.14971E+07         0.00000E+00
    0.14971E+07        -0.50006E+08         0.00000E+00
    0.00000E+00         0.00000E+00        -0.43481E+08
 
   -0.43523E+08         0.15703E+07         0.00000E+00
    0.15703E+07        -0.50006E+08         0.00000E+00
    0.00000E+00         0.00000E+00        -0.43481E+08
 
   -0.43522E+08         0.16437E+07         0.00000E+00
    0.16437E+07        -0.50007E+08         0.00000E+00
    0.00000E+00         0.00000E+00        -0.43481E+08
 
   -0.43521E+08         0.17170E+07         0.00000E+00
    0.17170E+07        -0.50007E+08         0.00000E+00
    0.00000E+00         0.00000E+00        -0.43481E+08
 
   -0.43520E+08         0.17904E+07         0.00000E+00
    0.17904E+07        -0.50008E+08         0.00000E+00
    0.00000E+00         0.00000E+00        -0.43481E+08
 
   -0.43518E+08         0.18639E+07         0.00000E+00
    0.18639E+07        -0.50008E+08         0.00000E+00
    0.00000E+00         0.00000E+00        -0.43481E+08
 
   -0.43517E+08         0.19373E+07         0.00000E+00
    0.19373E+07        -0.50009E+08         0.00000E+00
    0.00000E+00         0.00000E+00        -0.43481E+08
 
   -0.43516E+08         0.20109E+07         0.00000E+00
    0.20109E+07        -0.50010E+08         0.00000E+00
    0.00000E+00         0.00000E+00        -0.43480E+08
 
   -0.43514E+08         0.20844E+07         0.00000E+00
    0.20844E+07        -0.50010E+08         0.00000E+00
    0.00000E+00         0.00000E+00        -0.43480E+08
 
   -0.43513E+08         0.21581E+07         0.00000E+00
    0.21581E+07        -0.50011E+08         0.00000E+00
    0.00000E+00         0.00000E+00        -0.43480E+08
 
   -0.43511E+08         0.22317E+07         0.00000E+00
    0.22317E+07        -0.50012E+08         0.00000E+00
    0.00000E+00         0.00000E+00        -0.43480E+08
 
   -0.43510E+08         0.23054E+07         0.00000E+00
    0.23054E+07        -0.50012E+08         0.00000E+00
    0.00000E+00         0.00000E+00        -0.43480E+08
 
   -0.43508E+08         0.23792E+07         0.00000E+00
    0.23792E+07        -0.50013E+08         0.00000E+00
    0.00000E+00         0.00000E+00        -0.43480E+08
 
   -0.43507E+08         0.24530E+07         0.00000E+00
    0.24530E+07        -0.50014E+08         0.00000E+00
    0.00000E+00         0.00000E+00        -0.43480E+08
 
   -0.43505E+08         0.25269E+07         0.00000E+00
    0.25269E+07        -0.50015E+08         0.00000E+00
    0.00000E+00         0.00000E+00        -0.43479E+08
 
   -0.43504E+08         0.26008E+07         0.00000E+00
    0.26008E+07        -0.50016E+08         0.00000E+00
    0.00000E+00         0.00000E+00        -0.43479E+08
 
   -0.43502E+08         0.26747E+07         0.00000E+00
    0.26747E+07        -0.50016E+08         0.00000E+00
    0.00000E+00         0.00000E+00        -0.43479E+08
 
   -0.43500E+08         0.27488E+07         0.00000E+00
    0.27488E+07        -0.50017E+08         0.00000E+00
    0.00000E+00         0.00000E+00        -0.43479E+08
 
   -0.43498E+08         0.28228E+07         0.00000E+00
    0.28228E+07        -0.50018E+08         0.00000E+00
    0.00000E+00         0.00000E+00        -0.43479E+08
 
   -0.43497E+08         0.28970E+07         0.00000E+00
    0.28970E+07        -0.50019E+08         0.00000E+00
    0.00000E+00         0.00000E+00        -0.43479E+08
 
   -0.43495E+08         0.29712E+07         0.00000E+00
    0.29712E+07        -0.50020E+08         0.00000E+00
    0.00000E+00         0.00000E+00        -0.43478E+08
 
   -0.43493E+08         0.30454E+07         0.00000E+00
    0.30454E+07        -0.50021E+08         0.00000E+00
    0.00000E+00         0.00000E+00        -0.43478E+08
 
   -0.43491E+08         0.31197E+07         0.00000E+00
    0.31197E+07        -0.50021E+08         0.00000E+00
    0.00000E+00         0.00000E+00        -0.43478E+08
 
   -0.43489E+08         0.31941E+07         0.00000E+00
    0.31941E+07        -0.50022E+08         0.00000E+00
    0.00000E+00         0.00000E+00        -0.43478E+08
 
   -0.43487E+08         0.32686E+07         0.00000E+00
    0.32686E+07        -0.50023E+08         0.00000E+00
    0.00000E+00         0.00000E+00        -0.43478E+08
 
   -0.43485E+08         0.33431E+07         0.00000E+00
    0.33431E+07        -0.50024E+08         0.00000E+00
    0.00000E+00         0.00000E+00        -0.43477E+08
 
   -0.43483E+08         0.34176E+07         0.00000E+00
    0.34176E+07        -0.50025E+08         0.00000E+00
    0.00000E+00         0.00000E+00        -0.43477E+08
 
   -0.43481E+08         0.34923E+07         0.00000E+00
    0.34923E+07        -0.50026E+08         0.00000E+00
    0.00000E+00         0.00000E+00        -0.43477E+08
 
   -0.43479E+08         0.35669E+07         0.00000E+00
    0.35669E+07        -0.50027E+08         0.00000E+00
    0.00000E+00         0.00000E+00        -0.43477E+08
 
   -0.43477E+08         0.36417E+07         0.00000E+00
    0.36417E+07        -0.50028E+08         0.00000E+00
    0.00000E+00         0.00000E+00        -0.43476E+08
 
   -0.43170E+08         0.36376E+05         0.00000E+00
    0.36376E+05        -0.50000E+08         0.00000E+00
    0.00000E+00         0.00000E+00        -0.43109E+08
 
   -0.43170E+08         0.10913E+06         0.00000E+00
    0.10913E+06        -0.50000E+08         0.00000E+00
    0.00000E+00         0.00000E+00        -0.43109E+08
 
   -0.43170E+08         0.18189E+06         0.00000E+00
    0.18189E+06        -0.50000E+08         0.00000E+00
    0.00000E+00         0.00000E+00        -0.43109E+08
 
   -0.43170E+08         0.25465E+06         0.00000E+00
    0.25465E+06        -0.50000E+08         0.00000E+00
    0.00000E+00         0.00000E+00        -0.43109E+08
 
   -0.43170E+08         0.32743E+06         0.00000E+00
    0.32743E+06        -0.50000E+08         0.00000E+00
    0.00000E+00         0.00000E+00        -0.43109E+08
 
   -0.43170E+08         0.40021E+06         0.00000E+00
    0.40021E+06        -0.50000E+08         0.00000E+00
    0.00000E+00         0.00000E+00        -0.43109E+08
 
   -0.43169E+08         0.47300E+06         0.00000E+00
    0.47300E+06        -0.50001E+08         0.00000E+00
    0.00000E+00         0.00000E+00        -0.43109E+08
 
   -0.43169E+08         0.54580E+06         0.00000E+00
    0.54580E+06        -0.50001E+08         0.00000E+00
    0.00000E+00         0.00000E+00        -0.43109E+08
 
   -0.43168E+08         0.61862E+06         0.00000E+00
    0.61862E+06        -0.50001E+08         0.00000E+00
    0.00000E+00         0.00000E+00        -0.43109E+08
 
   -0.43168E+08         0.69146E+06         0.00000E+00
    0.69146E+06        -0.50001E+08         0.00000E+00
    0.00000E+00         0.00000E+00        -0.43109E+08
 
   -0.43167E+08         0.76431E+06         0.00000E+00
    0.76431E+06        -0.50002E+08         0.00000E+00
    0.00000E+00         0.00000E+00        -0.43109E+08
 
   -0.43167E+08         0.83719E+06         0.00000E+00
    0.83719E+06        -0.50002E+08         0.00000E+00
    0.00000E+00         0.00000E+00        -0.43109E+08
 
   -0.43166E+08         0.91008E+06         0.00000E+00
    0.91008E+06        -0.50002E+08         0.00000E+00
    0.00000E+00         0.00000E+00        -0.43109E+08
 
   -0.43165E+08         0.98300E+06         0.00000E+00
    0.98300E+06        -0.50003E+08         0.00000E+00
    0.00000E+00         0.00000E+00        -0.43109E+08
 
   -0.43164E+08         0.10559E+07         0.00000E+00
    0.10559E+07        -0.50003E+08         0.00000E+00
    0.00000E+00         0.00000E+00        -0.43109E+08
 
   -0.43163E+08         0.11289E+07         0.00000E+00
    0.11289E+07        -0.50004E+08         0.00000E+00
    0.00000E+00         0.00000E+00        -0.43109E+08
 
   -0.43162E+08         0.12019E+07         0.00000E+00
    0.12019E+07        -0.50004E+08         0.00000E+00
    0.00000E+00         0.00000E+00        -0.43109E+08
 
   -0.43161E+08         0.12749E+07         0.00000E+00
    0.12749E+07        -0.50005E+08         0.00000E+00
    0.00000E+00         0.00000E+00        -0.43108E+08
 
   -0.43160E+08         0.13480E+07         0.00000E+00
    0.13480E+07        -0.50005E+08         0.00000E+00
    0.00000E+00         0.00000E+00        -0.43108E+08
 
   -0.43159E+08         0.14211E+07         0.00000E+00
    0.14211E+07        -0.50006E+08         0.00000E+00
    0.00000E+00         0.00000E+00        -0.43108E+08
 
   -0.43158E+08         0.14942E+07         0.00000E+00
    0.14942E+07        -0.50006E+08         0.00000E+00
    0.00000E+00         0.00000E+00        -0.43108E+08
 
   -0.43157E+08         0.15674E+07         0.00000E+00
    0.15674E+07        -0.50007E+08         0.00000E+00
    0.00000E+00         0.00000E+00        -0.43108E+08
 
   -0.43155E+08         0.16406E+07         0.00000E+00
    0.16406E+07        -0.50008E+08         0.00000E+00
    0.00000E+00         0.00000E+00        -0.43108E+08
 
   -0.43154E+08         0.17139E+07         0.00000E+00
    0.17139E+07        -0.50008E+08         0.00000E+00
    0.00000E+00         0.00000E+00        -0.43108E+08
 
   -0.43153E+08         0.17871E+07         0.00000E+00
    0.17871E+07        -0.50009E+08         0.00000E+00
    0.00000E+00         0.00000E+00        -0.43108E+08
 
   -0.43151E+08         0.18605E+07         0.00000E+00
    0.18605E+07        -0.50010E+08         0.00000E+00
    0.00000E+00         0.00000E+00        -0.43107E+08
 
   -0.43150E+08         0.19338E+07         0.00000E+00
    0.19338E+07        -0.50011E+08         0.00000E+00
    0.00000E+00         0.00000E+00        -0.43107E+08
 
   -0.43148E+08         0.20073E+07         0.00000E+00
    0.20073E+07        -0.50011E+08         0.00000E+00
    0.00000E+00         0.00000E+00        -0.43107E+08
 
   -0.43147E+08         0.20807E+07         0.00000E+00
    0.20807E+07        -0.50012E+08         0.00000E+00
    0.00000E+00         0.00000E+00        -0.43107E+08
 
   -0.43145E+08         0.21543E+07         0.00000E+00
    0.21543E+07        -0.50013E+08         0.00000E+00
    0.00000E+00         0.00000E+00        -0.43107E+08
 
   -0.43143E+08         0.22278E+07         0.00000E+00
    0.22278E+07        -0.50014E+08         0.00000E+00
    0.00000E+00         0.00000E+00        -0.43107E+08
 
   -0.43141E+08         0.23014E+07         0.00000E+00
    0.23014E+07        -0.50015E+08         0.00000E+00
    0.00000E+00         0.00000E+00        -0.43106E+08
 
   -0.43140E+08         0.23751E+07         0.00000E+00
    0.23751E+07        -0.50015E+08         0.00000E+00
    0.00000E+00         0.00000E+00        -0.43106E+08
 
   -0.43138E+08         0.24488E+07         0.00000E+00
    0.24488E+07        -0.50016E+08         0.00000E+00
    0.00000E+00         0.00000E+00        -0.43106E+08
 
   -0.43136E+08         0.25226E+07         0.00000E+00
    0.25226E+07        -0.50017E+08         0.00000E+00
    0.00000E+00         0.00000E+00        -0.43106E+08
 
   -0.43134E+08         0.25965E+07         0.00000E+00
    0.25965E+07        -0.50018E+08         0.00000E+00
    0.00000E+00         0.00000E+00        -0.43106E+08
 
   -0.43132E+08         0.26704E+07         0.00000E+00
    0.26704E+07        -0.50019E+08         0.00000E+00
    0.00000E+00         0.00000E+00        -0.43105E+08
 
   -0.43130E+08         0.27443E+07         0.00000E+00
    0.27443E+07        -0.50020E+08         0.00000E+00
    0.00000E+00         0.00000E+00        -0.43105E+08
 
   -0.43128E+08         0.28183E+07         0.00000E+00
    0.28183E+07        -0.50021E+08         0.00000E+00
    0.00000E+00         0.00000E+00        -0.43105E+08
 
   -0.43126E+08         0.28924E+07         0.00000E+00
    0.28924E+07        -0.50022E+08         0.00000E+00
    0.00000E+00         0.00000E+00        -0.43105E+08
 
   -0.43124E+08         0.29666E+07         0.00000E+00
    0.29666E+07        -0.50023E+08         0.00000E+00
    0.00000E+00         0.00000E+00        -0.43105E+08
 
   -0.43122E+08         0.30408E+07         0.00000E+00
    0.30408E+07        -0.50024E+08         0.00000E+00
    0.00000E+00         0.00000E+00        -0.43104E+08
 
   -0.43119E+08         0.31150E+07         0.00000E+00
    0.31150E+07        -0.50025E+08         0.00000E+00
    0.00000E+00         0.00000E+00        -0.43104E+08
 
   -0.43117E+08         0.31894E+07         0.00000E+00
    0.31894E+07        -0.50026E+08         0.00000E+00
    0.00000E+00         0.00000E+00        -0.43104E+08
 
   -0.43115E+08         0.32638E+07         0.00000E+00
    0.32638E+07        -0.50027E+08         0.00000E+00
    0.00000E+00         0.00000E+00        -0.43104E+08
 
   -0.43113E+08         0.33382E+07         0.00000E+00
    0.33382E+07        -0.50028E+08         0.00000E+00
    0.00000E+00         0.00000E+00        -0.43103E+08
 
   -0.43110E+08         0.34128E+07         0.00000E+00
    0.34128E+07        -0.50029E+08         0.00000E+00
    0.00000E+00         0.00000E+00        -0.43103E+08
 
   -0.43108E+08         0.34874E+07         0.00000E+00
    0.34874E+07        -0.50030E+08         0.00000E+00
    0.00000E+00         0.00000E+00        -0.43103E+08
 
   -0.43106E+08         0.35620E+07         0.00000E+00
    0.35620E+07        -0.50031E+08         0.00000E+00
    0.00000E+00         0.00000E+00        -0.43103E+08
 
   -0.43103E+08         0.36368E+07         0.00000E+00
    0.36368E+07        -0.50032E+08         0.00000E+00
    0.00000E+00         0.00000E+00        -0.43102E+08
 
   -0.42807E+08         0.36291E+05         0.00000E+00
    0.36291E+05        -0.50000E+08         0.00000E+00
    0.00000E+00         0.00000E+00        -0.42736E+08
 
   -0.42807E+08         0.10888E+06         0.00000E+00
    0.10888E+06        -0.50000E+08         0.00000E+00
    0.00000E+00         0.00000E+00        -0.42736E+08
 
   -0.42807E+08         0.18147E+06         0.00000E+00
    0.18147E+06        -0.50000E+08         0.00000E+00
    0.00000E+00         0.00000E+00        -0.42736E+08
 
   -0.42807E+08         0.25406E+06         0.00000E+00
    0.25406E+06        -0.50000E+08         0.00000E+00
    0.00000E+00         0.00000E+00        -0.42736E+08
 
   -0.42806E+08         0.32667E+06         0.00000E+00
    0.32667E+06        -0.50000E+08         0.00000E+00
    0.00000E+00         0.00000E+00        -0.42736E+08
 
   -0.42806E+08         0.39928E+06         0.00000E+00
    0.39928E+06        -0.50001E+08         0.00000E+00
    0.00000E+00         0.00000E+00        -0.42736E+08
 
   -0.42806E+08         0.47191E+06         0.00000E+00
    0.47191E+06        -0.50001E+08         0.00000E+00
    0.00000E+00         0.00000E+00        -0.42736E+08
 
   -0.42805E+08         0.54454E+06         0.00000E+00
    0.54454E+06        -0.50001E+08         0.00000E+00
    0.00000E+00         0.00000E+00        -0.42736E+08
 
   -0.42805E+08         0.61720E+06         0.00000E+00
    0.61720E+06        -0.50001E+08         0.00000E+00
    0.00000E+00         0.00000E+00        -0.42736E+08
 
   -0.42804E+08         0.68987E+06         0.00000E+00
    0.68987E+06        -0.50002E+08         0.00000E+00
    0.00000E+00         0.00000E+00        -0.42736E+08
 
   -0.42803E+08         0.76256E+06         0.00000E+00
    0.76256E+06        -0.50002E+08         0.00000E+00
    0.00000E+00         0.00000E+00        -0.42736E+08
 
   -0.42803E+08         0.83528E+06         0.00000E+00
    0.83528E+06        -0.50002E+08         0.00000E+00
    0.00000E+00         0.00000E+00        -0.42736E+08
 
   -0.42802E+08         0.90801E+06         0.00000E+00
    0.90801E+06        -0.50003E+08         0.00000E+00
    0.00000E+00         0.00000E+00        -0.42736E+08
 
   -0.42801E+08         0.98078E+06         0.00000E+00
    0.98078E+06        -0.50003E+08         0.00000E+00
    0.00000E+00         0.00000E+00        -0.42736E+08
 
   -0.42800E+08         0.10536E+07         0.00000E+00
    0.10536E+07        -0.50004E+08         0.00000E+00
    0.00000E+00         0.00000E+00        -0.42736E+08
 
   -0.42799E+08         0.11264E+07         0.00000E+00
    0.11264E+07        -0.50004E+08         0.00000E+00
    0.00000E+00         0.00000E+00        -0.42736E+08
 
   -0.42798E+08         0.11992E+07         0.00000E+00
    0.11992E+07        -0.50005E+08         0.00000E+00
    0.00000E+00         0.00000E+00        -0.42735E+08
 
   -0.42797E+08         0.12721E+07         0.00000E+00
    0.12721E+07        -0.50005E+08         0.00000E+00
    0.00000E+00         0.00000E+00        -0.42735E+08
 
   -0.42795E+08         0.13450E+07         0.00000E+00
    0.13450E+07        -0.50006E+08         0.00000E+00
    0.00000E+00         0.00000E+00        -0.42735E+08
 
   -0.42794E+08         0.14180E+07         0.00000E+00
    0.14180E+07        -0.50007E+08         0.00000E+00
    0.00000E+00         0.00000E+00        -0.42735E+08
 
   -0.42793E+08         0.14910E+07         0.00000E+00
    0.14910E+07        -0.50007E+08         0.00000E+00
    0.00000E+00         0.00000E+00        -0.42735E+08
 
   -0.42791E+08         0.15640E+07         0.00000E+00
    0.15640E+07        -0.50008E+08         0.00000E+00
    0.00000E+00         0.00000E+00        -0.42735E+08
 
   -0.42790E+08         0.16371E+07         0.00000E+00
    0.16371E+07        -0.50009E+08         0.00000E+00
    0.00000E+00         0.00000E+00        -0.42735E+08
 
   -0.42788E+08         0.17102E+07         0.00000E+00
    0.17102E+07        -0.50010E+08         0.00000E+00
    0.00000E+00         0.00000E+00        -0.42735E+08
 
   -0.42786E+08         0.17833E+07         0.00000E+00
    0.17833E+07        -0.50010E+08         0.00000E+00
    0.00000E+00         0.00000E+00        -0.42734E+08
 
   -0.42785E+08         0.18565E+07         0.00000E+00
    0.18565E+07        -0.50011E+08         0.00000E+00
    0.00000E+00         0.00000E+00        -0.42734E+08
 
   -0.42783E+08         0.19298E+07         0.00000E+00
    0.19298E+07        -0.50012E+08         0.00000E+00
    0.00000E+00         0.00000E+00        -0.42734E+08
 
   -0.42781E+08         0.20031E+07         0.00000E+00
    0.20031E+07        -0.50013E+08         0.00000E+00
    0.00000E+00         0.00000E+00        -0.42734E+08
 
   -0.42779E+08         0.20765E+07         0.00000E+00
    0.20765E+07        -0.50014E+08         0.00000E+00
    0.00000E+00         0.00000E+00        -0.42734E+08
 
   -0.42777E+08         0.21499E+07         0.00000E+00
    0.21499E+07        -0.50015E+08         0.00000E+00
    0.00000E+00         0.00000E+00        -0.42733E+08
 
   -0.42775E+08         0.22233E+07         0.00000E+00
    0.22233E+07        -0.50016E+08         0.00000E+00
    0.00000E+00         0.00000E+00        -0.42733E+08
 
   -0.42773E+08         0.22968E+07         0.00000E+00
    0.22968E+07        -0.50017E+08         0.00000E+00
    0.00000E+00         0.00000E+00        -0.42733E+08
 
   -0.42771E+08         0.23704E+07         0.00000E+00
    0.23704E+07        -0.50018E+08         0.00000E+00
    0.00000E+00         0.00000E+00        -0.42733E+08
 
   -0.42769E+08         0.24440E+07         0.00000E+00
    0.24440E+07        -0.50019E+08         0.00000E+00
    0.00000E+00         0.00000E+00        -0.42733E+08
 
   -0.42767E+08         0.25177E+07         0.00000E+00
    0.25177E+07        -0.50020E+08         0.00000E+00
    0.00000E+00         0.00000E+00        -0.42732E+08
 
   -0.42765E+08         0.25915E+07         0.00000E+00
    0.25915E+07        -0.50021E+08         0.00000E+00
    0.00000E+00         0.00000E+00        -0.42732E+08
 
   -0.42763E+08         0.26653E+07         0.00000E+00
    0.26653E+07        -0.50022E+08         0.00000E+00
    0.00000E+00         0.00000E+00        -0.42732E+08
 
   -0.42760E+08         0.27392E+07         0.00000E+00
    0.27392E+07        -0.50023E+08         0.00000E+00
    0.00000E+00         0.00000E+00        -0.42732E+08
 
   -0.42758E+08         0.28131E+07         0.00000E+00
    0.28131E+07        -0.50024E+08         0.00000E+00
    0.00000E+00         0.00000E+00        -0.42731E+08
 
   -0.42756E+08         0.28871E+07         0.00000E+00
    0.28871E+07        -0.50025E+08         0.00000E+00
    0.00000E+00         0.00000E+00        -0.42731E+08
 
   -0.42753E+08         0.29612E+07         0.00000E+00
    0.29612E+07        -0.50026E+08         0.00000E+00
    0.00000E+00         0.00000E+00        -0.42731E+08
 
   -0.42751E+08         0.30353E+07         0.00000E+00
    0.30353E+07        -0.50028E+08         0.00000E+00
    0.00000E+00         0.00000E+00        -0.42731E+08
 
   -0.42748E+08         0.31096E+07         0.00000E+00
    0.31096E+07        -0.50029E+08         0.00000E+00
    0.00000E+00         0.00000E+00        -0.42730E+08
 
   -0.42746E+08         0.31838E+07         0.00000E+00
    0.31838E+07        -0.50030E+08         0.00000E+00
    0.00000E+00         0.00000E+00        -0.42730E+08
 
   -0.42743E+08         0.32582E+07         0.00000E+00
    0.32582E+07        -0.50031E+08         0.00000E+00
    0.00000E+00         0.00000E+00        -0.42730E+08
 
   -0.42740E+08         0.33326E+07         0.00000E+00
    0.33326E+07        -0.50032E+08         0.00000E+00
    0.00000E+00         0.00000E+00        -0.42730E+08
 
   -0.42738E+08         0.34071E+07         0.00000E+00
    0.34071E+07        -0.50034E+08         0.00000E+00
    0.00000E+00         0.00000E+00        -0.42729E+08
 
   -0.42735E+08         0.34817E+07         0.00000E+00
    0.34817E+07        -0.50035E+08         0.00000E+00
    0.00000E+00         0.00000E+00        -0.42729E+08
 
   -0.42732E+08         0.35564E+07         0.00000E+00
    0.35564E+07        -0.50036E+08         0.00000E+00
    0.00000E+00         0.00000E+00        -0.42729E+08
 
   -0.42730E+08         0.36311E+07         0.00000E+00
    0.36311E+07        -0.50037E+08         0.00000E+00
    0.00000E+00         0.00000E+00        -0.42728E+08
 
   -0.42445E+08         0.36194E+05         0.00000E+00
    0.36194E+05        -0.50000E+08         0.00000E+00
    0.00000E+00         0.00000E+00        -0.42364E+08
 
   -0.42444E+08         0.10859E+06         0.00000E+00
    0.10859E+06        -0.50000E+08         0.00000E+00
    0.00000E+00         0.00000E+00        -0.42364E+08
 
   -0.42444E+08         0.18098E+06         0.00000E+00
    0.18098E+06        -0.50000E+08         0.00000E+00
    0.00000E+00         0.00000E+00        -0.42364E+08
 
   -0.42444E+08         0.25339E+06         0.00000E+00
    0.25339E+06        -0.50000E+08         0.00000E+00
    0.00000E+00         0.00000E+00        -0.42364E+08
 
   -0.42444E+08         0.32580E+06         0.00000E+00
    0.32580E+06        -0.50000E+08         0.00000E+00
    0.00000E+00         0.00000E+00        -0.42364E+08
 
   -0.42443E+08         0.39822E+06         0.00000E+00
    0.39822E+06        -0.50001E+08         0.00000E+00
    0.00000E+00         0.00000E+00        -0.42364E+08
 
   -0.42443E+08         0.47065E+06         0.00000E+00
    0.47065E+06        -0.50001E+08         0.00000E+00
    0.00000E+00         0.00000E+00        -0.42363E+08
 
   -0.42442E+08         0.54310E+06         0.00000E+00
    0.54310E+06        -0.50001E+08         0.00000E+00
    0.00000E+00         0.00000E+00        -0.42363E+08
 
   -0.42442E+08         0.61557E+06         0.00000E+00
    0.61557E+06        -0.50001E+08         0.00000E+00
    0.00000E+00         0.00000E+00        -0.42363E+08
 
   -0.42441E+08         0.68806E+06         0.00000E+00
    0.68806E+06        -0.50002E+08         0.00000E+00
    0.00000E+00         0.00000E+00        -0.42363E+08
 
   -0.42440E+08         0.76056E+06         0.00000E+00
    0.76056E+06        -0.50002E+08         0.00000E+00
    0.00000E+00         0.00000E+00        -0.42363E+08
 
   -0.42439E+08         0.83309E+06         0.00000E+00
    0.83309E+06        -0.50003E+08         0.00000E+00
    0.00000E+00         0.00000E+00        -0.42363E+08
 
   -0.42438E+08         0.90565E+06         0.00000E+00
    0.90565E+06        -0.50003E+08         0.00000E+00
    0.00000E+00         0.00000E+00        -0.42363E+08
 
   -0.42437E+08         0.97823E+06         0.00000E+00
    0.97823E+06        -0.50004E+08         0.00000E+00
    0.00000E+00         0.00000E+00        -0.42363E+08
 
   -0.42436E+08         0.10508E+07         0.00000E+00
    0.10508E+07        -0.50004E+08         0.00000E+00
    0.00000E+00         0.00000E+00        -0.42363E+08
 
   -0.42435E+08         0.11235E+07         0.00000E+00
    0.11235E+07        -0.50005E+08         0.00000E+00
    0.00000E+00         0.00000E+00        -0.42363E+08
 
   -0.42434E+08         0.11962E+07         0.00000E+00
    0.11962E+07        -0.50006E+08         0.00000E+00
    0.00000E+00         0.00000E+00        -0.42363E+08
 
   -0.42432E+08         0.12689E+07         0.00000E+00
    0.12689E+07        -0.50006E+08         0.00000E+00
    0.00000E+00         0.00000E+00        -0.42362E+08
 
   -0.42431E+08         0.13416E+07         0.00000E+00
    0.13416E+07        -0.50007E+08         0.00000E+00
    0.00000E+00         0.00000E+00        -0.42362E+08
 
   -0.42430E+08         0.14144E+07         0.00000E+00
    0.14144E+07        -0.50008E+08         0.00000E+00
    0.00000E+00         0.00000E+00        -0.42362E+08
 
   -0.42428E+08         0.14872E+07         0.00000E+00
    0.14872E+07        -0.50008E+08         0.00000E+00
    0.00000E+00         0.00000E+00        -0.42362E+08
 
   -0.42426E+08         0.15601E+07         0.00000E+00
    0.15601E+07        -0.50009E+08         0.00000E+00
    0.00000E+00         0.00000E+00        -0.42362E+08
 
   -0.42425E+08         0.16330E+07         0.00000E+00
    0.16330E+07        -0.50010E+08         0.00000E+00
    0.00000E+00         0.00000E+00        -0.42362E+08
 
   -0.42423E+08         0.17060E+07         0.00000E+00
    0.17060E+07        -0.50011E+08         0.00000E+00
    0.00000E+00         0.00000E+00        -0.42361E+08
 
   -0.42421E+08         0.17790E+07         0.00000E+00
    0.17790E+07        -0.50012E+08         0.00000E+00
    0.00000E+00         0.00000E+00        -0.42361E+08
 
   -0.42419E+08         0.18520E+07         0.00000E+00
    0.18520E+07        -0.50013E+08         0.00000E+00
    0.00000E+00         0.00000E+00        -0.42361E+08
 
   -0.42417E+08         0.19251E+07         0.00000E+00
    0.19251E+07        -0.50014E+08         0.00000E+00
    0.00000E+00         0.00000E+00        -0.42361E+08
 
   -0.42415E+08         0.19983E+07         0.00000E+00
    0.19983E+07        -0.50015E+08         0.00000E+00
    0.00000E+00         0.00000E+00        -0.42361E+08
 
   -0.42413E+08         0.20715E+07         0.00000E+00
    0.20715E+07        -0.50016E+08         0.00000E+00
    0.00000E+00         0.00000E+00        -0.42360E+08
 
   -0.42411E+08         0.21448E+07         0.00000E+00
    0.21448E+07        -0.50017E+08         0.00000E+00
    0.00000E+00         0.00000E+00        -0.42360E+08
 
   -0.42408E+08         0.22181E+07         0.00000E+00
    0.22181E+07        -0.50018E+08         0.00000E+00
    0.00000E+00         0.00000E+00        -0.42360E+08
 
   -0.42406E+08         0.22915E+07         0.00000E+00
    0.22915E+07        -0.50019E+08         0.00000E+00
    0.00000E+00         0.00000E+00        -0.42360E+08
 
   -0.42404E+08         0.23650E+07         0.00000E+00
    0.23650E+07        -0.50020E+08         0.00000E+00
    0.00000E+00         0.00000E+00        -0.42360E+08
 
   -0.42401E+08         0.24385E+07         0.00000E+00
    0.24385E+07        -0.50021E+08         0.00000E+00
    0.00000E+00         0.00000E+00        -0.42359E+08
 
   -0.42399E+08         0.25121E+07         0.00000E+00
    0.25121E+07        -0.50023E+08         0.00000E+00
    0.00000E+00         0.00000E+00        -0.42359E+08
 
   -0.42396E+08         0.25858E+07         0.00000E+00
    0.25858E+07        -0.50024E+08         0.00000E+00
    0.00000E+00         0.00000E+00        -0.42359E+08
 
   -0.42394E+08         0.26595E+07         0.00000E+00
    0.26595E+07        -0.50025E+08         0.00000E+00
    0.00000E+00         0.00000E+00        -0.42358E+08
 
   -0.42391E+08         0.27333E+07         0.00000E+00
    0.27333E+07        -0.50026E+08         0.00000E+00
    0.00000E+00         0.00000E+00        -0.42358E+08
 
   -0.42388E+08         0.28071E+07         0.00000E+00
    0.28071E+07        -0.50028E+08         0.00000E+00
    0.00000E+00         0.00000E+00        -0.42358E+08
 
   -0.42385E+08         0.28811E+07         0.00000E+00
    0.28811E+07        -0.50029E+08         0.00000E+00
    0.00000E+00         0.00000E+00        -0.42358E+08
 
   -0.42383E+08         0.29551E+07         0.00000E+00
    0.29551E+07        -0.50030E+08         0.00000E+00
    0.00000E+00         0.00000E+00        -0.42357E+08
 
   -0.42380E+08         0.30291E+07         0.00000E+00
    0.30291E+07        -0.50031E+08         0.00000E+00
    0.00000E+00         0.00000E+00        -0.42357E+08
 
   -0.42377E+08         0.31033E+07         0.00000E+00
    0.31033E+07        -0.50033E+08         0.00000E+00
    0.00000E+00         0.00000E+00        -0.42357E+08
 
   -0.42374E+08         0.31775E+07         0.00000E+00
    0.31775E+07        -0.50034E+08         0.00000E+00
    0.00000E+00         0.00000E+00        -0.42356E+08
 
   -0.42371E+08         0.32518E+07         0.00000E+00
    0.32518E+07        -0.50036E+08         0.00000E+00
    0.00000E+00         0.00000E+00        -0.42356E+08
 
   -0.42368E+08         0.33262E+07         0.00000E+00
    0.33262E+07        -0.50037E+08         0.00000E+00
    0.00000E+00         0.00000E+00        -0.42356E+08
 
   -0.42365E+08         0.34007E+07         0.00000E+00
    0.34007E+07        -0.50038E+08         0.00000E+00
    0.00000E+00         0.00000E+00        -0.42355E+08
 
   -0.42362E+08         0.34752E+07         0.00000E+00
    0.34752E+07        -0.50040E+08         0.00000E+00
    0.00000E+00         0.00000E+00        -0.42355E+08
 
   -0.42359E+08         0.35498E+07         0.00000E+00
    0.35498E+07        -0.50041E+08         0.00000E+00
    0.00000E+00         0.00000E+00        -0.42355E+08
 
   -0.42356E+08         0.36245E+07         0.00000E+00
    0.36245E+07        -0.50042E+08         0.00000E+00
    0.00000E+00         0.00000E+00        -0.42354E+08
 
   -0.42083E+08         0.36084E+05         0.00000E+00
    0.36084E+05        -0.50000E+08         0.00000E+00
    0.00000E+00         0.00000E+00        -0.41991E+08
 
   -0.42083E+08         0.10826E+06         0.00000E+00
    0.10826E+06        -0.50000E+08         0.00000E+00
    0.00000E+00         0.00000E+00        -0.41991E+08
 
   -0.42083E+08         0.18043E+06         0.00000E+00
    0.18043E+06        -0.50000E+08         0.00000E+00
    0.00000E+00         0.00000E+00        -0.41991E+08
 
   -0.42083E+08         0.25262E+06         0.00000E+00
    0.25262E+06        -0.50000E+08         0.00000E+00
    0.00000E+00         0.00000E+00        -0.41991E+08
 
   -0.42082E+08         0.32481E+06         0.00000E+00
    0.32481E+06        -0.50000E+08         0.00000E+00
    0.00000E+00         0.00000E+00        -0.41991E+08
 
   -0.42082E+08         0.39701E+06         0.00000E+00
    0.39701E+06        -0.50001E+08         0.00000E+00
    0.00000E+00         0.00000E+00        -0.41991E+08
 
   -0.42081E+08         0.46923E+06         0.00000E+00
    0.46923E+06        -0.50001E+08         0.00000E+00
    0.00000E+00         0.00000E+00        -0.41991E+08
 
   -0.42081E+08         0.54147E+06         0.00000E+00
    0.54147E+06        -0.50001E+08         0.00000E+00
    0.00000E+00         0.00000E+00        -0.41991E+08
 
   -0.42080E+08         0.61372E+06         0.00000E+00
    0.61372E+06        -0.50002E+08         0.00000E+00
    0.00000E+00         0.00000E+00        -0.41991E+08
 
   -0.42079E+08         0.68599E+06         0.00000E+00
    0.68599E+06        -0.50002E+08         0.00000E+00
    0.00000E+00         0.00000E+00        -0.41991E+08
 
   -0.42078E+08         0.75829E+06         0.00000E+00
    0.75829E+06        -0.50003E+08         0.00000E+00
    0.00000E+00         0.00000E+00        -0.41991E+08
 
   -0.42077E+08         0.83061E+06         0.00000E+00
    0.83061E+06        -0.50003E+08         0.00000E+00
    0.00000E+00         0.00000E+00        -0.41991E+08
 
   -0.42076E+08         0.90295E+06         0.00000E+00
    0.90295E+06        -0.50004E+08         0.00000E+00
    0.00000E+00         0.00000E+00        -0.41990E+08
 
   -0.42075E+08         0.97533E+06         0.00000E+00
    0.97533E+06        -0.50004E+08         0.00000E+00
    0.00000E+00         0.00000E+00        -0.41990E+08
 
   -0.42074E+08         0.10477E+07         0.00000E+00
    0.10477E+07        -0.50005E+08         0.00000E+00
    0.00000E+00         0.00000E+00        -0.41990E+08
 
   -0.42072E+08         0.11202E+07         0.00000E+00
    0.11202E+07        -0.50006E+08         0.00000E+00
    0.00000E+00         0.00000E+00        -0.41990E+08
 
   -0.42071E+08         0.11927E+07         0.00000E+00
    0.11927E+07        -0.50006E+08         0.00000E+00
    0.00000E+00         0.00000E+00        -0.41990E+08
 
   -0.42069E+08         0.12652E+07         0.00000E+00
    0.12652E+07        -0.50007E+08         0.00000E+00
    0.00000E+00         0.00000E+00        -0.41990E+08
 
   -0.42068E+08         0.13377E+07         0.00000E+00
    0.13377E+07        -0.50008E+08         0.00000E+00
    0.00000E+00         0.00000E+00        -0.41990E+08
 
   -0.42066E+08         0.14103E+07         0.00000E+00
    0.14103E+07        -0.50009E+08         0.00000E+00
    0.00000E+00         0.00000E+00        -0.41989E+08
 
   -0.42064E+08         0.14830E+07         0.00000E+00
    0.14830E+07        -0.50010E+08         0.00000E+00
    0.00000E+00         0.00000E+00        -0.41989E+08
 
   -0.42062E+08         0.15557E+07         0.00000E+00
    0.15557E+07        -0.50010E+08         0.00000E+00
    0.00000E+00         0.00000E+00        -0.41989E+08
 
   -0.42060E+08         0.16284E+07         0.00000E+00
    0.16284E+07        -0.50011E+08         0.00000E+00
    0.00000E+00         0.00000E+00        -0.41989E+08
 
   -0.42058E+08         0.17012E+07         0.00000E+00
    0.17012E+07        -0.50012E+08         0.00000E+00
    0.00000E+00         0.00000E+00        -0.41989E+08
 
   -0.42056E+08         0.17740E+07         0.00000E+00
    0.17740E+07        -0.50013E+08         0.00000E+00
    0.00000E+00         0.00000E+00        -0.41988E+08
 
   -0.42054E+08         0.18469E+07         0.00000E+00
    0.18469E+07        -0.50015E+08         0.00000E+00
    0.00000E+00         0.00000E+00        -0.41988E+08
 
   -0.42052E+08         0.19199E+07         0.00000E+00
    0.19199E+07        -0.50016E+08         0.00000E+00
    0.00000E+00         0.00000E+00        -0.41988E+08
 
   -0.42049E+08         0.19929E+07         0.00000E+00
    0.19929E+07        -0.50017E+08         0.00000E+00
    0.00000E+00         0.00000E+00        -0.41988E+08
 
   -0.42047E+08         0.20659E+07         0.00000E+00
    0.20659E+07        -0.50018E+08         0.00000E+00
    0.00000E+00         0.00000E+00        -0.41987E+08
 
   -0.42044E+08         0.21391E+07         0.00000E+00
    0.21391E+07        -0.50019E+08         0.00000E+00
    0.00000E+00         0.00000E+00        -0.41987E+08
 
   -0.42042E+08         0.22123E+07         0.00000E+00
    0.22123E+07        -0.50020E+08         0.00000E+00
    0.00000E+00         0.00000E+00        -0.41987E+08
 
   -0.42039E+08         0.22855E+07         0.00000E+00
    0.22855E+07        -0.50022E+08         0.00000E+00
    0.00000E+00         0.00000E+00        -0.41987E+08
 
   -0.42037E+08         0.23588E+07         0.00000E+00
    0.23588E+07        -0.50023E+08         0.00000E+00
    0.00000E+00         0.00000E+00        -0.41986E+08
 
   -0.42034E+08         0.24322E+07         0.00000E+00
    0.24322E+07        -0.50024E+08         0.00000E+00
    0.00000E+00         0.00000E+00        -0.41986E+08
 
   -0.42031E+08         0.25057E+07         0.00000E+00
    0.25057E+07        -0.50026E+08         0.00000E+00
    0.00000E+00         0.00000E+00        -0.41986E+08
 
   -0.42028E+08         0.25792E+07         0.00000E+00
    0.25792E+07        -0.50027E+08         0.00000E+00
    0.00000E+00         0.00000E+00        -0.41985E+08
 
   -0.42025E+08         0.26529E+07         0.00000E+00
    0.26529E+07        -0.50028E+08         0.00000E+00
    0.00000E+00         0.00000E+00        -0.41985E+08
 
   -0.42022E+08         0.27265E+07         0.00000E+00
    0.27265E+07        -0.50030E+08         0.00000E+00
    0.00000E+00         0.00000E+00        -0.41985E+08
 
   -0.42019E+08         0.28003E+07         0.00000E+00
    0.28003E+07        -0.50031E+08         0.00000E+00
    0.00000E+00         0.00000E+00        -0.41985E+08
 
   -0.42016E+08         0.28741E+07         0.00000E+00
    0.28741E+07        -0.50033E+08         0.00000E+00
    0.00000E+00         0.00000E+00        -0.41984E+08
 
   -0.42013E+08         0.29481E+07         0.00000E+00
    0.29481E+07        -0.50034E+08         0.00000E+00
    0.00000E+00         0.00000E+00        -0.41984E+08
 
   -0.42009E+08         0.30220E+07         0.00000E+00
    0.30220E+07        -0.50036E+08         0.00000E+00
    0.00000E+00         0.00000E+00        -0.41983E+08
 
   -0.42006E+08         0.30961E+07         0.00000E+00
    0.30961E+07        -0.50037E+08         0.00000E+00
    0.00000E+00         0.00000E+00        -0.41983E+08
 
   -0.42003E+08         0.31703E+07         0.00000E+00
    0.31703E+07        -0.50039E+08         0.00000E+00
    0.00000E+00         0.00000E+00        -0.41983E+08
 
   -0.42000E+08         0.32445E+07         0.00000E+00
    0.32445E+07        -0.50040E+08         0.00000E+00
    0.00000E+00         0.00000E+00        -0.41982E+08
 
   -0.41996E+08         0.33189E+07         0.00000E+00
    0.33189E+07        -0.50042E+08         0.00000E+00
    0.00000E+00         0.00000E+00        -0.41982E+08
 
   -0.41993E+08         0.33933E+07         0.00000E+00
    0.33933E+07        -0.50043E+08         0.00000E+00
    0.00000E+00         0.00000E+00        -0.41982E+08
 
   -0.41989E+08         0.34678E+07         0.00000E+00
    0.34678E+07        -0.50045E+08         0.00000E+00
    0.00000E+00         0.00000E+00        -0.41981E+08
 
   -0.41986E+08         0.35424E+07         0.00000E+00
    0.35424E+07        -0.50047E+08         0.00000E+00
    0.00000E+00         0.00000E+00        -0.41981E+08
 
   -0.41982E+08         0.36171E+07         0.00000E+00
    0.36171E+07        -0.50048E+08         0.00000E+00
    0.00000E+00         0.00000E+00        -0.41981E+08
 
   -0.41723E+08         0.35960E+05         0.00000E+00
    0.35960E+05        -0.50000E+08         0.00000E+00
    0.00000E+00         0.00000E+00        -0.41619E+08
 
   -0.41723E+08         0.10788E+06         0.00000E+00
    0.10788E+06        -0.50000E+08         0.00000E+00
    0.00000E+00         0.00000E+00        -0.41619E+08
 
   -0.41723E+08         0.17981E+06         0.00000E+00
    0.17981E+06        -0.50000E+08         0.00000E+00
    0.00000E+00         0.00000E+00        -0.41619E+08
 
   -0.41722E+08         0.25175E+06         0.00000E+00
    0.25175E+06        -0.50000E+08         0.00000E+00
    0.00000E+00         0.00000E+00        -0.41619E+08
 
   -0.41722E+08         0.32369E+06         0.00000E+00
    0.32369E+06        -0.50001E+08         0.00000E+00
    0.00000E+00         0.00000E+00        -0.41619E+08
 
   -0.41721E+08         0.39565E+06         0.00000E+00
    0.39565E+06        -0.50001E+08         0.00000E+00
    0.00000E+00         0.00000E+00        -0.41619E+08
 
   -0.41721E+08         0.46762E+06         0.00000E+00
    0.46762E+06        -0.50001E+08         0.00000E+00
    0.00000E+00         0.00000E+00        -0.41619E+08
 
   -0.41720E+08         0.53961E+06         0.00000E+00
    0.53961E+06        -0.50001E+08         0.00000E+00
    0.00000E+00         0.00000E+00        -0.41618E+08
 
   -0.41719E+08         0.61162E+06         0.00000E+00
    0.61162E+06        -0.50002E+08         0.00000E+00
    0.00000E+00         0.00000E+00        -0.41618E+08
 
   -0.41718E+08         0.68366E+06         0.00000E+00
    0.68366E+06        -0.50002E+08         0.00000E+00
    0.00000E+00         0.00000E+00        -0.41618E+08
 
   -0.41717E+08         0.75571E+06         0.00000E+00
    0.75571E+06        -0.50003E+08         0.00000E+00
    0.00000E+00         0.00000E+00        -0.41618E+08
 
   -0.41716E+08         0.82779E+06         0.00000E+00
    0.82779E+06        -0.50003E+08         0.00000E+00
    0.00000E+00         0.00000E+00        -0.41618E+08
 
   -0.41715E+08         0.89991E+06         0.00000E+00
    0.89991E+06        -0.50004E+08         0.00000E+00
    0.00000E+00         0.00000E+00        -0.41618E+08
 
   -0.41714E+08         0.97205E+06         0.00000E+00
    0.97205E+06        -0.50005E+08         0.00000E+00
    0.00000E+00         0.00000E+00        -0.41618E+08
 
   -0.41712E+08         0.10442E+07         0.00000E+00
    0.10442E+07        -0.50005E+08         0.00000E+00
    0.00000E+00         0.00000E+00        -0.41618E+08
 
   -0.41711E+08         0.11164E+07         0.00000E+00
    0.11164E+07        -0.50006E+08         0.00000E+00
    0.00000E+00         0.00000E+00        -0.41617E+08
 
   -0.41709E+08         0.11887E+07         0.00000E+00
    0.11887E+07        -0.50007E+08         0.00000E+00
    0.00000E+00         0.00000E+00        -0.41617E+08
 
   -0.41707E+08         0.12610E+07         0.00000E+00
    0.12610E+07        -0.50008E+08         0.00000E+00
    0.00000E+00         0.00000E+00        -0.41617E+08
 
   -0.41705E+08         0.13333E+07         0.00000E+00
    0.13333E+07        -0.50009E+08         0.00000E+00
    0.00000E+00         0.00000E+00        -0.41617E+08
 
   -0.41703E+08         0.14057E+07         0.00000E+00
    0.14057E+07        -0.50010E+08         0.00000E+00
    0.00000E+00         0.00000E+00        -0.41617E+08
 
   -0.41701E+08         0.14781E+07         0.00000E+00
    0.14781E+07        -0.50011E+08         0.00000E+00
    0.00000E+00         0.00000E+00        -0.41617E+08
 
   -0.41699E+08         0.15506E+07         0.00000E+00
    0.15506E+07        -0.50012E+08         0.00000E+00
    0.00000E+00         0.00000E+00        -0.41616E+08
 
   -0.41697E+08         0.16232E+07         0.00000E+00
    0.16232E+07        -0.50013E+08         0.00000E+00
    0.00000E+00         0.00000E+00        -0.41616E+08
 
   -0.41695E+08         0.16958E+07         0.00000E+00
    0.16958E+07        -0.50014E+08         0.00000E+00
    0.00000E+00         0.00000E+00        -0.41616E+08
 
   -0.41692E+08         0.17684E+07         0.00000E+00
    0.17684E+07        -0.50015E+08         0.00000E+00
    0.00000E+00         0.00000E+00        -0.41616E+08
 
   -0.41690E+08         0.18411E+07         0.00000E+00
    0.18411E+07        -0.50016E+08         0.00000E+00
    0.00000E+00         0.00000E+00        -0.41615E+08
 
   -0.41687E+08         0.19139E+07         0.00000E+00
    0.19139E+07        -0.50018E+08         0.00000E+00
    0.00000E+00         0.00000E+00        -0.41615E+08
 
   -0.41685E+08         0.19867E+07         0.00000E+00
    0.19867E+07        -0.50019E+08         0.00000E+00
    0.00000E+00         0.00000E+00        -0.41615E+08
 
   -0.41682E+08         0.20596E+07         0.00000E+00
    0.20596E+07        -0.50020E+08         0.00000E+00
    0.00000E+00         0.00000E+00        -0.41615E+08
 
   -0.41679E+08         0.21326E+07         0.00000E+00
    0.21326E+07        -0.50022E+08         0.00000E+00
    0.00000E+00         0.00000E+00        -0.41614E+08
 
   -0.41676E+08         0.22056E+07         0.00000E+00
    0.22056E+07        -0.50023E+08         0.00000E+00
    0.00000E+00         0.00000E+00        -0.41614E+08
 
   -0.41673E+08         0.22787E+07         0.00000E+00
    0.22787E+07        -0.50024E+08         0.00000E+00
    0.00000E+00         0.00000E+00        -0.41614E+08
 
   -0.41670E+08         0.23519E+07         0.00000E+00
    0.23519E+07        -0.50026E+08         0.00000E+00
    0.00000E+00         0.00000E+00        -0.41613E+08
 
   -0.41667E+08         0.24251E+07         0.00000E+00
    0.24251E+07        -0.50027E+08         0.00000E+00
    0.00000E+00         0.00000E+00        -0.41613E+08
 
   -0.41664E+08         0.24985E+07         0.00000E+00
    0.24985E+07        -0.50029E+08         0.00000E+00
    0.00000E+00         0.00000E+00        -0.41613E+08
 
   -0.41660E+08         0.25719E+07         0.00000E+00
    0.25719E+07        -0.50031E+08         0.00000E+00
    0.00000E+00         0.00000E+00        -0.41612E+08
 
   -0.41657E+08         0.26453E+07         0.00000E+00
    0.26453E+07        -0.50032E+08         0.00000E+00
    0.00000E+00         0.00000E+00        -0.41612E+08
 
   -0.41654E+08         0.27189E+07         0.00000E+00
    0.27189E+07        -0.50034E+08         0.00000E+00
    0.00000E+00         0.00000E+00        -0.41612E+08
 
   -0.41650E+08         0.27926E+07         0.00000E+00
    0.27926E+07        -0.50035E+08         0.00000E+00
    0.00000E+00         0.00000E+00        -0.41611E+08
 
   -0.41647E+08         0.28663E+07         0.00000E+00
    0.28663E+07        -0.50037E+08         0.00000E+00
    0.00000E+00         0.00000E+00        -0.41611E+08
 
   -0.41643E+08         0.29401E+07         0.00000E+00
    0.29401E+07        -0.50039E+08         0.00000E+00
    0.00000E+00         0.00000E+00        -0.41611E+08
 
   -0.41639E+08         0.30140E+07         0.00000E+00
    0.30140E+07        -0.50040E+08         0.00000E+00
    0.00000E+00         0.00000E+00        -0.41610E+08
 
   -0.41636E+08         0.30880E+07         0.00000E+00
    0.30880E+07        -0.50042E+08         0.00000E+00
    0.00000E+00         0.00000E+00        -0.41610E+08
 
   -0.41632E+08         0.31621E+07         0.00000E+00
    0.31621E+07        -0.50044E+08         0.00000E+00
    0.00000E+00         0.00000E+00        -0.41609E+08
 
   -0.41628E+08         0.32363E+07         0.00000E+00
    0.32363E+07        -0.50046E+08         0.00000E+00
    0.00000E+00         0.00000E+00        -0.41609E+08
 
   -0.41624E+08         0.33106E+07         0.00000E+00
    0.33106E+07        -0.50047E+08         0.00000E+00
    0.00000E+00         0.00000E+00        -0.41608E+08
 
   -0.41620E+08         0.33849E+07         0.00000E+00
    0.33849E+07        -0.50049E+08         0.00000E+00
    0.00000E+00         0.00000E+00        -0.41608E+08
 
   -0.41617E+08         0.34594E+07         0.00000E+00
    0.34594E+07        -0.50051E+08         0.00000E+00
    0.00000E+00         0.00000E+00        -0.41608E+08
 
   -0.41613E+08         0.35339E+07         0.00000E+00
    0.35339E+07        -0.50053E+08         0.00000E+00
    0.00000E+00         0.00000E+00        -0.41607E+08
 
   -0.41609E+08         0.36086E+07         0.00000E+00
    0.36086E+07        -0.50054E+08         0.00000E+00
    0.00000E+00         0.00000E+00        -0.41607E+08
 
   -0.41364E+08         0.35820E+05         0.00000E+00
    0.35820E+05        -0.50000E+08         0.00000E+00
    0.00000E+00         0.00000E+00        -0.41247E+08
 
   -0.41364E+08         0.10746E+06         0.00000E+00
    0.10746E+06        -0.50000E+08         0.00000E+00
    0.00000E+00         0.00000E+00        -0.41247E+08
 
   -0.41364E+08         0.17911E+06         0.00000E+00
    0.17911E+06        -0.50000E+08         0.00000E+00
    0.00000E+00         0.00000E+00        -0.41247E+08
 
   -0.41363E+08         0.25077E+06         0.00000E+00
    0.25077E+06        -0.50000E+08         0.00000E+00
    0.00000E+00         0.00000E+00        -0.41247E+08
 
   -0.41363E+08         0.32244E+06         0.00000E+00
    0.32244E+06        -0.50001E+08         0.00000E+00
    0.00000E+00         0.00000E+00        -0.41246E+08
 
   -0.41362E+08         0.39412E+06         0.00000E+00
    0.39412E+06        -0.50001E+08         0.00000E+00
    0.00000E+00         0.00000E+00        -0.41246E+08
 
   -0.41362E+08         0.46581E+06         0.00000E+00
    0.46581E+06        -0.50001E+08         0.00000E+00
    0.00000E+00         0.00000E+00        -0.41246E+08
 
   -0.41361E+08         0.53753E+06         0.00000E+00
    0.53753E+06        -0.50002E+08         0.00000E+00
    0.00000E+00         0.00000E+00        -0.41246E+08
 
   -0.41360E+08         0.60927E+06         0.00000E+00
    0.60927E+06        -0.50002E+08         0.00000E+00
    0.00000E+00         0.00000E+00        -0.41246E+08
 
   -0.41359E+08         0.68103E+06         0.00000E+00
    0.68103E+06        -0.50003E+08         0.00000E+00
    0.00000E+00         0.00000E+00        -0.41246E+08
 
   -0.41358E+08         0.75281E+06         0.00000E+00
    0.75281E+06        -0.50003E+08         0.00000E+00
    0.00000E+00         0.00000E+00        -0.41246E+08
 
   -0.41356E+08         0.82463E+06         0.00000E+00
    0.82463E+06        -0.50004E+08         0.00000E+00
    0.00000E+00         0.00000E+00        -0.41246E+08
 
   -0.41355E+08         0.89648E+06         0.00000E+00
    0.89648E+06        -0.50005E+08         0.00000E+00
    0.00000E+00         0.00000E+00        -0.41246E+08
 
   -0.41353E+08         0.96836E+06         0.00000E+00
    0.96836E+06        -0.50005E+08         0.00000E+00
    0.00000E+00         0.00000E+00        -0.41246E+08
 
   -0.41352E+08         0.10403E+07         0.00000E+00
    0.10403E+07        -0.50006E+08         0.00000E+00
    0.00000E+00         0.00000E+00        -0.41245E+08
 
   -0.41350E+08         0.11122E+07         0.00000E+00
    0.11122E+07        -0.50007E+08         0.00000E+00
    0.00000E+00         0.00000E+00        -0.41245E+08
 
   -0.41348E+08         0.11842E+07         0.00000E+00
    0.11842E+07        -0.50008E+08         0.00000E+00
    0.00000E+00         0.00000E+00        -0.41245E+08
 
   -0.41346E+08         0.12563E+07         0.00000E+00
    0.12563E+07        -0.50009E+08         0.00000E+00
    0.00000E+00         0.00000E+00        -0.41245E+08
 
   -0.41344E+08         0.13284E+07         0.00000E+00
    0.13284E+07        -0.50010E+08         0.00000E+00
    0.00000E+00         0.00000E+00        -0.41245E+08
 
   -0.41342E+08         0.14005E+07         0.00000E+00
    0.14005E+07        -0.50011E+08         0.00000E+00
    0.00000E+00         0.00000E+00        -0.41244E+08
 
   -0.41340E+08         0.14727E+07         0.00000E+00
    0.14727E+07        -0.50012E+08         0.00000E+00
    0.00000E+00         0.00000E+00        -0.41244E+08
 
   -0.41337E+08         0.15450E+07         0.00000E+00
    0.15450E+07        -0.50013E+08         0.00000E+00
    0.00000E+00         0.00000E+00        -0.41244E+08
 
   -0.41335E+08         0.16173E+07         0.00000E+00
    0.16173E+07        -0.50015E+08         0.00000E+00
    0.00000E+00         0.00000E+00        -0.41244E+08
 
   -0.41332E+08         0.16896E+07         0.00000E+00
    0.16896E+07        -0.50016E+08         0.00000E+00
    0.00000E+00         0.00000E+00        -0.41243E+08
 
   -0.41329E+08         0.17621E+07         0.00000E+00
    0.17621E+07        -0.50017E+08         0.00000E+00
    0.00000E+00         0.00000E+00        -0.41243E+08
 
   -0.41327E+08         0.18346E+07         0.00000E+00
    0.18346E+07        -0.50018E+08         0.00000E+00
    0.00000E+00         0.00000E+00        -0.41243E+08
 
   -0.41324E+08         0.19071E+07         0.00000E+00
    0.19071E+07        -0.50020E+08         0.00000E+00
    0.00000E+00         0.00000E+00        -0.41243E+08
 
   -0.41321E+08         0.19798E+07         0.00000E+00
    0.19798E+07        -0.50021E+08         0.00000E+00
    0.00000E+00         0.00000E+00        -0.41242E+08
 
   -0.41318E+08         0.20525E+07         0.00000E+00
    0.20525E+07        -0.50023E+08         0.00000E+00
    0.00000E+00         0.00000E+00        -0.41242E+08
 
   -0.41314E+08         0.21252E+07         0.00000E+00
    0.21252E+07        -0.50024E+08         0.00000E+00
    0.00000E+00         0.00000E+00        -0.41242E+08
 
   -0.41311E+08         0.21981E+07         0.00000E+00
    0.21981E+07        -0.50026E+08         0.00000E+00
    0.00000E+00         0.00000E+00        -0.41241E+08
 
   -0.41308E+08         0.22710E+07         0.00000E+00
    0.22710E+07        -0.50028E+08         0.00000E+00
    0.00000E+00         0.00000E+00        -0.41241E+08
 
   -0.41304E+08         0.23440E+07         0.00000E+00
    0.23440E+07        -0.50029E+08         0.00000E+00
    0.00000E+00         0.00000E+00        -0.41241E+08
 
   -0.41301E+08         0.24171E+07         0.00000E+00
    0.24171E+07        -0.50031E+08         0.00000E+00
    0.00000E+00         0.00000E+00        -0.41240E+08
 
   -0.41297E+08         0.24903E+07         0.00000E+00
    0.24903E+07        -0.50033E+08         0.00000E+00
    0.00000E+00         0.00000E+00        -0.41240E+08
 
   -0.41294E+08         0.25635E+07         0.00000E+00
    0.25635E+07        -0.50034E+08         0.00000E+00
    0.00000E+00         0.00000E+00        -0.41239E+08
 
   -0.41290E+08         0.26369E+07         0.00000E+00
    0.26369E+07        -0.50036E+08         0.00000E+00
    0.00000E+00         0.00000E+00        -0.41239E+08
 
   -0.41286E+08         0.27103E+07         0.00000E+00
    0.27103E+07        -0.50038E+08         0.00000E+00
    0.00000E+00         0.00000E+00        -0.41239E+08
 
   -0.41282E+08         0.27838E+07         0.00000E+00
    0.27838E+07        -0.50040E+08         0.00000E+00
    0.00000E+00         0.00000E+00        -0.41238E+08
 
   -0.41278E+08         0.28575E+07         0.00000E+00
    0.28575E+07        -0.50042E+08         0.00000E+00
    0.00000E+00         0.00000E+00        -0.41238E+08
 
   -0.41274E+08         0.29312E+07         0.00000E+00
    0.29312E+07        -0.50043E+08         0.00000E+00
    0.00000E+00         0.00000E+00        -0.41237E+08
 
   -0.41270E+08         0.30050E+07         0.00000E+00
    0.30050E+07        -0.50045E+08         0.00000E+00
    0.00000E+00         0.00000E+00        -0.41237E+08
 
   -0.41266E+08         0.30789E+07         0.00000E+00
    0.30789E+07        -0.50047E+08         0.00000E+00
    0.00000E+00         0.00000E+00        -0.41236E+08
 
   -0.41262E+08         0.31529E+07         0.00000E+00
    0.31529E+07        -0.50049E+08         0.00000E+00
    0.00000E+00         0.00000E+00        -0.41236E+08
 
   -0.41257E+08         0.32270E+07         0.00000E+00
    0.32270E+07        -0.50051E+08         0.00000E+00
    0.00000E+00         0.00000E+00        -0.41236E+08
 
   -0.41253E+08         0.33012E+07         0.00000E+00
    0.33012E+07        -0.50053E+08         0.00000E+00
    0.00000E+00         0.00000E+00        -0.41235E+08
 
   -0.41249E+08         0.33755E+07         0.00000E+00
    0.33755E+07        -0.50055E+08         0.00000E+00
    0.00000E+00         0.00000E+00        -0.41235E+08
 
   -0.41244E+08         0.34499E+07         0.00000E+00
    0.34499E+07        -0.50057E+08         0.00000E+00
    0.00000E+00         0.00000E+00        -0.41234E+08
 
   -0.41240E+08         0.35244E+07         0.00000E+00
    0.35244E+07        -0.50059E+08         0.00000E+00
    0.00000E+00         0.00000E+00        -0.41234E+08
 
   -0.41235E+08         0.35990E+07         0.00000E+00
    0.35990E+07        -0.50061E+08         0.00000E+00
    0.00000E+00         0.00000E+00        -0.41233E+08
 
   -0.41006E+08         0.35664E+05         0.00000E+00
    0.35664E+05        -0.50000E+08         0.00000E+00
    0.00000E+00         0.00000E+00        -0.40875E+08
 
   -0.41006E+08         0.10699E+06         0.00000E+00
    0.10699E+06        -0.50000E+08         0.00000E+00
    0.00000E+00         0.00000E+00        -0.40875E+08
 
   -0.41006E+08         0.17833E+06         0.00000E+00
    0.17833E+06        -0.50000E+08         0.00000E+00
    0.00000E+00         0.00000E+00        -0.40875E+08
 
   -0.41006E+08         0.24967E+06         0.00000E+00
    0.24967E+06        -0.50000E+08         0.00000E+00
    0.00000E+00         0.00000E+00        -0.40875E+08
 
   -0.41005E+08         0.32103E+06         0.00000E+00
    0.32103E+06        -0.50001E+08         0.00000E+00
    0.00000E+00         0.00000E+00        -0.40875E+08
 
   -0.41005E+08         0.39240E+06         0.00000E+00
    0.39240E+06        -0.50001E+08         0.00000E+00
    0.00000E+00         0.00000E+00        -0.40875E+08
 
   -0.41004E+08         0.46378E+06         0.00000E+00
    0.46378E+06        -0.50001E+08         0.00000E+00
    0.00000E+00         0.00000E+00        -0.40874E+08
 
   -0.41003E+08         0.53519E+06         0.00000E+00
    0.53519E+06        -0.50002E+08         0.00000E+00
    0.00000E+00         0.00000E+00        -0.40874E+08
 
   -0.41002E+08         0.60662E+06         0.00000E+00
    0.60662E+06        -0.50002E+08         0.00000E+00
    0.00000E+00         0.00000E+00        -0.40874E+08
 
   -0.41001E+08         0.67808E+06         0.00000E+00
    0.67808E+06        -0.50003E+08         0.00000E+00
    0.00000E+00         0.00000E+00        -0.40874E+08
 
   -0.40999E+08         0.74956E+06         0.00000E+00
    0.74956E+06        -0.50004E+08         0.00000E+00
    0.00000E+00         0.00000E+00        -0.40874E+08
 
   -0.40998E+08         0.82108E+06         0.00000E+00
    0.82108E+06        -0.50004E+08         0.00000E+00
    0.00000E+00         0.00000E+00        -0.40874E+08
 
   -0.40996E+08         0.89263E+06         0.00000E+00
    0.89263E+06        -0.50005E+08         0.00000E+00
    0.00000E+00         0.00000E+00        -0.40874E+08
 
   -0.40995E+08         0.96421E+06         0.00000E+00
    0.96421E+06        -0.50006E+08         0.00000E+00
    0.00000E+00         0.00000E+00        -0.40874E+08
 
   -0.40993E+08         0.10358E+07         0.00000E+00
    0.10358E+07        -0.50007E+08         0.00000E+00
    0.00000E+00         0.00000E+00        -0.40873E+08
 
   -0.40991E+08         0.11075E+07         0.00000E+00
    0.11075E+07        -0.50008E+08         0.00000E+00
    0.00000E+00         0.00000E+00        -0.40873E+08
 
   -0.40989E+08         0.11792E+07         0.00000E+00
    0.11792E+07        -0.50009E+08         0.00000E+00
    0.00000E+00         0.00000E+00        -0.40873E+08
 
   -0.40986E+08         0.12510E+07         0.00000E+00
    0.12510E+07        -0.50010E+08         0.00000E+00
    0.00000E+00         0.00000E+00        -0.40873E+08
 
   -0.40984E+08         0.13228E+07         0.00000E+00
    0.13228E+07        -0.50011E+08         0.00000E+00
    0.00000E+00         0.00000E+00        -0.40873E+08
 
   -0.40982E+08         0.13947E+07         0.00000E+00
    0.13947E+07        -0.50012E+08         0.00000E+00
    0.00000E+00         0.00000E+00        -0.40872E+08
 
   -0.40979E+08         0.14666E+07         0.00000E+00
    0.14666E+07        -0.50014E+08         0.00000E+00
    0.00000E+00         0.00000E+00        -0.40872E+08
 
   -0.40976E+08         0.15386E+07         0.00000E+00
    0.15386E+07        -0.50015E+08         0.00000E+00
    0.00000E+00         0.00000E+00        -0.40872E+08
 
   -0.40974E+08         0.16107E+07         0.00000E+00
    0.16107E+07        -0.50016E+08         0.00000E+00
    0.00000E+00         0.00000E+00        -0.40871E+08
 
   -0.40971E+08         0.16828E+07         0.00000E+00
    0.16828E+07        -0.50018E+08         0.00000E+00
    0.00000E+00         0.00000E+00        -0.40871E+08
 
   -0.40968E+08         0.17550E+07         0.00000E+00
    0.17550E+07        -0.50019E+08         0.00000E+00
    0.00000E+00         0.00000E+00        -0.40871E+08
 
   -0.40965E+08         0.18272E+07         0.00000E+00
    0.18272E+07        -0.50021E+08         0.00000E+00
    0.00000E+00         0.00000E+00        -0.40871E+08
 
   -0.40961E+08         0.18996E+07         0.00000E+00
    0.18996E+07        -0.50022E+08         0.00000E+00
    0.00000E+00         0.00000E+00        -0.40870E+08
 
   -0.40958E+08         0.19720E+07         0.00000E+00
    0.19720E+07        -0.50024E+08         0.00000E+00
    0.00000E+00         0.00000E+00        -0.40870E+08
 
   -0.40955E+08         0.20444E+07         0.00000E+00
    0.20444E+07        -0.50026E+08         0.00000E+00
    0.00000E+00         0.00000E+00        -0.40869E+08
 
   -0.40951E+08         0.21170E+07         0.00000E+00
    0.21170E+07        -0.50027E+08         0.00000E+00
    0.00000E+00         0.00000E+00        -0.40869E+08
 
   -0.40947E+08         0.21897E+07         0.00000E+00
    0.21897E+07        -0.50029E+08         0.00000E+00
    0.00000E+00         0.00000E+00        -0.40869E+08
 
   -0.40944E+08         0.22624E+07         0.00000E+00
    0.22624E+07        -0.50031E+08         0.00000E+00
    0.00000E+00         0.00000E+00        -0.40868E+08
 
   -0.40940E+08         0.23352E+07         0.00000E+00
    0.23352E+07        -0.50033E+08         0.00000E+00
    0.00000E+00         0.00000E+00        -0.40868E+08
 
   -0.40936E+08         0.24081E+07         0.00000E+00
    0.24081E+07        -0.50035E+08         0.00000E+00
    0.00000E+00         0.00000E+00        -0.40868E+08
 
   -0.40932E+08         0.24811E+07         0.00000E+00
    0.24811E+07        -0.50037E+08         0.00000E+00
    0.00000E+00         0.00000E+00        -0.40867E+08
 
   -0.40928E+08         0.25542E+07         0.00000E+00
    0.25542E+07        -0.50038E+08         0.00000E+00
    0.00000E+00         0.00000E+00        -0.40867E+08
 
   -0.40923E+08         0.26274E+07         0.00000E+00
    0.26274E+07        -0.50040E+08         0.00000E+00
    0.00000E+00         0.00000E+00        -0.40866E+08
 
   -0.40919E+08         0.27007E+07         0.00000E+00
    0.27007E+07        -0.50043E+08         0.00000E+00
    0.00000E+00         0.00000E+00        -0.40866E+08
 
   -0.40915E+08         0.27740E+07         0.00000E+00
    0.27740E+07        -0.50045E+08         0.00000E+00
    0.00000E+00         0.00000E+00        -0.40865E+08
 
   -0.40910E+08         0.28475E+07         0.00000E+00
    0.28475E+07        -0.50047E+08         0.00000E+00
    0.00000E+00         0.00000E+00        -0.40865E+08
 
   -0.40906E+08         0.29211E+07         0.00000E+00
    0.29211E+07        -0.50049E+08         0.00000E+00
    0.00000E+00         0.00000E+00        -0.40864E+08
 
   -0.40901E+08         0.29948E+07         0.00000E+00
    0.29948E+07        -0.50051E+08         0.00000E+00
    0.00000E+00         0.00000E+00        -0.40864E+08
 
   -0.40896E+08         0.30686E+07         0.00000E+00
    0.30686E+07        -0.50053E+08         0.00000E+00
    0.00000E+00         0.00000E+00        -0.40863E+08
 
   -0.40892E+08         0.31425E+07         0.00000E+00
    0.31425E+07        -0.50055E+08         0.00000E+00
    0.00000E+00         0.00000E+00        -0.40863E+08
 
   -0.40887E+08         0.32165E+07         0.00000E+00
    0.32165E+07        -0.50057E+08         0.00000E+00
    0.00000E+00         0.00000E+00        -0.40862E+08
 
   -0.40882E+08         0.32906E+07         0.00000E+00
    0.32906E+07        -0.50060E+08         0.00000E+00
    0.00000E+00         0.00000E+00        -0.40862E+08
 
   -0.40877E+08         0.33649E+07         0.00000E+00
    0.33649E+07        -0.50062E+08         0.00000E+00
    0.00000E+00         0.00000E+00        -0.40861E+08
 
   -0.40872E+08         0.34392E+07         0.00000E+00
    0.34392E+07        -0.50064E+08         0.00000E+00
    0.00000E+00         0.00000E+00        -0.40861E+08
 
   -0.40867E+08         0.35137E+07         0.00000E+00
    0.35137E+07        -0.50066E+08         0.00000E+00
    0.00000E+00         0.00000E+00        -0.40860E+08
 
   -0.40862E+08         0.35883E+07         0.00000E+00
    0.35883E+07        -0.50069E+08         0.00000E+00
    0.00000E+00         0.00000E+00        -0.40860E+08
 
   -0.40651E+08         0.35488E+05         0.00000E+00
    0.35488E+05        -0.50000E+08         0.00000E+00
    0.00000E+00         0.00000E+00        -0.40503E+08
 
   -0.40651E+08         0.10647E+06         0.00000E+00
    0.10647E+06        -0.50000E+08         0.00000E+00
    0.00000E+00         0.00000E+00        -0.40503E+08
 
   -0.40650E+08         0.17745E+06         0.00000E+00
    0.17745E+06        -0.50000E+08         0.00000E+00
    0.00000E+00         0.00000E+00        -0.40503E+08
 
   -0.40650E+08         0.24845E+06         0.00000E+00
    0.24845E+06        -0.50000E+08         0.00000E+00
    0.00000E+00         0.00000E+00        -0.40503E+08
 
   -0.40649E+08         0.31945E+06         0.00000E+00
    0.31945E+06        -0.50001E+08         0.00000E+00
    0.00000E+00         0.00000E+00        -0.40503E+08
 
   -0.40649E+08         0.39047E+06         0.00000E+00
    0.39047E+06        -0.50001E+08         0.00000E+00
    0.00000E+00         0.00000E+00        -0.40503E+08
 
   -0.40648E+08         0.46151E+06         0.00000E+00
    0.46151E+06        -0.50002E+08         0.00000E+00
    0.00000E+00         0.00000E+00        -0.40503E+08
 
   -0.40647E+08         0.53257E+06         0.00000E+00
    0.53257E+06        -0.50002E+08         0.00000E+00
    0.00000E+00         0.00000E+00        -0.40503E+08
 
   -0.40645E+08         0.60366E+06         0.00000E+00
    0.60366E+06        -0.50003E+08         0.00000E+00
    0.00000E+00         0.00000E+00        -0.40503E+08
 
   -0.40644E+08         0.67477E+06         0.00000E+00
    0.67477E+06        -0.50003E+08         0.00000E+00
    0.00000E+00         0.00000E+00        -0.40503E+08
 
   -0.40643E+08         0.74592E+06         0.00000E+00
    0.74592E+06        -0.50004E+08         0.00000E+00
    0.00000E+00         0.00000E+00        -0.40502E+08
 
   -0.40641E+08         0.81710E+06         0.00000E+00
    0.81710E+06        -0.50005E+08         0.00000E+00
    0.00000E+00         0.00000E+00        -0.40502E+08
 
   -0.40639E+08         0.88832E+06         0.00000E+00
    0.88832E+06        -0.50006E+08         0.00000E+00
    0.00000E+00         0.00000E+00        -0.40502E+08
 
   -0.40637E+08         0.95958E+06         0.00000E+00
    0.95958E+06        -0.50007E+08         0.00000E+00
    0.00000E+00         0.00000E+00        -0.40502E+08
 
   -0.40635E+08         0.10309E+07         0.00000E+00
    0.10309E+07        -0.50008E+08         0.00000E+00
    0.00000E+00         0.00000E+00        -0.40502E+08
 
   -0.40633E+08         0.11022E+07         0.00000E+00
    0.11022E+07        -0.50009E+08         0.00000E+00
    0.00000E+00         0.00000E+00        -0.40501E+08
 
   -0.40631E+08         0.11736E+07         0.00000E+00
    0.11736E+07        -0.50010E+08         0.00000E+00
    0.00000E+00         0.00000E+00        -0.40501E+08
 
   -0.40628E+08         0.12451E+07         0.00000E+00
    0.12451E+07        -0.50011E+08         0.00000E+00
    0.00000E+00         0.00000E+00        -0.40501E+08
 
   -0.40626E+08         0.13166E+07         0.00000E+00
    0.13166E+07        -0.50012E+08         0.00000E+00
    0.00000E+00         0.00000E+00        -0.40501E+08
 
   -0.40623E+08         0.13882E+07         0.00000E+00
    0.13882E+07        -0.50014E+08         0.00000E+00
    0.00000E+00         0.00000E+00        -0.40500E+08
 
   -0.40620E+08         0.14598E+07         0.00000E+00
    0.14598E+07        -0.50015E+08         0.00000E+00
    0.00000E+00         0.00000E+00        -0.40500E+08
 
   -0.40617E+08         0.15315E+07         0.00000E+00
    0.15315E+07        -0.50017E+08         0.00000E+00
    0.00000E+00         0.00000E+00        -0.40500E+08
 
   -0.40614E+08         0.16033E+07         0.00000E+00
    0.16033E+07        -0.50018E+08         0.00000E+00
    0.00000E+00         0.00000E+00        -0.40500E+08
 
   -0.40611E+08         0.16751E+07         0.00000E+00
    0.16751E+07        -0.50020E+08         0.00000E+00
    0.00000E+00         0.00000E+00        -0.40499E+08
 
   -0.40607E+08         0.17470E+07         0.00000E+00
    0.17470E+07        -0.50021E+08         0.00000E+00
    0.00000E+00         0.00000E+00        -0.40499E+08
 
   -0.40604E+08         0.18190E+07         0.00000E+00
    0.18190E+07        -0.50023E+08         0.00000E+00
    0.00000E+00         0.00000E+00        -0.40498E+08
 
   -0.40600E+08         0.18911E+07         0.00000E+00
    0.18911E+07        -0.50025E+08         0.00000E+00
    0.00000E+00         0.00000E+00        -0.40498E+08
 
   -0.40596E+08         0.19632E+07         0.00000E+00
    0.19632E+07        -0.50027E+08         0.00000E+00
    0.00000E+00         0.00000E+00        -0.40498E+08
 
   -0.40592E+08         0.20355E+07         0.00000E+00
    0.20355E+07        -0.50029E+08         0.00000E+00
    0.00000E+00         0.00000E+00        -0.40497E+08
 
   -0.40588E+08         0.21078E+07         0.00000E+00
    0.21078E+07        -0.50031E+08         0.00000E+00
    0.00000E+00         0.00000E+00        -0.40497E+08
 
   -0.40584E+08         0.21802E+07         0.00000E+00
    0.21802E+07        -0.50033E+08         0.00000E+00
    0.00000E+00         0.00000E+00        -0.40496E+08
 
   -0.40580E+08         0.22527E+07         0.00000E+00
    0.22527E+07        -0.50035E+08         0.00000E+00
    0.00000E+00         0.00000E+00        -0.40496E+08
 
   -0.40576E+08         0.23253E+07         0.00000E+00
    0.23253E+07        -0.50037E+08         0.00000E+00
    0.00000E+00         0.00000E+00        -0.40496E+08
 
   -0.40571E+08         0.23980E+07         0.00000E+00
    0.23980E+07        -0.50039E+08         0.00000E+00
    0.00000E+00         0.00000E+00        -0.40495E+08
 
   -0.40567E+08         0.24708E+07         0.00000E+00
    0.24708E+07        -0.50041E+08         0.00000E+00
    0.00000E+00         0.00000E+00        -0.40495E+08
 
   -0.40562E+08         0.25437E+07         0.00000E+00
    0.25437E+07        -0.50043E+08         0.00000E+00
    0.00000E+00         0.00000E+00        -0.40494E+08
 
   -0.40558E+08         0.26167E+07         0.00000E+00
    0.26167E+07        -0.50045E+08         0.00000E+00
    0.00000E+00         0.00000E+00        -0.40494E+08
 
   -0.40553E+08         0.26898E+07         0.00000E+00
    0.26898E+07        -0.50048E+08         0.00000E+00
    0.00000E+00         0.00000E+00        -0.40493E+08
 
   -0.40548E+08         0.27631E+07         0.00000E+00
    0.27631E+07        -0.50050E+08         0.00000E+00
    0.00000E+00         0.00000E+00        -0.40493E+08
 
   -0.40543E+08         0.28364E+07         0.00000E+00
    0.28364E+07        -0.50052E+08         0.00000E+00
    0.00000E+00         0.00000E+00        -0.40492E+08
 
   -0.40538E+08         0.29098E+07         0.00000E+00
    0.29098E+07        -0.50055E+08         0.00000E+00
    0.00000E+00         0.00000E+00        -0.40492E+08
 
   -0.40533E+08         0.29834E+07         0.00000E+00
    0.29834E+07        -0.50057E+08         0.00000E+00
    0.00000E+00         0.00000E+00        -0.40491E+08
 
   -0.40527E+08         0.30571E+07         0.00000E+00
    0.30571E+07        -0.50059E+08         0.00000E+00
    0.00000E+00         0.00000E+00        -0.40490E+08
 
   -0.40522E+08         0.31309E+07         0.00000E+00
    0.31309E+07        -0.50062E+08         0.00000E+00
    0.00000E+00         0.00000E+00        -0.40490E+08
 
   -0.40517E+08         0.32048E+07         0.00000E+00
    0.32048E+07        -0.50064E+08         0.00000E+00
    0.00000E+00         0.00000E+00        -0.40489E+08
 
   -0.40511E+08         0.32788E+07         0.00000E+00
    0.32788E+07        -0.50067E+08         0.00000E+00
    0.00000E+00         0.00000E+00        -0.40489E+08
 
   -0.40506E+08         0.33530E+07         0.00000E+00
    0.33530E+07        -0.50069E+08         0.00000E+00
    0.00000E+00         0.00000E+00        -0.40488E+08
 
   -0.40500E+08         0.34273E+07         0.00000E+00
    0.34273E+07        -0.50072E+08         0.00000E+00
    0.00000E+00         0.00000E+00        -0.40487E+08
 
   -0.40494E+08         0.35017E+07         0.00000E+00
    0.35017E+07        -0.50074E+08         0.00000E+00
    0.00000E+00         0.00000E+00        -0.40487E+08
 
   -0.40489E+08         0.35762E+07         0.00000E+00
    0.35762E+07        -0.50077E+08         0.00000E+00
    0.00000E+00         0.00000E+00        -0.40486E+08
 
   -0.40297E+08         0.35293E+05         0.00000E+00
    0.35293E+05        -0.50000E+08         0.00000E+00
    0.00000E+00         0.00000E+00        -0.40132E+08
 
   -0.40297E+08         0.10588E+06         0.00000E+00
    0.10588E+06        -0.50000E+08         0.00000E+00
    0.00000E+00         0.00000E+00        -0.40132E+08
 
   -0.40296E+08         0.17647E+06         0.00000E+00
    0.17647E+06        -0.50000E+08         0.00000E+00
    0.00000E+00         0.00000E+00        -0.40132E+08
 
   -0.40296E+08         0.24708E+06         0.00000E+00
    0.24708E+06        -0.50000E+08         0.00000E+00
    0.00000E+00         0.00000E+00        -0.40132E+08
 
   -0.40295E+08         0.31769E+06         0.00000E+00
    0.31769E+06        -0.50001E+08         0.00000E+00
    0.00000E+00         0.00000E+00        -0.40132E+08
 
   -0.40294E+08         0.38832E+06         0.00000E+00
    0.38832E+06        -0.50001E+08         0.00000E+00
    0.00000E+00         0.00000E+00        -0.40132E+08
 
   -0.40293E+08         0.45897E+06         0.00000E+00
    0.45897E+06        -0.50002E+08         0.00000E+00
    0.00000E+00         0.00000E+00        -0.40132E+08
 
   -0.40292E+08         0.52965E+06         0.00000E+00
    0.52965E+06        -0.50002E+08         0.00000E+00
    0.00000E+00         0.00000E+00        -0.40132E+08
 
   -0.40291E+08         0.60035E+06         0.00000E+00
    0.60035E+06        -0.50003E+08         0.00000E+00
    0.00000E+00         0.00000E+00        -0.40131E+08
 
   -0.40289E+08         0.67108E+06         0.00000E+00
    0.67108E+06        -0.50004E+08         0.00000E+00
    0.00000E+00         0.00000E+00        -0.40131E+08
 
   -0.40288E+08         0.74185E+06         0.00000E+00
    0.74185E+06        -0.50005E+08         0.00000E+00
    0.00000E+00         0.00000E+00        -0.40131E+08
 
   -0.40286E+08         0.81265E+06         0.00000E+00
    0.81265E+06        -0.50005E+08         0.00000E+00
    0.00000E+00         0.00000E+00        -0.40131E+08
 
   -0.40284E+08         0.88350E+06         0.00000E+00
    0.88350E+06        -0.50006E+08         0.00000E+00
    0.00000E+00         0.00000E+00        -0.40131E+08
 
   -0.40282E+08         0.95439E+06         0.00000E+00
    0.95439E+06        -0.50007E+08         0.00000E+00
    0.00000E+00         0.00000E+00        -0.40131E+08
 
   -0.40280E+08         0.10253E+07         0.00000E+00
    0.10253E+07        -0.50009E+08         0.00000E+00
    0.00000E+00         0.00000E+00        -0.40130E+08
 
   -0.40277E+08         0.10963E+07         0.00000E+00
    0.10963E+07        -0.50010E+08         0.00000E+00
    0.00000E+00         0.00000E+00        -0.40130E+08
 
   -0.40274E+08         0.11674E+07         0.00000E+00
    0.11674E+07        -0.50011E+08         0.00000E+00
    0.00000E+00         0.00000E+00        -0.40130E+08
 
   -0.40272E+08         0.12385E+07         0.00000E+00
    0.12385E+07        -0.50012E+08         0.00000E+00
    0.00000E+00         0.00000E+00        -0.40130E+08
 
   -0.40269E+08         0.13096E+07         0.00000E+00
    0.13096E+07        -0.50014E+08         0.00000E+00
    0.00000E+00         0.00000E+00        -0.40129E+08
 
   -0.40266E+08         0.13809E+07         0.00000E+00
    0.13809E+07        -0.50015E+08         0.00000E+00
    0.00000E+00         0.00000E+00        -0.40129E+08
 
   -0.40263E+08         0.14522E+07         0.00000E+00
    0.14522E+07        -0.50017E+08         0.00000E+00
    0.00000E+00         0.00000E+00        -0.40129E+08
 
   -0.40259E+08         0.15235E+07         0.00000E+00
    0.15235E+07        -0.50019E+08         0.00000E+00
    0.00000E+00         0.00000E+00        -0.40128E+08
 
   -0.40256E+08         0.15950E+07         0.00000E+00
    0.15950E+07        -0.50020E+08         0.00000E+00
    0.00000E+00         0.00000E+00        -0.40128E+08
 
   -0.40252E+08         0.16665E+07         0.00000E+00
    0.16665E+07        -0.50022E+08         0.00000E+00
    0.00000E+00         0.00000E+00        -0.40128E+08
 
   -0.40248E+08         0.17381E+07         0.00000E+00
    0.17381E+07        -0.50024E+08         0.00000E+00
    0.00000E+00         0.00000E+00        -0.40127E+08
 
   -0.40244E+08         0.18098E+07         0.00000E+00
    0.18098E+07        -0.50026E+08         0.00000E+00
    0.00000E+00         0.00000E+00        -0.40127E+08
 
   -0.40240E+08         0.18816E+07         0.00000E+00
    0.18816E+07        -0.50028E+08         0.00000E+00
    0.00000E+00         0.00000E+00        -0.40126E+08
 
   -0.40236E+08         0.19535E+07         0.00000E+00
    0.19535E+07        -0.50030E+08         0.00000E+00
    0.00000E+00         0.00000E+00        -0.40126E+08
 
   -0.40232E+08         0.20254E+07         0.00000E+00
    0.20254E+07        -0.50032E+08         0.00000E+00
    0.00000E+00         0.00000E+00        -0.40125E+08
 
   -0.40227E+08         0.20975E+07         0.00000E+00
    0.20975E+07        -0.50034E+08         0.00000E+00
    0.00000E+00         0.00000E+00        -0.40125E+08
 
   -0.40223E+08         0.21696E+07         0.00000E+00
    0.21696E+07        -0.50036E+08         0.00000E+00
    0.00000E+00         0.00000E+00        -0.40124E+08
 
   -0.40218E+08         0.22419E+07         0.00000E+00
    0.22419E+07        -0.50039E+08         0.00000E+00
    0.00000E+00         0.00000E+00        -0.40124E+08
 
   -0.40213E+08         0.23143E+07         0.00000E+00
    0.23143E+07        -0.50041E+08         0.00000E+00
    0.00000E+00         0.00000E+00        -0.40123E+08
 
   -0.40208E+08         0.23867E+07         0.00000E+00
    0.23867E+07        -0.50043E+08         0.00000E+00
    0.00000E+00         0.00000E+00        -0.40123E+08
 
   -0.40203E+08         0.24593E+07         0.00000E+00
    0.24593E+07        -0.50046E+08         0.00000E+00
    0.00000E+00         0.00000E+00        -0.40122E+08
 
   -0.40198E+08         0.25320E+07         0.00000E+00
    0.25320E+07        -0.50048E+08         0.00000E+00
    0.00000E+00         0.00000E+00        -0.40122E+08
 
   -0.40193E+08         0.26048E+07         0.00000E+00
    0.26048E+07        -0.50051E+08         0.00000E+00
    0.00000E+00         0.00000E+00        -0.40121E+08
 
   -0.40187E+08         0.26778E+07         0.00000E+00
    0.26778E+07        -0.50053E+08         0.00000E+00
    0.00000E+00         0.00000E+00        -0.40121E+08
 
   -0.40182E+08         0.27508E+07         0.00000E+00
    0.27508E+07        -0.50056E+08         0.00000E+00
    0.00000E+00         0.00000E+00        -0.40120E+08
 
   -0.40176E+08         0.28240E+07         0.00000E+00
    0.28240E+07        -0.50058E+08         0.00000E+00
    0.00000E+00         0.00000E+00        -0.40120E+08
 
   -0.40171E+08         0.28972E+07         0.00000E+00
    0.28972E+07        -0.50061E+08         0.00000E+00
    0.00000E+00         0.00000E+00        -0.40119E+08
 
   -0.40165E+08         0.29707E+07         0.00000E+00
    0.29707E+07        -0.50064E+08         0.00000E+00
    0.00000E+00         0.00000E+00        -0.40118E+08
 
   -0.40159E+08         0.30442E+07         0.00000E+00
    0.30442E+07        -0.50066E+08         0.00000E+00
    0.00000E+00         0.00000E+00        -0.40118E+08
 
   -0.40153E+08         0.31179E+07         0.00000E+00
    0.31179E+07        -0.50069E+08         0.00000E+00
    0.00000E+00         0.00000E+00        -0.40117E+08
 
   -0.40147E+08         0.31917E+07         0.00000E+00
    0.31917E+07        -0.50072E+08         0.00000E+00
    0.00000E+00         0.00000E+00        -0.40116E+08
 
   -0.40141E+08         0.32656E+07         0.00000E+00
    0.32656E+07        -0.50075E+08         0.00000E+00
    0.00000E+00         0.00000E+00        -0.40116E+08
 
   -0.40135E+08         0.33397E+07         0.00000E+00
    0.33397E+07        -0.50077E+08         0.00000E+00
    0.00000E+00         0.00000E+00        -0.40115E+08
 
   -0.40129E+08         0.34139E+07         0.00000E+00
    0.34139E+07        -0.50080E+08         0.00000E+00
    0.00000E+00         0.00000E+00        -0.40114E+08
 
   -0.40122E+08         0.34882E+07         0.00000E+00
    0.34882E+07        -0.50083E+08         0.00000E+00
    0.00000E+00         0.00000E+00        -0.40114E+08
 
   -0.40116E+08         0.35627E+07         0.00000E+00
    0.35627E+07        -0.50086E+08         0.00000E+00
    0.00000E+00         0.00000E+00        -0.40113E+08
 
   -0.39945E+08         0.35075E+05         0.00000E+00
    0.35075E+05        -0.50000E+08         0.00000E+00
    0.00000E+00         0.00000E+00        -0.39761E+08
 
   -0.39945E+08         0.10523E+06         0.00000E+00
    0.10523E+06        -0.50000E+08         0.00000E+00
    0.00000E+00         0.00000E+00        -0.39761E+08
 
   -0.39944E+08         0.17538E+06         0.00000E+00
    0.17538E+06        -0.50000E+08         0.00000E+00
    0.00000E+00         0.00000E+00        -0.39761E+08
 
   -0.39944E+08         0.24555E+06         0.00000E+00
    0.24555E+06        -0.50001E+08         0.00000E+00
    0.00000E+00         0.00000E+00        -0.39761E+08
 
   -0.39943E+08         0.31573E+06         0.00000E+00
    0.31573E+06        -0.50001E+08         0.00000E+00
    0.00000E+00         0.00000E+00        -0.39761E+08
 
   -0.39942E+08         0.38592E+06         0.00000E+00
    0.38592E+06        -0.50001E+08         0.00000E+00
    0.00000E+00         0.00000E+00        -0.39761E+08
 
   -0.39941E+08         0.45614E+06         0.00000E+00
    0.45614E+06        -0.50002E+08         0.00000E+00
    0.00000E+00         0.00000E+00        -0.39761E+08
 
   -0.39940E+08         0.52639E+06         0.00000E+00
    0.52639E+06        -0.50003E+08         0.00000E+00
    0.00000E+00         0.00000E+00        -0.39761E+08
 
   -0.39938E+08         0.59666E+06         0.00000E+00
    0.59666E+06        -0.50003E+08         0.00000E+00
    0.00000E+00         0.00000E+00        -0.39761E+08
 
   -0.39937E+08         0.66697E+06         0.00000E+00
    0.66697E+06        -0.50004E+08         0.00000E+00
    0.00000E+00         0.00000E+00        -0.39760E+08
 
   -0.39935E+08         0.73731E+06         0.00000E+00
    0.73731E+06        -0.50005E+08         0.00000E+00
    0.00000E+00         0.00000E+00        -0.39760E+08
 
   -0.39933E+08         0.80770E+06         0.00000E+00
    0.80770E+06        -0.50006E+08         0.00000E+00
    0.00000E+00         0.00000E+00        -0.39760E+08
 
   -0.39931E+08         0.87813E+06         0.00000E+00
    0.87813E+06        -0.50007E+08         0.00000E+00
    0.00000E+00         0.00000E+00        -0.39760E+08
 
   -0.39928E+08         0.94861E+06         0.00000E+00
    0.94861E+06        -0.50008E+08         0.00000E+00
    0.00000E+00         0.00000E+00        -0.39760E+08
 
   -0.39926E+08         0.10191E+07         0.00000E+00
    0.10191E+07        -0.50010E+08         0.00000E+00
    0.00000E+00         0.00000E+00        -0.39759E+08
 
   -0.39923E+08         0.10897E+07         0.00000E+00
    0.10897E+07        -0.50011E+08         0.00000E+00
    0.00000E+00         0.00000E+00        -0.39759E+08
 
   -0.39920E+08         0.11604E+07         0.00000E+00
    0.11604E+07        -0.50012E+08         0.00000E+00
    0.00000E+00         0.00000E+00        -0.39759E+08
 
   -0.39917E+08         0.12311E+07         0.00000E+00
    0.12311E+07        -0.50014E+08         0.00000E+00
    0.00000E+00         0.00000E+00        -0.39758E+08
 
   -0.39914E+08         0.13019E+07         0.00000E+00
    0.13019E+07        -0.50015E+08         0.00000E+00
    0.00000E+00         0.00000E+00        -0.39758E+08
 
   -0.39910E+08         0.13727E+07         0.00000E+00
    0.13727E+07        -0.50017E+08         0.00000E+00
    0.00000E+00         0.00000E+00        -0.39758E+08
 
   -0.39907E+08         0.14437E+07         0.00000E+00
    0.14437E+07        -0.50019E+08         0.00000E+00
    0.00000E+00         0.00000E+00        -0.39757E+08
 
   -0.39903E+08         0.15147E+07         0.00000E+00
    0.15147E+07        -0.50021E+08         0.00000E+00
    0.00000E+00         0.00000E+00        -0.39757E+08
 
   -0.39899E+08         0.15858E+07         0.00000E+00
    0.15858E+07        -0.50023E+08         0.00000E+00
    0.00000E+00         0.00000E+00        -0.39757E+08
 
   -0.39895E+08         0.16569E+07         0.00000E+00
    0.16569E+07        -0.50025E+08         0.00000E+00
    0.00000E+00         0.00000E+00        -0.39756E+08
 
   -0.39891E+08         0.17282E+07         0.00000E+00
    0.17282E+07        -0.50027E+08         0.00000E+00
    0.00000E+00         0.00000E+00        -0.39756E+08
 
   -0.39886E+08         0.17996E+07         0.00000E+00
    0.17996E+07        -0.50029E+08         0.00000E+00
    0.00000E+00         0.00000E+00        -0.39755E+08
 
   -0.39882E+08         0.18710E+07         0.00000E+00
    0.18710E+07        -0.50031E+08         0.00000E+00
    0.00000E+00         0.00000E+00        -0.39755E+08
 
   -0.39877E+08         0.19426E+07         0.00000E+00
    0.19426E+07        -0.50033E+08         0.00000E+00
    0.00000E+00         0.00000E+00        -0.39754E+08
 
   -0.39872E+08         0.20142E+07         0.00000E+00
    0.20142E+07        -0.50036E+08         0.00000E+00
    0.00000E+00         0.00000E+00        -0.39754E+08
 
   -0.39867E+08         0.20860E+07         0.00000E+00
    0.20860E+07        -0.50038E+08         0.00000E+00
    0.00000E+00         0.00000E+00        -0.39753E+08
 
   -0.39862E+08         0.21579E+07         0.00000E+00
    0.21579E+07        -0.50040E+08         0.00000E+00
    0.00000E+00         0.00000E+00        -0.39753E+08
 
   -0.39857E+08         0.22298E+07         0.00000E+00
    0.22298E+07        -0.50043E+08         0.00000E+00
    0.00000E+00         0.00000E+00        -0.39752E+08
 
   -0.39852E+08         0.23019E+07         0.00000E+00
    0.23019E+07        -0.50046E+08         0.00000E+00
    0.00000E+00         0.00000E+00        -0.39752E+08
 
   -0.39846E+08         0.23742E+07         0.00000E+00
    0.23742E+07        -0.50048E+08         0.00000E+00
    0.00000E+00         0.00000E+00        -0.39751E+08
 
   -0.39841E+08         0.24465E+07         0.00000E+00
    0.24465E+07        -0.50051E+08         0.00000E+00
    0.00000E+00         0.00000E+00        -0.39751E+08
 
   -0.39835E+08         0.25190E+07         0.00000E+00
    0.25190E+07        -0.50054E+08         0.00000E+00
    0.00000E+00         0.00000E+00        -0.39750E+08
 
   -0.39829E+08         0.25915E+07         0.00000E+00
    0.25915E+07        -0.50056E+08         0.00000E+00
    0.00000E+00         0.00000E+00        -0.39749E+08
 
   -0.39823E+08         0.26643E+07         0.00000E+00
    0.26643E+07        -0.50059E+08         0.00000E+00
    0.00000E+00         0.00000E+00        -0.39749E+08
 
   -0.39817E+08         0.27371E+07         0.00000E+00
    0.27371E+07        -0.50062E+08         0.00000E+00
    0.00000E+00         0.00000E+00        -0.39748E+08
 
   -0.39811E+08         0.28101E+07         0.00000E+00
    0.28101E+07        -0.50065E+08         0.00000E+00
    0.00000E+00         0.00000E+00        -0.39747E+08
 
   -0.39804E+08         0.28832E+07         0.00000E+00
    0.28832E+07        -0.50068E+08         0.00000E+00
    0.00000E+00         0.00000E+00        -0.39747E+08
 
   -0.39798E+08         0.29564E+07         0.00000E+00
    0.29564E+07        -0.50071E+08         0.00000E+00
    0.00000E+00         0.00000E+00        -0.39746E+08
 
   -0.39791E+08         0.30298E+07         0.00000E+00
    0.30298E+07        -0.50074E+08         0.00000E+00
    0.00000E+00         0.00000E+00        -0.39745E+08
 
   -0.39785E+08         0.31034E+07         0.00000E+00
    0.31034E+07        -0.50077E+08         0.00000E+00
    0.00000E+00         0.00000E+00        -0.39745E+08
 
   -0.39778E+08         0.31770E+07         0.00000E+00
    0.31770E+07        -0.50080E+08         0.00000E+00
    0.00000E+00         0.00000E+00        -0.39744E+08
 
   -0.39771E+08         0.32509E+07         0.00000E+00
    0.32509E+07        -0.50083E+08         0.00000E+00
    0.00000E+00         0.00000E+00        -0.39743E+08
 
   -0.39764E+08         0.33248E+07         0.00000E+00
    0.33248E+07        -0.50086E+08         0.00000E+00
    0.00000E+00         0.00000E+00        -0.39742E+08
 
   -0.39757E+08         0.33990E+07         0.00000E+00
    0.33990E+07        -0.50089E+08         0.00000E+00
    0.00000E+00         0.00000E+00        -0.39742E+08
 
   -0.39750E+08         0.34732E+07         0.00000E+00
    0.34732E+07        -0.50093E+08         0.00000E+00
    0.00000E+00         0.00000E+00        -0.39741E+08
 
   -0.39743E+08         0.35477E+07         0.00000E+00
    0.35477E+07        -0.50096E+08         0.00000E+00
    0.00000E+00         0.00000E+00        -0.39740E+08
 
   -0.39595E+08         0.34832E+05         0.00000E+00
    0.34832E+05        -0.50000E+08         0.00000E+00
    0.00000E+00         0.00000E+00        -0.39391E+08
 
   -0.39595E+08         0.10450E+06         0.00000E+00
    0.10450E+06        -0.50000E+08         0.00000E+00
    0.00000E+00         0.00000E+00        -0.39391E+08
 
   -0.39595E+08         0.17417E+06         0.00000E+00
    0.17417E+06        -0.50000E+08         0.00000E+00
    0.00000E+00         0.00000E+00        -0.39391E+08
 
   -0.39594E+08         0.24384E+06         0.00000E+00
    0.24384E+06        -0.50001E+08         0.00000E+00
    0.00000E+00         0.00000E+00        -0.39391E+08
 
   -0.39593E+08         0.31354E+06         0.00000E+00
    0.31354E+06        -0.50001E+08         0.00000E+00
    0.00000E+00         0.00000E+00        -0.39391E+08
 
   -0.39592E+08         0.38325E+06         0.00000E+00
    0.38325E+06        -0.50002E+08         0.00000E+00
    0.00000E+00         0.00000E+00        -0.39391E+08
 
   -0.39591E+08         0.45299E+06         0.00000E+00
    0.45299E+06        -0.50002E+08         0.00000E+00
    0.00000E+00         0.00000E+00        -0.39390E+08
 
   -0.39590E+08         0.52275E+06         0.00000E+00
    0.52275E+06        -0.50003E+08         0.00000E+00
    0.00000E+00         0.00000E+00        -0.39390E+08
 
   -0.39588E+08         0.59255E+06         0.00000E+00
    0.59255E+06        -0.50004E+08         0.00000E+00
    0.00000E+00         0.00000E+00        -0.39390E+08
 
   -0.39586E+08         0.66238E+06         0.00000E+00
    0.66238E+06        -0.50005E+08         0.00000E+00
    0.00000E+00         0.00000E+00        -0.39390E+08
 
   -0.39584E+08         0.73225E+06         0.00000E+00
    0.73225E+06        -0.50006E+08         0.00000E+00
    0.00000E+00         0.00000E+00        -0.39390E+08
 
   -0.39582E+08         0.80217E+06         0.00000E+00
    0.80217E+06        -0.50007E+08         0.00000E+00
    0.00000E+00         0.00000E+00        -0.39390E+08
 
   -0.39579E+08         0.87214E+06         0.00000E+00
    0.87214E+06        -0.50008E+08         0.00000E+00
    0.00000E+00         0.00000E+00        -0.39389E+08
 
   -0.39577E+08         0.94216E+06         0.00000E+00
    0.94216E+06        -0.50009E+08         0.00000E+00
    0.00000E+00         0.00000E+00        -0.39389E+08
 
   -0.39574E+08         0.10122E+07         0.00000E+00
    0.10122E+07        -0.50011E+08         0.00000E+00
    0.00000E+00         0.00000E+00        -0.39389E+08
 
   -0.39571E+08         0.10824E+07         0.00000E+00
    0.10824E+07        -0.50012E+08         0.00000E+00
    0.00000E+00         0.00000E+00        -0.39388E+08
 
   -0.39568E+08         0.11526E+07         0.00000E+00
    0.11526E+07        -0.50014E+08         0.00000E+00
    0.00000E+00         0.00000E+00        -0.39388E+08
 
   -0.39564E+08         0.12229E+07         0.00000E+00
    0.12229E+07        -0.50015E+08         0.00000E+00
    0.00000E+00         0.00000E+00        -0.39388E+08
 
   -0.39561E+08         0.12932E+07         0.00000E+00
    0.12932E+07        -0.50017E+08         0.00000E+00
    0.00000E+00         0.00000E+00        -0.39387E+08
 
   -0.39557E+08         0.13637E+07         0.00000E+00
    0.13637E+07        -0.50019E+08         0.00000E+00
    0.00000E+00         0.00000E+00        -0.39387E+08
 
   -0.39553E+08         0.14342E+07         0.00000E+00
    0.14342E+07        -0.50021E+08         0.00000E+00
    0.00000E+00         0.00000E+00        -0.39387E+08
 
   -0.39549E+08         0.15048E+07         0.00000E+00
    0.15048E+07        -0.50023E+08         0.00000E+00
    0.00000E+00         0.00000E+00        -0.39386E+08
 
   -0.39544E+08         0.15755E+07         0.00000E+00
    0.15755E+07        -0.50025E+08         0.00000E+00
    0.00000E+00         0.00000E+00        -0.39386E+08
 
   -0.39540E+08         0.16463E+07         0.00000E+00
    0.16463E+07        -0.50027E+08         0.00000E+00
    0.00000E+00         0.00000E+00        -0.39385E+08
 
   -0.39535E+08         0.17171E+07         0.00000E+00
    0.17171E+07        -0.50030E+08         0.00000E+00
    0.00000E+00         0.00000E+00        -0.39385E+08
 
   -0.39530E+08         0.17881E+07         0.00000E+00
    0.17881E+07        -0.50032E+08         0.00000E+00
    0.00000E+00         0.00000E+00        -0.39384E+08
 
   -0.39525E+08         0.18592E+07         0.00000E+00
    0.18592E+07        -0.50035E+08         0.00000E+00
    0.00000E+00         0.00000E+00        -0.39384E+08
 
   -0.39520E+08         0.19304E+07         0.00000E+00
    0.19304E+07        -0.50037E+08         0.00000E+00
    0.00000E+00         0.00000E+00        -0.39383E+08
 
   -0.39515E+08         0.20017E+07         0.00000E+00
    0.20017E+07        -0.50040E+08         0.00000E+00
    0.00000E+00         0.00000E+00        -0.39383E+08
 
   -0.39509E+08         0.20732E+07         0.00000E+00
    0.20732E+07        -0.50042E+08         0.00000E+00
    0.00000E+00         0.00000E+00        -0.39382E+08
 
   -0.39503E+08         0.21447E+07         0.00000E+00
    0.21447E+07        -0.50045E+08         0.00000E+00
    0.00000E+00         0.00000E+00        -0.39382E+08
 
   -0.39498E+08         0.22164E+07         0.00000E+00
    0.22164E+07        -0.50048E+08         0.00000E+00
    0.00000E+00         0.00000E+00        -0.39381E+08
 
   -0.39492E+08         0.22882E+07         0.00000E+00
    0.22882E+07        -0.50051E+08         0.00000E+00
    0.00000E+00         0.00000E+00        -0.39380E+08
 
   -0.39486E+08         0.23601E+07         0.00000E+00
    0.23601E+07        -0.50054E+08         0.00000E+00
    0.00000E+00         0.00000E+00        -0.39380E+08
 
   -0.39479E+08         0.24322E+07         0.00000E+00
    0.24322E+07        -0.50057E+08         0.00000E+00
    0.00000E+00         0.00000E+00        -0.39379E+08
 
   -0.39473E+08         0.25044E+07         0.00000E+00
    0.25044E+07        -0.50060E+08         0.00000E+00
    0.00000E+00         0.00000E+00        -0.39378E+08
 
   -0.39466E+08         0.25767E+07         0.00000E+00
    0.25767E+07        -0.50063E+08         0.00000E+00
    0.00000E+00         0.00000E+00        -0.39378E+08
 
   -0.39460E+08         0.26492E+07         0.00000E+00
    0.26492E+07        -0.50066E+08         0.00000E+00
    0.00000E+00         0.00000E+00        -0.39377E+08
 
   -0.39453E+08         0.27218E+07         0.00000E+00
    0.27218E+07        -0.50069E+08         0.00000E+00
    0.00000E+00         0.00000E+00        -0.39376E+08
 
   -0.39446E+08         0.27946E+07         0.00000E+00
    0.27946E+07        -0.50072E+08         0.00000E+00
    0.00000E+00         0.00000E+00        -0.39375E+08
 
   -0.39439E+08         0.28675E+07         0.00000E+00
    0.28675E+07        -0.50076E+08         0.00000E+00
    0.00000E+00         0.00000E+00        -0.39375E+08
 
   -0.39432E+08         0.29406E+07         0.00000E+00
    0.29406E+07        -0.50079E+08         0.00000E+00
    0.00000E+00         0.00000E+00        -0.39374E+08
 
   -0.39424E+08         0.30138E+07         0.00000E+00
    0.30138E+07        -0.50082E+08         0.00000E+00
    0.00000E+00         0.00000E+00        -0.39373E+08
 
   -0.39417E+08         0.30872E+07         0.00000E+00
    0.30872E+07        -0.50086E+08         0.00000E+00
    0.00000E+00         0.00000E+00        -0.39372E+08
 
   -0.39410E+08         0.31607E+07         0.00000E+00
    0.31607E+07        -0.50089E+08         0.00000E+00
    0.00000E+00         0.00000E+00        -0.39372E+08
 
   -0.39402E+08         0.32344E+07         0.00000E+00
    0.32344E+07        -0.50093E+08         0.00000E+00
    0.00000E+00         0.00000E+00        -0.39371E+08
 
   -0.39394E+08         0.33083E+07         0.00000E+00
    0.33083E+07        -0.50096E+08         0.00000E+00
    0.00000E+00         0.00000E+00        -0.39370E+08
 
   -0.39387E+08         0.33823E+07         0.00000E+00
    0.33823E+07        -0.50100E+08         0.00000E+00
    0.00000E+00         0.00000E+00        -0.39369E+08
 
   -0.39379E+08         0.34565E+07         0.00000E+00
    0.34565E+07        -0.50103E+08         0.00000E+00
    0.00000E+00         0.00000E+00        -0.39368E+08
 
   -0.39371E+08         0.35309E+07         0.00000E+00
    0.35309E+07        -0.50107E+08         0.00000E+00
    0.00000E+00         0.00000E+00        -0.39367E+08
 
   -0.39248E+08         0.34562E+05         0.00000E+00
    0.34562E+05        -0.50000E+08         0.00000E+00
    0.00000E+00         0.00000E+00        -0.39021E+08
 
   -0.39248E+08         0.10368E+06         0.00000E+00
    0.10368E+06        -0.50000E+08         0.00000E+00
    0.00000E+00         0.00000E+00        -0.39021E+08
 
   -0.39248E+08         0.17281E+06         0.00000E+00
    0.17281E+06        -0.50000E+08         0.00000E+00
    0.00000E+00         0.00000E+00        -0.39021E+08
 
   -0.39247E+08         0.24195E+06         0.00000E+00
    0.24195E+06        -0.50001E+08         0.00000E+00
    0.00000E+00         0.00000E+00        -0.39021E+08
 
   -0.39246E+08         0.31110E+06         0.00000E+00
    0.31110E+06        -0.50001E+08         0.00000E+00
    0.00000E+00         0.00000E+00        -0.39021E+08
 
   -0.39245E+08         0.38027E+06         0.00000E+00
    0.38027E+06        -0.50002E+08         0.00000E+00
    0.00000E+00         0.00000E+00        -0.39021E+08
 
   -0.39244E+08         0.44947E+06         0.00000E+00
    0.44947E+06        -0.50002E+08         0.00000E+00
    0.00000E+00         0.00000E+00        -0.39021E+08
 
   -0.39242E+08         0.51870E+06         0.00000E+00
    0.51870E+06        -0.50003E+08         0.00000E+00
    0.00000E+00         0.00000E+00        -0.39020E+08
 
   -0.39240E+08         0.58796E+06         0.00000E+00
    0.58796E+06        -0.50004E+08         0.00000E+00
    0.00000E+00         0.00000E+00        -0.39020E+08
 
   -0.39238E+08         0.65727E+06         0.00000E+00
    0.65727E+06        -0.50005E+08         0.00000E+00
    0.00000E+00         0.00000E+00        -0.39020E+08
 
   -0.39236E+08         0.72661E+06         0.00000E+00
    0.72661E+06        -0.50006E+08         0.00000E+00
    0.00000E+00         0.00000E+00        -0.39020E+08
 
   -0.39233E+08         0.79601E+06         0.00000E+00
    0.79601E+06        -0.50007E+08         0.00000E+00
    0.00000E+00         0.00000E+00        -0.39020E+08
 
   -0.39231E+08         0.86546E+06         0.00000E+00
    0.86546E+06        -0.50009E+08         0.00000E+00
    0.00000E+00         0.00000E+00        -0.39019E+08
 
   -0.39228E+08         0.93498E+06         0.00000E+00
    0.93498E+06        -0.50010E+08         0.00000E+00
    0.00000E+00         0.00000E+00        -0.39019E+08
 
   -0.39225E+08         0.10046E+07         0.00000E+00
    0.10046E+07        -0.50012E+08         0.00000E+00
    0.00000E+00         0.00000E+00        -0.39019E+08
 
   -0.39221E+08         0.10742E+07         0.00000E+00
    0.10742E+07        -0.50014E+08         0.00000E+00
    0.00000E+00         0.00000E+00        -0.39018E+08
 
   -0.39218E+08         0.11439E+07         0.00000E+00
    0.11439E+07        -0.50015E+08         0.00000E+00
    0.00000E+00         0.00000E+00        -0.39018E+08
 
   -0.39214E+08         0.12137E+07         0.00000E+00
    0.12137E+07        -0.50017E+08         0.00000E+00
    0.00000E+00         0.00000E+00        -0.39018E+08
 
   -0.39210E+08         0.12836E+07         0.00000E+00
    0.12836E+07        -0.50019E+08         0.00000E+00
    0.00000E+00         0.00000E+00        -0.39017E+08
 
   -0.39206E+08         0.13535E+07         0.00000E+00
    0.13535E+07        -0.50021E+08         0.00000E+00
    0.00000E+00         0.00000E+00        -0.39017E+08
 
   -0.39201E+08         0.14236E+07         0.00000E+00
    0.14236E+07        -0.50023E+08         0.00000E+00
    0.00000E+00         0.00000E+00        -0.39016E+08
 
   -0.39197E+08         0.14938E+07         0.00000E+00
    0.14938E+07        -0.50026E+08         0.00000E+00
    0.00000E+00         0.00000E+00        -0.39016E+08
 
   -0.39192E+08         0.15640E+07         0.00000E+00
    0.15640E+07        -0.50028E+08         0.00000E+00
    0.00000E+00         0.00000E+00        -0.39015E+08
 
   -0.39187E+08         0.16344E+07         0.00000E+00
    0.16344E+07        -0.50031E+08         0.00000E+00
    0.00000E+00         0.00000E+00        -0.39015E+08
 
   -0.39182E+08         0.17048E+07         0.00000E+00
    0.17048E+07        -0.50033E+08         0.00000E+00
    0.00000E+00         0.00000E+00        -0.39014E+08
 
   -0.39176E+08         0.17754E+07         0.00000E+00
    0.17754E+07        -0.50036E+08         0.00000E+00
    0.00000E+00         0.00000E+00        -0.39014E+08
 
   -0.39171E+08         0.18461E+07         0.00000E+00
    0.18461E+07        -0.50038E+08         0.00000E+00
    0.00000E+00         0.00000E+00        -0.39013E+08
 
   -0.39165E+08         0.19169E+07         0.00000E+00
    0.19169E+07        -0.50041E+08         0.00000E+00
    0.00000E+00         0.00000E+00        -0.39013E+08
 
   -0.39159E+08         0.19878E+07         0.00000E+00
    0.19878E+07        -0.50044E+08         0.00000E+00
    0.00000E+00         0.00000E+00        -0.39012E+08
 
   -0.39153E+08         0.20589E+07         0.00000E+00
    0.20589E+07        -0.50047E+08         0.00000E+00
    0.00000E+00         0.00000E+00        -0.39011E+08
 
   -0.39146E+08         0.21301E+07         0.00000E+00
    0.21301E+07        -0.50050E+08         0.00000E+00
    0.00000E+00         0.00000E+00        -0.39011E+08
 
   -0.39140E+08         0.22014E+07         0.00000E+00
    0.22014E+07        -0.50053E+08         0.00000E+00
    0.00000E+00         0.00000E+00        -0.39010E+08
 
   -0.39133E+08         0.22729E+07         0.00000E+00
    0.22729E+07        -0.50057E+08         0.00000E+00
    0.00000E+00         0.00000E+00        -0.39009E+08
 
   -0.39126E+08         0.23445E+07         0.00000E+00
    0.23445E+07        -0.50060E+08         0.00000E+00
    0.00000E+00         0.00000E+00        -0.39009E+08
 
   -0.39119E+08         0.24163E+07         0.00000E+00
    0.24163E+07        -0.50063E+08         0.00000E+00
    0.00000E+00         0.00000E+00        -0.39008E+08
 
   -0.39112E+08         0.24882E+07         0.00000E+00
    0.24882E+07        -0.50066E+08         0.00000E+00
    0.00000E+00         0.00000E+00        -0.39007E+08
 
   -0.39105E+08         0.25603E+07         0.00000E+00
    0.25603E+07        -0.50070E+08         0.00000E+00
    0.00000E+00         0.00000E+00        -0.39006E+08
 
   -0.39097E+08         0.26325E+07         0.00000E+00
    0.26325E+07        -0.50073E+08         0.00000E+00
    0.00000E+00         0.00000E+00        -0.39006E+08
 
   -0.39090E+08         0.27049E+07         0.00000E+00
    0.27049E+07        -0.50077E+08         0.00000E+00
    0.00000E+00         0.00000E+00        -0.39005E+08
 
   -0.39082E+08         0.27774E+07         0.00000E+00
    0.27774E+07        -0.50081E+08         0.00000E+00
    0.00000E+00         0.00000E+00        -0.39004E+08
 
   -0.39074E+08         0.28501E+07         0.00000E+00
    0.28501E+07        -0.50084E+08         0.00000E+00
    0.00000E+00         0.00000E+00        -0.39003E+08
 
   -0.39066E+08         0.29230E+07         0.00000E+00
    0.29230E+07        -0.50088E+08         0.00000E+00
    0.00000E+00         0.00000E+00        -0.39002E+08
 
   -0.39058E+08         0.29960E+07         0.00000E+00
    0.29960E+07        -0.50092E+08         0.00000E+00
    0.00000E+00         0.00000E+00        -0.39001E+08
 
   -0.39050E+08         0.30692E+07         0.00000E+00
    0.30692E+07        -0.50095E+08         0.00000E+00
    0.00000E+00         0.00000E+00        -0.39000E+08
 
   -0.39042E+08         0.31426E+07         0.00000E+00
    0.31426E+07        -0.50099E+08         0.00000E+00
    0.00000E+00         0.00000E+00        -0.39000E+08
 
   -0.39033E+08         0.32162E+07         0.00000E+00
    0.32162E+07        -0.50103E+08         0.00000E+00
    0.00000E+00         0.00000E+00        -0.38999E+08
 
   -0.39025E+08         0.32899E+07         0.00000E+00
    0.32899E+07        -0.50107E+08         0.00000E+00
    0.00000E+00         0.00000E+00        -0.38998E+08
 
   -0.39016E+08         0.33638E+07         0.00000E+00
    0.33638E+07        -0.50111E+08         0.00000E+00
    0.00000E+00         0.00000E+00        -0.38997E+08
 
   -0.39008E+08         0.34379E+07         0.00000E+00
    0.34379E+07        -0.50115E+08         0.00000E+00
    0.00000E+00         0.00000E+00        -0.38996E+08
 
   -0.38999E+08         0.35122E+07         0.00000E+00
    0.35122E+07        -0.50119E+08         0.00000E+00
    0.00000E+00         0.00000E+00        -0.38995E+08
 
   -0.38904E+08         0.34261E+05         0.00000E+00
    0.34261E+05        -0.50000E+08         0.00000E+00
    0.00000E+00         0.00000E+00        -0.38652E+08
 
   -0.38904E+08         0.10278E+06         0.00000E+00
    0.10278E+06        -0.50000E+08         0.00000E+00
    0.00000E+00         0.00000E+00        -0.38652E+08
 
   -0.38904E+08         0.17130E+06         0.00000E+00
    0.17130E+06        -0.50000E+08         0.00000E+00
    0.00000E+00         0.00000E+00        -0.38652E+08
 
   -0.38903E+08         0.23983E+06         0.00000E+00
    0.23983E+06        -0.50001E+08         0.00000E+00
    0.00000E+00         0.00000E+00        -0.38652E+08
 
   -0.38902E+08         0.30838E+06         0.00000E+00
    0.30838E+06        -0.50001E+08         0.00000E+00
    0.00000E+00         0.00000E+00        -0.38651E+08
 
   -0.38901E+08         0.37695E+06         0.00000E+00
    0.37695E+06        -0.50002E+08         0.00000E+00
    0.00000E+00         0.00000E+00        -0.38651E+08
 
   -0.38899E+08         0.44555E+06         0.00000E+00
    0.44555E+06        -0.50003E+08         0.00000E+00
    0.00000E+00         0.00000E+00        -0.38651E+08
 
   -0.38897E+08         0.51419E+06         0.00000E+00
    0.51419E+06        -0.50004E+08         0.00000E+00
    0.00000E+00         0.00000E+00        -0.38651E+08
 
   -0.38895E+08         0.58286E+06         0.00000E+00
    0.58286E+06        -0.50005E+08         0.00000E+00
    0.00000E+00         0.00000E+00        -0.38651E+08
 
   -0.38893E+08         0.65157E+06         0.00000E+00
    0.65157E+06        -0.50006E+08         0.00000E+00
    0.00000E+00         0.00000E+00        -0.38651E+08
 
   -0.38891E+08         0.72033E+06         0.00000E+00
    0.72033E+06        -0.50007E+08         0.00000E+00
    0.00000E+00         0.00000E+00        -0.38650E+08
 
   -0.38888E+08         0.78915E+06         0.00000E+00
    0.78915E+06        -0.50008E+08         0.00000E+00
    0.00000E+00         0.00000E+00        -0.38650E+08
 
   -0.38885E+08         0.85803E+06         0.00000E+00
    0.85803E+06        -0.50010E+08         0.00000E+00
    0.00000E+00         0.00000E+00        -0.38650E+08
 
   -0.38882E+08         0.92697E+06         0.00000E+00
    0.92697E+06        -0.50011E+08         0.00000E+00
    0.00000E+00         0.00000E+00        -0.38649E+08
 
   -0.38878E+08         0.99599E+06         0.00000E+00
    0.99599E+06        -0.50013E+08         0.00000E+00
    0.00000E+00         0.00000E+00        -0.38649E+08
 
   -0.38874E+08         0.10651E+07         0.00000E+00
    0.10651E+07        -0.50015E+08         0.00000E+00
    0.00000E+00         0.00000E+00        -0.38649E+08
 
   -0.38870E+08         0.11342E+07         0.00000E+00
    0.11342E+07        -0.50017E+08         0.00000E+00
    0.00000E+00         0.00000E+00        -0.38648E+08
 
   -0.38866E+08         0.12035E+07         0.00000E+00
    0.12035E+07        -0.50019E+08         0.00000E+00
    0.00000E+00         0.00000E+00        -0.38648E+08
 
   -0.38862E+08         0.12729E+07         0.00000E+00
    0.12729E+07        -0.50021E+08         0.00000E+00
    0.00000E+00         0.00000E+00        -0.38647E+08
 
   -0.38857E+08         0.13423E+07         0.00000E+00
    0.13423E+07        -0.50024E+08         0.00000E+00
    0.00000E+00         0.00000E+00        -0.38647E+08
 
   -0.38852E+08         0.14118E+07         0.00000E+00
    0.14118E+07        -0.50026E+08         0.00000E+00
    0.00000E+00         0.00000E+00        -0.38646E+08
 
   -0.38847E+08         0.14815E+07         0.00000E+00
    0.14815E+07        -0.50029E+08         0.00000E+00
    0.00000E+00         0.00000E+00        -0.38646E+08
 
   -0.38841E+08         0.15512E+07         0.00000E+00
    0.15512E+07        -0.50031E+08         0.00000E+00
    0.00000E+00         0.00000E+00        -0.38645E+08
 
   -0.38836E+08         0.16211E+07         0.00000E+00
    0.16211E+07        -0.50034E+08         0.00000E+00
    0.00000E+00         0.00000E+00        -0.38645E+08
 
   -0.38830E+08         0.16911E+07         0.00000E+00
    0.16911E+07        -0.50037E+08         0.00000E+00
    0.00000E+00         0.00000E+00        -0.38644E+08
 
   -0.38824E+08         0.17612E+07         0.00000E+00
    0.17612E+07        -0.50040E+08         0.00000E+00
    0.00000E+00         0.00000E+00        -0.38644E+08
 
   -0.38818E+08         0.18315E+07         0.00000E+00
    0.18315E+07        -0.50043E+08         0.00000E+00
    0.00000E+00         0.00000E+00        -0.38643E+08
 
   -0.38811E+08         0.19019E+07         0.00000E+00
    0.19019E+07        -0.50046E+08         0.00000E+00
    0.00000E+00         0.00000E+00        -0.38642E+08
 
   -0.38805E+08         0.19724E+07         0.00000E+00
    0.19724E+07        -0.50049E+08         0.00000E+00
    0.00000E+00         0.00000E+00        -0.38642E+08
 
   -0.38798E+08         0.20430E+07         0.00000E+00
    0.20430E+07        -0.50053E+08         0.00000E+00
    0.00000E+00         0.00000E+00        -0.38641E+08
 
   -0.38791E+08         0.21138E+07         0.00000E+00
    0.21138E+07        -0.50056E+08         0.00000E+00
    0.00000E+00         0.00000E+00        -0.38640E+08
 
   -0.38784E+08         0.21848E+07         0.00000E+00
    0.21848E+07        -0.50059E+08         0.00000E+00
    0.00000E+00         0.00000E+00        -0.38639E+08
 
   -0.38776E+08         0.22559E+07         0.00000E+00
    0.22559E+07        -0.50063E+08         0.00000E+00
    0.00000E+00         0.00000E+00        -0.38639E+08
 
   -0.38769E+08         0.23272E+07         0.00000E+00
    0.23272E+07        -0.50067E+08         0.00000E+00
    0.00000E+00         0.00000E+00        -0.38638E+08
 
   -0.38761E+08         0.23986E+07         0.00000E+00
    0.23986E+07        -0.50070E+08         0.00000E+00
    0.00000E+00         0.00000E+00        -0.38637E+08
 
   -0.38753E+08         0.24702E+07         0.00000E+00
    0.24702E+07        -0.50074E+08         0.00000E+00
    0.00000E+00         0.00000E+00        -0.38636E+08
 
   -0.38745E+08         0.25419E+07         0.00000E+00
    0.25419E+07        -0.50078E+08         0.00000E+00
    0.00000E+00         0.00000E+00        -0.38635E+08
 
   -0.38737E+08         0.26139E+07         0.00000E+00
    0.26139E+07        -0.50082E+08         0.00000E+00
    0.00000E+00         0.00000E+00        -0.38635E+08
 
   -0.38728E+08         0.26860E+07         0.00000E+00
    0.26860E+07        -0.50086E+08         0.00000E+00
    0.00000E+00         0.00000E+00        -0.38634E+08
 
   -0.38720E+08         0.27583E+07         0.00000E+00
    0.27583E+07        -0.50090E+08         0.00000E+00
    0.00000E+00         0.00000E+00        -0.38633E+08
 
   -0.38711E+08         0.28307E+07         0.00000E+00
    0.28307E+07        -0.50094E+08         0.00000E+00
    0.00000E+00         0.00000E+00        -0.38632E+08
 
   -0.38702E+08         0.29034E+07         0.00000E+00
    0.29034E+07        -0.50098E+08         0.00000E+00
    0.00000E+00         0.00000E+00        -0.38631E+08
 
   -0.38693E+08         0.29762E+07         0.00000E+00
    0.29762E+07        -0.50102E+08         0.00000E+00
    0.00000E+00         0.00000E+00        -0.38630E+08
 
   -0.38684E+08         0.30492E+07         0.00000E+00
    0.30492E+07        -0.50106E+08         0.00000E+00
    0.00000E+00         0.00000E+00        -0.38629E+08
 
   -0.38675E+08         0.31224E+07         0.00000E+00
    0.31224E+07        -0.50110E+08         0.00000E+00
    0.00000E+00         0.00000E+00        -0.38628E+08
 
   -0.38665E+08         0.31958E+07         0.00000E+00
    0.31958E+07        -0.50115E+08         0.00000E+00
    0.00000E+00         0.00000E+00        -0.38627E+08
 
   -0.38656E+08         0.32694E+07         0.00000E+00
    0.32694E+07        -0.50119E+08         0.00000E+00
    0.00000E+00         0.00000E+00        -0.38626E+08
 
   -0.38646E+08         0.33432E+07         0.00000E+00
    0.33432E+07        -0.50123E+08         0.00000E+00
    0.00000E+00         0.00000E+00        -0.38625E+08
 
   -0.38637E+08         0.34172E+07         0.00000E+00
    0.34172E+07        -0.50128E+08         0.00000E+00
    0.00000E+00         0.00000E+00        -0.38624E+08
 
   -0.38627E+08         0.34914E+07         0.00000E+00
    0.34914E+07        -0.50132E+08         0.00000E+00
    0.00000E+00         0.00000E+00        -0.38623E+08
 
   -0.38563E+08         0.33925E+05         0.00000E+00
    0.33925E+05        -0.50000E+08         0.00000E+00
    0.00000E+00         0.00000E+00        -0.38283E+08
 
   -0.38563E+08         0.10177E+06         0.00000E+00
    0.10177E+06        -0.50000E+08         0.00000E+00
    0.00000E+00         0.00000E+00        -0.38283E+08
 
   -0.38563E+08         0.16962E+06         0.00000E+00
    0.16962E+06        -0.50000E+08         0.00000E+00
    0.00000E+00         0.00000E+00        -0.38283E+08
 
   -0.38562E+08         0.23748E+06         0.00000E+00
    0.23748E+06        -0.50001E+08         0.00000E+00
    0.00000E+00         0.00000E+00        -0.38283E+08
 
   -0.38561E+08         0.30535E+06         0.00000E+00
    0.30535E+06        -0.50001E+08         0.00000E+00
    0.00000E+00         0.00000E+00        -0.38283E+08
 
   -0.38559E+08         0.37326E+06         0.00000E+00
    0.37326E+06        -0.50002E+08         0.00000E+00
    0.00000E+00         0.00000E+00        -0.38283E+08
 
   -0.38558E+08         0.44119E+06         0.00000E+00
    0.44119E+06        -0.50003E+08         0.00000E+00
    0.00000E+00         0.00000E+00        -0.38282E+08
 
   -0.38556E+08         0.50915E+06         0.00000E+00
    0.50915E+06        -0.50004E+08         0.00000E+00
    0.00000E+00         0.00000E+00        -0.38282E+08
 
   -0.38553E+08         0.57716E+06         0.00000E+00
    0.57716E+06        -0.50005E+08         0.00000E+00
    0.00000E+00         0.00000E+00        -0.38282E+08
 
   -0.38551E+08         0.64522E+06         0.00000E+00
    0.64522E+06        -0.50006E+08         0.00000E+00
    0.00000E+00         0.00000E+00        -0.38282E+08
 
   -0.38548E+08         0.71333E+06         0.00000E+00
    0.71333E+06        -0.50008E+08         0.00000E+00
    0.00000E+00         0.00000E+00        -0.38282E+08
 
   -0.38545E+08         0.78151E+06         0.00000E+00
    0.78151E+06        -0.50009E+08         0.00000E+00
    0.00000E+00         0.00000E+00        -0.38281E+08
 
   -0.38542E+08         0.84975E+06         0.00000E+00
    0.84975E+06        -0.50011E+08         0.00000E+00
    0.00000E+00         0.00000E+00        -0.38281E+08
 
   -0.38538E+08         0.91806E+06         0.00000E+00
    0.91806E+06        -0.50013E+08         0.00000E+00
    0.00000E+00         0.00000E+00        -0.38281E+08
 
   -0.38534E+08         0.98645E+06         0.00000E+00
    0.98645E+06        -0.50015E+08         0.00000E+00
    0.00000E+00         0.00000E+00        -0.38280E+08
 
   -0.38530E+08         0.10549E+07         0.00000E+00
    0.10549E+07        -0.50017E+08         0.00000E+00
    0.00000E+00         0.00000E+00        -0.38280E+08
 
   -0.38526E+08         0.11235E+07         0.00000E+00
    0.11235E+07        -0.50019E+08         0.00000E+00
    0.00000E+00         0.00000E+00        -0.38279E+08
 
   -0.38521E+08         0.11921E+07         0.00000E+00
    0.11921E+07        -0.50021E+08         0.00000E+00
    0.00000E+00         0.00000E+00        -0.38279E+08
 
   -0.38516E+08         0.12609E+07         0.00000E+00
    0.12609E+07        -0.50024E+08         0.00000E+00
    0.00000E+00         0.00000E+00        -0.38278E+08
 
   -0.38511E+08         0.13298E+07         0.00000E+00
    0.13298E+07        -0.50026E+08         0.00000E+00
    0.00000E+00         0.00000E+00        -0.38278E+08
 
   -0.38505E+08         0.13987E+07         0.00000E+00
    0.13987E+07        -0.50029E+08         0.00000E+00
    0.00000E+00         0.00000E+00        -0.38277E+08
 
   -0.38500E+08         0.14678E+07         0.00000E+00
    0.14678E+07        -0.50032E+08         0.00000E+00
    0.00000E+00         0.00000E+00        -0.38277E+08
 
   -0.38494E+08         0.15371E+07         0.00000E+00
    0.15371E+07        -0.50035E+08         0.00000E+00
    0.00000E+00         0.00000E+00        -0.38276E+08
 
   -0.38488E+08         0.16064E+07         0.00000E+00
    0.16064E+07        -0.50038E+08         0.00000E+00
    0.00000E+00         0.00000E+00        -0.38275E+08
 
   -0.38481E+08         0.16759E+07         0.00000E+00
    0.16759E+07        -0.50041E+08         0.00000E+00
    0.00000E+00         0.00000E+00        -0.38275E+08
 
   -0.38474E+08         0.17455E+07         0.00000E+00
    0.17455E+07        -0.50044E+08         0.00000E+00
    0.00000E+00         0.00000E+00        -0.38274E+08
 
   -0.38467E+08         0.18152E+07         0.00000E+00
    0.18152E+07        -0.50048E+08         0.00000E+00
    0.00000E+00         0.00000E+00        -0.38273E+08
 
   -0.38460E+08         0.18851E+07         0.00000E+00
    0.18851E+07        -0.50051E+08         0.00000E+00
    0.00000E+00         0.00000E+00        -0.38273E+08
 
   -0.38453E+08         0.19552E+07         0.00000E+00
    0.19552E+07        -0.50055E+08         0.00000E+00
    0.00000E+00         0.00000E+00        -0.38272E+08
 
   -0.38445E+08         0.20254E+07         0.00000E+00
    0.20254E+07        -0.50058E+08         0.00000E+00
    0.00000E+00         0.00000E+00        -0.38271E+08
 
   -0.38438E+08         0.20958E+07         0.00000E+00
    0.20958E+07        -0.50062E+08         0.00000E+00
    0.00000E+00         0.00000E+00        -0.38270E+08
 
   -0.38430E+08         0.21663E+07         0.00000E+00
    0.21663E+07        -0.50066E+08         0.00000E+00
    0.00000E+00         0.00000E+00        -0.38269E+08
 
   -0.38421E+08         0.22370E+07         0.00000E+00
    0.22370E+07        -0.50070E+08         0.00000E+00
    0.00000E+00         0.00000E+00        -0.38269E+08
 
   -0.38413E+08         0.23079E+07         0.00000E+00
    0.23079E+07        -0.50074E+08         0.00000E+00
    0.00000E+00         0.00000E+00        -0.38268E+08
 
   -0.38404E+08         0.23789E+07         0.00000E+00
    0.23789E+07        -0.50078E+08         0.00000E+00
    0.00000E+00         0.00000E+00        -0.38267E+08
 
   -0.38395E+08         0.24502E+07         0.00000E+00
    0.24502E+07        -0.50082E+08         0.00000E+00
    0.00000E+00         0.00000E+00        -0.38266E+08
 
   -0.38387E+08         0.25216E+07         0.00000E+00
    0.25216E+07        -0.50087E+08         0.00000E+00
    0.00000E+00         0.00000E+00        -0.38265E+08
 
   -0.38377E+08         0.25932E+07         0.00000E+00
    0.25932E+07        -0.50091E+08         0.00000E+00
    0.00000E+00         0.00000E+00        -0.38264E+08
 
   -0.38368E+08         0.26650E+07         0.00000E+00
    0.26650E+07        -0.50095E+08         0.00000E+00
    0.00000E+00         0.00000E+00        -0.38263E+08
 
   -0.38359E+08         0.27370E+07         0.00000E+00
    0.27370E+07        -0.50100E+08         0.00000E+00
    0.00000E+00         0.00000E+00        -0.38262E+08
 
   -0.38349E+08         0.28092E+07         0.00000E+00
    0.28092E+07        -0.50104E+08         0.00000E+00
    0.00000E+00         0.00000E+00        -0.38261E+08
 
   -0.38339E+08         0.28816E+07         0.00000E+00
    0.28816E+07        -0.50109E+08         0.00000E+00
    0.00000E+00         0.00000E+00        -0.38260E+08
 
   -0.38329E+08         0.29542E+07         0.00000E+00
    0.29542E+07        -0.50113E+08         0.00000E+00
    0.00000E+00         0.00000E+00        -0.38259E+08
 
   -0.38319E+08         0.30270E+07         0.00000E+00
    0.30270E+07        -0.50118E+08         0.00000E+00
    0.00000E+00         0.00000E+00        -0.38258E+08
 
   -0.38309E+08         0.31000E+07         0.00000E+00
    0.31000E+07        -0.50123E+08         0.00000E+00
    0.00000E+00         0.00000E+00        -0.38257E+08
 
   -0.38298E+08         0.31733E+07         0.00000E+00
    0.31733E+07        -0.50128E+08         0.00000E+00
    0.00000E+00         0.00000E+00        -0.38256E+08
 
   -0.38288E+08         0.32467E+07         0.00000E+00
    0.32467E+07        -0.50132E+08         0.00000E+00
    0.00000E+00         0.00000E+00        -0.38254E+08
 
   -0.38277E+08         0.33204E+07         0.00000E+00
    0.33204E+07        -0.50137E+08         0.00000E+00
    0.00000E+00         0.00000E+00        -0.38253E+08
 
   -0.38266E+08         0.33943E+07         0.00000E+00
    0.33943E+07        -0.50142E+08         0.00000E+00
    0.00000E+00         0.00000E+00        -0.38252E+08
 
   -0.38256E+08         0.34684E+07         0.00000E+00
    0.34684E+07        -0.50147E+08         0.00000E+00
    0.00000E+00         0.00000E+00        -0.38251E+08
 
   -0.38226E+08         0.33551E+05         0.00000E+00
    0.33551E+05        -0.50000E+08         0.00000E+00
    0.00000E+00         0.00000E+00        -0.37915E+08
 
   -0.38226E+08         0.10064E+06         0.00000E+00
    0.10064E+06        -0.50000E+08         0.00000E+00
    0.00000E+00         0.00000E+00        -0.37915E+08
 
   -0.38225E+08         0.16774E+06         0.00000E+00
    0.16774E+06        -0.50000E+08         0.00000E+00
    0.00000E+00         0.00000E+00        -0.37915E+08
 
   -0.38224E+08         0.23485E+06         0.00000E+00
    0.23485E+06        -0.50001E+08         0.00000E+00
    0.00000E+00         0.00000E+00        -0.37915E+08
 
   -0.38223E+08         0.30198E+06         0.00000E+00
    0.30198E+06        -0.50002E+08         0.00000E+00
    0.00000E+00         0.00000E+00        -0.37915E+08
 
   -0.38222E+08         0.36913E+06         0.00000E+00
    0.36913E+06        -0.50002E+08         0.00000E+00
    0.00000E+00         0.00000E+00        -0.37915E+08
 
   -0.38220E+08         0.43632E+06         0.00000E+00
    0.43632E+06        -0.50003E+08         0.00000E+00
    0.00000E+00         0.00000E+00        -0.37914E+08
 
   -0.38218E+08         0.50354E+06         0.00000E+00
    0.50354E+06        -0.50004E+08         0.00000E+00
    0.00000E+00         0.00000E+00        -0.37914E+08
 
   -0.38215E+08         0.57082E+06         0.00000E+00
    0.57082E+06        -0.50006E+08         0.00000E+00
    0.00000E+00         0.00000E+00        -0.37914E+08
 
   -0.38212E+08         0.63814E+06         0.00000E+00
    0.63814E+06        -0.50007E+08         0.00000E+00
    0.00000E+00         0.00000E+00        -0.37914E+08
 
   -0.38209E+08         0.70553E+06         0.00000E+00
    0.70553E+06        -0.50009E+08         0.00000E+00
    0.00000E+00         0.00000E+00        -0.37913E+08
 
   -0.38206E+08         0.77299E+06         0.00000E+00
    0.77299E+06        -0.50010E+08         0.00000E+00
    0.00000E+00         0.00000E+00        -0.37913E+08
 
   -0.38202E+08         0.84051E+06         0.00000E+00
    0.84051E+06        -0.50012E+08         0.00000E+00
    0.00000E+00         0.00000E+00        -0.37913E+08
 
   -0.38198E+08         0.90812E+06         0.00000E+00
    0.90812E+06        -0.50014E+08         0.00000E+00
    0.00000E+00         0.00000E+00        -0.37912E+08
 
   -0.38194E+08         0.97582E+06         0.00000E+00
    0.97582E+06        -0.50016E+08         0.00000E+00
    0.00000E+00         0.00000E+00        -0.37912E+08
 
   -0.38189E+08         0.10436E+07         0.00000E+00
    0.10436E+07        -0.50019E+08         0.00000E+00
    0.00000E+00         0.00000E+00        -0.37911E+08
 
   -0.38184E+08         0.11115E+07         0.00000E+00
    0.11115E+07        -0.50021E+08         0.00000E+00
    0.00000E+00         0.00000E+00        -0.37911E+08
 
   -0.38179E+08         0.11795E+07         0.00000E+00
    0.11795E+07        -0.50024E+08         0.00000E+00
    0.00000E+00         0.00000E+00        -0.37910E+08
 
   -0.38174E+08         0.12476E+07         0.00000E+00
    0.12476E+07        -0.50027E+08         0.00000E+00
    0.00000E+00         0.00000E+00        -0.37910E+08
 
   -0.38168E+08         0.13158E+07         0.00000E+00
    0.13158E+07        -0.50029E+08         0.00000E+00
    0.00000E+00         0.00000E+00        -0.37909E+08
 
   -0.38162E+08         0.13842E+07         0.00000E+00
    0.13842E+07        -0.50032E+08         0.00000E+00
    0.00000E+00         0.00000E+00        -0.37909E+08
 
   -0.38155E+08         0.14526E+07         0.00000E+00
    0.14526E+07        -0.50036E+08         0.00000E+00
    0.00000E+00         0.00000E+00        -0.37908E+08
 
   -0.38149E+08         0.15213E+07         0.00000E+00
    0.15213E+07        -0.50039E+08         0.00000E+00
    0.00000E+00         0.00000E+00        -0.37907E+08
 
   -0.38142E+08         0.15900E+07         0.00000E+00
    0.15900E+07        -0.50042E+08         0.00000E+00
    0.00000E+00         0.00000E+00        -0.37907E+08
 
   -0.38135E+08         0.16589E+07         0.00000E+00
    0.16589E+07        -0.50046E+08         0.00000E+00
    0.00000E+00         0.00000E+00        -0.37906E+08
 
   -0.38127E+08         0.17280E+07         0.00000E+00
    0.17280E+07        -0.50049E+08         0.00000E+00
    0.00000E+00         0.00000E+00        -0.37905E+08
 
   -0.38120E+08         0.17972E+07         0.00000E+00
    0.17972E+07        -0.50053E+08         0.00000E+00
    0.00000E+00         0.00000E+00        -0.37904E+08
 
   -0.38112E+08         0.18665E+07         0.00000E+00
    0.18665E+07        -0.50057E+08         0.00000E+00
    0.00000E+00         0.00000E+00        -0.37904E+08
 
   -0.38104E+08         0.19361E+07         0.00000E+00
    0.19361E+07        -0.50061E+08         0.00000E+00
    0.00000E+00         0.00000E+00        -0.37903E+08
 
   -0.38095E+08         0.20058E+07         0.00000E+00
    0.20058E+07        -0.50065E+08         0.00000E+00
    0.00000E+00         0.00000E+00        -0.37902E+08
 
   -0.38086E+08         0.20757E+07         0.00000E+00
    0.20757E+07        -0.50069E+08         0.00000E+00
    0.00000E+00         0.00000E+00        -0.37901E+08
 
   -0.38078E+08         0.21457E+07         0.00000E+00
    0.21457E+07        -0.50074E+08         0.00000E+00
    0.00000E+00         0.00000E+00        -0.37900E+08
 
   -0.38068E+08         0.22160E+07         0.00000E+00
    0.22160E+07        -0.50078E+08         0.00000E+00
    0.00000E+00         0.00000E+00        -0.37899E+08
 
   -0.38059E+08         0.22865E+07         0.00000E+00
    0.22865E+07        -0.50082E+08         0.00000E+00
    0.00000E+00         0.00000E+00        -0.37898E+08
 
   -0.38050E+08         0.23571E+07         0.00000E+00
    0.23571E+07        -0.50087E+08         0.00000E+00
    0.00000E+00         0.00000E+00        -0.37897E+08
 
   -0.38040E+08         0.24279E+07         0.00000E+00
    0.24279E+07        -0.50092E+08         0.00000E+00
    0.00000E+00         0.00000E+00        -0.37896E+08
 
   -0.38030E+08         0.24990E+07         0.00000E+00
    0.24990E+07        -0.50096E+08         0.00000E+00
    0.00000E+00         0.00000E+00        -0.37895E+08
 
   -0.38020E+08         0.25702E+07         0.00000E+00
    0.25702E+07        -0.50101E+08         0.00000E+00
    0.00000E+00         0.00000E+00        -0.37894E+08
 
   -0.38009E+08         0.26417E+07         0.00000E+00
    0.26417E+07        -0.50106E+08         0.00000E+00
    0.00000E+00         0.00000E+00        -0.37893E+08
 
   -0.37999E+08         0.27134E+07         0.00000E+00
    0.27134E+07        -0.50111E+08         0.00000E+00
    0.00000E+00         0.00000E+00        -0.37892E+08
 
   -0.37988E+08         0.27853E+07         0.00000E+00
    0.27853E+07        -0.50116E+08         0.00000E+00
    0.00000E+00         0.00000E+00        -0.37891E+08
 
   -0.37977E+08         0.28574E+07         0.00000E+00
    0.28574E+07        -0.50121E+08         0.00000E+00
    0.00000E+00         0.00000E+00        -0.37889E+08
 
   -0.37966E+08         0.29298E+07         0.00000E+00
    0.29298E+07        -0.50126E+08         0.00000E+00
    0.00000E+00         0.00000E+00        -0.37888E+08
 
   -0.37955E+08         0.30023E+07         0.00000E+00
    0.30023E+07        -0.50131E+08         0.00000E+00
    0.00000E+00         0.00000E+00        -0.37887E+08
 
   -0.37944E+08         0.30752E+07         0.00000E+00
    0.30752E+07        -0.50136E+08         0.00000E+00
    0.00000E+00         0.00000E+00        -0.37886E+08
 
   -0.37932E+08         0.31482E+07         0.00000E+00
    0.31482E+07        -0.50142E+08         0.00000E+00
    0.00000E+00         0.00000E+00        -0.37885E+08
 
   -0.37920E+08         0.32215E+07         0.00000E+00
    0.32215E+07        -0.50147E+08         0.00000E+00
    0.00000E+00         0.00000E+00        -0.37883E+08
 
   -0.37909E+08         0.32950E+07         0.00000E+00
    0.32950E+07        -0.50152E+08         0.00000E+00
    0.00000E+00         0.00000E+00        -0.37882E+08
 
   -0.37897E+08         0.33688E+07         0.00000E+00
    0.33688E+07        -0.50158E+08         0.00000E+00
    0.00000E+00         0.00000E+00        -0.37881E+08
 
   -0.37885E+08         0.34428E+07         0.00000E+00
    0.34428E+07        -0.50163E+08         0.00000E+00
    0.00000E+00         0.00000E+00        -0.37879E+08
 
   -0.37893E+08         0.33132E+05         0.00000E+00
    0.33132E+05        -0.50000E+08         0.00000E+00
    0.00000E+00         0.00000E+00        -0.37548E+08
 
   -0.37892E+08         0.99385E+05         0.00000E+00
    0.99385E+05        -0.50000E+08         0.00000E+00
    0.00000E+00         0.00000E+00        -0.37548E+08
 
   -0.37892E+08         0.16564E+06         0.00000E+00
    0.16564E+06        -0.50000E+08         0.00000E+00
    0.00000E+00         0.00000E+00        -0.37548E+08
 
   -0.37891E+08         0.23191E+06         0.00000E+00
    0.23191E+06        -0.50001E+08         0.00000E+00
    0.00000E+00         0.00000E+00        -0.37548E+08
 
   -0.37889E+08         0.29820E+06         0.00000E+00
    0.29820E+06        -0.50002E+08         0.00000E+00
    0.00000E+00         0.00000E+00        -0.37547E+08
 
   -0.37888E+08         0.36452E+06         0.00000E+00
    0.36452E+06        -0.50003E+08         0.00000E+00
    0.00000E+00         0.00000E+00        -0.37547E+08
 
   -0.37886E+08         0.43088E+06         0.00000E+00
    0.43088E+06        -0.50004E+08         0.00000E+00
    0.00000E+00         0.00000E+00        -0.37547E+08
 
   -0.37883E+08         0.49728E+06         0.00000E+00
    0.49728E+06        -0.50005E+08         0.00000E+00
    0.00000E+00         0.00000E+00        -0.37547E+08
 
   -0.37881E+08         0.56373E+06         0.00000E+00
    0.56373E+06        -0.50006E+08         0.00000E+00
    0.00000E+00         0.00000E+00        -0.37547E+08
 
   -0.37878E+08         0.63024E+06         0.00000E+00
    0.63024E+06        -0.50008E+08         0.00000E+00
    0.00000E+00         0.00000E+00        -0.37546E+08
 
   -0.37874E+08         0.69682E+06         0.00000E+00
    0.69682E+06        -0.50010E+08         0.00000E+00
    0.00000E+00         0.00000E+00        -0.37546E+08
 
   -0.37870E+08         0.76348E+06         0.00000E+00
    0.76348E+06        -0.50012E+08         0.00000E+00
    0.00000E+00         0.00000E+00        -0.37546E+08
 
   -0.37866E+08         0.83021E+06         0.00000E+00
    0.83021E+06        -0.50014E+08         0.00000E+00
    0.00000E+00         0.00000E+00        -0.37545E+08
 
   -0.37862E+08         0.89704E+06         0.00000E+00
    0.89704E+06        -0.50016E+08         0.00000E+00
    0.00000E+00         0.00000E+00        -0.37545E+08
 
   -0.37857E+08         0.96396E+06         0.00000E+00
    0.96396E+06        -0.50018E+08         0.00000E+00
    0.00000E+00         0.00000E+00        -0.37544E+08
 
   -0.37852E+08         0.10310E+07         0.00000E+00
    0.10310E+07        -0.50021E+08         0.00000E+00
    0.00000E+00         0.00000E+00        -0.37544E+08
 
   -0.37846E+08         0.10981E+07         0.00000E+00
    0.10981E+07        -0.50024E+08         0.00000E+00
    0.00000E+00         0.00000E+00        -0.37543E+08
 
   -0.37841E+08         0.11654E+07         0.00000E+00
    0.11654E+07        -0.50027E+08         0.00000E+00
    0.00000E+00         0.00000E+00        -0.37543E+08
 
   -0.37835E+08         0.12328E+07         0.00000E+00
    0.12328E+07        -0.50030E+08         0.00000E+00
    0.00000E+00         0.00000E+00        -0.37542E+08
 
   -0.37828E+08         0.13003E+07         0.00000E+00
    0.13003E+07        -0.50033E+08         0.00000E+00
    0.00000E+00         0.00000E+00        -0.37541E+08
 
   -0.37821E+08         0.13679E+07         0.00000E+00
    0.13679E+07        -0.50036E+08         0.00000E+00
    0.00000E+00         0.00000E+00        -0.37541E+08
 
   -0.37814E+08         0.14357E+07         0.00000E+00
    0.14357E+07        -0.50040E+08         0.00000E+00
    0.00000E+00         0.00000E+00        -0.37540E+08
 
   -0.37807E+08         0.15037E+07         0.00000E+00
    0.15037E+07        -0.50043E+08         0.00000E+00
    0.00000E+00         0.00000E+00        -0.37539E+08
 
   -0.37799E+08         0.15718E+07         0.00000E+00
    0.15718E+07        -0.50047E+08         0.00000E+00
    0.00000E+00         0.00000E+00        -0.37539E+08
 
   -0.37791E+08         0.16400E+07         0.00000E+00
    0.16400E+07        -0.50051E+08         0.00000E+00
    0.00000E+00         0.00000E+00        -0.37538E+08
 
   -0.37783E+08         0.17085E+07         0.00000E+00
    0.17085E+07        -0.50055E+08         0.00000E+00
    0.00000E+00         0.00000E+00        -0.37537E+08
 
   -0.37775E+08         0.17771E+07         0.00000E+00
    0.17771E+07        -0.50059E+08         0.00000E+00
    0.00000E+00         0.00000E+00        -0.37536E+08
 
   -0.37766E+08         0.18459E+07         0.00000E+00
    0.18459E+07        -0.50064E+08         0.00000E+00
    0.00000E+00         0.00000E+00        -0.37535E+08
 
   -0.37757E+08         0.19148E+07         0.00000E+00
    0.19148E+07        -0.50068E+08         0.00000E+00
    0.00000E+00         0.00000E+00        -0.37534E+08
 
   -0.37747E+08         0.19840E+07         0.00000E+00
    0.19840E+07        -0.50073E+08         0.00000E+00
    0.00000E+00         0.00000E+00        -0.37533E+08
 
   -0.37738E+08         0.20534E+07         0.00000E+00
    0.20534E+07        -0.50077E+08         0.00000E+00
    0.00000E+00         0.00000E+00        -0.37532E+08
 
   -0.37728E+08         0.21229E+07         0.00000E+00
    0.21229E+07        -0.50082E+08         0.00000E+00
    0.00000E+00         0.00000E+00        -0.37531E+08
 
   -0.37718E+08         0.21927E+07         0.00000E+00
    0.21927E+07        -0.50087E+08         0.00000E+00
    0.00000E+00         0.00000E+00        -0.37530E+08
 
   -0.37708E+08         0.22627E+07         0.00000E+00
    0.22627E+07        -0.50092E+08         0.00000E+00
    0.00000E+00         0.00000E+00        -0.37529E+08
 
   -0.37697E+08         0.23329E+07         0.00000E+00
    0.23329E+07        -0.50097E+08         0.00000E+00
    0.00000E+00         0.00000E+00        -0.37528E+08
 
   -0.37686E+08         0.24033E+07         0.00000E+00
    0.24033E+07        -0.50102E+08         0.00000E+00
    0.00000E+00         0.00000E+00        -0.37527E+08
 
   -0.37675E+08         0.24739E+07         0.00000E+00
    0.24739E+07        -0.50107E+08         0.00000E+00
    0.00000E+00         0.00000E+00        -0.37526E+08
 
   -0.37664E+08         0.25448E+07         0.00000E+00
    0.25448E+07        -0.50113E+08         0.00000E+00
    0.00000E+00         0.00000E+00        -0.37525E+08
 
   -0.37652E+08         0.26159E+07         0.00000E+00
    0.26159E+07        -0.50118E+08         0.00000E+00
    0.00000E+00         0.00000E+00        -0.37523E+08
 
   -0.37641E+08         0.26872E+07         0.00000E+00
    0.26872E+07        -0.50123E+08         0.00000E+00
    0.00000E+00         0.00000E+00        -0.37522E+08
 
   -0.37629E+08         0.27588E+07         0.00000E+00
    0.27588E+07        -0.50129E+08         0.00000E+00
    0.00000E+00         0.00000E+00        -0.37521E+08
 
   -0.37617E+08         0.28306E+07         0.00000E+00
    0.28306E+07        -0.50135E+08         0.00000E+00
    0.00000E+00         0.00000E+00        -0.37519E+08
 
   -0.37604E+08         0.29027E+07         0.00000E+00
    0.29027E+07        -0.50140E+08         0.00000E+00
    0.00000E+00         0.00000E+00        -0.37518E+08
 
   -0.37592E+08         0.29750E+07         0.00000E+00
    0.29750E+07        -0.50146E+08         0.00000E+00
    0.00000E+00         0.00000E+00        -0.37517E+08
 
   -0.37579E+08         0.30476E+07         0.00000E+00
    0.30476E+07        -0.50152E+08         0.00000E+00
    0.00000E+00         0.00000E+00        -0.37515E+08
 
   -0.37567E+08         0.31204E+07         0.00000E+00
    0.31204E+07        -0.50158E+08         0.00000E+00
    0.00000E+00         0.00000E+00        -0.37514E+08
 
   -0.37554E+08         0.31935E+07         0.00000E+00
    0.31935E+07        -0.50163E+08         0.00000E+00
    0.00000E+00         0.00000E+00        -0.37513E+08
 
   -0.37541E+08         0.32669E+07         0.00000E+00
    0.32669E+07        -0.50169E+08         0.00000E+00
    0.00000E+00         0.00000E+00        -0.37511E+08
 
   -0.37528E+08         0.33405E+07         0.00000E+00
    0.33405E+07        -0.50175E+08         0.00000E+00
    0.00000E+00         0.00000E+00        -0.37510E+08
 
   -0.37514E+08         0.34144E+07         0.00000E+00
    0.34144E+07        -0.50181E+08         0.00000E+00
    0.00000E+00         0.00000E+00        -0.37508E+08
 
   -0.37564E+08         0.32664E+05         0.00000E+00
    0.32664E+05        -0.50000E+08         0.00000E+00
    0.00000E+00         0.00000E+00        -0.37181E+08
 
   -0.37563E+08         0.97977E+05         0.00000E+00
    0.97977E+05        -0.50000E+08         0.00000E+00
    0.00000E+00         0.00000E+00        -0.37181E+08
 
   -0.37563E+08         0.16329E+06         0.00000E+00
    0.16329E+06        -0.50001E+08         0.00000E+00
    0.00000E+00         0.00000E+00        -0.37181E+08
 
   -0.37562E+08         0.22863E+06         0.00000E+00
    0.22863E+06        -0.50001E+08         0.00000E+00
    0.00000E+00         0.00000E+00        -0.37181E+08
 
   -0.37560E+08         0.29398E+06         0.00000E+00
    0.29398E+06        -0.50002E+08         0.00000E+00
    0.00000E+00         0.00000E+00        -0.37181E+08
 
   -0.37558E+08         0.35937E+06         0.00000E+00
    0.35937E+06        -0.50003E+08         0.00000E+00
    0.00000E+00         0.00000E+00        -0.37181E+08
 
   -0.37556E+08         0.42480E+06         0.00000E+00
    0.42480E+06        -0.50004E+08         0.00000E+00
    0.00000E+00         0.00000E+00        -0.37181E+08
 
   -0.37554E+08         0.49028E+06         0.00000E+00
    0.49028E+06        -0.50005E+08         0.00000E+00
    0.00000E+00         0.00000E+00        -0.37180E+08
 
   -0.37550E+08         0.55581E+06         0.00000E+00
    0.55581E+06        -0.50007E+08         0.00000E+00
    0.00000E+00         0.00000E+00        -0.37180E+08
 
   -0.37547E+08         0.62142E+06         0.00000E+00
    0.62142E+06        -0.50009E+08         0.00000E+00
    0.00000E+00         0.00000E+00        -0.37180E+08
 
   -0.37543E+08         0.68709E+06         0.00000E+00
    0.68709E+06        -0.50011E+08         0.00000E+00
    0.00000E+00         0.00000E+00        -0.37179E+08
 
   -0.37539E+08         0.75286E+06         0.00000E+00
    0.75286E+06        -0.50013E+08         0.00000E+00
    0.00000E+00         0.00000E+00        -0.37179E+08
 
   -0.37535E+08         0.81871E+06         0.00000E+00
    0.81871E+06        -0.50015E+08         0.00000E+00
    0.00000E+00         0.00000E+00        -0.37179E+08
 
   -0.37530E+08         0.88467E+06         0.00000E+00
    0.88467E+06        -0.50018E+08         0.00000E+00
    0.00000E+00         0.00000E+00        -0.37178E+08
 
   -0.37524E+08         0.95073E+06         0.00000E+00
    0.95073E+06        -0.50021E+08         0.00000E+00
    0.00000E+00         0.00000E+00        -0.37178E+08
 
   -0.37519E+08         0.10169E+07         0.00000E+00
    0.10169E+07        -0.50023E+08         0.00000E+00
    0.00000E+00         0.00000E+00        -0.37177E+08
 
   -0.37512E+08         0.10832E+07         0.00000E+00
    0.10832E+07        -0.50026E+08         0.00000E+00
    0.00000E+00         0.00000E+00        -0.37176E+08
 
   -0.37506E+08         0.11497E+07         0.00000E+00
    0.11497E+07        -0.50030E+08         0.00000E+00
    0.00000E+00         0.00000E+00        -0.37176E+08
 
   -0.37499E+08         0.12162E+07         0.00000E+00
    0.12162E+07        -0.50033E+08         0.00000E+00
    0.00000E+00         0.00000E+00        -0.37175E+08
 
   -0.37492E+08         0.12830E+07         0.00000E+00
    0.12830E+07        -0.50037E+08         0.00000E+00
    0.00000E+00         0.00000E+00        -0.37174E+08
 
   -0.37485E+08         0.13498E+07         0.00000E+00
    0.13498E+07        -0.50040E+08         0.00000E+00
    0.00000E+00         0.00000E+00        -0.37174E+08
 
   -0.37477E+08         0.14169E+07         0.00000E+00
    0.14169E+07        -0.50044E+08         0.00000E+00
    0.00000E+00         0.00000E+00        -0.37173E+08
 
   -0.37469E+08         0.14841E+07         0.00000E+00
    0.14841E+07        -0.50048E+08         0.00000E+00
    0.00000E+00         0.00000E+00        -0.37172E+08
 
   -0.37460E+08         0.15515E+07         0.00000E+00
    0.15515E+07        -0.50053E+08         0.00000E+00
    0.00000E+00         0.00000E+00        -0.37171E+08
 
   -0.37451E+08         0.16190E+07         0.00000E+00
    0.16190E+07        -0.50057E+08         0.00000E+00
    0.00000E+00         0.00000E+00        -0.37170E+08
 
   -0.37442E+08         0.16868E+07         0.00000E+00
    0.16868E+07        -0.50061E+08         0.00000E+00
    0.00000E+00         0.00000E+00        -0.37169E+08
 
   -0.37433E+08         0.17547E+07         0.00000E+00
    0.17547E+07        -0.50066E+08         0.00000E+00
    0.00000E+00         0.00000E+00        -0.37168E+08
 
   -0.37423E+08         0.18229E+07         0.00000E+00
    0.18229E+07        -0.50071E+08         0.00000E+00
    0.00000E+00         0.00000E+00        -0.37167E+08
 
   -0.37413E+08         0.18912E+07         0.00000E+00
    0.18912E+07        -0.50076E+08         0.00000E+00
    0.00000E+00         0.00000E+00        -0.37166E+08
 
   -0.37403E+08         0.19598E+07         0.00000E+00
    0.19598E+07        -0.50081E+08         0.00000E+00
    0.00000E+00         0.00000E+00        -0.37165E+08
 
   -0.37392E+08         0.20286E+07         0.00000E+00
    0.20286E+07        -0.50086E+08         0.00000E+00
    0.00000E+00         0.00000E+00        -0.37164E+08
 
   -0.37381E+08         0.20976E+07         0.00000E+00
    0.20976E+07        -0.50091E+08         0.00000E+00
    0.00000E+00         0.00000E+00        -0.37163E+08
 
   -0.37370E+08         0.21668E+07         0.00000E+00
    0.21668E+07        -0.50097E+08         0.00000E+00
    0.00000E+00         0.00000E+00        -0.37162E+08
 
   -0.37358E+08         0.22363E+07         0.00000E+00
    0.22363E+07        -0.50102E+08         0.00000E+00
    0.00000E+00         0.00000E+00        -0.37161E+08
 
   -0.37347E+08         0.23060E+07         0.00000E+00
    0.23060E+07        -0.50108E+08         0.00000E+00
    0.00000E+00         0.00000E+00        -0.37160E+08
 
   -0.37335E+08         0.23759E+07         0.00000E+00
    0.23759E+07        -0.50113E+08         0.00000E+00
    0.00000E+00         0.00000E+00        -0.37158E+08
 
   -0.37322E+08         0.24461E+07         0.00000E+00
    0.24461E+07        -0.50119E+08         0.00000E+00
    0.00000E+00         0.00000E+00        -0.37157E+08
 
   -0.37310E+08         0.25166E+07         0.00000E+00
    0.25166E+07        -0.50125E+08         0.00000E+00
    0.00000E+00         0.00000E+00        -0.37156E+08
 
   -0.37297E+08         0.25873E+07         0.00000E+00
    0.25873E+07        -0.50131E+08         0.00000E+00
    0.00000E+00         0.00000E+00        -0.37154E+08
 
   -0.37284E+08         0.26582E+07         0.00000E+00
    0.26582E+07        -0.50137E+08         0.00000E+00
    0.00000E+00         0.00000E+00        -0.37153E+08
 
   -0.37271E+08         0.27295E+07         0.00000E+00
    0.27295E+07        -0.50143E+08         0.00000E+00
    0.00000E+00         0.00000E+00        -0.37152E+08
 
   -0.37258E+08         0.28010E+07         0.00000E+00
    0.28010E+07        -0.50150E+08         0.00000E+00
    0.00000E+00         0.00000E+00        -0.37150E+08
 
   -0.37244E+08         0.28727E+07         0.00000E+00
    0.28727E+07        -0.50156E+08         0.00000E+00
    0.00000E+00         0.00000E+00        -0.37149E+08
 
   -0.37230E+08         0.29448E+07         0.00000E+00
    0.29448E+07        -0.50162E+08         0.00000E+00
    0.00000E+00         0.00000E+00        -0.37147E+08
 
   -0.37217E+08         0.30171E+07         0.00000E+00
    0.30171E+07        -0.50169E+08         0.00000E+00
    0.00000E+00         0.00000E+00        -0.37146E+08
 
   -0.37202E+08         0.30897E+07         0.00000E+00
    0.30897E+07        -0.50175E+08         0.00000E+00
    0.00000E+00         0.00000E+00        -0.37144E+08
 
   -0.37188E+08         0.31626E+07         0.00000E+00
    0.31626E+07        -0.50182E+08         0.00000E+00
    0.00000E+00         0.00000E+00        -0.37143E+08
 
   -0.37174E+08         0.32358E+07         0.00000E+00
    0.32358E+07        -0.50188E+08         0.00000E+00
    0.00000E+00         0.00000E+00        -0.37141E+08
 
   -0.37159E+08         0.33093E+07         0.00000E+00
    0.33093E+07        -0.50195E+08         0.00000E+00
    0.00000E+00         0.00000E+00        -0.37139E+08
 
   -0.37144E+08         0.33830E+07         0.00000E+00
    0.33830E+07        -0.50201E+08         0.00000E+00
    0.00000E+00         0.00000E+00        -0.37138E+08
 
   -0.37240E+08         0.32139E+05         0.00000E+00
    0.32139E+05        -0.50000E+08         0.00000E+00
    0.00000E+00         0.00000E+00        -0.36816E+08
 
   -0.37239E+08         0.96398E+05         0.00000E+00
    0.96398E+05        -0.50000E+08         0.00000E+00
    0.00000E+00         0.00000E+00        -0.36816E+08
 
   -0.37239E+08         0.16066E+06         0.00000E+00
    0.16066E+06        -0.50001E+08         0.00000E+00
    0.00000E+00         0.00000E+00        -0.36816E+08
 
   -0.37238E+08         0.22494E+06         0.00000E+00
    0.22494E+06        -0.50001E+08         0.00000E+00
    0.00000E+00         0.00000E+00        -0.36816E+08
 
   -0.37236E+08         0.28925E+06         0.00000E+00
    0.28925E+06        -0.50002E+08         0.00000E+00
    0.00000E+00         0.00000E+00        -0.36816E+08
 
   -0.37234E+08         0.35359E+06         0.00000E+00
    0.35359E+06        -0.50003E+08         0.00000E+00
    0.00000E+00         0.00000E+00        -0.36816E+08
 
   -0.37231E+08         0.41798E+06         0.00000E+00
    0.41798E+06        -0.50005E+08         0.00000E+00
    0.00000E+00         0.00000E+00        -0.36815E+08
 
   -0.37229E+08         0.48243E+06         0.00000E+00
    0.48243E+06        -0.50006E+08         0.00000E+00
    0.00000E+00         0.00000E+00        -0.36815E+08
 
   -0.37225E+08         0.54695E+06         0.00000E+00
    0.54695E+06        -0.50008E+08         0.00000E+00
    0.00000E+00         0.00000E+00        -0.36815E+08
 
   -0.37221E+08         0.61154E+06         0.00000E+00
    0.61154E+06        -0.50010E+08         0.00000E+00
    0.00000E+00         0.00000E+00        -0.36814E+08
 
   -0.37217E+08         0.67621E+06         0.00000E+00
    0.67621E+06        -0.50012E+08         0.00000E+00
    0.00000E+00         0.00000E+00        -0.36814E+08
 
   -0.37212E+08         0.74098E+06         0.00000E+00
    0.74098E+06        -0.50015E+08         0.00000E+00
    0.00000E+00         0.00000E+00        -0.36813E+08
 
   -0.37207E+08         0.80586E+06         0.00000E+00
    0.80586E+06        -0.50017E+08         0.00000E+00
    0.00000E+00         0.00000E+00        -0.36813E+08
 
   -0.37202E+08         0.87085E+06         0.00000E+00
    0.87085E+06        -0.50020E+08         0.00000E+00
    0.00000E+00         0.00000E+00        -0.36812E+08
 
   -0.37196E+08         0.93596E+06         0.00000E+00
    0.93596E+06        -0.50023E+08         0.00000E+00
    0.00000E+00         0.00000E+00        -0.36812E+08
 
   -0.37190E+08         0.10012E+07         0.00000E+00
    0.10012E+07        -0.50026E+08         0.00000E+00
    0.00000E+00         0.00000E+00        -0.36811E+08
 
   -0.37183E+08         0.10666E+07         0.00000E+00
    0.10666E+07        -0.50030E+08         0.00000E+00
    0.00000E+00         0.00000E+00        -0.36811E+08
 
   -0.37176E+08         0.11321E+07         0.00000E+00
    0.11321E+07        -0.50033E+08         0.00000E+00
    0.00000E+00         0.00000E+00        -0.36810E+08
 
   -0.37168E+08         0.11978E+07         0.00000E+00
    0.11978E+07        -0.50037E+08         0.00000E+00
    0.00000E+00         0.00000E+00        -0.36809E+08
 
   -0.37160E+08         0.12637E+07         0.00000E+00
    0.12637E+07        -0.50041E+08         0.00000E+00
    0.00000E+00         0.00000E+00        -0.36808E+08
 
   -0.37152E+08         0.13297E+07         0.00000E+00
    0.13297E+07        -0.50045E+08         0.00000E+00
    0.00000E+00         0.00000E+00        -0.36808E+08
 
   -0.37143E+08         0.13959E+07         0.00000E+00
    0.13959E+07        -0.50050E+08         0.00000E+00
    0.00000E+00         0.00000E+00        -0.36807E+08
 
   -0.37134E+08         0.14623E+07         0.00000E+00
    0.14623E+07        -0.50054E+08         0.00000E+00
    0.00000E+00         0.00000E+00        -0.36806E+08
 
   -0.37125E+08         0.15289E+07         0.00000E+00
    0.15289E+07        -0.50059E+08         0.00000E+00
    0.00000E+00         0.00000E+00        -0.36805E+08
 
   -0.37115E+08         0.15957E+07         0.00000E+00
    0.15957E+07        -0.50064E+08         0.00000E+00
    0.00000E+00         0.00000E+00        -0.36804E+08
 
   -0.37105E+08         0.16627E+07         0.00000E+00
    0.16627E+07        -0.50069E+08         0.00000E+00
    0.00000E+00         0.00000E+00        -0.36803E+08
 
   -0.37094E+08         0.17299E+07         0.00000E+00
    0.17299E+07        -0.50074E+08         0.00000E+00
    0.00000E+00         0.00000E+00        -0.36802E+08
 
   -0.37083E+08         0.17973E+07         0.00000E+00
    0.17973E+07        -0.50079E+08         0.00000E+00
    0.00000E+00         0.00000E+00        -0.36801E+08
 
   -0.37072E+08         0.18650E+07         0.00000E+00
    0.18650E+07        -0.50085E+08         0.00000E+00
    0.00000E+00         0.00000E+00        -0.36799E+08
 
   -0.37061E+08         0.19329E+07         0.00000E+00
    0.19329E+07        -0.50090E+08         0.00000E+00
    0.00000E+00         0.00000E+00        -0.36798E+08
 
   -0.37049E+08         0.20011E+07         0.00000E+00
    0.20011E+07        -0.50096E+08         0.00000E+00
    0.00000E+00         0.00000E+00        -0.36797E+08
 
   -0.37037E+08         0.20695E+07         0.00000E+00
    0.20695E+07        -0.50102E+08         0.00000E+00
    0.00000E+00         0.00000E+00        -0.36796E+08
 
   -0.37024E+08         0.21381E+07         0.00000E+00
    0.21381E+07        -0.50108E+08         0.00000E+00
    0.00000E+00         0.00000E+00        -0.36795E+08
 
   -0.37012E+08         0.22070E+07         0.00000E+00
    0.22070E+07        -0.50114E+08         0.00000E+00
    0.00000E+00         0.00000E+00        -0.36793E+08
 
   -0.36999E+08         0.22762E+07         0.00000E+00
    0.22762E+07        -0.50120E+08         0.00000E+00
    0.00000E+00         0.00000E+00        -0.36792E+08
 
   -0.36985E+08         0.23456E+07         0.00000E+00
    0.23456E+07        -0.50126E+08         0.00000E+00
    0.00000E+00         0.00000E+00        -0.36790E+08
 
   -0.36972E+08         0.24153E+07         0.00000E+00
    0.24153E+07        -0.50133E+08         0.00000E+00
    0.00000E+00         0.00000E+00        -0.36789E+08
 
   -0.36958E+08         0.24853E+07         0.00000E+00
    0.24853E+07        -0.50139E+08         0.00000E+00
    0.00000E+00         0.00000E+00        -0.36788E+08
 
   -0.36944E+08         0.25556E+07         0.00000E+00
    0.25556E+07        -0.50146E+08         0.00000E+00
    0.00000E+00         0.00000E+00        -0.36786E+08
 
   -0.36930E+08         0.26261E+07         0.00000E+00
    0.26261E+07        -0.50153E+08         0.00000E+00
    0.00000E+00         0.00000E+00        -0.36785E+08
 
   -0.36915E+08         0.26970E+07         0.00000E+00
    0.26970E+07        -0.50159E+08         0.00000E+00
    0.00000E+00         0.00000E+00        -0.36783E+08
 
   -0.36900E+08         0.27681E+07         0.00000E+00
    0.27681E+07        -0.50166E+08         0.00000E+00
    0.00000E+00         0.00000E+00        -0.36781E+08
 
   -0.36885E+08         0.28395E+07         0.00000E+00
    0.28395E+07        -0.50173E+08         0.00000E+00
    0.00000E+00         0.00000E+00        -0.36780E+08
 
   -0.36870E+08         0.29113E+07         0.00000E+00
    0.29113E+07        -0.50180E+08         0.00000E+00
    0.00000E+00         0.00000E+00        -0.36778E+08
 
   -0.36855E+08         0.29833E+07         0.00000E+00
    0.29833E+07        -0.50187E+08         0.00000E+00
    0.00000E+00         0.00000E+00        -0.36777E+08
 
   -0.36839E+08         0.30557E+07         0.00000E+00
    0.30557E+07        -0.50195E+08         0.00000E+00
    0.00000E+00         0.00000E+00        -0.36775E+08
 
   -0.36823E+08         0.31284E+07         0.00000E+00
    0.31284E+07        -0.50202E+08         0.00000E+00
    0.00000E+00         0.00000E+00        -0.36773E+08
 
   -0.36807E+08         0.32014E+07         0.00000E+00
    0.32014E+07        -0.50209E+08         0.00000E+00
    0.00000E+00         0.00000E+00        -0.36771E+08
 
   -0.36791E+08         0.32747E+07         0.00000E+00
    0.32747E+07        -0.50216E+08         0.00000E+00
    0.00000E+00         0.00000E+00        -0.36770E+08
 
   -0.36775E+08         0.33483E+07         0.00000E+00
    0.33483E+07        -0.50223E+08         0.00000E+00
    0.00000E+00         0.00000E+00        -0.36768E+08
 
   -0.36921E+08         0.31547E+05         0.00000E+00
    0.31547E+05        -0.50000E+08         0.00000E+00
    0.00000E+00         0.00000E+00        -0.36452E+08
 
   -0.36921E+08         0.94622E+05         0.00000E+00
    0.94622E+05        -0.50000E+08         0.00000E+00
    0.00000E+00         0.00000E+00        -0.36452E+08
 
   -0.36920E+08         0.15770E+06         0.00000E+00
    0.15770E+06        -0.50001E+08         0.00000E+00
    0.00000E+00         0.00000E+00        -0.36452E+08
 
   -0.36919E+08         0.22080E+06         0.00000E+00
    0.22080E+06        -0.50001E+08         0.00000E+00
    0.00000E+00         0.00000E+00        -0.36452E+08
 
   -0.36917E+08         0.28394E+06         0.00000E+00
    0.28394E+06        -0.50002E+08         0.00000E+00
    0.00000E+00         0.00000E+00        -0.36451E+08
 
   -0.36915E+08         0.34711E+06         0.00000E+00
    0.34711E+06        -0.50004E+08         0.00000E+00
    0.00000E+00         0.00000E+00        -0.36451E+08
 
   -0.36912E+08         0.41034E+06         0.00000E+00
    0.41034E+06        -0.50005E+08         0.00000E+00
    0.00000E+00         0.00000E+00        -0.36451E+08
 
   -0.36909E+08         0.47363E+06         0.00000E+00
    0.47363E+06        -0.50007E+08         0.00000E+00
    0.00000E+00         0.00000E+00        -0.36451E+08
 
   -0.36905E+08         0.53700E+06         0.00000E+00
    0.53700E+06        -0.50009E+08         0.00000E+00
    0.00000E+00         0.00000E+00        -0.36450E+08
 
   -0.36901E+08         0.60046E+06         0.00000E+00
    0.60046E+06        -0.50011E+08         0.00000E+00
    0.00000E+00         0.00000E+00        -0.36450E+08
 
   -0.36896E+08         0.66402E+06         0.00000E+00
    0.66402E+06        -0.50014E+08         0.00000E+00
    0.00000E+00         0.00000E+00        -0.36449E+08
 
   -0.36891E+08         0.72768E+06         0.00000E+00
    0.72768E+06        -0.50016E+08         0.00000E+00
    0.00000E+00         0.00000E+00        -0.36449E+08
 
   -0.36885E+08         0.79147E+06         0.00000E+00
    0.79147E+06        -0.50019E+08         0.00000E+00
    0.00000E+00         0.00000E+00        -0.36448E+08
 
   -0.36879E+08         0.85538E+06         0.00000E+00
    0.85538E+06        -0.50022E+08         0.00000E+00
    0.00000E+00         0.00000E+00        -0.36448E+08
 
   -0.36873E+08         0.91943E+06         0.00000E+00
    0.91943E+06        -0.50026E+08         0.00000E+00
    0.00000E+00         0.00000E+00        -0.36447E+08
 
   -0.36866E+08         0.98363E+06         0.00000E+00
    0.98363E+06        -0.50029E+08         0.00000E+00
    0.00000E+00         0.00000E+00        -0.36446E+08
 
   -0.36858E+08         0.10480E+07         0.00000E+00
    0.10480E+07        -0.50033E+08         0.00000E+00
    0.00000E+00         0.00000E+00        -0.36446E+08
 
   -0.36850E+08         0.11125E+07         0.00000E+00
    0.11125E+07        -0.50037E+08         0.00000E+00
    0.00000E+00         0.00000E+00        -0.36445E+08
 
   -0.36842E+08         0.11772E+07         0.00000E+00
    0.11772E+07        -0.50041E+08         0.00000E+00
    0.00000E+00         0.00000E+00        -0.36444E+08
 
   -0.36833E+08         0.12421E+07         0.00000E+00
    0.12421E+07        -0.50046E+08         0.00000E+00
    0.00000E+00         0.00000E+00        -0.36443E+08
 
   -0.36824E+08         0.13072E+07         0.00000E+00
    0.13072E+07        -0.50051E+08         0.00000E+00
    0.00000E+00         0.00000E+00        -0.36442E+08
 
   -0.36814E+08         0.13725E+07         0.00000E+00
    0.13725E+07        -0.50055E+08         0.00000E+00
    0.00000E+00         0.00000E+00        -0.36441E+08
 
   -0.36804E+08         0.14380E+07         0.00000E+00
    0.14380E+07        -0.50060E+08         0.00000E+00
    0.00000E+00         0.00000E+00        -0.36440E+08
 
   -0.36793E+08         0.15037E+07         0.00000E+00
    0.15037E+07        -0.50066E+08         0.00000E+00
    0.00000E+00         0.00000E+00        -0.36439E+08
 
   -0.36783E+08         0.15697E+07         0.00000E+00
    0.15697E+07        -0.50071E+08         0.00000E+00
    0.00000E+00         0.00000E+00        -0.36438E+08
 
   -0.36771E+08         0.16359E+07         0.00000E+00
    0.16359E+07        -0.50077E+08         0.00000E+00
    0.00000E+00         0.00000E+00        -0.36437E+08
 
   -0.36760E+08         0.17023E+07         0.00000E+00
    0.17023E+07        -0.50082E+08         0.00000E+00
    0.00000E+00         0.00000E+00        -0.36436E+08
 
   -0.36748E+08         0.17689E+07         0.00000E+00
    0.17689E+07        -0.50088E+08         0.00000E+00
    0.00000E+00         0.00000E+00        -0.36435E+08
 
   -0.36735E+08         0.18359E+07         0.00000E+00
    0.18359E+07        -0.50094E+08         0.00000E+00
    0.00000E+00         0.00000E+00        -0.36433E+08
 
   -0.36722E+08         0.19031E+07         0.00000E+00
    0.19031E+07        -0.50101E+08         0.00000E+00
    0.00000E+00         0.00000E+00        -0.36432E+08
 
   -0.36709E+08         0.19705E+07         0.00000E+00
    0.19705E+07        -0.50107E+08         0.00000E+00
    0.00000E+00         0.00000E+00        -0.36431E+08
 
   -0.36696E+08         0.20382E+07         0.00000E+00
    0.20382E+07        -0.50113E+08         0.00000E+00
    0.00000E+00         0.00000E+00        -0.36429E+08
 
   -0.36682E+08         0.21062E+07         0.00000E+00
    0.21062E+07        -0.50120E+08         0.00000E+00
    0.00000E+00         0.00000E+00        -0.36428E+08
 
   -0.36668E+08         0.21745E+07         0.00000E+00
    0.21745E+07        -0.50127E+08         0.00000E+00
    0.00000E+00         0.00000E+00        -0.36426E+08
 
   -0.36654E+08         0.22431E+07         0.00000E+00
    0.22431E+07        -0.50134E+08         0.00000E+00
    0.00000E+00         0.00000E+00        -0.36425E+08
 
   -0.36639E+08         0.23120E+07         0.00000E+00
    0.23120E+07        -0.50141E+08         0.00000E+00
    0.00000E+00         0.00000E+00        -0.36423E+08
 
   -0.36624E+08         0.23812E+07         0.00000E+00
    0.23812E+07        -0.50148E+08         0.00000E+00
    0.00000E+00         0.00000E+00        -0.36422E+08
 
   -0.36609E+08         0.24507E+07         0.00000E+00
    0.24507E+07        -0.50155E+08         0.00000E+00
    0.00000E+00         0.00000E+00        -0.36420E+08
 
   -0.36593E+08         0.25205E+07         0.00000E+00
    0.25205E+07        -0.50162E+08         0.00000E+00
    0.00000E+00         0.00000E+00        -0.36419E+08
 
   -0.36577E+08         0.25906E+07         0.00000E+00
    0.25906E+07        -0.50170E+08         0.00000E+00
    0.00000E+00         0.00000E+00        -0.36417E+08
 
   -0.36561E+08         0.26610E+07         0.00000E+00
    0.26610E+07        -0.50177E+08         0.00000E+00
    0.00000E+00         0.00000E+00        -0.36415E+08
 
   -0.36545E+08         0.27318E+07         0.00000E+00
    0.27318E+07        -0.50185E+08         0.00000E+00
    0.00000E+00         0.00000E+00        -0.36413E+08
 
   -0.36528E+08         0.28029E+07         0.00000E+00
    0.28029E+07        -0.50193E+08         0.00000E+00
    0.00000E+00         0.00000E+00        -0.36412E+08
 
   -0.36512E+08         0.28743E+07         0.00000E+00
    0.28743E+07        -0.50200E+08         0.00000E+00
    0.00000E+00         0.00000E+00        -0.36410E+08
 
   -0.36495E+08         0.29460E+07         0.00000E+00
    0.29460E+07        -0.50208E+08         0.00000E+00
    0.00000E+00         0.00000E+00        -0.36408E+08
 
   -0.36477E+08         0.30181E+07         0.00000E+00
    0.30181E+07        -0.50216E+08         0.00000E+00
    0.00000E+00         0.00000E+00        -0.36406E+08
 
   -0.36460E+08         0.30905E+07         0.00000E+00
    0.30905E+07        -0.50224E+08         0.00000E+00
    0.00000E+00         0.00000E+00        -0.36404E+08
 
   -0.36442E+08         0.31633E+07         0.00000E+00
    0.31633E+07        -0.50232E+08         0.00000E+00
    0.00000E+00         0.00000E+00        -0.36402E+08
 
   -0.36424E+08         0.32364E+07         0.00000E+00
    0.32364E+07        -0.50240E+08         0.00000E+00
    0.00000E+00         0.00000E+00        -0.36400E+08
 
   -0.36406E+08         0.33099E+07         0.00000E+00
    0.33099E+07        -0.50248E+08         0.00000E+00
    0.00000E+00         0.00000E+00        -0.36398E+08
 
   -0.36609E+08         0.30879E+05         0.00000E+00
    0.30879E+05        -0.50000E+08         0.00000E+00
    0.00000E+00         0.00000E+00        -0.36089E+08
 
   -0.36609E+08         0.92619E+05         0.00000E+00
    0.92619E+05        -0.50000E+08         0.00000E+00
    0.00000E+00         0.00000E+00        -0.36089E+08
 
   -0.36608E+08         0.15437E+06         0.00000E+00
    0.15437E+06        -0.50001E+08         0.00000E+00
    0.00000E+00         0.00000E+00        -0.36089E+08
 
   -0.36607E+08         0.21614E+06         0.00000E+00
    0.21614E+06        -0.50002E+08         0.00000E+00
    0.00000E+00         0.00000E+00        -0.36089E+08
 
   -0.36605E+08         0.27795E+06         0.00000E+00
    0.27795E+06        -0.50003E+08         0.00000E+00
    0.00000E+00         0.00000E+00        -0.36088E+08
 
   -0.36602E+08         0.33982E+06         0.00000E+00
    0.33982E+06        -0.50004E+08         0.00000E+00
    0.00000E+00         0.00000E+00        -0.36088E+08
 
   -0.36599E+08         0.40174E+06         0.00000E+00
    0.40174E+06        -0.50006E+08         0.00000E+00
    0.00000E+00         0.00000E+00        -0.36088E+08
 
   -0.36595E+08         0.46374E+06         0.00000E+00
    0.46374E+06        -0.50008E+08         0.00000E+00
    0.00000E+00         0.00000E+00        -0.36088E+08
 
   -0.36591E+08         0.52583E+06         0.00000E+00
    0.52583E+06        -0.50010E+08         0.00000E+00
    0.00000E+00         0.00000E+00        -0.36087E+08
 
   -0.36587E+08         0.58803E+06         0.00000E+00
    0.58803E+06        -0.50013E+08         0.00000E+00
    0.00000E+00         0.00000E+00        -0.36087E+08
 
   -0.36581E+08         0.65033E+06         0.00000E+00
    0.65033E+06        -0.50015E+08         0.00000E+00
    0.00000E+00         0.00000E+00        -0.36086E+08
 
   -0.36575E+08         0.71276E+06         0.00000E+00
    0.71276E+06        -0.50018E+08         0.00000E+00
    0.00000E+00         0.00000E+00        -0.36086E+08
 
   -0.36569E+08         0.77533E+06         0.00000E+00
    0.77533E+06        -0.50022E+08         0.00000E+00
    0.00000E+00         0.00000E+00        -0.36085E+08
 
   -0.36562E+08         0.83805E+06         0.00000E+00
    0.83805E+06        -0.50025E+08         0.00000E+00
    0.00000E+00         0.00000E+00        -0.36084E+08
 
   -0.36555E+08         0.90093E+06         0.00000E+00
    0.90093E+06        -0.50029E+08         0.00000E+00
    0.00000E+00         0.00000E+00        -0.36084E+08
 
   -0.36547E+08         0.96397E+06         0.00000E+00
    0.96397E+06        -0.50033E+08         0.00000E+00
    0.00000E+00         0.00000E+00        -0.36083E+08
 
   -0.36539E+08         0.10272E+07         0.00000E+00
    0.10272E+07        -0.50037E+08         0.00000E+00
    0.00000E+00         0.00000E+00        -0.36082E+08
 
   -0.36530E+08         0.10906E+07         0.00000E+00
    0.10906E+07        -0.50042E+08         0.00000E+00
    0.00000E+00         0.00000E+00        -0.36081E+08
 
   -0.36520E+08         0.11542E+07         0.00000E+00
    0.11542E+07        -0.50047E+08         0.00000E+00
    0.00000E+00         0.00000E+00        -0.36080E+08
 
   -0.36511E+08         0.12181E+07         0.00000E+00
    0.12181E+07        -0.50052E+08         0.00000E+00
    0.00000E+00         0.00000E+00        -0.36079E+08
 
   -0.36500E+08         0.12821E+07         0.00000E+00
    0.12821E+07        -0.50057E+08         0.00000E+00
    0.00000E+00         0.00000E+00        -0.36078E+08
 
   -0.36489E+08         0.13464E+07         0.00000E+00
    0.13464E+07        -0.50062E+08         0.00000E+00
    0.00000E+00         0.00000E+00        -0.36077E+08
 
   -0.36478E+08         0.14109E+07         0.00000E+00
    0.14109E+07        -0.50068E+08         0.00000E+00
    0.00000E+00         0.00000E+00        -0.36076E+08
 
   -0.36467E+08         0.14757E+07         0.00000E+00
    0.14757E+07        -0.50074E+08         0.00000E+00
    0.00000E+00         0.00000E+00        -0.36075E+08
 
   -0.36454E+08         0.15407E+07         0.00000E+00
    0.15407E+07        -0.50080E+08         0.00000E+00
    0.00000E+00         0.00000E+00        -0.36074E+08
 
   -0.36442E+08         0.16060E+07         0.00000E+00
    0.16060E+07        -0.50086E+08         0.00000E+00
    0.00000E+00         0.00000E+00        -0.36072E+08
 
   -0.36429E+08         0.16716E+07         0.00000E+00
    0.16716E+07        -0.50092E+08         0.00000E+00
    0.00000E+00         0.00000E+00        -0.36071E+08
 
   -0.36416E+08         0.17374E+07         0.00000E+00
    0.17374E+07        -0.50099E+08         0.00000E+00
    0.00000E+00         0.00000E+00        -0.36070E+08
 
   -0.36402E+08         0.18035E+07         0.00000E+00
    0.18035E+07        -0.50105E+08         0.00000E+00
    0.00000E+00         0.00000E+00        -0.36068E+08
 
   -0.36388E+08         0.18699E+07         0.00000E+00
    0.18699E+07        -0.50112E+08         0.00000E+00
    0.00000E+00         0.00000E+00        -0.36067E+08
 
   -0.36373E+08         0.19366E+07         0.00000E+00
    0.19366E+07        -0.50119E+08         0.00000E+00
    0.00000E+00         0.00000E+00        -0.36065E+08
 
   -0.36358E+08         0.20036E+07         0.00000E+00
    0.20036E+07        -0.50127E+08         0.00000E+00
    0.00000E+00         0.00000E+00        -0.36064E+08
 
   -0.36343E+08         0.20709E+07         0.00000E+00
    0.20709E+07        -0.50134E+08         0.00000E+00
    0.00000E+00         0.00000E+00        -0.36062E+08
 
   -0.36327E+08         0.21386E+07         0.00000E+00
    0.21386E+07        -0.50142E+08         0.00000E+00
    0.00000E+00         0.00000E+00        -0.36061E+08
 
   -0.36312E+08         0.22065E+07         0.00000E+00
    0.22065E+07        -0.50149E+08         0.00000E+00
    0.00000E+00         0.00000E+00        -0.36059E+08
 
   -0.36295E+08         0.22748E+07         0.00000E+00
    0.22748E+07        -0.50157E+08         0.00000E+00
    0.00000E+00         0.00000E+00        -0.36057E+08
 
   -0.36279E+08         0.23434E+07         0.00000E+00
    0.23434E+07        -0.50165E+08         0.00000E+00
    0.00000E+00         0.00000E+00        -0.36056E+08
 
   -0.36262E+08         0.24124E+07         0.00000E+00
    0.24124E+07        -0.50173E+08         0.00000E+00
    0.00000E+00         0.00000E+00        -0.36054E+08
 
   -0.36245E+08         0.24817E+07         0.00000E+00
    0.24817E+07        -0.50181E+08         0.00000E+00
    0.00000E+00         0.00000E+00        -0.36052E+08
 
   -0.36227E+08         0.25513E+07         0.00000E+00
    0.25513E+07        -0.50189E+08         0.00000E+00
    0.00000E+00         0.00000E+00        -0.36050E+08
 
   -0.36209E+08         0.26213E+07         0.00000E+00
    0.26213E+07        -0.50197E+08         0.00000E+00
    0.00000E+00         0.00000E+00        -0.36048E+08
 
   -0.36191E+08         0.26916E+07         0.00000E+00
    0.26916E+07        -0.50206E+08         0.00000E+00
    0.00000E+00         0.00000E+00        -0.36046E+08
 
   -0.36173E+08         0.27623E+07         0.00000E+00
    0.27623E+07        -0.50214E+08         0.00000E+00
    0.00000E+00         0.00000E+00        -0.36044E+08
 
   -0.36154E+08         0.28334E+07         0.00000E+00
    0.28334E+07        -0.50223E+08         0.00000E+00
    0.00000E+00         0.00000E+00        -0.36042E+08
 
   -0.36136E+08         0.29048E+07         0.00000E+00
    0.29048E+07        -0.50231E+08         0.00000E+00
    0.00000E+00         0.00000E+00        -0.36040E+08
 
   -0.36117E+08         0.29766E+07         0.00000E+00
    0.29766E+07        -0.50240E+08         0.00000E+00
    0.00000E+00         0.00000E+00        -0.36038E+08
 
   -0.36097E+08         0.30488E+07         0.00000E+00
    0.30488E+07        -0.50249E+08         0.00000E+00
    0.00000E+00         0.00000E+00        -0.36036E+08
 
   -0.36078E+08         0.31213E+07         0.00000E+00
    0.31213E+07        -0.50258E+08         0.00000E+00
    0.00000E+00         0.00000E+00        -0.36034E+08
 
   -0.36058E+08         0.31943E+07         0.00000E+00
    0.31943E+07        -0.50267E+08         0.00000E+00
    0.00000E+00         0.00000E+00        -0.36032E+08
 
   -0.36039E+08         0.32676E+07         0.00000E+00
    0.32676E+07        -0.50275E+08         0.00000E+00
    0.00000E+00         0.00000E+00        -0.36030E+08
 
   -0.36304E+08         0.30123E+05         0.00000E+00
    0.30123E+05        -0.50000E+08         0.00000E+00
    0.00000E+00         0.00000E+00        -0.35727E+08
 
   -0.36304E+08         0.90355E+05         0.00000E+00
    0.90355E+05        -0.50000E+08         0.00000E+00
    0.00000E+00         0.00000E+00        -0.35727E+08
 
   -0.36303E+08         0.15060E+06         0.00000E+00
    0.15060E+06        -0.50001E+08         0.00000E+00
    0.00000E+00         0.00000E+00        -0.35727E+08
 
   -0.36301E+08         0.21088E+06         0.00000E+00
    0.21088E+06        -0.50002E+08         0.00000E+00
    0.00000E+00         0.00000E+00        -0.35727E+08
 
   -0.36299E+08         0.27120E+06         0.00000E+00
    0.27120E+06        -0.50003E+08         0.00000E+00
    0.00000E+00         0.00000E+00        -0.35727E+08
 
   -0.36296E+08         0.33159E+06         0.00000E+00
    0.33159E+06        -0.50005E+08         0.00000E+00
    0.00000E+00         0.00000E+00        -0.35726E+08
 
   -0.36293E+08         0.39205E+06         0.00000E+00
    0.39205E+06        -0.50007E+08         0.00000E+00
    0.00000E+00         0.00000E+00        -0.35726E+08
 
   -0.36289E+08         0.45260E+06         0.00000E+00
    0.45260E+06        -0.50009E+08         0.00000E+00
    0.00000E+00         0.00000E+00        -0.35726E+08
 
   -0.36284E+08         0.51326E+06         0.00000E+00
    0.51326E+06        -0.50011E+08         0.00000E+00
    0.00000E+00         0.00000E+00        -0.35725E+08
 
   -0.36279E+08         0.57404E+06         0.00000E+00
    0.57404E+06        -0.50014E+08         0.00000E+00
    0.00000E+00         0.00000E+00        -0.35725E+08
 
   -0.36273E+08         0.63495E+06         0.00000E+00
    0.63495E+06        -0.50017E+08         0.00000E+00
    0.00000E+00         0.00000E+00        -0.35724E+08
 
   -0.36266E+08         0.69600E+06         0.00000E+00
    0.69600E+06        -0.50021E+08         0.00000E+00
    0.00000E+00         0.00000E+00        -0.35724E+08
 
   -0.36259E+08         0.75722E+06         0.00000E+00
    0.75722E+06        -0.50024E+08         0.00000E+00
    0.00000E+00         0.00000E+00        -0.35723E+08
 
   -0.36252E+08         0.81861E+06         0.00000E+00
    0.81861E+06        -0.50028E+08         0.00000E+00
    0.00000E+00         0.00000E+00        -0.35722E+08
 
   -0.36243E+08         0.88018E+06         0.00000E+00
    0.88018E+06        -0.50033E+08         0.00000E+00
    0.00000E+00         0.00000E+00        -0.35721E+08
 
   -0.36234E+08         0.94195E+06         0.00000E+00
    0.94195E+06        -0.50037E+08         0.00000E+00
    0.00000E+00         0.00000E+00        -0.35721E+08
 
   -0.36225E+08         0.10039E+07         0.00000E+00
    0.10039E+07        -0.50042E+08         0.00000E+00
    0.00000E+00         0.00000E+00        -0.35720E+08
 
   -0.36215E+08         0.10661E+07         0.00000E+00
    0.10661E+07        -0.50047E+08         0.00000E+00
    0.00000E+00         0.00000E+00        -0.35719E+08
 
   -0.36205E+08         0.11285E+07         0.00000E+00
    0.11285E+07        -0.50052E+08         0.00000E+00
    0.00000E+00         0.00000E+00        -0.35718E+08
 
   -0.36194E+08         0.11912E+07         0.00000E+00
    0.11912E+07        -0.50058E+08         0.00000E+00
    0.00000E+00         0.00000E+00        -0.35717E+08
 
   -0.36182E+08         0.12541E+07         0.00000E+00
    0.12541E+07        -0.50064E+08         0.00000E+00
    0.00000E+00         0.00000E+00        -0.35715E+08
 
   -0.36170E+08         0.13173E+07         0.00000E+00
    0.13173E+07        -0.50070E+08         0.00000E+00
    0.00000E+00         0.00000E+00        -0.35714E+08
 
   -0.36158E+08         0.13807E+07         0.00000E+00
    0.13807E+07        -0.50076E+08         0.00000E+00
    0.00000E+00         0.00000E+00        -0.35713E+08
 
   -0.36145E+08         0.14445E+07         0.00000E+00
    0.14445E+07        -0.50082E+08         0.00000E+00
    0.00000E+00         0.00000E+00        -0.35712E+08
 
   -0.36131E+08         0.15085E+07         0.00000E+00
    0.15085E+07        -0.50089E+08         0.00000E+00
    0.00000E+00         0.00000E+00        -0.35710E+08
 
   -0.36117E+08         0.15728E+07         0.00000E+00
    0.15728E+07        -0.50096E+08         0.00000E+00
    0.00000E+00         0.00000E+00        -0.35709E+08
 
   -0.36103E+08         0.16374E+07         0.00000E+00
    0.16374E+07        -0.50103E+08         0.00000E+00
    0.00000E+00         0.00000E+00        -0.35707E+08
 
   -0.36088E+08         0.17023E+07         0.00000E+00
    0.17023E+07        -0.50110E+08         0.00000E+00
    0.00000E+00         0.00000E+00        -0.35706E+08
 
   -0.36073E+08         0.17675E+07         0.00000E+00
    0.17675E+07        -0.50118E+08         0.00000E+00
    0.00000E+00         0.00000E+00        -0.35704E+08
 
   -0.36057E+08         0.18331E+07         0.00000E+00
    0.18331E+07        -0.50126E+08         0.00000E+00
    0.00000E+00         0.00000E+00        -0.35703E+08
 
   -0.36041E+08         0.18990E+07         0.00000E+00
    0.18990E+07        -0.50133E+08         0.00000E+00
    0.00000E+00         0.00000E+00        -0.35701E+08
 
   -0.36024E+08         0.19652E+07         0.00000E+00
    0.19652E+07        -0.50141E+08         0.00000E+00
    0.00000E+00         0.00000E+00        -0.35699E+08
 
   -0.36007E+08         0.20318E+07         0.00000E+00
    0.20318E+07        -0.50150E+08         0.00000E+00
    0.00000E+00         0.00000E+00        -0.35698E+08
 
   -0.35990E+08         0.20987E+07         0.00000E+00
    0.20987E+07        -0.50158E+08         0.00000E+00
    0.00000E+00         0.00000E+00        -0.35696E+08
 
   -0.35973E+08         0.21660E+07         0.00000E+00
    0.21660E+07        -0.50166E+08         0.00000E+00
    0.00000E+00         0.00000E+00        -0.35694E+08
 
   -0.35955E+08         0.22336E+07         0.00000E+00
    0.22336E+07        -0.50175E+08         0.00000E+00
    0.00000E+00         0.00000E+00        -0.35692E+08
 
   -0.35936E+08         0.23017E+07         0.00000E+00
    0.23017E+07        -0.50184E+08         0.00000E+00
    0.00000E+00         0.00000E+00        -0.35690E+08
 
   -0.35918E+08         0.23700E+07         0.00000E+00
    0.23700E+07        -0.50193E+08         0.00000E+00
    0.00000E+00         0.00000E+00        -0.35688E+08
 
   -0.35899E+08         0.24388E+07         0.00000E+00
    0.24388E+07        -0.50202E+08         0.00000E+00
    0.00000E+00         0.00000E+00        -0.35686E+08
 
   -0.35879E+08         0.25079E+07         0.00000E+00
    0.25079E+07        -0.50211E+08         0.00000E+00
    0.00000E+00         0.00000E+00        -0.35684E+08
 
   -0.35860E+08         0.25774E+07         0.00000E+00
    0.25774E+07        -0.50220E+08         0.00000E+00
    0.00000E+00         0.00000E+00        -0.35682E+08
 
   -0.35840E+08         0.26473E+07         0.00000E+00
    0.26473E+07        -0.50229E+08         0.00000E+00
    0.00000E+00         0.00000E+00        -0.35680E+08
 
   -0.35820E+08         0.27176E+07         0.00000E+00
    0.27176E+07        -0.50238E+08         0.00000E+00
    0.00000E+00         0.00000E+00        -0.35678E+08
 
   -0.35799E+08         0.27883E+07         0.00000E+00
    0.27883E+07        -0.50248E+08         0.00000E+00
    0.00000E+00         0.00000E+00        -0.35676E+08
 
   -0.35778E+08         0.28594E+07         0.00000E+00
    0.28594E+07        -0.50257E+08         0.00000E+00
    0.00000E+00         0.00000E+00        -0.35673E+08
 
   -0.35757E+08         0.29309E+07         0.00000E+00
    0.29309E+07        -0.50267E+08         0.00000E+00
    0.00000E+00         0.00000E+00        -0.35671E+08
 
   -0.35736E+08         0.30028E+07         0.00000E+00
    0.30028E+07        -0.50276E+08         0.00000E+00
    0.00000E+00         0.00000E+00        -0.35669E+08
 
   -0.35715E+08         0.30751E+07         0.00000E+00
    0.30751E+07        -0.50286E+08         0.00000E+00
    0.00000E+00         0.00000E+00        -0.35666E+08
 
   -0.35693E+08         0.31478E+07         0.00000E+00
    0.31478E+07        -0.50296E+08         0.00000E+00
    0.00000E+00         0.00000E+00        -0.35664E+08
 
   -0.35671E+08         0.32209E+07         0.00000E+00
    0.32209E+07        -0.50306E+08         0.00000E+00
    0.00000E+00         0.00000E+00        -0.35662E+08
 
   -0.36007E+08         0.29263E+05         0.00000E+00
    0.29263E+05        -0.50000E+08         0.00000E+00
    0.00000E+00         0.00000E+00        -0.35367E+08
 
   -0.36007E+08         0.87786E+05         0.00000E+00
    0.87786E+05        -0.50000E+08         0.00000E+00
    0.00000E+00         0.00000E+00        -0.35367E+08
 
   -0.36006E+08         0.14633E+06         0.00000E+00
    0.14633E+06        -0.50001E+08         0.00000E+00
    0.00000E+00         0.00000E+00        -0.35367E+08
 
   -0.36004E+08         0.20492E+06         0.00000E+00
    0.20492E+06        -0.50002E+08         0.00000E+00
    0.00000E+00         0.00000E+00        -0.35367E+08
 
   -0.36001E+08         0.26357E+06         0.00000E+00
    0.26357E+06        -0.50004E+08         0.00000E+00
    0.00000E+00         0.00000E+00        -0.35367E+08
 
   -0.35998E+08         0.32229E+06         0.00000E+00
    0.32229E+06        -0.50005E+08         0.00000E+00
    0.00000E+00         0.00000E+00        -0.35366E+08
 
   -0.35994E+08         0.38110E+06         0.00000E+00
    0.38110E+06        -0.50007E+08         0.00000E+00
    0.00000E+00         0.00000E+00        -0.35366E+08
 
   -0.35990E+08         0.44003E+06         0.00000E+00
    0.44003E+06        -0.50010E+08         0.00000E+00
    0.00000E+00         0.00000E+00        -0.35366E+08
 
   -0.35984E+08         0.49908E+06         0.00000E+00
    0.49908E+06        -0.50013E+08         0.00000E+00
    0.00000E+00         0.00000E+00        -0.35365E+08
 
   -0.35978E+08         0.55827E+06         0.00000E+00
    0.55827E+06        -0.50016E+08         0.00000E+00
    0.00000E+00         0.00000E+00        -0.35364E+08
 
   -0.35972E+08         0.61762E+06         0.00000E+00
    0.61762E+06        -0.50020E+08         0.00000E+00
    0.00000E+00         0.00000E+00        -0.35364E+08
 
   -0.35964E+08         0.67715E+06         0.00000E+00
    0.67715E+06        -0.50023E+08         0.00000E+00
    0.00000E+00         0.00000E+00        -0.35363E+08
 
   -0.35956E+08         0.73686E+06         0.00000E+00
    0.73686E+06        -0.50028E+08         0.00000E+00
    0.00000E+00         0.00000E+00        -0.35362E+08
 
   -0.35948E+08         0.79677E+06         0.00000E+00
    0.79677E+06        -0.50032E+08         0.00000E+00
    0.00000E+00         0.00000E+00        -0.35362E+08
 
   -0.35938E+08         0.85689E+06         0.00000E+00
    0.85689E+06        -0.50037E+08         0.00000E+00
    0.00000E+00         0.00000E+00        -0.35361E+08
 
   -0.35929E+08         0.91724E+06         0.00000E+00
    0.91724E+06        -0.50042E+08         0.00000E+00
    0.00000E+00         0.00000E+00        -0.35360E+08
 
   -0.35918E+08         0.97783E+06         0.00000E+00
    0.97783E+06        -0.50047E+08         0.00000E+00
    0.00000E+00         0.00000E+00        -0.35359E+08
 
   -0.35907E+08         0.10387E+07         0.00000E+00
    0.10387E+07        -0.50053E+08         0.00000E+00
    0.00000E+00         0.00000E+00        -0.35358E+08
 
   -0.35895E+08         0.10998E+07         0.00000E+00
    0.10998E+07        -0.50059E+08         0.00000E+00
    0.00000E+00         0.00000E+00        -0.35356E+08
 
   -0.35883E+08         0.11612E+07         0.00000E+00
    0.11612E+07        -0.50065E+08         0.00000E+00
    0.00000E+00         0.00000E+00        -0.35355E+08
 
   -0.35870E+08         0.12228E+07         0.00000E+00
    0.12228E+07        -0.50072E+08         0.00000E+00
    0.00000E+00         0.00000E+00        -0.35354E+08
 
   -0.35857E+08         0.12848E+07         0.00000E+00
    0.12848E+07        -0.50078E+08         0.00000E+00
    0.00000E+00         0.00000E+00        -0.35353E+08
 
   -0.35843E+08         0.13471E+07         0.00000E+00
    0.13471E+07        -0.50085E+08         0.00000E+00
    0.00000E+00         0.00000E+00        -0.35351E+08
 
   -0.35828E+08         0.14097E+07         0.00000E+00
    0.14097E+07        -0.50093E+08         0.00000E+00
    0.00000E+00         0.00000E+00        -0.35350E+08
 
   -0.35813E+08         0.14726E+07         0.00000E+00
    0.14726E+07        -0.50100E+08         0.00000E+00
    0.00000E+00         0.00000E+00        -0.35348E+08
 
   -0.35797E+08         0.15358E+07         0.00000E+00
    0.15358E+07        -0.50108E+08         0.00000E+00
    0.00000E+00         0.00000E+00        -0.35347E+08
 
   -0.35781E+08         0.15994E+07         0.00000E+00
    0.15994E+07        -0.50116E+08         0.00000E+00
    0.00000E+00         0.00000E+00        -0.35345E+08
 
   -0.35765E+08         0.16633E+07         0.00000E+00
    0.16633E+07        -0.50124E+08         0.00000E+00
    0.00000E+00         0.00000E+00        -0.35343E+08
 
   -0.35748E+08         0.17276E+07         0.00000E+00
    0.17276E+07        -0.50132E+08         0.00000E+00
    0.00000E+00         0.00000E+00        -0.35342E+08
 
   -0.35731E+08         0.17923E+07         0.00000E+00
    0.17923E+07        -0.50141E+08         0.00000E+00
    0.00000E+00         0.00000E+00        -0.35340E+08
 
   -0.35713E+08         0.18573E+07         0.00000E+00
    0.18573E+07        -0.50149E+08         0.00000E+00
    0.00000E+00         0.00000E+00        -0.35338E+08
 
   -0.35694E+08         0.19227E+07         0.00000E+00
    0.19227E+07        -0.50158E+08         0.00000E+00
    0.00000E+00         0.00000E+00        -0.35336E+08
 
   -0.35676E+08         0.19885E+07         0.00000E+00
    0.19885E+07        -0.50167E+08         0.00000E+00
    0.00000E+00         0.00000E+00        -0.35334E+08
 
   -0.35656E+08         0.20546E+07         0.00000E+00
    0.20546E+07        -0.50176E+08         0.00000E+00
    0.00000E+00         0.00000E+00        -0.35332E+08
 
   -0.35637E+08         0.21212E+07         0.00000E+00
    0.21212E+07        -0.50186E+08         0.00000E+00
    0.00000E+00         0.00000E+00        -0.35330E+08
 
   -0.35617E+08         0.21882E+07         0.00000E+00
    0.21882E+07        -0.50195E+08         0.00000E+00
    0.00000E+00         0.00000E+00        -0.35328E+08
 
   -0.35597E+08         0.22555E+07         0.00000E+00
    0.22555E+07        -0.50205E+08         0.00000E+00
    0.00000E+00         0.00000E+00        -0.35326E+08
 
   -0.35576E+08         0.23233E+07         0.00000E+00
    0.23233E+07        -0.50215E+08         0.00000E+00
    0.00000E+00         0.00000E+00        -0.35324E+08
 
   -0.35555E+08         0.23915E+07         0.00000E+00
    0.23915E+07        -0.50224E+08         0.00000E+00
    0.00000E+00         0.00000E+00        -0.35321E+08
 
   -0.35534E+08         0.24601E+07         0.00000E+00
    0.24601E+07        -0.50234E+08         0.00000E+00
    0.00000E+00         0.00000E+00        -0.35319E+08
 
   -0.35512E+08         0.25291E+07         0.00000E+00
    0.25291E+07        -0.50245E+08         0.00000E+00
    0.00000E+00         0.00000E+00        -0.35317E+08
 
   -0.35490E+08         0.25985E+07         0.00000E+00
    0.25985E+07        -0.50255E+08         0.00000E+00
    0.00000E+00         0.00000E+00        -0.35315E+08
 
   -0.35468E+08         0.26684E+07         0.00000E+00
    0.26684E+07        -0.50265E+08         0.00000E+00
    0.00000E+00         0.00000E+00        -0.35312E+08
 
   -0.35446E+08         0.27387E+07         0.00000E+00
    0.27387E+07        -0.50275E+08         0.00000E+00
    0.00000E+00         0.00000E+00        -0.35310E+08
 
   -0.35423E+08         0.28094E+07         0.00000E+00
    0.28094E+07        -0.50286E+08         0.00000E+00
    0.00000E+00         0.00000E+00        -0.35307E+08
 
   -0.35400E+08         0.28805E+07         0.00000E+00
    0.28805E+07        -0.50296E+08         0.00000E+00
    0.00000E+00         0.00000E+00        -0.35305E+08
 
   -0.35376E+08         0.29521E+07         0.00000E+00
    0.29521E+07        -0.50307E+08         0.00000E+00
    0.00000E+00         0.00000E+00        -0.35302E+08
 
   -0.35353E+08         0.30242E+07         0.00000E+00
    0.30242E+07        -0.50318E+08         0.00000E+00
    0.00000E+00         0.00000E+00        -0.35300E+08
 
   -0.35329E+08         0.30967E+07         0.00000E+00
    0.30967E+07        -0.50328E+08         0.00000E+00
    0.00000E+00         0.00000E+00        -0.35297E+08
 
   -0.35305E+08         0.31696E+07         0.00000E+00
    0.31696E+07        -0.50339E+08         0.00000E+00
    0.00000E+00         0.00000E+00        -0.35294E+08
 
   -0.35719E+08         0.28283E+05         0.00000E+00
    0.28283E+05        -0.50000E+08         0.00000E+00
    0.00000E+00         0.00000E+00        -0.35009E+08
 
   -0.35719E+08         0.84866E+05         0.00000E+00
    0.84866E+05        -0.50000E+08         0.00000E+00
    0.00000E+00         0.00000E+00        -0.35009E+08
 
   -0.35718E+08         0.14148E+06         0.00000E+00
    0.14148E+06        -0.50001E+08         0.00000E+00
    0.00000E+00         0.00000E+00        -0.35009E+08
 
   -0.35716E+08         0.19816E+06         0.00000E+00
    0.19816E+06        -0.50002E+08         0.00000E+00
    0.00000E+00         0.00000E+00        -0.35008E+08
 
   -0.35713E+08         0.25491E+06         0.00000E+00
    0.25491E+06        -0.50004E+08         0.00000E+00
    0.00000E+00         0.00000E+00        -0.35008E+08
 
   -0.35709E+08         0.31175E+06         0.00000E+00
    0.31175E+06        -0.50006E+08         0.00000E+00
    0.00000E+00         0.00000E+00        -0.35008E+08
 
   -0.35705E+08         0.36872E+06         0.00000E+00
    0.36872E+06        -0.50008E+08         0.00000E+00
    0.00000E+00         0.00000E+00        -0.35007E+08
 
   -0.35699E+08         0.42581E+06         0.00000E+00
    0.42581E+06        -0.50011E+08         0.00000E+00
    0.00000E+00         0.00000E+00        -0.35007E+08
 
   -0.35693E+08         0.48306E+06         0.00000E+00
    0.48306E+06        -0.50015E+08         0.00000E+00
    0.00000E+00         0.00000E+00        -0.35006E+08
 
   -0.35686E+08         0.54048E+06         0.00000E+00
    0.54048E+06        -0.50018E+08         0.00000E+00
    0.00000E+00         0.00000E+00        -0.35006E+08
 
   -0.35679E+08         0.59809E+06         0.00000E+00
    0.59809E+06        -0.50022E+08         0.00000E+00
    0.00000E+00         0.00000E+00        -0.35005E+08
 
   -0.35670E+08         0.65590E+06         0.00000E+00
    0.65590E+06        -0.50026E+08         0.00000E+00
    0.00000E+00         0.00000E+00        -0.35004E+08
 
   -0.35661E+08         0.71394E+06         0.00000E+00
    0.71394E+06        -0.50031E+08         0.00000E+00
    0.00000E+00         0.00000E+00        -0.35003E+08
 
   -0.35652E+08         0.77221E+06         0.00000E+00
    0.77221E+06        -0.50036E+08         0.00000E+00
    0.00000E+00         0.00000E+00        -0.35002E+08
 
   -0.35641E+08         0.83073E+06         0.00000E+00
    0.83073E+06        -0.50042E+08         0.00000E+00
    0.00000E+00         0.00000E+00        -0.35001E+08
 
   -0.35630E+08         0.88951E+06         0.00000E+00
    0.88951E+06        -0.50047E+08         0.00000E+00
    0.00000E+00         0.00000E+00        -0.35000E+08
 
   -0.35618E+08         0.94858E+06         0.00000E+00
    0.94858E+06        -0.50053E+08         0.00000E+00
    0.00000E+00         0.00000E+00        -0.34999E+08
 
   -0.35606E+08         0.10079E+07         0.00000E+00
    0.10079E+07        -0.50060E+08         0.00000E+00
    0.00000E+00         0.00000E+00        -0.34998E+08
 
   -0.35592E+08         0.10676E+07         0.00000E+00
    0.10676E+07        -0.50066E+08         0.00000E+00
    0.00000E+00         0.00000E+00        -0.34997E+08
 
   -0.35579E+08         0.11276E+07         0.00000E+00
    0.11276E+07        -0.50073E+08         0.00000E+00
    0.00000E+00         0.00000E+00        -0.34995E+08
 
   -0.35564E+08         0.11879E+07         0.00000E+00
    0.11879E+07        -0.50081E+08         0.00000E+00
    0.00000E+00         0.00000E+00        -0.34994E+08
 
   -0.35549E+08         0.12485E+07         0.00000E+00
    0.12485E+07        -0.50088E+08         0.00000E+00
    0.00000E+00         0.00000E+00        -0.34992E+08
 
   -0.35534E+08         0.13095E+07         0.00000E+00
    0.13095E+07        -0.50096E+08         0.00000E+00
    0.00000E+00         0.00000E+00        -0.34991E+08
 
   -0.35517E+08         0.13709E+07         0.00000E+00
    0.13709E+07        -0.50104E+08         0.00000E+00
    0.00000E+00         0.00000E+00        -0.34989E+08
 
   -0.35501E+08         0.14326E+07         0.00000E+00
    0.14326E+07        -0.50112E+08         0.00000E+00
    0.00000E+00         0.00000E+00        -0.34987E+08
 
   -0.35483E+08         0.14947E+07         0.00000E+00
    0.14947E+07        -0.50121E+08         0.00000E+00
    0.00000E+00         0.00000E+00        -0.34986E+08
 
   -0.35465E+08         0.15572E+07         0.00000E+00
    0.15572E+07        -0.50130E+08         0.00000E+00
    0.00000E+00         0.00000E+00        -0.34984E+08
 
   -0.35447E+08         0.16200E+07         0.00000E+00
    0.16200E+07        -0.50139E+08         0.00000E+00
    0.00000E+00         0.00000E+00        -0.34982E+08
 
   -0.35428E+08         0.16833E+07         0.00000E+00
    0.16833E+07        -0.50148E+08         0.00000E+00
    0.00000E+00         0.00000E+00        -0.34980E+08
 
   -0.35409E+08         0.17470E+07         0.00000E+00
    0.17470E+07        -0.50157E+08         0.00000E+00
    0.00000E+00         0.00000E+00        -0.34978E+08
 
   -0.35389E+08         0.18111E+07         0.00000E+00
    0.18111E+07        -0.50167E+08         0.00000E+00
    0.00000E+00         0.00000E+00        -0.34976E+08
 
   -0.35369E+08         0.18756E+07         0.00000E+00
    0.18756E+07        -0.50177E+08         0.00000E+00
    0.00000E+00         0.00000E+00        -0.34974E+08
 
   -0.35348E+08         0.19405E+07         0.00000E+00
    0.19405E+07        -0.50187E+08         0.00000E+00
    0.00000E+00         0.00000E+00        -0.34972E+08
 
   -0.35327E+08         0.20059E+07         0.00000E+00
    0.20059E+07        -0.50197E+08         0.00000E+00
    0.00000E+00         0.00000E+00        -0.34970E+08
 
   -0.35305E+08         0.20717E+07         0.00000E+00
    0.20717E+07        -0.50207E+08         0.00000E+00
    0.00000E+00         0.00000E+00        -0.34967E+08
 
   -0.35283E+08         0.21379E+07         0.00000E+00
    0.21379E+07        -0.50218E+08         0.00000E+00
    0.00000E+00         0.00000E+00        -0.34965E+08
 
   -0.35261E+08         0.22046E+07         0.00000E+00
    0.22046E+07        -0.50228E+08         0.00000E+00
    0.00000E+00         0.00000E+00        -0.34963E+08
 
   -0.35238E+08         0.22717E+07         0.00000E+00
    0.22717E+07        -0.50239E+08         0.00000E+00
    0.00000E+00         0.00000E+00        -0.34960E+08
 
   -0.35215E+08         0.23393E+07         0.00000E+00
    0.23393E+07        -0.50250E+08         0.00000E+00
    0.00000E+00         0.00000E+00        -0.34958E+08
 
   -0.35191E+08         0.24073E+07         0.00000E+00
    0.24073E+07        -0.50261E+08         0.00000E+00
    0.00000E+00         0.00000E+00        -0.34955E+08
 
   -0.35167E+08         0.24758E+07         0.00000E+00
    0.24758E+07        -0.50272E+08         0.00000E+00
    0.00000E+00         0.00000E+00        -0.34953E+08
 
   -0.35143E+08         0.25448E+07         0.00000E+00
    0.25448E+07        -0.50283E+08         0.00000E+00
    0.00000E+00         0.00000E+00        -0.34950E+08
 
   -0.35119E+08         0.26142E+07         0.00000E+00
    0.26142E+07        -0.50295E+08         0.00000E+00
    0.00000E+00         0.00000E+00        -0.34948E+08
 
   -0.35094E+08         0.26841E+07         0.00000E+00
    0.26841E+07        -0.50306E+08         0.00000E+00
    0.00000E+00         0.00000E+00        -0.34945E+08
 
   -0.35069E+08         0.27544E+07         0.00000E+00
    0.27544E+07        -0.50318E+08         0.00000E+00
    0.00000E+00         0.00000E+00        -0.34942E+08
 
   -0.35044E+08         0.28252E+07         0.00000E+00
    0.28252E+07        -0.50329E+08         0.00000E+00
    0.00000E+00         0.00000E+00        -0.34939E+08
 
   -0.35018E+08         0.28965E+07         0.00000E+00
    0.28965E+07        -0.50341E+08         0.00000E+00
    0.00000E+00         0.00000E+00        -0.34937E+08
 
   -0.34992E+08         0.29683E+07         0.00000E+00
    0.29683E+07        -0.50352E+08         0.00000E+00
    0.00000E+00         0.00000E+00        -0.34934E+08
 
   -0.34966E+08         0.30405E+07         0.00000E+00
    0.30405E+07        -0.50364E+08         0.00000E+00
    0.00000E+00         0.00000E+00        -0.34931E+08
 
   -0.34940E+08         0.31133E+07         0.00000E+00
    0.31133E+07        -0.50376E+08         0.00000E+00
    0.00000E+00         0.00000E+00        -0.34928E+08
 
   -0.35442E+08         0.27162E+05         0.00000E+00
    0.27162E+05        -0.50000E+08         0.00000E+00
    0.00000E+00         0.00000E+00        -0.34653E+08
 
   -0.35441E+08         0.81536E+05         0.00000E+00
    0.81536E+05        -0.50000E+08         0.00000E+00
    0.00000E+00         0.00000E+00        -0.34653E+08
 
   -0.35440E+08         0.13596E+06         0.00000E+00
    0.13596E+06        -0.50001E+08         0.00000E+00
    0.00000E+00         0.00000E+00        -0.34652E+08
 
   -0.35437E+08         0.19047E+06         0.00000E+00
    0.19047E+06        -0.50003E+08         0.00000E+00
    0.00000E+00         0.00000E+00        -0.34652E+08
 
   -0.35434E+08         0.24507E+06         0.00000E+00
    0.24507E+06        -0.50005E+08         0.00000E+00
    0.00000E+00         0.00000E+00        -0.34652E+08
 
   -0.35430E+08         0.29980E+06         0.00000E+00
    0.29980E+06        -0.50007E+08         0.00000E+00
    0.00000E+00         0.00000E+00        -0.34652E+08
 
   -0.35424E+08         0.35467E+06         0.00000E+00
    0.35467E+06        -0.50010E+08         0.00000E+00
    0.00000E+00         0.00000E+00        -0.34651E+08
 
   -0.35418E+08         0.40971E+06         0.00000E+00
    0.40971E+06        -0.50013E+08         0.00000E+00
    0.00000E+00         0.00000E+00        -0.34650E+08
 
   -0.35411E+08         0.46494E+06         0.00000E+00
    0.46494E+06        -0.50017E+08         0.00000E+00
    0.00000E+00         0.00000E+00        -0.34650E+08
 
   -0.35404E+08         0.52038E+06         0.00000E+00
    0.52038E+06        -0.50021E+08         0.00000E+00
    0.00000E+00         0.00000E+00        -0.34649E+08
 
   -0.35395E+08         0.57604E+06         0.00000E+00
    0.57604E+06        -0.50025E+08         0.00000E+00
    0.00000E+00         0.00000E+00        -0.34648E+08
 
   -0.35386E+08         0.63195E+06         0.00000E+00
    0.63195E+06        -0.50030E+08         0.00000E+00
    0.00000E+00         0.00000E+00        -0.34647E+08
 
   -0.35375E+08         0.68812E+06         0.00000E+00
    0.68812E+06        -0.50035E+08         0.00000E+00
    0.00000E+00         0.00000E+00        -0.34646E+08
 
   -0.35364E+08         0.74457E+06         0.00000E+00
    0.74457E+06        -0.50041E+08         0.00000E+00
    0.00000E+00         0.00000E+00        -0.34645E+08
 
   -0.35352E+08         0.80131E+06         0.00000E+00
    0.80131E+06        -0.50047E+08         0.00000E+00
    0.00000E+00         0.00000E+00        -0.34644E+08
 
   -0.35340E+08         0.85837E+06         0.00000E+00
    0.85837E+06        -0.50053E+08         0.00000E+00
    0.00000E+00         0.00000E+00        -0.34643E+08
 
   -0.35326E+08         0.91575E+06         0.00000E+00
    0.91575E+06        -0.50060E+08         0.00000E+00
    0.00000E+00         0.00000E+00        -0.34641E+08
 
   -0.35312E+08         0.97347E+06         0.00000E+00
    0.97347E+06        -0.50067E+08         0.00000E+00
    0.00000E+00         0.00000E+00        -0.34640E+08
 
   -0.35297E+08         0.10315E+07         0.00000E+00
    0.10315E+07        -0.50075E+08         0.00000E+00
    0.00000E+00         0.00000E+00        -0.34639E+08
 
   -0.35282E+08         0.10900E+07         0.00000E+00
    0.10900E+07        -0.50083E+08         0.00000E+00
    0.00000E+00         0.00000E+00        -0.34637E+08
 
   -0.35265E+08         0.11488E+07         0.00000E+00
    0.11488E+07        -0.50091E+08         0.00000E+00
    0.00000E+00         0.00000E+00        -0.34635E+08
 
   -0.35249E+08         0.12080E+07         0.00000E+00
    0.12080E+07        -0.50099E+08         0.00000E+00
    0.00000E+00         0.00000E+00        -0.34634E+08
 
   -0.35231E+08         0.12676E+07         0.00000E+00
    0.12676E+07        -0.50108E+08         0.00000E+00
    0.00000E+00         0.00000E+00        -0.34632E+08
 
   -0.35213E+08         0.13276E+07         0.00000E+00
    0.13276E+07        -0.50117E+08         0.00000E+00
    0.00000E+00         0.00000E+00        -0.34630E+08
 
   -0.35194E+08         0.13881E+07         0.00000E+00
    0.13881E+07        -0.50126E+08         0.00000E+00
    0.00000E+00         0.00000E+00        -0.34628E+08
 
   -0.35175E+08         0.14489E+07         0.00000E+00
    0.14489E+07        -0.50136E+08         0.00000E+00
    0.00000E+00         0.00000E+00        -0.34626E+08
 
   -0.35155E+08         0.15102E+07         0.00000E+00
    0.15102E+07        -0.50145E+08         0.00000E+00
    0.00000E+00         0.00000E+00        -0.34624E+08
 
   -0.35134E+08         0.15719E+07         0.00000E+00
    0.15719E+07        -0.50155E+08         0.00000E+00
    0.00000E+00         0.00000E+00        -0.34622E+08
 
   -0.35113E+08         0.16341E+07         0.00000E+00
    0.16341E+07        -0.50166E+08         0.00000E+00
    0.00000E+00         0.00000E+00        -0.34620E+08
 
   -0.35092E+08         0.16968E+07         0.00000E+00
    0.16968E+07        -0.50176E+08         0.00000E+00
    0.00000E+00         0.00000E+00        -0.34618E+08
 
   -0.35070E+08         0.17599E+07         0.00000E+00
    0.17599E+07        -0.50187E+08         0.00000E+00
    0.00000E+00         0.00000E+00        -0.34615E+08
 
   -0.35047E+08         0.18235E+07         0.00000E+00
    0.18235E+07        -0.50198E+08         0.00000E+00
    0.00000E+00         0.00000E+00        -0.34613E+08
 
   -0.35024E+08         0.18875E+07         0.00000E+00
    0.18875E+07        -0.50209E+08         0.00000E+00
    0.00000E+00         0.00000E+00        -0.34611E+08
 
   -0.35001E+08         0.19520E+07         0.00000E+00
    0.19520E+07        -0.50220E+08         0.00000E+00
    0.00000E+00         0.00000E+00        -0.34608E+08
 
   -0.34977E+08         0.20170E+07         0.00000E+00
    0.20170E+07        -0.50231E+08         0.00000E+00
    0.00000E+00         0.00000E+00        -0.34606E+08
 
   -0.34953E+08         0.20825E+07         0.00000E+00
    0.20825E+07        -0.50243E+08         0.00000E+00
    0.00000E+00         0.00000E+00        -0.34603E+08
 
   -0.34928E+08         0.21485E+07         0.00000E+00
    0.21485E+07        -0.50255E+08         0.00000E+00
    0.00000E+00         0.00000E+00        -0.34601E+08
 
   -0.34903E+08         0.22149E+07         0.00000E+00
    0.22149E+07        -0.50266E+08         0.00000E+00
    0.00000E+00         0.00000E+00        -0.34598E+08
 
   -0.34877E+08         0.22819E+07         0.00000E+00
    0.22819E+07        -0.50278E+08         0.00000E+00
    0.00000E+00         0.00000E+00        -0.34595E+08
 
   -0.34851E+08         0.23493E+07         0.00000E+00
    0.23493E+07        -0.50290E+08         0.00000E+00
    0.00000E+00         0.00000E+00        -0.34593E+08
 
   -0.34825E+08         0.24173E+07         0.00000E+00
    0.24173E+07        -0.50303E+08         0.00000E+00
    0.00000E+00         0.00000E+00        -0.34590E+08
 
   -0.34799E+08         0.24857E+07         0.00000E+00
    0.24857E+07        -0.50315E+08         0.00000E+00
    0.00000E+00         0.00000E+00        -0.34587E+08
 
   -0.34772E+08         0.25547E+07         0.00000E+00
    0.25547E+07        -0.50327E+08         0.00000E+00
    0.00000E+00         0.00000E+00        -0.34584E+08
 
   -0.34744E+08         0.26242E+07         0.00000E+00
    0.26242E+07        -0.50340E+08         0.00000E+00
    0.00000E+00         0.00000E+00        -0.34581E+08
 
   -0.34717E+08         0.26941E+07         0.00000E+00
    0.26941E+07        -0.50352E+08         0.00000E+00
    0.00000E+00         0.00000E+00        -0.34578E+08
 
   -0.34689E+08         0.27646E+07         0.00000E+00
    0.27646E+07        -0.50365E+08         0.00000E+00
    0.00000E+00         0.00000E+00        -0.34575E+08
 
   -0.34661E+08         0.28356E+07         0.00000E+00
    0.28356E+07        -0.50378E+08         0.00000E+00
    0.00000E+00         0.00000E+00        -0.34572E+08
 
   -0.34633E+08         0.29071E+07         0.00000E+00
    0.29071E+07        -0.50391E+08         0.00000E+00
    0.00000E+00         0.00000E+00        -0.34569E+08
 
   -0.34604E+08         0.29791E+07         0.00000E+00
    0.29791E+07        -0.50403E+08         0.00000E+00
    0.00000E+00         0.00000E+00        -0.34566E+08
 
   -0.34575E+08         0.30516E+07         0.00000E+00
    0.30516E+07        -0.50416E+08         0.00000E+00
    0.00000E+00         0.00000E+00        -0.34563E+08
 
   -0.35176E+08         0.25877E+05         0.00000E+00
    0.25877E+05        -0.50000E+08         0.00000E+00
    0.00000E+00         0.00000E+00        -0.34299E+08
 
   -0.35176E+08         0.77731E+05         0.00000E+00
    0.77731E+05        -0.50000E+08         0.00000E+00
    0.00000E+00         0.00000E+00        -0.34299E+08
 
   -0.35174E+08         0.12967E+06         0.00000E+00
    0.12967E+06        -0.50001E+08         0.00000E+00
    0.00000E+00         0.00000E+00        -0.34299E+08
 
   -0.35171E+08         0.18171E+06         0.00000E+00
    0.18171E+06        -0.50003E+08         0.00000E+00
    0.00000E+00         0.00000E+00        -0.34298E+08
 
   -0.35167E+08         0.23388E+06         0.00000E+00
    0.23388E+06        -0.50005E+08         0.00000E+00
    0.00000E+00         0.00000E+00        -0.34298E+08
 
   -0.35162E+08         0.28622E+06         0.00000E+00
    0.28622E+06        -0.50008E+08         0.00000E+00
    0.00000E+00         0.00000E+00        -0.34297E+08
 
   -0.35155E+08         0.33874E+06         0.00000E+00
    0.33874E+06        -0.50011E+08         0.00000E+00
    0.00000E+00         0.00000E+00        -0.34297E+08
 
   -0.35148E+08         0.39147E+06         0.00000E+00
    0.39147E+06        -0.50015E+08         0.00000E+00
    0.00000E+00         0.00000E+00        -0.34296E+08
 
   -0.35140E+08         0.44443E+06         0.00000E+00
    0.44443E+06        -0.50019E+08         0.00000E+00
    0.00000E+00         0.00000E+00        -0.34295E+08
 
   -0.35131E+08         0.49764E+06         0.00000E+00
    0.49764E+06        -0.50023E+08         0.00000E+00
    0.00000E+00         0.00000E+00        -0.34294E+08
 
   -0.35121E+08         0.55113E+06         0.00000E+00
    0.55113E+06        -0.50028E+08         0.00000E+00
    0.00000E+00         0.00000E+00        -0.34293E+08
 
   -0.35110E+08         0.60492E+06         0.00000E+00
    0.60492E+06        -0.50034E+08         0.00000E+00
    0.00000E+00         0.00000E+00        -0.34292E+08
 
   -0.35099E+08         0.65902E+06         0.00000E+00
    0.65902E+06        -0.50040E+08         0.00000E+00
    0.00000E+00         0.00000E+00        -0.34291E+08
 
   -0.35086E+08         0.71345E+06         0.00000E+00
    0.71345E+06        -0.50046E+08         0.00000E+00
    0.00000E+00         0.00000E+00        -0.34290E+08
 
   -0.35072E+08         0.76823E+06         0.00000E+00
    0.76823E+06        -0.50053E+08         0.00000E+00
    0.00000E+00         0.00000E+00        -0.34289E+08
 
   -0.35058E+08         0.82338E+06         0.00000E+00
    0.82338E+06        -0.50060E+08         0.00000E+00
    0.00000E+00         0.00000E+00        -0.34287E+08
 
   -0.35043E+08         0.87891E+06         0.00000E+00
    0.87891E+06        -0.50068E+08         0.00000E+00
    0.00000E+00         0.00000E+00        -0.34286E+08
 
   -0.35027E+08         0.93484E+06         0.00000E+00
    0.93484E+06        -0.50076E+08         0.00000E+00
    0.00000E+00         0.00000E+00        -0.34284E+08
 
   -0.35010E+08         0.99118E+06         0.00000E+00
    0.99118E+06        -0.50084E+08         0.00000E+00
    0.00000E+00         0.00000E+00        -0.34282E+08
 
   -0.34993E+08         0.10479E+07         0.00000E+00
    0.10479E+07        -0.50093E+08         0.00000E+00
    0.00000E+00         0.00000E+00        -0.34281E+08
 
   -0.34974E+08         0.11051E+07         0.00000E+00
    0.11051E+07        -0.50102E+08         0.00000E+00
    0.00000E+00         0.00000E+00        -0.34279E+08
 
   -0.34955E+08         0.11628E+07         0.00000E+00
    0.11628E+07        -0.50112E+08         0.00000E+00
    0.00000E+00         0.00000E+00        -0.34277E+08
 
   -0.34936E+08         0.12209E+07         0.00000E+00
    0.12209E+07        -0.50121E+08         0.00000E+00
    0.00000E+00         0.00000E+00        -0.34275E+08
 
   -0.34915E+08         0.12795E+07         0.00000E+00
    0.12795E+07        -0.50131E+08         0.00000E+00
    0.00000E+00         0.00000E+00        -0.34273E+08
 
   -0.34894E+08         0.13385E+07         0.00000E+00
    0.13385E+07        -0.50142E+08         0.00000E+00
    0.00000E+00         0.00000E+00        -0.34271E+08
 
   -0.34873E+08         0.13981E+07         0.00000E+00
    0.13981E+07        -0.50152E+08         0.00000E+00
    0.00000E+00         0.00000E+00        -0.34268E+08
 
   -0.34850E+08         0.14581E+07         0.00000E+00
    0.14581E+07        -0.50163E+08         0.00000E+00
    0.00000E+00         0.00000E+00        -0.34266E+08
 
   -0.34827E+08         0.15186E+07         0.00000E+00
    0.15186E+07        -0.50174E+08         0.00000E+00
    0.00000E+00         0.00000E+00        -0.34264E+08
 
   -0.34804E+08         0.15797E+07         0.00000E+00
    0.15797E+07        -0.50185E+08         0.00000E+00
    0.00000E+00         0.00000E+00        -0.34261E+08
 
   -0.34780E+08         0.16412E+07         0.00000E+00
    0.16412E+07        -0.50197E+08         0.00000E+00
    0.00000E+00         0.00000E+00        -0.34259E+08
 
   -0.34756E+08         0.17033E+07         0.00000E+00
    0.17033E+07        -0.50209E+08         0.00000E+00
    0.00000E+00         0.00000E+00        -0.34256E+08
 
   -0.34731E+08         0.17659E+07         0.00000E+00
    0.17659E+07        -0.50221E+08         0.00000E+00
    0.00000E+00         0.00000E+00        -0.34254E+08
 
   -0.34705E+08         0.18290E+07         0.00000E+00
    0.18290E+07        -0.50233E+08         0.00000E+00
    0.00000E+00         0.00000E+00        -0.34251E+08
 
   -0.34679E+08         0.18926E+07         0.00000E+00
    0.18926E+07        -0.50245E+08         0.00000E+00
    0.00000E+00         0.00000E+00        -0.34248E+08
 
   -0.34653E+08         0.19568E+07         0.00000E+00
    0.19568E+07        -0.50258E+08         0.00000E+00
    0.00000E+00         0.00000E+00        -0.34246E+08
 
   -0.34626E+08         0.20215E+07         0.00000E+00
    0.20215E+07        -0.50271E+08         0.00000E+00
    0.00000E+00         0.00000E+00        -0.34243E+08
 
   -0.34598E+08         0.20867E+07         0.00000E+00
    0.20867E+07        -0.50284E+08         0.00000E+00
    0.00000E+00         0.00000E+00        -0.34240E+08
 
   -0.34571E+08         0.21525E+07         0.00000E+00
    0.21525E+07        -0.50297E+08         0.00000E+00
    0.00000E+00         0.00000E+00        -0.34237E+08
 
   -0.34543E+08         0.22188E+07         0.00000E+00
    0.22188E+07        -0.50310E+08         0.00000E+00
    0.00000E+00         0.00000E+00        -0.34234E+08
 
   -0.34514E+08         0.22857E+07         0.00000E+00
    0.22857E+07        -0.50323E+08         0.00000E+00
    0.00000E+00         0.00000E+00        -0.34231E+08
 
   -0.34485E+08         0.23531E+07         0.00000E+00
    0.23531E+07        -0.50336E+08         0.00000E+00
    0.00000E+00         0.00000E+00        -0.34228E+08
 
   -0.34456E+08         0.24210E+07         0.00000E+00
    0.24210E+07        -0.50350E+08         0.00000E+00
    0.00000E+00         0.00000E+00        -0.34225E+08
 
   -0.34427E+08         0.24895E+07         0.00000E+00
    0.24895E+07        -0.50363E+08         0.00000E+00
    0.00000E+00         0.00000E+00        -0.34222E+08
 
   -0.34397E+08         0.25585E+07         0.00000E+00
    0.25585E+07        -0.50377E+08         0.00000E+00
    0.00000E+00         0.00000E+00        -0.34218E+08
 
   -0.34367E+08         0.26281E+07         0.00000E+00
    0.26281E+07        -0.50391E+08         0.00000E+00
    0.00000E+00         0.00000E+00        -0.34215E+08
 
   -0.34336E+08         0.26982E+07         0.00000E+00
    0.26982E+07        -0.50405E+08         0.00000E+00
    0.00000E+00         0.00000E+00        -0.34212E+08
 
   -0.34306E+08         0.27689E+07         0.00000E+00
    0.27689E+07        -0.50419E+08         0.00000E+00
    0.00000E+00         0.00000E+00        -0.34208E+08
 
   -0.34275E+08         0.28401E+07         0.00000E+00
    0.28401E+07        -0.50433E+08         0.00000E+00
    0.00000E+00         0.00000E+00        -0.34205E+08
 
   -0.34244E+08         0.29119E+07         0.00000E+00
    0.29119E+07        -0.50447E+08         0.00000E+00
    0.00000E+00         0.00000E+00        -0.34202E+08
 
   -0.34212E+08         0.29841E+07         0.00000E+00
    0.29841E+07        -0.50461E+08         0.00000E+00
    0.00000E+00         0.00000E+00        -0.34198E+08
 
   -0.34924E+08         0.24401E+05         0.00000E+00
    0.24401E+05        -0.50000E+08         0.00000E+00
    0.00000E+00         0.00000E+00        -0.33948E+08
 
   -0.34923E+08         0.73379E+05         0.00000E+00
    0.73379E+05        -0.50000E+08         0.00000E+00
    0.00000E+00         0.00000E+00        -0.33947E+08
 
   -0.34921E+08         0.12247E+06         0.00000E+00
    0.12247E+06        -0.50002E+08         0.00000E+00
    0.00000E+00         0.00000E+00        -0.33947E+08
 
   -0.34917E+08         0.17172E+06         0.00000E+00
    0.17172E+06        -0.50004E+08         0.00000E+00
    0.00000E+00         0.00000E+00        -0.33947E+08
 
   -0.34912E+08         0.22114E+06         0.00000E+00
    0.22114E+06        -0.50006E+08         0.00000E+00
    0.00000E+00         0.00000E+00        -0.33946E+08
 
   -0.34906E+08         0.27077E+06         0.00000E+00
    0.27077E+06        -0.50009E+08         0.00000E+00
    0.00000E+00         0.00000E+00        -0.33946E+08
 
   -0.34899E+08         0.32064E+06         0.00000E+00
    0.32064E+06        -0.50013E+08         0.00000E+00
    0.00000E+00         0.00000E+00        -0.33945E+08
 
   -0.34890E+08         0.37077E+06         0.00000E+00
    0.37077E+06        -0.50017E+08         0.00000E+00
    0.00000E+00         0.00000E+00        -0.33944E+08
 
   -0.34881E+08         0.42119E+06         0.00000E+00
    0.42119E+06        -0.50021E+08         0.00000E+00
    0.00000E+00         0.00000E+00        -0.33943E+08
 
   -0.34871E+08         0.47193E+06         0.00000E+00
    0.47193E+06        -0.50027E+08         0.00000E+00
    0.00000E+00         0.00000E+00        -0.33942E+08
 
   -0.34859E+08         0.52299E+06         0.00000E+00
    0.52299E+06        -0.50032E+08         0.00000E+00
    0.00000E+00         0.00000E+00        -0.33941E+08
 
   -0.34847E+08         0.57442E+06         0.00000E+00
    0.57442E+06        -0.50039E+08         0.00000E+00
    0.00000E+00         0.00000E+00        -0.33940E+08
 
   -0.34833E+08         0.62622E+06         0.00000E+00
    0.62622E+06        -0.50045E+08         0.00000E+00
    0.00000E+00         0.00000E+00        -0.33938E+08
 
   -0.34818E+08         0.67843E+06         0.00000E+00
    0.67843E+06        -0.50052E+08         0.00000E+00
    0.00000E+00         0.00000E+00        -0.33937E+08
 
   -0.34803E+08         0.73105E+06         0.00000E+00
    0.73105E+06        -0.50060E+08         0.00000E+00
    0.00000E+00         0.00000E+00        -0.33935E+08
 
   -0.34787E+08         0.78410E+06         0.00000E+00
    0.78410E+06        -0.50068E+08         0.00000E+00
    0.00000E+00         0.00000E+00        -0.33934E+08
 
   -0.34769E+08         0.83760E+06         0.00000E+00
    0.83760E+06        -0.50077E+08         0.00000E+00
    0.00000E+00         0.00000E+00        -0.33932E+08
 
   -0.34751E+08         0.89157E+06         0.00000E+00
    0.89157E+06        -0.50086E+08         0.00000E+00
    0.00000E+00         0.00000E+00        -0.33930E+08
 
   -0.34732E+08         0.94603E+06         0.00000E+00
    0.94603E+06        -0.50095E+08         0.00000E+00
    0.00000E+00         0.00000E+00        -0.33928E+08
 
   -0.34712E+08         0.10010E+07         0.00000E+00
    0.10010E+07        -0.50105E+08         0.00000E+00
    0.00000E+00         0.00000E+00        -0.33926E+08
 
   -0.34691E+08         0.10564E+07         0.00000E+00
    0.10564E+07        -0.50115E+08         0.00000E+00
    0.00000E+00         0.00000E+00        -0.33924E+08
 
   -0.34670E+08         0.11124E+07         0.00000E+00
    0.11124E+07        -0.50125E+08         0.00000E+00
    0.00000E+00         0.00000E+00        -0.33922E+08
 
   -0.34648E+08         0.11689E+07         0.00000E+00
    0.11689E+07        -0.50136E+08         0.00000E+00
    0.00000E+00         0.00000E+00        -0.33920E+08
 
   -0.34625E+08         0.12259E+07         0.00000E+00
    0.12259E+07        -0.50147E+08         0.00000E+00
    0.00000E+00         0.00000E+00        -0.33917E+08
 
   -0.34601E+08         0.12835E+07         0.00000E+00
    0.12835E+07        -0.50159E+08         0.00000E+00
    0.00000E+00         0.00000E+00        -0.33915E+08
 
   -0.34577E+08         0.13416E+07         0.00000E+00
    0.13416E+07        -0.50171E+08         0.00000E+00
    0.00000E+00         0.00000E+00        -0.33912E+08
 
   -0.34552E+08         0.14003E+07         0.00000E+00
    0.14003E+07        -0.50183E+08         0.00000E+00
    0.00000E+00         0.00000E+00        -0.33910E+08
 
   -0.34527E+08         0.14595E+07         0.00000E+00
    0.14595E+07        -0.50195E+08         0.00000E+00
    0.00000E+00         0.00000E+00        -0.33907E+08
 
   -0.34501E+08         0.15194E+07         0.00000E+00
    0.15194E+07        -0.50207E+08         0.00000E+00
    0.00000E+00         0.00000E+00        -0.33904E+08
 
   -0.34474E+08         0.15798E+07         0.00000E+00
    0.15798E+07        -0.50220E+08         0.00000E+00
    0.00000E+00         0.00000E+00        -0.33902E+08
 
   -0.34447E+08         0.16407E+07         0.00000E+00
    0.16407E+07        -0.50233E+08         0.00000E+00
    0.00000E+00         0.00000E+00        -0.33899E+08
 
   -0.34419E+08         0.17023E+07         0.00000E+00
    0.17023E+07        -0.50246E+08         0.00000E+00
    0.00000E+00         0.00000E+00        -0.33896E+08
 
   -0.34391E+08         0.17645E+07         0.00000E+00
    0.17645E+07        -0.50260E+08         0.00000E+00
    0.00000E+00         0.00000E+00        -0.33893E+08
 
   -0.34362E+08         0.18272E+07         0.00000E+00
    0.18272E+07        -0.50274E+08         0.00000E+00
    0.00000E+00         0.00000E+00        -0.33890E+08
 
   -0.34333E+08         0.18905E+07         0.00000E+00
    0.18905E+07        -0.50287E+08         0.00000E+00
    0.00000E+00         0.00000E+00        -0.33887E+08
 
   -0.34303E+08         0.19544E+07         0.00000E+00
    0.19544E+07        -0.50301E+08         0.00000E+00
    0.00000E+00         0.00000E+00        -0.33884E+08
 
   -0.34273E+08         0.20189E+07         0.00000E+00
    0.20189E+07        -0.50315E+08         0.00000E+00
    0.00000E+00         0.00000E+00        -0.33880E+08
 
   -0.34242E+08         0.20840E+07         0.00000E+00
    0.20840E+07        -0.50330E+08         0.00000E+00
    0.00000E+00         0.00000E+00        -0.33877E+08
 
   -0.34211E+08         0.21497E+07         0.00000E+00
    0.21497E+07        -0.50344E+08         0.00000E+00
    0.00000E+00         0.00000E+00        -0.33874E+08
 
   -0.34180E+08         0.22159E+07         0.00000E+00
    0.22159E+07        -0.50359E+08         0.00000E+00
    0.00000E+00         0.00000E+00        -0.33871E+08
 
   -0.34148E+08         0.22828E+07         0.00000E+00
    0.22828E+07        -0.50373E+08         0.00000E+00
    0.00000E+00         0.00000E+00        -0.33867E+08
 
   -0.34116E+08         0.23502E+07         0.00000E+00
    0.23502E+07        -0.50388E+08         0.00000E+00
    0.00000E+00         0.00000E+00        -0.33864E+08
 
   -0.34084E+08         0.24183E+07         0.00000E+00
    0.24183E+07        -0.50403E+08         0.00000E+00
    0.00000E+00         0.00000E+00        -0.33860E+08
 
   -0.34051E+08         0.24869E+07         0.00000E+00
    0.24869E+07        -0.50418E+08         0.00000E+00
    0.00000E+00         0.00000E+00        -0.33857E+08
 
   -0.34019E+08         0.25561E+07         0.00000E+00
    0.25561E+07        -0.50433E+08         0.00000E+00
    0.00000E+00         0.00000E+00        -0.33853E+08
 
   -0.33985E+08         0.26258E+07         0.00000E+00
    0.26258E+07        -0.50448E+08         0.00000E+00
    0.00000E+00         0.00000E+00        -0.33849E+08
 
   -0.33952E+08         0.26962E+07         0.00000E+00
    0.26962E+07        -0.50463E+08         0.00000E+00
    0.00000E+00         0.00000E+00        -0.33846E+08
 
   -0.33918E+08         0.27671E+07         0.00000E+00
    0.27671E+07        -0.50478E+08         0.00000E+00
    0.00000E+00         0.00000E+00        -0.33842E+08
 
   -0.33884E+08         0.28386E+07         0.00000E+00
    0.28386E+07        -0.50494E+08         0.00000E+00
    0.00000E+00         0.00000E+00        -0.33838E+08
 
   -0.33850E+08         0.29107E+07         0.00000E+00
    0.29107E+07        -0.50509E+08         0.00000E+00
    0.00000E+00         0.00000E+00        -0.33835E+08
 
   -0.34688E+08         0.22704E+05         0.00000E+00
    0.22704E+05        -0.50000E+08         0.00000E+00
    0.00000E+00         0.00000E+00        -0.33600E+08
 
   -0.34686E+08         0.68398E+05         0.00000E+00
    0.68398E+05        -0.50001E+08         0.00000E+00
    0.00000E+00         0.00000E+00        -0.33599E+08
 
   -0.34683E+08         0.11426E+06         0.00000E+00
    0.11426E+06        -0.50002E+08         0.00000E+00
    0.00000E+00         0.00000E+00        -0.33599E+08
 
   -0.34678E+08         0.16033E+06         0.00000E+00
    0.16033E+06        -0.50004E+08         0.00000E+00
    0.00000E+00         0.00000E+00        -0.33598E+08
 
   -0.34672E+08         0.20664E+06         0.00000E+00
    0.20664E+06        -0.50007E+08         0.00000E+00
    0.00000E+00         0.00000E+00        -0.33598E+08
 
   -0.34665E+08         0.25322E+06         0.00000E+00
    0.25322E+06        -0.50010E+08         0.00000E+00
    0.00000E+00         0.00000E+00        -0.33597E+08
 
   -0.34656E+08         0.30010E+06         0.00000E+00
    0.30010E+06        -0.50014E+08         0.00000E+00
    0.00000E+00         0.00000E+00        -0.33596E+08
 
   -0.34646E+08         0.34732E+06         0.00000E+00
    0.34732E+06        -0.50019E+08         0.00000E+00
    0.00000E+00         0.00000E+00        -0.33595E+08
 
   -0.34635E+08         0.39490E+06         0.00000E+00
    0.39490E+06        -0.50024E+08         0.00000E+00
    0.00000E+00         0.00000E+00        -0.33594E+08
 
   -0.34623E+08         0.44286E+06         0.00000E+00
    0.44286E+06        -0.50030E+08         0.00000E+00
    0.00000E+00         0.00000E+00        -0.33593E+08
 
   -0.34609E+08         0.49123E+06         0.00000E+00
    0.49123E+06        -0.50037E+08         0.00000E+00
    0.00000E+00         0.00000E+00        -0.33591E+08
 
   -0.34595E+08         0.54004E+06         0.00000E+00
    0.54004E+06        -0.50044E+08         0.00000E+00
    0.00000E+00         0.00000E+00        -0.33590E+08
 
   -0.34579E+08         0.58931E+06         0.00000E+00
    0.58931E+06        -0.50051E+08         0.00000E+00
    0.00000E+00         0.00000E+00        -0.33588E+08
 
   -0.34562E+08         0.63905E+06         0.00000E+00
    0.63905E+06        -0.50059E+08         0.00000E+00
    0.00000E+00         0.00000E+00        -0.33586E+08
 
   -0.34545E+08         0.68929E+06         0.00000E+00
    0.68929E+06        -0.50068E+08         0.00000E+00
    0.00000E+00         0.00000E+00        -0.33585E+08
 
   -0.34526E+08         0.74005E+06         0.00000E+00
    0.74005E+06        -0.50077E+08         0.00000E+00
    0.00000E+00         0.00000E+00        -0.33583E+08
 
   -0.34506E+08         0.79134E+06         0.00000E+00
    0.79134E+06        -0.50087E+08         0.00000E+00
    0.00000E+00         0.00000E+00        -0.33581E+08
 
   -0.34485E+08         0.84318E+06         0.00000E+00
    0.84318E+06        -0.50097E+08         0.00000E+00
    0.00000E+00         0.00000E+00        -0.33578E+08
 
   -0.34463E+08         0.89558E+06         0.00000E+00
    0.89558E+06        -0.50107E+08         0.00000E+00
    0.00000E+00         0.00000E+00        -0.33576E+08
 
   -0.34441E+08         0.94855E+06         0.00000E+00
    0.94855E+06        -0.50118E+08         0.00000E+00
    0.00000E+00         0.00000E+00        -0.33574E+08
 
   -0.34417E+08         0.10021E+07         0.00000E+00
    0.10021E+07        -0.50129E+08         0.00000E+00
    0.00000E+00         0.00000E+00        -0.33571E+08
 
   -0.34393E+08         0.10563E+07         0.00000E+00
    0.10563E+07        -0.50141E+08         0.00000E+00
    0.00000E+00         0.00000E+00        -0.33569E+08
 
   -0.34368E+08         0.11110E+07         0.00000E+00
    0.11110E+07        -0.50153E+08         0.00000E+00
    0.00000E+00         0.00000E+00        -0.33566E+08
 
   -0.34342E+08         0.11664E+07         0.00000E+00
    0.11664E+07        -0.50165E+08         0.00000E+00
    0.00000E+00         0.00000E+00        -0.33564E+08
 
   -0.34316E+08         0.12224E+07         0.00000E+00
    0.12224E+07        -0.50178E+08         0.00000E+00
    0.00000E+00         0.00000E+00        -0.33561E+08
 
   -0.34289E+08         0.12791E+07         0.00000E+00
    0.12791E+07        -0.50191E+08         0.00000E+00
    0.00000E+00         0.00000E+00        -0.33558E+08
 
   -0.34261E+08         0.13363E+07         0.00000E+00
    0.13363E+07        -0.50204E+08         0.00000E+00
    0.00000E+00         0.00000E+00        -0.33555E+08
 
   -0.34232E+08         0.13942E+07         0.00000E+00
    0.13942E+07        -0.50218E+08         0.00000E+00
    0.00000E+00         0.00000E+00        -0.33552E+08
 
   -0.34203E+08         0.14528E+07         0.00000E+00
    0.14528E+07        -0.50232E+08         0.00000E+00
    0.00000E+00         0.00000E+00        -0.33549E+08
 
   -0.34173E+08         0.15120E+07         0.00000E+00
    0.15120E+07        -0.50246E+08         0.00000E+00
    0.00000E+00         0.00000E+00        -0.33546E+08
 
   -0.34143E+08         0.15718E+07         0.00000E+00
    0.15718E+07        -0.50260E+08         0.00000E+00
    0.00000E+00         0.00000E+00        -0.33543E+08
 
   -0.34112E+08         0.16323E+07         0.00000E+00
    0.16323E+07        -0.50275E+08         0.00000E+00
    0.00000E+00         0.00000E+00        -0.33539E+08
 
   -0.34081E+08         0.16935E+07         0.00000E+00
    0.16935E+07        -0.50289E+08         0.00000E+00
    0.00000E+00         0.00000E+00        -0.33536E+08
 
   -0.34049E+08         0.17553E+07         0.00000E+00
    0.17553E+07        -0.50304E+08         0.00000E+00
    0.00000E+00         0.00000E+00        -0.33533E+08
 
   -0.34017E+08         0.18178E+07         0.00000E+00
    0.18178E+07        -0.50320E+08         0.00000E+00
    0.00000E+00         0.00000E+00        -0.33529E+08
 
   -0.33984E+08         0.18809E+07         0.00000E+00
    0.18809E+07        -0.50335E+08         0.00000E+00
    0.00000E+00         0.00000E+00        -0.33526E+08
 
   -0.33951E+08         0.19446E+07         0.00000E+00
    0.19446E+07        -0.50350E+08         0.00000E+00
    0.00000E+00         0.00000E+00        -0.33522E+08
 
   -0.33917E+08         0.20090E+07         0.00000E+00
    0.20090E+07        -0.50366E+08         0.00000E+00
    0.00000E+00         0.00000E+00        -0.33519E+08
 
   -0.33883E+08         0.20740E+07         0.00000E+00
    0.20740E+07        -0.50382E+08         0.00000E+00
    0.00000E+00         0.00000E+00        -0.33515E+08
 
   -0.33849E+08         0.21397E+07         0.00000E+00
    0.21397E+07        -0.50398E+08         0.00000E+00
    0.00000E+00         0.00000E+00        -0.33511E+08
 
   -0.33814E+08         0.22060E+07         0.00000E+00
    0.22060E+07        -0.50414E+08         0.00000E+00
    0.00000E+00         0.00000E+00        -0.33508E+08
 
   -0.33779E+08         0.22730E+07         0.00000E+00
    0.22730E+07        -0.50430E+08         0.00000E+00
    0.00000E+00         0.00000E+00        -0.33504E+08
 
   -0.33744E+08         0.23406E+07         0.00000E+00
    0.23406E+07        -0.50446E+08         0.00000E+00
    0.00000E+00         0.00000E+00        -0.33500E+08
 
   -0.33708E+08         0.24088E+07         0.00000E+00
    0.24088E+07        -0.50462E+08         0.00000E+00
    0.00000E+00         0.00000E+00        -0.33496E+08
 
   -0.33672E+08         0.24776E+07         0.00000E+00
    0.24776E+07        -0.50478E+08         0.00000E+00
    0.00000E+00         0.00000E+00        -0.33492E+08
 
   -0.33636E+08         0.25471E+07         0.00000E+00
    0.25471E+07        -0.50495E+08         0.00000E+00
    0.00000E+00         0.00000E+00        -0.33488E+08
 
   -0.33599E+08         0.26171E+07         0.00000E+00
    0.26171E+07        -0.50511E+08         0.00000E+00
    0.00000E+00         0.00000E+00        -0.33484E+08
 
   -0.33563E+08         0.26878E+07         0.00000E+00
    0.26878E+07        -0.50528E+08         0.00000E+00
    0.00000E+00         0.00000E+00        -0.33480E+08
 
   -0.33526E+08         0.27590E+07         0.00000E+00
    0.27590E+07        -0.50544E+08         0.00000E+00
    0.00000E+00         0.00000E+00        -0.33476E+08
 
   -0.33489E+08         0.28309E+07         0.00000E+00
    0.28309E+07        -0.50561E+08         0.00000E+00
    0.00000E+00         0.00000E+00        -0.33472E+08
 
   -0.34469E+08         0.20754E+05         0.00000E+00
    0.20754E+05        -0.50000E+08         0.00000E+00
    0.00000E+00         0.00000E+00        -0.33255E+08
 
   -0.34466E+08         0.62701E+05         0.00000E+00
    0.62701E+05        -0.50001E+08         0.00000E+00
    0.00000E+00         0.00000E+00        -0.33255E+08
 
   -0.34462E+08         0.10489E+06         0.00000E+00
    0.10489E+06        -0.50002E+08         0.00000E+00
    0.00000E+00         0.00000E+00        -0.33254E+08
 
   -0.34456E+08         0.14736E+06         0.00000E+00
    0.14736E+06        -0.50005E+08         0.00000E+00
    0.00000E+00         0.00000E+00        -0.33253E+08
 
   -0.34448E+08         0.19015E+06         0.00000E+00
    0.19015E+06        -0.50008E+08         0.00000E+00
    0.00000E+00         0.00000E+00        -0.33253E+08
 
   -0.34439E+08         0.23329E+06         0.00000E+00
    0.23329E+06        -0.50012E+08         0.00000E+00
    0.00000E+00         0.00000E+00        -0.33252E+08
 
   -0.34429E+08         0.27682E+06         0.00000E+00
    0.27682E+06        -0.50016E+08         0.00000E+00
    0.00000E+00         0.00000E+00        -0.33250E+08
 
   -0.34417E+08         0.32078E+06         0.00000E+00
    0.32078E+06        -0.50022E+08         0.00000E+00
    0.00000E+00         0.00000E+00        -0.33249E+08
 
   -0.34404E+08         0.36518E+06         0.00000E+00
    0.36518E+06        -0.50028E+08         0.00000E+00
    0.00000E+00         0.00000E+00        -0.33248E+08
 
   -0.34389E+08         0.41006E+06         0.00000E+00
    0.41006E+06        -0.50034E+08         0.00000E+00
    0.00000E+00         0.00000E+00        -0.33246E+08
 
   -0.34374E+08         0.45545E+06         0.00000E+00
    0.45545E+06        -0.50041E+08         0.00000E+00
    0.00000E+00         0.00000E+00        -0.33244E+08
 
   -0.34357E+08         0.50136E+06         0.00000E+00
    0.50136E+06        -0.50049E+08         0.00000E+00
    0.00000E+00         0.00000E+00        -0.33243E+08
 
   -0.34338E+08         0.54783E+06         0.00000E+00
    0.54783E+06        -0.50058E+08         0.00000E+00
    0.00000E+00         0.00000E+00        -0.33241E+08
 
   -0.34319E+08         0.59487E+06         0.00000E+00
    0.59487E+06        -0.50067E+08         0.00000E+00
    0.00000E+00         0.00000E+00        -0.33238E+08
 
   -0.34298E+08         0.64251E+06         0.00000E+00
    0.64251E+06        -0.50077E+08         0.00000E+00
    0.00000E+00         0.00000E+00        -0.33236E+08
 
   -0.34277E+08         0.69076E+06         0.00000E+00
    0.69076E+06        -0.50087E+08         0.00000E+00
    0.00000E+00         0.00000E+00        -0.33234E+08
 
   -0.34254E+08         0.73964E+06         0.00000E+00
    0.73964E+06        -0.50097E+08         0.00000E+00
    0.00000E+00         0.00000E+00        -0.33232E+08
 
   -0.34230E+08         0.78916E+06         0.00000E+00
    0.78916E+06        -0.50109E+08         0.00000E+00
    0.00000E+00         0.00000E+00        -0.33229E+08
 
   -0.34205E+08         0.83935E+06         0.00000E+00
    0.83935E+06        -0.50120E+08         0.00000E+00
    0.00000E+00         0.00000E+00        -0.33226E+08
 
   -0.34180E+08         0.89020E+06         0.00000E+00
    0.89020E+06        -0.50132E+08         0.00000E+00
    0.00000E+00         0.00000E+00        -0.33224E+08
 
   -0.34153E+08         0.94173E+06         0.00000E+00
    0.94173E+06        -0.50145E+08         0.00000E+00
    0.00000E+00         0.00000E+00        -0.33221E+08
 
   -0.34126E+08         0.99396E+06         0.00000E+00
    0.99396E+06        -0.50158E+08         0.00000E+00
    0.00000E+00         0.00000E+00        -0.33218E+08
 
   -0.34097E+08         0.10469E+07         0.00000E+00
    0.10469E+07        -0.50171E+08         0.00000E+00
    0.00000E+00         0.00000E+00        -0.33215E+08
 
   -0.34068E+08         0.11005E+07         0.00000E+00
    0.11005E+07        -0.50185E+08         0.00000E+00
    0.00000E+00         0.00000E+00        -0.33212E+08
 
   -0.34038E+08         0.11549E+07         0.00000E+00
    0.11549E+07        -0.50199E+08         0.00000E+00
    0.00000E+00         0.00000E+00        -0.33209E+08
 
   -0.34008E+08         0.12099E+07         0.00000E+00
    0.12099E+07        -0.50213E+08         0.00000E+00
    0.00000E+00         0.00000E+00        -0.33205E+08
 
   -0.33976E+08         0.12657E+07         0.00000E+00
    0.12657E+07        -0.50228E+08         0.00000E+00
    0.00000E+00         0.00000E+00        -0.33202E+08
 
   -0.33944E+08         0.13222E+07         0.00000E+00
    0.13222E+07        -0.50243E+08         0.00000E+00
    0.00000E+00         0.00000E+00        -0.33199E+08
 
   -0.33912E+08         0.13794E+07         0.00000E+00
    0.13794E+07        -0.50258E+08         0.00000E+00
    0.00000E+00         0.00000E+00        -0.33195E+08
 
   -0.33879E+08         0.14374E+07         0.00000E+00
    0.14374E+07        -0.50274E+08         0.00000E+00
    0.00000E+00         0.00000E+00        -0.33192E+08
 
   -0.33845E+08         0.14961E+07         0.00000E+00
    0.14961E+07        -0.50289E+08         0.00000E+00
    0.00000E+00         0.00000E+00        -0.33188E+08
 
   -0.33811E+08         0.15555E+07         0.00000E+00
    0.15555E+07        -0.50305E+08         0.00000E+00
    0.00000E+00         0.00000E+00        -0.33185E+08
 
   -0.33776E+08         0.16157E+07         0.00000E+00
    0.16157E+07        -0.50321E+08         0.00000E+00
    0.00000E+00         0.00000E+00        -0.33181E+08
 
   -0.33740E+08         0.16765E+07         0.00000E+00
    0.16765E+07        -0.50338E+08         0.00000E+00
    0.00000E+00         0.00000E+00        -0.33177E+08
 
   -0.33705E+08         0.17381E+07         0.00000E+00
    0.17381E+07        -0.50354E+08         0.00000E+00
    0.00000E+00         0.00000E+00        -0.33173E+08
 
   -0.33669E+08         0.18004E+07         0.00000E+00
    0.18004E+07        -0.50371E+08         0.00000E+00
    0.00000E+00         0.00000E+00        -0.33169E+08
 
   -0.33632E+08         0.18634E+07         0.00000E+00
    0.18634E+07        -0.50388E+08         0.00000E+00
    0.00000E+00         0.00000E+00        -0.33165E+08
 
   -0.33595E+08         0.19271E+07         0.00000E+00
    0.19271E+07        -0.50405E+08         0.00000E+00
    0.00000E+00         0.00000E+00        -0.33161E+08
 
   -0.33558E+08         0.19916E+07         0.00000E+00
    0.19916E+07        -0.50422E+08         0.00000E+00
    0.00000E+00         0.00000E+00        -0.33157E+08
 
   -0.33520E+08         0.20567E+07         0.00000E+00
    0.20567E+07        -0.50440E+08         0.00000E+00
    0.00000E+00         0.00000E+00        -0.33153E+08
 
   -0.33482E+08         0.21225E+07         0.00000E+00
    0.21225E+07        -0.50457E+08         0.00000E+00
    0.00000E+00         0.00000E+00        -0.33149E+08
 
   -0.33444E+08         0.21890E+07         0.00000E+00
    0.21890E+07        -0.50474E+08         0.00000E+00
    0.00000E+00         0.00000E+00        -0.33145E+08
 
   -0.33405E+08         0.22561E+07         0.00000E+00
    0.22561E+07        -0.50492E+08         0.00000E+00
    0.00000E+00         0.00000E+00        -0.33141E+08
 
   -0.33366E+08         0.23240E+07         0.00000E+00
    0.23240E+07        -0.50510E+08         0.00000E+00
    0.00000E+00         0.00000E+00        -0.33136E+08
 
   -0.33327E+08         0.23924E+07         0.00000E+00
    0.23924E+07        -0.50527E+08         0.00000E+00
    0.00000E+00         0.00000E+00        -0.33132E+08
 
   -0.33288E+08         0.24616E+07         0.00000E+00
    0.24616E+07        -0.50545E+08         0.00000E+00
    0.00000E+00         0.00000E+00        -0.33128E+08
 
   -0.33248E+08         0.25314E+07         0.00000E+00
    0.25314E+07        -0.50563E+08         0.00000E+00
    0.00000E+00         0.00000E+00        -0.33124E+08
 
   -0.33208E+08         0.26018E+07         0.00000E+00
    0.26018E+07        -0.50581E+08         0.00000E+00
    0.00000E+00         0.00000E+00        -0.33119E+08
 
   -0.33168E+08         0.26728E+07         0.00000E+00
    0.26728E+07        -0.50599E+08         0.00000E+00
    0.00000E+00         0.00000E+00        -0.33115E+08
 
   -0.33128E+08         0.27445E+07         0.00000E+00
    0.27445E+07        -0.50616E+08         0.00000E+00
    0.00000E+00         0.00000E+00        -0.33110E+08
 
   -0.34270E+08         0.18516E+05         0.00000E+00
    0.18516E+05        -0.50000E+08         0.00000E+00
    0.00000E+00         0.00000E+00        -0.32915E+08
 
   -0.34266E+08         0.56198E+05         0.00000E+00
    0.56198E+05        -0.50001E+08         0.00000E+00
    0.00000E+00         0.00000E+00        -0.32914E+08
 
   -0.34260E+08         0.94218E+05         0.00000E+00
    0.94218E+05        -0.50003E+08         0.00000E+00
    0.00000E+00         0.00000E+00        -0.32913E+08
 
   -0.34253E+08         0.13262E+06         0.00000E+00
    0.13262E+06        -0.50005E+08         0.00000E+00
    0.00000E+00         0.00000E+00        -0.32912E+08
 
   -0.34243E+08         0.17144E+06         0.00000E+00
    0.17144E+06        -0.50009E+08         0.00000E+00
    0.00000E+00         0.00000E+00        -0.32911E+08
 
   -0.34232E+08         0.21073E+06         0.00000E+00
    0.21073E+06        -0.50013E+08         0.00000E+00
    0.00000E+00         0.00000E+00        -0.32910E+08
 
   -0.34219E+08         0.25051E+06         0.00000E+00
    0.25051E+06        -0.50018E+08         0.00000E+00
    0.00000E+00         0.00000E+00        -0.32908E+08
 
   -0.34205E+08         0.29082E+06         0.00000E+00
    0.29082E+06        -0.50024E+08         0.00000E+00
    0.00000E+00         0.00000E+00        -0.32906E+08
 
   -0.34189E+08         0.33169E+06         0.00000E+00
    0.33169E+06        -0.50031E+08         0.00000E+00
    0.00000E+00         0.00000E+00        -0.32905E+08
 
   -0.34172E+08         0.37316E+06         0.00000E+00
    0.37316E+06        -0.50039E+08         0.00000E+00
    0.00000E+00         0.00000E+00        -0.32903E+08
 
   -0.34153E+08         0.41525E+06         0.00000E+00
    0.41525E+06        -0.50047E+08         0.00000E+00
    0.00000E+00         0.00000E+00        -0.32901E+08
 
   -0.34133E+08         0.45798E+06         0.00000E+00
    0.45798E+06        -0.50056E+08         0.00000E+00
    0.00000E+00         0.00000E+00        -0.32898E+08
 
   -0.34112E+08         0.50138E+06         0.00000E+00
    0.50138E+06        -0.50065E+08         0.00000E+00
    0.00000E+00         0.00000E+00        -0.32896E+08
 
   -0.34089E+08         0.54547E+06         0.00000E+00
    0.54547E+06        -0.50075E+08         0.00000E+00
    0.00000E+00         0.00000E+00        -0.32894E+08
 
   -0.34066E+08         0.59027E+06         0.00000E+00
    0.59027E+06        -0.50086E+08         0.00000E+00
    0.00000E+00         0.00000E+00        -0.32891E+08
 
   -0.34040E+08         0.63580E+06         0.00000E+00
    0.63580E+06        -0.50097E+08         0.00000E+00
    0.00000E+00         0.00000E+00        -0.32888E+08
 
   -0.34014E+08         0.68207E+06         0.00000E+00
    0.68207E+06        -0.50109E+08         0.00000E+00
    0.00000E+00         0.00000E+00        -0.32885E+08
 
   -0.33987E+08         0.72909E+06         0.00000E+00
    0.72909E+06        -0.50122E+08         0.00000E+00
    0.00000E+00         0.00000E+00        -0.32882E+08
 
   -0.33959E+08         0.77689E+06         0.00000E+00
    0.77689E+06        -0.50134E+08         0.00000E+00
    0.00000E+00         0.00000E+00        -0.32879E+08
 
   -0.33929E+08         0.82547E+06         0.00000E+00
    0.82547E+06        -0.50148E+08         0.00000E+00
    0.00000E+00         0.00000E+00        -0.32876E+08
 
   -0.33899E+08         0.87483E+06         0.00000E+00
    0.87483E+06        -0.50162E+08         0.00000E+00
    0.00000E+00         0.00000E+00        -0.32873E+08
 
   -0.33868E+08         0.92500E+06         0.00000E+00
    0.92500E+06        -0.50176E+08         0.00000E+00
    0.00000E+00         0.00000E+00        -0.32869E+08
 
   -0.33836E+08         0.97597E+06         0.00000E+00
    0.97597E+06        -0.50191E+08         0.00000E+00
    0.00000E+00         0.00000E+00        -0.32866E+08
 
   -0.33803E+08         0.10278E+07         0.00000E+00
    0.10278E+07        -0.50206E+08         0.00000E+00
    0.00000E+00         0.00000E+00        -0.32862E+08
 
   -0.33769E+08         0.10803E+07         0.00000E+00
    0.10803E+07        -0.50221E+08         0.00000E+00
    0.00000E+00         0.00000E+00        -0.32859E+08
 
   -0.33735E+08         0.11338E+07         0.00000E+00
    0.11338E+07        -0.50237E+08         0.00000E+00
    0.00000E+00         0.00000E+00        -0.32855E+08
 
   -0.33699E+08         0.11880E+07         0.00000E+00
    0.11880E+07        -0.50253E+08         0.00000E+00
    0.00000E+00         0.00000E+00        -0.32851E+08
 
   -0.33664E+08         0.12430E+07         0.00000E+00
    0.12430E+07        -0.50270E+08         0.00000E+00
    0.00000E+00         0.00000E+00        -0.32847E+08
 
   -0.33627E+08         0.12989E+07         0.00000E+00
    0.12989E+07        -0.50286E+08         0.00000E+00
    0.00000E+00         0.00000E+00        -0.32843E+08
 
   -0.33590E+08         0.13556E+07         0.00000E+00
    0.13556E+07        -0.50303E+08         0.00000E+00
    0.00000E+00         0.00000E+00        -0.32839E+08
 
   -0.33552E+08         0.14131E+07         0.00000E+00
    0.14131E+07        -0.50321E+08         0.00000E+00
    0.00000E+00         0.00000E+00        -0.32835E+08
 
   -0.33514E+08         0.14714E+07         0.00000E+00
    0.14714E+07        -0.50338E+08         0.00000E+00
    0.00000E+00         0.00000E+00        -0.32831E+08
 
   -0.33476E+08         0.15305E+07         0.00000E+00
    0.15305E+07        -0.50356E+08         0.00000E+00
    0.00000E+00         0.00000E+00        -0.32827E+08
 
   -0.33437E+08         0.15905E+07         0.00000E+00
    0.15905E+07        -0.50374E+08         0.00000E+00
    0.00000E+00         0.00000E+00        -0.32823E+08
 
   -0.33397E+08         0.16512E+07         0.00000E+00
    0.16512E+07        -0.50392E+08         0.00000E+00
    0.00000E+00         0.00000E+00        -0.32818E+08
 
   -0.33357E+08         0.17127E+07         0.00000E+00
    0.17127E+07        -0.50410E+08         0.00000E+00
    0.00000E+00         0.00000E+00        -0.32814E+08
 
   -0.33317E+08         0.17750E+07         0.00000E+00
    0.17750E+07        -0.50428E+08         0.00000E+00
    0.00000E+00         0.00000E+00        -0.32810E+08
 
   -0.33276E+08         0.18380E+07         0.00000E+00
    0.18380E+07        -0.50447E+08         0.00000E+00
    0.00000E+00         0.00000E+00        -0.32805E+08
 
   -0.33235E+08         0.19019E+07         0.00000E+00
    0.19019E+07        -0.50465E+08         0.00000E+00
    0.00000E+00         0.00000E+00        -0.32801E+08
 
   -0.33194E+08         0.19664E+07         0.00000E+00
    0.19664E+07        -0.50484E+08         0.00000E+00
    0.00000E+00         0.00000E+00        -0.32796E+08
 
   -0.33152E+08         0.20318E+07         0.00000E+00
    0.20318E+07        -0.50503E+08         0.00000E+00
    0.00000E+00         0.00000E+00        -0.32792E+08
 
   -0.33111E+08         0.20978E+07         0.00000E+00
    0.20978E+07        -0.50522E+08         0.00000E+00
    0.00000E+00         0.00000E+00        -0.32787E+08
 
   -0.33069E+08         0.21646E+07         0.00000E+00
    0.21646E+07        -0.50541E+08         0.00000E+00
    0.00000E+00         0.00000E+00        -0.32782E+08
 
   -0.33026E+08         0.22321E+07         0.00000E+00
    0.22321E+07        -0.50560E+08         0.00000E+00
    0.00000E+00         0.00000E+00        -0.32778E+08
 
   -0.32984E+08         0.23003E+07         0.00000E+00
    0.23003E+07        -0.50579E+08         0.00000E+00
    0.00000E+00         0.00000E+00        -0.32773E+08
 
   -0.32941E+08         0.23692E+07         0.00000E+00
    0.23692E+07        -0.50598E+08         0.00000E+00
    0.00000E+00         0.00000E+00        -0.32768E+08
 
   -0.32898E+08         0.24387E+07         0.00000E+00
    0.24387E+07        -0.50617E+08         0.00000E+00
    0.00000E+00         0.00000E+00        -0.32764E+08
 
   -0.32855E+08         0.25090E+07         0.00000E+00
    0.25090E+07        -0.50637E+08         0.00000E+00
    0.00000E+00         0.00000E+00        -0.32759E+08
 
   -0.32812E+08         0.25798E+07         0.00000E+00
    0.25798E+07        -0.50656E+08         0.00000E+00
    0.00000E+00         0.00000E+00        -0.32754E+08
 
   -0.32769E+08         0.26514E+07         0.00000E+00
    0.26514E+07        -0.50675E+08         0.00000E+00
    0.00000E+00         0.00000E+00        -0.32749E+08
 
   -0.34095E+08         0.15955E+05         0.00000E+00
    0.15955E+05        -0.50000E+08         0.00000E+00
    0.00000E+00         0.00000E+00        -0.32579E+08
 
   -0.34089E+08         0.48800E+05         0.00000E+00
    0.48800E+05        -0.50001E+08         0.00000E+00
    0.00000E+00         0.00000E+00        -0.32578E+08
 
   -0.34081E+08         0.82110E+05         0.00000E+00
    0.82110E+05        -0.50003E+08         0.00000E+00
    0.00000E+00         0.00000E+00        -0.32577E+08
 
   -0.34071E+08         0.11593E+06         0.00000E+00
    0.11593E+06        -0.50006E+08         0.00000E+00
    0.00000E+00         0.00000E+00        -0.32575E+08
 
   -0.34059E+08         0.15031E+06         0.00000E+00
    0.15031E+06        -0.50010E+08         0.00000E+00
    0.00000E+00         0.00000E+00        -0.32574E+08
 
   -0.34045E+08         0.18528E+06         0.00000E+00
    0.18528E+06        -0.50015E+08         0.00000E+00
    0.00000E+00         0.00000E+00        -0.32572E+08
 
   -0.34029E+08         0.22088E+06         0.00000E+00
    0.22088E+06        -0.50021E+08         0.00000E+00
    0.00000E+00         0.00000E+00        -0.32570E+08
 
   -0.34012E+08         0.25716E+06         0.00000E+00
    0.25716E+06        -0.50027E+08         0.00000E+00
    0.00000E+00         0.00000E+00        -0.32568E+08
 
   -0.33993E+08         0.29413E+06         0.00000E+00
    0.29413E+06        -0.50035E+08         0.00000E+00
    0.00000E+00         0.00000E+00        -0.32565E+08
 
   -0.33972E+08         0.33184E+06         0.00000E+00
    0.33184E+06        -0.50043E+08         0.00000E+00
    0.00000E+00         0.00000E+00        -0.32563E+08
 
   -0.33950E+08         0.37030E+06         0.00000E+00
    0.37030E+06        -0.50052E+08         0.00000E+00
    0.00000E+00         0.00000E+00        -0.32560E+08
 
   -0.33927E+08         0.40955E+06         0.00000E+00
    0.40955E+06        -0.50062E+08         0.00000E+00
    0.00000E+00         0.00000E+00        -0.32558E+08
 
   -0.33901E+08         0.44961E+06         0.00000E+00
    0.44961E+06        -0.50073E+08         0.00000E+00
    0.00000E+00         0.00000E+00        -0.32555E+08
 
   -0.33875E+08         0.49049E+06         0.00000E+00
    0.49049E+06        -0.50084E+08         0.00000E+00
    0.00000E+00         0.00000E+00        -0.32552E+08
 
   -0.33847E+08         0.53221E+06         0.00000E+00
    0.53221E+06        -0.50096E+08         0.00000E+00
    0.00000E+00         0.00000E+00        -0.32548E+08
 
   -0.33818E+08         0.57480E+06         0.00000E+00
    0.57480E+06        -0.50109E+08         0.00000E+00
    0.00000E+00         0.00000E+00        -0.32545E+08
 
   -0.33788E+08         0.61826E+06         0.00000E+00
    0.61826E+06        -0.50122E+08         0.00000E+00
    0.00000E+00         0.00000E+00        -0.32542E+08
 
   -0.33756E+08         0.66261E+06         0.00000E+00
    0.66261E+06        -0.50135E+08         0.00000E+00
    0.00000E+00         0.00000E+00        -0.32538E+08
 
   -0.33724E+08         0.70786E+06         0.00000E+00
    0.70786E+06        -0.50150E+08         0.00000E+00
    0.00000E+00         0.00000E+00        -0.32535E+08
 
   -0.33690E+08         0.75401E+06         0.00000E+00
    0.75401E+06        -0.50164E+08         0.00000E+00
    0.00000E+00         0.00000E+00        -0.32531E+08
 
   -0.33656E+08         0.80108E+06         0.00000E+00
    0.80108E+06        -0.50180E+08         0.00000E+00
    0.00000E+00         0.00000E+00        -0.32527E+08
 
   -0.33620E+08         0.84906E+06         0.00000E+00
    0.84906E+06        -0.50195E+08         0.00000E+00
    0.00000E+00         0.00000E+00        -0.32523E+08
 
   -0.33584E+08         0.89798E+06         0.00000E+00
    0.89798E+06        -0.50211E+08         0.00000E+00
    0.00000E+00         0.00000E+00        -0.32519E+08
 
   -0.33546E+08         0.94781E+06         0.00000E+00
    0.94781E+06        -0.50228E+08         0.00000E+00
    0.00000E+00         0.00000E+00        -0.32515E+08
 
   -0.33508E+08         0.99858E+06         0.00000E+00
    0.99858E+06        -0.50245E+08         0.00000E+00
    0.00000E+00         0.00000E+00        -0.32510E+08
 
   -0.33470E+08         0.10503E+07         0.00000E+00
    0.10503E+07        -0.50262E+08         0.00000E+00
    0.00000E+00         0.00000E+00        -0.32506E+08
 
   -0.33430E+08         0.11029E+07         0.00000E+00
    0.11029E+07        -0.50280E+08         0.00000E+00
    0.00000E+00         0.00000E+00        -0.32502E+08
 
   -0.33390E+08         0.11564E+07         0.00000E+00
    0.11564E+07        -0.50298E+08         0.00000E+00
    0.00000E+00         0.00000E+00        -0.32497E+08
 
   -0.33349E+08         0.12109E+07         0.00000E+00
    0.12109E+07        -0.50316E+08         0.00000E+00
    0.00000E+00         0.00000E+00        -0.32493E+08
 
   -0.33308E+08         0.12663E+07         0.00000E+00
    0.12663E+07        -0.50335E+08         0.00000E+00
    0.00000E+00         0.00000E+00        -0.32488E+08
 
   -0.33266E+08         0.13226E+07         0.00000E+00
    0.13226E+07        -0.50353E+08         0.00000E+00
    0.00000E+00         0.00000E+00        -0.32484E+08
 
   -0.33223E+08         0.13798E+07         0.00000E+00
    0.13798E+07        -0.50372E+08         0.00000E+00
    0.00000E+00         0.00000E+00        -0.32479E+08
 
   -0.33181E+08         0.14378E+07         0.00000E+00
    0.14378E+07        -0.50392E+08         0.00000E+00
    0.00000E+00         0.00000E+00        -0.32474E+08
 
   -0.33137E+08         0.14968E+07         0.00000E+00
    0.14968E+07        -0.50411E+08         0.00000E+00
    0.00000E+00         0.00000E+00        -0.32469E+08
 
   -0.33094E+08         0.15567E+07         0.00000E+00
    0.15567E+07        -0.50431E+08         0.00000E+00
    0.00000E+00         0.00000E+00        -0.32465E+08
 
   -0.33050E+08         0.16174E+07         0.00000E+00
    0.16174E+07        -0.50450E+08         0.00000E+00
    0.00000E+00         0.00000E+00        -0.32460E+08
 
   -0.33005E+08         0.16790E+07         0.00000E+00
    0.16790E+07        -0.50470E+08         0.00000E+00
    0.00000E+00         0.00000E+00        -0.32455E+08
 
   -0.32961E+08         0.17414E+07         0.00000E+00
    0.17414E+07        -0.50490E+08         0.00000E+00
    0.00000E+00         0.00000E+00        -0.32450E+08
 
   -0.32916E+08         0.18047E+07         0.00000E+00
    0.18047E+07        -0.50510E+08         0.00000E+00
    0.00000E+00         0.00000E+00        -0.32445E+08
 
   -0.32870E+08         0.18687E+07         0.00000E+00
    0.18687E+07        -0.50531E+08         0.00000E+00
    0.00000E+00         0.00000E+00        -0.32440E+08
 
   -0.32825E+08         0.19336E+07         0.00000E+00
    0.19336E+07        -0.50551E+08         0.00000E+00
    0.00000E+00         0.00000E+00        -0.32435E+08
 
   -0.32779E+08         0.19993E+07         0.00000E+00
    0.19993E+07        -0.50571E+08         0.00000E+00
    0.00000E+00         0.00000E+00        -0.32430E+08
 
   -0.32734E+08         0.20658E+07         0.00000E+00
    0.20658E+07        -0.50592E+08         0.00000E+00
    0.00000E+00         0.00000E+00        -0.32425E+08
 
   -0.32688E+08         0.21330E+07         0.00000E+00
    0.21330E+07        -0.50612E+08         0.00000E+00
    0.00000E+00         0.00000E+00        -0.32420E+08
 
   -0.32642E+08         0.22009E+07         0.00000E+00
    0.22009E+07        -0.50633E+08         0.00000E+00
    0.00000E+00         0.00000E+00        -0.32415E+08
 
   -0.32595E+08         0.22696E+07         0.00000E+00
    0.22696E+07        -0.50654E+08         0.00000E+00
    0.00000E+00         0.00000E+00        -0.32410E+08
 
   -0.32549E+08         0.23390E+07         0.00000E+00
    0.23390E+07        -0.50674E+08         0.00000E+00
    0.00000E+00         0.00000E+00        -0.32405E+08
 
   -0.32503E+08         0.24091E+07         0.00000E+00
    0.24091E+07        -0.50695E+08         0.00000E+00
    0.00000E+00         0.00000E+00        -0.32399E+08
 
   -0.32456E+08         0.24798E+07         0.00000E+00
    0.24798E+07        -0.50716E+08         0.00000E+00
    0.00000E+00         0.00000E+00        -0.32394E+08
 
   -0.32410E+08         0.25513E+07         0.00000E+00
    0.25513E+07        -0.50736E+08         0.00000E+00
    0.00000E+00         0.00000E+00        -0.32389E+08
 
   -0.33945E+08         0.13039E+05         0.00000E+00
    0.13039E+05        -0.50000E+08         0.00000E+00
    0.00000E+00         0.00000E+00        -0.32248E+08
 
   -0.33937E+08         0.40428E+05         0.00000E+00
    0.40428E+05        -0.50001E+08         0.00000E+00
    0.00000E+00         0.00000E+00        -0.32247E+08
 
   -0.33926E+08         0.68447E+05         0.00000E+00
    0.68447E+05        -0.50003E+08         0.00000E+00
    0.00000E+00         0.00000E+00        -0.32245E+08
 
   -0.33913E+08         0.97144E+05         0.00000E+00
    0.97144E+05        -0.50007E+08         0.00000E+00
    0.00000E+00         0.00000E+00        -0.32243E+08
 
   -0.33897E+08         0.12656E+06         0.00000E+00
    0.12656E+06        -0.50011E+08         0.00000E+00
    0.00000E+00         0.00000E+00        -0.32241E+08
 
   -0.33880E+08         0.15675E+06         0.00000E+00
    0.15675E+06        -0.50017E+08         0.00000E+00
    0.00000E+00         0.00000E+00        -0.32238E+08
 
   -0.33861E+08         0.18774E+06         0.00000E+00
    0.18774E+06        -0.50023E+08         0.00000E+00
    0.00000E+00         0.00000E+00        -0.32236E+08
 
   -0.33840E+08         0.21956E+06         0.00000E+00
    0.21956E+06        -0.50031E+08         0.00000E+00
    0.00000E+00         0.00000E+00        -0.32233E+08
 
   -0.33817E+08         0.25226E+06         0.00000E+00
    0.25226E+06        -0.50039E+08         0.00000E+00
    0.00000E+00         0.00000E+00        -0.32230E+08
 
   -0.33792E+08         0.28586E+06         0.00000E+00
    0.28586E+06        -0.50048E+08         0.00000E+00
    0.00000E+00         0.00000E+00        -0.32227E+08
 
   -0.33765E+08         0.32038E+06         0.00000E+00
    0.32038E+06        -0.50059E+08         0.00000E+00
    0.00000E+00         0.00000E+00        -0.32224E+08
 
   -0.33737E+08         0.35584E+06         0.00000E+00
    0.35584E+06        -0.50069E+08         0.00000E+00
    0.00000E+00         0.00000E+00        -0.32220E+08
 
   -0.33708E+08         0.39228E+06         0.00000E+00
    0.39228E+06        -0.50081E+08         0.00000E+00
    0.00000E+00         0.00000E+00        -0.32217E+08
 
   -0.33677E+08         0.42970E+06         0.00000E+00
    0.42970E+06        -0.50093E+08         0.00000E+00
    0.00000E+00         0.00000E+00        -0.32213E+08
 
   -0.33644E+08         0.46812E+06         0.00000E+00
    0.46812E+06        -0.50107E+08         0.00000E+00
    0.00000E+00         0.00000E+00        -0.32209E+08
 
   -0.33611E+08         0.50756E+06         0.00000E+00
    0.50756E+06        -0.50120E+08         0.00000E+00
    0.00000E+00         0.00000E+00        -0.32205E+08
 
   -0.33576E+08         0.54803E+06         0.00000E+00
    0.54803E+06        -0.50135E+08         0.00000E+00
    0.00000E+00         0.00000E+00        -0.32201E+08
 
   -0.33539E+08         0.58952E+06         0.00000E+00
    0.58952E+06        -0.50150E+08         0.00000E+00
    0.00000E+00         0.00000E+00        -0.32197E+08
 
   -0.33502E+08         0.63207E+06         0.00000E+00
    0.63207E+06        -0.50165E+08         0.00000E+00
    0.00000E+00         0.00000E+00        -0.32193E+08
 
   -0.33463E+08         0.67565E+06         0.00000E+00
    0.67565E+06        -0.50181E+08         0.00000E+00
    0.00000E+00         0.00000E+00        -0.32188E+08
 
   -0.33424E+08         0.72029E+06         0.00000E+00
    0.72029E+06        -0.50198E+08         0.00000E+00
    0.00000E+00         0.00000E+00        -0.32183E+08
 
   -0.33383E+08         0.76599E+06         0.00000E+00
    0.76599E+06        -0.50215E+08         0.00000E+00
    0.00000E+00         0.00000E+00        -0.32179E+08
 
   -0.33342E+08         0.81274E+06         0.00000E+00
    0.81274E+06        -0.50233E+08         0.00000E+00
    0.00000E+00         0.00000E+00        -0.32174E+08
 
   -0.33300E+08         0.86054E+06         0.00000E+00
    0.86054E+06        -0.50251E+08         0.00000E+00
    0.00000E+00         0.00000E+00        -0.32169E+08
 
   -0.33257E+08         0.90939E+06         0.00000E+00
    0.90939E+06        -0.50269E+08         0.00000E+00
    0.00000E+00         0.00000E+00        -0.32164E+08
 
   -0.33213E+08         0.95929E+06         0.00000E+00
    0.95929E+06        -0.50288E+08         0.00000E+00
    0.00000E+00         0.00000E+00        -0.32159E+08
 
   -0.33169E+08         0.10102E+07         0.00000E+00
    0.10102E+07        -0.50307E+08         0.00000E+00
    0.00000E+00         0.00000E+00        -0.32154E+08
 
   -0.33124E+08         0.10622E+07         0.00000E+00
    0.10622E+07        -0.50326E+08         0.00000E+00
    0.00000E+00         0.00000E+00        -0.32149E+08
 
   -0.33078E+08         0.11152E+07         0.00000E+00
    0.11152E+07        -0.50346E+08         0.00000E+00
    0.00000E+00         0.00000E+00        -0.32144E+08
 
   -0.33032E+08         0.11693E+07         0.00000E+00
    0.11693E+07        -0.50366E+08         0.00000E+00
    0.00000E+00         0.00000E+00        -0.32139E+08
 
   -0.32985E+08         0.12243E+07         0.00000E+00
    0.12243E+07        -0.50387E+08         0.00000E+00
    0.00000E+00         0.00000E+00        -0.32133E+08
 
   -0.32938E+08         0.12804E+07         0.00000E+00
    0.12804E+07        -0.50407E+08         0.00000E+00
    0.00000E+00         0.00000E+00        -0.32128E+08
 
   -0.32890E+08         0.13374E+07         0.00000E+00
    0.13374E+07        -0.50428E+08         0.00000E+00
    0.00000E+00         0.00000E+00        -0.32123E+08
 
   -0.32843E+08         0.13954E+07         0.00000E+00
    0.13954E+07        -0.50449E+08         0.00000E+00
    0.00000E+00         0.00000E+00        -0.32117E+08
 
   -0.32794E+08         0.14544E+07         0.00000E+00
    0.14544E+07        -0.50470E+08         0.00000E+00
    0.00000E+00         0.00000E+00        -0.32112E+08
 
   -0.32746E+08         0.15144E+07         0.00000E+00
    0.15144E+07        -0.50491E+08         0.00000E+00
    0.00000E+00         0.00000E+00        -0.32106E+08
 
   -0.32697E+08         0.15752E+07         0.00000E+00
    0.15752E+07        -0.50513E+08         0.00000E+00
    0.00000E+00         0.00000E+00        -0.32101E+08
 
   -0.32648E+08         0.16371E+07         0.00000E+00
    0.16371E+07        -0.50534E+08         0.00000E+00
    0.00000E+00         0.00000E+00        -0.32096E+08
 
   -0.32599E+08         0.16998E+07         0.00000E+00
    0.16998E+07        -0.50556E+08         0.00000E+00
    0.00000E+00         0.00000E+00        -0.32090E+08
 
   -0.32549E+08         0.17634E+07         0.00000E+00
    0.17634E+07        -0.50578E+08         0.00000E+00
    0.00000E+00         0.00000E+00        -0.32084E+08
 
   -0.32500E+08         0.18279E+07         0.00000E+00
    0.18279E+07        -0.50600E+08         0.00000E+00
    0.00000E+00         0.00000E+00        -0.32079E+08
 
   -0.32450E+08         0.18932E+07         0.00000E+00
    0.18932E+07        -0.50622E+08         0.00000E+00
    0.00000E+00         0.00000E+00        -0.32073E+08
 
   -0.32400E+08         0.19594E+07         0.00000E+00
    0.19594E+07        -0.50644E+08         0.00000E+00
    0.00000E+00         0.00000E+00        -0.32068E+08
 
   -0.32350E+08         0.20264E+07         0.00000E+00
    0.20264E+07        -0.50666E+08         0.00000E+00
    0.00000E+00         0.00000E+00        -0.32062E+08
 
   -0.32301E+08         0.20941E+07         0.00000E+00
    0.20941E+07        -0.50688E+08         0.00000E+00
    0.00000E+00         0.00000E+00        -0.32057E+08
 
   -0.32251E+08         0.21627E+07         0.00000E+00
    0.21627E+07        -0.50710E+08         0.00000E+00
    0.00000E+00         0.00000E+00        -0.32051E+08
 
   -0.32201E+08         0.22320E+07         0.00000E+00
    0.22320E+07        -0.50732E+08         0.00000E+00
    0.00000E+00         0.00000E+00        -0.32046E+08
 
   -0.32151E+08         0.23020E+07         0.00000E+00
    0.23020E+07        -0.50754E+08         0.00000E+00
    0.00000E+00         0.00000E+00        -0.32040E+08
 
   -0.32101E+08         0.23727E+07         0.00000E+00
    0.23727E+07        -0.50777E+08         0.00000E+00
    0.00000E+00         0.00000E+00        -0.32035E+08
 
   -0.32051E+08         0.24441E+07         0.00000E+00
    0.24441E+07        -0.50799E+08         0.00000E+00
    0.00000E+00         0.00000E+00        -0.32029E+08
 
   -0.33825E+08         0.97399E+04         0.00000E+00
    0.97399E+04        -0.50000E+08         0.00000E+00
    0.00000E+00         0.00000E+00        -0.31923E+08
 
   -0.33813E+08         0.31022E+05         0.00000E+00
    0.31022E+05        -0.50001E+08         0.00000E+00
    0.00000E+00         0.00000E+00        -0.31921E+08
 
   -0.33798E+08         0.53144E+05         0.00000E+00
    0.53144E+05        -0.50004E+08         0.00000E+00
    0.00000E+00         0.00000E+00        -0.31919E+08
 
   -0.33781E+08         0.76156E+05         0.00000E+00
    0.76156E+05        -0.50007E+08         0.00000E+00
    0.00000E+00         0.00000E+00        -0.31916E+08
 
   -0.33762E+08         0.10010E+06         0.00000E+00
    0.10010E+06        -0.50012E+08         0.00000E+00
    0.00000E+00         0.00000E+00        -0.31913E+08
 
   -0.33740E+08         0.12502E+06         0.00000E+00
    0.12502E+06        -0.50019E+08         0.00000E+00
    0.00000E+00         0.00000E+00        -0.31910E+08
 
   -0.33716E+08         0.15096E+06         0.00000E+00
    0.15096E+06        -0.50026E+08         0.00000E+00
    0.00000E+00         0.00000E+00        -0.31907E+08
 
   -0.33690E+08         0.17793E+06         0.00000E+00
    0.17793E+06        -0.50034E+08         0.00000E+00
    0.00000E+00         0.00000E+00        -0.31903E+08
 
   -0.33662E+08         0.20598E+06         0.00000E+00
    0.20598E+06        -0.50043E+08         0.00000E+00
    0.00000E+00         0.00000E+00        -0.31899E+08
 
   -0.33632E+08         0.23513E+06         0.00000E+00
    0.23513E+06        -0.50054E+08         0.00000E+00
    0.00000E+00         0.00000E+00        -0.31895E+08
 
   -0.33601E+08         0.26540E+06         0.00000E+00
    0.26540E+06        -0.50065E+08         0.00000E+00
    0.00000E+00         0.00000E+00        -0.31891E+08
 
   -0.33568E+08         0.29681E+06         0.00000E+00
    0.29681E+06        -0.50077E+08         0.00000E+00
    0.00000E+00         0.00000E+00        -0.31887E+08
 
   -0.33533E+08         0.32937E+06         0.00000E+00
    0.32937E+06        -0.50089E+08         0.00000E+00
    0.00000E+00         0.00000E+00        -0.31883E+08
 
   -0.33496E+08         0.36310E+06         0.00000E+00
    0.36310E+06        -0.50103E+08         0.00000E+00
    0.00000E+00         0.00000E+00        -0.31878E+08
 
   -0.33458E+08         0.39802E+06         0.00000E+00
    0.39802E+06        -0.50117E+08         0.00000E+00
    0.00000E+00         0.00000E+00        -0.31873E+08
 
   -0.33419E+08         0.43412E+06         0.00000E+00
    0.43412E+06        -0.50132E+08         0.00000E+00
    0.00000E+00         0.00000E+00        -0.31868E+08
 
   -0.33378E+08         0.47142E+06         0.00000E+00
    0.47142E+06        -0.50148E+08         0.00000E+00
    0.00000E+00         0.00000E+00        -0.31863E+08
 
   -0.33336E+08         0.50991E+06         0.00000E+00
    0.50991E+06        -0.50164E+08         0.00000E+00
    0.00000E+00         0.00000E+00        -0.31858E+08
 
   -0.33293E+08         0.54961E+06         0.00000E+00
    0.54961E+06        -0.50181E+08         0.00000E+00
    0.00000E+00         0.00000E+00        -0.31853E+08
 
   -0.33249E+08         0.59050E+06         0.00000E+00
    0.59050E+06        -0.50198E+08         0.00000E+00
    0.00000E+00         0.00000E+00        -0.31848E+08
 
   -0.33204E+08         0.63260E+06         0.00000E+00
    0.63260E+06        -0.50216E+08         0.00000E+00
    0.00000E+00         0.00000E+00        -0.31842E+08
 
   -0.33158E+08         0.67589E+06         0.00000E+00
    0.67589E+06        -0.50235E+08         0.00000E+00
    0.00000E+00         0.00000E+00        -0.31837E+08
 
   -0.33111E+08         0.72038E+06         0.00000E+00
    0.72038E+06        -0.50254E+08         0.00000E+00
    0.00000E+00         0.00000E+00        -0.31831E+08
 
   -0.33063E+08         0.76606E+06         0.00000E+00
    0.76606E+06        -0.50273E+08         0.00000E+00
    0.00000E+00         0.00000E+00        -0.31826E+08
 
   -0.33015E+08         0.81292E+06         0.00000E+00
    0.81292E+06        -0.50293E+08         0.00000E+00
    0.00000E+00         0.00000E+00        -0.31820E+08
 
   -0.32966E+08         0.86095E+06         0.00000E+00
    0.86095E+06        -0.50313E+08         0.00000E+00
    0.00000E+00         0.00000E+00        -0.31814E+08
 
   -0.32916E+08         0.91014E+06         0.00000E+00
    0.91014E+06        -0.50334E+08         0.00000E+00
    0.00000E+00         0.00000E+00        -0.31808E+08
 
   -0.32865E+08         0.96050E+06         0.00000E+00
    0.96050E+06        -0.50354E+08         0.00000E+00
    0.00000E+00         0.00000E+00        -0.31802E+08
 
   -0.32814E+08         0.10120E+07         0.00000E+00
    0.10120E+07        -0.50376E+08         0.00000E+00
    0.00000E+00         0.00000E+00        -0.31796E+08
 
   -0.32763E+08         0.10646E+07         0.00000E+00
    0.10646E+07        -0.50397E+08         0.00000E+00
    0.00000E+00         0.00000E+00        -0.31790E+08
 
   -0.32711E+08         0.11184E+07         0.00000E+00
    0.11184E+07        -0.50419E+08         0.00000E+00
    0.00000E+00         0.00000E+00        -0.31784E+08
 
   -0.32658E+08         0.11732E+07         0.00000E+00
    0.11732E+07        -0.50441E+08         0.00000E+00
    0.00000E+00         0.00000E+00        -0.31778E+08
 
   -0.32605E+08         0.12292E+07         0.00000E+00
    0.12292E+07        -0.50463E+08         0.00000E+00
    0.00000E+00         0.00000E+00        -0.31772E+08
 
   -0.32552E+08         0.12862E+07         0.00000E+00
    0.12862E+07        -0.50486E+08         0.00000E+00
    0.00000E+00         0.00000E+00        -0.31766E+08
 
   -0.32499E+08         0.13444E+07         0.00000E+00
    0.13444E+07        -0.50509E+08         0.00000E+00
    0.00000E+00         0.00000E+00        -0.31760E+08
 
   -0.32446E+08         0.14035E+07         0.00000E+00
    0.14035E+07        -0.50531E+08         0.00000E+00
    0.00000E+00         0.00000E+00        -0.31754E+08
 
   -0.32392E+08         0.14637E+07         0.00000E+00
    0.14637E+07        -0.50554E+08         0.00000E+00
    0.00000E+00         0.00000E+00        -0.31748E+08
 
   -0.32338E+08         0.15249E+07         0.00000E+00
    0.15249E+07        -0.50578E+08         0.00000E+00
    0.00000E+00         0.00000E+00        -0.31741E+08
 
   -0.32284E+08         0.15871E+07         0.00000E+00
    0.15871E+07        -0.50601E+08         0.00000E+00
    0.00000E+00         0.00000E+00        -0.31735E+08
 
   -0.32230E+08         0.16502E+07         0.00000E+00
    0.16502E+07        -0.50624E+08         0.00000E+00
    0.00000E+00         0.00000E+00        -0.31729E+08
 
   -0.32176E+08         0.17143E+07         0.00000E+00
    0.17143E+07        -0.50648E+08         0.00000E+00
    0.00000E+00         0.00000E+00        -0.31723E+08
 
   -0.32122E+08         0.17794E+07         0.00000E+00
    0.17794E+07        -0.50671E+08         0.00000E+00
    0.00000E+00         0.00000E+00        -0.31717E+08
 
   -0.32068E+08         0.18453E+07         0.00000E+00
    0.18453E+07        -0.50695E+08         0.00000E+00
    0.00000E+00         0.00000E+00        -0.31711E+08
 
   -0.32014E+08         0.19121E+07         0.00000E+00
    0.19121E+07        -0.50719E+08         0.00000E+00
    0.00000E+00         0.00000E+00        -0.31705E+08
 
   -0.31960E+08         0.19798E+07         0.00000E+00
    0.19798E+07        -0.50742E+08         0.00000E+00
    0.00000E+00         0.00000E+00        -0.31699E+08
 
   -0.31906E+08         0.20482E+07         0.00000E+00
    0.20482E+07        -0.50766E+08         0.00000E+00
    0.00000E+00         0.00000E+00        -0.31693E+08
 
   -0.31853E+08         0.21175E+07         0.00000E+00
    0.21175E+07        -0.50790E+08         0.00000E+00
    0.00000E+00         0.00000E+00        -0.31687E+08
 
   -0.31799E+08         0.21875E+07         0.00000E+00
    0.21875E+07        -0.50813E+08         0.00000E+00
    0.00000E+00         0.00000E+00        -0.31681E+08
 
   -0.31746E+08         0.22583E+07         0.00000E+00
    0.22583E+07        -0.50837E+08         0.00000E+00
    0.00000E+00         0.00000E+00        -0.31675E+08
 
   -0.31692E+08         0.23298E+07         0.00000E+00
    0.23298E+07        -0.50860E+08         0.00000E+00
    0.00000E+00         0.00000E+00        -0.31669E+08
 
   -0.33738E+08         0.60403E+04         0.00000E+00
    0.60403E+04        -0.50000E+08         0.00000E+00
    0.00000E+00         0.00000E+00        -0.31605E+08
 
   -0.33721E+08         0.20551E+05         0.00000E+00
    0.20551E+05        -0.50001E+08         0.00000E+00
    0.00000E+00         0.00000E+00        -0.31602E+08
 
   -0.33701E+08         0.36170E+05         0.00000E+00
    0.36170E+05        -0.50004E+08         0.00000E+00
    0.00000E+00         0.00000E+00        -0.31599E+08
 
   -0.33679E+08         0.52942E+05         0.00000E+00
    0.52942E+05        -0.50008E+08         0.00000E+00
    0.00000E+00         0.00000E+00        -0.31595E+08
 
   -0.33654E+08         0.70910E+05         0.00000E+00
    0.70910E+05        -0.50014E+08         0.00000E+00
    0.00000E+00         0.00000E+00        -0.31591E+08
 
   -0.33627E+08         0.90110E+05         0.00000E+00
    0.90110E+05        -0.50021E+08         0.00000E+00
    0.00000E+00         0.00000E+00        -0.31587E+08
 
   -0.33597E+08         0.11057E+06         0.00000E+00
    0.11057E+06        -0.50028E+08         0.00000E+00
    0.00000E+00         0.00000E+00        -0.31583E+08
 
   -0.33565E+08         0.13233E+06         0.00000E+00
    0.13233E+06        -0.50037E+08         0.00000E+00
    0.00000E+00         0.00000E+00        -0.31578E+08
 
   -0.33531E+08         0.15540E+06         0.00000E+00
    0.15540E+06        -0.50047E+08         0.00000E+00
    0.00000E+00         0.00000E+00        -0.31573E+08
 
   -0.33495E+08         0.17981E+06         0.00000E+00
    0.17981E+06        -0.50058E+08         0.00000E+00
    0.00000E+00         0.00000E+00        -0.31568E+08
 
   -0.33458E+08         0.20556E+06         0.00000E+00
    0.20556E+06        -0.50070E+08         0.00000E+00
    0.00000E+00         0.00000E+00        -0.31563E+08
 
   -0.33418E+08         0.23267E+06         0.00000E+00
    0.23267E+06        -0.50083E+08         0.00000E+00
    0.00000E+00         0.00000E+00        -0.31558E+08
 
   -0.33377E+08         0.26116E+06         0.00000E+00
    0.26116E+06        -0.50097E+08         0.00000E+00
    0.00000E+00         0.00000E+00        -0.31552E+08
 
   -0.33334E+08         0.29102E+06         0.00000E+00
    0.29102E+06        -0.50112E+08         0.00000E+00
    0.00000E+00         0.00000E+00        -0.31547E+08
 
   -0.33290E+08         0.32226E+06         0.00000E+00
    0.32226E+06        -0.50127E+08         0.00000E+00
    0.00000E+00         0.00000E+00        -0.31541E+08
 
   -0.33244E+08         0.35487E+06         0.00000E+00
    0.35487E+06        -0.50143E+08         0.00000E+00
    0.00000E+00         0.00000E+00        -0.31535E+08
 
   -0.33197E+08         0.38887E+06         0.00000E+00
    0.38887E+06        -0.50160E+08         0.00000E+00
    0.00000E+00         0.00000E+00        -0.31529E+08
 
   -0.33149E+08         0.42424E+06         0.00000E+00
    0.42424E+06        -0.50177E+08         0.00000E+00
    0.00000E+00         0.00000E+00        -0.31523E+08
 
   -0.33099E+08         0.46098E+06         0.00000E+00
    0.46098E+06        -0.50195E+08         0.00000E+00
    0.00000E+00         0.00000E+00        -0.31516E+08
 
   -0.33049E+08         0.49908E+06         0.00000E+00
    0.49908E+06        -0.50214E+08         0.00000E+00
    0.00000E+00         0.00000E+00        -0.31510E+08
 
   -0.32997E+08         0.53854E+06         0.00000E+00
    0.53854E+06        -0.50233E+08         0.00000E+00
    0.00000E+00         0.00000E+00        -0.31504E+08
 
   -0.32945E+08         0.57934E+06         0.00000E+00
    0.57934E+06        -0.50252E+08         0.00000E+00
    0.00000E+00         0.00000E+00        -0.31497E+08
 
   -0.32892E+08         0.62148E+06         0.00000E+00
    0.62148E+06        -0.50273E+08         0.00000E+00
    0.00000E+00         0.00000E+00        -0.31490E+08
 
   -0.32838E+08         0.66494E+06         0.00000E+00
    0.66494E+06        -0.50293E+08         0.00000E+00
    0.00000E+00         0.00000E+00        -0.31484E+08
 
   -0.32783E+08         0.70971E+06         0.00000E+00
    0.70971E+06        -0.50314E+08         0.00000E+00
    0.00000E+00         0.00000E+00        -0.31477E+08
 
   -0.32727E+08         0.75579E+06         0.00000E+00
    0.75579E+06        -0.50336E+08         0.00000E+00
    0.00000E+00         0.00000E+00        -0.31470E+08
 
   -0.32671E+08         0.80315E+06         0.00000E+00
    0.80315E+06        -0.50358E+08         0.00000E+00
    0.00000E+00         0.00000E+00        -0.31463E+08
 
   -0.32615E+08         0.85179E+06         0.00000E+00
    0.85179E+06        -0.50380E+08         0.00000E+00
    0.00000E+00         0.00000E+00        -0.31456E+08
 
   -0.32558E+08         0.90168E+06         0.00000E+00
    0.90168E+06        -0.50402E+08         0.00000E+00
    0.00000E+00         0.00000E+00        -0.31450E+08
 
   -0.32500E+08         0.95283E+06         0.00000E+00
    0.95283E+06        -0.50425E+08         0.00000E+00
    0.00000E+00         0.00000E+00        -0.31443E+08
 
   -0.32442E+08         0.10052E+07         0.00000E+00
    0.10052E+07        -0.50448E+08         0.00000E+00
    0.00000E+00         0.00000E+00        -0.31436E+08
 
   -0.32384E+08         0.10588E+07         0.00000E+00
    0.10588E+07        -0.50472E+08         0.00000E+00
    0.00000E+00         0.00000E+00        -0.31429E+08
 
   -0.32326E+08         0.11136E+07         0.00000E+00
    0.11136E+07        -0.50496E+08         0.00000E+00
    0.00000E+00         0.00000E+00        -0.31422E+08
 
   -0.32267E+08         0.11696E+07         0.00000E+00
    0.11696E+07        -0.50520E+08         0.00000E+00
    0.00000E+00         0.00000E+00        -0.31415E+08
 
   -0.32208E+08         0.12267E+07         0.00000E+00
    0.12267E+07        -0.50544E+08         0.00000E+00
    0.00000E+00         0.00000E+00        -0.31408E+08
 
   -0.32149E+08         0.12850E+07         0.00000E+00
    0.12850E+07        -0.50568E+08         0.00000E+00
    0.00000E+00         0.00000E+00        -0.31401E+08
 
   -0.32090E+08         0.13444E+07         0.00000E+00
    0.13444E+07        -0.50593E+08         0.00000E+00
    0.00000E+00         0.00000E+00        -0.31394E+08
 
   -0.32031E+08         0.14049E+07         0.00000E+00
    0.14049E+07        -0.50617E+08         0.00000E+00
    0.00000E+00         0.00000E+00        -0.31387E+08
 
   -0.31972E+08         0.14665E+07         0.00000E+00
    0.14665E+07        -0.50642E+08         0.00000E+00
    0.00000E+00         0.00000E+00        -0.31380E+08
 
   -0.31913E+08         0.15292E+07         0.00000E+00
    0.15292E+07        -0.50667E+08         0.00000E+00
    0.00000E+00         0.00000E+00        -0.31374E+08
 
   -0.31854E+08         0.15929E+07         0.00000E+00
    0.15929E+07        -0.50692E+08         0.00000E+00
    0.00000E+00         0.00000E+00        -0.31367E+08
 
   -0.31795E+08         0.16576E+07         0.00000E+00
    0.16576E+07        -0.50717E+08         0.00000E+00
    0.00000E+00         0.00000E+00        -0.31360E+08
 
   -0.31737E+08         0.17233E+07         0.00000E+00
    0.17233E+07        -0.50742E+08         0.00000E+00
    0.00000E+00         0.00000E+00        -0.31353E+08
 
   -0.31678E+08         0.17900E+07         0.00000E+00
    0.17900E+07        -0.50768E+08         0.00000E+00
    0.00000E+00         0.00000E+00        -0.31347E+08
 
   -0.31620E+08         0.18576E+07         0.00000E+00
    0.18576E+07        -0.50793E+08         0.00000E+00
    0.00000E+00         0.00000E+00        -0.31340E+08
 
   -0.31562E+08         0.19260E+07         0.00000E+00
    0.19260E+07        -0.50818E+08         0.00000E+00
    0.00000E+00         0.00000E+00        -0.31334E+08
 
   -0.31504E+08         0.19954E+07         0.00000E+00
    0.19954E+07        -0.50843E+08         0.00000E+00
    0.00000E+00         0.00000E+00        -0.31327E+08
 
   -0.31447E+08         0.20655E+07         0.00000E+00
    0.20655E+07        -0.50869E+08         0.00000E+00
    0.00000E+00         0.00000E+00        -0.31321E+08
 
   -0.31390E+08         0.21365E+07         0.00000E+00
    0.21365E+07        -0.50894E+08         0.00000E+00
    0.00000E+00         0.00000E+00        -0.31314E+08
 
   -0.31333E+08         0.22081E+07         0.00000E+00
    0.22081E+07        -0.50919E+08         0.00000E+00
    0.00000E+00         0.00000E+00        -0.31308E+08
 
   -0.33686E+08         0.19354E+04         0.00000E+00
    0.19354E+04        -0.50000E+08         0.00000E+00
    0.00000E+00         0.00000E+00        -0.31294E+08
 
   -0.33663E+08         0.90314E+04         0.00000E+00
    0.90314E+04        -0.50001E+08         0.00000E+00
    0.00000E+00         0.00000E+00        -0.31290E+08
 
   -0.33637E+08         0.17568E+05         0.00000E+00
    0.17568E+05        -0.50004E+08         0.00000E+00
    0.00000E+00         0.00000E+00        -0.31285E+08
 
   -0.33608E+08         0.27587E+05         0.00000E+00
    0.27587E+05        -0.50009E+08         0.00000E+00
    0.00000E+00         0.00000E+00        -0.31280E+08
 
   -0.33577E+08         0.39123E+05         0.00000E+00
    0.39123E+05        -0.50015E+08         0.00000E+00
    0.00000E+00         0.00000E+00        -0.31275E+08
 
   -0.33542E+08         0.52205E+05         0.00000E+00
    0.52205E+05        -0.50022E+08         0.00000E+00
    0.00000E+00         0.00000E+00        -0.31270E+08
 
   -0.33505E+08         0.66855E+05         0.00000E+00
    0.66855E+05        -0.50031E+08         0.00000E+00
    0.00000E+00         0.00000E+00        -0.31264E+08
 
   -0.33466E+08         0.83091E+05         0.00000E+00
    0.83091E+05        -0.50040E+08         0.00000E+00
    0.00000E+00         0.00000E+00        -0.31258E+08
 
   -0.33425E+08         0.10093E+06         0.00000E+00
    0.10093E+06        -0.50051E+08         0.00000E+00
    0.00000E+00         0.00000E+00        -0.31252E+08
 
   -0.33382E+08         0.12037E+06         0.00000E+00
    0.12037E+06        -0.50063E+08         0.00000E+00
    0.00000E+00         0.00000E+00        -0.31246E+08
 
   -0.33337E+08         0.14143E+06         0.00000E+00
    0.14143E+06        -0.50076E+08         0.00000E+00
    0.00000E+00         0.00000E+00        -0.31239E+08
 
   -0.33290E+08         0.16409E+06         0.00000E+00
    0.16409E+06        -0.50089E+08         0.00000E+00
    0.00000E+00         0.00000E+00        -0.31233E+08
 
   -0.33241E+08         0.18837E+06         0.00000E+00
    0.18837E+06        -0.50104E+08         0.00000E+00
    0.00000E+00         0.00000E+00        -0.31226E+08
 
   -0.33191E+08         0.21425E+06         0.00000E+00
    0.21425E+06        -0.50119E+08         0.00000E+00
    0.00000E+00         0.00000E+00        -0.31219E+08
 
   -0.33139E+08         0.24172E+06         0.00000E+00
    0.24172E+06        -0.50135E+08         0.00000E+00
    0.00000E+00         0.00000E+00        -0.31212E+08
 
   -0.33086E+08         0.27077E+06         0.00000E+00
    0.27077E+06        -0.50152E+08         0.00000E+00
    0.00000E+00         0.00000E+00        -0.31204E+08
 
   -0.33032E+08         0.30139E+06         0.00000E+00
    0.30139E+06        -0.50170E+08         0.00000E+00
    0.00000E+00         0.00000E+00        -0.31197E+08
 
   -0.32976E+08         0.33357E+06         0.00000E+00
    0.33357E+06        -0.50188E+08         0.00000E+00
    0.00000E+00         0.00000E+00        -0.31190E+08
 
   -0.32919E+08         0.36729E+06         0.00000E+00
    0.36729E+06        -0.50207E+08         0.00000E+00
    0.00000E+00         0.00000E+00        -0.31182E+08
 
   -0.32862E+08         0.40253E+06         0.00000E+00
    0.40253E+06        -0.50226E+08         0.00000E+00
    0.00000E+00         0.00000E+00        -0.31174E+08
 
   -0.32803E+08         0.43927E+06         0.00000E+00
    0.43927E+06        -0.50246E+08         0.00000E+00
    0.00000E+00         0.00000E+00        -0.31167E+08
 
   -0.32744E+08         0.47750E+06         0.00000E+00
    0.47750E+06        -0.50267E+08         0.00000E+00
    0.00000E+00         0.00000E+00        -0.31159E+08
 
   -0.32684E+08         0.51720E+06         0.00000E+00
    0.51720E+06        -0.50288E+08         0.00000E+00
    0.00000E+00         0.00000E+00        -0.31151E+08
 
   -0.32623E+08         0.55835E+06         0.00000E+00
    0.55835E+06        -0.50309E+08         0.00000E+00
    0.00000E+00         0.00000E+00        -0.31143E+08
 
   -0.32561E+08         0.60094E+06         0.00000E+00
    0.60094E+06        -0.50331E+08         0.00000E+00
    0.00000E+00         0.00000E+00        -0.31135E+08
 
   -0.32499E+08         0.64494E+06         0.00000E+00
    0.64494E+06        -0.50354E+08         0.00000E+00
    0.00000E+00         0.00000E+00        -0.31127E+08
 
   -0.32436E+08         0.69034E+06         0.00000E+00
    0.69034E+06        -0.50377E+08         0.00000E+00
    0.00000E+00         0.00000E+00        -0.31119E+08
 
   -0.32373E+08         0.73712E+06         0.00000E+00
    0.73712E+06        -0.50400E+08         0.00000E+00
    0.00000E+00         0.00000E+00        -0.31111E+08
 
   -0.32309E+08         0.78527E+06         0.00000E+00
    0.78527E+06        -0.50423E+08         0.00000E+00
    0.00000E+00         0.00000E+00        -0.31103E+08
 
   -0.32245E+08         0.83476E+06         0.00000E+00
    0.83476E+06        -0.50447E+08         0.00000E+00
    0.00000E+00         0.00000E+00        -0.31095E+08
 
   -0.32181E+08         0.88559E+06         0.00000E+00
    0.88559E+06        -0.50472E+08         0.00000E+00
    0.00000E+00         0.00000E+00        -0.31087E+08
 
   -0.32117E+08         0.93774E+06         0.00000E+00
    0.93774E+06        -0.50496E+08         0.00000E+00
    0.00000E+00         0.00000E+00        -0.31079E+08
 
   -0.32052E+08         0.99118E+06         0.00000E+00
    0.99118E+06        -0.50521E+08         0.00000E+00
    0.00000E+00         0.00000E+00        -0.31071E+08
 
   -0.31987E+08         0.10459E+07         0.00000E+00
    0.10459E+07        -0.50547E+08         0.00000E+00
    0.00000E+00         0.00000E+00        -0.31064E+08
 
   -0.31923E+08         0.11019E+07         0.00000E+00
    0.11019E+07        -0.50572E+08         0.00000E+00
    0.00000E+00         0.00000E+00        -0.31056E+08
 
   -0.31858E+08         0.11592E+07         0.00000E+00
    0.11592E+07        -0.50598E+08         0.00000E+00
    0.00000E+00         0.00000E+00        -0.31048E+08
 
   -0.31793E+08         0.12176E+07         0.00000E+00
    0.12176E+07        -0.50624E+08         0.00000E+00
    0.00000E+00         0.00000E+00        -0.31040E+08
 
   -0.31728E+08         0.12773E+07         0.00000E+00
    0.12773E+07        -0.50650E+08         0.00000E+00
    0.00000E+00         0.00000E+00        -0.31032E+08
 
   -0.31663E+08         0.13382E+07         0.00000E+00
    0.13382E+07        -0.50676E+08         0.00000E+00
    0.00000E+00         0.00000E+00        -0.31025E+08
 
   -0.31599E+08         0.14003E+07         0.00000E+00
    0.14003E+07        -0.50703E+08         0.00000E+00
    0.00000E+00         0.00000E+00        -0.31017E+08
 
   -0.31534E+08         0.14635E+07         0.00000E+00
    0.14635E+07        -0.50729E+08         0.00000E+00
    0.00000E+00         0.00000E+00        -0.31009E+08
 
   -0.31470E+08         0.15278E+07         0.00000E+00
    0.15278E+07        -0.50756E+08         0.00000E+00
    0.00000E+00         0.00000E+00        -0.31002E+08
 
   -0.31406E+08         0.15932E+07         0.00000E+00
    0.15932E+07        -0.50783E+08         0.00000E+00
    0.00000E+00         0.00000E+00        -0.30995E+08
 
   -0.31343E+08         0.16597E+07         0.00000E+00
    0.16597E+07        -0.50810E+08         0.00000E+00
    0.00000E+00         0.00000E+00        -0.30987E+08
 
   -0.31280E+08         0.17272E+07         0.00000E+00
    0.17272E+07        -0.50837E+08         0.00000E+00
    0.00000E+00         0.00000E+00        -0.30980E+08
 
   -0.31217E+08         0.17957E+07         0.00000E+00
    0.17957E+07        -0.50864E+08         0.00000E+00
    0.00000E+00         0.00000E+00        -0.30973E+08
 
   -0.31155E+08         0.18652E+07         0.00000E+00
    0.18652E+07        -0.50891E+08         0.00000E+00
    0.00000E+00         0.00000E+00        -0.30966E+08
 
   -0.31094E+08         0.19355E+07         0.00000E+00
    0.19355E+07        -0.50917E+08         0.00000E+00
    0.00000E+00         0.00000E+00        -0.30959E+08
 
   -0.31033E+08         0.20068E+07         0.00000E+00
    0.20068E+07        -0.50944E+08         0.00000E+00
    0.00000E+00         0.00000E+00        -0.30952E+08
 
   -0.30972E+08         0.20788E+07         0.00000E+00
    0.20788E+07        -0.50971E+08         0.00000E+00
    0.00000E+00         0.00000E+00        -0.30945E+08
 
   -0.33675E+08        -0.25629E+04         0.00000E+00
   -0.25629E+04        -0.50000E+08         0.00000E+00
    0.00000E+00         0.00000E+00        -0.30991E+08
 
   -0.33644E+08        -0.34664E+04         0.00000E+00
   -0.34664E+04        -0.50001E+08         0.00000E+00
    0.00000E+00         0.00000E+00        -0.30985E+08
 
   -0.33609E+08        -0.25131E+04         0.00000E+00
   -0.25131E+04        -0.50005E+08         0.00000E+00
    0.00000E+00         0.00000E+00        -0.30979E+08
 
   -0.33572E+08         0.32665E+03         0.00000E+00
    0.32665E+03        -0.50010E+08         0.00000E+00
    0.00000E+00         0.00000E+00        -0.30972E+08
 
   -0.33531E+08         0.50768E+04         0.00000E+00
    0.50768E+04        -0.50016E+08         0.00000E+00
    0.00000E+00         0.00000E+00        -0.30965E+08
 
   -0.33488E+08         0.11753E+05         0.00000E+00
    0.11753E+05        -0.50024E+08         0.00000E+00
    0.00000E+00         0.00000E+00        -0.30958E+08
 
   -0.33443E+08         0.20363E+05         0.00000E+00
    0.20363E+05        -0.50033E+08         0.00000E+00
    0.00000E+00         0.00000E+00        -0.30951E+08
 
   -0.33395E+08         0.30910E+05         0.00000E+00
    0.30910E+05        -0.50043E+08         0.00000E+00
    0.00000E+00         0.00000E+00        -0.30944E+08
 
   -0.33345E+08         0.43389E+05         0.00000E+00
    0.43389E+05        -0.50054E+08         0.00000E+00
    0.00000E+00         0.00000E+00        -0.30936E+08
 
   -0.33293E+08         0.57790E+05         0.00000E+00
    0.57790E+05        -0.50066E+08         0.00000E+00
    0.00000E+00         0.00000E+00        -0.30928E+08
 
   -0.33239E+08         0.74101E+05         0.00000E+00
    0.74101E+05        -0.50080E+08         0.00000E+00
    0.00000E+00         0.00000E+00        -0.30920E+08
 
   -0.33183E+08         0.92303E+05         0.00000E+00
    0.92303E+05        -0.50094E+08         0.00000E+00
    0.00000E+00         0.00000E+00        -0.30911E+08
 
   -0.33126E+08         0.11237E+06         0.00000E+00
    0.11237E+06        -0.50109E+08         0.00000E+00
    0.00000E+00         0.00000E+00        -0.30903E+08
 
   -0.33067E+08         0.13429E+06         0.00000E+00
    0.13429E+06        -0.50124E+08         0.00000E+00
    0.00000E+00         0.00000E+00        -0.30894E+08
 
   -0.33007E+08         0.15802E+06         0.00000E+00
    0.15802E+06        -0.50141E+08         0.00000E+00
    0.00000E+00         0.00000E+00        -0.30886E+08
 
   -0.32946E+08         0.18353E+06         0.00000E+00
    0.18353E+06        -0.50158E+08         0.00000E+00
    0.00000E+00         0.00000E+00        -0.30877E+08
 
   -0.32883E+08         0.21081E+06         0.00000E+00
    0.21081E+06        -0.50176E+08         0.00000E+00
    0.00000E+00         0.00000E+00        -0.30868E+08
 
   -0.32819E+08         0.23981E+06         0.00000E+00
    0.23981E+06        -0.50195E+08         0.00000E+00
    0.00000E+00         0.00000E+00        -0.30859E+08
 
   -0.32755E+08         0.27050E+06         0.00000E+00
    0.27050E+06        -0.50214E+08         0.00000E+00
    0.00000E+00         0.00000E+00        -0.30850E+08
 
   -0.32689E+08         0.30286E+06         0.00000E+00
    0.30286E+06        -0.50234E+08         0.00000E+00
    0.00000E+00         0.00000E+00        -0.30840E+08
 
   -0.32623E+08         0.33686E+06         0.00000E+00
    0.33686E+06        -0.50254E+08         0.00000E+00
    0.00000E+00         0.00000E+00        -0.30831E+08
 
   -0.32555E+08         0.37245E+06         0.00000E+00
    0.37245E+06        -0.50275E+08         0.00000E+00
    0.00000E+00         0.00000E+00        -0.30822E+08
 
   -0.32488E+08         0.40963E+06         0.00000E+00
    0.40963E+06        -0.50296E+08         0.00000E+00
    0.00000E+00         0.00000E+00        -0.30813E+08
 
   -0.32419E+08         0.44836E+06         0.00000E+00
    0.44836E+06        -0.50318E+08         0.00000E+00
    0.00000E+00         0.00000E+00        -0.30803E+08
 
   -0.32350E+08         0.48861E+06         0.00000E+00
    0.48861E+06        -0.50341E+08         0.00000E+00
    0.00000E+00         0.00000E+00        -0.30794E+08
 
   -0.32281E+08         0.53036E+06         0.00000E+00
    0.53036E+06        -0.50364E+08         0.00000E+00
    0.00000E+00         0.00000E+00        -0.30785E+08
 
   -0.32211E+08         0.57360E+06         0.00000E+00
    0.57360E+06        -0.50387E+08         0.00000E+00
    0.00000E+00         0.00000E+00        -0.30776E+08
 
   -0.32141E+08         0.61830E+06         0.00000E+00
    0.61830E+06        -0.50411E+08         0.00000E+00
    0.00000E+00         0.00000E+00        -0.30766E+08
 
   -0.32070E+08         0.66445E+06         0.00000E+00
    0.66445E+06        -0.50435E+08         0.00000E+00
    0.00000E+00         0.00000E+00        -0.30757E+08
 
   -0.31999E+08         0.71202E+06         0.00000E+00
    0.71202E+06        -0.50460E+08         0.00000E+00
    0.00000E+00         0.00000E+00        -0.30748E+08
 
   -0.31928E+08         0.76101E+06         0.00000E+00
    0.76101E+06        -0.50485E+08         0.00000E+00
    0.00000E+00         0.00000E+00        -0.30739E+08
 
   -0.31857E+08         0.81140E+06         0.00000E+00
    0.81140E+06        -0.50510E+08         0.00000E+00
    0.00000E+00         0.00000E+00        -0.30729E+08
 
   -0.31786E+08         0.86318E+06         0.00000E+00
    0.86318E+06        -0.50536E+08         0.00000E+00
    0.00000E+00         0.00000E+00        -0.30720E+08
 
   -0.31714E+08         0.91634E+06         0.00000E+00
    0.91634E+06        -0.50562E+08         0.00000E+00
    0.00000E+00         0.00000E+00        -0.30711E+08
 
   -0.31643E+08         0.97087E+06         0.00000E+00
    0.97087E+06        -0.50589E+08         0.00000E+00
    0.00000E+00         0.00000E+00        -0.30702E+08
 
   -0.31572E+08         0.10268E+07         0.00000E+00
    0.10268E+07        -0.50616E+08         0.00000E+00
    0.00000E+00         0.00000E+00        -0.30693E+08
 
   -0.31500E+08         0.10840E+07         0.00000E+00
    0.10840E+07        -0.50643E+08         0.00000E+00
    0.00000E+00         0.00000E+00        -0.30685E+08
 
   -0.31429E+08         0.11425E+07         0.00000E+00
    0.11425E+07        -0.50671E+08         0.00000E+00
    0.00000E+00         0.00000E+00        -0.30676E+08
 
   -0.31358E+08         0.12024E+07         0.00000E+00
    0.12024E+07        -0.50698E+08         0.00000E+00
    0.00000E+00         0.00000E+00        -0.30667E+08
 
   -0.31288E+08         0.12636E+07         0.00000E+00
    0.12636E+07        -0.50726E+08         0.00000E+00
    0.00000E+00         0.00000E+00        -0.30659E+08
 
   -0.31217E+08         0.13260E+07         0.00000E+00
    0.13260E+07        -0.50755E+08         0.00000E+00
    0.00000E+00         0.00000E+00        -0.30650E+08
 
   -0.31147E+08         0.13897E+07         0.00000E+00
    0.13897E+07        -0.50783E+08         0.00000E+00
    0.00000E+00         0.00000E+00        -0.30642E+08
 
   -0.31078E+08         0.14547E+07         0.00000E+00
    0.14547E+07        -0.50812E+08         0.00000E+00
    0.00000E+00         0.00000E+00        -0.30634E+08
 
   -0.31009E+08         0.15209E+07         0.00000E+00
    0.15209E+07        -0.50840E+08         0.00000E+00
    0.00000E+00         0.00000E+00        -0.30626E+08
 
   -0.30940E+08         0.15882E+07         0.00000E+00
    0.15882E+07        -0.50869E+08         0.00000E+00
    0.00000E+00         0.00000E+00        -0.30618E+08
 
   -0.30872E+08         0.16567E+07         0.00000E+00
    0.16567E+07        -0.50898E+08         0.00000E+00
    0.00000E+00         0.00000E+00        -0.30610E+08
 
   -0.30805E+08         0.17262E+07         0.00000E+00
    0.17262E+07        -0.50927E+08         0.00000E+00
    0.00000E+00         0.00000E+00        -0.30602E+08
 
   -0.30739E+08         0.17969E+07         0.00000E+00
    0.17969E+07        -0.50955E+08         0.00000E+00
    0.00000E+00         0.00000E+00        -0.30595E+08
 
   -0.30673E+08         0.18685E+07         0.00000E+00
    0.18685E+07        -0.50984E+08         0.00000E+00
    0.00000E+00         0.00000E+00        -0.30587E+08
 
   -0.30609E+08         0.19411E+07         0.00000E+00
    0.19411E+07        -0.51012E+08         0.00000E+00
    0.00000E+00         0.00000E+00        -0.30580E+08
 
   -0.33705E+08        -0.74261E+04         0.00000E+00
   -0.74261E+04        -0.49999E+08         0.00000E+00
    0.00000E+00         0.00000E+00        -0.30696E+08
 
   -0.33664E+08        -0.16804E+05         0.00000E+00
   -0.16804E+05        -0.50001E+08         0.00000E+00
    0.00000E+00         0.00000E+00        -0.30688E+08
 
   -0.33619E+08        -0.23808E+05         0.00000E+00
   -0.23808E+05        -0.50005E+08         0.00000E+00
    0.00000E+00         0.00000E+00        -0.30680E+08
 
   -0.33571E+08        -0.28420E+05         0.00000E+00
   -0.28420E+05        -0.50010E+08         0.00000E+00
    0.00000E+00         0.00000E+00        -0.30671E+08
 
   -0.33520E+08        -0.30637E+05         0.00000E+00
   -0.30637E+05        -0.50017E+08         0.00000E+00
    0.00000E+00         0.00000E+00        -0.30662E+08
 
   -0.33466E+08        -0.30466E+05         0.00000E+00
   -0.30466E+05        -0.50025E+08         0.00000E+00
    0.00000E+00         0.00000E+00        -0.30653E+08
 
   -0.33410E+08        -0.27921E+05         0.00000E+00
   -0.27921E+05        -0.50034E+08         0.00000E+00
    0.00000E+00         0.00000E+00        -0.30644E+08
 
   -0.33351E+08        -0.23025E+05         0.00000E+00
   -0.23025E+05        -0.50044E+08         0.00000E+00
    0.00000E+00         0.00000E+00        -0.30634E+08
 
   -0.33291E+08        -0.15807E+05         0.00000E+00
   -0.15807E+05        -0.50056E+08         0.00000E+00
    0.00000E+00         0.00000E+00        -0.30624E+08
 
   -0.33228E+08        -0.63065E+04         0.00000E+00
   -0.63065E+04        -0.50068E+08         0.00000E+00
    0.00000E+00         0.00000E+00        -0.30614E+08
 
   -0.33164E+08         0.54345E+04         0.00000E+00
    0.54345E+04        -0.50081E+08         0.00000E+00
    0.00000E+00         0.00000E+00        -0.30604E+08
 
   -0.33098E+08         0.19368E+05         0.00000E+00
    0.19368E+05        -0.50096E+08         0.00000E+00
    0.00000E+00         0.00000E+00        -0.30594E+08
 
   -0.33031E+08         0.35443E+05         0.00000E+00
    0.35443E+05        -0.50110E+08         0.00000E+00
    0.00000E+00         0.00000E+00        -0.30583E+08
 
   -0.32962E+08         0.53605E+05         0.00000E+00
    0.53605E+05        -0.50126E+08         0.00000E+00
    0.00000E+00         0.00000E+00        -0.30573E+08
 
   -0.32893E+08         0.73799E+05         0.00000E+00
    0.73799E+05        -0.50142E+08         0.00000E+00
    0.00000E+00         0.00000E+00        -0.30562E+08
 
   -0.32822E+08         0.95970E+05         0.00000E+00
    0.95970E+05        -0.50159E+08         0.00000E+00
    0.00000E+00         0.00000E+00        -0.30551E+08
 
   -0.32750E+08         0.12006E+06         0.00000E+00
    0.12006E+06        -0.50177E+08         0.00000E+00
    0.00000E+00         0.00000E+00        -0.30541E+08
 
   -0.32678E+08         0.14602E+06         0.00000E+00
    0.14602E+06        -0.50195E+08         0.00000E+00
    0.00000E+00         0.00000E+00        -0.30530E+08
 
   -0.32604E+08         0.17379E+06         0.00000E+00
    0.17379E+06        -0.50214E+08         0.00000E+00
    0.00000E+00         0.00000E+00        -0.30519E+08
 
   -0.32530E+08         0.20332E+06         0.00000E+00
    0.20332E+06        -0.50233E+08         0.00000E+00
    0.00000E+00         0.00000E+00        -0.30508E+08
 
   -0.32456E+08         0.23457E+06         0.00000E+00
    0.23457E+06        -0.50253E+08         0.00000E+00
    0.00000E+00         0.00000E+00        -0.30497E+08
 
   -0.32380E+08         0.26749E+06         0.00000E+00
    0.26749E+06        -0.50274E+08         0.00000E+00
    0.00000E+00         0.00000E+00        -0.30486E+08
 
   -0.32305E+08         0.30204E+06         0.00000E+00
    0.30204E+06        -0.50295E+08         0.00000E+00
    0.00000E+00         0.00000E+00        -0.30475E+08
 
   -0.32228E+08         0.33818E+06         0.00000E+00
    0.33818E+06        -0.50316E+08         0.00000E+00
    0.00000E+00         0.00000E+00        -0.30464E+08
 
   -0.32152E+08         0.37589E+06         0.00000E+00
    0.37589E+06        -0.50338E+08         0.00000E+00
    0.00000E+00         0.00000E+00        -0.30453E+08
 
   -0.32075E+08         0.41514E+06         0.00000E+00
    0.41514E+06        -0.50361E+08         0.00000E+00
    0.00000E+00         0.00000E+00        -0.30442E+08
 
   -0.31997E+08         0.45589E+06         0.00000E+00
    0.45589E+06        -0.50384E+08         0.00000E+00
    0.00000E+00         0.00000E+00        -0.30431E+08
 
   -0.31920E+08         0.49814E+06         0.00000E+00
    0.49814E+06        -0.50407E+08         0.00000E+00
    0.00000E+00         0.00000E+00        -0.30421E+08
 
   -0.31842E+08         0.54187E+06         0.00000E+00
    0.54187E+06        -0.50432E+08         0.00000E+00
    0.00000E+00         0.00000E+00        -0.30410E+08
 
   -0.31764E+08         0.58706E+06         0.00000E+00
    0.58706E+06        -0.50456E+08         0.00000E+00
    0.00000E+00         0.00000E+00        -0.30399E+08
 
   -0.31686E+08         0.63372E+06         0.00000E+00
    0.63372E+06        -0.50481E+08         0.00000E+00
    0.00000E+00         0.00000E+00        -0.30389E+08
 
   -0.31607E+08         0.68182E+06         0.00000E+00
    0.68182E+06        -0.50507E+08         0.00000E+00
    0.00000E+00         0.00000E+00        -0.30378E+08
 
   -0.31529E+08         0.73138E+06         0.00000E+00
    0.73138E+06        -0.50534E+08         0.00000E+00
    0.00000E+00         0.00000E+00        -0.30368E+08
 
   -0.31450E+08         0.78238E+06         0.00000E+00
    0.78238E+06        -0.50560E+08         0.00000E+00
    0.00000E+00         0.00000E+00        -0.30357E+08
 
   -0.31372E+08         0.83484E+06         0.00000E+00
    0.83484E+06        -0.50588E+08         0.00000E+00
    0.00000E+00         0.00000E+00        -0.30347E+08
 
   -0.31294E+08         0.88876E+06         0.00000E+00
    0.88876E+06        -0.50616E+08         0.00000E+00
    0.00000E+00         0.00000E+00        -0.30337E+08
 
   -0.31215E+08         0.94413E+06         0.00000E+00
    0.94413E+06        -0.50644E+08         0.00000E+00
    0.00000E+00         0.00000E+00        -0.30327E+08
 
   -0.31137E+08         0.10010E+07         0.00000E+00
    0.10010E+07        -0.50673E+08         0.00000E+00
    0.00000E+00         0.00000E+00        -0.30317E+08
 
   -0.31059E+08         0.10593E+07         0.00000E+00
    0.10593E+07        -0.50702E+08         0.00000E+00
    0.00000E+00         0.00000E+00        -0.30307E+08
 
   -0.30982E+08         0.11190E+07         0.00000E+00
    0.11190E+07        -0.50731E+08         0.00000E+00
    0.00000E+00         0.00000E+00        -0.30298E+08
 
   -0.30905E+08         0.11802E+07         0.00000E+00
    0.11802E+07        -0.50761E+08         0.00000E+00
    0.00000E+00         0.00000E+00        -0.30288E+08
 
   -0.30828E+08         0.12429E+07         0.00000E+00
    0.12429E+07        -0.50792E+08         0.00000E+00
    0.00000E+00         0.00000E+00        -0.30279E+08
 
   -0.30752E+08         0.13070E+07         0.00000E+00
    0.13070E+07        -0.50822E+08         0.00000E+00
    0.00000E+00         0.00000E+00        -0.30270E+08
 
   -0.30676E+08         0.13725E+07         0.00000E+00
    0.13725E+07        -0.50853E+08         0.00000E+00
    0.00000E+00         0.00000E+00        -0.30261E+08
 
   -0.30602E+08         0.14394E+07         0.00000E+00
    0.14394E+07        -0.50883E+08         0.00000E+00
    0.00000E+00         0.00000E+00        -0.30252E+08
 
   -0.30528E+08         0.15077E+07         0.00000E+00
    0.15077E+07        -0.50914E+08         0.00000E+00
    0.00000E+00         0.00000E+00        -0.30244E+08
 
   -0.30455E+08         0.15773E+07         0.00000E+00
    0.15773E+07        -0.50945E+08         0.00000E+00
    0.00000E+00         0.00000E+00        -0.30235E+08
 
   -0.30383E+08         0.16482E+07         0.00000E+00
    0.16482E+07        -0.50976E+08         0.00000E+00
    0.00000E+00         0.00000E+00        -0.30227E+08
 
   -0.30312E+08         0.17203E+07         0.00000E+00
    0.17203E+07        -0.51007E+08         0.00000E+00
    0.00000E+00         0.00000E+00        -0.30219E+08
 
   -0.30242E+08         0.17936E+07         0.00000E+00
    0.17936E+07        -0.51038E+08         0.00000E+00
    0.00000E+00         0.00000E+00        -0.30211E+08
 
   -0.33781E+08        -0.12617E+05         0.00000E+00
   -0.12617E+05        -0.49999E+08         0.00000E+00
    0.00000E+00         0.00000E+00        -0.30410E+08
 
   -0.33726E+08        -0.30781E+05         0.00000E+00
   -0.30781E+05        -0.50002E+08         0.00000E+00
    0.00000E+00         0.00000E+00        -0.30400E+08
 
   -0.33667E+08        -0.45899E+05         0.00000E+00
   -0.45899E+05        -0.50005E+08         0.00000E+00
    0.00000E+00         0.00000E+00        -0.30389E+08
 
   -0.33606E+08        -0.58000E+05         0.00000E+00
   -0.58000E+05        -0.50011E+08         0.00000E+00
    0.00000E+00         0.00000E+00        -0.30378E+08
 
   -0.33541E+08        -0.67099E+05         0.00000E+00
   -0.67099E+05        -0.50017E+08         0.00000E+00
    0.00000E+00         0.00000E+00        -0.30366E+08
 
   -0.33474E+08        -0.73230E+05         0.00000E+00
   -0.73230E+05        -0.50025E+08         0.00000E+00
    0.00000E+00         0.00000E+00        -0.30354E+08
 
   -0.33405E+08        -0.76448E+05         0.00000E+00
   -0.76448E+05        -0.50034E+08         0.00000E+00
    0.00000E+00         0.00000E+00        -0.30342E+08
 
   -0.33334E+08        -0.76819E+05         0.00000E+00
   -0.76819E+05        -0.50044E+08         0.00000E+00
    0.00000E+00         0.00000E+00        -0.30330E+08
 
   -0.33261E+08        -0.74417E+05         0.00000E+00
   -0.74417E+05        -0.50055E+08         0.00000E+00
    0.00000E+00         0.00000E+00        -0.30318E+08
 
   -0.33186E+08        -0.69327E+05         0.00000E+00
   -0.69327E+05        -0.50067E+08         0.00000E+00
    0.00000E+00         0.00000E+00        -0.30305E+08
 
   -0.33110E+08        -0.61637E+05         0.00000E+00
   -0.61637E+05        -0.50080E+08         0.00000E+00
    0.00000E+00         0.00000E+00        -0.30292E+08
 
   -0.33032E+08        -0.51441E+05         0.00000E+00
   -0.51441E+05        -0.50093E+08         0.00000E+00
    0.00000E+00         0.00000E+00        -0.30280E+08
 
   -0.32954E+08        -0.38838E+05         0.00000E+00
   -0.38838E+05        -0.50107E+08         0.00000E+00
    0.00000E+00         0.00000E+00        -0.30267E+08
 
   -0.32875E+08        -0.23924E+05         0.00000E+00
   -0.23924E+05        -0.50122E+08         0.00000E+00
    0.00000E+00         0.00000E+00        -0.30254E+08
 
   -0.32795E+08        -0.67998E+04         0.00000E+00
   -0.67998E+04        -0.50137E+08         0.00000E+00
    0.00000E+00         0.00000E+00        -0.30241E+08
 
   -0.32714E+08         0.12440E+05         0.00000E+00
    0.12440E+05        -0.50153E+08         0.00000E+00
    0.00000E+00         0.00000E+00        -0.30228E+08
 
   -0.32632E+08         0.33702E+05         0.00000E+00
    0.33702E+05        -0.50169E+08         0.00000E+00
    0.00000E+00         0.00000E+00        -0.30215E+08
 
   -0.32550E+08         0.56899E+05         0.00000E+00
    0.56899E+05        -0.50186E+08         0.00000E+00
    0.00000E+00         0.00000E+00        -0.30202E+08
 
   -0.32468E+08         0.81948E+05         0.00000E+00
    0.81948E+05        -0.50203E+08         0.00000E+00
    0.00000E+00         0.00000E+00        -0.30188E+08
 
   -0.32385E+08         0.10877E+06         0.00000E+00
    0.10877E+06        -0.50220E+08         0.00000E+00
    0.00000E+00         0.00000E+00        -0.30175E+08
 
   -0.32302E+08         0.13731E+06         0.00000E+00
    0.13731E+06        -0.50239E+08         0.00000E+00
    0.00000E+00         0.00000E+00        -0.30163E+08
 
   -0.32219E+08         0.16749E+06         0.00000E+00
    0.16749E+06        -0.50257E+08         0.00000E+00
    0.00000E+00         0.00000E+00        -0.30150E+08
 
   -0.32135E+08         0.19926E+06         0.00000E+00
    0.19926E+06        -0.50277E+08         0.00000E+00
    0.00000E+00         0.00000E+00        -0.30137E+08
 
   -0.32051E+08         0.23258E+06         0.00000E+00
    0.23258E+06        -0.50297E+08         0.00000E+00
    0.00000E+00         0.00000E+00        -0.30124E+08
 
   -0.31967E+08         0.26741E+06         0.00000E+00
    0.26741E+06        -0.50317E+08         0.00000E+00
    0.00000E+00         0.00000E+00        -0.30111E+08
 
   -0.31882E+08         0.30372E+06         0.00000E+00
    0.30372E+06        -0.50338E+08         0.00000E+00
    0.00000E+00         0.00000E+00        -0.30098E+08
 
   -0.31797E+08         0.34149E+06         0.00000E+00
    0.34149E+06        -0.50360E+08         0.00000E+00
    0.00000E+00         0.00000E+00        -0.30086E+08
 
   -0.31713E+08         0.38070E+06         0.00000E+00
    0.38070E+06        -0.50383E+08         0.00000E+00
    0.00000E+00         0.00000E+00        -0.30073E+08
 
   -0.31627E+08         0.42134E+06         0.00000E+00
    0.42134E+06        -0.50406E+08         0.00000E+00
    0.00000E+00         0.00000E+00        -0.30061E+08
 
   -0.31542E+08         0.46342E+06         0.00000E+00
    0.46342E+06        -0.50430E+08         0.00000E+00
    0.00000E+00         0.00000E+00        -0.30049E+08
 
   -0.31457E+08         0.50693E+06         0.00000E+00
    0.50693E+06        -0.50455E+08         0.00000E+00
    0.00000E+00         0.00000E+00        -0.30037E+08
 
   -0.31371E+08         0.55189E+06         0.00000E+00
    0.55189E+06        -0.50480E+08         0.00000E+00
    0.00000E+00         0.00000E+00        -0.30025E+08
 
   -0.31285E+08         0.59831E+06         0.00000E+00
    0.59831E+06        -0.50506E+08         0.00000E+00
    0.00000E+00         0.00000E+00        -0.30013E+08
 
   -0.31199E+08         0.64622E+06         0.00000E+00
    0.64622E+06        -0.50533E+08         0.00000E+00
    0.00000E+00         0.00000E+00        -0.30001E+08
 
   -0.31113E+08         0.69564E+06         0.00000E+00
    0.69564E+06        -0.50561E+08         0.00000E+00
    0.00000E+00         0.00000E+00        -0.29989E+08
 
   -0.31028E+08         0.74659E+06         0.00000E+00
    0.74659E+06        -0.50589E+08         0.00000E+00
    0.00000E+00         0.00000E+00        -0.29978E+08
 
   -0.30942E+08         0.79911E+06         0.00000E+00
    0.79911E+06        -0.50618E+08         0.00000E+00
    0.00000E+00         0.00000E+00        -0.29966E+08
 
   -0.30856E+08         0.85323E+06         0.00000E+00
    0.85323E+06        -0.50648E+08         0.00000E+00
    0.00000E+00         0.00000E+00        -0.29955E+08
 
   -0.30770E+08         0.90897E+06         0.00000E+00
    0.90897E+06        -0.50678E+08         0.00000E+00
    0.00000E+00         0.00000E+00        -0.29944E+08
 
   -0.30685E+08         0.96637E+06         0.00000E+00
    0.96637E+06        -0.50710E+08         0.00000E+00
    0.00000E+00         0.00000E+00        -0.29933E+08
 
   -0.30600E+08         0.10255E+07         0.00000E+00
    0.10255E+07        -0.50741E+08         0.00000E+00
    0.00000E+00         0.00000E+00        -0.29923E+08
 
   -0.30515E+08         0.10862E+07         0.00000E+00
    0.10862E+07        -0.50773E+08         0.00000E+00
    0.00000E+00         0.00000E+00        -0.29912E+08
 
   -0.30431E+08         0.11487E+07         0.00000E+00
    0.11487E+07        -0.50806E+08         0.00000E+00
    0.00000E+00         0.00000E+00        -0.29902E+08
 
   -0.30348E+08         0.12130E+07         0.00000E+00
    0.12130E+07        -0.50839E+08         0.00000E+00
    0.00000E+00         0.00000E+00        -0.29892E+08
 
   -0.30266E+08         0.12789E+07         0.00000E+00
    0.12789E+07        -0.50872E+08         0.00000E+00
    0.00000E+00         0.00000E+00        -0.29882E+08
 
   -0.30184E+08         0.13466E+07         0.00000E+00
    0.13466E+07        -0.50906E+08         0.00000E+00
    0.00000E+00         0.00000E+00        -0.29872E+08
 
   -0.30104E+08         0.14159E+07         0.00000E+00
    0.14159E+07        -0.50940E+08         0.00000E+00
    0.00000E+00         0.00000E+00        -0.29863E+08
 
   -0.30024E+08         0.14870E+07         0.00000E+00
    0.14870E+07        -0.50974E+08         0.00000E+00
    0.00000E+00         0.00000E+00        -0.29854E+08
 
   -0.29947E+08         0.15596E+07         0.00000E+00
    0.15596E+07        -0.51007E+08         0.00000E+00
    0.00000E+00         0.00000E+00        -0.29845E+08
 
   -0.29870E+08         0.16338E+07         0.00000E+00
    0.16338E+07        -0.51041E+08         0.00000E+00
    0.00000E+00         0.00000E+00        -0.29837E+08
 
   -0.33903E+08        -0.18105E+05         0.00000E+00
   -0.18105E+05        -0.50000E+08         0.00000E+00
    0.00000E+00         0.00000E+00        -0.30134E+08
 
   -0.33830E+08        -0.45111E+05         0.00000E+00
   -0.45111E+05        -0.50002E+08         0.00000E+00
    0.00000E+00         0.00000E+00        -0.30120E+08
 
   -0.33754E+08        -0.68246E+05         0.00000E+00
   -0.68246E+05        -0.50005E+08         0.00000E+00
    0.00000E+00         0.00000E+00        -0.30106E+08
 
   -0.33676E+08        -0.87477E+05         0.00000E+00
   -0.87477E+05        -0.50011E+08         0.00000E+00
    0.00000E+00         0.00000E+00        -0.30091E+08
 
   -0.33595E+08        -0.10290E+06         0.00000E+00
   -0.10290E+06        -0.50017E+08         0.00000E+00
    0.00000E+00         0.00000E+00        -0.30076E+08
 
   -0.33511E+08        -0.11462E+06         0.00000E+00
   -0.11462E+06        -0.50025E+08         0.00000E+00
    0.00000E+00         0.00000E+00        -0.30061E+08
 
   -0.33426E+08        -0.12277E+06         0.00000E+00
   -0.12277E+06        -0.50033E+08         0.00000E+00
    0.00000E+00         0.00000E+00        -0.30045E+08
 
   -0.33339E+08        -0.12748E+06         0.00000E+00
   -0.12748E+06        -0.50042E+08         0.00000E+00
    0.00000E+00         0.00000E+00        -0.30030E+08
 
   -0.33251E+08        -0.12889E+06         0.00000E+00
   -0.12889E+06        -0.50052E+08         0.00000E+00
    0.00000E+00         0.00000E+00        -0.30014E+08
 
   -0.33162E+08        -0.12717E+06         0.00000E+00
   -0.12717E+06        -0.50063E+08         0.00000E+00
    0.00000E+00         0.00000E+00        -0.29999E+08
 
   -0.33073E+08        -0.12248E+06         0.00000E+00
   -0.12248E+06        -0.50074E+08         0.00000E+00
    0.00000E+00         0.00000E+00        -0.29983E+08
 
   -0.32982E+08        -0.11500E+06         0.00000E+00
   -0.11500E+06        -0.50085E+08         0.00000E+00
    0.00000E+00         0.00000E+00        -0.29967E+08
 
   -0.32892E+08        -0.10490E+06         0.00000E+00
   -0.10490E+06        -0.50097E+08         0.00000E+00
    0.00000E+00         0.00000E+00        -0.29951E+08
 
   -0.32801E+08        -0.92341E+05         0.00000E+00
   -0.92341E+05        -0.50109E+08         0.00000E+00
    0.00000E+00         0.00000E+00        -0.29935E+08
 
   -0.32710E+08        -0.77499E+05         0.00000E+00
   -0.77499E+05        -0.50121E+08         0.00000E+00
    0.00000E+00         0.00000E+00        -0.29920E+08
 
   -0.32619E+08        -0.60521E+05         0.00000E+00
   -0.60521E+05        -0.50134E+08         0.00000E+00
    0.00000E+00         0.00000E+00        -0.29904E+08
 
   -0.32527E+08        -0.41549E+05         0.00000E+00
   -0.41549E+05        -0.50147E+08         0.00000E+00
    0.00000E+00         0.00000E+00        -0.29888E+08
 
   -0.32436E+08        -0.20711E+05         0.00000E+00
   -0.20711E+05        -0.50160E+08         0.00000E+00
    0.00000E+00         0.00000E+00        -0.29873E+08
 
   -0.32345E+08         0.18768E+04         0.00000E+00
    0.18768E+04        -0.50174E+08         0.00000E+00
    0.00000E+00         0.00000E+00        -0.29857E+08
 
   -0.32254E+08         0.26113E+05         0.00000E+00
    0.26113E+05        -0.50189E+08         0.00000E+00
    0.00000E+00         0.00000E+00        -0.29842E+08
 
   -0.32163E+08         0.51908E+05         0.00000E+00
    0.51908E+05        -0.50204E+08         0.00000E+00
    0.00000E+00         0.00000E+00        -0.29827E+08
 
   -0.32071E+08         0.79187E+05         0.00000E+00
    0.79187E+05        -0.50220E+08         0.00000E+00
    0.00000E+00         0.00000E+00        -0.29812E+08
 
   -0.31980E+08         0.10789E+06         0.00000E+00
    0.10789E+06        -0.50236E+08         0.00000E+00
    0.00000E+00         0.00000E+00        -0.29797E+08
 
   -0.31889E+08         0.13796E+06         0.00000E+00
    0.13796E+06        -0.50253E+08         0.00000E+00
    0.00000E+00         0.00000E+00        -0.29782E+08
 
   -0.31798E+08         0.16936E+06         0.00000E+00
    0.16936E+06        -0.50270E+08         0.00000E+00
    0.00000E+00         0.00000E+00        -0.29767E+08
 
   -0.31706E+08         0.20206E+06         0.00000E+00
    0.20206E+06        -0.50289E+08         0.00000E+00
    0.00000E+00         0.00000E+00        -0.29753E+08
 
   -0.31615E+08         0.23605E+06         0.00000E+00
    0.23605E+06        -0.50308E+08         0.00000E+00
    0.00000E+00         0.00000E+00        -0.29738E+08
 
   -0.31523E+08         0.27132E+06         0.00000E+00
    0.27132E+06        -0.50328E+08         0.00000E+00
    0.00000E+00         0.00000E+00        -0.29724E+08
 
   -0.31431E+08         0.30788E+06         0.00000E+00
    0.30788E+06        -0.50349E+08         0.00000E+00
    0.00000E+00         0.00000E+00        -0.29710E+08
 
   -0.31339E+08         0.34573E+06         0.00000E+00
    0.34573E+06        -0.50371E+08         0.00000E+00
    0.00000E+00         0.00000E+00        -0.29696E+08
 
   -0.31246E+08         0.38491E+06         0.00000E+00
    0.38491E+06        -0.50395E+08         0.00000E+00
    0.00000E+00         0.00000E+00        -0.29682E+08
 
   -0.31153E+08         0.42544E+06         0.00000E+00
    0.42544E+06        -0.50419E+08         0.00000E+00
    0.00000E+00         0.00000E+00        -0.29668E+08
 
   -0.31060E+08         0.46737E+06         0.00000E+00
    0.46737E+06        -0.50444E+08         0.00000E+00
    0.00000E+00         0.00000E+00        -0.29654E+08
 
   -0.30967E+08         0.51075E+06         0.00000E+00
    0.51075E+06        -0.50470E+08         0.00000E+00
    0.00000E+00         0.00000E+00        -0.29641E+08
 
   -0.30874E+08         0.55564E+06         0.00000E+00
    0.55564E+06        -0.50497E+08         0.00000E+00
    0.00000E+00         0.00000E+00        -0.29628E+08
 
   -0.30780E+08         0.60210E+06         0.00000E+00
    0.60210E+06        -0.50526E+08         0.00000E+00
    0.00000E+00         0.00000E+00        -0.29615E+08
 
   -0.30686E+08         0.65021E+06         0.00000E+00
    0.65021E+06        -0.50555E+08         0.00000E+00
    0.00000E+00         0.00000E+00        -0.29602E+08
 
   -0.30591E+08         0.70003E+06         0.00000E+00
    0.70003E+06        -0.50586E+08         0.00000E+00
    0.00000E+00         0.00000E+00        -0.29589E+08
 
   -0.30497E+08         0.75166E+06         0.00000E+00
    0.75166E+06        -0.50618E+08         0.00000E+00
    0.00000E+00         0.00000E+00        -0.29577E+08
 
   -0.30403E+08         0.80517E+06         0.00000E+00
    0.80517E+06        -0.50650E+08         0.00000E+00
    0.00000E+00         0.00000E+00        -0.29564E+08
 
   -0.30309E+08         0.86065E+06         0.00000E+00
    0.86065E+06        -0.50684E+08         0.00000E+00
    0.00000E+00         0.00000E+00        -0.29552E+08
 
   -0.30215E+08         0.91816E+06         0.00000E+00
    0.91816E+06        -0.50718E+08         0.00000E+00
    0.00000E+00         0.00000E+00        -0.29540E+08
 
   -0.30121E+08         0.97778E+06         0.00000E+00
    0.97778E+06        -0.50754E+08         0.00000E+00
    0.00000E+00         0.00000E+00        -0.29529E+08
 
   -0.30028E+08         0.10396E+07         0.00000E+00
    0.10396E+07        -0.50790E+08         0.00000E+00
    0.00000E+00         0.00000E+00        -0.29517E+08
 
   -0.29936E+08         0.11035E+07         0.00000E+00
    0.11035E+07        -0.50827E+08         0.00000E+00
    0.00000E+00         0.00000E+00        -0.29506E+08
 
   -0.29844E+08         0.11698E+07         0.00000E+00
    0.11698E+07        -0.50864E+08         0.00000E+00
    0.00000E+00         0.00000E+00        -0.29495E+08
 
   -0.29754E+08         0.12383E+07         0.00000E+00
    0.12383E+07        -0.50901E+08         0.00000E+00
    0.00000E+00         0.00000E+00        -0.29485E+08
 
   -0.29665E+08         0.13090E+07         0.00000E+00
    0.13090E+07        -0.50939E+08         0.00000E+00
    0.00000E+00         0.00000E+00        -0.29474E+08
 
   -0.29578E+08         0.13821E+07         0.00000E+00
    0.13821E+07        -0.50977E+08         0.00000E+00
    0.00000E+00         0.00000E+00        -0.29465E+08
 
   -0.29492E+08         0.14572E+07         0.00000E+00
    0.14572E+07        -0.51014E+08         0.00000E+00
    0.00000E+00         0.00000E+00        -0.29455E+08
 
   -0.34071E+08        -0.23943E+05         0.00000E+00
   -0.23943E+05        -0.50000E+08         0.00000E+00
    0.00000E+00         0.00000E+00        -0.29867E+08
 
   -0.33976E+08        -0.59630E+05         0.00000E+00
   -0.59630E+05        -0.50002E+08         0.00000E+00
    0.00000E+00         0.00000E+00        -0.29848E+08
 
   -0.33877E+08        -0.89913E+05         0.00000E+00
   -0.89913E+05        -0.50006E+08         0.00000E+00
    0.00000E+00         0.00000E+00        -0.29829E+08
 
   -0.33777E+08        -0.11522E+06         0.00000E+00
   -0.11522E+06        -0.50010E+08         0.00000E+00
    0.00000E+00         0.00000E+00        -0.29810E+08
 
   -0.33675E+08        -0.13570E+06         0.00000E+00
   -0.13570E+06        -0.50016E+08         0.00000E+00
    0.00000E+00         0.00000E+00        -0.29791E+08
 
   -0.33571E+08        -0.15151E+06         0.00000E+00
   -0.15151E+06        -0.50023E+08         0.00000E+00
    0.00000E+00         0.00000E+00        -0.29771E+08
 
   -0.33466E+08        -0.16285E+06         0.00000E+00
   -0.16285E+06        -0.50029E+08         0.00000E+00
    0.00000E+00         0.00000E+00        -0.29752E+08
 
   -0.33361E+08        -0.16999E+06         0.00000E+00
   -0.16999E+06        -0.50037E+08         0.00000E+00
    0.00000E+00         0.00000E+00        -0.29732E+08
 
   -0.33256E+08        -0.17324E+06         0.00000E+00
   -0.17324E+06        -0.50044E+08         0.00000E+00
    0.00000E+00         0.00000E+00        -0.29713E+08
 
   -0.33151E+08        -0.17294E+06         0.00000E+00
   -0.17294E+06        -0.50051E+08         0.00000E+00
    0.00000E+00         0.00000E+00        -0.29693E+08
 
   -0.33046E+08        -0.16941E+06         0.00000E+00
   -0.16941E+06        -0.50058E+08         0.00000E+00
    0.00000E+00         0.00000E+00        -0.29674E+08
 
   -0.32942E+08        -0.16296E+06         0.00000E+00
   -0.16296E+06        -0.50065E+08         0.00000E+00
    0.00000E+00         0.00000E+00        -0.29654E+08
 
   -0.32839E+08        -0.15389E+06         0.00000E+00
   -0.15389E+06        -0.50073E+08         0.00000E+00
    0.00000E+00         0.00000E+00        -0.29635E+08
 
   -0.32736E+08        -0.14246E+06         0.00000E+00
   -0.14246E+06        -0.50080E+08         0.00000E+00
    0.00000E+00         0.00000E+00        -0.29616E+08
 
   -0.32634E+08        -0.12891E+06         0.00000E+00
   -0.12891E+06        -0.50087E+08         0.00000E+00
    0.00000E+00         0.00000E+00        -0.29597E+08
 
   -0.32533E+08        -0.11344E+06         0.00000E+00
   -0.11344E+06        -0.50095E+08         0.00000E+00
    0.00000E+00         0.00000E+00        -0.29578E+08
 
   -0.32433E+08        -0.96247E+05         0.00000E+00
   -0.96247E+05        -0.50103E+08         0.00000E+00
    0.00000E+00         0.00000E+00        -0.29560E+08
 
   -0.32334E+08        -0.77481E+05         0.00000E+00
   -0.77481E+05        -0.50111E+08         0.00000E+00
    0.00000E+00         0.00000E+00        -0.29542E+08
 
   -0.32235E+08        -0.57278E+05         0.00000E+00
   -0.57278E+05        -0.50120E+08         0.00000E+00
    0.00000E+00         0.00000E+00        -0.29524E+08
 
   -0.32136E+08        -0.35753E+05         0.00000E+00
   -0.35753E+05        -0.50129E+08         0.00000E+00
    0.00000E+00         0.00000E+00        -0.29506E+08
 
   -0.32038E+08        -0.12999E+05         0.00000E+00
   -0.12999E+05        -0.50139E+08         0.00000E+00
    0.00000E+00         0.00000E+00        -0.29488E+08
 
   -0.31940E+08         0.10909E+05         0.00000E+00
    0.10909E+05        -0.50150E+08         0.00000E+00
    0.00000E+00         0.00000E+00        -0.29471E+08
 
   -0.31843E+08         0.35910E+05         0.00000E+00
    0.35910E+05        -0.50161E+08         0.00000E+00
    0.00000E+00         0.00000E+00        -0.29454E+08
 
   -0.31746E+08         0.61959E+05         0.00000E+00
    0.61959E+05        -0.50173E+08         0.00000E+00
    0.00000E+00         0.00000E+00        -0.29437E+08
 
   -0.31649E+08         0.89027E+05         0.00000E+00
    0.89027E+05        -0.50187E+08         0.00000E+00
    0.00000E+00         0.00000E+00        -0.29420E+08
 
   -0.31551E+08         0.11710E+06         0.00000E+00
    0.11710E+06        -0.50201E+08         0.00000E+00
    0.00000E+00         0.00000E+00        -0.29403E+08
 
   -0.31454E+08         0.14616E+06         0.00000E+00
    0.14616E+06        -0.50216E+08         0.00000E+00
    0.00000E+00         0.00000E+00        -0.29387E+08
 
   -0.31356E+08         0.17623E+06         0.00000E+00
    0.17623E+06        -0.50233E+08         0.00000E+00
    0.00000E+00         0.00000E+00        -0.29371E+08
 
   -0.31259E+08         0.20732E+06         0.00000E+00
    0.20732E+06        -0.50251E+08         0.00000E+00
    0.00000E+00         0.00000E+00        -0.29355E+08
 
   -0.31160E+08         0.23947E+06         0.00000E+00
    0.23947E+06        -0.50270E+08         0.00000E+00
    0.00000E+00         0.00000E+00        -0.29339E+08
 
   -0.31062E+08         0.27271E+06         0.00000E+00
    0.27271E+06        -0.50290E+08         0.00000E+00
    0.00000E+00         0.00000E+00        -0.29323E+08
 
   -0.30963E+08         0.30711E+06         0.00000E+00
    0.30711E+06        -0.50312E+08         0.00000E+00
    0.00000E+00         0.00000E+00        -0.29308E+08
 
   -0.30863E+08         0.34273E+06         0.00000E+00
    0.34273E+06        -0.50335E+08         0.00000E+00
    0.00000E+00         0.00000E+00        -0.29292E+08
 
   -0.30762E+08         0.37965E+06         0.00000E+00
    0.37965E+06        -0.50360E+08         0.00000E+00
    0.00000E+00         0.00000E+00        -0.29277E+08
 
   -0.30661E+08         0.41796E+06         0.00000E+00
    0.41796E+06        -0.50386E+08         0.00000E+00
    0.00000E+00         0.00000E+00        -0.29262E+08
 
   -0.30559E+08         0.45778E+06         0.00000E+00
    0.45778E+06        -0.50414E+08         0.00000E+00
    0.00000E+00         0.00000E+00        -0.29247E+08
 
   -0.30457E+08         0.49923E+06         0.00000E+00
    0.49923E+06        -0.50443E+08         0.00000E+00
    0.00000E+00         0.00000E+00        -0.29233E+08
 
   -0.30354E+08         0.54244E+06         0.00000E+00
    0.54244E+06        -0.50474E+08         0.00000E+00
    0.00000E+00         0.00000E+00        -0.29218E+08
 
   -0.30250E+08         0.58756E+06         0.00000E+00
    0.58756E+06        -0.50507E+08         0.00000E+00
    0.00000E+00         0.00000E+00        -0.29204E+08
 
   -0.30145E+08         0.63476E+06         0.00000E+00
    0.63476E+06        -0.50541E+08         0.00000E+00
    0.00000E+00         0.00000E+00        -0.29190E+08
 
   -0.30040E+08         0.68421E+06         0.00000E+00
    0.68421E+06        -0.50577E+08         0.00000E+00
    0.00000E+00         0.00000E+00        -0.29176E+08
 
   -0.29935E+08         0.73609E+06         0.00000E+00
    0.73609E+06        -0.50614E+08         0.00000E+00
    0.00000E+00         0.00000E+00        -0.29163E+08
 
   -0.29829E+08         0.79060E+06         0.00000E+00
    0.79060E+06        -0.50653E+08         0.00000E+00
    0.00000E+00         0.00000E+00        -0.29149E+08
 
   -0.29724E+08         0.84789E+06         0.00000E+00
    0.84789E+06        -0.50693E+08         0.00000E+00
    0.00000E+00         0.00000E+00        -0.29136E+08
 
   -0.29618E+08         0.90811E+06         0.00000E+00
    0.90811E+06        -0.50734E+08         0.00000E+00
    0.00000E+00         0.00000E+00        -0.29123E+08
 
   -0.29514E+08         0.97140E+06         0.00000E+00
    0.97140E+06        -0.50776E+08         0.00000E+00
    0.00000E+00         0.00000E+00        -0.29111E+08
 
   -0.29410E+08         0.10378E+07         0.00000E+00
    0.10378E+07        -0.50819E+08         0.00000E+00
    0.00000E+00         0.00000E+00        -0.29099E+08
 
   -0.29307E+08         0.11074E+07         0.00000E+00
    0.11074E+07        -0.50863E+08         0.00000E+00
    0.00000E+00         0.00000E+00        -0.29087E+08
 
   -0.29206E+08         0.11801E+07         0.00000E+00
    0.11801E+07        -0.50906E+08         0.00000E+00
    0.00000E+00         0.00000E+00        -0.29075E+08
 
   -0.29108E+08         0.12564E+07         0.00000E+00
    0.12564E+07        -0.50950E+08         0.00000E+00
    0.00000E+00         0.00000E+00        -0.29064E+08
 
   -0.34284E+08        -0.30309E+05         0.00000E+00
   -0.30309E+05        -0.50000E+08         0.00000E+00
    0.00000E+00         0.00000E+00        -0.29609E+08
 
   -0.34158E+08        -0.73148E+05         0.00000E+00
   -0.73148E+05        -0.50001E+08         0.00000E+00
    0.00000E+00         0.00000E+00        -0.29584E+08
 
   -0.34030E+08        -0.10969E+06         0.00000E+00
   -0.10969E+06        -0.50005E+08         0.00000E+00
    0.00000E+00         0.00000E+00        -0.29559E+08
 
   -0.33900E+08        -0.13909E+06         0.00000E+00
   -0.13909E+06        -0.50010E+08         0.00000E+00
    0.00000E+00         0.00000E+00        -0.29534E+08
 
   -0.33770E+08        -0.16152E+06         0.00000E+00
   -0.16152E+06        -0.50014E+08         0.00000E+00
    0.00000E+00         0.00000E+00        -0.29509E+08
 
   -0.33640E+08        -0.17760E+06         0.00000E+00
   -0.17760E+06        -0.50018E+08         0.00000E+00
    0.00000E+00         0.00000E+00        -0.29483E+08
 
   -0.33511E+08        -0.18811E+06         0.00000E+00
   -0.18811E+06        -0.50021E+08         0.00000E+00
    0.00000E+00         0.00000E+00        -0.29458E+08
 
   -0.33385E+08        -0.19380E+06         0.00000E+00
   -0.19380E+06        -0.50023E+08         0.00000E+00
    0.00000E+00         0.00000E+00        -0.29433E+08
 
   -0.33261E+08        -0.19540E+06         0.00000E+00
   -0.19540E+06        -0.50024E+08         0.00000E+00
    0.00000E+00         0.00000E+00        -0.29409E+08
 
   -0.33139E+08        -0.19352E+06         0.00000E+00
   -0.19352E+06        -0.50024E+08         0.00000E+00
    0.00000E+00         0.00000E+00        -0.29385E+08
 
   -0.33020E+08        -0.18871E+06         0.00000E+00
   -0.18871E+06        -0.50024E+08         0.00000E+00
    0.00000E+00         0.00000E+00        -0.29361E+08
 
   -0.32903E+08        -0.18140E+06         0.00000E+00
   -0.18140E+06        -0.50023E+08         0.00000E+00
    0.00000E+00         0.00000E+00        -0.29337E+08
 
   -0.32788E+08        -0.17199E+06         0.00000E+00
   -0.17199E+06        -0.50023E+08         0.00000E+00
    0.00000E+00         0.00000E+00        -0.29314E+08
 
   -0.32676E+08        -0.16078E+06         0.00000E+00
   -0.16078E+06        -0.50022E+08         0.00000E+00
    0.00000E+00         0.00000E+00        -0.29291E+08
 
   -0.32565E+08        -0.14802E+06         0.00000E+00
   -0.14802E+06        -0.50021E+08         0.00000E+00
    0.00000E+00         0.00000E+00        -0.29269E+08
 
   -0.32456E+08        -0.13394E+06         0.00000E+00
   -0.13394E+06        -0.50021E+08         0.00000E+00
    0.00000E+00         0.00000E+00        -0.29247E+08
 
   -0.32349E+08        -0.11869E+06         0.00000E+00
   -0.11869E+06        -0.50021E+08         0.00000E+00
    0.00000E+00         0.00000E+00        -0.29226E+08
 
   -0.32243E+08        -0.10243E+06         0.00000E+00
   -0.10243E+06        -0.50022E+08         0.00000E+00
    0.00000E+00         0.00000E+00        -0.29205E+08
 
   -0.32139E+08        -0.85252E+05         0.00000E+00
   -0.85252E+05        -0.50023E+08         0.00000E+00
    0.00000E+00         0.00000E+00        -0.29184E+08
 
   -0.32035E+08        -0.67258E+05         0.00000E+00
   -0.67258E+05        -0.50025E+08         0.00000E+00
    0.00000E+00         0.00000E+00        -0.29164E+08
 
   -0.31932E+08        -0.48513E+05         0.00000E+00
   -0.48513E+05        -0.50029E+08         0.00000E+00
    0.00000E+00         0.00000E+00        -0.29144E+08
 
   -0.31830E+08        -0.29068E+05         0.00000E+00
   -0.29068E+05        -0.50033E+08         0.00000E+00
    0.00000E+00         0.00000E+00        -0.29124E+08
 
   -0.31728E+08        -0.89611E+04         0.00000E+00
   -0.89611E+04        -0.50038E+08         0.00000E+00
    0.00000E+00         0.00000E+00        -0.29105E+08
 
   -0.31627E+08         0.11784E+05         0.00000E+00
    0.11784E+05        -0.50044E+08         0.00000E+00
    0.00000E+00         0.00000E+00        -0.29086E+08
 
   -0.31525E+08         0.33156E+05         0.00000E+00
    0.33156E+05        -0.50052E+08         0.00000E+00
    0.00000E+00         0.00000E+00        -0.29067E+08
 
   -0.31424E+08         0.55154E+05         0.00000E+00
    0.55154E+05        -0.50061E+08         0.00000E+00
    0.00000E+00         0.00000E+00        -0.29049E+08
 
   -0.31323E+08         0.77788E+05         0.00000E+00
    0.77788E+05        -0.50072E+08         0.00000E+00
    0.00000E+00         0.00000E+00        -0.29031E+08
 
   -0.31221E+08         0.10108E+06         0.00000E+00
    0.10108E+06        -0.50084E+08         0.00000E+00
    0.00000E+00         0.00000E+00        -0.29013E+08
 
   -0.31119E+08         0.12505E+06         0.00000E+00
    0.12505E+06        -0.50097E+08         0.00000E+00
    0.00000E+00         0.00000E+00        -0.28995E+08
 
   -0.31016E+08         0.14976E+06         0.00000E+00
    0.14976E+06        -0.50112E+08         0.00000E+00
    0.00000E+00         0.00000E+00        -0.28978E+08
 
   -0.30912E+08         0.17524E+06         0.00000E+00
    0.17524E+06        -0.50129E+08         0.00000E+00
    0.00000E+00         0.00000E+00        -0.28960E+08
 
   -0.30808E+08         0.20156E+06         0.00000E+00
    0.20156E+06        -0.50148E+08         0.00000E+00
    0.00000E+00         0.00000E+00        -0.28943E+08
 
   -0.30702E+08         0.22881E+06         0.00000E+00
    0.22881E+06        -0.50168E+08         0.00000E+00
    0.00000E+00         0.00000E+00        -0.28926E+08
 
   -0.30596E+08         0.25707E+06         0.00000E+00
    0.25707E+06        -0.50191E+08         0.00000E+00
    0.00000E+00         0.00000E+00        -0.28909E+08
 
   -0.30488E+08         0.28646E+06         0.00000E+00
    0.28646E+06        -0.50215E+08         0.00000E+00
    0.00000E+00         0.00000E+00        -0.28893E+08
 
   -0.30379E+08         0.31710E+06         0.00000E+00
    0.31710E+06        -0.50242E+08         0.00000E+00
    0.00000E+00         0.00000E+00        -0.28876E+08
 
   -0.30268E+08         0.34914E+06         0.00000E+00
    0.34914E+06        -0.50270E+08         0.00000E+00
    0.00000E+00         0.00000E+00        -0.28860E+08
 
   -0.30156E+08         0.38277E+06         0.00000E+00
    0.38277E+06        -0.50301E+08         0.00000E+00
    0.00000E+00         0.00000E+00        -0.28843E+08
 
   -0.30042E+08         0.41819E+06         0.00000E+00
    0.41819E+06        -0.50334E+08         0.00000E+00
    0.00000E+00         0.00000E+00        -0.28827E+08
 
   -0.29927E+08         0.45563E+06         0.00000E+00
    0.45563E+06        -0.50369E+08         0.00000E+00
    0.00000E+00         0.00000E+00        -0.28811E+08
 
   -0.29810E+08         0.49539E+06         0.00000E+00
    0.49539E+06        -0.50407E+08         0.00000E+00
    0.00000E+00         0.00000E+00        -0.28795E+08
 
   -0.29691E+08         0.53779E+06         0.00000E+00
    0.53779E+06        -0.50447E+08         0.00000E+00
    0.00000E+00         0.00000E+00        -0.28780E+08
 
   -0.29570E+08         0.58319E+06         0.00000E+00
    0.58319E+06        -0.50489E+08         0.00000E+00
    0.00000E+00         0.00000E+00        -0.28764E+08
 
   -0.29449E+08         0.63201E+06         0.00000E+00
    0.63201E+06        -0.50534E+08         0.00000E+00
    0.00000E+00         0.00000E+00        -0.28749E+08
 
   -0.29326E+08         0.68470E+06         0.00000E+00
    0.68470E+06        -0.50581E+08         0.00000E+00
    0.00000E+00         0.00000E+00        -0.28733E+08
 
   -0.29202E+08         0.74172E+06         0.00000E+00
    0.74172E+06        -0.50631E+08         0.00000E+00
    0.00000E+00         0.00000E+00        -0.28719E+08
 
   -0.29079E+08         0.80351E+06         0.00000E+00
    0.80351E+06        -0.50682E+08         0.00000E+00
    0.00000E+00         0.00000E+00        -0.28704E+08
 
   -0.28956E+08         0.87033E+06         0.00000E+00
    0.87033E+06        -0.50734E+08         0.00000E+00
    0.00000E+00         0.00000E+00        -0.28690E+08
 
   -0.28835E+08         0.94209E+06         0.00000E+00
    0.94209E+06        -0.50787E+08         0.00000E+00
    0.00000E+00         0.00000E+00        -0.28676E+08
 
   -0.28716E+08         0.10179E+07         0.00000E+00
    0.10179E+07        -0.50838E+08         0.00000E+00
    0.00000E+00         0.00000E+00        -0.28663E+08
 
   -0.34540E+08        -0.38273E+05         0.00000E+00
   -0.38273E+05        -0.49999E+08         0.00000E+00
    0.00000E+00         0.00000E+00        -0.29359E+08
 
   -0.34367E+08        -0.89804E+05         0.00000E+00
   -0.89804E+05        -0.50007E+08         0.00000E+00
    0.00000E+00         0.00000E+00        -0.29326E+08
 
   -0.34190E+08        -0.12509E+06         0.00000E+00
   -0.12509E+06        -0.50011E+08         0.00000E+00
    0.00000E+00         0.00000E+00        -0.29291E+08
 
   -0.34017E+08        -0.14840E+06         0.00000E+00
   -0.14840E+06        -0.50010E+08         0.00000E+00
    0.00000E+00         0.00000E+00        -0.29257E+08
 
   -0.33851E+08        -0.16293E+06         0.00000E+00
   -0.16293E+06        -0.50005E+08         0.00000E+00
    0.00000E+00         0.00000E+00        -0.29222E+08
 
   -0.33691E+08        -0.17098E+06         0.00000E+00
   -0.17098E+06        -0.49998E+08         0.00000E+00
    0.00000E+00         0.00000E+00        -0.29189E+08
 
   -0.33538E+08        -0.17423E+06         0.00000E+00
   -0.17423E+06        -0.49989E+08         0.00000E+00
    0.00000E+00         0.00000E+00        -0.29157E+08
 
   -0.33392E+08        -0.17388E+06         0.00000E+00
   -0.17388E+06        -0.49978E+08         0.00000E+00
    0.00000E+00         0.00000E+00        -0.29125E+08
 
   -0.33252E+08        -0.17081E+06         0.00000E+00
   -0.17081E+06        -0.49966E+08         0.00000E+00
    0.00000E+00         0.00000E+00        -0.29095E+08
 
   -0.33117E+08        -0.16565E+06         0.00000E+00
   -0.16565E+06        -0.49954E+08         0.00000E+00
    0.00000E+00         0.00000E+00        -0.29065E+08
 
   -0.32987E+08        -0.15889E+06         0.00000E+00
   -0.15889E+06        -0.49941E+08         0.00000E+00
    0.00000E+00         0.00000E+00        -0.29037E+08
 
   -0.32861E+08        -0.15086E+06         0.00000E+00
   -0.15086E+06        -0.49929E+08         0.00000E+00
    0.00000E+00         0.00000E+00        -0.29009E+08
 
   -0.32739E+08        -0.14183E+06         0.00000E+00
   -0.14183E+06        -0.49916E+08         0.00000E+00
    0.00000E+00         0.00000E+00        -0.28982E+08
 
   -0.32621E+08        -0.13200E+06         0.00000E+00
   -0.13200E+06        -0.49905E+08         0.00000E+00
    0.00000E+00         0.00000E+00        -0.28956E+08
 
   -0.32505E+08        -0.12151E+06         0.00000E+00
   -0.12151E+06        -0.49894E+08         0.00000E+00
    0.00000E+00         0.00000E+00        -0.28931E+08
 
   -0.32392E+08        -0.11048E+06         0.00000E+00
   -0.11048E+06        -0.49884E+08         0.00000E+00
    0.00000E+00         0.00000E+00        -0.28906E+08
 
   -0.32281E+08        -0.98986E+05         0.00000E+00
   -0.98986E+05        -0.49875E+08         0.00000E+00
    0.00000E+00         0.00000E+00        -0.28882E+08
 
   -0.32172E+08        -0.87101E+05         0.00000E+00
   -0.87101E+05        -0.49867E+08         0.00000E+00
    0.00000E+00         0.00000E+00        -0.28859E+08
 
   -0.32064E+08        -0.74867E+05         0.00000E+00
   -0.74867E+05        -0.49861E+08         0.00000E+00
    0.00000E+00         0.00000E+00        -0.28836E+08
 
   -0.31957E+08        -0.62318E+05         0.00000E+00
   -0.62318E+05        -0.49855E+08         0.00000E+00
    0.00000E+00         0.00000E+00        -0.28814E+08
 
   -0.31852E+08        -0.49478E+05         0.00000E+00
   -0.49478E+05        -0.49851E+08         0.00000E+00
    0.00000E+00         0.00000E+00        -0.28792E+08
 
   -0.31747E+08        -0.36361E+05         0.00000E+00
   -0.36361E+05        -0.49849E+08         0.00000E+00
    0.00000E+00         0.00000E+00        -0.28770E+08
 
   -0.31643E+08        -0.22973E+05         0.00000E+00
   -0.22973E+05        -0.49848E+08         0.00000E+00
    0.00000E+00         0.00000E+00        -0.28749E+08
 
   -0.31539E+08        -0.93149E+04         0.00000E+00
   -0.93149E+04        -0.49849E+08         0.00000E+00
    0.00000E+00         0.00000E+00        -0.28729E+08
 
   -0.31436E+08         0.46199E+04         0.00000E+00
    0.46199E+04        -0.49851E+08         0.00000E+00
    0.00000E+00         0.00000E+00        -0.28709E+08
 
   -0.31332E+08         0.18843E+05         0.00000E+00
    0.18843E+05        -0.49855E+08         0.00000E+00
    0.00000E+00         0.00000E+00        -0.28689E+08
 
   -0.31228E+08         0.33371E+05         0.00000E+00
    0.33371E+05        -0.49861E+08         0.00000E+00
    0.00000E+00         0.00000E+00        -0.28669E+08
 
   -0.31124E+08         0.48227E+05         0.00000E+00
    0.48227E+05        -0.49868E+08         0.00000E+00
    0.00000E+00         0.00000E+00        -0.28650E+08
 
   -0.31019E+08         0.63440E+05         0.00000E+00
    0.63440E+05        -0.49878E+08         0.00000E+00
    0.00000E+00         0.00000E+00        -0.28630E+08
 
   -0.30913E+08         0.79045E+05         0.00000E+00
    0.79045E+05        -0.49889E+08         0.00000E+00
    0.00000E+00         0.00000E+00        -0.28612E+08
 
   -0.30806E+08         0.95085E+05         0.00000E+00
    0.95085E+05        -0.49902E+08         0.00000E+00
    0.00000E+00         0.00000E+00        -0.28593E+08
 
   -0.30698E+08         0.11161E+06         0.00000E+00
    0.11161E+06        -0.49918E+08         0.00000E+00
    0.00000E+00         0.00000E+00        -0.28574E+08
 
   -0.30589E+08         0.12868E+06         0.00000E+00
    0.12868E+06        -0.49935E+08         0.00000E+00
    0.00000E+00         0.00000E+00        -0.28556E+08
 
   -0.30478E+08         0.14638E+06         0.00000E+00
    0.14638E+06        -0.49955E+08         0.00000E+00
    0.00000E+00         0.00000E+00        -0.28538E+08
 
   -0.30365E+08         0.16478E+06         0.00000E+00
    0.16478E+06        -0.49977E+08         0.00000E+00
    0.00000E+00         0.00000E+00        -0.28520E+08
 
   -0.30251E+08         0.18398E+06         0.00000E+00
    0.18398E+06        -0.50001E+08         0.00000E+00
    0.00000E+00         0.00000E+00        -0.28502E+08
 
   -0.30134E+08         0.20413E+06         0.00000E+00
    0.20413E+06        -0.50028E+08         0.00000E+00
    0.00000E+00         0.00000E+00        -0.28484E+08
 
   -0.30014E+08         0.22536E+06         0.00000E+00
    0.22536E+06        -0.50058E+08         0.00000E+00
    0.00000E+00         0.00000E+00        -0.28466E+08
 
   -0.29892E+08         0.24786E+06         0.00000E+00
    0.24786E+06        -0.50090E+08         0.00000E+00
    0.00000E+00         0.00000E+00        -0.28448E+08
 
   -0.29767E+08         0.27186E+06         0.00000E+00
    0.27186E+06        -0.50125E+08         0.00000E+00
    0.00000E+00         0.00000E+00        -0.28430E+08
 
   -0.29638E+08         0.29764E+06         0.00000E+00
    0.29764E+06        -0.50163E+08         0.00000E+00
    0.00000E+00         0.00000E+00        -0.28412E+08
 
   -0.29506E+08         0.32555E+06         0.00000E+00
    0.32555E+06        -0.50205E+08         0.00000E+00
    0.00000E+00         0.00000E+00        -0.28393E+08
 
   -0.29370E+08         0.35604E+06         0.00000E+00
    0.35604E+06        -0.50250E+08         0.00000E+00
    0.00000E+00         0.00000E+00        -0.28375E+08
 
   -0.29230E+08         0.38969E+06         0.00000E+00
    0.38969E+06        -0.50298E+08         0.00000E+00
    0.00000E+00         0.00000E+00        -0.28357E+08
 
   -0.29086E+08         0.42723E+06         0.00000E+00
    0.42723E+06        -0.50351E+08         0.00000E+00
    0.00000E+00         0.00000E+00        -0.28338E+08
 
   -0.28937E+08         0.46962E+06         0.00000E+00
    0.46962E+06        -0.50407E+08         0.00000E+00
    0.00000E+00         0.00000E+00        -0.28320E+08
 
   -0.28784E+08         0.51815E+06         0.00000E+00
    0.51815E+06        -0.50468E+08         0.00000E+00
    0.00000E+00         0.00000E+00        -0.28301E+08
 
   -0.28627E+08         0.57449E+06         0.00000E+00
    0.57449E+06        -0.50533E+08         0.00000E+00
    0.00000E+00         0.00000E+00        -0.28283E+08
 
   -0.28470E+08         0.64083E+06         0.00000E+00
    0.64083E+06        -0.50603E+08         0.00000E+00
    0.00000E+00         0.00000E+00        -0.28266E+08
 
   -0.28317E+08         0.71997E+06         0.00000E+00
    0.71997E+06        -0.50677E+08         0.00000E+00
    0.00000E+00         0.00000E+00        -0.28250E+08
 
   -0.34803E+08        -0.57776E+05         0.00000E+00
   -0.57776E+05        -0.50011E+08         0.00000E+00
    0.00000E+00         0.00000E+00        -0.29113E+08
 
   -0.34529E+08        -0.73818E+05         0.00000E+00
   -0.73818E+05        -0.49991E+08         0.00000E+00
    0.00000E+00         0.00000E+00        -0.29055E+08
 
   -0.34290E+08        -0.81059E+05         0.00000E+00
   -0.81059E+05        -0.49967E+08         0.00000E+00
    0.00000E+00         0.00000E+00        -0.29002E+08
 
   -0.34076E+08        -0.83586E+05         0.00000E+00
   -0.83586E+05        -0.49940E+08         0.00000E+00
    0.00000E+00         0.00000E+00        -0.28954E+08
 
   -0.33882E+08        -0.83478E+05         0.00000E+00
   -0.83478E+05        -0.49911E+08         0.00000E+00
    0.00000E+00         0.00000E+00        -0.28909E+08
 
   -0.33703E+08        -0.81835E+05         0.00000E+00
   -0.81835E+05        -0.49883E+08         0.00000E+00
    0.00000E+00         0.00000E+00        -0.28868E+08
 
   -0.33537E+08        -0.79262E+05         0.00000E+00
   -0.79262E+05        -0.49854E+08         0.00000E+00
    0.00000E+00         0.00000E+00        -0.28829E+08
 
   -0.33381E+08        -0.76104E+05         0.00000E+00
   -0.76104E+05        -0.49826E+08         0.00000E+00
    0.00000E+00         0.00000E+00        -0.28792E+08
 
   -0.33233E+08        -0.72561E+05         0.00000E+00
   -0.72561E+05        -0.49798E+08         0.00000E+00
    0.00000E+00         0.00000E+00        -0.28757E+08
 
   -0.33093E+08        -0.68759E+05         0.00000E+00
   -0.68759E+05        -0.49772E+08         0.00000E+00
    0.00000E+00         0.00000E+00        -0.28723E+08
 
   -0.32959E+08        -0.64773E+05         0.00000E+00
   -0.64773E+05        -0.49747E+08         0.00000E+00
    0.00000E+00         0.00000E+00        -0.28692E+08
 
   -0.32830E+08        -0.60654E+05         0.00000E+00
   -0.60654E+05        -0.49724E+08         0.00000E+00
    0.00000E+00         0.00000E+00        -0.28661E+08
 
   -0.32705E+08        -0.56433E+05         0.00000E+00
   -0.56433E+05        -0.49701E+08         0.00000E+00
    0.00000E+00         0.00000E+00        -0.28632E+08
 
   -0.32585E+08        -0.52133E+05         0.00000E+00
   -0.52133E+05        -0.49681E+08         0.00000E+00
    0.00000E+00         0.00000E+00        -0.28603E+08
 
   -0.32467E+08        -0.47768E+05         0.00000E+00
   -0.47768E+05        -0.49662E+08         0.00000E+00
    0.00000E+00         0.00000E+00        -0.28576E+08
 
   -0.32353E+08        -0.43348E+05         0.00000E+00
   -0.43348E+05        -0.49644E+08         0.00000E+00
    0.00000E+00         0.00000E+00        -0.28550E+08
 
   -0.32240E+08        -0.38879E+05         0.00000E+00
   -0.38879E+05        -0.49629E+08         0.00000E+00
    0.00000E+00         0.00000E+00        -0.28524E+08
 
   -0.32130E+08        -0.34364E+05         0.00000E+00
   -0.34364E+05        -0.49615E+08         0.00000E+00
    0.00000E+00         0.00000E+00        -0.28499E+08
 
   -0.32021E+08        -0.29805E+05         0.00000E+00
   -0.29805E+05        -0.49603E+08         0.00000E+00
    0.00000E+00         0.00000E+00        -0.28475E+08
 
   -0.31914E+08        -0.25201E+05         0.00000E+00
   -0.25201E+05        -0.49592E+08         0.00000E+00
    0.00000E+00         0.00000E+00        -0.28452E+08
 
   -0.31808E+08        -0.20551E+05         0.00000E+00
   -0.20551E+05        -0.49584E+08         0.00000E+00
    0.00000E+00         0.00000E+00        -0.28429E+08
 
   -0.31702E+08        -0.15851E+05         0.00000E+00
   -0.15851E+05        -0.49577E+08         0.00000E+00
    0.00000E+00         0.00000E+00        -0.28406E+08
 
   -0.31597E+08        -0.11099E+05         0.00000E+00
   -0.11099E+05        -0.49572E+08         0.00000E+00
    0.00000E+00         0.00000E+00        -0.28384E+08
 
   -0.31493E+08        -0.62888E+04         0.00000E+00
   -0.62888E+04        -0.49569E+08         0.00000E+00
    0.00000E+00         0.00000E+00        -0.28363E+08
 
   -0.31388E+08        -0.14138E+04         0.00000E+00
   -0.14138E+04        -0.49567E+08         0.00000E+00
    0.00000E+00         0.00000E+00        -0.28342E+08
 
   -0.31284E+08         0.35333E+04         0.00000E+00
    0.35333E+04        -0.49568E+08         0.00000E+00
    0.00000E+00         0.00000E+00        -0.28321E+08
 
   -0.31179E+08         0.85614E+04         0.00000E+00
    0.85614E+04        -0.49571E+08         0.00000E+00
    0.00000E+00         0.00000E+00        -0.28300E+08
 
   -0.31073E+08         0.13681E+05         0.00000E+00
    0.13681E+05        -0.49576E+08         0.00000E+00
    0.00000E+00         0.00000E+00        -0.28280E+08
 
   -0.30967E+08         0.18904E+05         0.00000E+00
    0.18904E+05        -0.49582E+08         0.00000E+00
    0.00000E+00         0.00000E+00        -0.28260E+08
 
   -0.30860E+08         0.24244E+05         0.00000E+00
    0.24244E+05        -0.49591E+08         0.00000E+00
    0.00000E+00         0.00000E+00        -0.28241E+08
 
   -0.30752E+08         0.29717E+05         0.00000E+00
    0.29717E+05        -0.49602E+08         0.00000E+00
    0.00000E+00         0.00000E+00        -0.28221E+08
 
   -0.30642E+08         0.35344E+05         0.00000E+00
    0.35344E+05        -0.49615E+08         0.00000E+00
    0.00000E+00         0.00000E+00        -0.28202E+08
 
   -0.30531E+08         0.41146E+05         0.00000E+00
    0.41146E+05        -0.49631E+08         0.00000E+00
    0.00000E+00         0.00000E+00        -0.28183E+08
 
   -0.30417E+08         0.47151E+05         0.00000E+00
    0.47151E+05        -0.49649E+08         0.00000E+00
    0.00000E+00         0.00000E+00        -0.28164E+08
 
   -0.30302E+08         0.53390E+05         0.00000E+00
    0.53390E+05        -0.49669E+08         0.00000E+00
    0.00000E+00         0.00000E+00        -0.28145E+08
 
   -0.30185E+08         0.59901E+05         0.00000E+00
    0.59901E+05        -0.49692E+08         0.00000E+00
    0.00000E+00         0.00000E+00        -0.28126E+08
 
   -0.30064E+08         0.66733E+05         0.00000E+00
    0.66733E+05        -0.49717E+08         0.00000E+00
    0.00000E+00         0.00000E+00        -0.28107E+08
 
   -0.29941E+08         0.73944E+05         0.00000E+00
    0.73944E+05        -0.49745E+08         0.00000E+00
    0.00000E+00         0.00000E+00        -0.28088E+08
 
   -0.29814E+08         0.81605E+05         0.00000E+00
    0.81605E+05        -0.49776E+08         0.00000E+00
    0.00000E+00         0.00000E+00        -0.28068E+08
 
   -0.29683E+08         0.89809E+05         0.00000E+00
    0.89809E+05        -0.49811E+08         0.00000E+00
    0.00000E+00         0.00000E+00        -0.28049E+08
 
   -0.29547E+08         0.98675E+05         0.00000E+00
    0.98675E+05        -0.49848E+08         0.00000E+00
    0.00000E+00         0.00000E+00        -0.28029E+08
 
   -0.29406E+08         0.10836E+06         0.00000E+00
    0.10836E+06        -0.49890E+08         0.00000E+00
    0.00000E+00         0.00000E+00        -0.28010E+08
 
   -0.29260E+08         0.11907E+06         0.00000E+00
    0.11907E+06        -0.49935E+08         0.00000E+00
    0.00000E+00         0.00000E+00        -0.27989E+08
 
   -0.29106E+08         0.13109E+06         0.00000E+00
    0.13109E+06        -0.49985E+08         0.00000E+00
    0.00000E+00         0.00000E+00        -0.27969E+08
 
   -0.28945E+08         0.14482E+06         0.00000E+00
    0.14482E+06        -0.50039E+08         0.00000E+00
    0.00000E+00         0.00000E+00        -0.27947E+08
 
   -0.28773E+08         0.16086E+06         0.00000E+00
    0.16086E+06        -0.50099E+08         0.00000E+00
    0.00000E+00         0.00000E+00        -0.27925E+08
 
   -0.28590E+08         0.18009E+06         0.00000E+00
    0.18009E+06        -0.50166E+08         0.00000E+00
    0.00000E+00         0.00000E+00        -0.27902E+08
 
   -0.28392E+08         0.20391E+06         0.00000E+00
    0.20391E+06        -0.50241E+08         0.00000E+00
    0.00000E+00         0.00000E+00        -0.27877E+08
 
   -0.28176E+08         0.23466E+06         0.00000E+00
    0.23466E+06        -0.50324E+08         0.00000E+00
    0.00000E+00         0.00000E+00        -0.27850E+08
 
   -0.27934E+08         0.27644E+06         0.00000E+00
    0.27644E+06        -0.50419E+08         0.00000E+00
    0.00000E+00         0.00000E+00        -0.27821E+08
 
SCALARS stresss double 
LOOKUP_TABLE default
  -56097429.4894747     
  -56304173.2894120     
  -56491742.6506017     
  -56662533.2845942     
  -56819357.2000278     
  -56964143.8760739     
  -57098545.9261706     
  -57223880.2815501     
  -57341218.9844487     
  -57452001.1944975     
  -57555981.0962836     
  -57653885.9375221     
  -57745839.3590487     
  -57832003.7202022     
  -57912941.6334906     
  -57988739.1559449     
  -58059283.9264536     
  -58124601.6826129     
  -58184772.1474315     
  -58239674.0504512     
  -58289590.0504307     
  -58334618.1799362     
  -58374881.7973796     
  -58410533.4640848     
  -58441798.9569526     
  -58468928.0321897     
  -58492172.9342286     
  -58511776.4148097     
  -58527986.3509736     
  -58541046.6520276     
  -58551166.0433752     
  -58558519.5160355     
  -58563330.0881372     
  -58565763.6226299     
  -58566205.1043579     
  -58564623.3543813     
  -58560779.2863274     
  -58554561.7826485     
  -58546045.5340733     
  -58535154.8317669     
  -58521789.6164156     
  -58505766.3542679     
  -58486942.3162256     
  -58465096.3588856     
  -58439548.8824066     
  -58409867.2400076     
  -58375588.2458152     
  -58336115.8725788     
  -58290000.0122891     
  -58238099.9443971     
  -56433248.1962186     
  -56531217.0907170     
  -56632059.2362583     
  -56733965.5712354     
  -56835000.2562213     
  -56935030.1660746     
  -57033138.9802510     
  -57128541.8756625     
  -57222563.0135134     
  -57313061.2112790     
  -57400114.5783450     
  -57483898.0857769     
  -57564271.3743806     
  -57641414.2398433     
  -57714917.1074888     
  -57784730.9570626     
  -57850965.6884676     
  -57913154.7235753     
  -57971490.9451800     
  -58025473.4246352     
  -58074926.6622712     
  -58119977.9234405     
  -58160640.0278006     
  -58197037.4997613     
  -58229181.6069333     
  -58257160.9596780     
  -58281133.6707890     
  -58301341.4231121     
  -58318027.8248735     
  -58331396.2327621     
  -58341673.3427810     
  -58349105.7472629     
  -58353898.9000915     
  -58356237.9200536     
  -58356243.0880516     
  -58354113.7993688     
  -58349686.6216052     
  -58342935.7634218     
  -58333716.4170875     
  -58321782.3900647     
  -58306993.4050619     
  -58289295.6168062     
  -58268558.7025632     
  -58244715.1748069     
  -58217178.6805108     
  -58185376.8754452     
  -58148835.8140088     
  -58106671.3022528     
  -58056416.9879120     
  -57995379.6198350     
  -56708651.5769194     
  -56742941.6034058     
  -56785827.8476522     
  -56835915.8040606     
  -56890933.7488442     
  -56951772.3460211     
  -57017311.5792731     
  -57085436.0319744     
  -57147911.6390722     
  -57212703.8516676     
  -57278939.3367237     
  -57345783.4614448     
  -57412300.2840179     
  -57476515.8060156     
  -57539223.0569609     
  -57599996.2539420     
  -57658118.1783249     
  -57715056.6657526     
  -57768905.5950447     
  -57819762.2777665     
  -57867396.8982873     
  -57911608.8339977     
  -57952504.2696779     
  -57989609.5860554     
  -58022843.9049055     
  -58051972.5960820     
  -58076974.5520531     
  -58097913.9275037     
  -58114791.5554969     
  -58127757.0157949     
  -58137103.8485991     
  -58143121.9716704     
  -58146004.6971781     
  -58146035.0162939     
  -58143397.3821749     
  -58138248.6106850     
  -58130623.2343425     
  -58120433.4234352     
  -58107422.1417811     
  -58091666.0654646     
  -58073068.2388191     
  -58051272.6509466     
  -58026068.1358285     
  -57997217.4588445     
  -57964920.1344136     
  -57929708.0519310     
  -57891493.2965721     
  -57850451.9137995     
  -57807545.2209114     
  -57765870.5137584     
  -56850282.9409968     
  -56870677.1144021     
  -56895436.5439975     
  -56922281.0701261     
  -56949423.0426029     
  -56980883.5606652     
  -57016671.7907444     
  -57055888.4330438     
  -57092485.8299435     
  -57133709.2540176     
  -57178391.8866777     
  -57225819.1766080     
  -57275428.7793544     
  -57323963.7323843     
  -57374011.4269631     
  -57425152.0849574     
  -57477079.8085519     
  -57521933.2816911     
  -57567252.1803498     
  -57612727.5708195     
  -57657745.8382686     
  -57701480.3243824     
  -57741917.0871474     
  -57779394.5002794     
  -57813354.4472046     
  -57844420.2973230     
  -57871765.7968568     
  -57894133.2598684     
  -57911701.3239456     
  -57925016.4860912     
  -57933969.3783213     
  -57938367.4039297     
  -57938894.1861613     
  -57935735.4755799     
  -57928943.2362541     
  -57918824.2210543     
  -57905783.3736487     
  -57890016.1230679     
  -57871822.5731724     
  -57850918.5293227     
  -57827068.7190342     
  -57800559.1007897     
  -57771652.8275429     
  -57740730.6926963     
  -57707506.7442722     
  -57671611.0843028     
  -57634182.8740929     
  -57596635.9031574     
  -57559328.6269754     
  -57520274.5762766     
  -56889026.0969471     
  -56909306.4436926     
  -56929309.6508923     
  -56950152.1501915     
  -56972584.2286152     
  -56995798.6285109     
  -57019849.4088026     
  -57044630.8321171     
  -57071029.3072842     
  -57098288.1143661     
  -57126919.4889716     
  -57157055.6031076     
  -57188524.0254308     
  -57216648.7794043     
  -57246821.9937024     
  -57279034.3305544     
  -57313345.6620020     
  -57343335.1493410     
  -57375812.9339356     
  -57410225.4632647     
  -57446145.5054566     
  -57483525.8748807     
  -57519203.0438896     
  -57555380.4438943     
  -57592339.4167571     
  -57623853.7136694     
  -57650652.3619911     
  -57676475.6068735     
  -57699238.6482985     
  -57715643.1781190     
  -57726235.2800768     
  -57732908.3135547     
  -57733441.6291168     
  -57727693.9885701     
  -57717164.5347724     
  -57702304.0417707     
  -57683266.7546280     
  -57661652.8315616     
  -57637288.5870375     
  -57610790.9454962     
  -57582603.9573896     
  -57552485.4953920     
  -57520578.7007723     
  -57486996.6440686     
  -57452652.2218549     
  -57418436.3608895     
  -57383850.3823587     
  -57347913.5633031     
  -57310375.7075585     
  -57272395.2512633     
  -56906686.5367879     
  -56917897.5164696     
  -56930593.3961192     
  -56944327.1520258     
  -56958861.8632100     
  -56974349.8484396     
  -56990735.0445348     
  -57008070.5975611     
  -57026137.9989401     
  -57045069.1798115     
  -57064640.6292952     
  -57084718.4986565     
  -57105163.2110154     
  -57127056.9950465     
  -57149010.7669808     
  -57171045.4268096     
  -57192895.3689483     
  -57215462.1992436     
  -57238044.1982222     
  -57261139.6814491     
  -57284997.7879312     
  -57309728.8462736     
  -57330596.7099330     
  -57352288.4465251     
  -57376078.8043351     
  -57397215.1692811     
  -57416850.6603256     
  -57439192.4928166     
  -57462748.5215128     
  -57483406.4775043     
  -57505236.8154769     
  -57514945.8291442     
  -57518897.1609443     
  -57518385.9997497     
  -57509609.9102779     
  -57494243.1283274     
  -57475612.0216208     
  -57449625.9418889     
  -57419642.7923213     
  -57386777.8249836     
  -57351729.0902772     
  -57316787.6288519     
  -57281906.4077902     
  -57247049.8039105     
  -57211787.8914481     
  -57175419.6649874     
  -57138371.4620359     
  -57101449.9611703     
  -57065303.4230200     
  -57029509.4795867     
  -56895902.9019267     
  -56900856.7376796     
  -56906684.4936421     
  -56913486.8675618     
  -56921265.6524225     
  -56929931.5486947     
  -56939450.3499543     
  -56949741.3133602     
  -56960790.5959759     
  -56972500.9048320     
  -56984861.5599885     
  -56997835.5876139     
  -57011417.0342403     
  -57025265.1576350     
  -57039623.5881026     
  -57054366.6314739     
  -57069533.0196473     
  -57084873.6307193     
  -57100498.3570433     
  -57116189.7211082     
  -57131798.2320053     
  -57147126.9417750     
  -57163278.3438717     
  -57179034.3267326     
  -57194017.0428576     
  -57208838.1881669     
  -57223714.2440916     
  -57238759.4887043     
  -57253047.1085341     
  -57261789.3475992     
  -57273560.1978548     
  -57278016.7856158     
  -57282549.9690387     
  -57288340.5237275     
  -57291048.8485137     
  -57292489.2070841     
  -57274665.5717182     
  -57255313.3787996     
  -57227186.7998057     
  -57192725.1251306     
  -57156903.6060941     
  -57115636.7630593     
  -57072137.3822404     
  -57028624.6944468     
  -56986032.7796649     
  -56946329.7184497     
  -56908800.2408036     
  -56872190.2783269     
  -56835505.6575260     
  -56798650.4768569     
  -56858834.7322136     
  -56857861.7383428     
  -56857989.9887562     
  -56859116.4643784     
  -56861178.3607702     
  -56864131.9794861     
  -56867917.3155958     
  -56872489.6478102     
  -56877787.1555139     
  -56883768.0134426     
  -56890369.9149138     
  -56897537.8870719     
  -56905197.8791748     
  -56913364.8419465     
  -56921918.1020326     
  -56930834.7535812     
  -56940025.7253034     
  -56949470.0275098     
  -56959061.4281011     
  -56968774.9881843     
  -56978564.9006025     
  -56988429.4661097     
  -56998018.6367010     
  -57007532.9003632     
  -57016974.6727946     
  -57026153.4836253     
  -57034930.9194934     
  -57043092.0496529     
  -57050634.6396151     
  -57058689.5417936     
  -57064921.9964597     
  -57071039.5604959     
  -57076898.5164170     
  -57079630.9407534     
  -57075772.2124536     
  -57073766.4331452     
  -57059137.8420990     
  -57050157.7181380     
  -57035961.1512520     
  -57024275.5894080     
  -56991054.7042600     
  -56954381.3895070     
  -56910724.3296788     
  -56861019.8474081     
  -56811615.6012589     
  -56759723.9847087     
  -56708562.2528802     
  -56661325.4737326     
  -56618356.7133796     
  -56579261.4162052     
  -56794038.8172756     
  -56788729.0391892     
  -56784470.6990670     
  -56781215.3338545     
  -56778903.0790498     
  -56777473.2015494     
  -56776871.7348101     
  -56777041.5206873     
  -56777930.9116748     
  -56779484.1541394     
  -56781650.5646174     
  -56784377.3542513     
  -56787619.8627632     
  -56791310.1499169     
  -56795410.8982004     
  -56799857.5892873     
  -56804606.6453672     
  -56809596.4598378     
  -56814784.6833207     
  -56820108.7255041     
  -56825511.8451492     
  -56830914.2982885     
  -56836326.8483359     
  -56841631.8714226     
  -56846754.9101926     
  -56851644.8445569     
  -56856237.4509546     
  -56860507.9566858     
  -56864400.3195230     
  -56867526.6281814     
  -56870400.2500407     
  -56872483.6547367     
  -56873574.4887674     
  -56874070.9055515     
  -56874753.8829237     
  -56873117.6023901     
  -56871994.2598856     
  -56870486.9509679     
  -56855981.8077001     
  -56845294.1581324     
  -56819264.0273787     
  -56796096.3067884     
  -56769336.3193552     
  -56743312.9368433     
  -56696027.6722376     
  -56641992.0800455     
  -56581826.0458371     
  -56516680.4194246     
  -56456361.5927941     
  -56400295.7013451     
  -56701600.1131177     
  -56693438.8534819     
  -56686290.7389776     
  -56680095.4123111     
  -56674798.7198647     
  -56670348.2258941     
  -56666691.4137766     
  -56663778.3296601     
  -56661558.9070280     
  -56659985.1683222     
  -56659008.9185213     
  -56658583.4171150     
  -56658659.4972617     
  -56659194.1719474     
  -56660137.5431116     
  -56661447.0945583     
  -56663073.8858865     
  -56664973.5150220     
  -56667096.6246329     
  -56669397.8359638     
  -56671828.7286215     
  -56674348.7436932     
  -56676892.6351567     
  -56679422.3280146     
  -56681887.9464092     
  -56684238.4607177     
  -56686425.5138984     
  -56688385.0991907     
  -56690050.8904692     
  -56691450.1413169     
  -56692371.4885127     
  -56692859.2922036     
  -56692898.5482575     
  -56692357.2802907     
  -56690946.1811961     
  -56689241.2537170     
  -56686340.0394413     
  -56681973.7223347     
  -56679152.8805938     
  -56673425.5435391     
  -56668051.5459401     
  -56662387.0008994     
  -56644562.3006115     
  -56626539.3483580     
  -56592671.6899378     
  -56557235.6271846     
  -56517000.8619108     
  -56475066.4513158     
  -56403040.1879222     
  -56321953.5965789     
  -56582851.4581687     
  -56573270.5530807     
  -56564600.3640483     
  -56556795.6074484     
  -56549810.8989547     
  -56543602.1166134     
  -56538126.5520090     
  -56533342.0202827     
  -56529207.4715051     
  -56525682.3093671     
  -56522726.7946988     
  -56520301.4601026     
  -56518368.2837805     
  -56516888.2535593     
  -56515824.4422568     
  -56515138.3265317     
  -56514793.5148426     
  -56514752.5861050     
  -56514979.4529818     
  -56515437.2988592     
  -56516090.4511263     
  -56516900.5009952     
  -56517835.3510007     
  -56518857.1687112     
  -56519931.2675103     
  -56521021.9110424     
  -56522092.2725804     
  -56523109.8782159     
  -56524045.1405642     
  -56524841.2687909     
  -56525503.6072137     
  -56525977.8683216     
  -56526219.9031627     
  -56526202.5189574     
  -56525951.8800727     
  -56525255.0295301     
  -56524282.5347037     
  -56523140.0096159     
  -56521031.3883753     
  -56519066.4275222     
  -56516270.2454342     
  -56512316.2184866     
  -56509937.9405660     
  -56505911.4251164     
  -56502469.1016735     
  -56499878.8205164     
  -56484547.9527718     
  -56468315.8546318     
  -56429381.4129033     
  -56387568.2164653     
  -56440403.8351483     
  -56430567.6206192     
  -56421512.0953474     
  -56413203.9284976     
  -56405610.5998638     
  -56398699.9428704     
  -56392440.1362004     
  -56386799.9190680     
  -56381748.3940359     
  -56377255.1765776     
  -56373290.2880732     
  -56369824.3122677     
  -56366828.0136705     
  -56364272.9770391     
  -56362130.8529380     
  -56360374.2944355     
  -56358975.9619791     
  -56357909.4240213     
  -56357148.5789040     
  -56356668.1612722     
  -56356443.2631903     
  -56356450.6852839     
  -56356666.5710780     
  -56357069.2547280     
  -56357637.3083294     
  -56358351.0788106     
  -56359192.7193760     
  -56360144.9655305     
  -56361191.0840390     
  -56362324.4564680     
  -56363525.0804057     
  -56364789.0791448     
  -56366113.7860893     
  -56367499.4984616     
  -56368933.6188849     
  -56370476.6023804     
  -56372102.6781503     
  -56373783.9485474     
  -56375746.3605628     
  -56377734.7480196     
  -56380045.0287068     
  -56382925.7401161     
  -56385845.7414947     
  -56389834.3543497     
  -56394466.0722386     
  -56399467.2094218     
  -56408444.5683177     
  -56418882.5833548     
  -56435200.0807146     
  -56460502.5080393     
  -56277694.2549908     
  -56268441.0850623     
  -56259826.0308992     
  -56251829.2416668     
  -56244430.5052756     
  -56237609.4804737     
  -56231345.7665967     
  -56225618.9226179     
  -56220408.5900019     
  -56215694.5183152     
  -56211456.6497059     
  -56207675.1290088     
  -56204330.4757292     
  -56201403.4768521     
  -56198875.4382463     
  -56196728.0151776     
  -56194943.5524202     
  -56193504.9202940     
  -56192395.7568343     
  -56191600.4545261     
  -56191104.4215245     
  -56190893.7939301     
  -56190956.2080795     
  -56191280.3238484     
  -56191856.4880884     
  -56192676.5072919     
  -56193733.9219148     
  -56195024.5840554     
  -56196547.2295699     
  -56198300.9717855     
  -56200291.9415857     
  -56202526.9682462     
  -56205017.5821461     
  -56207779.4947548     
  -56210839.7424817     
  -56214212.8025764     
  -56217941.3636965     
  -56222086.1398552     
  -56226652.3346891     
  -56231786.4119130     
  -56237519.8742964     
  -56243895.0096240     
  -56251183.2873003     
  -56259280.4840795     
  -56268491.5275118     
  -56279240.2953921     
  -56290974.0288699     
  -56304731.5731032     
  -56319445.6387319     
  -56333148.3311069     
  -56098469.4936742     
  -56090306.5205941     
  -56082645.5363013     
  -56075477.6337417     
  -56068793.2374604     
  -56062582.1890992     
  -56056833.8706974     
  -56051537.3252711     
  -56046681.3416386     
  -56042254.5580221     
  -56038245.5457373     
  -56034642.9105629     
  -56031435.3444841     
  -56028611.7521300     
  -56026161.2858079     
  -56024073.4891987     
  -56022338.3118163     
  -56020946.2624110     
  -56019888.4600458     
  -56019156.7562772     
  -56018743.7894612     
  -56018643.2150024     
  -56018849.6585728     
  -56019358.9848451     
  -56020168.3117237     
  -56021276.2732986     
  -56022683.1603202     
  -56024391.0274083     
  -56026403.7389286     
  -56028728.0212162     
  -56031372.0742968     
  -56034347.3444162     
  -56037667.9521128     
  -56041351.4578852     
  -56045416.7931868     
  -56049891.5857127     
  -56054802.9590960     
  -56060177.8889572     
  -56066065.0213576     
  -56072482.6961062     
  -56079481.0068374     
  -56087117.5001437     
  -56095393.2534566     
  -56104408.5297077     
  -56114161.0832153     
  -56124574.0957825     
  -56135789.8865384     
  -56147475.5887717     
  -56159814.7645572     
  -56173524.0599861     
  -55906317.5037845     
  -55899472.1266830     
  -55893010.5268469     
  -55886931.7925620     
  -55881234.1233118     
  -55875914.9634283     
  -55870971.1138095     
  -55866398.8369992     
  -55862193.9635947     
  -55858351.9871332     
  -55854868.1586684     
  -55851737.5715301     
  -55848955.2566836     
  -55846516.2555023     
  -55844415.7143396     
  -55842648.9503448     
  -55841211.5505953     
  -55840099.4350997     
  -55839308.9479988     
  -55838836.9321806     
  -55838680.8261764     
  -55838838.7123176     
  -55839309.4415604     
  -55840092.6848022     
  -55841189.0481502     
  -55842600.1271919     
  -55844328.5963526     
  -55846378.2992537     
  -55848754.3819996     
  -55851463.1113914     
  -55854512.3309105     
  -55857911.1486157     
  -55861670.1433702     
  -55865801.1425703     
  -55870317.9466220     
  -55875234.2094551     
  -55880565.3115722     
  -55886328.6541043     
  -55892536.8256844     
  -55899210.5716229     
  -55906363.2713986     
  -55914003.6643318     
  -55922152.3554750     
  -55930799.0574917     
  -55939949.2575147     
  -55949626.7567877     
  -55959795.2376378     
  -55970552.2787746     
  -55981882.4826602     
  -55993555.7462807     
  -55704354.1813334     
  -55698849.6654892     
  -55693633.8325536     
  -55688710.6984186     
  -55684083.4127324     
  -55679754.3525463     
  -55675725.2162749     
  -55671997.1134451     
  -55668570.6491335     
  -55665446.0066906     
  -55662623.0261936     
  -55660101.2817977     
  -55657880.1525694     
  -55655958.8961705     
  -55654336.7141023     
  -55653012.8218505     
  -55651986.5081182     
  -55651257.2013687     
  -55650824.5269370     
  -55650688.3664917     
  -55650848.9086072     
  -55651306.7107886     
  -55652062.7385484     
  -55653118.4187505     
  -55654475.6728026     
  -55656136.9594440     
  -55658105.3010089     
  -55660384.3028094     
  -55662978.1405838     
  -55665891.6276172     
  -55669130.0977467     
  -55672699.4472682     
  -55676606.0291425     
  -55680856.6414789     
  -55685458.1540949     
  -55690417.9042783     
  -55695743.0915034     
  -55701440.2488387     
  -55707516.8976894     
  -55713977.8435938     
  -55720828.3747640     
  -55728073.8264460     
  -55735714.6742393     
  -55743757.7614633     
  -55752206.1414596     
  -55761056.4760724     
  -55770320.7019208     
  -55779971.5708368     
  -55789998.7466905     
  -55800461.1920883     
  -55495083.0620912     
  -55490815.3425518     
  -55486764.2357297     
  -55482936.2309763     
  -55479337.0714023     
  -55475971.8207216     
  -55472844.9276832     
  -55469960.2893102     
  -55467321.3129436     
  -55464930.9761384     
  -55462791.8850636     
  -55460906.3304537     
  -55459276.3426259     
  -55457903.7430227     
  -55456790.1951965     
  -55455937.2517041     
  -55455346.4009059     
  -55455019.1088074     
  -55454956.8600790     
  -55455161.1948463     
  -55455633.7441864     
  -55456376.2580512     
  -55457390.6342338     
  -55458678.9383749     
  -55460243.4227297     
  -55462086.5354522     
  -55464210.9259677     
  -55466619.4419486     
  -55469315.1267924     
  -55472301.1815918     
  -55475580.9611265     
  -55479157.9188763     
  -55483035.5722648     
  -55487217.4223422     
  -55491706.9747052     
  -55496507.5334465     
  -55501622.2172145     
  -55507054.0291343     
  -55512805.2614782     
  -55518878.3353286     
  -55525275.0251826     
  -55531996.3726602     
  -55539044.0595340     
  -55546417.4710289     
  -55554115.6714243     
  -55562138.3577808     
  -55570479.4794157     
  -55579142.1269509     
  -55588127.2147182     
  -55597413.4034700     
  -55280393.7759812     
  -55277194.4744096     
  -55274159.6383384     
  -55271296.5182146     
  -55268611.7796094     
  -55266111.5420829     
  -55263801.4187553     
  -55261686.5558412     
  -55259771.6718673     
  -55258061.0965127     
  -55256558.8086323     
  -55255268.4735083     
  -55254193.4786853     
  -55253336.9688546     
  -55252701.8788189     
  -55252290.9652454     
  -55252106.8359520     
  -55252151.9777434     
  -55252428.7814817     
  -55252939.5650298     
  -55253686.5928916     
  -55254672.0939888     
  -55255898.2749650     
  -55257367.3311667     
  -55259081.4530121     
  -55261042.8294165     
  -55263253.6465373     
  -55265716.0829646     
  -55268432.2977316     
  -55271404.4218353     
  -55274634.5349342     
  -55278124.6481488     
  -55281876.6767588     
  -55285892.4222116     
  -55290173.5185632     
  -55294721.4380071     
  -55299537.4470093     
  -55304622.5279115     
  -55309977.5015392     
  -55315602.7765189     
  -55321498.4719059     
  -55327664.4307964     
  -55334099.7696679     
  -55340803.5526688     
  -55347774.3859371     
  -55355010.0576108     
  -55362509.4406032     
  -55370268.5531818     
  -55378282.4005954     
  -55386551.7162271     
  -55061643.2068506     
  -55059323.9150031     
  -55057132.6220383     
  -55055076.3075450     
  -55053161.5206929     
  -55051394.3997865     
  -55049780.6927588     
  -55048325.7784414     
  -55047034.6883250     
  -55045912.1285175     
  -55044962.5017198     
  -55044189.9289242     
  -55043598.2707520     
  -55043191.1480580     
  -55042971.9618229     
  -55042943.9119211     
  -55043110.0148718     
  -55043473.1201003     
  -55044035.9248393     
  -55044800.9872929     
  -55045770.7382063     
  -55046947.4902522     
  -55048333.4457413     
  -55049930.7019655     
  -55051741.2546227     
  -55053766.9988247     
  -55056009.7280707     
  -55058471.1308127     
  -55061152.7859343     
  -55064056.1541612     
  -55067182.5704129     
  -55070533.2323364     
  -55074109.1892148     
  -55077911.3259887     
  -55081940.3566074     
  -55086196.8009034     
  -55090680.9710109     
  -55095392.9722055     
  -55100332.6446114     
  -55105499.6005249     
  -55110893.1778119     
  -55116512.4037269     
  -55122356.1049434     
  -55128422.7365517     
  -55134710.4443338     
  -55141217.1779144     
  -55147940.1067181     
  -55154876.6032328     
  -55162024.0855464     
  -55169377.9193306     
  -54839768.9045944     
  -54838148.1309645     
  -54836630.4153817     
  -54835221.9405936     
  -54833928.5875263     
  -54832755.9422165     
  -54831709.3039176     
  -54830793.6941321     
  -54830013.8663773     
  -54829374.3164991     
  -54828879.2933325     
  -54828532.8095566     
  -54828338.6525425     
  -54828300.3950820     
  -54828421.4057969     
  -54828704.8591511     
  -54829153.7448645     
  -54829770.8766913     
  -54830558.9003804     
  -54831520.3007893     
  -54832657.4079846     
  -54833972.4023891     
  -54835467.3187645     
  -54837144.0491423     
  -54839004.3445557     
  -54841049.8156864     
  -54843281.9323464     
  -54845702.0219728     
  -54848311.2667789     
  -54851110.7005199     
  -54854101.2037049     
  -54857283.4985302     
  -54860658.1426731     
  -54864225.5236994     
  -54867985.8500015     
  -54871939.1454113     
  -54876085.2417358     
  -54880423.7657638     
  -54884954.1432711     
  -54889675.5793710     
  -54894587.0580926     
  -54899687.3456151     
  -54904974.9507273     
  -54910448.1547506     
  -54916104.9938972     
  -54921943.2115081     
  -54927960.4251152     
  -54934153.8890945     
  -54940520.4426357     
  -54947057.1281522     
  -54615401.2553357     
  -54614318.2304949     
  -54613321.3632745     
  -54612415.8443151     
  -54611606.6603210     
  -54610898.5938692     
  -54610296.2242201     
  -54609803.9290083     
  -54609425.8866736     
  -54609166.0795017     
  -54609028.2971521     
  -54609016.1405441     
  -54609133.0259949     
  -54609382.1894873     
  -54609766.6909750     
  -54610289.4186152     
  -54610953.0928564     
  -54611760.2702790     
  -54612713.3471370     
  -54613814.5625170     
  -54615066.0010850     
  -54616469.5953419     
  -54618027.1273936     
  -54619740.2301733     
  -54621610.3881356     
  -54623638.9373890     
  -54625827.0652972     
  -54628175.8095180     
  -54630686.0566304     
  -54633358.5401307     
  -54636193.8381565     
  -54639192.3706981     
  -54642354.3965908     
  -54645680.0098388     
  -54649169.1365613     
  -54652821.5307702     
  -54656636.7703183     
  -54660614.2546877     
  -54664753.1981004     
  -54669052.6286164     
  -54673511.3832626     
  -54678128.1008306     
  -54682901.2272251     
  -54687829.0046362     
  -54692909.4705860     
  -54698140.4709323     
  -54703519.6090092     
  -54709044.2957495     
  -54714711.7850462     
  -54720518.9962414     
  -54388957.9214765     
  -54388277.7437812     
  -54387672.2019645     
  -54387145.4906570     
  -54386701.6708608     
  -54386344.6662048     
  -54386078.2599975     
  -54385906.0929942     
  -54385831.6618000     
  -54385858.3178305     
  -54385989.2667473     
  -54386227.5682976     
  -54386576.1364766     
  -54387037.7399470     
  -54387615.0026446     
  -54388310.4045073     
  -54389126.2822680     
  -54390064.8302574     
  -54391128.1011673     
  -54392318.0067322     
  -54393636.3182870     
  -54395084.6671773     
  -54396664.5449860     
  -54398377.3035645     
  -54400224.1548488     
  -54402206.1704553     
  -54404324.2810482     
  -54406579.2754964     
  -54408971.7997847     
  -54411502.3557632     
  -54414171.2996663     
  -54416978.8404891     
  -54419925.0381799     
  -54423009.8018279     
  -54426232.8875217     
  -54429593.8963847     
  -54433092.2725657     
  -54436727.3006058     
  -54440498.1040874     
  -54444403.6428628     
  -54448442.7111689     
  -54452613.9369330     
  -54456915.7778198     
  -54461346.5212815     
  -54465904.2830433     
  -54470587.0004791     
  -54475392.4448907     
  -54480318.2102189     
  -54485361.6967876     
  -54490520.1597219     
  -54160715.9217221     
  -54160329.6618188     
  -54160009.9870861     
  -54159760.1888324     
  -54159583.4731231     
  -54159482.9556547     
  -54159461.6572127     
  -54159522.4996763     
  -54159668.3025210     
  -54159901.7797772     
  -54160225.5373971     
  -54160642.0709881     
  -54161153.7638642     
  -54161762.8853756     
  -54162471.5894725     
  -54163281.9134647     
  -54164195.7769388     
  -54165214.9807977     
  -54166341.2063917     
  -54167576.0147092     
  -54168920.8456040     
  -54170377.0170349     
  -54171945.7242971     
  -54173628.0392305     
  -54175424.9093924     
  -54177337.1571824     
  -54179365.4789167     
  -54181510.4438411     
  -54183772.4930949     
  -54186151.9386087     
  -54188648.9619591     
  -54191263.6131729     
  -54193995.8095033     
  -54196845.3341436     
  -54199811.8349839     
  -54202894.8233028     
  -54206093.6724449     
  -54209407.6167034     
  -54212835.7498981     
  -54216377.0243576     
  -54220030.2498214     
  -54223794.0920151     
  -54227667.0722022     
  -54231647.5659254     
  -54235733.8020757     
  -54239923.8639628     
  -54244215.6852175     
  -54248607.0510783     
  -54253095.6035739     
  -54257678.8280584     
  -53930863.0615283     
  -53930685.3199473     
  -53930568.2790897     
  -53930514.4582249     
  -53930526.3235676     
  -53930606.2829558     
  -53930756.6809443     
  -53930979.7942925     
  -53931277.8278253     
  -53931652.9106424     
  -53932107.0926534     
  -53932642.3414125     
  -53933260.5392297     
  -53933963.4805319     
  -53934752.8694513     
  -53935630.3176171     
  -53936597.3421268     
  -53937655.3636776     
  -53938805.7048352     
  -53940049.5884237     
  -53941388.1360172     
  -53942822.3665186     
  -53944353.1948122     
  -53945981.4304760     
  -53947707.7765460     
  -53949532.8283218     
  -53951457.0722069     
  -53953480.8845807     
  -53955604.5306940     
  -53957828.1635917     
  -53960151.8230561     
  -53962575.4345764     
  -53965098.8083385     
  -53967721.6382552     
  -53970443.5010093     
  -53973263.8551481     
  -53976182.0402292     
  -53979197.2759585     
  -53982308.6614680     
  -53985515.1745660     
  -53988815.6710634     
  -53992208.8842998     
  -53995693.4245127     
  -53999267.7784979     
  -54002930.3093662     
  -54006679.2557553     
  -54010512.7325817     
  -54014428.7308362     
  -54018425.1158834     
  -54022499.6311948     
  -53699532.8287655     
  -53699498.2812144     
  -53699519.8569722     
  -53699599.4409078     
  -53699738.8855896     
  -53699940.0063581     
  -53700204.5766840     
  -53700534.3238034     
  -53700930.9246212     
  -53701396.0018717     
  -53701931.1205241     
  -53702537.7844223     
  -53703217.4331447     
  -53703971.4390721     
  -53704801.1046501     
  -53705707.6598329     
  -53706692.2596961     
  -53707755.9822057     
  -53708899.8261316     
  -53710124.7090940     
  -53711431.4657312     
  -53712820.8459810     
  -53714293.5134640     
  -53715850.0439621     
  -53717490.9239844     
  -53719216.5494139     
  -53721027.2242294     
  -53722923.1592981     
  -53724904.4712348     
  -53726971.1813256     
  -53729123.2145123     
  -53731360.3984379     
  -53733682.4625526     
  -53736089.0372768     
  -53738579.6532286     
  -53741153.7405102     
  -53743810.6280529     
  -53746549.5430423     
  -53749369.6103887     
  -53752269.8522875     
  -53755249.1878557     
  -53758306.4328059     
  -53761440.2992599     
  -53764649.3955967     
  -53767932.2263653     
  -53771287.1924911     
  -53774712.5911977     
  -53778206.6162060     
  -53781767.3586070     
  -53785392.8063653     
  -53466827.1066894     
  -53466886.8912305     
  -53466998.9824976     
  -53467164.7588409     
  -53467385.5792521     
  -53467662.7790761     
  -53467997.6659151     
  -53468391.5157235     
  -53468845.5690894     
  -53469361.0277011     
  -53469939.0509920     
  -53470580.7529609     
  -53471287.1991603     
  -53472059.4038492     
  -53472898.3273006     
  -53473804.8732613     
  -53474779.8865534     
  -53475824.1508153     
  -53476938.3863708     
  -53478123.2482246     
  -53479379.3241747     
  -53480707.1330379     
  -53482107.1229816     
  -53483579.6699581     
  -53485125.0762345     
  -53486743.5690169     
  -53488435.2991622     
  -53490200.3399762     
  -53492038.6860935     
  -53493950.2524384     
  -53495934.8732627     
  -53497992.3012614     
  -53500122.2067627     
  -53502324.1769938     
  -53504597.7154204     
  -53506942.2411604     
  -53509357.0884751     
  -53511841.5063313     
  -53514394.6580460     
  -53517015.6210053     
  -53519703.3864593     
  -53522456.8594115     
  -53525274.8585741     
  -53528156.1164215     
  -53531099.2793427     
  -53534102.9078219     
  -53537165.4768081     
  -53540285.3761615     
  -53543460.9110115     
  -53546690.3026195     
  -53232830.3838809     
  -53232948.7546236     
  -53233116.0423545     
  -53233333.2302616     
  -53233601.2899129     
  -53233921.1776692     
  -53234293.8312236     
  -53234720.1662680     
  -53235201.0732883     
  -53235737.4144880     
  -53236330.0208402     
  -53236979.6892661     
  -53237687.1799390     
  -53238453.2137122     
  -53239278.4696679     
  -53240163.5827850     
  -53241109.1417229     
  -53242115.6867188     
  -53243183.7075949     
  -53244313.6418729     
  -53245505.8729930     
  -53246760.7286336     
  -53248078.4791303     
  -53249459.3359893     
  -53250903.4504946     
  -53252410.9124057     
  -53253981.7487431     
  -53255615.9226608     
  -53257313.3324025     
  -53259073.8103408     
  -53260897.1220988     
  -53262782.9657508     
  -53264730.9711038     
  -53266740.6990569     
  -53268811.6410407     
  -53270943.2185340     
  -53273134.7826597     
  -53275385.6138601     
  -53277694.9216503     
  -53280061.8444537     
  -53282485.4495180     
  -53284964.7329125     
  -53287498.6196113     
  -53290085.9636603     
  -53292725.5484259     
  -53295416.0869504     
  -53298156.2223754     
  -53300944.5284548     
  -53303779.5102202     
  -53306659.6046361     
  -52997618.2535708     
  -52997769.6766137     
  -52997966.8595791     
  -52998210.4835946     
  -52998501.2225287     
  -52998839.7400730     
  -52999226.6869050     
  -52999662.6979345     
  -53000148.3896361     
  -53000684.3574698     
  -53001271.1733905     
  -53001909.3834490     
  -53002599.5054826     
  -53003342.0268984     
  -53004137.4025471     
  -53004986.0526889     
  -53005888.3610496     
  -53006844.6729664     
  -53007855.2936240     
  -53008920.4863779     
  -53010040.4711662     
  -53011215.4230064     
  -53012445.4705786     
  -53013730.6948913     
  -53015071.1280317     
  -53016466.7519964     
  -53017917.4976038     
  -53019423.2434864     
  -53020983.8151617     
  -53022598.9841819     
  -53024268.4673613     
  -53025991.9260806     
  -53027768.9656678     
  -53029599.1348569     
  -53031481.9253216     
  -53033416.7712860     
  -53035403.0492124     
  -53037440.0775652     
  -53039527.1166524     
  -53041663.3685457     
  -53043847.9770778     
  -53046080.0279205     
  -53048358.5487419     
  -53050682.5094459     
  -53053050.8224955     
  -53055462.3433154     
  -53057915.8707846     
  -53060410.1478195     
  -53062943.8620280     
  -53065515.6464822     
  -52761262.1952441     
  -52761428.9288289     
  -52761638.3933622     
  -52761891.0435565     
  -52762187.3290963     
  -52762527.6923170     
  -52762912.5659329     
  -52763342.3708187     
  -52763817.5138471     
  -52764338.3857855     
  -52764905.3592536     
  -52765518.7867441     
  -52766178.9987092     
  -52766886.3017123     
  -52767640.9766480     
  -52768443.2770304     
  -52769293.4273516     
  -52770191.6215083     
  -52771138.0213010     
  -52772132.7550023     
  -52773175.9159968     
  -52774267.5614918     
  -52775407.7112991     
  -52776596.3466877     
  -52777833.4093072     
  -52779118.8001819     
  -52780452.3787761     
  -52781833.9621290     
  -52783263.3240604     
  -52784740.1944469     
  -52786264.2585678     
  -52787835.1565212     
  -52789452.4827108     
  -52791115.7854026     
  -52792824.5663520     
  -52794578.2805017     
  -52796376.3357503     
  -52798218.0927928     
  -52800102.8650319     
  -52802029.9185621     
  -52803998.4722263     
  -52806007.6977463     
  -52808056.7199265     
  -52810144.6169339     
  -52812270.4206517     
  -52814433.1171128     
  -52816631.6470079     
  -52818864.9062729     
  -52821131.7467601     
  -52823430.9769828     
  -52523832.0084174     
  -52524002.1431463     
  -52524212.0589174     
  -52524462.0441316     
  -52524752.3831041     
  -52525083.3542528     
  -52525455.2283153     
  -52525868.2665986     
  -52526322.7192638     
  -52526818.8236499     
  -52527356.8026382     
  -52527936.8630604     
  -52528559.1941514     
  -52529223.9660509     
  -52529931.3283527     
  -52530681.4087061     
  -52531474.3114683     
  -52532310.1164115     
  -52533188.8774828     
  -52534110.6216218     
  -52535075.3476320     
  -52536083.0251120     
  -52537133.5934418     
  -52538226.9608295     
  -52539363.0034160     
  -52540541.5644388     
  -52541762.4534563     
  -52543025.4456313     
  -52544330.2810759     
  -52545676.6642566     
  -52547064.2634606     
  -52548492.7103240     
  -52549961.5994214     
  -52551470.4879175     
  -52553018.8952816     
  -52554606.3030650     
  -52556232.1547411     
  -52557895.8556092     
  -52559596.7727633     
  -52561334.2351244     
  -52563107.5335381     
  -52564915.9209379     
  -52566758.6125750     
  -52568634.7863141     
  -52570543.5829968     
  -52572484.1068729     
  -52574455.4261005     
  -52576456.5733152     
  -52578486.5462686     
  -52580544.3085391     
  -52285396.8171675     
  -52285562.7235176     
  -52285765.5239423     
  -52286005.3873802     
  -52286282.4788941     
  -52286596.9582824     
  -52286948.9787050     
  -52287338.6853285     
  -52287766.2139922     
  -52288231.6898995     
  -52288735.2263345     
  -52289276.9234094     
  -52289856.8668419     
  -52290475.1267666     
  -52291131.7565820     
  -52291826.7918340     
  -52292560.2491386     
  -52293332.1251444     
  -52294142.3955375     
  -52294991.0140883     
  -52295877.9117431     
  -52296802.9957613     
  -52297766.1488971     
  -52298767.2286299     
  -52299806.0664424     
  -52300882.4671467     
  -52301996.2082604     
  -52303147.0394323     
  -52304334.6819198     
  -52305558.8281165     
  -52306819.1411324     
  -52308115.2544260     
  -52309446.7714899     
  -52310813.2655892     
  -52312214.2795538     
  -52313649.3256260     
  -52315117.8853608     
  -52316619.4095837     
  -52318153.3184026     
  -52319719.0012759     
  -52321315.8171382     
  -52322943.0945811     
  -52324600.1320926     
  -52326286.1983545     
  -52328000.5325964     
  -52329742.3450095     
  -52331510.8172192     
  -52333305.1028168     
  -52335124.3279502     
  -52336967.5919760     
  -52046025.2496337     
  -52046182.3711357     
  -52046373.5646320     
  -52046598.9154727     
  -52046858.5049702     
  -52047152.4093534     
  -52047480.6987281     
  -52047843.4360478     
  -52048240.6760954     
  -52048672.4644811     
  -52049138.8366554     
  -52049639.8169430     
  -52050175.4175965     
  -52050745.6378744     
  -52051350.4631428     
  -52051989.8640058     
  -52052663.7954622     
  -52053372.1960939     
  -52054114.9872847     
  -52054892.0724730     
  -52055703.3364371     
  -52056548.6446171     
  -52057427.8424727     
  -52058340.7548783     
  -52059287.1855571     
  -52060266.9165536     
  -52061279.7077473     
  -52062325.2964067     
  -52063403.3967855     
  -52064513.6997606     
  -52065655.8725143     
  -52066829.5582588     
  -52068034.3760061     
  -52069269.9203824     
  -52070535.7614875     
  -52071831.4448006     
  -52073156.4911319     
  -52074510.3966214     
  -52075892.6327842     
  -52077302.6466038     
  -52078739.8606730     
  -52080203.6733832     
  -52081693.4591619     
  -52083208.5687594     
  -52084748.3295837     
  -52086312.0460859     
  -52087899.0001937     
  -52089508.4517959     
  -52091139.6392753     
  -52092791.7800924     
  -51805785.1823724     
  -51805931.1138164     
  -51806108.3706163     
  -51806316.9815208     
  -51806556.9709339     
  -51806828.3581422     
  -51807131.1565428     
  -51807465.3728762     
  -51807831.0064645     
  -51808228.0484580     
  -51808656.4810920     
  -51809116.2769560     
  -51809607.3982765     
  -51810129.7962163     
  -51810683.4101904     
  -51811268.1672021     
  -51811883.9811989     
  -51812530.7524510     
  -51813208.3669533     
  -51813916.6958524     
  -51814655.5948993     
  -51815424.9039296     
  -51816224.4463725     
  -51817054.0287881     
  -51817913.4404367     
  -51818802.4528779     
  -51819720.8196032     
  -51820668.2757007     
  -51821644.5375540     
  -51822649.3025758     
  -51823682.2489760     
  -51824743.0355667     
  -51825831.3016027     
  -51826946.6666592     
  -51828088.7305473     
  -51829257.0732667     
  -51830451.2549975     
  -51831670.8161304     
  -51832915.2773360     
  -51834184.1396736     
  -51835476.8847395     
  -51836792.9748557     
  -51838131.8532983     
  -51839492.9445668     
  -51840875.6546929     
  -51842279.3715916     
  -51843703.4654511     
  -51845147.2891647     
  -51846610.1788028     
  -51848091.4541257     
  -51564743.2950427     
  -51564877.0905949     
  -51565039.5536075     
  -51565230.6761553     
  -51565450.4456524     
  -51565698.8442932     
  -51565975.8484907     
  -51566281.4283169     
  -51566615.5469440     
  -51566978.1600902     
  -51567369.2154715     
  -51567788.6522607     
  -51568236.4005557     
  -51568712.3808579     
  -51569216.5035635     
  -51569748.6684678     
  -51570308.7642842     
  -51570896.6681806     
  -51571512.2453317     
  -51572155.3484908     
  -51572825.8175821     
  -51573523.4793121     
  -51574248.1468047     
  -51574999.6192583     
  -51575777.6816267     
  -51576582.1043251     
  -51577412.6429612     
  -51578269.0380929     
  -51579151.0150130     
  -51580058.2835610     
  -51580990.5379641     
  -51581947.4567066     
  -51582928.7024287     
  -51583933.9218558     
  -51584962.7457574     
  -51586014.7889373     
  -51587089.6502557     
  -51588186.9126812     
  -51589306.1433767     
  -51590446.8938155     
  -51591608.6999316     
  -51592791.0823008     
  -51593993.5463561     
  -51595215.5826347     
  -51596456.6670583     
  -51597716.2612468     
  -51598993.8128635     
  -51600288.7559947     
  -51601600.5115606     
  -51602928.4877596     
  -51322964.5844508     
  -51323086.2478149     
  -51323234.0220933     
  -51323407.8771016     
  -51323607.7777465     
  -51323833.6836294     
  -51324085.5486494     
  -51324363.3206025     
  -51324666.9407826     
  -51324996.3435831     
  -51325351.4561015     
  -51325732.1977492     
  -51326138.4798655     
  -51326570.2053399     
  -51327027.2682421     
  -51327509.5534615     
  -51328016.9363578     
  -51328549.2824224     
  -51329106.4469540     
  -51329688.2747473     
  -51330294.5997962     
  -51330925.2450144     
  -51331580.0219713     
  -51332258.7306460     
  -51332961.1592003     
  -51333687.0837703     
  -51334436.2682779     
  -51335208.4642638     
  -51336003.4107412     
  -51336820.8340708     
  -51337660.4478602     
  -51338521.9528841     
  -51339405.0370296     
  -51340309.3752649     
  -51341234.6296320     
  -51342180.4492649     
  -51343146.4704321     
  -51344132.3166052     
  -51345137.5985521     
  -51346161.9144570     
  -51347204.8500658     
  -51348265.9788579     
  -51349344.8622436     
  -51350441.0497883     
  -51351554.0794628     
  -51352683.4779200     
  -51353828.7607967     
  -51354989.4330425     
  -51356164.9892745     
  -51357354.9141564     
  -51080511.9231877     
  -51080622.0394848     
  -51080755.8215650     
  -51080913.2271683     
  -51081094.2089795     
  -51081298.7143573     
  -51081526.6850592     
  -51081778.0569649     
  -51082052.7597975     
  -51082350.7168460     
  -51082671.8446878     
  -51083016.0529143     
  -51083383.2438597     
  -51083773.3123341     
  -51084186.1453628     
  -51084621.6219316     
  -51085079.6127398     
  -51085559.9799620     
  -51086062.5770189     
  -51086587.2483591     
  -51087133.8292511     
  -51087702.1455884     
  -51088292.0137062     
  -51088903.2402125     
  -51089535.6218331     
  -51090188.9452714     
  -51090862.9870831     
  -51091557.5135688     
  -51092272.2806813     
  -51093007.0339507     
  -51093761.5084278     
  -51094535.4286451     
  -51095328.5085955     
  -51096140.4517320     
  -51096970.9509845     
  -51097819.6887976     
  -51098686.3371869     
  -51099570.5578171     
  -51100472.0020986     
  -51101390.3113056     
  -51102325.1167143     
  -51103276.0397622     
  -51104242.6922266     
  -51105224.6764261     
  -51106221.5854407     
  -51107233.0033530     
  -51108258.5055107     
  -51109297.6588078     
  -51110350.0219876     
  -51111415.1459643     
  -50837445.7065143     
  -50837545.1826794     
  -50837665.9976213     
  -50837808.1039930     
  -50837971.4493610     
  -50838155.9760268     
  -50838361.6208437     
  -50838588.3150318     
  -50838835.9839912     
  -50839104.5471141     
  -50839393.9175974     
  -50839704.0022568     
  -50840034.7013418     
  -50840385.9083549     
  -50840757.5098734     
  -50841149.3853764     
  -50841561.4070772     
  -50841993.4397614     
  -50842445.3406319     
  -50842916.9591622     
  -50843408.1369570     
  -50843918.7076229     
  -50844448.4966475     
  -50844997.3212898     
  -50845564.9904808     
  -50846151.3047358     
  -50846756.0560782     
  -50847379.0279766     
  -50848019.9952936     
  -50848678.7242486     
  -50849354.9723944     
  -50850048.4886078     
  -50850759.0130940     
  -50851486.2774068     
  -50852230.0044831     
  -50852989.9086929     
  -50853765.6959045     
  -50854557.0635661     
  -50855363.7008025     
  -50856185.2885278     
  -50857021.4995744     
  -50857871.9988381     
  -50858736.4434388     
  -50859614.4828976     
  -50860505.7593302     
  -50861409.9076552     
  -50862326.5558193     
  -50863255.3250375     
  -50864195.8300486     
  -50865147.6793863     
  -50593823.6047037     
  -50593913.4915818     
  -50594022.5115323     
  -50594150.6167430     
  -50594297.7543951     
  -50594463.8665510     
  -50594648.8900388     
  -50594852.7563348     
  -50595075.3914439     
  -50595316.7157783     
  -50595576.6440373     
  -50595855.0850863     
  -50596151.9418374     
  -50596467.1111319     
  -50596800.4836250     
  -50597151.9436734     
  -50597521.3692279     
  -50597908.6317284     
  -50598313.5960061     
  -50598736.1201894     
  -50599176.0556171     
  -50599633.2467579     
  -50600107.5311375     
  -50600598.7392724     
  -50601106.6946133     
  -50601631.2134963     
  -50602172.1051030     
  -50602729.1714308     
  -50603302.2072727     
  -50603891.0002068     
  -50604495.3305976     
  -50605114.9716069     
  -50605749.6892165     
  -50606399.2422621     
  -50607063.3824789     
  -50607741.8545585     
  -50608434.3962189     
  -50609140.7382849     
  -50609860.6047825     
  -50610593.7130440     
  -50611339.7738269     
  -50612098.4914436     
  -50612869.5639049     
  -50613652.6830747     
  -50614447.5348378     
  -50615253.7992791     
  -50616071.1508753     
  -50616899.2586982     
  -50617737.7866298     
  -50618586.3935889     
  -50349700.4218741     
  -50349781.7967208     
  -50349880.2200835     
  -50349995.6465872     
  -50350128.0260289     
  -50350277.3033130     
  -50350443.4183838     
  -50350626.3061564     
  -50350825.8964451     
  -50351042.1138915     
  -50351274.8778916     
  -50351524.1025231     
  -50351789.6964731     
  -50352071.5629678     
  -50352369.5997019     
  -50352683.6987727     
  -50353013.7466147     
  -50353359.6239384     
  -50353721.2056730     
  -50354098.3609121     
  -50354490.9528649     
  -50354898.8388122     
  -50355321.8700675     
  -50355759.8919440     
  -50356212.7437280     
  -50356680.2586584     
  -50357162.2639137     
  -50357658.5806053     
  -50358169.0237794     
  -50358693.4024256     
  -50359231.5194941     
  -50359783.1719214     
  -50360348.1506638     
  -50360926.2407401     
  -50361517.2212831     
  -50362120.8655999     
  -50362736.9412415     
  -50363365.2100814     
  -50364005.4284040     
  -50364657.3470017     
  -50365320.7112820     
  -50365995.2613831     
  -50366680.7323004     
  -50367376.8540207     
  -50368083.3516663     
  -50368799.9456487     
  -50369526.3518307     
  -50370262.2816972     
  -50371007.4425359     
  -50371761.5376248     
  -50105128.0531014     
  -50105201.9458603     
  -50105290.9206384     
  -50105394.9361805     
  -50105513.9466652     
  -50105647.9016732     
  -50105796.7461536     
  -50105960.4203881     
  -50106138.8599535     
  -50106331.9956841     
  -50106539.7536323     
  -50106762.0550308     
  -50106998.8162532     
  -50107249.9487766     
  -50107515.3591448     
  -50107794.9489336     
  -50108088.6147167     
  -50108396.2480353     
  -50108717.7353697     
  -50109052.9581135     
  -50109401.7925522     
  -50109764.1098442     
  -50110139.7760072     
  -50110528.6519075     
  -50110930.5932549     
  -50111345.4506027     
  -50111773.0693513     
  -50112213.2897592     
  -50112665.9469583     
  -50113130.8709755     
  -50113607.8867604     
  -50114096.8142194     
  -50114597.4682554     
  -50115109.6588154     
  -50115633.1909435     
  -50116167.8648416     
  -50116713.4759364     
  -50117269.8149538     
  -50117836.6679999     
  -50118413.8166494     
  -50119001.0380409     
  -50119598.1049793     
  -50120204.7860450     
  -50120820.8457106     
  -50121446.0444635     
  -50122080.1389369     
  -50122722.8820457     
  -50123374.0231300     
  -50124033.3081052     
  -50124700.4796174     
  -49860155.5269644     
  -49860222.8775396     
  -49860303.4561552     
  -49860397.2265158     
  -49860504.1480891     
  -49860624.1760959     
  -49860757.2614989     
  -49860903.3509891     
  -49861062.3869720     
  -49861234.3075524     
  -49861419.0465195     
  -49861616.5333311     
  -49861826.6930980     
  -49862049.4465695     
  -49862284.7101190     
  -49862532.3957311     
  -49862792.4109898     
  -49863064.6590685     
  -49863349.0387214     
  -49863645.4442782     
  -49863953.7656403     
  -49864273.8882802     
  -49864605.6932434     
  -49864949.0571541     
  -49865303.8522238     
  -49865669.9462641     
  -49866047.2027028     
  -49866435.4806044     
  -49866834.6346943     
  -49867244.5153885     
  -49867664.9688265     
  -49868095.8369095     
  -49868536.9573437     
  -49868988.1636882     
  -49869449.2854072     
  -49869920.1479290     
  -49870400.5727080     
  -49870890.3772938     
  -49871389.3754045     
  -49871897.3770052     
  -49872414.1883922     
  -49872939.6122823     
  -49873473.4479071     
  -49874015.4911124     
  -49874565.5344631     
  -49875123.3673525     
  -49875688.7761173     
  -49876261.5441563     
  -49876841.4520548     
  -49877428.2777126     
  -49614829.1190127     
  -49614890.7558833     
  -49614963.8718238     
  -49615048.4357791     
  -49615144.4128379     
  -49615251.7642367     
  -49615370.4473621     
  -49615500.4157530     
  -49615641.6191008     
  -49615794.0032500     
  -49615957.5101982     
  -49616132.0780950     
  -49616317.6412428     
  -49616514.1300965     
  -49616721.4712641     
  -49616939.5875084     
  -49617168.3977494     
  -49617407.8170679     
  -49617657.7567107     
  -49617918.1240969     
  -49618188.8228270     
  -49618469.7526930     
  -49618760.8096911     
  -49619061.8860369     
  -49619372.8701827     
  -49619693.6468382     
  -49620024.0969933     
  -49620364.0979443     
  -49620713.5233231     
  -49621072.2431298     
  -49621440.1237684     
  -49621817.0280859     
  -49622202.8154158     
  -49622597.3416236     
  -49623000.4591578     
  -49623412.0171034     
  -49623831.8612395     
  -49624259.8341011     
  -49624695.7750444     
  -49625139.5203155     
  -49625590.9031244     
  -49626049.7537208     
  -49626515.8994756     
  -49626989.1649650     
  -49627469.3720580     
  -49627956.3400092     
  -49628449.8855530     
  -49628949.8230026     
  -49629455.9643521     
  -49629968.1193812     
  -49369192.5218377     
  -49369249.1548446     
  -49369315.6139363     
  -49369391.8732231     
  -49369477.9033778     
  -49369573.6716477     
  -49369679.1418660     
  -49369794.2744619     
  -49369919.0264703     
  -49370053.3515417     
  -49370197.1999508     
  -49370350.5186059     
  -49370513.2510580     
  -49370685.3375104     
  -49370866.7148280     
  -49371057.3165484     
  -49371257.0728925     
  -49371465.9107765     
  -49371683.7538257     
  -49371910.5223873     
  -49372146.1335476     
  -49372390.5011475     
  -49372643.5358022     
  -49372905.1449210     
  -49373175.2327296     
  -49373453.7002943     
  -49373740.4455482     
  -49374035.3633197     
  -49374338.3453632     
  -49374649.2803922     
  -49374968.0541147     
  -49375294.5492714     
  -49375628.6456766     
  -49375970.2202606     
  -49376319.1471169     
  -49376675.2975500     
  -49377038.5401275     
  -49377408.7407336     
  -49377785.7626269     
  -49378169.4664997     
  -49378559.7105407     
  -49378956.3505003     
  -49379359.2397588     
  -49379768.2293970     
  -49380183.1682692     
  -49380603.9030796     
  -49381030.2784604     
  -49381462.1370527     
  -49381899.3195892     
  -49382341.6649800     
  -49123287.0586867     
  -49123339.2807818     
  -49123399.7618167     
  -49123468.4807836     
  -49123545.4136829     
  -49123630.5335394     
  -49123723.8104176     
  -49123825.2114369     
  -49123934.7007862     
  -49124052.2397378     
  -49124177.7866625     
  -49124311.2970431     
  -49124452.7234889     
  -49124602.0157501     
  -49124759.1207330     
  -49124923.9825148     
  -49125096.5423593     
  -49125276.7387337     
  -49125464.5073255     
  -49125659.7810602     
  -49125862.4901211     
  -49126072.5619683     
  -49126289.9213607     
  -49126514.4903781     
  -49126746.1884449     
  -49126984.9323553     
  -49127230.6363002     
  -49127483.2118953     
  -49127742.5682110     
  -49128008.6118041     
  -49128281.2467510     
  -49128560.3746829     
  -49128845.8948231     
  -49129137.7040257     
  -49129435.6968164     
  -49129739.7654355     
  -49130049.7998825     
  -49130365.6879627     
  -49130687.3153363     
  -49131014.5655687     
  -49131347.3201834     
  -49131685.4587161     
  -49132028.8587717     
  -49132377.3960824     
  -49132730.9445677     
  -49133089.3763965     
  -49133452.5620508     
  -49133820.3703906     
  -49134192.6687212     
  -49134569.3228612     
  -48877151.9293711     
  -48877200.2236174     
  -48877255.2845559     
  -48877317.0956710     
  -48877385.6379187     
  -48877460.8897447     
  -48877542.8271009     
  -48877631.4234626     
  -48877726.6498445     
  -48877828.4748181     
  -48877936.8645270     
  -48878051.7827038     
  -48878173.1906867     
  -48878301.0474352     
  -48878435.3095483     
  -48878575.9312803     
  -48878722.8645591     
  -48878876.0590039     
  -48879035.4619435     
  -48879201.0184361     
  -48879372.6712879     
  -48879550.3610751     
  -48879734.0261640     
  -48879923.6027338     
  -48880119.0247996     
  -48880320.2242367     
  -48880527.1308058     
  -48880739.6721789     
  -48880957.7739676     
  -48881181.3597507     
  -48881410.3511050     
  -48881644.6676359     
  -48881884.2270099     
  -48882128.9449887     
  -48882378.7354639     
  -48882633.5104934     
  -48882893.1803396     
  -48883157.6535082     
  -48883426.8367887     
  -48883700.6352966     
  -48883978.9525162     
  -48884261.6903450     
  -48884548.7491405     
  -48884840.0277658     
  -48885135.4236388     
  -48885434.8327817     
  -48885738.1498711     
  -48886045.2682901     
  -48886356.0801807     
  -48886670.4764974     
  -48630824.4792175     
  -48630869.2284748     
  -48630919.3155900     
  -48630974.7281113     
  -48631035.4515334     
  -48631101.4693160     
  -48631172.7628993     
  -48631249.3117211     
  -48631331.0932340     
  -48631418.0829214     
  -48631510.2543139     
  -48631607.5790057     
  -48631710.0266720     
  -48631817.5650845     
  -48631930.1601289     
  -48632047.7758217     
  -48632170.3743274     
  -48632297.9159763     
  -48632430.3592822     
  -48632567.6609608     
  -48632709.7759486     
  -48632856.6574220     
  -48633008.2568171     
  -48633164.5238504     
  -48633325.4065395     
  -48633490.8512249     
  -48633660.8025926     
  -48633835.2036968     
  -48634013.9959842     
  -48634197.1193184     
  -48634384.5120057     
  -48634576.1108211     
  -48634771.8510356     
  -48634971.6664447     
  -48635175.4893964     
  -48635383.2508221     
  -48635594.8802664     
  -48635810.3059196     
  -48636029.4546494     
  -48636252.2520348     
  -48636478.6224001     
  -48636708.4888500     
  -48636941.7733058     
  -48637178.3965417     
  -48637418.2782226     
  -48637661.3369423     
  -48637907.4902622     
  -48638156.6547511     
  -48638408.7460255     
  -48638663.6787898     
  -48384340.4838028     
  -48384381.9813870     
  -48384427.4395710     
  -48384476.8495436     
  -48384530.2009226     
  -48384587.4817714     
  -48384648.6786134     
  -48384713.7764484     
  -48384782.7587679     
  -48384855.6075701     
  -48384932.3033756     
  -48385012.8252424     
  -48385097.1507816     
  -48385185.2561726     
  -48385277.1161782     
  -48385372.7041606     
  -48385471.9920971     
  -48385574.9505958     
  -48385681.5489116     
  -48385791.7549627     
  -48385905.5353470     
  -48386022.8553589     
  -48386143.6790068     
  -48386267.9690304     
  -48386395.6869182     
  -48386526.7929265     
  -48386661.2460973     
  -48386799.0042783     
  -48386940.0241415     
  -48387084.2612044     
  -48387231.6698493     
  -48387382.2033453     
  -48387535.8138695     
  -48387692.4525292     
  -48387852.0693840     
  -48388014.6134698     
  -48388180.0328218     
  -48388348.2744990     
  -48388519.2846088     
  -48388693.0083323     
  -48388869.3899497     
  -48389048.3728671     
  -48389229.8996426     
  -48389413.9120140     
  -48389600.3509257     
  -48389789.1565572     
  -48389980.2683512     
  -48390173.6250422     
  -48390369.1646857     
  -48390566.8246875     
  -48137734.4440586     
  -48137772.9042857     
  -48137813.9873718     
  -48137857.6877542     
  -48137903.9987864     
  -48137952.9127516     
  -48138004.4208768     
  -48138058.5133462     
  -48138115.1793150     
  -48138174.4069225     
  -48138236.1833059     
  -48138300.4946136     
  -48138367.3260183     
  -48138436.6617305     
  -48138508.4850116     
  -48138582.7781875     
  -48138659.5226613     
  -48138738.6989274     
  -48138820.2865842     
  -48138904.2643478     
  -48138990.6100659     
  -48139079.3007309     
  -48139170.3124940     
  -48139263.6206788     
  -48139359.1997961     
  -48139457.0235571     
  -48139557.0648887     
  -48139659.2959476     
  -48139763.6881352     
  -48139870.2121128     
  -48139978.8378166     
  -48140089.5344733     
  -48140202.2706158     
  -48140317.0140993     
  -48140433.7321169     
  -48140552.3912169     
  -48140672.9573185     
  -48140795.3957296     
  -48140919.6711633     
  -48141045.7477554     
  -48141173.5890820     
  -48141303.1581773     
  -48141434.4175516     
  -48141567.3292091     
  -48141701.8546667     
  -48141837.9549716     
  -48141975.5907209     
  -48142114.7220795     
  -48142255.3087990     
  -48142397.3102363     
  -47891039.8879627     
  -47891075.4559416     
  -47891112.3363542     
  -47891150.5265388     
  -47891190.0232403     
  -47891230.8226213     
  -47891272.9202740     
  -47891316.3112324     
  -47891360.9899828     
  -47891406.9504752     
  -47891454.1861354     
  -47891502.6898745     
  -47891552.4541011     
  -47891603.4707310     
  -47891655.7311986     
  -47891709.2264674     
  -47891763.9470395     
  -47891819.8829670     
  -47891877.0238619     
  -47891935.3589058     
  -47891994.8768605     
  -47892055.5660780     
  -47892117.4145098     
  -47892180.4097178     
  -47892244.5388835     
  -47892309.7888176     
  -47892376.1459709     
  -47892443.5964426     
  -47892512.1259914     
  -47892581.7200443     
  -47892652.3637067     
  -47892724.0417724     
  -47892796.7387328     
  -47892870.4387870     
  -47892945.1258513     
  -47893020.7835693     
  -47893097.3953213     
  -47893174.9442339     
  -47893253.4131899     
  -47893332.7848383     
  -47893413.0416035     
  -47893494.1656947     
  -47893576.1391165     
  -47893658.9436775     
  -47893742.5610001     
  -47893826.9725298     
  -47893912.1595450     
  -47893998.1031656     
  -47894084.7843624     
  -47894172.1839660     
  -47644289.6764448     
  -47644322.4367995     
  -47644355.2141710     
  -47644388.0085000     
  -47644420.8196266     
  -47644453.6473017     
  -47644486.4911957     
  -47644519.3509082     
  -47644552.2259769     
  -47644585.1158870     
  -47644618.0200796     
  -47644650.9379602     
  -47644683.8689072     
  -47644716.8122797     
  -47644749.7674255     
  -47644782.7336885     
  -47644815.7104158     
  -47644848.6969656     
  -47644881.6927128     
  -47644914.6970568     
  -47644947.7094270     
  -47644980.7292895     
  -47645013.7561525     
  -47645046.7895724     
  -47645079.8291592     
  -47645112.8745814     
  -47645145.9255715     
  -47645178.9819302     
  -47645212.0435315     
  -47645245.1103267     
  -47645278.1823489     
  -47645311.2597167     
  -47645344.3426375     
  -47645377.4314119     
  -47645410.5264364     
  -47645443.6282064     
  -47645476.7373196     
  -47645509.8544781     
  -47645542.9804908     
  -47645576.1162761     
  -47645609.2628636     
  -47645642.4213956     
  -47645675.5931291     
  -47645708.7794364     
  -47645741.9818070     
  -47645775.2018473     
  -47645808.4412819     
  -47645841.7019535     
  -47645874.9858231     
  -47645908.2949689     
  -47397516.3123124     
  -47397546.2967403     
  -47397575.0053641     
  -47397602.4404739     
  -47397628.6047588     
  -47397653.5013162     
  -47397677.1336585     
  -47397699.5057209     
  -47397720.6218686     
  -47397740.4869033     
  -47397759.1060697     
  -47397776.4850617     
  -47397792.6300279     
  -47397807.5475771     
  -47397821.2447829     
  -47397833.7291888     
  -47397845.0088118     
  -47397855.0921466     
  -47397863.9881688     
  -47397871.7063378     
  -47397878.2565997     
  -47397883.6493889     
  -47397887.8956306     
  -47397891.0067417     
  -47397892.9946317     
  -47397893.8717036     
  -47397893.6508539     
  -47397892.3454720     
  -47397889.9694402     
  -47397886.5371319     
  -47397882.0634105     
  -47397876.5636277     
  -47397870.0536207     
  -47397862.5497096     
  -47397854.0686945     
  -47397844.6278518     
  -47397834.2449302     
  -47397822.9381465     
  -47397810.7261806     
  -47397797.6281703     
  -47397783.6637061     
  -47397768.8528246     
  -47397753.2160024     
  -47397736.7741493     
  -47397719.5486004     
  -47397701.5611095     
  -47397682.8338398     
  -47397663.3893562     
  -47397643.2506158     
  -47397622.4409585     
  -47150752.2519781     
  -47150779.4457018     
  -47150804.0608490     
  -47150826.1018479     
  -47150845.5740329     
  -47150862.4836515     
  -47150876.8378705     
  -47150888.6447816     
  -47150897.9134065     
  -47150904.6537022     
  -47150908.8765649     
  -47150910.5938336     
  -47150909.8182939     
  -47150906.5636805     
  -47150900.8446792     
  -47150892.6769289     
  -47150882.0770224     
  -47150869.0625074     
  -47150853.6518858     
  -47150835.8646140     
  -47150815.7211007     
  -47150793.2427061     
  -47150768.4517387     
  -47150741.3714533     
  -47150712.0260467     
  -47150680.4406537     
  -47150646.6413428     
  -47150610.6551104     
  -47150572.5098750     
  -47150532.2344710     
  -47150489.8586410     
  -47150445.4130285     
  -47150398.9291694     
  -47150350.4394829     
  -47150299.9772622     
  -47150247.5766642     
  -47150193.2726987     
  -47150137.1012174     
  -47150079.0989013     
  -47150019.3032486     
  -47149957.7525615     
  -47149894.4859322     
  -47149829.5432290     
  -47149762.9650808     
  -47149694.7928620     
  -47149625.0686763     
  -47149553.8353397     
  -47149481.1363637     
  -47149407.0159371     
  -47149331.5189078     
  -46904030.2205685     
  -46904054.5678478     
  -46904075.0110913     
  -46904091.5566855     
  -46904104.2124408     
  -46904112.9875970     
  -46904117.8928287     
  -46904118.9402495     
  -46904116.1434159     
  -46904109.5173302     
  -46904099.0784432     
  -46904084.8446560     
  -46904066.8353208     
  -46904045.0712419     
  -46904019.5746748     
  -46903990.3693254     
  -46903957.4803483     
  -46903920.9343442     
  -46903880.7593565     
  -46903836.9848674     
  -46903789.6417932     
  -46903738.7624782     
  -46903684.3806890     
  -46903626.5316067     
  -46903565.2518193     
  -46903500.5793130     
  -46903432.5534622     
  -46903361.2150197     
  -46903286.6061051     
  -46903208.7701927     
  -46903127.7520996     
  -46903043.5979710     
  -46902956.3552664     
  -46902866.0727445     
  -46902772.8004469     
  -46902676.5896813     
  -46902577.4930042     
  -46902475.5642024     
  -46902370.8582736     
  -46902263.4314068     
  -46902153.3409611     
  -46902040.6454446     
  -46901925.4044920     
  -46901807.6788412     
  -46901687.5303099     
  -46901565.0217710     
  -46901440.2171268     
  -46901313.1812834     
  -46901183.9801238     
  -46901052.6804803     
  -46657383.5316634     
  -46657404.9406111     
  -46657421.0843773     
  -46657431.9711468     
  -46657437.6110609     
  -46657438.0162220     
  -46657433.2006982     
  -46657423.1805266     
  -46657407.9737163     
  -46657387.6002502     
  -46657362.0820860     
  -46657331.4431564     
  -46657295.7093685     
  -46657254.9086017     
  -46657209.0707059     
  -46657158.2274972     
  -46657102.4127542     
  -46657041.6622120     
  -46656976.0135562     
  -46656905.5064154     
  -46656830.1823530     
  -46656750.0848578     
  -46656665.2593336     
  -46656575.7530882     
  -46656481.6153205     
  -46656382.8971078     
  -46656279.6513911     
  -46656171.9329595     
  -46656059.7984344     
  -46655943.3062517     
  -46655822.5166433     
  -46655697.4916178     
  -46655568.2949403     
  -46655434.9921103     
  -46655297.6503395     
  -46655156.3385287     
  -46655011.1272427     
  -46654862.0886851     
  -46654709.2966717     
  -46654552.8266033     
  -46654392.7554368     
  -46654229.1616560     
  -46654062.1252414     
  -46653891.7276385     
  -46653718.0517257     
  -46653541.1817811     
  -46653361.2034484     
  -46653178.2037014     
  -46652992.2708088     
  -46652803.4942967     
  -46410846.4134758     
  -46410864.7604799     
  -46410876.4321112     
  -46410881.4382006     
  -46410879.7910861     
  -46410871.5056191     
  -46410856.5991671     
  -46410835.0916182     
  -46410807.0053829     
  -46410772.3653949     
  -46410731.1991115     
  -46410683.5365124     
  -46410629.4100974     
  -46410568.8548834     
  -46410501.9083997     
  -46410428.6106822     
  -46410349.0042668     
  -46410263.1341815     
  -46410171.0479368     
  -46410072.7955156     
  -46409968.4293614     
  -46409858.0043651     
  -46409741.5778518     
  -46409619.2095642     
  -46409490.9616470     
  -46409356.8986286     
  -46409217.0874019     
  -46409071.5972041     
  -46408920.4995953     
  -46408763.8684351     
  -46408601.7798591     
  -46408434.3122529     
  -46408261.5462260     
  -46408083.5645840     
  -46407900.4522988     
  -46407712.2964792     
  -46407519.1863388     
  -46407321.2131634     
  -46407118.4702770     
  -46406911.0530067     
  -46406699.0586464     
  -46406482.5864190     
  -46406261.7374383     
  -46406036.6146682     
  -46405807.3228826     
  -46405573.9686229     
  -46405336.6601546     
  -46405095.5074232     
  -46404850.6220086     
  -46404602.1170787     
  -46164454.3437896     
  -46164469.4778955     
  -46164476.4635608     
  -46164475.3121005     
  -46164466.0379131     
  -46164448.6584865     
  -46164423.1944024     
  -46164389.6693404     
  -46164348.1100795     
  -46164298.5464997     
  -46164241.0115808     
  -46164175.5414011     
  -46164102.1751336     
  -46164020.9550421     
  -46163931.9264746     
  -46163835.1378558     
  -46163730.6406785     
  -46163618.4894932     
  -46163498.7418956     
  -46163371.4585143     
  -46163236.7029951     
  -46163094.5419851     
  -46162945.0451148     
  -46162788.2849787     
  -46162624.3371146     
  -46162453.2799813     
  -46162275.1949345     
  -46162090.1662018     
  -46161898.2808556     
  -46161699.6287847     
  -46161494.3026647     
  -46161282.3979264     
  -46161064.0127231     
  -46160839.2478961     
  -46160608.2069391     
  -46160370.9959607     
  -46160127.7236456     
  -46159878.5012149     
  -46159623.4423836     
  -46159362.6633184     
  -46159096.2825925     
  -46158824.4211403     
  -46158547.2022094     
  -46158264.7513127     
  -46157977.1961777     
  -46157684.6666954     
  -46157387.2948677     
  -46157085.2147531     
  -46156778.5624115     
  -46156467.4758476     
  -45918244.3964613     
  -45918256.1441192     
  -45918258.1929538     
  -45918250.5555771     
  -45918233.2482910     
  -45918206.2910952     
  -45918169.7076929     
  -45918123.5254952     
  -45918067.7756240     
  -45918002.4929131     
  -45917927.7159074     
  -45917843.4868614     
  -45917749.8517346     
  -45917646.8601866     
  -45917534.5655693     
  -45917413.0249185     
  -45917282.2989424     
  -45917142.4520100     
  -45916993.5521358     
  -45916835.6709647     
  -45916668.8837534     
  -45916493.2693513     
  -45916308.9101789     
  -45916115.8922046     
  -45915914.3049197     
  -45915704.2413112     
  -45915485.7978342     
  -45915259.0743804     
  -45915024.1742467     
  -45914781.2041008     
  -45914530.2739459     
  -45914271.4970826     
  -45914004.9900703     
  -45913730.8726857     
  -45913449.2678803     
  -45913160.3017357     
  -45912864.1034178     
  -45912560.8051282     
  -45912250.5420555     
  -45911933.4523229     
  -45911609.6769363     
  -45911279.3597289     
  -45910942.6473055     
  -45910599.6889841     
  -45910250.6367367     
  -45909895.6451284     
  -45909534.8712544     
  -45909168.4746760     
  -45908796.6173550     
  -45908419.4635863     
  -45672255.6028175     
  -45672263.7734502     
  -45672260.6023590     
  -45672246.1032200     
  -45672220.2940447     
  -45672183.1971895     
  -45672134.8393635     
  -45672075.2516349     
  -45672004.4694345     
  -45671922.5325581     
  -45671829.4851661     
  -45671725.3757820     
  -45671610.2572883     
  -45671484.1869201     
  -45671347.2262572     
  -45671199.4412141     
  -45671040.9020271     
  -45670871.6832407     
  -45670691.8636903     
  -45670501.5264840     
  -45670300.7589817     
  -45670089.6527724     
  -45669868.3036490     
  -45669636.8115815     
  -45669395.2806873     
  -45669143.8192004     
  -45668882.5394375     
  -45668611.5577629     
  -45668330.9945506     
  -45668040.9741446     
  -45667741.6248173     
  -45667433.0787254     
  -45667115.4718644     
  -45666788.9440201     
  -45666453.6387190     
  -45666109.7031766     
  -45665757.2882428     
  -45665396.5483462     
  -45665027.6414366     
  -45664650.7289242     
  -45664265.9756188     
  -45663873.5496653     
  -45663473.6224786     
  -45663066.3686756     
  -45662651.9660062     
  -45662230.5952819     
  -45661802.4403031     
  -45661367.6877835     
  -45660926.5272743     
  -45660479.1510854     
  -45426529.3318811     
  -45426533.7247775     
  -45426525.0243774     
  -45426503.2451228     
  -45426468.4064828     
  -45426420.5329669     
  -45426359.6541357     
  -45426285.8046084     
  -45426199.0240695     
  -45426099.3572721     
  -45425986.8540386     
  -45425861.5692597     
  -45425723.5628906     
  -45425572.8999448     
  -45425409.6504850     
  -45425233.8896126     
  -45425045.6974532     
  -45424845.1591412     
  -45424632.3648004     
  -45424407.4095236     
  -45424170.3933484     
  -45423921.4212312     
  -45423660.6030184     
  -45423388.0534161     
  -45423103.8919554     
  -45422808.2429575     
  -45422501.2354942     
  -45422183.0033477     
  -45421853.6849672     
  -45421513.4234228     
  -45421162.3663582     
  -45420800.6659390     
  -45420428.4788010     
  -45420045.9659943     
  -45419653.2929262     
  -45419250.6293011     
  -45418838.1490585     
  -45418416.0303085     
  -45417984.4552654     
  -45417543.6101786     
  -45417093.6852614     
  -45416634.8746182     
  -45416167.3761684     
  -45415691.3915694     
  -45415207.1261362     
  -45414714.7887602     
  -45414214.5918247     
  -45413706.7511190     
  -45413191.4857507     
  -45412669.0180550     
  -45181109.6940911     
  -45181110.1071876     
  -45181095.5494155     
  -45181066.0355952     
  -45181021.5863238     
  -45180962.2279929     
  -45180887.9928022     
  -45180798.9187710     
  -45180695.0497461     
  -45180576.4354079     
  -45180443.1312725     
  -45180295.1986918     
  -45180132.7048499     
  -45179955.7227570     
  -45179764.3312405     
  -45179558.6149325     
  -45179338.6642554     
  -45179104.5754033     
  -45178856.4503219     
  -45178594.3966838     
  -45178318.5278628     
  -45178028.9629035     
  -45177725.8264893     
  -45177409.2489067     
  -45177079.3660077     
  -45176736.3191685     
  -45176380.2552452     
  -45176011.3265277     
  -45175629.6906904     
  -45175235.5107399     
  -45174828.9549600     
  -45174410.1968543     
  -45173979.4150860     
  -45173536.7934148     
  -45173082.5206317     
  -45172616.7904905     
  -45172139.8016373     
  -45171651.7575372     
  -45171152.8663983     
  -45170643.3410933     
  -45170123.3990791     
  -45169593.2623129     
  -45169053.1571667     
  -45168503.3143390     
  -45167943.9687641     
  -45167375.3595194     
  -45166797.7297293     
  -45166211.3264682     
  -45165616.4006599     
  -45165013.2069753     
  -44936043.9741362     
  -44936040.2152887     
  -44936019.4632297     
  -44935981.7326582     
  -44935927.0448709     
  -44935855.4277839     
  -44935766.9159512     
  -44935661.5505792     
  -44935539.3795384     
  -44935400.4573711     
  -44935244.8452957     
  -44935072.6112078     
  -44934883.8296775     
  -44934678.5819434     
  -44934456.9559030     
  -44934219.0460997     
  -44933964.9537063     
  -44933694.7865052     
  -44933408.6588647     
  -44933106.6917128     
  -44932789.0125068     
  -44932455.7551996     
  -44932107.0602036     
  -44931743.0743498     
  -44931363.9508453     
  -44930969.8492261     
  -44930560.9353076     
  -44930137.3811319     
  -44929699.3649113     
  -44929247.0709698     
  -44928780.6896800     
  -44928300.4173987     
  -44927806.4563983     
  -44927299.0147957     
  -44926778.3064779     
  -44926244.5510253     
  -44925697.9736315     
  -44925138.8050208     
  -44924567.2813622     
  -44923983.6441816     
  -44923388.1402700     
  -44922781.0215897     
  -44922162.5451783     
  -44921532.9730487     
  -44920892.5720870     
  -44920241.6139484     
  -44919580.3749492     
  -44918909.1359575     
  -44918228.1822800     
  -44917537.8035473     
  -44691383.0997335     
  -44691375.0011101     
  -44691347.7216153     
  -44691301.2751932     
  -44691235.6832924     
  -44691150.9748932     
  -44691047.1865319     
  -44690924.3623178     
  -44690782.5539491     
  -44690621.8207228     
  -44690442.2295410     
  -44690243.8549132     
  -44690026.7789536     
  -44689791.0913757     
  -44689536.8894814     
  -44689264.2781465     
  -44688973.3698028     
  -44688664.2844149     
  -44688337.1494542     
  -44687992.0998685     
  -44687629.2780475     
  -44687248.8337848     
  -44686850.9242362     
  -44686435.7138735     
  -44686003.3744363     
  -44685554.0848774     
  -44685088.0313077     
  -44684605.4069354     
  -44684106.4120026     
  -44683591.2537182     
  -44683060.1461874     
  -44682513.3103381     
  -44681950.9738440     
  -44681373.3710438     
  -44680780.7428578     
  -44680173.3367017     
  -44679551.4063959     
  -44678915.2120733     
  -44678265.0200829     
  -44677601.1028908     
  -44676923.7389780     
  -44676233.2127358     
  -44675529.8143574     
  -44674813.8397268     
  -44674085.5903056     
  -44673345.3730155     
  -44672593.5001191     
  -44671830.2890974     
  -44671056.0625237     
  -44670271.1479365     
  -44447182.1547755     
  -44447169.5909891     
  -44447135.4706249     
  -44447079.8060843     
  -44447002.6182863     
  -44446903.9367018     
  -44446783.7993805     
  -44446642.2529739     
  -44446479.3527538     
  -44446295.1626239     
  -44446089.7551285     
  -44445863.2114542     
  -44445615.6214284     
  -44445347.0835117     
  -44445057.7047860     
  -44444747.6009376     
  -44444416.8962359     
  -44444065.7235067     
  -44443694.2241022     
  -44443302.5478651     
  -44442890.8530891     
  -44442459.3064749     
  -44442008.0830817     
  -44441537.3662747     
  -44441047.3476684     
  -44440538.2270660     
  -44440010.2123945     
  -44439463.5196359     
  -44438898.3727554     
  -44438315.0036248     
  -44437713.6519422     
  -44437094.5651494     
  -44436457.9983441     
  -44435804.2141898     
  -44435133.4828217     
  -44434446.0817492     
  -44433742.2957553     
  -44433022.4167926     
  -44432286.7438762     
  -44431535.5829732     
  -44430769.2468888     
  -44429988.0551501     
  -44429192.3338856     
  -44428382.4157026     
  -44427558.6395613     
  -44426721.3506451     
  -44425870.9002288     
  -44425007.6455432     
  -44424131.9496368     
  -44423244.1812343     
  -44203500.9473420     
  -44203483.8578684     
  -44203442.6226399     
  -44203377.2515623     
  -44203287.7642033     
  -44203174.1898318     
  -44203036.5674501     
  -44202874.9458203     
  -44202689.3834844     
  -44202479.9487781     
  -44202246.7198392     
  -44201989.7846091     
  -44201709.2408289     
  -44201405.1960301     
  -44201077.7675191     
  -44200727.0823557     
  -44200353.2773278     
  -44199956.4989182     
  -44199536.9032687     
  -44199094.6561373     
  -44198629.9328511     
  -44198142.9182542     
  -44197633.8066510     
  -44197102.8017442     
  -44196550.1165690     
  -44195975.9734227     
  -44195380.6037892     
  -44194764.2482607     
  -44194127.1564540     
  -44193469.5869232     
  -44192791.8070691     
  -44192094.0930440     
  -44191376.7296529     
  -44190640.0102517     
  -44189884.2366409     
  -44189109.7189568     
  -44188316.7755581     
  -44187505.7329105     
  -44186676.9254669     
  -44185830.6955448     
  -44184967.3932006     
  -44184087.3761003     
  -44183191.0093875     
  -44182278.6655476     
  -44181350.7242701     
  -44180407.5723058     
  -44179449.6033233     
  -44178477.2177598     
  -44177490.8226709     
  -44176490.8315761     
  -43960404.6457250     
  -43960383.0619789     
  -43960334.5010738     
  -43960258.9693030     
  -43960156.4839271     
  -43960027.0732182     
  -43959870.7764945     
  -43959687.6441493     
  -43959477.7376717     
  -43959241.1296593     
  -43958977.9038245     
  -43958688.1549936     
  -43958371.9890982     
  -43958029.5231608     
  -43957660.8852730     
  -43957266.2145677     
  -43956845.6611846     
  -43956399.3862296     
  -43955927.5617284     
  -43955430.3705747     
  -43954908.0064713     
  -43954360.6738680     
  -43953788.5878920     
  -43953191.9742749     
  -43952571.0692737     
  -43951926.1195878     
  -43951257.3822706     
  -43950565.1246376     
  -43949849.6241693     
  -43949111.1684107     
  -43948350.0548666     
  -43947566.5908925     
  -43946761.0935826     
  -43945933.8896536     
  -43945085.3153253     
  -43944215.7161976     
  -43943325.4471240     
  -43942414.8720822     
  -43941484.3640414     
  -43940534.3048266     
  -43939565.0849791     
  -43938577.1036151     
  -43937570.7682804     
  -43936546.4948023     
  -43935504.7071390     
  -43934445.8372250     
  -43933370.3248146     
  -43932278.6173215     
  -43931171.1696554     
  -43930048.4440565     
  -43717964.4990164     
  -43717938.5761336     
  -43717882.5695730     
  -43717796.4807586     
  -43717680.3235857     
  -43717534.1244682     
  -43717357.9223735     
  -43717151.7688500     
  -43716915.7280451     
  -43716649.8767138     
  -43716354.3042193     
  -43716029.1125245     
  -43715674.4161761     
  -43715290.3422797     
  -43714877.0304679     
  -43714434.6328607     
  -43713963.3140185     
  -43713463.2508886     
  -43712934.6327438     
  -43712377.6611163     
  -43711792.5497243     
  -43711179.5243924     
  -43710538.8229670     
  -43709870.6952261     
  -43709175.4027838     
  -43708453.2189897     
  -43707704.4288241     
  -43706929.3287881     
  -43706128.2267890     
  -43705301.4420234     
  -43704449.3048548     
  -43703572.1566878     
  -43702670.3498387     
  -43701744.2474037     
  -43700794.2231225     
  -43699820.6612392     
  -43698823.9563614     
  -43697804.5133143     
  -43696762.7469936     
  -43695699.0822156     
  -43694613.9535635     
  -43693507.8052325     
  -43692381.0908712     
  -43691234.2734211     
  -43690067.8249533     
  -43688882.2265023     
  -43687677.9678980     
  -43686455.5475939     
  -43685215.4724934     
  -43683958.2577732     
  -43476258.6630734     
  -43476228.7159064     
  -43476165.2654122     
  -43476068.3068057     
  -43475937.8495245     
  -43475773.9172722     
  -43475576.5480501     
  -43475345.7941782     
  -43475081.7223045     
  -43474784.4134044     
  -43474453.9627687     
  -43474090.4799822     
  -43473694.0888931     
  -43473264.9275716     
  -43472803.1482615     
  -43472308.9173211     
  -43471782.4151580     
  -43471223.8361543     
  -43470633.3885852     
  -43470011.2945308     
  -43469357.7897807     
  -43468673.1237318     
  -43467957.5592813     
  -43467211.3727128     
  -43466434.8535786     
  -43465628.3045750     
  -43464792.0414148     
  -43463926.3926951     
  -43463031.6997595     
  -43462108.3165586     
  -43461156.6095068     
  -43460176.9573337     
  -43459169.7509349     
  -43458135.3932193     
  -43457074.2989531     
  -43455986.8946021     
  -43454873.6181716     
  -43453734.9190441     
  -43452571.2578149     
  -43451383.1061260     
  -43450170.9464979     
  -43448935.2721601     
  -43447676.5868791     
  -43446395.4047853     
  -43445092.2501979     
  -43443767.6574481     
  -43442422.1707002     
  -43441056.3437710     
  -43439670.7399473     
  -43438265.9318012     
  -43235373.1579969     
  -43235339.6999761     
  -43235268.9614654     
  -43235160.9301588     
  -43235015.6100266     
  -43234833.0213493     
  -43234613.2007374     
  -43234356.2011377     
  -43234062.0918257     
  -43233730.9583865     
  -43233362.9026815     
  -43232958.0428046     
  -43232516.5130271     
  -43232038.4637308     
  -43231524.0613322     
  -43230973.4881957     
  -43230386.9425384     
  -43229764.6383262     
  -43229106.8051609     
  -43228413.6881615     
  -43227685.5478362     
  -43226922.6599493     
  -43226125.3153818     
  -43225293.8199857     
  -43224428.4944339     
  -43223529.6740655     
  -43222597.7087253     
  -43221632.9626023     
  -43220635.8140619     
  -43219606.6554769     
  -43218545.8930558     
  -43217453.9466668     
  -43216331.2496626     
  -43215178.2487014     
  -43213995.4035673     
  -43212783.1869895     
  -43211542.0844597     
  -43210272.5940499     
  -43208975.2262291     
  -43207650.5036782     
  -43206298.9611064     
  -43204921.1450660     
  -43203517.6137673     
  -43202088.9368925     
  -43200635.6954105     
  -43199158.4813903     
  -43197657.8978138     
  -43196134.5583888     
  -43194589.0873603     
  -43193022.1193224     
  -42995402.9897380     
  -42995366.7719731     
  -42995289.0867671     
  -42995169.9131904     
  -42995009.2490170     
  -42994807.1107365     
  -42994563.5335507     
  -42994278.5713525     
  -42993952.2966890     
  -42993584.8007106     
  -42993176.1931031     
  -42992726.6020079     
  -42992236.1739290     
  -42991705.0736262     
  -42991133.4839985     
  -42990521.6059551     
  -42989869.6582777     
  -42989177.8774720     
  -42988446.5176111     
  -42987675.8501717     
  -42986866.1638616     
  -42986017.7644419     
  -42985130.9745427     
  -42984206.1334734     
  -42983243.5970292     
  -42982243.7372929     
  -42981206.9424337     
  -42980133.6165027     
  -42979024.1792272     
  -42977879.0658021     
  -42976698.7266807     
  -42975483.6273644     
  -42974234.2481925     
  -42972951.0841308     
  -42971634.6445626     
  -42970285.4530783     
  -42968904.0472669     
  -42967490.9785088     
  -42966046.8117701     
  -42964572.1253977     
  -42963067.5109166     
  -42961533.5728295     
  -42959970.9284172     
  -42958380.2075416     
  -42956762.0524501     
  -42955117.1175820     
  -42953446.0693768     
  -42951749.5860828     
  -42950028.3575684     
  -42948283.0851338     
  -42756453.4762430     
  -42756415.5223795     
  -42756331.4423042     
  -42756201.2058588     
  -42756024.8044715     
  -42755802.2511322     
  -42755533.5803463     
  -42755218.8480700     
  -42754858.1316251     
  -42754451.5295963     
  -42753999.1617116     
  -42753501.1687063     
  -42752957.7121728     
  -42752368.9743954     
  -42751735.1581726     
  -42751056.4866275     
  -42750333.2030075     
  -42749565.5704736     
  -42748753.8718808     
  -42747898.4095507     
  -42746999.5050376     
  -42746057.4988869     
  -42745072.7503905     
  -42744045.6373358     
  -42742976.5557525     
  -42741865.9196569     
  -42740714.1607932     
  -42739521.7283749     
  -42738289.0888250     
  -42737016.7255173     
  -42735705.1385176     
  -42734354.8443277     
  -42732966.3756304     
  -42731540.2810379     
  -42730077.1248428     
  -42728577.4867727     
  -42727041.9617490     
  -42725471.1596496     
  -42723865.7050759     
  -42722226.2371251     
  -42720553.4091668     
  -42718847.8886246     
  -42717110.3567635     
  -42715341.5084811     
  -42713542.0521050     
  -42711712.7091946     
  -42709854.2143475     
  -42707967.3150111     
  -42706052.7712978     
  -42704111.3558047     
  -42518641.8276953     
  -42518603.4574195     
  -42518513.7563108     
  -42518372.6853036     
  -42518180.2303564     
  -42517936.4023664     
  -42517641.2370563     
  -42517294.7948382     
  -42516897.1606556     
  -42516448.4438034     
  -42515948.7777287     
  -42515398.3198133     
  -42514797.2511392     
  -42514145.7762383     
  -42513444.1228284     
  -42512692.5415361     
  -42511891.3056083     
  -42511040.7106138     
  -42510141.0741357     
  -42509192.7354567     
  -42508196.0552378     
  -42507151.4151926     
  -42506059.2177566     
  -42504919.8857553     
  -42503733.8620695     
  -42502501.6093010     
  -42501223.6094384     
  -42499900.3635244     
  -42498532.3913264     
  -42497120.2310089     
  -42495664.4388120     
  -42494165.5887337     
  -42492624.2722181     
  -42491041.0978502     
  -42489416.6910579     
  -42487751.6938212     
  -42486046.7643894     
  -42484302.5770074     
  -42482519.8216500     
  -42480699.2037659     
  -42478841.4440312     
  -42476947.2781116     
  -42475017.4564352     
  -42473052.7439744     
  -42471053.9200372     
  -42469021.7780689     
  -42466957.1254620     
  -42464860.7833761     
  -42462733.5865654     
  -42460576.3832163     
  -42282099.0408774     
  -42282061.8713396     
  -42281967.5318049     
  -42281815.9761694     
  -42281607.1874625     
  -42281341.1776626     
  -42281017.9874841     
  -42280637.6861342     
  -42280200.3710460     
  -42279706.1675859     
  -42279155.2287387     
  -42278547.7347724     
  -42277883.8928842     
  -42277163.9368297     
  -42276388.1265369     
  -42275556.7477070     
  -42274670.1114039     
  -42273728.5536341     
  -42272732.4349176     
  -42271682.1398542     
  -42270578.0766840     
  -42269420.6768446     
  -42268210.3945278     
  -42266947.7062354     
  -42265633.1103372     
  -42264267.1266308     
  -42262850.2959066     
  -42261383.1795180     
  -42259866.3589575     
  -42258300.4354416     
  -42256686.0295041     
  -42255023.7805994     
  -42253314.3467165     
  -42251558.4040047     
  -42249756.6464124     
  -42247909.7853378     
  -42246018.5492948     
  -42244083.6835927     
  -42242105.9500303     
  -42240086.1266065     
  -42238025.0072448     
  -42235923.4015353     
  -42233782.1344914     
  -42231602.0463226     
  -42229383.9922244     
  -42227128.8421823     
  -42224837.4807927     
  -42222510.8070985     
  -42220149.7344396     
  -42217755.1903186     
  -42046972.1792357     
  -42046938.0887695     
  -42046840.2481472     
  -42046678.6085230     
  -42046453.1550905     
  -42046163.9067544     
  -42045810.9157677     
  -42045394.2673360     
  -42044914.0791912     
  -42044370.5011398     
  -42043763.7145831     
  -42043093.9320182     
  -42042361.3965160     
  -42041566.3811836     
  -42040709.1886092     
  -42039790.1502972     
  -42038809.6260886     
  -42037768.0035762     
  -42036665.6975128     
  -42035503.1492139     
  -42034280.8259600     
  -42032999.2203988     
  -42031658.8499490     
  -42030260.2562082     
  -42028804.0043669     
  -42027290.6826296     
  -42025720.9016462     
  -42024095.2939533     
  -42022414.5134281     
  -42020679.2347572     
  -42018890.1529193     
  -42017047.9826858     
  -42015153.4581381     
  -42013207.3322045     
  -42011210.3762171     
  -42009163.3794885     
  -42007067.1489115     
  -42004922.5085799     
  -42002730.2994334     
  -42000491.3789251     
  -41998206.6207134     
  -41995876.9143777     
  -41993503.1651593     
  -41991086.2937257     
  -41988627.2359600     
  -41986126.9427755     
  -41983586.3799522     
  -41981006.5279996     
  -41978388.3820414     
  -41975732.9517229     
  -41813427.1224000     
  -41813398.1544221     
  -41813297.9874104     
  -41813126.5777062     
  -41812883.9215348     
  -41812570.0544686     
  -41812185.0508517     
  -41811729.0231859     
  -41811202.1214842     
  -41810604.5325938     
  -41809936.4794911     
  -41809198.2205540     
  -41808390.0488127     
  -41807512.2911825     
  -41806565.3076825     
  -41805549.4906423     
  -41804465.2639003     
  -41803313.0819953     
  -41802093.4293564     
  -41800806.8194907     
  -41799453.7941752     
  -41798034.9226523     
  -41796550.8008332     
  -41795002.0505110     
  -41793389.3185854     
  -41791713.2763025     
  -41789974.6185110     
  -41788174.0629357     
  -41786312.3494730     
  -41784390.2395071     
  -41782408.5152512     
  -41780367.9791144     
  -41778269.4530937     
  -41776113.7781974     
  -41773901.8138962     
  -41771634.4376050     
  -41769312.5441982     
  -41766937.0455562     
  -41764508.8701465     
  -41762028.9626389     
  -41759498.2835555     
  -41756917.8089562     
  -41754288.5301590     
  -41751611.4534974     
  -41748887.6001123     
  -41746118.0057806     
  -41743303.7207780     
  -41740445.8097791     
  -41737545.3517894     
  -41734603.4401133     
  -41581651.8808273     
  -41581630.0573478     
  -41581528.5643880     
  -41581347.3766677     
  -41581086.5157184     
  -41580746.0490537     
  -41580326.0892972     
  -41579826.7932675     
  -41579248.3610276     
  -41578591.0349007     
  -41577855.0984600     
  -41577040.8754914     
  -41576148.7289381     
  -41575179.0598276     
  -41574132.3061867     
  -41573008.9419472     
  -41571809.4758476     
  -41570534.4503317     
  -41569184.4404503     
  -41567760.0527677     
  -41566261.9242772     
  -41564690.7213275     
  -41563047.1385654     
  -41561331.8978948     
  -41559545.7474577     
  -41557689.4606373     
  -41555763.8350885     
  -41553769.6917956     
  -41551707.8741614     
  -41549579.2471305     
  -41547384.6963456     
  -41545125.1273433     
  -41542801.4647869     
  -41540414.6517425     
  -41537965.6489947     
  -41535455.4344086     
  -41532885.0023357     
  -41530255.3630662     
  -41527567.5423288     
  -41524822.5808395     
  -41522021.5338979     
  -41519165.4710351     
  -41516255.4757091     
  -41513292.6450526     
  -41510278.0896709     
  -41507212.9334888     
  -41504098.3136488     
  -41500935.3804601     
  -41497725.2973942     
  -41494469.2411319     
  -41351860.5814546     
  -41351847.5848212     
  -41351745.2446758     
  -41351553.5747267     
  -41351272.6436433     
  -41350902.5738257     
  -41350443.5401269     
  -41349895.7685298     
  -41349259.5347862     
  -41348535.1630229     
  -41347723.0243209     
  -41346823.5352702     
  -41345837.1565078     
  -41344764.3912426     
  -41343605.7837714     
  -41342361.9179922     
  -41341033.4159177     
  -41339620.9361942     
  -41338125.1726302     
  -41336546.8527381     
  -41334886.7362936     
  -41333145.6139173     
  -41331324.3056804     
  -41329423.6597395     
  -41327444.5510041     
  -41325387.8798382     
  -41323254.5708023     
  -41321045.5714359     
  -41318761.8510841     
  -41316404.3997730     
  -41313974.2271331     
  -41311472.3613759     
  -41308899.8483251     
  -41306257.7505033     
  -41303547.1462785     
  -41300769.1290702     
  -41297924.8066170     
  -41295015.3003089     
  -41292041.7445834     
  -41289005.2863873     
  -41285907.0847061     
  -41282748.3101606     
  -41279530.1446715     
  -41276253.7811930     
  -41272920.4235163     
  -41269531.2861399     
  -41266087.5942111     
  -41262590.5835350     
  -41259041.5006518     
  -41255441.6029822     
  -41124298.2365617     
  -41124294.9045039     
  -41124191.1361972     
  -41123987.0151673     
  -41123682.6893889     
  -41123278.3695150     
  -41122774.3270551     
  -41122170.8925098     
  -41121468.4534678     
  -41120667.4526707     
  -41119768.3860548     
  -41118771.8007727     
  -41117678.2932038     
  -41116488.5069567     
  -41115203.1308718     
  -41113822.8970284     
  -41112348.5787613     
  -41110780.9886926     
  -41109120.9767850     
  -41107369.4284186     
  -41105527.2624993     
  -41103595.4296001     
  -41101574.9101433     
  -41099466.7126234     
  -41097271.8718793     
  -41094991.4474168     
  -41092626.5217854     
  -41090178.1990143     
  -41087647.6031096     
  -41085035.8766166     
  -41082344.1792505     
  -41079573.6865972     
  -41076725.5888881     
  -41073801.0898517     
  -41070801.4056421     
  -41067727.7638498     
  -41064581.4025942     
  -41061363.5697005     
  -41058075.5219642     
  -41054718.5245008     
  -41051293.8501868     
  -41047802.7791889     
  -41044246.5985855     
  -41040626.6020781     
  -41036944.0897968     
  -41033200.3681965     
  -41029396.7500455     
  -41025534.5545084     
  -41021615.1073183     
  -41017639.7410420     
  -40899246.4071943     
  -40899251.9695905     
  -40899144.3326912     
  -40898923.6944627     
  -40898590.3282103     
  -40898144.5800934     
  -40897586.8665914     
  -40896917.6719274     
  -40896137.5454600     
  -40895247.0990489     
  -40894247.0044036     
  -40893137.9904204     
  -40891920.8405188     
  -40890596.3899787     
  -40889165.5232905     
  -40887629.1715213     
  -40885988.3097052     
  -40884243.9542620     
  -40882397.1604524     
  -40880449.0198743     
  -40878400.6580045     
  -40876253.2317936     
  -40874007.9273169     
  -40871665.9574874     
  -40869228.5598350     
  -40866696.9943568     
  -40864072.5414424     
  -40861356.4998781     
  -40858550.1849352     
  -40855654.9265439     
  -40852672.0675587     
  -40849602.9621166     
  -40846448.9740928     
  -40843211.4756565     
  -40839891.8459282     
  -40836491.4697435     
  -40833011.7365244     
  -40829454.0392600     
  -40825819.7735996     
  -40822110.3370599     
  -40818327.1283475     
  -40814471.5467981     
  -40810544.9919346     
  -40806548.8631443     
  -40802484.5594761     
  -40798353.4795583     
  -40794157.0216384     
  -40789896.5837431     
  -40785573.5639605     
  -40781189.3608424     
  -40677029.8598456     
  -40677040.8256702     
  -40676923.8686390     
  -40676679.3640438     
  -40676307.7747844     
  -40675809.6479557     
  -40675185.6113947     
  -40674436.3701923     
  -40673562.7031840     
  -40672565.4594261     
  -40671445.5546667     
  -40670203.9678209     
  -40668841.7374580     
  -40667359.9583078     
  -40665759.7777961     
  -40664042.3926149     
  -40662209.0453334     
  -40660261.0210611     
  -40658199.6441636     
  -40656026.2750437     
  -40653742.3069879     
  -40651349.1630892     
  -40648848.2932485     
  -40646241.1712616     
  -40643529.2919967     
  -40640714.1686670     
  -40637797.3302034     
  -40634780.3187317     
  -40631664.6871595     
  -40628451.9968751     
  -40625143.8155648     
  -40621741.7151502     
  -40618247.2698503     
  -40614662.0543717     
  -40610987.6422301     
  -40607225.6042057     
  -40603377.5069361     
  -40599444.9116493     
  -40595429.3730382     
  -40591332.4382814     
  -40587155.6462095     
  -40582900.5266211     
  -40578568.5997493     
  -40574161.3758803     
  -40569680.3551259     
  -40565127.0273499     
  -40560502.8722513     
  -40555809.3596025     
  -40551047.9496447     
  -40546220.0936402     
  -40458024.2842288     
  -40458032.8638749     
  -40457896.5079545     
  -40457615.8557057     
  -40457191.6474521     
  -40456624.7200118     
  -40455916.0020766     
  -40455066.5095778     
  -40454077.3410451     
  -40452949.6729726     
  -40451684.7552007     
  -40450283.9063226     
  -40448748.5091260     
  -40447080.0060791     
  -40445279.8948680     
  -40443349.7239952     
  -40441291.0884453     
  -40439105.6254281     
  -40436795.0102016     
  -40434360.9519876     
  -40431805.1899811     
  -40429129.4894635     
  -40426335.6380237     
  -40423425.4418925     
  -40420400.7223977     
  -40417263.3125434     
  -40414015.0537195     
  -40410657.7925455     
  -40407193.3778540     
  -40403623.6578185     
  -40399950.4772283     
  -40396175.6749170     
  -40392301.0813467     
  -40388328.5163521     
  -40384259.7870490     
  -40380096.6859099     
  -40375840.9890104     
  -40371494.4544497     
  -40367058.8209476     
  -40362535.8066224     
  -40357927.1079509     
  -40353234.3989138     
  -40348459.3303294     
  -40343603.5293769     
  -40338668.5993121     
  -40333656.1193770     
  -40328567.6449051     
  -40323404.7076237     
  -40318168.8161551     
  -40312861.4567157     
  -40242665.0823833     
  -40242657.0044061     
  -40242484.3258216     
  -40242148.0667092     
  -40241649.3625379     
  -40240989.4580996     
  -40240169.7014420     
  -40239191.5378148     
  -40238056.5036394     
  -40236766.2205167     
  -40235322.3892807     
  -40233726.7841118     
  -40231981.2467151     
  -40230087.6805790     
  -40228048.0453173     
  -40225864.3511070     
  -40223538.6532288     
  -40221073.0467166     
  -40218469.6611256     
  -40215730.6554245     
  -40212858.2130170     
  -40209854.5369028     
  -40206721.8449796     
  -40203462.3654947     
  -40200078.3326508     
  -40196571.9823708     
  -40192945.5482271     
  -40189201.2575406     
  -40185341.3276536     
  -40181367.9623805     
  -40177283.3486426     
  -40173089.6532897     
  -40168789.0201129     
  -40164383.5670533     
  -40159875.3836107     
  -40155266.5284545     
  -40150559.0272444     
  -40145754.8706590     
  -40140856.0126425     
  -40135864.3688674     
  -40130781.8154217     
  -40125610.1877177     
  -40120351.2796348     
  -40115006.8428891     
  -40109578.5866425     
  -40104068.1773466     
  -40098477.2388296     
  -40092807.3526257     
  -40087060.0585509     
  -40081236.8555267     
  -40031457.1440805     
  -40031408.6974077     
  -40031172.9445838     
  -40030751.4412974     
  -40030145.8730578     
  -40029358.0473243     
  -40028389.8856790     
  -40027243.4160581     
  -40025920.7650498     
  -40024424.1502780     
  -40022755.8728755     
  -40020918.3100637     
  -40018913.9078429     
  -40016745.1738088     
  -40014414.6700978     
  -40011925.0064722     
  -40009278.8335541     
  -40006478.8362117     
  -40003527.7271074     
  -40000428.2404135     
  -39997183.1256996     
  -39993795.1420009     
  -39990267.0520682     
  -39986601.6168086     
  -39982801.5899199     
  -39978869.7127226     
  -39974808.7091964     
  -39970621.2812230     
  -39966310.1040415     
  -39961877.8219191     
  -39957327.0440421     
  -39952660.3406317     
  -39947880.2392867     
  -39942989.2215607     
  -39937989.7197739     
  -39932884.1140671     
  -39927674.7297005     
  -39922363.8346012     
  -39916953.6371657     
  -39911446.2843183     
  -39905843.8598357     
  -39900148.3829331     
  -39894361.8071287     
  -39888486.0193781     
  -39882522.8394931     
  -39876474.0198444     
  -39870341.2453537     
  -39864126.1337805     
  -39857830.2363074     
  -39851455.0384264     
  -39824985.3771053     
  -39824859.4818604     
  -39824520.1389914     
  -39823969.6409533     
  -39823210.4234473     
  -39822245.0554003     
  -39821076.2290451     
  -39819706.7501291     
  -39818139.5282538     
  -39816377.5673615     
  -39814423.9563802     
  -39812281.8600322     
  -39809954.5098204     
  -39807445.1951977     
  -39804757.2549254     
  -39801894.0686323     
  -39798859.0485741     
  -39795655.6316054     
  -39792287.2713631     
  -39788757.4306720     
  -39785069.5741711     
  -39781227.1611697     
  -39777233.6387328     
  -39773092.4350030     
  -39768806.9527592     
  -39764380.5632170     
  -39759816.6000737     
  -39755118.3538008     
  -39750289.0661867     
  -39745331.9251341     
  -39740250.0597135     
  -39735046.5354779     
  -39729724.3500407     
  -39724286.4289223     
  -39718735.6216676     
  -39713074.6982389     
  -39707306.3456901     
  -39701433.1651246     
  -39695457.6689438     
  -39689382.2783896     
  -39683209.3213887     
  -39676941.0307014     
  -39670579.5423847     
  -39664126.8945722     
  -39657585.0265801     
  -39650955.7783443     
  -39644240.8901959     
  -39637442.0029854     
  -39630560.6585525     
  -39623598.3005664     
  -39623925.5481363     
  -39623666.6335740     
  -39623164.3203738     
  -39622421.8944081     
  -39621442.7955302     
  -39620230.6050269     
  -39618789.0333038     
  -39617121.9077652     
  -39615233.1609237     
  -39613126.8187459     
  -39610806.9892389     
  -39608277.8512874     
  -39605543.6437457     
  -39602608.6547947     
  -39599477.2115629     
  -39596153.6700201     
  -39592642.4051437     
  -39588947.8013634     
  -39585074.2432831     
  -39581026.1066853     
  -39576807.7498164     
  -39572423.5049556     
  -39567877.6702680     
  -39563174.5019416     
  -39558318.2066108     
  -39553312.9340635     
  -39548162.7702369     
  -39542871.7304982     
  -39537443.7532135     
  -39531882.6936063     
  -39526192.3179041     
  -39520376.2977791     
  -39514438.2050803     
  -39508381.5068626     
  -39502209.5607163     
  -39495925.6103972     
  -39489532.7817650     
  -39483034.0790320     
  -39476432.3813302     
  -39469730.4395983     
  -39462930.8738014     
  -39456036.1704841     
  -39449048.6806701     
  -39441970.6181131     
  -39434804.0579102     
  -39427550.9354888     
  -39420213.0459741     
  -39412792.0439406     
  -39405289.4435946     
  -39397706.6193282     
  -39429054.6949638     
  -39428582.1462575     
  -39427832.1305680     
  -39426809.2485262     
  -39425518.2602949     
  -39423964.0702802     
  -39422151.7120581     
  -39420086.3337134     
  -39417773.1834950     
  -39415217.5958219     
  -39412424.9776455     
  -39409400.7951739     
  -39406150.5609519     
  -39402679.8213053     
  -39398994.1441466     
  -39395099.1071412     
  -39391000.2862355     
  -39386703.2445411     
  -39382213.5215779     
  -39377536.6228665     
  -39372678.0098719     
  -39367643.0902934     
  -39362437.2086929     
  -39357065.6374652     
  -39351533.5681377     
  -39345846.1030019     
  -39340008.2470695     
  -39334024.9003496     
  -39327900.8504460     
  -39321640.7654680     
  -39315249.1872561     
  -39308730.5249187     
  -39302089.0486790     
  -39295328.8840323     
  -39288454.0062159     
  -39281468.2349906     
  -39274375.2297374     
  -39267178.4848755     
  -39259881.3256042     
  -39252486.9039741     
  -39244998.1952988     
  -39237417.9949127     
  -39229748.9152851     
  -39221993.3835047     
  -39214153.6391418     
  -39206231.7325045     
  -39198229.5233041     
  -39190148.6797721     
  -39181990.6781323     
  -39173756.8026838     
  -39241259.9814296     
  -39240459.9140635     
  -39239344.0149855     
  -39237918.5938380     
  -39236190.1171250     
  -39234165.1895538     
  -39231850.5362968     
  -39229252.9854998     
  -39226379.4513544     
  -39223236.9176856     
  -39219832.4220247     
  -39216173.0401733     
  -39212265.8712594     
  -39208118.0232794     
  -39203736.5991239     
  -39199128.6830718     
  -39194301.3277531     
  -39189261.5415657     
  -39184016.2765415     
  -39178572.4166481     
  -39172936.7665179     
  -39167116.0405938     
  -39161116.8526775     
  -39154945.7058724     
  -39148608.9829075     
  -39142112.9368305     
  -39135463.6820618     
  -39128667.1857934     
  -39121729.2597290     
  -39114655.5521493     
  -39107451.5402984     
  -39100122.5230801     
  -39092673.6140612     
  -39085109.7347717     
  -39077435.6083034     
  -39069655.7532002     
  -39061774.4776416     
  -39053795.8739214     
  -39045723.8132237     
  -39037561.9407014     
  -39029313.6708674     
  -39020982.1833048     
  -39012570.4187074     
  -39004081.0752685     
  -38995516.6054357     
  -38986879.2130578     
  -38978170.8509124     
  -38969393.2186012     
  -38960547.7611838     
  -38951635.6677305     
  -39061544.3806806     
  -39060259.5187843     
  -39058616.1983370     
  -39056622.9123515     
  -39054288.2945482     
  -39051621.0987248     
  -39048630.1772171     
  -39045324.4609115     
  -39041712.9397750     
  -39037804.6439884     
  -39033608.6257793     
  -39029133.9419368     
  -39024389.6369782     
  -39019384.7269526     
  -39014128.1838686     
  -39008628.9207344     
  -39002895.7771945     
  -38996937.5057475     
  -38990762.7585210     
  -38984380.0745909     
  -38977797.8678171     
  -38971024.4151797     
  -38964067.8455916     
  -38956936.1291655     
  -38949637.0669100     
  -38942178.2808363     
  -38934567.2044478     
  -38926811.0735923     
  -38918916.9176548     
  -38910891.5510677     
  -38902741.5651215     
  -38894473.3200532     
  -38886092.9374002     
  -38877606.2925989     
  -38869019.0078227     
  -38860336.4450410     
  -38851563.6992995     
  -38842705.5922104     
  -38833766.6656566     
  -38824751.1757080     
  -38815663.0867590     
  -38806506.0658967     
  -38797283.4775164     
  -38787998.3781941     
  -38778653.5118217     
  -38769251.3050353     
  -38759793.8630654     
  -38750282.9660823     
  -38740720.0650038     
  -38731106.2797948     
  -38891027.0119951     
  -38889044.4875246     
  -38886656.9729669     
  -38883875.7006130     
  -38880712.0126745     
  -38877177.3328635     
  -38873283.1448585     
  -38869040.9688568     
  -38864462.3393900     
  -38859558.7843471     
  -38854341.8048579     
  -38848822.8559829     
  -38843013.3282436     
  -38836924.5300021     
  -38830567.6706677     
  -38823953.8447015     
  -38817094.0163888     
  -38809999.0053522     
  -38802679.4727746     
  -38795145.9083044     
  -38787408.6176065     
  -38779477.7105235     
  -38771363.0898100     
  -38763074.4403981     
  -38754621.2191534     
  -38746012.6450814     
  -38737257.6899391     
  -38728365.0692099     
  -38719343.2334021     
  -38710200.3596243     
  -38700944.3434045     
  -38691582.7907077     
  -38682123.0101217     
  -38672572.0051742     
  -38662936.4667546     
  -38653222.7656126     
  -38643436.9449157     
  -38633584.7128462     
  -38623671.4352322     
  -38613702.1282008     
  -38603681.4508532     
  -38593613.6979624     
  -38583502.7927090     
  -38573352.2795016     
  -38563165.3169409     
  -38552944.6708942     
  -38542692.7074149     
  -38532411.3856946     
  -38522102.2542591     
  -38511766.4400627     
  -38730935.3820612     
  -38727972.3350327     
  -38724554.6659321     
  -38720696.9951562     
  -38716413.9858597     
  -38711720.3301267     
  -38706630.7145669     
  -38701159.7961301     
  -38695322.1787647     
  -38689132.3901809     
  -38682604.8596585     
  -38675753.8971871     
  -38668593.6738322     
  -38661138.2032088     
  -38653401.3240141     
  -38645396.6835972     
  -38637137.7225553     
  -38628637.6603245     
  -38619909.4817229     
  -38610965.9243976     
  -38601819.4671168     
  -38592482.3188526     
  -38582966.4085848     
  -38573283.3757661     
  -38563444.5613722     
  -38553460.9994671     
  -38543343.4092053     
  -38533102.1871946     
  -38522747.4001395     
  -38512288.7776900     
  -38501735.7054179     
  -38491097.2178484     
  -38480381.9914769     
  -38469598.3377069     
  -38458754.1956469     
  -38447857.1247141     
  -38436914.2969937     
  -38425932.4893174     
  -38414918.0750300     
  -38403877.0154314     
  -38392814.8508930     
  -38381736.6916501     
  -38370647.2082434     
  -38359550.6215465     
  -38348450.6923824     
  -38337350.7111032     
  -38326253.4879517     
  -38315161.3430069     
  -38304076.0870205     
  -38292999.0286493     
  -38582586.3411068     
  -38578273.2317089     
  -38573454.1818279     
  -38568147.9035754     
  -38562373.1047765     
  -38556148.4052475     
  -38549492.3327128     
  -38542423.2929363     
  -38534959.5395596     
  -38527119.1486297     
  -38518919.9956232     
  -38510379.7336726     
  -38501515.7729366     
  -38492345.2613827     
  -38482885.0671280     
  -38473151.7623518     
  -38463161.6087136     
  -38452930.5442003     
  -38442474.1713302     
  -38431807.7466444     
  -38420946.1714064     
  -38409903.9834257     
  -38398695.3499023     
  -38387334.0611795     
  -38375833.5252771     
  -38364206.7630771     
  -38352466.4040178     
  -38340624.6821587     
  -38328693.4324667     
  -38316684.0871833     
  -38304607.6721284     
  -38292474.8028028     
  -38280295.6801574     
  -38268080.0859077     
  -38255837.3772803     
  -38243576.4810938     
  -38231305.8870816     
  -38219033.6403800     
  -38206767.3330985     
  -38194514.0949043     
  -38182280.5825774     
  -38170072.9685622     
  -38157896.9286621     
  -38145757.6290552     
  -38133659.7124658     
  -38121607.2822957     
  -38109603.8833643     
  -38097652.4854375     
  -38085755.4917994     
  -38073914.6553799     
  -38447352.4452708     
  -38441213.9849149     
  -38434518.6416730     
  -38427290.1541986     
  -38419551.9805222     
  -38411327.4574924     
  -38402639.6868851     
  -38393511.4996139     
  -38383965.4363529     
  -38374023.7225467     
  -38363708.2408701     
  -38353040.5055825     
  -38342041.6401374     
  -38330732.3577673     
  -38319132.9445431     
  -38307263.2446415     
  -38295142.6477653     
  -38282790.0787385     
  -38270223.9892792     
  -38257462.3518892     
  -38244522.6557391     
  -38231421.9043881     
  -38218176.6151407     
  -38204802.8198206     
  -38191316.0667275     
  -38177731.4235332     
  -38164063.4808565     
  -38150326.3562579     
  -38136533.6983801     
  -38122698.6909721     
  -38108834.0565240     
  -38094952.0592584     
  -38081064.5072223     
  -38067182.7532478     
  -38053317.6945627     
  -38039479.7708649     
  -38025678.9607117     
  -38011924.7761207     
  -37998226.2553192     
  -37984591.9535826     
  -37971029.9320344     
  -37957547.7441273     
  -37944152.4194346     
  -37930850.4447410     
  -37917647.7439056     
  -37904549.6600946     
  -37891560.9409217     
  -37878685.7033208     
  -37865927.3302250     
  -37853288.6780721     
  -38326611.1644161     
  -38318044.1428254     
  -38308872.8579544     
  -38299126.6351678     
  -38288834.9541803     
  -38278026.6956624     
  -38266730.3311641     
  -38254973.9250647     
  -38242785.0695671     
  -38230190.8327617     
  -38217217.7256555     
  -38203891.6778222     
  -38190238.0155981     
  -38176281.4418095     
  -38162046.0180630     
  -38147555.1507217     
  -38132831.5811533     
  -38117897.3803370     
  -38102773.9476385     
  -38087482.0134425     
  -38072041.6453089     
  -38056472.2573115     
  -38040792.6222094     
  -38025020.8860661     
  -38009174.5848969     
  -37993270.6628776     
  -37977325.4916163     
  -37961354.8899597     
  -37945374.1437986     
  -37929398.0253486     
  -37913440.8113942     
  -37897516.3000268     
  -37881637.8254333     
  -37865818.2703363     
  -37850070.0757053     
  -37834405.2473848     
  -37818835.3592981     
  -37803371.5529369     
  -37788024.5329573     
  -37772804.5589374     
  -37757721.4336999     
  -37742784.4888704     
  -37728002.5679909     
  -37713384.0055913     
  -37698936.5968383     
  -37684667.5510452     
  -37670583.4405139     
  -37656690.2195985     
  -37642993.3876050     
  -37629497.1196146     
  -38221675.6708602     
  -38209922.7017170     
  -38197524.3972532     
  -38184518.6582372     
  -38170941.0725686     
  -38156827.3624056     
  -38142212.7205251     
  -38127131.5284251     
  -38111617.3389210     
  -38095702.8859325     
  -38079420.0616776     
  -38062799.8739789     
  -38045872.4033578     
  -38028666.7699210     
  -38011211.1121400     
  -37993532.5762104     
  -37975657.3141429     
  -37957610.4892845     
  -37939416.2886243     
  -37921097.9416116     
  -37902677.7453123     
  -37884177.0956142     
  -37865616.5239926     
  -37847015.7391179     
  -37828393.6724044     
  -37809768.5264499     
  -37791157.8252362     
  -37772578.4649239     
  -37754046.7640840     
  -37735578.5122697     
  -37717189.0159063     
  -37698893.1406123     
  -37680705.3491979     
  -37662639.7347677     
  -37644710.0485070     
  -37626929.7218685     
  -37609311.8829092     
  -37591869.3664211     
  -37574614.7172037     
  -37557560.1854244     
  -37540717.7128407     
  -37524098.9094730     
  -37507715.0233297     
  -37491576.9116203     
  -37475695.0269794     
  -37460079.4202024     
  -37444739.6941947     
  -37429684.7106626     
  -37414922.0672041     
  -37400460.8302436     
  -38133710.7749312     
  -38117821.8841613     
  -38101261.8375896     
  -38084072.2869953     
  -38066300.7342142     
  -38047991.8198827     
  -38029188.4524319     
  -38009932.5892696     
  -37990265.2344206     
  -37970226.2095362     
  -37949853.9656227     
  -37929185.4805334     
  -37908256.2146380     
  -37887100.0938981     
  -37865749.5037340     
  -37844235.2890949     
  -37822586.7623249     
  -37800831.7221393     
  -37778996.4864139     
  -37757105.9400360     
  -37735183.5976246     
  -37713251.6798040     
  -37691331.2010088     
  -37669442.0664281     
  -37647603.1755823     
  -37625832.5300659     
  -37604147.3431135     
  -37582564.1487939     
  -37561098.9087873     
  -37539767.1148271     
  -37518583.8850013     
  -37497564.0522321     
  -37476722.2433980     
  -37456072.9478116     
  -37435630.5741290     
  -37415409.4953319     
  -37395424.0821645     
  -37375688.7262536     
  -37356217.8548027     
  -37337025.9385971     
  -37318127.4930803     
  -37299537.0672013     
  -37281269.2063724     
  -37263338.3685523     
  -37245758.7831050     
  -37228544.3108778     
  -37211708.5407168     
  -37195265.5179783     
  -37179230.3703237     
  -37163610.1010171     
  -38063635.0864430     
  -38042418.5170823     
  -38020507.4390856     
  -37997977.6960905     
  -37974880.1785396     
  -37951268.6901056     
  -37927198.6083794     
  -37902723.9338713     
  -37877896.1367994     
  -37852764.0414726     
  -37827373.9826403     
  -37801769.9145102     
  -37775993.4166123     
  -37750083.6360125     
  -37724077.2182751     
  -37698008.2645647     
  -37671908.3337179     
  -37645806.4940880     
  -37619729.4215182     
  -37593701.5357499     
  -37567745.1663637     
  -37541880.7397533     
  -37516126.9797835     
  -37490501.1161771     
  -37465019.0960116     
  -37439695.7948575     
  -37414545.2249771     
  -37389580.7386358     
  -37364815.2249339     
  -37340261.2986842     
  -37315931.4797425     
  -37291838.3608730     
  -37267994.7617198     
  -37244413.8658550     
  -37221109.3372573     
  -37198095.4121998     
  -37175386.9627104     
  -37152999.5291005     
  -37130949.3222810     
  -37109253.2025549     
  -37087928.6506480     
  -37066993.7572527     
  -37046467.2620883     
  -37026368.6530361     
  -37006718.2503519     
  -36987536.9961392     
  -36968845.3771795     
  -36950661.1572496     
  -36932999.6643568     
  -36915901.7378057     
  -38012034.9303399     
  -37983908.3221002     
  -37955151.5991613     
  -37925778.0057264     
  -37895880.6453502     
  -37865546.3748357     
  -37834849.1387879     
  -37803855.4871653     
  -37772628.3464479     
  -37741228.1152444     
  -37709712.3260867     
  -37678134.8759782     
  -37646545.3355213     
  -37614988.5177600     
  -37583504.3229605     
  -37552127.8104478     
  -37520889.4334081     
  -37489815.3784465     
  -37458927.9641896     
  -37428246.0660595     
  -37397785.5451519     
  -37367559.6674679     
  -37337579.5057931     
  -37307854.3207384     
  -37278391.9203054     
  -37249198.9991786     
  -37220281.4600793     
  -37191644.7201097     
  -37163294.0052284     
  -37135234.6358718     
  -37107472.3062846     
  -37080013.3593104     
  -37052865.0571156     
  -37026035.8464275     
  -36999535.6141605     
  -36973375.9255461     
  -36947570.2318657     
  -36922134.0286300     
  -36897084.9381247     
  -36872442.6846305     
  -36848228.9312462     
  -36824466.9647218     
  -36801181.2694356     
  -36778397.1568436     
  -36756140.8481356     
  -36734440.7117319     
  -36713330.3269658     
  -36692851.8032142     
  -36673046.2790730     
  -36653873.5126477     
  -37979030.5423732     
  -37941960.5593631     
  -37904096.1368134     
  -37865795.2707718     
  -37827153.0389433     
  -37788235.3218629     
  -37749123.8032375     
  -37709912.6470866     
  -37670697.8497119     
  -37631569.2197024     
  -37592606.0469941     
  -37553875.4901625     
  -37515432.6024437     
  -37477321.2171151     
  -37439575.2075267     
  -37402219.8458646     
  -37365273.1159080     
  -37328746.9122445     
  -37292648.1016781     
  -37256979.4456115     
  -37221740.3936014     
  -37186927.7632498     
  -37152536.3230913     
  -37118559.2949094     
  -37084988.7909119     
  -37051816.1999678     
  -37019032.5359171     
  -36986628.7599788     
  -36954596.0885384     
  -36922926.2971347     
  -36891612.0312490     
  -36860647.1344813     
  -36830027.0047639     
  -36799748.9892007     
  -36769812.8275684     
  -36740221.1528026     
  -36710980.0527503     
  -36682099.6890908     
  -36653594.9531440     
  -36625486.1086618     
  -36597799.3197438     
  -36570566.8753876     
  -36543826.7882511     
  -36517621.2679962     
  -36491993.4309831     
  -36466981.8672783     
  -36442614.5947123     
  -36418911.4857701     
  -36395929.7134937     
  -36373966.9682339     
  -37964198.3007238     
  -37914280.8106553     
  -37864604.1688541     
  -37814528.1800818     
  -37764132.2873155     
  -37713678.2165254     
  -37663430.1444607     
  -37613603.6518304     
  -37564359.1395371     
  -37515808.8980882     
  -37468026.9261636     
  -37421057.9586835     
  -37374924.8242619     
  -37329634.1514782     
  -37285180.6964676     
  -37241550.5917438     
  -37198723.7747113     
  -37156675.8002008     
  -37115379.1926873     
  -37074804.4549005     
  -37034920.8198791     
  -36995696.8114596     
  -36957100.6619795     
  -36919100.6241311     
  -36881665.2053318     
  -36844763.3468175     
  -36808364.5653802     
  -36772439.0728111     
  -36736957.8864662     
  -36701892.9437688     
  -36667217.2339047     
  -36632904.9614846     
  -36598931.7597587     
  -36565274.9753627     
  -36531914.0530200     
  -36498831.0578131     
  -36466011.3854029     
  -36433444.7279685     
  -36401126.3865081     
  -36369059.0482552     
  -36337255.1773406     
  -36305740.1826605     
  -36274556.4850903     
  -36243768.3852987     
  -36213466.9093327     
  -36183771.7247774     
  -36154821.5058197     
  -36126728.7250289     
  -36099433.4339316     
  -36072278.6014834     
  -37966086.6236941     
  -37899979.2090973     
  -37830734.4642273     
  -37761222.6800000     
  -37692779.7611840     
  -37626017.3647291     
  -37561191.8330020     
  -37498379.7443301     
  -37437565.0759482     
  -37378684.1952564     
  -37321649.8583540     
  -37266364.3297743     
  -37212726.6548185     
  -37160636.6877097     
  -37109997.2725364     
  -37060715.3517247     
  -37012702.4441681     
  -36965874.7514557     
  -36920153.0461494     
  -36875462.4350564     
  -36831732.0540238     
  -36788894.7286158     
  -36746886.6213460     
  -36705646.8775823     
  -36665117.2768597     
  -36625241.8929606     
  -36585966.7640334     
  -36547239.5727845     
  -36509009.3361630     
  -36471226.1038185     
  -36433840.6649412     
  -36396804.2639499     
  -36360068.3270901     
  -36323584.2046986     
  -36287302.9383563     
  -36251175.0695391     
  -36215150.5187142     
  -36179178.5847414     
  -36143208.1505713     
  -36107188.2450193     
  -36071069.2259108     
  -36034805.0650549     
  -35998357.6289362     
  -35961704.6705204     
  -35924854.9390019     
  -35887877.4270069     
  -35850959.7815067     
  -35814529.3055358     
  -35779513.7596573     
  -35747926.7794658     
  -37975825.9235142     
  -37858349.7624190     
  -37752894.2182761     
  -37656576.0238235     
  -37567529.3487856     
  -37484464.6254081     
  -37406442.0765079     
  -37332747.6840747     
  -37262820.9225205     
  -37196210.2047735     
  -37132544.0140250     
  -37071511.3835420     
  -37012848.2114546     
  -36956327.3684385     
  -36901751.3587388     
  -36848946.7523410     
  -36797759.8774679     
  -36748053.4295481     
  -36699703.7589119     
  -36652598.6688499     
  -36606635.6021994     
  -36561720.1264549     
  -36517764.6495986     
  -36474687.3145188     
  -36432411.0310326     
  -36390862.6124704     
  -36349971.9893567     
  -36309671.4764833     
  -36269895.0719716     
  -36230577.7679428     
  -36191654.8521982     
  -36153061.1788046     
  -36114730.3824294     
  -36076594.0062731     
  -36038580.5057840     
  -36000614.0788800     
  -35962613.2562708     
  -35924489.1596415     
  -35886143.2957870     
  -35847464.6924314     
  -35808326.0806647     
  -35768578.6606094     
  -35728044.6954917     
  -35686506.6541266     
  -35643690.6340865     
  -35599239.8543987     
  -35552670.0026934     
  -35503289.5866469     
  -35450048.9777811     
  -35391236.1255108     
SCALARS 2waySource double 
LOOKUP_TABLE default
 -4.580786399118293E-008
 -4.394133238888361E-008
 -4.228258902656395E-008
 -4.077445100290246E-008
 -3.938283169262910E-008
 -3.808572233378882E-008
 -3.686787348392487E-008
 -3.571808177767607E-008
 -3.462772459396091E-008
 -3.358992212714176E-008
 -3.259903085268909E-008
 -3.165032077127668E-008
 -3.073975965400294E-008
 -2.986386249896043E-008
 -2.901958250493788E-008
 -2.820422958837832E-008
 -2.741540779426782E-008
 -2.665096613613653E-008
 -2.590895919794155E-008
 -2.518761502073901E-008
 -2.448530850017099E-008
 -2.380053902524190E-008
 -2.313191140206896E-008
 -2.247811933046018E-008
 -2.183793083999330E-008
 -2.121017525203723E-008
 -2.059373124236089E-008
 -1.998751568229614E-008
 -1.939047292924474E-008
 -1.880156427968743E-008
 -1.821975725483658E-008
 -1.764401439365803E-008
 -1.707328114261010E-008
 -1.650647236799377E-008
 -1.594245687581090E-008
 -1.538003909385384E-008
 -1.481793680633051E-008
 -1.425475330498873E-008
 -1.368894159720859E-008
 -1.311875707118838E-008
 -1.254219303796442E-008
 -1.195689007774253E-008
 -1.136000404507463E-008
 -1.074800630407981E-008
 -1.011636810736136E-008
 -9.459037691202947E-009
 -8.767527785985525E-009
 -8.029232635385427E-009
 -7.224140730566403E-009
 -6.318035742365573E-009
 -4.551166145505770E-008
 -4.442538879066142E-008
 -4.330488460591876E-008
 -4.219402597377273E-008
 -4.111084943527531E-008
 -4.006214551156726E-008
 -3.904971716611796E-008
 -3.807314318230213E-008
 -3.713103133644197E-008
 -3.622159916378130E-008
 -3.534294673722416E-008
 -3.449318457850760E-008
 -3.367049193438363E-008
 -3.287314098940326E-008
 -3.209950424831493E-008
 -3.134805365992404E-008
 -3.061735576307634E-008
 -2.990606504872392E-008
 -2.921291665909204E-008
 -2.853671900485519E-008
 -2.787634653396761E-008
 -2.723073282980222E-008
 -2.659886403214138E-008
 -2.597977259335496E-008
 -2.537253133624828E-008
 -2.477624776983043E-008
 -2.419005860182783E-008
 -2.361312440594712E-008
 -2.304462435622842E-008
 -2.248375098691075E-008
 -2.192970489136076E-008
 -2.138168928894347E-008
 -2.083890438940760E-008
 -2.030054146154183E-008
 -1.976577655539358E-008
 -1.923376380523396E-008
 -1.870362832469107E-008
 -1.817445879746093E-008
 -1.764530009952947E-008
 -1.711514677691884E-008
 -1.658293917809310E-008
 -1.604756609737343E-008
 -1.550788211296071E-008
 -1.496275710101660E-008
 -1.441119587194426E-008
 -1.385261217857042E-008
 -1.328744888308399E-008
 -1.271859313489476E-008
 -1.215466704200897E-008
 -1.161786778400814E-008
 -4.533581362784778E-008
 -4.453825885700865E-008
 -4.374181523845306E-008
 -4.294041631132912E-008
 -4.213759789105249E-008
 -4.133844995270543E-008
 -4.054730084224453E-008
 -3.976729218388366E-008
 -3.900051062821926E-008
 -3.824823215876774E-008
 -3.751114545964443E-008
 -3.678952537851351E-008
 -3.608335943665941E-008
 -3.539243761945814E-008
 -3.471641543785865E-008
 -3.405485806316212E-008
 -3.340727125814312E-008
 -3.277312307444442E-008
 -3.215185911075536E-008
 -3.154291322703684E-008
 -3.094571504689662E-008
 -3.035969518419414E-008
 -2.978428880771363E-008
 -2.921893804164219E-008
 -2.866309352219314E-008
 -2.811621534806716E-008
 -2.757777363081050E-008
 -2.704724878820011E-008
 -2.652413170413660E-008
 -2.600792388262948E-008
 -2.549813772046256E-008
 -2.499429702399271E-008
 -2.449593796903142E-008
 -2.400261069845048E-008
 -2.351388190513741E-008
 -2.302933882101181E-008
 -2.254859526066401E-008
 -2.207130064656383E-008
 -2.159715338368521E-008
 -2.112592056654198E-008
 -2.065746689760699E-008
 -2.019179683505299E-008
 -1.972911521385756E-008
 -1.926991199056639E-008
 -1.881507345256507E-008
 -1.836600641478187E-008
 -1.792470831364767E-008
 -1.749355293045182E-008
 -1.707408643118393E-008
 -1.666277001929583E-008
 -4.541628377316127E-008
 -4.482650613889583E-008
 -4.422678747189629E-008
 -4.362179569099468E-008
 -4.301301875301625E-008
 -4.240182298234666E-008
 -4.178984248469341E-008
 -4.117880385080702E-008
 -4.057033468942009E-008
 -3.996585462122320E-008
 -3.936653614770508E-008
 -3.877330741911369E-008
 -3.818687543686656E-008
 -3.760775673127771E-008
 -3.703630862978276E-008
 -3.647275791525784E-008
 -3.591722571115873E-008
 -3.536974844041313E-008
 -3.483029516618645E-008
 -3.429878181518604E-008
 -3.377508280158190E-008
 -3.325904051833372E-008
 -3.275047312510203E-008
 -3.224918099354486E-008
 -3.175495210139745E-008
 -3.126756663018489E-008
 -3.078680098515318E-008
 -3.031243142438781E-008
 -2.984423746075514E-008
 -2.938200521136310E-008
 -2.892553083741383E-008
 -2.847462425440581E-008
 -2.802911330134393E-008
 -2.758884854526781E-008
 -2.715370899597447E-008
 -2.672360895169509E-008
 -2.629850629927173E-008
 -2.587841251517305E-008
 -2.546340461258283E-008
 -2.505363901400191E-008
 -2.464936691093847E-008
 -2.425094967102363E-008
 -2.385887109589994E-008
 -2.347374030093272E-008
 -2.309627475128629E-008
 -2.272724967226195E-008
 -2.236740821134801E-008
 -2.201738548564605E-008
 -2.167793973471565E-008
 -2.135162176012068E-008
 -4.576003702717192E-008
 -4.532044239404323E-008
 -4.487173928465999E-008
 -4.441465710947519E-008
 -4.395079195775960E-008
 -4.348156061890191E-008
 -4.300818539993607E-008
 -4.253178573708225E-008
 -4.205342061078488E-008
 -4.157409043013177E-008
 -4.109472352426135E-008
 -4.061616224622120E-008
 -4.013915441992310E-008
 -3.966435095454502E-008
 -3.919230840472720E-008
 -3.872349490319021E-008
 -3.825829800969496E-008
 -3.779703341351180E-008
 -3.733995377602427E-008
 -3.688725726952096E-008
 -3.643909556792995E-008
 -3.599558120401707E-008
 -3.555679425347653E-008
 -3.512278840154510E-008
 -3.469359645758022E-008
 -3.426923538491208E-008
 -3.384971095894145E-008
 -3.343502212708442E-008
 -3.302516517285728E-008
 -3.262013775987141E-008
 -3.221994295698174E-008
 -3.182459329646392E-008
 -3.143411496109317E-008
 -3.104855212273435E-008
 -3.066797147584699E-008
 -3.029246694224367E-008
 -2.992216446797673E-008
 -2.955722673667816E-008
 -2.919785748927767E-008
 -2.884430497709889E-008
 -2.849686389030883E-008
 -2.815587500785728E-008
 -2.782172202839851E-008
 -2.749482598974773E-008
 -2.717564014526130E-008
 -2.686465276526315E-008
 -2.656241020161096E-008
 -2.626956293755790E-008
 -2.598684769402682E-008
 -2.571450212607578E-008
 -4.637172497355170E-008
 -4.604861924358343E-008
 -4.571554157395078E-008
 -4.537364960802529E-008
 -4.502383254977753E-008
 -4.466702341605847E-008
 -4.430415734889194E-008
 -4.393613045621297E-008
 -4.356378779015286E-008
 -4.318792388852520E-008
 -4.280928498497227E-008
 -4.242856960092431E-008
 -4.204642773323306E-008
 -4.166345970302286E-008
 -4.128021551093647E-008
 -4.089719512802694E-008
 -4.051484980788098E-008
 -4.013358431832563E-008
 -3.975375988432258E-008
 -3.937569763529924E-008
 -3.899968236899045E-008
 -3.862596646537053E-008
 -3.825477383903202E-008
 -3.788630386325065E-008
 -3.752073519090609E-008
 -3.715822947527020E-008
 -3.679893494818857E-008
 -3.644298988691605E-008
 -3.609052595224483E-008
 -3.574167142095466E-008
 -3.539655431589237E-008
 -3.505530542691196E-008
 -3.471806122650575E-008
 -3.438496665078526E-008
 -3.405617770141093E-008
 -3.373186382455729E-008
 -3.341220997267173E-008
 -3.309741827079462E-008
 -3.278770920062908E-008
 -3.248332224989942E-008
 -3.218451608668801E-008
 -3.189156844448758E-008
 -3.160477613531504E-008
 -3.132445566273163E-008
 -3.105094447374316E-008
 -3.078460108168913E-008
 -3.052579844206734E-008
 -3.027490251316214E-008
 -3.003225356786172E-008
 -2.979834678440627E-008
 -4.724674135764968E-008
 -4.701516714337460E-008
 -4.677367693642922E-008
 -4.652300608654359E-008
 -4.626394026271588E-008
 -4.599722060553705E-008
 -4.572356197356861E-008
 -4.544366046133447E-008
 -4.515819075907443E-008
 -4.486780187316843E-008
 -4.457311427851038E-008
 -4.427471852571216E-008
 -4.397317467244063E-008
 -4.366901209869950E-008
 -4.336272951134468E-008
 -4.305479515105935E-008
 -4.274564723713957E-008
 -4.243569470367104E-008
 -4.212531824073861E-008
 -4.181487163876923E-008
 -4.150468338797559E-008
 -4.119505849345424E-008
 -4.088628046286201E-008
 -4.057861340068308E-008
 -4.027230417863318E-008
 -3.996758464606828E-008
 -3.966467383180837E-008
 -3.936378012837805E-008
 -3.906510342344910E-008
 -3.876883716445530E-008
 -3.847517033127605E-008
 -3.818428930275602E-008
 -3.789637958431652E-008
 -3.761162739468931E-008
 -3.733022106595512E-008
 -3.705235225621971E-008
 -3.677821694908334E-008
 -3.650801623819956E-008
 -3.624195690947270E-008
 -3.598025182768955E-008
 -3.572312016994665E-008
 -3.547078746824330E-008
 -3.522348538925691E-008
 -3.498145100508610E-008
 -3.474492525461944E-008
 -3.451415065669923E-008
 -3.428936991105234E-008
 -3.407082974962141E-008
 -3.385878935841712E-008
 -3.365346331730089E-008
 -4.837394589576608E-008
 -4.821486022805366E-008
 -4.804609832585548E-008
 -4.786828711456929E-008
 -4.768202579375057E-008
 -4.748791029018151E-008
 -4.728652358221204E-008
 -4.707843244812895E-008
 -4.686418725151432E-008
 -4.664432168704382E-008
 -4.641935204931077E-008
 -4.618977634919640E-008
 -4.595607358402221E-008
 -4.571870324853111E-008
 -4.547810509673271E-008
 -4.523469911233137E-008
 -4.498888564544391E-008
 -4.474104571869919E-008
 -4.449154147934156E-008
 -4.424071678126512E-008
 -4.398889791864821E-008
 -4.373639446252150E-008
 -4.348350022381834E-008
 -4.323049429157010E-008
 -4.297764214458831E-008
 -4.272519681636511E-008
 -4.247340007925175E-008
 -4.222248363984734E-008
 -4.197267031775776E-008
 -4.172417519682128E-008
 -4.147720672017004E-008
 -4.123196772096507E-008
 -4.098865637769024E-008
 -4.074746706681182E-008
 -4.050859111575894E-008
 -4.027221744356971E-008
 -4.003853308021471E-008
 -3.980772356114893E-008
 -3.957997318794464E-008
 -3.935546514536362E-008
 -3.913438145291029E-008
 -3.891690273312644E-008
 -3.870320779405725E-008
 -3.849347307037893E-008
 -3.828787207436213E-008
 -3.808657499824973E-008
 -3.788974819295444E-008
 -3.769755187435758E-008
 -3.751013454258672E-008
 -3.732764753281193E-008
 -4.973678604301744E-008
 -4.963505332421271E-008
 -4.952412654261340E-008
 -4.940450113526390E-008
 -4.927666961756094E-008
 -4.914111372028156E-008
 -4.899830651736719E-008
 -4.884871191874724E-008
 -4.869278353018677E-008
 -4.853096384953689E-008
 -4.836368371942732E-008
 -4.819136189396560E-008
 -4.801440467090071E-008
 -4.783320555551151E-008
 -4.764814502128672E-008
 -4.745959036281311E-008
 -4.726789563908981E-008
 -4.707340172386482E-008
 -4.687643644152943E-008
 -4.667731479055945E-008
 -4.647633923854193E-008
 -4.627380009107453E-008
 -4.606997592323541E-008
 -4.586513405614745E-008
 -4.565953108030701E-008
 -4.545341341602402E-008
 -4.524701788340747E-008
 -4.504057229287542E-008
 -4.483429602522303E-008
 -4.462840060687666E-008
 -4.442309025363606E-008
 -4.421856238811109E-008
 -4.401500810553836E-008
 -4.381261259792185E-008
 -4.361155550850964E-008
 -4.341201122798759E-008
 -4.321414911262330E-008
 -4.301813362349590E-008
 -4.282412438021064E-008
 -4.263227612508115E-008
 -4.244273860025151E-008
 -4.225565633645372E-008
 -4.207116837043008E-008
 -4.188940788374335E-008
 -4.171050172787947E-008
 -4.153456975612627E-008
 -4.136172395363957E-008
 -4.119206788195366E-008
 -4.102569744350464E-008
 -4.086269552826919E-008
 -5.131468321863166E-008
 -5.125819927752722E-008
 -5.119313998926955E-008
 -5.111990601600809E-008
 -5.103889258083695E-008
 -5.095049071892384E-008
 -5.085508575028182E-008
 -5.075305675783728E-008
 -5.064477621498449E-008
 -5.053060951658596E-008
 -5.041091452429361E-008
 -5.028604115113631E-008
 -5.015633102728089E-008
 -5.002211720608635E-008
 -4.988372393906554E-008
 -4.974146649498838E-008
 -4.959565102409358E-008
 -4.944657448228402E-008
 -4.929452460321898E-008
 -4.913977991705460E-008
 -4.898260981391630E-008
 -4.882327465368314E-008
 -4.866202590272323E-008
 -4.849910631353092E-008
 -4.833475012068438E-008
 -4.816918326012464E-008
 -4.800262360414016E-008
 -4.783528120265373E-008
 -4.766735852369098E-008
 -4.749905069326255E-008
 -4.733054572191824E-008
 -4.716202471536456E-008
 -4.699366205864296E-008
 -4.682562558135292E-008
 -4.665807667671478E-008
 -4.649117039587492E-008
 -4.632505549072623E-008
 -4.615987441728676E-008
 -4.599576328978105E-008
 -4.583285178500630E-008
 -4.567126299776506E-008
 -4.551111324066532E-008
 -4.535251178836405E-008
 -4.519556055928442E-008
 -4.504035374075197E-008
 -4.488697739025146E-008
 -4.473550904139513E-008
 -4.458601719498041E-008
 -4.443856022756002E-008
 -4.429318700992442E-008
 -5.308451437962157E-008
 -5.306361818169047E-008
 -5.303484611660787E-008
 -5.299851697602983E-008
 -5.295494777850695E-008
 -5.290445276523858E-008
 -5.284734318705322E-008
 -5.278392680524503E-008
 -5.271450740584858E-008
 -5.263938440054018E-008
 -5.255885245815653E-008
 -5.247320116076199E-008
 -5.238271469377660E-008
 -5.228767155717070E-008
 -5.218834432553174E-008
 -5.208499942964494E-008
 -5.197789697699495E-008
 -5.186729060621561E-008
 -5.175342736199175E-008
 -5.163654761437970E-008
 -5.151688498989100E-008
 -5.139466633839797E-008
 -5.127011171650552E-008
 -5.114343439291877E-008
 -5.101484087316813E-008
 -5.088453092836136E-008
 -5.075269764666583E-008
 -5.061952748089944E-008
 -5.048520030325294E-008
 -5.034988945972531E-008
 -5.021376181816646E-008
 -5.007697780855888E-008
 -4.993969145561226E-008
 -4.980205039340654E-008
 -4.966419586284638E-008
 -4.952626269288390E-008
 -4.938837925631818E-008
 -4.925066740205900E-008
 -4.911324236238409E-008
 -4.897621263144909E-008
 -4.883967981629045E-008
 -4.870373845567309E-008
 -4.856847581145210E-008
 -4.843397163317571E-008
 -4.830029789529878E-008
 -4.816751850245739E-008
 -4.803568894463016E-008
 -4.790485593158928E-008
 -4.777505718519295E-008
 -4.764632071599292E-008
 -5.502196695602564E-008
 -5.502902068925632E-008
 -5.502892577250468E-008
 -5.502193350306916E-008
 -5.500829479671401E-008
 -5.498825984451164E-008
 -5.496207759793936E-008
 -5.492999537515483E-008
 -5.489225847249281E-008
 -5.484910979370407E-008
 -5.480078950537668E-008
 -5.474753470461977E-008
 -5.468957913136067E-008
 -5.462715288239289E-008
 -5.456048216608632E-008
 -5.448978906377260E-008
 -5.441529132834531E-008
 -5.433720218988402E-008
 -5.425573019246844E-008
 -5.417107904580939E-008
 -5.408344749274807E-008
 -5.399302920106169E-008
 -5.390001265830270E-008
 -5.380458109549051E-008
 -5.370691240750276E-008
 -5.360717909256394E-008
 -5.350554819727208E-008
 -5.340218126703747E-008
 -5.329723429828239E-008
 -5.319085769775829E-008
 -5.308319623372639E-008
 -5.297438899339845E-008
 -5.286456932864541E-008
 -5.275386480050790E-008
 -5.264239711516338E-008
 -5.253028204842590E-008
 -5.241762936269600E-008
 -5.230454270916034E-008
 -5.219111952079932E-008
 -5.207745088798384E-008
 -5.196362142454907E-008
 -5.184970911378872E-008
 -5.173578514704372E-008
 -5.162191374135720E-008
 -5.150815194687299E-008
 -5.139454943725161E-008
 -5.128114829656998E-008
 -5.116798279913900E-008
 -5.105507912037777E-008
 -5.094245517652696E-008
 -5.710266169403262E-008
 -5.713170129448671E-008
 -5.715430922813106E-008
 -5.717068095020474E-008
 -5.718101281827956E-008
 -5.718550164760947E-008
 -5.718434433890773E-008
 -5.717773749815173E-008
 -5.716587707662056E-008
 -5.714895803403042E-008
 -5.712717401871387E-008
 -5.710071706142686E-008
 -5.706977729782376E-008
 -5.703454268722524E-008
 -5.699519877407368E-008
 -5.695192844424161E-008
 -5.690491171020859E-008
 -5.685432550691880E-008
 -5.680034349932503E-008
 -5.674313591250726E-008
 -5.668286936470856E-008
 -5.661970672052286E-008
 -5.655380695038338E-008
 -5.648532500303080E-008
 -5.641441168646007E-008
 -5.634121355341193E-008
 -5.626587280225794E-008
 -5.618852717275582E-008
 -5.610930985247710E-008
 -5.602834939019613E-008
 -5.594576959864845E-008
 -5.586168947361308E-008
 -5.577622310221596E-008
 -5.568947957376989E-008
 -5.560156288858585E-008
 -5.551257186579672E-008
 -5.542260004239671E-008
 -5.533173557452960E-008
 -5.524006112862637E-008
 -5.514765377184873E-008
 -5.505458485397660E-008
 -5.496091988613579E-008
 -5.486671841282312E-008
 -5.477203387964415E-008
 -5.467691349781186E-008
 -5.458139810195388E-008
 -5.448552200668233E-008
 -5.438931285388759E-008
 -5.429279148079596E-008
 -5.419597174699492E-008
 -5.930298980435248E-008
 -5.934942267302639E-008
 -5.939010414642230E-008
 -5.942518435381002E-008
 -5.945481506847486E-008
 -5.947914936029467E-008
 -5.949834123241934E-008
 -5.951254529284730E-008
 -5.952191643316839E-008
 -5.952660952293321E-008
 -5.952677911646698E-008
 -5.952257917000974E-008
 -5.951416278407427E-008
 -5.950168194107853E-008
 -5.948528727368029E-008
 -5.946512783259118E-008
 -5.944135087188437E-008
 -5.941410164681522E-008
 -5.938352321861467E-008
 -5.934975627436770E-008
 -5.931293895547419E-008
 -5.927320669061199E-008
 -5.923069205008923E-008
 -5.918552459440667E-008
 -5.913783073617067E-008
 -5.908773361599129E-008
 -5.903535297107909E-008
 -5.898080501891058E-008
 -5.892420234504510E-008
 -5.886565379170340E-008
 -5.880526435108475E-008
 -5.874313506324334E-008
 -5.867936291761601E-008
 -5.861404074858743E-008
 -5.854725714323984E-008
 -5.847909634282995E-008
 -5.840963814523604E-008
 -5.833895781337732E-008
 -5.826712597437294E-008
 -5.819420852827283E-008
 -5.812026654933376E-008
 -5.804535619118046E-008
 -5.796952859234317E-008
 -5.789282977762915E-008
 -5.781530056774065E-008
 -5.773697648158884E-008
 -5.765788764689222E-008
 -5.757805871166483E-008
 -5.749750875338553E-008
 -5.741625120361435E-008
 -6.160067502550952E-008
 -6.166101551450191E-008
 -6.171623199061702E-008
 -6.176643837481928E-008
 -6.181175066632971E-008
 -6.185228662734689E-008
 -6.188816547714909E-008
 -6.191950760612369E-008
 -6.194643428821953E-008
 -6.196906741300098E-008
 -6.198752922323955E-008
 -6.200194206507544E-008
 -6.201242814739507E-008
 -6.201910931049204E-008
 -6.202210680763146E-008
 -6.202154108996678E-008
 -6.201753160908370E-008
 -6.201019662100346E-008
 -6.199965300154832E-008
 -6.198601607326330E-008
 -6.196939943456192E-008
 -6.194991480256731E-008
 -6.192767185854838E-008
 -6.190277810253701E-008
 -6.187533871325235E-008
 -6.184545641903809E-008
 -6.181323136586383E-008
 -6.177876099916036E-008
 -6.174213994474867E-008
 -6.170345990034138E-008
 -6.166280952401745E-008
 -6.162027433343504E-008
 -6.157593660620592E-008
 -6.152987528136025E-008
 -6.148216586786072E-008
 -6.143288035413903E-008
 -6.138208712076377E-008
 -6.132985085630549E-008
 -6.127623247382551E-008
 -6.122128903436792E-008
 -6.116507366709579E-008
 -6.110763549892466E-008
 -6.104901958202083E-008
 -6.098926682623024E-008
 -6.092841393637641E-008
 -6.086649335110736E-008
 -6.080353318798072E-008
 -6.073955719169128E-008
 -6.067458469013148E-008
 -6.060863055197047E-008
 -6.397510045083216E-008
 -6.404674140968061E-008
 -6.411382459602623E-008
 -6.417643553665646E-008
 -6.423466200862324E-008
 -6.428859377605612E-008
 -6.433832233185989E-008
 -6.438394065181123E-008
 -6.442554294445546E-008
 -6.446322442736198E-008
 -6.449708109322471E-008
 -6.452720949189522E-008
 -6.455370652171105E-008
 -6.457666922192569E-008
 -6.459619457817854E-008
 -6.461237933118955E-008
 -6.462531979795734E-008
 -6.463511169153607E-008
 -6.464184995625632E-008
 -6.464562860624800E-008
 -6.464654056650613E-008
 -6.464467752787517E-008
 -6.464012980333468E-008
 -6.463298619026430E-008
 -6.462333384029078E-008
 -6.461125813341783E-008
 -6.459684255799537E-008
 -6.458016859544636E-008
 -6.456131561108075E-008
 -6.454036074762344E-008
 -6.451737882463101E-008
 -6.449244224259469E-008
 -6.446562089096139E-008
 -6.443698205917688E-008
 -6.440659035456502E-008
 -6.437450761987171E-008
 -6.434079286036407E-008
 -6.430550216998215E-008
 -6.426868866299159E-008
 -6.423040241164170E-008
 -6.419069038466994E-008
 -6.414959639159808E-008
 -6.410716103285753E-008
 -6.406342165119271E-008
 -6.401841229081284E-008
 -6.397216365944838E-008
 -6.392470309825472E-008
 -6.387605455398863E-008
 -6.382623856116112E-008
 -6.377527222696587E-008
 -6.640745223533215E-008
 -6.648847144589583E-008
 -6.656543554503167E-008
 -6.663840819916762E-008
 -6.670745532264147E-008
 -6.677264486663362E-008
 -6.683404660036068E-008
 -6.689173190954733E-008
 -6.694577358551342E-008
 -6.699624563413263E-008
 -6.704322307945512E-008
 -6.708678177781016E-008
 -6.712699824038419E-008
 -6.716394944783908E-008
 -6.719771269120160E-008
 -6.722836539794614E-008
 -6.725598497685086E-008
 -6.728064866327023E-008
 -6.730243336954909E-008
 -6.732141554230168E-008
 -6.733767102451913E-008
 -6.735127492075014E-008
 -6.736230147223378E-008
 -6.737082393180360E-008
 -6.737691444622888E-008
 -6.738064394363859E-008
 -6.738208202570224E-008
 -6.738129686180878E-008
 -6.737835509282264E-008
 -6.737332173462056E-008
 -6.736626008821548E-008
 -6.735723165401605E-008
 -6.734629605165252E-008
 -6.733351094098711E-008
 -6.731893195106922E-008
 -6.730261260973174E-008
 -6.728460428223793E-008
 -6.726495610817697E-008
 -6.724371494838549E-008
 -6.722092533294795E-008
 -6.719662941487843E-008
 -6.717086692907886E-008
 -6.714367515352673E-008
 -6.711508887942071E-008
 -6.708514038281164E-008
 -6.705385940379723E-008
 -6.702127313055325E-008
 -6.698740618827936E-008
 -6.695228063610268E-008
 -6.691591596888512E-008
 -6.888073141356800E-008
 -6.896973103906119E-008
 -6.905511615060254E-008
 -6.913693390078431E-008
 -6.921523358187344E-008
 -6.929006645215387E-008
 -6.936148556201164E-008
 -6.942954558484116E-008
 -6.949430264712829E-008
 -6.955581417194609E-008
 -6.961413870971256E-008
 -6.966933579153430E-008
 -6.972146577187858E-008
 -6.977058968127407E-008
 -6.981676908334069E-008
 -6.986006593412612E-008
 -6.990054244599880E-008
 -6.993826095497670E-008
 -6.997328379424193E-008
 -7.000567317045252E-008
 -7.003549104419298E-008
 -7.006279901378768E-008
 -7.008765820525653E-008
 -7.011012916559498E-008
 -7.013027175951217E-008
 -7.014814507072124E-008
 -7.016380730837373E-008
 -7.017731571539001E-008
 -7.018872648354406E-008
 -7.019809467066016E-008
 -7.020547412166584E-008
 -7.021091739744865E-008
 -7.021447570149315E-008
 -7.021619881574546E-008
 -7.021613504034480E-008
 -7.021433113374652E-008
 -7.021083226146429E-008
 -7.020568194584876E-008
 -7.019892202249861E-008
 -7.019059259839394E-008
 -7.018073201883736E-008
 -7.016937683387213E-008
 -7.015656177300402E-008
 -7.014231972316835E-008
 -7.012668171244341E-008
 -7.010967689830420E-008
 -7.009133256096629E-008
 -7.007167410300903E-008
 -7.005072505341610E-008
 -7.002850707913973E-008
 -7.137967812103692E-008
 -7.147565429365008E-008
 -7.156839846590295E-008
 -7.165794556907771E-008
 -7.174433250011617E-008
 -7.182759798372460E-008
 -7.190778243245201E-008
 -7.198492781082139E-008
 -7.205907750428867E-008
 -7.213027618408696E-008
 -7.219856967628846E-008
 -7.226400483767896E-008
 -7.232662942893676E-008
 -7.238649199426180E-008
 -7.244364173910069E-008
 -7.249812841712363E-008
 -7.255000221411629E-008
 -7.259931364070686E-008
 -7.264611342119186E-008
 -7.269045239378285E-008
 -7.273238140682569E-008
 -7.277195122202935E-008
 -7.280921242298742E-008
 -7.284421532004805E-008
 -7.287700986767559E-008
 -7.290764557607448E-008
 -7.293617143596968E-008
 -7.296263583764178E-008
 -7.298708650003501E-008
 -7.300957039987841E-008
 -7.303013370721533E-008
 -7.304882172129053E-008
 -7.306567881239351E-008
 -7.308074836839217E-008
 -7.309407274176355E-008
 -7.310569320318520E-008
 -7.311564989647376E-008
 -7.312398180181361E-008
 -7.313072669803423E-008
 -7.313592113161842E-008
 -7.313960038934623E-008
 -7.314179847579370E-008
 -7.314254809275991E-008
 -7.314188062675456E-008
 -7.313982613772624E-008
 -7.313641335414717E-008
 -7.313166967202525E-008
 -7.312562115916005E-008
 -7.311829256396492E-008
 -7.310970732989757E-008
 -7.389064338905142E-008
 -7.399288236684890E-008
 -7.409221910818011E-008
 -7.418867970168257E-008
 -7.428229199519082E-008
 -7.437308548983748E-008
 -7.446109122822480E-008
 -7.454634169302971E-008
 -7.462887069484031E-008
 -7.470871327200319E-008
 -7.478590558360069E-008
 -7.486048481055858E-008
 -7.493248905251874E-008
 -7.500195723060869E-008
 -7.506892898867823E-008
 -7.513344460144812E-008
 -7.519554488018201E-008
 -7.525527108277772E-008
 -7.531266482456585E-008
 -7.536776799336822E-008
 -7.542062266809042E-008
 -7.547127103432238E-008
 -7.551975531013099E-008
 -7.556611766807470E-008
 -7.561040016397634E-008
 -7.565264466833126E-008
 -7.569289279574737E-008
 -7.573118584589022E-008
 -7.576756473881333E-008
 -7.580206995904129E-008
 -7.583474150077538E-008
 -7.586561881428772E-008
 -7.589474076081549E-008
 -7.592214556420132E-008
 -7.594787077118916E-008
 -7.597195321166149E-008
 -7.599442896328854E-008
 -7.601533332141655E-008
 -7.603470076861970E-008
 -7.605256495232692E-008
 -7.606895866190410E-008
 -7.608391381261462E-008
 -7.609746143127032E-008
 -7.610963164719950E-008
 -7.612045368635850E-008
 -7.612995586856322E-008
 -7.613816561118697E-008
 -7.614510943390250E-008
 -7.615081297082791E-008
 -7.615530098341739E-008
 -7.640143464801759E-008
 -7.650943169434301E-008
 -7.661480941263944E-008
 -7.671758765945212E-008
 -7.681778783392224E-008
 -7.691543280118515E-008
 -7.701054680533420E-008
 -7.710315538863564E-008
 -7.719328531026242E-008
 -7.728096446049647E-008
 -7.736622178438564E-008
 -7.744908719820689E-008
 -7.752959150967822E-008
 -7.760776634319885E-008
 -7.768364405641682E-008
 -7.775725767224320E-008
 -7.782864079696097E-008
 -7.789782755301687E-008
 -7.796485250455393E-008
 -7.802975059023435E-008
 -7.809255705451753E-008
 -7.815330738159087E-008
 -7.821203723449390E-008
 -7.826878239087299E-008
 -7.832357868356240E-008
 -7.837646194875710E-008
 -7.842746796412942E-008
 -7.847663240125189E-008
 -7.852399077516646E-008
 -7.856957839590661E-008
 -7.861343032459082E-008
 -7.865558133130662E-008
 -7.869606585499702E-008
 -7.873491796802336E-008
 -7.877217134038737E-008
 -7.880785921152376E-008
 -7.884201435828338E-008
 -7.887466907306733E-008
 -7.890585513965541E-008
 -7.893560381469786E-008
 -7.896394581125274E-008
 -7.899091128580779E-008
 -7.901652982871698E-008
 -7.904083045720993E-008
 -7.906384161249036E-008
 -7.908559115920100E-008
 -7.910610638980065E-008
 -7.912541403044110E-008
 -7.914354025152110E-008
 -7.916051068158244E-008
 -7.890115321657869E-008
 -7.901455040688123E-008
 -7.912557024603704E-008
 -7.923422833328651E-008
 -7.934054160709562E-008
 -7.944452828286378E-008
 -7.954620778969498E-008
 -7.964560070808813E-008
 -7.974272871034893E-008
 -7.983761448997246E-008
 -7.993028170816292E-008
 -8.002075492526727E-008
 -8.010905953996583E-008
 -8.019522173232022E-008
 -8.027926839617974E-008
 -8.036122708670801E-008
 -8.044112595577128E-008
 -8.051899369913065E-008
 -8.059485949619615E-008
 -8.066875295669574E-008
 -8.074070406762004E-008
 -8.081074313857233E-008
 -8.087890075317881E-008
 -8.094520771739799E-008
 -8.100969501499366E-008
 -8.107239375901831E-008
 -8.113333514885118E-008
 -8.119255042924656E-008
 -8.125007084725908E-008
 -8.130592761803111E-008
 -8.136015188459800E-008
 -8.141277468831601E-008
 -8.146382693256860E-008
 -8.151333935732573E-008
 -8.156134250902886E-008
 -8.160786671803562E-008
 -8.165294207387477E-008
 -8.169659840720572E-008
 -8.173886527116084E-008
 -8.177977192588202E-008
 -8.181934732728934E-008
 -8.185762011670461E-008
 -8.189461861261292E-008
 -8.193037080753608E-008
 -8.196490436498893E-008
 -8.199824662067441E-008
 -8.203042458630626E-008
 -8.206146495530951E-008
 -8.209139411266289E-008
 -8.212023814643692E-008
 -8.138003581201535E-008
 -8.149857523328060E-008
 -8.161494396234583E-008
 -8.172915481474971E-008
 -8.184122175446328E-008
 -8.195115984645491E-008
 -8.205898521008312E-008
 -8.216471497526655E-008
 -8.226836723088325E-008
 -8.236996098111358E-008
 -8.246951609745354E-008
 -8.256705326972935E-008
 -8.266259395927893E-008
 -8.275616035401589E-008
 -8.284777531821176E-008
 -8.293746234965563E-008
 -8.302524553124292E-008
 -8.311114948978982E-008
 -8.319519934638396E-008
 -8.327742067853292E-008
 -8.335783947586589E-008
 -8.343648209672535E-008
 -8.351337523195665E-008
 -8.358854586282794E-008
 -8.366202122470700E-008
 -8.373382877037994E-008
 -8.380399613541964E-008
 -8.387255110473312E-008
 -8.393952157978093E-008
 -8.400493554893286E-008
 -8.406882105929707E-008
 -8.413120618889201E-008
 -8.419211902070858E-008
 -8.425158762121197E-008
 -8.430964001737591E-008
 -8.436630417629579E-008
 -8.442160798935606E-008
 -8.447557925421937E-008
 -8.452824566265110E-008
 -8.457963478770793E-008
 -8.462977407394715E-008
 -8.467869083048065E-008
 -8.472641222464325E-008
 -8.477296527889594E-008
 -8.481837686957742E-008
 -8.486267372797564E-008
 -8.490588244277181E-008
 -8.494802946648055E-008
 -8.498914112165567E-008
 -8.502924361219058E-008
 -8.382930729786387E-008
 -8.395279650943701E-008
 -8.407429149285198E-008
 -8.419380335466089E-008
 -8.431134417567006E-008
 -8.442692698115637E-008
 -8.454056570323983E-008
 -8.465227514992624E-008
 -8.476207096870218E-008
 -8.486996961130976E-008
 -8.497598830111835E-008
 -8.508014499353059E-008
 -8.518245834414378E-008
 -8.528294766997866E-008
 -8.538163291668205E-008
 -8.547853462250172E-008
 -8.557367388277593E-008
 -8.566707231541370E-008
 -8.575875202815603E-008
 -8.584873558404020E-008
 -8.593704596868180E-008
 -8.602370655855578E-008
 -8.610874109076988E-008
 -8.619217362978348E-008
 -8.627402854028459E-008
 -8.635433046049977E-008
 -8.643310426852272E-008
 -8.651037506255551E-008
 -8.658616813308535E-008
 -8.666050893853564E-008
 -8.673342308280291E-008
 -8.680493629534180E-008
 -8.687507440957294E-008
 -8.694386334470712E-008
 -8.701132908980202E-008
 -8.707749768634392E-008
 -8.714239521524230E-008
 -8.720604778399393E-008
 -8.726848151621810E-008
 -8.732972254135394E-008
 -8.738979698701940E-008
 -8.744873097409869E-008
 -8.750655061091894E-008
 -8.756328199130761E-008
 -8.761895119298460E-008
 -8.767358427900379E-008
 -8.772720729943054E-008
 -8.777984629595755E-008
 -8.783152730738820E-008
 -8.788227637735148E-008
 -8.624104849016126E-008
 -8.636933556232034E-008
 -8.649577921861481E-008
 -8.662038962167749E-008
 -8.674317775853588E-008
 -8.686415541804765E-008
 -8.698333516594236E-008
 -8.710073032213079E-008
 -8.721635493433970E-008
 -8.733022375330306E-008
 -8.744235220787504E-008
 -8.755275637663336E-008
 -8.766145296409539E-008
 -8.776845927102719E-008
 -8.787379317235270E-008
 -8.797747308649817E-008
 -8.807951795253076E-008
 -8.817994720050737E-008
 -8.827878072979945E-008
 -8.837603888035374E-008
 -8.847174240860324E-008
 -8.856591246331040E-008
 -8.865857056220485E-008
 -8.874973856633703E-008
 -8.883943865933297E-008
 -8.892769332505274E-008
 -8.901452532581884E-008
 -8.909995768093384E-008
 -8.918401365031757E-008
 -8.926671671243822E-008
 -8.934809054857204E-008
 -8.942815902563194E-008
 -8.950694618013257E-008
 -8.958447620423961E-008
 -8.966077343173912E-008
 -8.973586232679469E-008
 -8.980976747068860E-008
 -8.988251355403638E-008
 -8.995412536695485E-008
 -9.002462779175829E-008
 -9.009404579654289E-008
 -9.016240443082831E-008
 -9.022972882096227E-008
 -9.029604416864298E-008
 -9.036137574956249E-008
 -9.042574891304580E-008
 -9.048918908469330E-008
 -9.055172176830848E-008
 -9.061337255094369E-008
 -9.067416710790989E-008
 -8.860808046102094E-008
 -8.874103635168286E-008
 -8.887227793459191E-008
 -8.900181495957142E-008
 -8.912965787297244E-008
 -8.925581779752901E-008
 -8.938030652149473E-008
 -8.950313647763608E-008
 -8.962432072846660E-008
 -8.974387294492742E-008
 -8.986180739188925E-008
 -8.997813890586767E-008
 -9.009288287634522E-008
 -9.020605522898185E-008
 -9.031767240428477E-008
 -9.042775133684247E-008
 -9.053630943882067E-008
 -9.064336457752424E-008
 -9.074893505873598E-008
 -9.085303960570779E-008
 -9.095569734057712E-008
 -9.105692776686135E-008
 -9.115675075025194E-008
 -9.125518650016035E-008
 -9.135225555507547E-008
 -9.144797876149155E-008
 -9.154237726157828E-008
 -9.163547247513840E-008
 -9.172728608481493E-008
 -9.181784002313989E-008
 -9.190715645606426E-008
 -9.199525777236074E-008
 -9.208216657090011E-008
 -9.216790564822027E-008
 -9.225249798902734E-008
 -9.233596675608683E-008
 -9.241833528146506E-008
 -9.249962705824160E-008
 -9.257986573412341E-008
 -9.265907510491054E-008
 -9.273727910961649E-008
 -9.281450182619472E-008
 -9.289076746816047E-008
 -9.296610038316621E-008
 -9.304052505047403E-008
 -9.311406608231028E-008
 -9.318674822351092E-008
 -9.325859635369570E-008
 -9.332963548970371E-008
 -9.339989079004976E-008
 -9.092386524355761E-008
 -9.106137169942329E-008
 -9.119727462475184E-008
 -9.133158371308362E-008
 -9.146430924704053E-008
 -9.159546208049761E-008
 -9.172505363384917E-008
 -9.185309587871383E-008
 -9.197960132766653E-008
 -9.210458302133868E-008
 -9.222805451360005E-008
 -9.235002986285477E-008
 -9.247052361234256E-008
 -9.258955078098396E-008
 -9.270712684824057E-008
 -9.282326773772283E-008
 -9.293798980564871E-008
 -9.305130982577200E-008
 -9.316324497420640E-008
 -9.327381281645197E-008
 -9.338303129213768E-008
 -9.349091870322348E-008
 -9.359749369722128E-008
 -9.370277525632495E-008
 -9.380678268359981E-008
 -9.390953558951417E-008
 -9.401105387982178E-008
 -9.411135774470434E-008
 -9.421046764505902E-008
 -9.430840430366804E-008
 -9.440518869245176E-008
 -9.450084202402191E-008
 -9.459538574164230E-008
 -9.468884151032079E-008
 -9.478123120826605E-008
 -9.487257691937875E-008
 -9.496290092678151E-008
 -9.505222570532488E-008
 -9.514057391701304E-008
 -9.522796840530852E-008
 -9.531443219134983E-008
 -9.539998846988878E-008
 -9.548466060660351E-008
 -9.556847213674494E-008
 -9.565144676242791E-008
 -9.573360835281881E-008
 -9.581498094385451E-008
 -9.589558873957454E-008
 -9.597545611280620E-008
 -9.605460760796148E-008
 -9.318242191471873E-008
 -9.332436344796328E-008
 -9.346479674192177E-008
 -9.360373166841523E-008
 -9.374117859225709E-008
 -9.387714836490920E-008
 -9.401165231802895E-008
 -9.414470225401724E-008
 -9.427631044063181E-008
 -9.440648960062149E-008
 -9.453525290307456E-008
 -9.466261395637523E-008
 -9.478858679482443E-008
 -9.491318587214081E-008
 -9.503642605071681E-008
 -9.515832259131199E-008
 -9.527889114144604E-008
 -9.539814772735989E-008
 -9.551610874237317E-008
 -9.563279093772836E-008
 -9.574821140959049E-008
 -9.586238759199934E-008
 -9.597533724379353E-008
 -9.608707844191027E-008
 -9.619762956835003E-008
 -9.630700930197723E-008
 -9.641523661002590E-008
 -9.652233073640935E-008
 -9.662831119633345E-008
 -9.673319776466643E-008
 -9.683701047014260E-008
 -9.693976958535247E-008
 -9.704149562201629E-008
 -9.714220932184330E-008
 -9.724193165094043E-008
 -9.734068379306081E-008
 -9.743848714567735E-008
 -9.753536331230052E-008
 -9.763133410012324E-008
 -9.772642151454323E-008
 -9.782064775613467E-008
 -9.791403521709940E-008
 -9.800660647857671E-008
 -9.809838430958194E-008
 -9.818939166401391E-008
 -9.827965168039608E-008
 -9.836918768133050E-008
 -9.845802317342301E-008
 -9.854618184749422E-008
 -9.863368758006919E-008
 -9.537825653889633E-008
 -9.552451534329723E-008
 -9.566934809858492E-008
 -9.581276499428539E-008
 -9.595477663536035E-008
 -9.609539403922320E-008
 -9.623462863220233E-008
 -9.637249224305095E-008
 -9.650899710013483E-008
 -9.664415582410432E-008
 -9.677798142338015E-008
 -9.691048728678691E-008
 -9.704168717861046E-008
 -9.717159523027130E-008
 -9.730022593456853E-008
 -9.742759413830643E-008
 -9.755371503493810E-008
 -9.767860415740195E-008
 -9.780227737015791E-008
 -9.792475086275593E-008
 -9.804604114169955E-008
 -9.816616502245799E-008
 -9.828513962280347E-008
 -9.840298235568798E-008
 -9.851971092092208E-008
 -9.863534329837483E-008
 -9.874989774195388E-008
 -9.886339277069730E-008
 -9.897584716425200E-008
 -9.908727995446634E-008
 -9.919771042155486E-008
 -9.930715808504773E-008
 -9.941564270054884E-008
 -9.952318425337388E-008
 -9.962980295297199E-008
 -9.973551922886975E-008
 -9.984035372568961E-008
 -9.994432729915790E-008
 -1.000474610116725E-007
 -1.001497761296025E-007
 -1.002512941203410E-007
 -1.003520366475094E-007
 -1.004520255713408E-007
 -1.005512829441382E-007
 -1.006498310104848E-007
 -1.007476922044311E-007
 -1.008448891494648E-007
 -1.009414446571218E-007
 -1.010373817269870E-007
 -1.011327235474500E-007
 -9.750630423404662E-008
 -9.765675718271745E-008
 -9.780585515253134E-008
 -9.795360872712348E-008
 -9.810002884225009E-008
 -9.824512678519851E-008
 -9.838891418987456E-008
 -9.853140303699532E-008
 -9.867260564965508E-008
 -9.881253468921732E-008
 -9.895120315457775E-008
 -9.908862437435475E-008
 -9.922481200525745E-008
 -9.935978002745425E-008
 -9.949354273829697E-008
 -9.962611474925415E-008
 -9.975751098005278E-008
 -9.988774665415737E-008
 -1.000168372921122E-007
 -1.001447987082960E-007
 -1.002716470036338E-007
 -1.003973985616130E-007
 -1.005220700420222E-007
 -1.006456783759517E-007
 -1.007682407602511E-007
 -1.008897746523066E-007
 -1.010102977646001E-007
 -1.011298280597523E-007
 -1.012483837455020E-007
 -1.013659832695948E-007
 -1.014826453151472E-007
 -1.015983887954422E-007
 -1.017132328507693E-007
 -1.018271968425775E-007
 -1.019403003506978E-007
 -1.020525631683054E-007
 -1.021640052991094E-007
 -1.022746469533955E-007
 -1.023845085449408E-007
 -1.024936106879465E-007
 -1.026019741943793E-007
 -1.027096200713616E-007
 -1.028165695186818E-007
 -1.029228439267775E-007
 -1.030284648754251E-007
 -1.031334541315134E-007
 -1.032378336478721E-007
 -1.033416255624833E-007
 -1.034448521969082E-007
 -1.035475360565455E-007
 -9.956188161749849E-008
 -9.971639868726740E-008
 -9.986962236809974E-008
 -1.000215636718185E-007
 -1.001722339121170E-007
 -1.003216447005033E-007
 -1.004698079459890E-007
 -1.006167358558623E-007
 -1.007624409308788E-007
 -1.009069359658651E-007
 -1.010502340470755E-007
 -1.011923485482597E-007
 -1.013332931303277E-007
 -1.014730817368284E-007
 -1.016117285908657E-007
 -1.017492481934867E-007
 -1.018856553184465E-007
 -1.020209650100987E-007
 -1.021551925782640E-007
 -1.022883535964857E-007
 -1.024204638964685E-007
 -1.025515395651358E-007
 -1.026815969404319E-007
 -1.028106526079122E-007
 -1.029387233953964E-007
 -1.030658263710726E-007
 -1.031919788380281E-007
 -1.033171983308277E-007
 -1.034415026116212E-007
 -1.035649096672477E-007
 -1.036874377038532E-007
 -1.038091051449160E-007
 -1.039299306267053E-007
 -1.040499329950833E-007
 -1.041691313028126E-007
 -1.042875448055185E-007
 -1.044051929591716E-007
 -1.045220954170944E-007
 -1.046382720269149E-007
 -1.047537428285876E-007
 -1.048685280508885E-007
 -1.049826481104232E-007
 -1.050961236082317E-007
 -1.052089753283463E-007
 -1.053212242360640E-007
 -1.054328914754057E-007
 -1.055439983685203E-007
 -1.056545664140631E-007
 -1.057646172851499E-007
 -1.058741728288797E-007
 -1.015406479824616E-007
 -1.016990916261026E-007
 -1.018562953437752E-007
 -1.020122705849878E-007
 -1.021670290558264E-007
 -1.023205827177479E-007
 -1.024729437887281E-007
 -1.026241247420561E-007
 -1.027741383056854E-007
 -1.029229974615520E-007
 -1.030707154450337E-007
 -1.032173057429456E-007
 -1.033627820907112E-007
 -1.035071584740398E-007
 -1.036504491233332E-007
 -1.037926685142538E-007
 -1.039338313636716E-007
 -1.040739526284594E-007
 -1.042130475032709E-007
 -1.043511314164817E-007
 -1.044882200291785E-007
 -1.046243292315424E-007
 -1.047594751394502E-007
 -1.048936740941221E-007
 -1.050269426559308E-007
 -1.051592976043470E-007
 -1.052907559325283E-007
 -1.054213348473059E-007
 -1.055510517632549E-007
 -1.056799243017240E-007
 -1.058079702879471E-007
 -1.059352077471315E-007
 -1.060616549025329E-007
 -1.061873301722541E-007
 -1.063122521672761E-007
 -1.064364396876764E-007
 -1.065599117214272E-007
 -1.066826874409615E-007
 -1.068047862012949E-007
 -1.069262275374383E-007
 -1.070470311619198E-007
 -1.071672169634451E-007
 -1.072868050044134E-007
 -1.074058155183934E-007
 -1.075242689093033E-007
 -1.076421857486315E-007
 -1.077595867744722E-007
 -1.078764928890536E-007
 -1.079929251582310E-007
 -1.081089048088574E-007
 -1.034385737198332E-007
 -1.036007988354605E-007
 -1.037618304824418E-007
 -1.039216805378315E-007
 -1.040803610978928E-007
 -1.042378844791884E-007
 -1.043942632192501E-007
 -1.045495100754295E-007
 -1.047036380278743E-007
 -1.048566602753858E-007
 -1.050085902380630E-007
 -1.051594415549062E-007
 -1.053092280841615E-007
 -1.054579639008239E-007
 -1.056056632974980E-007
 -1.057523407812810E-007
 -1.058980110739021E-007
 -1.060426891086841E-007
 -1.061863900304594E-007
 -1.063291291927317E-007
 -1.064709221557065E-007
 -1.066117846856969E-007
 -1.067517327519624E-007
 -1.068907825248593E-007
 -1.070289503738390E-007
 -1.071662528657845E-007
 -1.073027067620709E-007
 -1.074383290166773E-007
 -1.075731367743430E-007
 -1.077071473675487E-007
 -1.078403783150785E-007
 -1.079728473193357E-007
 -1.081045722639668E-007
 -1.082355712121586E-007
 -1.083658624040054E-007
 -1.084954642548961E-007
 -1.086243953522001E-007
 -1.087526744546928E-007
 -1.088803204891656E-007
 -1.090073525490863E-007
 -1.091337898924577E-007
 -1.092596519399870E-007
 -1.093849582723870E-007
 -1.095097286293918E-007
 -1.096339829075414E-007
 -1.097577411583519E-007
 -1.098810235864726E-007
 -1.100038505480216E-007
 -1.101262425486270E-007
 -1.102482202420973E-007
 -1.052519146770980E-007
 -1.054177689357480E-007
 -1.055824701057471E-007
 -1.057460304704846E-007
 -1.059084625040417E-007
 -1.060697788692797E-007
 -1.062299924216849E-007
 -1.063891162078754E-007
 -1.065471634660895E-007
 -1.067041476267844E-007
 -1.068600823128620E-007
 -1.070149813382774E-007
 -1.071688587095965E-007
 -1.073217286239927E-007
 -1.074736054688465E-007
 -1.076245038218491E-007
 -1.077744384493068E-007
 -1.079234243055006E-007
 -1.080714765315639E-007
 -1.082186104549256E-007
 -1.083648415869426E-007
 -1.085101856222439E-007
 -1.086546584375979E-007
 -1.087982760896358E-007
 -1.089410548142600E-007
 -1.090830110238670E-007
 -1.092241613068371E-007
 -1.093645224259103E-007
 -1.095041113146901E-007
 -1.096429450787584E-007
 -1.097810409913276E-007
 -1.099184164926060E-007
 -1.100550891881573E-007
 -1.101910768466343E-007
 -1.103263973979124E-007
 -1.104610689316265E-007
 -1.105951096951948E-007
 -1.107285380916477E-007
 -1.108613726784864E-007
 -1.109936321650730E-007
 -1.111253354113210E-007
 -1.112565014257343E-007
 -1.113871493635283E-007
 -1.115172985248079E-007
 -1.116469683529885E-007
 -1.117761784328891E-007
 -1.119049484884779E-007
 -1.120332983820476E-007
 -1.121612481114713E-007
 -1.122888178085843E-007
 -1.069771913558541E-007
 -1.071465157171378E-007
 -1.073147220623064E-007
 -1.074818230574825E-007
 -1.076478315339001E-007
 -1.078127604878977E-007
 -1.079766230815413E-007
 -1.081394326449643E-007
 -1.083012026743506E-007
 -1.084619468341528E-007
 -1.086216789569239E-007
 -1.087804130430607E-007
 -1.089381632615914E-007
 -1.090949439484730E-007
 -1.092507696084412E-007
 -1.094056549127333E-007
 -1.095596147000016E-007
 -1.097126639753127E-007
 -1.098648179083387E-007
 -1.100160918348826E-007
 -1.101665012538195E-007
 -1.103160618275758E-007
 -1.104647893807081E-007
 -1.106126998984088E-007
 -1.107598095266160E-007
 -1.109061345690625E-007
 -1.110516914874672E-007
 -1.111964968998243E-007
 -1.113405675788232E-007
 -1.114839204505524E-007
 -1.116265725932173E-007
 -1.117685412355592E-007
 -1.119098437557038E-007
 -1.120504976791111E-007
 -1.121905206774348E-007
 -1.123299305665670E-007
 -1.124687453058826E-007
 -1.126069829951871E-007
 -1.127446618745647E-007
 -1.128818003221755E-007
 -1.130184168521988E-007
 -1.131545301135477E-007
 -1.132901588884276E-007
 -1.134253220900038E-007
 -1.135600387613812E-007
 -1.136943280730396E-007
 -1.138282093218136E-007
 -1.139617019287976E-007
 -1.140948254378046E-007
 -1.142275995129724E-007
 -1.086111720170387E-007
 -1.087838013196691E-007
 -1.089553430156741E-007
 -1.091258101290687E-007
 -1.092952158257855E-007
 -1.094635734167677E-007
 -1.096308963578508E-007
 -1.097971982509258E-007
 -1.099624928435722E-007
 -1.101267940311597E-007
 -1.102901158555021E-007
 -1.104524725068114E-007
 -1.106138783219584E-007
 -1.107743477865955E-007
 -1.109338955339064E-007
 -1.110925363441277E-007
 -1.112502851454387E-007
 -1.114071570130413E-007
 -1.115631671685209E-007
 -1.117183309802082E-007
 -1.118726639614167E-007
 -1.120261817707242E-007
 -1.121789002112793E-007
 -1.123308352292973E-007
 -1.124820029138314E-007
 -1.126324194960086E-007
 -1.127821013472877E-007
 -1.129310649792687E-007
 -1.130793270421050E-007
 -1.132269043239515E-007
 -1.133738137490940E-007
 -1.135200723770147E-007
 -1.136656974015741E-007
 -1.138107061492007E-007
 -1.139551160780506E-007
 -1.140989447756049E-007
 -1.142422099591314E-007
 -1.143849294723353E-007
 -1.145271212853116E-007
 -1.146688034921074E-007
 -1.148099943101643E-007
 -1.149507120775750E-007
 -1.150909752528028E-007
 -1.152308024121460E-007
 -1.153702122487310E-007
 -1.155092235703285E-007
 -1.156478552981795E-007
 -1.157861264646326E-007
 -1.159240562125839E-007
 -1.160616637918684E-007
 -1.101508589306694E-007
 -1.103266224917035E-007
 -1.105013247353364E-007
 -1.106749790164449E-007
 -1.108475988149107E-007
 -1.110191977369557E-007
 -1.111897895154465E-007
 -1.113593880117081E-007
 -1.115280072149187E-007
 -1.116956612436565E-007
 -1.118623643454426E-007
 -1.120281308978808E-007
 -1.121929754087736E-007
 -1.123569125158345E-007
 -1.125199569868420E-007
 -1.126821237207434E-007
 -1.128434277458395E-007
 -1.130038842216570E-007
 -1.131635084361225E-007
 -1.133223158081913E-007
 -1.134803218850991E-007
 -1.136375423429498E-007
 -1.137939929868292E-007
 -1.139496897487030E-007
 -1.141046486881018E-007
 -1.142588859906722E-007
 -1.144124179678179E-007
 -1.145652610556874E-007
 -1.147174318146475E-007
 -1.148689469277678E-007
 -1.150198232003404E-007
 -1.151700775590047E-007
 -1.153197270502274E-007
 -1.154687888394656E-007
 -1.156172802103945E-007
 -1.157652185626526E-007
 -1.159126214117205E-007
 -1.160595063874795E-007
 -1.162058912323754E-007
 -1.163517938005631E-007
 -1.164972320562994E-007
 -1.166422240731502E-007
 -1.167867880314490E-007
 -1.169309422176887E-007
 -1.170747050229652E-007
 -1.172180949406510E-007
 -1.173611305661942E-007
 -1.175038305939656E-007
 -1.176462138167793E-007
 -1.177882991233941E-007
 -1.115934771612965E-007
 -1.117721993400947E-007
 -1.119498828289849E-007
 -1.121265412897918E-007
 -1.123021884945305E-007
 -1.124768383257562E-007
 -1.126505047777339E-007
 -1.128232019571103E-007
 -1.129949440832660E-007
 -1.131657454894716E-007
 -1.133356206224119E-007
 -1.135045840433297E-007
 -1.136726504281770E-007
 -1.138398345681002E-007
 -1.140061513687443E-007
 -1.141716158514189E-007
 -1.143362431522464E-007
 -1.145000485228319E-007
 -1.146630473296106E-007
 -1.148252550541559E-007
 -1.149866872922909E-007
 -1.151473597546077E-007
 -1.153072882651335E-007
 -1.154664887618463E-007
 -1.156249772957151E-007
 -1.157827700301159E-007
 -1.159398832401049E-007
 -1.160963333126117E-007
 -1.162521367448449E-007
 -1.164073101433320E-007
 -1.165618702244415E-007
 -1.167158338123846E-007
 -1.168692178384830E-007
 -1.170220393406435E-007
 -1.171743154618740E-007
 -1.173260634497381E-007
 -1.174773006552642E-007
 -1.176280445309551E-007
 -1.177783126311183E-007
 -1.179281226093734E-007
 -1.180774922180463E-007
 -1.182264393067931E-007
 -1.183749818213017E-007
 -1.185231378018952E-007
 -1.186709253818534E-007
 -1.188183627868747E-007
 -1.189654683325614E-007
 -1.191122604234381E-007
 -1.192587575511955E-007
 -1.194049782935438E-007
 -1.129364653877362E-007
 -1.131179660955350E-007
 -1.132984474698812E-007
 -1.134779234585266E-007
 -1.136564081046617E-007
 -1.138339155500399E-007
 -1.140104600344207E-007
 -1.141860558961672E-007
 -1.143607175734405E-007
 -1.145344596043844E-007
 -1.147072966274867E-007
 -1.148792433828614E-007
 -1.150503147108944E-007
 -1.152205255544961E-007
 -1.153898909574036E-007
 -1.155584260659576E-007
 -1.157261461278903E-007
 -1.158930664934850E-007
 -1.160592026146211E-007
 -1.162245700450542E-007
 -1.163891844405026E-007
 -1.165530615577472E-007
 -1.167162172552883E-007
 -1.168786674923139E-007
 -1.170404283285012E-007
 -1.172015159236611E-007
 -1.173619465374385E-007
 -1.175217365280363E-007
 -1.176809023527430E-007
 -1.178394605667025E-007
 -1.179974278218639E-007
 -1.181548208669247E-007
 -1.183116565464262E-007
 -1.184679517998471E-007
 -1.186237236604286E-007
 -1.187789892549437E-007
 -1.189337658019302E-007
 -1.190880706115546E-007
 -1.192419210840642E-007
 -1.193953347089972E-007
 -1.195483290634877E-007
 -1.197009218120700E-007
 -1.198531307046945E-007
 -1.200049735757802E-007
 -1.201564683429121E-007
 -1.203076330056637E-007
 -1.204584856442570E-007
 -1.206090444173980E-007
 -1.207593275622208E-007
 -1.209093533916878E-007
 -1.141774683712715E-007
 -1.143615635159929E-007
 -1.145446557498962E-007
 -1.147267592848737E-007
 -1.149078884183993E-007
 -1.150880575345314E-007
 -1.152672811031601E-007
 -1.154455736820188E-007
 -1.156229499166897E-007
 -1.157994245411810E-007
 -1.159750123779616E-007
 -1.161497283392934E-007
 -1.163235874263314E-007
 -1.164966047309337E-007
 -1.166687954340241E-007
 -1.168401748077409E-007
 -1.170107582138794E-007
 -1.171805611048929E-007
 -1.173495990238876E-007
 -1.175178876040319E-007
 -1.176854425688947E-007
 -1.178522797323274E-007
 -1.180184149978056E-007
 -1.181838643590610E-007
 -1.183486438989487E-007
 -1.185127697891991E-007
 -1.186762582906686E-007
 -1.188391257522308E-007
 -1.190013886104944E-007
 -1.191630633893791E-007
 -1.193241666996016E-007
 -1.194847152378396E-007
 -1.196447257860292E-007
 -1.198042152108626E-007
 -1.199632004631941E-007
 -1.201216985765391E-007
 -1.202797266675262E-007
 -1.204373019332088E-007
 -1.205944416521261E-007
 -1.207511631818676E-007
 -1.209074839584492E-007
 -1.210634214959756E-007
 -1.212189933845003E-007
 -1.213742172898795E-007
 -1.215291109519515E-007
 -1.216836921832344E-007
 -1.218379788687184E-007
 -1.219919889632488E-007
 -1.221457404911110E-007
 -1.222992515445612E-007
 -1.153143307618097E-007
 -1.155008326325121E-007
 -1.156863453689789E-007
 -1.158708834306586E-007
 -1.160544613521992E-007
 -1.162370937442565E-007
 -1.164187952943316E-007
 -1.165995807670922E-007
 -1.167794650045479E-007
 -1.169584629274016E-007
 -1.171365895348835E-007
 -1.173138599049510E-007
 -1.174902891952802E-007
 -1.176658926427918E-007
 -1.178406855646519E-007
 -1.180146833579792E-007
 -1.181879014994902E-007
 -1.183603555472100E-007
 -1.185320611385588E-007
 -1.187030339918277E-007
 -1.188732899052020E-007
 -1.190428447573462E-007
 -1.192117145065949E-007
 -1.193799151916125E-007
 -1.195474629304028E-007
 -1.197143739200200E-007
 -1.198806644371083E-007
 -1.200463508367948E-007
 -1.202114495521309E-007
 -1.203759770944271E-007
 -1.205399500516710E-007
 -1.207033850894581E-007
 -1.208662989491700E-007
 -1.210287084478775E-007
 -1.211906304771288E-007
 -1.213520820036530E-007
 -1.215130800668352E-007
 -1.216736417794656E-007
 -1.218337843257197E-007
 -1.219935249610548E-007
 -1.221528810113999E-007
 -1.223118698715688E-007
 -1.224705090048109E-007
 -1.226288159417546E-007
 -1.227868082794707E-007
 -1.229445036795910E-007
 -1.231019198681892E-007
 -1.232590746345843E-007
 -1.234159858293121E-007
 -1.235726713634166E-007
 -1.163450920061366E-007
 -1.165338095957594E-007
 -1.167215494339898E-007
 -1.169083262109864E-007
 -1.170941546830164E-007
 -1.172790496744167E-007
 -1.174630260769987E-007
 -1.176460988510481E-007
 -1.178282830257476E-007
 -1.180095936993257E-007
 -1.181900460400152E-007
 -1.183696552861744E-007
 -1.185484367464185E-007
 -1.187264057999890E-007
 -1.189035778970937E-007
 -1.190799685593201E-007
 -1.192555933791325E-007
 -1.194304680207877E-007
 -1.196046082195142E-007
 -1.197780297824348E-007
 -1.199507485878867E-007
 -1.201227805858999E-007
 -1.202941417973526E-007
 -1.204648483146234E-007
 -1.206349163011394E-007
 -1.208043619909944E-007
 -1.209732016886382E-007
 -1.211414517689437E-007
 -1.213091286765488E-007
 -1.214762489259474E-007
 -1.216428290999283E-007
 -1.218088858507612E-007
 -1.219744358983295E-007
 -1.221394960301760E-007
 -1.223040831011370E-007
 -1.224682140320792E-007
 -1.226319058099286E-007
 -1.227951754868128E-007
 -1.229580401787882E-007
 -1.231205170660031E-007
 -1.232826233908628E-007
 -1.234443764585163E-007
 -1.236057936347806E-007
 -1.237668923457839E-007
 -1.239276900770582E-007
 -1.240882043722092E-007
 -1.242484528325751E-007
 -1.244084531155666E-007
 -1.245682229338750E-007
 -1.247277800542809E-007
 -1.172679821678693E-007
 -1.174587214488096E-007
 -1.176484921842639E-007
 -1.178373092802313E-007
 -1.180251877015924E-007
 -1.182121424730744E-007
 -1.183981886788767E-007
 -1.185833414645566E-007
 -1.187676160366772E-007
 -1.189510276631475E-007
 -1.191335916741178E-007
 -1.193153234618962E-007
 -1.194962384815490E-007
 -1.196763522506912E-007
 -1.198556803502980E-007
 -1.200342384247864E-007
 -1.202120421819301E-007
 -1.203891073930716E-007
 -1.205654498935639E-007
 -1.207410855821865E-007
 -1.209160304217800E-007
 -1.210903004383773E-007
 -1.212639117227611E-007
 -1.214368804282920E-007
 -1.216092227724508E-007
 -1.217809550354030E-007
 -1.219520935610833E-007
 -1.221226547558928E-007
 -1.222926550886410E-007
 -1.224621110906777E-007
 -1.226310393551366E-007
 -1.227994565367695E-007
 -1.229673793509647E-007
 -1.231348245741003E-007
 -1.233018090427738E-007
 -1.234683496528369E-007
 -1.236344633592827E-007
 -1.238001671755581E-007
 -1.239654781729161E-007
 -1.241304134795475E-007
 -1.242949902802839E-007
 -1.244592258156950E-007
 -1.246231373809776E-007
 -1.247867423256289E-007
 -1.249500580524319E-007
 -1.251131020165460E-007
 -1.252758917246930E-007
 -1.254384447341605E-007
 -1.256007786518297E-007
 -1.257629111332674E-007
 -1.180814185209697E-007
 -1.182739826764807E-007
 -1.184655855046887E-007
 -1.186562421139579E-007
 -1.188459676635725E-007
 -1.190347773671158E-007
 -1.192226864909153E-007
 -1.194097103554693E-007
 -1.195958643356114E-007
 -1.197811638613223E-007
 -1.199656244173183E-007
 -1.201492615439779E-007
 -1.203320908377104E-007
 -1.205141279509715E-007
 -1.206953885925279E-007
 -1.208758885278482E-007
 -1.210556435789466E-007
 -1.212346696251896E-007
 -1.214129826023958E-007
 -1.215905985037983E-007
 -1.217675333795382E-007
 -1.219438033372345E-007
 -1.221194245410690E-007
 -1.222944132128078E-007
 -1.224687856310025E-007
 -1.226425581307270E-007
 -1.228157471040959E-007
 -1.229883689990312E-007
 -1.231604403207241E-007
 -1.233319776292654E-007
 -1.235029975410266E-007
 -1.236735167276031E-007
 -1.238435519149290E-007
 -1.240131198847591E-007
 -1.241822374716993E-007
 -1.243509215648330E-007
 -1.245191891058708E-007
 -1.246870570897741E-007
 -1.248545425632290E-007
 -1.250216626243727E-007
 -1.251884344225744E-007
 -1.253548751570018E-007
 -1.255210020766864E-007
 -1.256868324796194E-007
 -1.258523837115018E-007
 -1.260176731657327E-007
 -1.261827182820879E-007
 -1.263475365462446E-007
 -1.265121454885720E-007
 -1.266765626834485E-007
 -1.187840028023966E-007
 -1.189781924258728E-007
 -1.191714261155633E-007
 -1.193637191682942E-007
 -1.195550869267339E-007
 -1.197455447809815E-007
 -1.199351081691847E-007
 -1.201237925772399E-007
 -1.203116135398763E-007
 -1.204985866406640E-007
 -1.206847275122420E-007
 -1.208700518378736E-007
 -1.210545753498583E-007
 -1.212383138314008E-007
 -1.214212831156289E-007
 -1.216034990872718E-007
 -1.217849776813359E-007
 -1.219657348843192E-007
 -1.221457867336254E-007
 -1.223251493182500E-007
 -1.225038387787401E-007
 -1.226818713064521E-007
 -1.228592631445183E-007
 -1.230360305879549E-007
 -1.232121899820472E-007
 -1.233877577245855E-007
 -1.235627502632410E-007
 -1.237371840975716E-007
 -1.239110757775183E-007
 -1.240844419036531E-007
 -1.242572991265361E-007
 -1.244296641473239E-007
 -1.246015537165660E-007
 -1.247729846345178E-007
 -1.249439737496377E-007
 -1.251145379600825E-007
 -1.252846942114131E-007
 -1.254544594975912E-007
 -1.256238508588114E-007
 -1.257928853831540E-007
 -1.259615802040564E-007
 -1.261299525010513E-007
 -1.262980194984101E-007
 -1.264657984650626E-007
 -1.266333067132541E-007
 -1.268005615987526E-007
 -1.269675805193988E-007
 -1.271343809147305E-007
 -1.273009802650736E-007
 -1.274673960907379E-007
 -1.193745190421190E-007
 -1.195701323108261E-007
 -1.197647933540249E-007
 -1.199585176438804E-007
 -1.201513206950032E-007
 -1.203432180631021E-007
 -1.205342253475293E-007
 -1.207243581910048E-007
 -1.209136322786829E-007
 -1.211020633406391E-007
 -1.212896671507750E-007
 -1.214764595284911E-007
 -1.216624563372629E-007
 -1.218476734864889E-007
 -1.220321269309968E-007
 -1.222158326711776E-007
 -1.223988067540368E-007
 -1.225810652719109E-007
 -1.227626243641001E-007
 -1.229435002163221E-007
 -1.231237090604368E-007
 -1.233032671751213E-007
 -1.234821908857846E-007
 -1.236604965642777E-007
 -1.238382006289616E-007
 -1.240153195449141E-007
 -1.241918698235867E-007
 -1.243678680229705E-007
 -1.245433307467193E-007
 -1.247182746449126E-007
 -1.248927164134094E-007
 -1.250666727932600E-007
 -1.252401605713099E-007
 -1.254131965792656E-007
 -1.255857976933914E-007
 -1.257579808344654E-007
 -1.259297629673366E-007
 -1.261011611004455E-007
 -1.262721922848510E-007
 -1.264428736154455E-007
 -1.266132222283228E-007
 -1.267832553019782E-007
 -1.269529900558443E-007
 -1.271224437498554E-007
 -1.272916336844170E-007
 -1.274605771991474E-007
 -1.276292916728100E-007
 -1.277977945217143E-007
 -1.279661032003724E-007
 -1.281342351997515E-007
 -1.198519319081015E-007
 -1.200487647378763E-007
 -1.202446474820464E-007
 -1.204395957774822E-007
 -1.206336252979682E-007
 -1.208267517545602E-007
 -1.210189908978877E-007
 -1.212103585171675E-007
 -1.214008704404738E-007
 -1.215905425363992E-007
 -1.217793907130717E-007
 -1.219674309198920E-007
 -1.221546791460157E-007
 -1.223411514227892E-007
 -1.225268638224082E-007
 -1.227118324586049E-007
 -1.228960734874447E-007
 -1.230796031066282E-007
 -1.232624375561755E-007
 -1.234445931186172E-007
 -1.236260861186943E-007
 -1.238069329243340E-007
 -1.239871499451996E-007
 -1.241667536340577E-007
 -1.243457604862125E-007
 -1.245241870396752E-007
 -1.247020498750038E-007
 -1.248793656149399E-007
 -1.250561509250975E-007
 -1.252324225128337E-007
 -1.254081971281362E-007
 -1.255834915620188E-007
 -1.257583226480666E-007
 -1.259327072608342E-007
 -1.261066623160015E-007
 -1.262802047704444E-007
 -1.264533516211541E-007
 -1.266261199057184E-007
 -1.267985267012232E-007
 -1.269705891244495E-007
 -1.271423243310280E-007
 -1.273137495153721E-007
 -1.274848819097366E-007
 -1.276557387844447E-007
 -1.278263374463426E-007
 -1.279966952391480E-007
 -1.281668295426665E-007
 -1.283367577718069E-007
 -1.285064973764802E-007
 -1.286760658408471E-007
 -1.202153855116157E-007
 -1.204132316982829E-007
 -1.206101284705301E-007
 -1.208060916154155E-007
 -1.210011369559365E-007
 -1.211952803470483E-007
 -1.213885376808971E-007
 -1.215809248835184E-007
 -1.217724579177282E-007
 -1.219631527820124E-007
 -1.221530255122925E-007
 -1.223420921811321E-007
 -1.225303688977747E-007
 -1.227178718107075E-007
 -1.229046171052557E-007
 -1.230906210049171E-007
 -1.232758997724310E-007
 -1.234604697091164E-007
 -1.236443471544984E-007
 -1.238275484874752E-007
 -1.240100901266040E-007
 -1.241919885289085E-007
 -1.243732601913938E-007
 -1.245539216501171E-007
 -1.247339894807110E-007
 -1.249134802984268E-007
 -1.250924107575202E-007
 -1.252707975520363E-007
 -1.254486574148106E-007
 -1.256260071187046E-007
 -1.258028634750032E-007
 -1.259792433337560E-007
 -1.261551635841731E-007
 -1.263306411543137E-007
 -1.265056930096720E-007
 -1.266803361545974E-007
 -1.268545876309525E-007
 -1.270284645178167E-007
 -1.272019839321267E-007
 -1.273751630270477E-007
 -1.275480189924761E-007
 -1.277205690541482E-007
 -1.278928304738272E-007
 -1.280648205482657E-007
 -1.282365566089790E-007
 -1.284080560216613E-007
 -1.285793361861294E-007
 -1.287504145348863E-007
 -1.289213085337994E-007
 -1.290920356799342E-007
 -1.204642026411330E-007
 -1.206628539968885E-007
 -1.208605552168183E-007
 -1.210573222282072E-007
 -1.212531709891835E-007
 -1.214481174891239E-007
 -1.216421777504053E-007
 -1.218353678271696E-007
 -1.220277038079653E-007
 -1.222192018127575E-007
 -1.224098779975451E-007
 -1.225997485521974E-007
 -1.227888296998583E-007
 -1.229771376998527E-007
 -1.231646888471935E-007
 -1.233514994716304E-007
 -1.235375859383596E-007
 -1.237229646502381E-007
 -1.239076520451790E-007
 -1.240916645970687E-007
 -1.242750188176132E-007
 -1.244577312545789E-007
 -1.246398184932450E-007
 -1.248212971545691E-007
 -1.250021838975321E-007
 -1.251824954176169E-007
 -1.253622484472409E-007
 -1.255414597565267E-007
 -1.257201461515560E-007
 -1.258983244761811E-007
 -1.260760116102620E-007
 -1.262532244707638E-007
 -1.264299800110553E-007
 -1.266062952209952E-007
 -1.267821871264203E-007
 -1.269576727891626E-007
 -1.271327693069198E-007
 -1.273074938125673E-007
 -1.274818634744347E-007
 -1.276558954954947E-007
 -1.278296071135924E-007
 -1.280030156003434E-007
 -1.281761382614552E-007
 -1.283489924359731E-007
 -1.285215954961335E-007
 -1.286939648461985E-007
 -1.288661179232364E-007
 -1.290380721955176E-007
 -1.292098451627094E-007
 -1.293814543547920E-007
 -1.205978843970927E-007
 -1.207971308805480E-007
 -1.209954251752161E-007
 -1.211927833349344E-007
 -1.213892214417967E-007
 -1.215847556081627E-007
 -1.217794019762838E-007
 -1.219731767183547E-007
 -1.221660960390249E-007
 -1.223581761726314E-007
 -1.225494333863100E-007
 -1.227398839801096E-007
 -1.229295442849263E-007
 -1.231184306664774E-007
 -1.233065595225429E-007
 -1.234939472853071E-007
 -1.236806104202660E-007
 -1.238665654274230E-007
 -1.240518288407690E-007
 -1.242364172290419E-007
 -1.244203471959468E-007
 -1.246036353795125E-007
 -1.247862984534912E-007
 -1.249683531258397E-007
 -1.251498161409301E-007
 -1.253307042772138E-007
 -1.255110343490012E-007
 -1.256908232058464E-007
 -1.258700877324308E-007
 -1.260488448487831E-007
 -1.262271115101440E-007
 -1.264049047066599E-007
 -1.265822414633743E-007
 -1.267591388407157E-007
 -1.269356139329935E-007
 -1.271116838696518E-007
 -1.272873658137592E-007
 -1.274626769632574E-007
 -1.276376345493153E-007
 -1.278122558364877E-007
 -1.279865581231749E-007
 -1.281605587402273E-007
 -1.283342750514049E-007
 -1.285077244521520E-007
 -1.286809243704578E-007
 -1.288538922650688E-007
 -1.290266456264055E-007
 -1.291992019749264E-007
 -1.293715788616332E-007
 -1.295437938666185E-007
 -1.206161102041694E-007
 -1.208157400534187E-007
 -1.210144143692606E-007
 -1.212121493199667E-007
 -1.214089610994421E-007
 -1.216048659309054E-007
 -1.217998800660657E-007
 -1.219940197850592E-007
 -1.221873013982119E-007
 -1.223797412461884E-007
 -1.225713556990382E-007
 -1.227621611591120E-007
 -1.229521740588540E-007
 -1.231414108630783E-007
 -1.233298880685752E-007
 -1.235176222037927E-007
 -1.237046298304828E-007
 -1.238909275436816E-007
 -1.240765319701808E-007
 -1.242614597712069E-007
 -1.244457276416888E-007
 -1.246293523092498E-007
 -1.248123505362514E-007
 -1.249947391187921E-007
 -1.251765348874119E-007
 -1.253577547057172E-007
 -1.255384154732688E-007
 -1.257185341226561E-007
 -1.258981276207016E-007
 -1.260772129694613E-007
 -1.262558072037256E-007
 -1.264339273944906E-007
 -1.266115906448061E-007
 -1.267888140925972E-007
 -1.269656149095783E-007
 -1.271420103012478E-007
 -1.273180175059353E-007
 -1.274936537959711E-007
 -1.276689364763412E-007
 -1.278438828847781E-007
 -1.280185103922159E-007
 -1.281928364006040E-007
 -1.283668783449348E-007
 -1.285406536913317E-007
 -1.287141799370398E-007
 -1.288874746104661E-007
 -1.290605552705644E-007
 -1.292334395055711E-007
 -1.294061449344172E-007
 -1.295786892048223E-007
 -1.205187381895812E-007
 -1.207185380568262E-007
 -1.209173777784291E-007
 -1.211152736223725E-007
 -1.213122418823469E-007
 -1.215082988811792E-007
 -1.217034609678353E-007
 -1.218977445196822E-007
 -1.220911659435142E-007
 -1.222837416759603E-007
 -1.224754881820945E-007
 -1.226664219585500E-007
 -1.228565595316203E-007
 -1.230459174598518E-007
 -1.232345123308338E-007
 -1.234223607668451E-007
 -1.236094794199039E-007
 -1.237958849760855E-007
 -1.239815941525002E-007
 -1.241666237000958E-007
 -1.243509904027592E-007
 -1.245347110779180E-007
 -1.247178025751890E-007
 -1.249002817795979E-007
 -1.250821656085700E-007
 -1.252634710134765E-007
 -1.254442149800344E-007
 -1.256244145276741E-007
 -1.258040867095120E-007
 -1.259832486127959E-007
 -1.261619173591349E-007
 -1.263401101032290E-007
 -1.265178440343354E-007
 -1.266951363748261E-007
 -1.268720043809234E-007
 -1.270484653427316E-007
 -1.272245365828146E-007
 -1.274002354573303E-007
 -1.275755793553909E-007
 -1.277505856985724E-007
 -1.279252719411996E-007
 -1.280996555693448E-007
 -1.282737541013813E-007
 -1.284475850866179E-007
 -1.286211661061635E-007
 -1.287945147717900E-007
 -1.289676487253754E-007
 -1.291405856397706E-007
 -1.293133432162911E-007
 -1.294859391865329E-007
 -1.203058059228149E-007
 -1.205055610159452E-007
 -1.207043500878994E-007
 -1.209021894924432E-007
 -1.210990956099188E-007
 -1.212950848492314E-007
 -1.214901736449969E-007
 -1.216843784614037E-007
 -1.218777157913264E-007
 -1.220702021566581E-007
 -1.222618541085096E-007
 -1.224526882299415E-007
 -1.226427211332327E-007
 -1.228319694621245E-007
 -1.230204498917208E-007
 -1.232081791294472E-007
 -1.233951739144407E-007
 -1.235814510185459E-007
 -1.237670272463594E-007
 -1.239519194354888E-007
 -1.241361444571733E-007
 -1.243197192153243E-007
 -1.245026606482077E-007
 -1.246849857283122E-007
 -1.248667114608344E-007
 -1.250478548866453E-007
 -1.252284330792282E-007
 -1.254084631476735E-007
 -1.255879622348950E-007
 -1.257669475175195E-007
 -1.259454362074723E-007
 -1.261234455505040E-007
 -1.263009928262832E-007
 -1.264780953493977E-007
 -1.266547704676442E-007
 -1.268310355634840E-007
 -1.270069080525277E-007
 -1.271824053843182E-007
 -1.273575450416535E-007
 -1.275323445403318E-007
 -1.277068214298791E-007
 -1.278809932911796E-007
 -1.280548777388155E-007
 -1.282284924185594E-007
 -1.284018550081140E-007
 -1.285749832168489E-007
 -1.287478947849420E-007
 -1.289206074832181E-007
 -1.290931391126327E-007
 -1.292655075040527E-007
 -1.199775315066769E-007
 -1.201770257416437E-007
 -1.203755468009551E-007
 -1.205731111113667E-007
 -1.207697351267476E-007
 -1.209654353271045E-007
 -1.211602282215347E-007
 -1.213541303489121E-007
 -1.215471582769291E-007
 -1.217393286018382E-007
 -1.219306579529130E-007
 -1.221211629888360E-007
 -1.223108604001714E-007
 -1.224997669085159E-007
 -1.226878992693539E-007
 -1.228752742693153E-007
 -1.230619087291676E-007
 -1.232478195019277E-007
 -1.234330234759504E-007
 -1.236175375716962E-007
 -1.238013787450130E-007
 -1.239845639857109E-007
 -1.241671103187705E-007
 -1.243490348030475E-007
 -1.245303545334398E-007
 -1.247110866395615E-007
 -1.248912482863538E-007
 -1.250708566731942E-007
 -1.252499290363924E-007
 -1.254284826462401E-007
 -1.256065348093922E-007
 -1.257841028673734E-007
 -1.259612041969060E-007
 -1.261378562105163E-007
 -1.263140763552471E-007
 -1.264898821137361E-007
 -1.266652910031012E-007
 -1.268403205754554E-007
 -1.270149884171107E-007
 -1.271893121490881E-007
 -1.273633094257836E-007
 -1.275369979364689E-007
 -1.277103954029342E-007
 -1.278835195804931E-007
 -1.280563882574169E-007
 -1.282290192544658E-007
 -1.284014304246646E-007
 -1.285736396524466E-007
 -1.287456648537368E-007
 -1.289175239753907E-007
 -1.195343150296834E-007
 -1.197333311908986E-007
 -1.199313657128500E-007
 -1.201284350793463E-007
 -1.203245558012888E-007
 -1.205197444185542E-007
 -1.207140175008190E-007
 -1.209073916483624E-007
 -1.210998834917054E-007
 -1.212915096922504E-007
 -1.214822869451352E-007
 -1.216722319760637E-007
 -1.218613615445859E-007
 -1.220496924435060E-007
 -1.222372414999398E-007
 -1.224240255731455E-007
 -1.226100615602347E-007
 -1.227953663906754E-007
 -1.229799570302410E-007
 -1.231638504807346E-007
 -1.233470637789224E-007
 -1.235296139983102E-007
 -1.237115182483324E-007
 -1.238927936760308E-007
 -1.240734574635505E-007
 -1.242535268315810E-007
 -1.244330190362816E-007
 -1.246119513721126E-007
 -1.247903411702288E-007
 -1.249682057982442E-007
 -1.251455626627427E-007
 -1.253224292053008E-007
 -1.254988229065494E-007
 -1.256747612827756E-007
 -1.258502618880843E-007
 -1.260253423125963E-007
 -1.262000201842399E-007
 -1.263743131664812E-007
 -1.265482389597120E-007
 -1.267218153000209E-007
 -1.268950599595655E-007
 -1.270679907458382E-007
 -1.272406255020778E-007
 -1.274129821057902E-007
 -1.275850784696653E-007
 -1.277569325407127E-007
 -1.279285622990360E-007
 -1.280999857589426E-007
 -1.282712209673957E-007
 -1.284422860039313E-007
 -1.189767403809778E-007
 -1.191750603026253E-007
 -1.193723887597839E-007
 -1.195687422751999E-007
 -1.197641374037571E-007
 -1.199585907281621E-007
 -1.201521188658999E-007
 -1.203447384653969E-007
 -1.205364662079883E-007
 -1.207273188072894E-007
 -1.209173130137652E-007
 -1.211064656110808E-007
 -1.212947934170125E-007
 -1.214823132867207E-007
 -1.216690421113844E-007
 -1.218549968173300E-007
 -1.220401943697126E-007
 -1.222246517691662E-007
 -1.224083860552710E-007
 -1.225914143060262E-007
 -1.227737536366947E-007
 -1.229554212013169E-007
 -1.231364341935012E-007
 -1.233168098453685E-007
 -1.234965654288309E-007
 -1.236757182537180E-007
 -1.238542856721727E-007
 -1.240322850727665E-007
 -1.242097338857113E-007
 -1.243866495807549E-007
 -1.245630496671326E-007
 -1.247389516932899E-007
 -1.249143732486064E-007
 -1.250893319608890E-007
 -1.252638454977882E-007
 -1.254379315670131E-007
 -1.256116079141622E-007
 -1.257848923250524E-007
 -1.259578026238935E-007
 -1.261303566734944E-007
 -1.263025723750194E-007
 -1.264744676673730E-007
 -1.266460605276576E-007
 -1.268173689700192E-007
 -1.269884110458839E-007
 -1.271592048429455E-007
 -1.273297684854549E-007
 -1.275001201330460E-007
 -1.276702779811227E-007
 -1.278402602593284E-007
 -1.183055774497842E-007
 -1.185029822143924E-007
 -1.186993842530846E-007
 -1.188948001129917E-007
 -1.190892463735325E-007
 -1.192827396477093E-007
 -1.194752965838537E-007
 -1.196669338638797E-007
 -1.198576682068576E-007
 -1.200475163687713E-007
 -1.202364951411506E-007
 -1.204246213537903E-007
 -1.206119118750237E-007
 -1.207983836123473E-007
 -1.209840535119567E-007
 -1.211689385591611E-007
 -1.213530557813515E-007
 -1.215364222444490E-007
 -1.217190550565703E-007
 -1.219009713665554E-007
 -1.220821883661975E-007
 -1.222627232865276E-007
 -1.224425934037696E-007
 -1.226218160346765E-007
 -1.228004085392986E-007
 -1.229783883197938E-007
 -1.231557728222185E-007
 -1.233325795348560E-007
 -1.235088259890373E-007
 -1.236845297598872E-007
 -1.238597084650482E-007
 -1.240343797652842E-007
 -1.242085613644128E-007
 -1.243822710097166E-007
 -1.245555264900280E-007
 -1.247283456385935E-007
 -1.249007463300586E-007
 -1.250727464813682E-007
 -1.252443640521843E-007
 -1.254156170434221E-007
 -1.255865234981939E-007
 -1.257571014999925E-007
 -1.259273691740336E-007
 -1.260973446853833E-007
 -1.262670462397916E-007
 -1.264364920818587E-007
 -1.266057004965566E-007
 -1.267746898067549E-007
 -1.269434783738404E-007
 -1.271120845969700E-007
 -1.175217847253180E-007
 -1.177180548846233E-007
 -1.179133095287770E-007
 -1.181075652096484E-007
 -1.183008385134297E-007
 -1.184931460668219E-007
 -1.186845045314837E-007
 -1.188749306099769E-007
 -1.190644410440394E-007
 -1.192530526163206E-007
 -1.194407821495996E-007
 -1.196276465065722E-007
 -1.198136625960425E-007
 -1.199988473677788E-007
 -1.201832178132782E-007
 -1.203667909690741E-007
 -1.205495839176923E-007
 -1.207316137840582E-007
 -1.209128977381105E-007
 -1.210934529969717E-007
 -1.212732968230767E-007
 -1.214524465236428E-007
 -1.216309194540132E-007
 -1.218087330156841E-007
 -1.219859046560579E-007
 -1.221624518702774E-007
 -1.223383922010918E-007
 -1.225137432377383E-007
 -1.226885226169145E-007
 -1.228627480230618E-007
 -1.230364371871781E-007
 -1.232096078884564E-007
 -1.233822779526270E-007
 -1.235544652533461E-007
 -1.237261877104490E-007
 -1.238974632908481E-007
 -1.240683100090801E-007
 -1.242387459243958E-007
 -1.244087891436650E-007
 -1.245784578192661E-007
 -1.247477701487244E-007
 -1.249167443752832E-007
 -1.250853987868237E-007
 -1.252537517155573E-007
 -1.254218215380428E-007
 -1.255896266739421E-007
 -1.257571855861837E-007
 -1.259245167801409E-007
 -1.260916388028376E-007
 -1.262585702431698E-007
 -1.166265123260991E-007
 -1.168214281589600E-007
 -1.170153140405307E-007
 -1.172081865070238E-007
 -1.174000621350811E-007
 -1.175909575428837E-007
 -1.177808893914290E-007
 -1.179698743864866E-007
 -1.181579292762765E-007
 -1.183450708553526E-007
 -1.185313159651176E-007
 -1.187166814895053E-007
 -1.189011843639852E-007
 -1.190848415693365E-007
 -1.192676701355823E-007
 -1.194496871410962E-007
 -1.196309097136553E-007
 -1.198113550309307E-007
 -1.199910403202545E-007
 -1.201699828618594E-007
 -1.203481999837566E-007
 -1.205257090674663E-007
 -1.207025275452410E-007
 -1.208786729016619E-007
 -1.210541626725595E-007
 -1.212290144468825E-007
 -1.214032458653190E-007
 -1.215768746210196E-007
 -1.217499184603821E-007
 -1.219223951817677E-007
 -1.220943226354005E-007
 -1.222657187250960E-007
 -1.224366014070066E-007
 -1.226069886886015E-007
 -1.227768986303299E-007
 -1.229463493444510E-007
 -1.231153589946795E-007
 -1.232839457962886E-007
 -1.234521280156576E-007
 -1.236199239705047E-007
 -1.237873520280713E-007
 -1.239544306065134E-007
 -1.241211781732540E-007
 -1.242876132450710E-007
 -1.244537543870635E-007
 -1.246196202130611E-007
 -1.247852293839773E-007
 -1.249506006084024E-007
 -1.251157526403370E-007
 -1.252807042804707E-007
 -1.156211055157075E-007
 -1.158144473167007E-007
 -1.160067429418438E-007
 -1.161980088891345E-007
 -1.163882617038450E-007
 -1.165775179778746E-007
 -1.167657943521854E-007
 -1.169531075165436E-007
 -1.171394742101244E-007
 -1.173249112246331E-007
 -1.175094354023399E-007
 -1.176930636377983E-007
 -1.178758128789727E-007
 -1.180577001276467E-007
 -1.182387424398697E-007
 -1.184189569268687E-007
 -1.185983607552202E-007
 -1.187769711467283E-007
 -1.189548053810032E-007
 -1.191318807934785E-007
 -1.193082147770182E-007
 -1.194838247827433E-007
 -1.196587283182286E-007
 -1.198329429505881E-007
 -1.200064863044665E-007
 -1.201793760631761E-007
 -1.203516299684334E-007
 -1.205232658207376E-007
 -1.206943014801175E-007
 -1.208647548639389E-007
 -1.210346439491016E-007
 -1.212039867714762E-007
 -1.213728014247653E-007
 -1.215411060613676E-007
 -1.217089188926364E-007
 -1.218762581862537E-007
 -1.220431422694273E-007
 -1.222095895258924E-007
 -1.223756183962398E-007
 -1.225412473786492E-007
 -1.227064950268034E-007
 -1.228713799507419E-007
 -1.230359208155965E-007
 -1.232001363416415E-007
 -1.233640453031143E-007
 -1.235276665283983E-007
 -1.236910188989316E-007
 -1.238541213479380E-007
 -1.240169928610310E-007
 -1.241796524746518E-007
 -1.145071087473447E-007
 -1.146986571639684E-007
 -1.148891412198921E-007
 -1.150785773518494E-007
 -1.152669820511989E-007
 -1.154543718611665E-007
 -1.156407633814918E-007
 -1.158261732671675E-007
 -1.160106182312673E-007
 -1.161941150438851E-007
 -1.163766805330288E-007
 -1.165583315888219E-007
 -1.167390851585311E-007
 -1.169189582527570E-007
 -1.170979679424201E-007
 -1.172761313609754E-007
 -1.174534657051778E-007
 -1.176299882342575E-007
 -1.178057162722913E-007
 -1.179806672068039E-007
 -1.181548584903836E-007
 -1.183283076396339E-007
 -1.185010322379221E-007
 -1.186730499331998E-007
 -1.188443784395869E-007
 -1.190150355368168E-007
 -1.191850390706659E-007
 -1.193544069526575E-007
 -1.195231571616894E-007
 -1.196913077409715E-007
 -1.198588768010479E-007
 -1.200258825183480E-007
 -1.201923431345492E-007
 -1.203582769570359E-007
 -1.205237023594620E-007
 -1.206886377792666E-007
 -1.208531017196680E-007
 -1.210171127480014E-007
 -1.211806894960859E-007
 -1.213438506587544E-007
 -1.215066149944722E-007
 -1.216690013245105E-007
 -1.218310285316526E-007
 -1.219927155610570E-007
 -1.221540814178867E-007
 -1.223151451682809E-007
 -1.224759259377557E-007
 -1.226364429103090E-007
 -1.227967153281973E-007
 -1.229567624912464E-007
 -1.132862703264751E-007
 -1.134758067490327E-007
 -1.136642584637439E-007
 -1.138516418196609E-007
 -1.140379732277811E-007
 -1.142232691609673E-007
 -1.144075461548369E-007
 -1.145908208088239E-007
 -1.147731097881702E-007
 -1.149544298246246E-007
 -1.151347977149112E-007
 -1.153142303274213E-007
 -1.154927445960737E-007
 -1.156703575252055E-007
 -1.158470861902051E-007
 -1.160229477364067E-007
 -1.161979593819855E-007
 -1.163721384142976E-007
 -1.165455021958383E-007
 -1.167180681614577E-007
 -1.168898538187116E-007
 -1.170608767497961E-007
 -1.172311546097183E-007
 -1.174007051286975E-007
 -1.175695461108991E-007
 -1.177376954350125E-007
 -1.179051710554277E-007
 -1.180719909994028E-007
 -1.182381733702414E-007
 -1.184037363458426E-007
 -1.185686981781082E-007
 -1.187330771936950E-007
 -1.188968917940208E-007
 -1.190601604537988E-007
 -1.192229017213452E-007
 -1.193851342189970E-007
 -1.195468766421767E-007
 -1.197081477585011E-007
 -1.198689664081844E-007
 -1.200293515027332E-007
 -1.201893220250039E-007
 -1.203488970285978E-007
 -1.205080956369105E-007
 -1.206669370426984E-007
 -1.208254405069562E-007
 -1.209836253590585E-007
 -1.211415109953757E-007
 -1.212991168778930E-007
 -1.214564625346124E-007
 -1.216135675574819E-007
 -1.119605477936039E-007
 -1.121478548062407E-007
 -1.123340543617719E-007
 -1.125191626938150E-007
 -1.127031961054642E-007
 -1.128861709704750E-007
 -1.130681037377743E-007
 -1.132490109274541E-007
 -1.134289091364055E-007
 -1.136078150375350E-007
 -1.137857453790150E-007
 -1.139627169891842E-007
 -1.141387467736468E-007
 -1.143138517180070E-007
 -1.144880488889654E-007
 -1.146613554316687E-007
 -1.148337885767841E-007
 -1.150053656341945E-007
 -1.151761039978845E-007
 -1.153460211436883E-007
 -1.155151346321890E-007
 -1.156834621070846E-007
 -1.158510212969880E-007
 -1.160178300137912E-007
 -1.161839061545184E-007
 -1.163492677012910E-007
 -1.165139327197786E-007
 -1.166779193611018E-007
 -1.168412458608866E-007
 -1.170039305390373E-007
 -1.171659918007264E-007
 -1.173274481342897E-007
 -1.174883181125327E-007
 -1.176486203916353E-007
 -1.178083737116168E-007
 -1.179675968951321E-007
 -1.181263088471137E-007
 -1.182845285549399E-007
 -1.184422750873549E-007
 -1.185995675937331E-007
 -1.187564253039370E-007
 -1.189128675278070E-007
 -1.190689136537094E-007
 -1.192245831480376E-007
 -1.193798955548564E-007
 -1.195348704950654E-007
 -1.196895276645474E-007
 -1.198438868344910E-007
 -1.199979678495696E-007
 -1.201517906272555E-007
 -1.105321141613579E-007
 -1.107169760652322E-007
 -1.109007050787850E-007
 -1.110833172866983E-007
 -1.112648288540979E-007
 -1.114452560292458E-007
 -1.116246151469093E-007
 -1.118029226231256E-007
 -1.119801949632211E-007
 -1.121564487594731E-007
 -1.123317006922204E-007
 -1.125059675336877E-007
 -1.126792661439628E-007
 -1.128516134754764E-007
 -1.130230265737029E-007
 -1.131935225757652E-007
 -1.133631187130871E-007
 -1.135318323107645E-007
 -1.136996807882168E-007
 -1.138666816599836E-007
 -1.140328525363480E-007
 -1.141982111224571E-007
 -1.143627752187483E-007
 -1.145265627239131E-007
 -1.146895916302372E-007
 -1.148518800279980E-007
 -1.150134461019178E-007
 -1.151743081349497E-007
 -1.153344845039673E-007
 -1.154939936831812E-007
 -1.156528542415569E-007
 -1.158110848434327E-007
 -1.159687042488940E-007
 -1.161257313117269E-007
 -1.162821849802403E-007
 -1.164380842973946E-007
 -1.165934483971833E-007
 -1.167482965087571E-007
 -1.169026479516243E-007
 -1.170565221372680E-007
 -1.172099385674798E-007
 -1.173629168344412E-007
 -1.175154766188758E-007
 -1.176676376903844E-007
 -1.178194199052125E-007
 -1.179708432065512E-007
 -1.181219276229654E-007
 -1.182726932672374E-007
 -1.184231603359435E-007
 -1.185733491072389E-007
 -1.090033651965185E-007
 -1.091855686055012E-007
 -1.093666106722265E-007
 -1.095465072983366E-007
 -1.097252744774943E-007
 -1.099029283022168E-007
 -1.100794849628755E-007
 -1.102549607469868E-007
 -1.104293720442253E-007
 -1.106027353444537E-007
 -1.107750672392385E-007
 -1.109463844259187E-007
 -1.111167037046821E-007
 -1.112860419809119E-007
 -1.114544162663413E-007
 -1.116218436798512E-007
 -1.117883414455217E-007
 -1.119539268978094E-007
 -1.121186174776381E-007
 -1.122824307357381E-007
 -1.124453843299175E-007
 -1.126074960280950E-007
 -1.127687837081179E-007
 -1.129292653558254E-007
 -1.130889590667948E-007
 -1.132478830461104E-007
 -1.134060556087337E-007
 -1.135634951773437E-007
 -1.137202202842551E-007
 -1.138762495705064E-007
 -1.140316017842035E-007
 -1.141862957828387E-007
 -1.143403505304358E-007
 -1.144937850982925E-007
 -1.146466186637989E-007
 -1.147988705109649E-007
 -1.149505600273596E-007
 -1.151017067066626E-007
 -1.152523301458050E-007
 -1.154024500448682E-007
 -1.155520862053278E-007
 -1.157012585311919E-007
 -1.158499870262214E-007
 -1.159982917939641E-007
 -1.161461930363165E-007
 -1.162937110527264E-007
 -1.164408662391924E-007
 -1.165876790866226E-007
 -1.167341701803572E-007
 -1.168803601988922E-007
 -1.073769279693602E-007
 -1.075562624827768E-007
 -1.077344037883254E-007
 -1.079113675635587E-007
 -1.080871695993714E-007
 -1.082618257989927E-007
 -1.084353521790430E-007
 -1.086077648706739E-007
 -1.087790801224648E-007
 -1.089493143001852E-007
 -1.091184838878748E-007
 -1.092866054895578E-007
 -1.094536958304032E-007
 -1.096197717563019E-007
 -1.097848502347978E-007
 -1.099489483570211E-007
 -1.101120833369159E-007
 -1.102742725117090E-007
 -1.104355333426087E-007
 -1.105958834156074E-007
 -1.107553404399800E-007
 -1.109139222493508E-007
 -1.110716468040347E-007
 -1.112285321859278E-007
 -1.113845966027456E-007
 -1.115398583864965E-007
 -1.116943359919775E-007
 -1.118480479987623E-007
 -1.120010131088909E-007
 -1.121532501471024E-007
 -1.123047780610959E-007
 -1.124556159198186E-007
 -1.126057829137987E-007
 -1.127552983537081E-007
 -1.129041816704152E-007
 -1.130524524141290E-007
 -1.132001302526482E-007
 -1.133472349723113E-007
 -1.134937864755332E-007
 -1.136398047813345E-007
 -1.137853100226561E-007
 -1.139303224475265E-007
 -1.140748624157144E-007
 -1.142189503996091E-007
 -1.143626069822018E-007
 -1.145058528565085E-007
 -1.146487088234640E-007
 -1.147911957915117E-007
 -1.149333347754229E-007
 -1.150751468944351E-007
 -1.056556709809010E-007
 -1.058319299249834E-007
 -1.060069599071600E-007
 -1.061807763454482E-007
 -1.063533947891629E-007
 -1.065248309178047E-007
 -1.066951005470073E-007
 -1.068642196225623E-007
 -1.070322042284237E-007
 -1.071990705848060E-007
 -1.073648350501347E-007
 -1.075295141200667E-007
 -1.076931244320237E-007
 -1.078556827611262E-007
 -1.080172060259162E-007
 -1.081777112840601E-007
 -1.083372157349268E-007
 -1.084957367204531E-007
 -1.086532917234359E-007
 -1.088098983702612E-007
 -1.089655744281153E-007
 -1.091203378051257E-007
 -1.092742065534266E-007
 -1.094271988644886E-007
 -1.095793330720455E-007
 -1.097306276501551E-007
 -1.098811012127653E-007
 -1.100307725138964E-007
 -1.101796604469532E-007
 -1.103277840422736E-007
 -1.104751624700758E-007
 -1.106218150361330E-007
 -1.107677611831149E-007
 -1.109130204890290E-007
 -1.110576126659634E-007
 -1.112015575602390E-007
 -1.113448751507267E-007
 -1.114875855477406E-007
 -1.116297089929073E-007
 -1.117712658571454E-007
 -1.119122766395777E-007
 -1.120527619676412E-007
 -1.121927425948305E-007
 -1.123322393995605E-007
 -1.124712733847325E-007
 -1.126098656759678E-007
 -1.127480375201169E-007
 -1.128858102847264E-007
 -1.130232054560760E-007
 -1.131602446382378E-007
 -1.038427162519510E-007
 -1.040156974673043E-007
 -1.041874095168599E-007
 -1.043578675172842E-007
 -1.045270867408425E-007
 -1.046950826115750E-007
 -1.048618707125818E-007
 -1.050274667810280E-007
 -1.051918867156171E-007
 -1.053551465724208E-007
 -1.055172625689266E-007
 -1.056782510827459E-007
 -1.058381286545683E-007
 -1.059969119857629E-007
 -1.061546179403619E-007
 -1.063112635464844E-007
 -1.064668659914136E-007
 -1.066214426289430E-007
 -1.067750109727948E-007
 -1.069275886985925E-007
 -1.070791936461648E-007
 -1.072298438146259E-007
 -1.073795573647304E-007
 -1.075283526166296E-007
 -1.076762480517508E-007
 -1.078232623092341E-007
 -1.079694141868330E-007
 -1.081147226391855E-007
 -1.082592067770826E-007
 -1.084028858680646E-007
 -1.085457793328744E-007
 -1.086879067454744E-007
 -1.088292878333862E-007
 -1.089699424743580E-007
 -1.091098906966939E-007
 -1.092491526775597E-007
 -1.093877487423497E-007
 -1.095256993626562E-007
 -1.096630251551878E-007
 -1.097997468818849E-007
 -1.099358854467296E-007
 -1.100714618961461E-007
 -1.102064974164510E-007
 -1.103410133336130E-007
 -1.104750311111841E-007
 -1.106085723496053E-007
 -1.107416587843101E-007
 -1.108743122850122E-007
 -1.110065548539897E-007
 -1.111384086248053E-007
 -1.019414538642133E-007
 -1.021109605051354E-007
 -1.022791526487343E-007
 -1.024460450678951E-007
 -1.026116527265400E-007
 -1.027759907641605E-007
 -1.029390745059051E-007
 -1.031009194626601E-007
 -1.032615413282712E-007
 -1.034209559856505E-007
 -1.035791795046699E-007
 -1.037362281406242E-007
 -1.038921183369326E-007
 -1.040468667253257E-007
 -1.042004901248447E-007
 -1.043530055389680E-007
 -1.045044301627569E-007
 -1.046547813731657E-007
 -1.048040767350651E-007
 -1.049523339972022E-007
 -1.050995710923270E-007
 -1.052458061373243E-007
 -1.053910574304381E-007
 -1.055353434506277E-007
 -1.056786828574424E-007
 -1.058210944889299E-007
 -1.059625973600097E-007
 -1.061032106629518E-007
 -1.062429537632749E-007
 -1.063818462016166E-007
 -1.065199076889881E-007
 -1.066571581081319E-007
 -1.067936175104772E-007
 -1.069293061152732E-007
 -1.070642443073690E-007
 -1.071984526380266E-007
 -1.073319518197000E-007
 -1.074647627284412E-007
 -1.075969063998952E-007
 -1.077284040280895E-007
 -1.078592769662321E-007
 -1.079895467221063E-007
 -1.081192349588681E-007
 -1.082483634926839E-007
 -1.083769542923096E-007
 -1.085050294763329E-007
 -1.086326113128592E-007
 -1.087597222183433E-007
 -1.088863847551098E-007
 -1.090126216309565E-007
 -9.995555956929869E-008
 -1.001214008434821E-007
 -1.002858763375817E-007
 -1.004490004539453E-007
 -1.006107878137127E-007
 -1.007712532542640E-007
 -1.009304118259457E-007
 -1.010882788018542E-007
 -1.012448696692603E-007
 -1.014002001347011E-007
 -1.015542861257543E-007
 -1.017071437845150E-007
 -1.018587894718169E-007
 -1.020092397650077E-007
 -1.021585114598442E-007
 -1.023066215634128E-007
 -1.024535873000333E-007
 -1.025994261061587E-007
 -1.027441556297503E-007
 -1.028877937286823E-007
 -1.030303584691984E-007
 -1.031718681256273E-007
 -1.033123411757611E-007
 -1.034517963032546E-007
 -1.035902523921688E-007
 -1.037277285242548E-007
 -1.038642439836239E-007
 -1.039998182454713E-007
 -1.041344709829015E-007
 -1.042682220577900E-007
 -1.044010915245594E-007
 -1.045330996227814E-007
 -1.046642667818013E-007
 -1.047946136113976E-007
 -1.049241609048393E-007
 -1.050529296369964E-007
 -1.051809409589223E-007
 -1.053082162000461E-007
 -1.054347768635569E-007
 -1.055606446262627E-007
 -1.056858413360420E-007
 -1.058103890111053E-007
 -1.059343098375965E-007
 -1.060576261690019E-007
 -1.061803605229654E-007
 -1.063025355822672E-007
 -1.064241741917552E-007
 -1.065452993574591E-007
 -1.066659342456711E-007
 -1.067861021815994E-007
 -9.788901622220523E-008
 -9.805100795995228E-008
 -9.821157569326683E-008
 -9.837073343082571E-008
 -9.852849543828538E-008
 -9.868487623914083E-008
 -9.883989061361650E-008
 -9.899355359904790E-008
 -9.914588048933064E-008
 -9.929688683475394E-008
 -9.944658844051581E-008
 -9.959500136616859E-008
 -9.974214192230387E-008
 -9.988802667237016E-008
 -1.000326724266503E-007
 -1.001760962466015E-007
 -1.003183154335955E-007
 -1.004593475366979E-007
 -1.005992103413381E-007
 -1.007379218736083E-007
 -1.008755003941283E-007
 -1.010119643962863E-007
 -1.011473326026587E-007
 -1.012816239650541E-007
 -1.014148576571478E-007
 -1.015470530760774E-007
 -1.016782298365345E-007
 -1.018084077696629E-007
 -1.019376069197792E-007
 -1.020658475401234E-007
 -1.021931500931372E-007
 -1.023195352441007E-007
 -1.024450238622536E-007
 -1.025696370150268E-007
 -1.026933959670176E-007
 -1.028163221772458E-007
 -1.029384372963856E-007
 -1.030597631665883E-007
 -1.031803218150572E-007
 -1.033001354567475E-007
 -1.034192264896479E-007
 -1.035376174924346E-007
 -1.036553312252668E-007
 -1.037723906263309E-007
 -1.038888188099450E-007
 -1.040046390668356E-007
 -1.041198748612187E-007
 -1.042345498310344E-007
 -1.043486877854964E-007
 -1.044623127052725E-007
 -9.574613996388426E-008
 -9.590410485934886E-008
 -9.606057937694566E-008
 -9.621557712879698E-008
 -9.636911203288005E-008
 -9.652119831613112E-008
 -9.667185050944163E-008
 -9.682108344772389E-008
 -9.696891226992644E-008
 -9.711535241531890E-008
 -9.726041961878147E-008
 -9.740412991578360E-008
 -9.754649963051726E-008
 -9.768754537916579E-008
 -9.782728406337725E-008
 -9.796573287022211E-008
 -9.810290926352171E-008
 -9.823883098556649E-008
 -9.837351604900908E-008
 -9.850698273509451E-008
 -9.863924958977934E-008
 -9.877033541773092E-008
 -9.890025927958929E-008
 -9.902904048818973E-008
 -9.915669860332270E-008
 -9.928325342830970E-008
 -9.940872500503659E-008
 -9.953313361126047E-008
 -9.965649975500974E-008
 -9.977884417100957E-008
 -9.990018781932112E-008
 -1.000205518758699E-007
 -1.001399577354935E-007
 -1.002584270041047E-007
 -1.003759814976949E-007
 -1.004926432360195E-007
 -1.006084344429665E-007
 -1.007233775428186E-007
 -1.008374951562411E-007
 -1.009508100981455E-007
 -1.010633453772089E-007
 -1.011751241906548E-007
 -1.012861699254257E-007
 -1.013965061540912E-007
 -1.015061566347157E-007
 -1.016151453083601E-007
 -1.017234962992094E-007
 -1.018312339123241E-007
 -1.019383826337627E-007
 -1.020449671291359E-007
 -9.353161228323752E-008
 -9.368537955442169E-008
 -9.383758046046497E-008
 -9.398822824579869E-008
 -9.413733652233919E-008
 -9.428491927384046E-008
 -9.443099083768789E-008
 -9.457556592328849E-008
 -9.471865958541607E-008
 -9.486028724363921E-008
 -9.500046465783543E-008
 -9.513920793525255E-008
 -9.527653352349208E-008
 -9.541245820207596E-008
 -9.554699908234462E-008
 -9.568017359441479E-008
 -9.581199949274509E-008
 -9.594249483739577E-008
 -9.607167799961543E-008
 -9.619956764545927E-008
 -9.632618273945089E-008
 -9.645154253081169E-008
 -9.657566655223098E-008
 -9.669857461000696E-008
 -9.682028678295273E-008
 -9.694082340993476E-008
 -9.706020508998818E-008
 -9.717845267340023E-008
 -9.729558725734360E-008
 -9.741163017756392E-008
 -9.752660300847839E-008
 -9.764052755263866E-008
 -9.775342583935742E-008
 -9.786532011792311E-008
 -9.797623285629100E-008
 -9.808618673057203E-008
 -9.819520462922363E-008
 -9.830330964285658E-008
 -9.841052506503750E-008
 -9.851687438630258E-008
 -9.862238129334777E-008
 -9.872706966535814E-008
 -9.883096357230001E-008
 -9.893408727304150E-008
 -9.903646521365614E-008
 -9.913812202612909E-008
 -9.923908252741712E-008
 -9.933937171885702E-008
 -9.943901478550420E-008
 -9.953803709629365E-008
 -9.125051923576076E-008
 -9.139992337325036E-008
 -9.154767376428627E-008
 -9.169378336921283E-008
 -9.183826558156656E-008
 -9.198113424389281E-008
 -9.212240362601422E-008
 -9.226208842501933E-008
 -9.240020376138452E-008
 -9.253676517120962E-008
 -9.267178859626480E-008
 -9.280529037526953E-008
 -9.293728724612373E-008
 -9.306779632564236E-008
 -9.319683510920557E-008
 -9.332442145754956E-008
 -9.345057359266725E-008
 -9.357531008563310E-008
 -9.369864984921266E-008
 -9.382061212725174E-008
 -9.394121649339576E-008
 -9.406048282716509E-008
 -9.417843132231374E-008
 -9.429508246602856E-008
 -9.441045703597747E-008
 -9.452457608944991E-008
 -9.463746095727946E-008
 -9.474913323631346E-008
 -9.485961477610322E-008
 -9.496892767910828E-008
 -9.507709428777170E-008
 -9.518413718161164E-008
 -9.529007916666389E-008
 -9.539494327172076E-008
 -9.549875274384509E-008
 -9.560153103836901E-008
 -9.570330181860990E-008
 -9.580408894779091E-008
 -9.590391648709966E-008
 -9.600280869015520E-008
 -9.610078999969352E-008
 -9.619788504681511E-008
 -9.629411864499328E-008
 -9.638951579113042E-008
 -9.648410166213028E-008
 -9.657790161461094E-008
 -9.667094118331100E-008
 -9.676324608204195E-008
 -9.685484220324583E-008
 -9.694575561811341E-008
 -8.890839936107737E-008
 -8.905327747766101E-008
 -8.919640092269800E-008
 -8.933778252134407E-008
 -8.947743562196668E-008
 -8.961537410283784E-008
 -8.975161235837675E-008
 -8.988616529023288E-008
 -9.001904829132344E-008
 -9.015027724874332E-008
 -9.027986851621090E-008
 -9.040783891556190E-008
 -9.053420571983376E-008
 -9.065898664150502E-008
 -9.078219981835154E-008
 -9.090386380781414E-008
 -9.102399756465156E-008
 -9.114262043806067E-008
 -9.125975215146742E-008
 -9.137541279543405E-008
 -9.148962281088188E-008
 -9.160240298078409E-008
 -9.171377441348022E-008
 -9.182375853459260E-008
 -9.193237707206200E-008
 -9.203965204787791E-008
 -9.214560576288155E-008
 -9.225026078905721E-008
 -9.235363995644905E-008
 -9.245576634665211E-008
 -9.255666327800472E-008
 -9.265635430081194E-008
 -9.275486318620679E-008
 -9.285221391801563E-008
 -9.294843068627591E-008
 -9.304353787827753E-008
 -9.313756007420270E-008
 -9.323052203818797E-008
 -9.332244871508964E-008
 -9.341336522554733E-008
 -9.350329686111228E-008
 -9.359226908044836E-008
 -9.368030750681563E-008
 -9.376743792660610E-008
 -9.385368628610297E-008
 -9.393907869236285E-008
 -9.402364141094421E-008
 -9.410740086783627E-008
 -9.419038364966549E-008
 -9.427261650520057E-008
 -8.651130194598655E-008
 -8.665148907958552E-008
 -8.678980448777828E-008
 -8.692626111139391E-008
 -8.706087252882230E-008
 -8.719365294537763E-008
 -8.732461718370817E-008
 -8.745378066295434E-008
 -8.758115938778729E-008
 -8.770676992647891E-008
 -8.783062940324019E-008
 -8.795275547409896E-008
 -8.807316631385413E-008
 -8.819188059715882E-008
 -8.830891747832863E-008
 -8.842429658269554E-008
 -8.853803797587612E-008
 -8.865016215632040E-008
 -8.876069003322256E-008
 -8.886964291316046E-008
 -8.897704247397717E-008
 -8.908291075885912E-008
 -8.918727014878728E-008
 -8.929014335512953E-008
 -8.939155339592909E-008
 -8.949152358661552E-008
 -8.959007751937830E-008
 -8.968723905126905E-008
 -8.978303229086382E-008
 -8.987748158141676E-008
 -8.997061148919455E-008
 -9.006244679410241E-008
 -9.015301247391204E-008
 -9.024233369396885E-008
 -9.033043579951740E-008
 -9.041734430493717E-008
 -9.050308488319431E-008
 -9.058768336217483E-008
 -9.067116571400585E-008
 -9.075355805034264E-008
 -9.083488661782622E-008
 -9.091517779348523E-008
 -9.099445807982663E-008
 -9.107275410494812E-008
 -9.115009261800017E-008
 -9.122650049104852E-008
 -9.130200471706691E-008
 -9.137663241279672E-008
 -9.145041081917935E-008
 -9.152336730538333E-008
 -8.406585742918641E-008
 -8.420117893838456E-008
 -8.433449245112385E-008
 -8.446581142298178E-008
 -8.459515007693959E-008
 -8.472252339176648E-008
 -8.484794706666241E-008
 -8.497143751173797E-008
 -8.509301181976293E-008
 -8.521268774127882E-008
 -8.533048366428780E-008
 -8.544641859114714E-008
 -8.556051211105457E-008
 -8.567278437444894E-008
 -8.578325607859235E-008
 -8.589194842773423E-008
 -8.599888312178183E-008
 -8.610408232227133E-008
 -8.620756863473830E-008
 -8.630936508317564E-008
 -8.640949508369232E-008
 -8.650798242459379E-008
 -8.660485124011517E-008
 -8.670012599161069E-008
 -8.679383144421097E-008
 -8.688599264407512E-008
 -8.697663490274457E-008
 -8.706578377099365E-008
 -8.715346502633599E-008
 -8.723970464880642E-008
 -8.732452881020065E-008
 -8.740796385221367E-008
 -8.749003627391486E-008
 -8.757077271816867E-008
 -8.765019995588671E-008
 -8.772834487565146E-008
 -8.780523447194616E-008
 -8.788089583507592E-008
 -8.795535614312275E-008
 -8.802864265310486E-008
 -8.810078269440601E-008
 -8.817180366548560E-008
 -8.824173302588942E-008
 -8.831059829849290E-008
 -8.837842706236782E-008
 -8.844524695638805E-008
 -8.851108567759254E-008
 -8.857597098433761E-008
 -8.863993069894786E-008
 -8.870299271179160E-008
 -8.157936172679991E-008
 -8.170962164932493E-008
 -8.183771443083602E-008
 -8.196365464365665E-008
 -8.208745777926068E-008
 -8.220914022116056E-008
 -8.232871920890883E-008
 -8.244621281349592E-008
 -8.256163989437011E-008
 -8.267502007993218E-008
 -8.278637372639683E-008
 -8.289572188307009E-008
 -8.300308626542717E-008
 -8.310848921559288E-008
 -8.321195367415305E-008
 -8.331350313961285E-008
 -8.341316164208656E-008
 -8.351095370597637E-008
 -8.360690431969486E-008
 -8.370103890010625E-008
 -8.379338326365906E-008
 -8.388396359789931E-008
 -8.397280642318013E-008
 -8.405993857166277E-008
 -8.414538715066373E-008
 -8.422917952232712E-008
 -8.431134327239071E-008
 -8.439190618295048E-008
 -8.447089621184926E-008
 -8.454834146747026E-008
 -8.462427018247157E-008
 -8.469871070025391E-008
 -8.477169144562016E-008
 -8.484324091719053E-008
 -8.491338765888384E-008
 -8.498216025158841E-008
 -8.504958729763063E-008
 -8.511569740548528E-008
 -8.518051918016594E-008
 -8.524408121346079E-008
 -8.530641207559289E-008
 -8.536754030769703E-008
 -8.542749441683561E-008
 -8.548630287481543E-008
 -8.554399411203098E-008
 -8.560059652095432E-008
 -8.565613845562710E-008
 -8.571064823533141E-008
 -8.576415414805903E-008
 -8.581668445825532E-008
 -7.905987609451005E-008
 -7.918483999094994E-008
 -7.930745047672187E-008
 -7.942772410867784E-008
 -7.954567853068495E-008
 -7.966133243678456E-008
 -7.977470552839840E-008
 -7.988581847064431E-008
 -7.999469284202860E-008
 -8.010135109861585E-008
 -8.020581652128911E-008
 -8.030811317445555E-008
 -8.040826585851522E-008
 -8.050630006484349E-008
 -8.060224193368370E-008
 -8.069611820261105E-008
 -8.078795616900689E-008
 -8.087778364357791E-008
 -8.096562890515096E-008
 -8.105152066128948E-008
 -8.113548800216506E-008
 -8.121756036744861E-008
 -8.129776749873220E-008
 -8.137613940228098E-008
 -8.145270631574935E-008
 -8.152749866905982E-008
 -8.160054704701715E-008
 -8.167188215991627E-008
 -8.174153480923508E-008
 -8.180953585707576E-008
 -8.187591619889429E-008
 -8.194070673236636E-008
 -8.200393833558695E-008
 -8.206564184082076E-008
 -8.212584801489291E-008
 -8.218458753383938E-008
 -8.224189097132100E-008
 -8.229778877702694E-008
 -8.235231126313894E-008
 -8.240548859386568E-008
 -8.245735077227557E-008
 -8.250792763430213E-008
 -8.255724883911694E-008
 -8.260534386852358E-008
 -8.265224202163811E-008
 -8.269797241630054E-008
 -8.274256399027378E-008
 -8.278604550568652E-008
 -8.282844555475510E-008
 -8.286979256823135E-008
 -7.651634362692066E-008
 -7.663571409577030E-008
 -7.675251289633958E-008
 -7.686675977636805E-008
 -7.697847576447219E-008
 -7.708768311904833E-008
 -7.719440526850944E-008
 -7.729866674685123E-008
 -7.740049313540096E-008
 -7.749991100448491E-008
 -7.759694784796518E-008
 -7.769163203105417E-008
 -7.778399271748357E-008
 -7.787405982186552E-008
 -7.796186393878283E-008
 -7.804743629461277E-008
 -7.813080868249273E-008
 -7.821201340594497E-008
 -7.829108322218149E-008
 -7.836805129215143E-008
 -7.844295111538345E-008
 -7.851581649105754E-008
 -7.858668145509513E-008
 -7.865558023430990E-008
 -7.872254720136536E-008
 -7.878761682217781E-008
 -7.885082361632914E-008
 -7.891220211014049E-008
 -7.897178679961871E-008
 -7.902961210427186E-008
 -7.908571233982836E-008
 -7.914012167498811E-008
 -7.919287410395070E-008
 -7.924400340996645E-008
 -7.929354314690847E-008
 -7.934152660221837E-008
 -7.938798678121973E-008
 -7.943295638307256E-008
 -7.947646778297589E-008
 -7.951855301528329E-008
 -7.955924376191433E-008
 -7.959857133931822E-008
 -7.963656669132272E-008
 -7.967326038321766E-008
 -7.970868259939762E-008
 -7.974286314227551E-008
 -7.977583143422547E-008
 -7.980761652402673E-008
 -7.983824709312951E-008
 -7.986775146700225E-008
 -7.395872264069205E-008
 -7.407210524365864E-008
 -7.418266048048027E-008
 -7.429041294844350E-008
 -7.439538874244042E-008
 -7.449761537747122E-008
 -7.459712170541177E-008
 -7.469393784086979E-008
 -7.478809507221599E-008
 -7.487962579004633E-008
 -7.496856340144059E-008
 -7.505494225466310E-008
 -7.513879755291989E-008
 -7.522016528881690E-008
 -7.529908215372639E-008
 -7.537558546877593E-008
 -7.544971311111460E-008
 -7.552150343412579E-008
 -7.559099520008979E-008
 -7.565822751014534E-008
 -7.572323972800662E-008
 -7.578607142367766E-008
 -7.584676229828239E-008
 -7.590535212570855E-008
 -7.596188069196246E-008
 -7.601638773333742E-008
 -7.606891288120222E-008
 -7.611949560741986E-008
 -7.616817517361375E-008
 -7.621499057891805E-008
 -7.625998051621570E-008
 -7.630318332740389E-008
 -7.634463696076850E-008
 -7.638437893239560E-008
 -7.642244629444376E-008
 -7.645887559700538E-008
 -7.649370286225912E-008
 -7.652696355596583E-008
 -7.655869256460614E-008
 -7.658892417554015E-008
 -7.661769205871357E-008
 -7.664502925242125E-008
 -7.667096815420424E-008
 -7.669554051188180E-008
 -7.671877741891109E-008
 -7.674070931557134E-008
 -7.676136598865333E-008
 -7.678077657988312E-008
 -7.679896959294942E-008
 -7.681597290703050E-008
 -7.139813567473070E-008
 -7.150499252570205E-008
 -7.160872296393351E-008
 -7.170935866601000E-008
 -7.180693302999995E-008
 -7.190148107033817E-008
 -7.199303931175980E-008
 -7.208164568365838E-008
 -7.216733941432744E-008
 -7.225016093150397E-008
 -7.233015175227389E-008
 -7.240735438691743E-008
 -7.248181223424736E-008
 -7.255356948231586E-008
 -7.262267101001288E-008
 -7.268916229047215E-008
 -7.275308929807944E-008
 -7.281449840984582E-008
 -7.287343632126905E-008
 -7.292994995013979E-008
 -7.298408635822460E-008
 -7.303589266099735E-008
 -7.308541594504950E-008
 -7.313270319498744E-008
 -7.317780121087822E-008
 -7.322075654198619E-008
 -7.326161540548794E-008
 -7.330042362974269E-008
 -7.333722658343696E-008
 -7.337206911446013E-008
 -7.340499549498616E-008
 -7.343604936460072E-008
 -7.346527367641036E-008
 -7.349271065591759E-008
 -7.351840174729689E-008
 -7.354238758177533E-008
 -7.356470793315153E-008
 -7.358540168885410E-008
 -7.360450681753062E-008
 -7.362206034495259E-008
 -7.363809833036081E-008
 -7.365265584885487E-008
 -7.366576697838829E-008
 -7.367746478661124E-008
 -7.368778132690579E-008
 -7.369674763670220E-008
 -7.370439373664849E-008
 -7.371074863885115E-008
 -7.371584035644032E-008
 -7.371969591733147E-008
 -6.884703051038777E-008
 -6.894661834666666E-008
 -6.904273124254949E-008
 -6.913541088781533E-008
 -6.922470091387725E-008
 -6.931064675369557E-008
 -6.939329550972691E-008
 -6.947269581231861E-008
 -6.954889769388261E-008
 -6.962195244723048E-008
 -6.969191250025126E-008
 -6.975883128912083E-008
 -6.982276311917795E-008
 -6.988376305598018E-008
 -6.994188678609179E-008
 -6.999719050964230E-008
 -7.004973081376349E-008
 -7.009956455926955E-008
 -7.014674877018698E-008
 -7.019134051788028E-008
 -7.023339682579457E-008
 -7.027297455020699E-008
 -7.031013029376506E-008
 -7.034492030154785E-008
 -7.037740036622464E-008
 -7.040762574529691E-008
 -7.043565106263109E-008
 -7.046153023746456E-008
 -7.048531639997151E-008
 -7.050706181398010E-008
 -7.052681780924207E-008
 -7.054463471427930E-008
 -7.056056178970294E-008
 -7.057464717318201E-008
 -7.058693782099791E-008
 -7.059747945947053E-008
 -7.060631653884786E-008
 -7.061349219072574E-008
 -7.061904819015651E-008
 -7.062302492423594E-008
 -7.062546136216245E-008
 -7.062639503297449E-008
 -7.062586200551376E-008
 -7.062389687481426E-008
 -7.062053275212570E-008
 -7.061580126094925E-008
 -7.060973253662437E-008
 -7.060235523158977E-008
 -7.059369652626547E-008
 -7.058378214274594E-008
 -6.631934623765922E-008
 -6.641063534752462E-008
 -6.649804555790914E-008
 -6.658163236025794E-008
 -6.666145337913310E-008
 -6.673756819492186E-008
 -6.681003818090711E-008
 -6.687892632077401E-008
 -6.694429704901328E-008
 -6.700621608137321E-008
 -6.706475025379940E-008
 -6.711996735792401E-008
 -6.717193598925377E-008
 -6.722072539154177E-008
 -6.726640529891708E-008
 -6.730904579939535E-008
 -6.734871718273927E-008
 -6.738548979996967E-008
 -6.741943393224270E-008
 -6.745061965220856E-008
 -6.747911669937077E-008
 -6.750499434819015E-008
 -6.752832129325683E-008
 -6.754916553066832E-008
 -6.756759424405409E-008
 -6.758367369700529E-008
 -6.759746912698361E-008
 -6.760904464788863E-008
 -6.761846315610092E-008
 -6.762578623425921E-008
 -6.763107407096885E-008
 -6.763438537691188E-008
 -6.763577730780564E-008
 -6.763530539457727E-008
 -6.763302347469541E-008
 -6.762898363026945E-008
 -6.762323613319853E-008
 -6.761582939092946E-008
 -6.760680990237469E-008
 -6.759622221261351E-008
 -6.758410888175201E-008
 -6.757051044913836E-008
 -6.755546541266466E-008
 -6.753901020456001E-008
 -6.752117918009634E-008
 -6.750200460711082E-008
 -6.748151666403303E-008
 -6.745974344121334E-008
 -6.743671095105592E-008
 -6.741244314047344E-008
 -6.383067266344830E-008
 -6.391224274688675E-008
 -6.398946940802975E-008
 -6.406242672928903E-008
 -6.413119106273719E-008
 -6.419584081113278E-008
 -6.425645621567002E-008
 -6.431311914641741E-008
 -6.436591289333988E-008
 -6.441492196320875E-008
 -6.446023188258791E-008
 -6.450192900239084E-008
 -6.454010030714851E-008
 -6.457483322689181E-008
 -6.460621546111938E-008
 -6.463433479890662E-008
 -6.465927894514925E-008
 -6.468113535436555E-008
 -6.469999107068007E-008
 -6.471593256508072E-008
 -6.472904558721797E-008
 -6.473941501151346E-008
 -6.474712470106449E-008
 -6.475225736301180E-008
 -6.475489442080598E-008
 -6.475511588035495E-008
 -6.475300021387658E-008
 -6.474862423750591E-008
 -6.474206299966828E-008
 -6.473338967504719E-008
 -6.472267546107791E-008
 -6.470998948410825E-008
 -6.469539870537154E-008
 -6.467896783653287E-008
 -6.466075926028233E-008
 -6.464083295434956E-008
 -6.461924642338005E-008
 -6.459605463484835E-008
 -6.457130996354483E-008
 -6.454506213578219E-008
 -6.451735818806828E-008
 -6.448824242434950E-008
 -6.445775638220172E-008
 -6.442593880584273E-008
 -6.439282562419299E-008
 -6.435844993486538E-008
 -6.432284199626004E-008
 -6.428602922428831E-008
 -6.424803619548735E-008
 -6.420888466028160E-008
 -6.139838506194967E-008
 -6.146829403554848E-008
 -6.153333109868393E-008
 -6.159359486308691E-008
 -6.164918625370421E-008
 -6.170020822609767E-008
 -6.174676551304151E-008
 -6.178896437430148E-008
 -6.182691234420898E-008
 -6.186071798322913E-008
 -6.189049065338537E-008
 -6.191634027757598E-008
 -6.193837711714855E-008
 -6.195671155467263E-008
 -6.197145387991368E-008
 -6.198271408357116E-008
 -6.199060165759213E-008
 -6.199522539371438E-008
 -6.199669320354569E-008
 -6.199511193229637E-008
 -6.199058717713140E-008
 -6.198322312589344E-008
 -6.197312238070233E-008
 -6.196038580729436E-008
 -6.194511237878990E-008
 -6.192739902632774E-008
 -6.190734050312657E-008
 -6.188502924167507E-008
 -6.186055523140173E-008
 -6.183400588860873E-008
 -6.180546594238886E-008
 -6.177501732110830E-008
 -6.174273904851535E-008
 -6.170870713991956E-008
 -6.167299451027090E-008
 -6.163567088730122E-008
 -6.159680272510943E-008
 -6.155645313153092E-008
 -6.151468179846081E-008
 -6.147154493301116E-008
 -6.142709520606024E-008
 -6.138138169547954E-008
 -6.133444984447586E-008
 -6.128634142028478E-008
 -6.123709448410212E-008
 -6.118674336410349E-008
 -6.113531863729146E-008
 -6.108284711627356E-008
 -6.102935184950774E-008
 -6.097485211506342E-008
 -5.904172842636138E-008
 -5.909735042944479E-008
 -5.914750766595016E-008
 -5.919233050124334E-008
 -5.923195147437977E-008
 -5.926650498043894E-008
 -5.929612696301449E-008
 -5.932095461411732E-008
 -5.934112608118771E-008
 -5.935678019121129E-008
 -5.936805616272474E-008
 -5.937509335168323E-008
 -5.937803098667445E-008
 -5.937700791549204E-008
 -5.937216236784245E-008
 -5.936363171545159E-008
 -5.935155224638193E-008
 -5.933605893834813E-008
 -5.931728525608303E-008
 -5.929536293540115E-008
 -5.927042178693683E-008
 -5.924258950800189E-008
 -5.921199149435833E-008
 -5.917875065828023E-008
 -5.914298726602904E-008
 -5.910481876733506E-008
 -5.906435963698895E-008
 -5.902172122656425E-008
 -5.897701161805468E-008
 -5.893033548334604E-008
 -5.888179395617105E-008
 -5.883148450195320E-008
 -5.877950080077007E-008
 -5.872593263279280E-008
 -5.867086576939249E-008
 -5.861438187308271E-008
 -5.855655840290793E-008
 -5.849746852019742E-008
 -5.843718101144996E-008
 -5.837576020480274E-008
 -5.831326590195110E-008
 -5.824975330990983E-008
 -5.818527298469779E-008
 -5.811987077477731E-008
 -5.805358777604512E-008
 -5.798646029006353E-008
 -5.791851979145689E-008
 -5.784979290427676E-008
 -5.778030136678727E-008
 -5.771006204759878E-008
 -5.678181618186159E-008
 -5.681964573683389E-008
 -5.685135758543343E-008
 -5.687712237259316E-008
 -5.689711260222473E-008
 -5.691150216340383E-008
 -5.692046604857451E-008
 -5.692417998532503E-008
 -5.692282010533096E-008
 -5.691656261884128E-008
 -5.690558351446694E-008
 -5.689005824872370E-008
 -5.687016146615514E-008
 -5.684606670771006E-008
 -5.681794615486934E-008
 -5.678597035119991E-008
 -5.675030797006068E-008
 -5.671112555393134E-008
 -5.666858729456904E-008
 -5.662285480411601E-008
 -5.657408689127079E-008
 -5.652243936483085E-008
 -5.646806482720614E-008
 -5.641111248426311E-008
 -5.635172795668782E-008
 -5.629005311450630E-008
 -5.622622589485510E-008
 -5.616038014871748E-008
 -5.609264548416526E-008
 -5.602314711519563E-008
 -5.595200572514507E-008
 -5.587933732621037E-008
 -5.580525313317368E-008
 -5.572985944044136E-008
 -5.565325750149619E-008
 -5.557554342057572E-008
 -5.549680804298233E-008
 -5.541713685370975E-008
 -5.533660988232490E-008
 -5.525530161107444E-008
 -5.517328088613177E-008
 -5.509061083755908E-008
 -5.500734880115635E-008
 -5.492354624793882E-008
 -5.483924871555819E-008
 -5.475449575185691E-008
 -5.466932084773158E-008
 -5.458375138265466E-008
 -5.449780863401053E-008
 -5.441150762629049E-008
 -5.464149887691906E-008
 -5.465691929527605E-008
 -5.466551985154432E-008
 -5.466752154311125E-008
 -5.466314625034954E-008
 -5.465261669473128E-008
 -5.463615585784561E-008
 -5.461398659691343E-008
 -5.458633133181537E-008
 -5.455341166995821E-008
 -5.451544806332496E-008
 -5.447265948423963E-008
 -5.442526310576652E-008
 -5.437347399657832E-008
 -5.431750483740613E-008
 -5.425756563232635E-008
 -5.419386345063783E-008
 -5.412660215564266E-008
 -5.405598217267584E-008
 -5.398220023968322E-008
 -5.390544919256518E-008
 -5.382591774492146E-008
 -5.374379028214660E-008
 -5.365924666677275E-008
 -5.357246205543413E-008
 -5.348360671486951E-008
 -5.339284585918970E-008
 -5.330033948262188E-008
 -5.320624221272729E-008
 -5.311070315923875E-008
 -5.301386577501281E-008
 -5.291586772547872E-008
 -5.281684075424188E-008
 -5.271691056851390E-008
 -5.261619671138831E-008
 -5.251481245432330E-008
 -5.241286468088533E-008
 -5.231045378086997E-008
 -5.220767354613640E-008
 -5.210461106428257E-008
 -5.200134662029975E-008
 -5.189795359875283E-008
 -5.179449838585828E-008
 -5.169104027361558E-008
 -5.158763136190347E-008
 -5.148431646998247E-008
 -5.138113306796405E-008
 -5.127811119952550E-008
 -5.117527322289398E-008
 -5.107263414320380E-008
 -5.264505100421608E-008
 -5.263206582771648E-008
 -5.261152968837176E-008
 -5.258372443915058E-008
 -5.254893279431534E-008
 -5.250743643320617E-008
 -5.245951623812684E-008
 -5.240545185273182E-008
 -5.234552119844050E-008
 -5.228000007005014E-008
 -5.220916179367821E-008
 -5.213327688299395E-008
 -5.205261270299821E-008
 -5.196743314433291E-008
 -5.187799831620569E-008
 -5.178456425302066E-008
 -5.168738262951592E-008
 -5.158670050765204E-008
 -5.148276007886975E-008
 -5.137579843573672E-008
 -5.126604734577477E-008
 -5.115373304652270E-008
 -5.103907604970493E-008
 -5.092229096543879E-008
 -5.080358632385681E-008
 -5.068316442119446E-008
 -5.056122118267919E-008
 -5.043794600934805E-008
 -5.031352166063016E-008
 -5.018812413055644E-008
 -5.006192253202131E-008
 -4.993507899051213E-008
 -4.980774853492354E-008
 -4.968007899921358E-008
 -4.955221091923251E-008
 -4.942427743554283E-008
 -4.929640419098673E-008
 -4.916870923265089E-008
 -4.904130290690008E-008
 -4.891428775343053E-008
 -4.878775839287966E-008
 -4.866180141411737E-008
 -4.853649525903518E-008
 -4.841191010847475E-008
 -4.828810776302579E-008
 -4.816514149520968E-008
 -4.804305584958443E-008
 -4.792188653660231E-008
 -4.780166082582686E-008
 -4.768239591418753E-008
 -5.081762170721159E-008
 -5.076854908645221E-008
 -5.071119469958336E-008
 -5.064591674455591E-008
 -5.057306839242477E-008
 -5.049300260803353E-008
 -5.040606962952182E-008
 -5.031261636538358E-008
 -5.021298622417053E-008
 -5.010751881140126E-008
 -4.999654950791771E-008
 -4.988040904168258E-008
 -4.975942312102361E-008
 -4.963391207999358E-008
 -4.950419056850153E-008
 -4.937056724765906E-008
 -4.923334451092861E-008
 -4.909281822025754E-008
 -4.894927746071448E-008
 -4.880300432743111E-008
 -4.865427372212223E-008
 -4.850335318437404E-008
 -4.835050273599283E-008
 -4.819597475457408E-008
 -4.804001385339368E-008
 -4.788285679028742E-008
 -4.772473239152013E-008
 -4.756586147693432E-008
 -4.740645680892200E-008
 -4.724672304721378E-008
 -4.708685670194341E-008
 -4.692704609880769E-008
 -4.676747134398830E-008
 -4.660830427903798E-008
 -4.644970844211160E-008
 -4.629183901277807E-008
 -4.613484275871432E-008
 -4.597885796249612E-008
 -4.582401434722791E-008
 -4.567043298693300E-008
 -4.551822620223340E-008
 -4.536749743807336E-008
 -4.521834111350513E-008
 -4.507084244781139E-008
 -4.492507729749125E-008
 -4.478111206535003E-008
 -4.463900366281577E-008
 -4.449879902101747E-008
 -4.436053335381394E-008
 -4.422423518356516E-008
 -4.918440860365924E-008
 -4.908952686037433E-008
 -4.898568318293926E-008
 -4.887331456832313E-008
 -4.875286729708164E-008
 -4.862477721654076E-008
 -4.848947504640713E-008
 -4.834738718503484E-008
 -4.819893459578775E-008
 -4.804453186346642E-008
 -4.788458665760456E-008
 -4.771949937655681E-008
 -4.754966281159013E-008
 -4.737546177309096E-008
 -4.719727272214006E-008
 -4.701546341209422E-008
 -4.683039257573102E-008
 -4.664240965176263E-008
 -4.645185457382378E-008
 -4.625905758250750E-008
 -4.606433910933171E-008
 -4.586800968106194E-008
 -4.567036987589914E-008
 -4.547171030697060E-008
 -4.527231165580625E-008
 -4.507244471584677E-008
 -4.487237048544148E-008
 -4.467234025955969E-008
 -4.447259575410241E-008
 -4.427336922624014E-008
 -4.407488360999169E-008
 -4.387735263241594E-008
 -4.368098094346774E-008
 -4.348596420564573E-008
 -4.329248919289691E-008
 -4.310073384086018E-008
 -4.291086728742274E-008
 -4.272304986947788E-008
 -4.253743309356135E-008
 -4.235415957576459E-008
 -4.217336295647207E-008
 -4.199516781320678E-008
 -4.181968955434775E-008
 -4.164703426321409E-008
 -4.147729837523674E-008
 -4.131056810031411E-008
 -4.114691890994561E-008
 -4.098641657943350E-008
 -4.082912066392134E-008
 -4.067506600313681E-008
 -4.776953201269387E-008
 -4.761667358432827E-008
 -4.745425002446901E-008
 -4.728284223385202E-008
 -4.710297582207603E-008
 -4.691518776041246E-008
 -4.672001140190088E-008
 -4.651796952629274E-008
 -4.630957420080032E-008
 -4.609532762802791E-008
 -4.587572218551973E-008
 -4.565123980303373E-008
 -4.542235113609368E-008
 -4.518951481807977E-008
 -4.495317687136236E-008
 -4.471377025720368E-008
 -4.447171455553720E-008
 -4.422741571908175E-008
 -4.398126591616122E-008
 -4.373364344195609E-008
 -4.348491272785926E-008
 -4.323542442202312E-008
 -4.298551558130792E-008
 -4.273550993430822E-008
 -4.248571823282789E-008
 -4.223643866656855E-008
 -4.198795732996593E-008
 -4.174054871616626E-008
 -4.149447623617615E-008
 -4.124999272519222E-008
 -4.100734093983781E-008
 -4.076675401995773E-008
 -4.052845591106909E-008
 -4.029266174108017E-008
 -4.005957814191256E-008
 -3.982940351886119E-008
 -3.960232826547652E-008
 -3.937853490718022E-008
 -3.915819817986077E-008
 -3.894148500314197E-008
 -3.872855435436395E-008
 -3.851955703365696E-008
 -3.831463540808606E-008
 -3.811392329322684E-008
 -3.791754619613333E-008
 -3.772562178351113E-008
 -3.753825909650806E-008
 -3.735555288429811E-008
 -3.717757530706313E-008
 -3.700443564049862E-008
 -4.659468862148210E-008
 -4.636862010433907E-008
 -4.613264891434550E-008
 -4.588733500799460E-008
 -4.563340965003347E-008
 -4.537154687795938E-008
 -4.510238874973387E-008
 -4.482656760638594E-008
 -4.454470884927478E-008
 -4.425742682349091E-008
 -4.396532070236425E-008
 -4.366897208158242E-008
 -4.336894383395594E-008
 -4.306577956039288E-008
 -4.276000314193473E-008
 -4.245211827759049E-008
 -4.214260801407524E-008
 -4.183193433620770E-008
 -4.152053793878794E-008
 -4.120883822120612E-008
 -4.089723355487613E-008
 -4.058610181529355E-008
 -4.027580117038955E-008
 -3.996667108386508E-008
 -3.965903348667053E-008
 -3.935319408130854E-008
 -3.904944371030697E-008
 -3.874805977145937E-008
 -3.844930760420817E-008
 -3.815344183420769E-008
 -3.786070761335264E-008
 -3.757134175769633E-008
 -3.728557372420614E-008
 -3.700362643679471E-008
 -3.672571694465164E-008
 -3.645205692535090E-008
 -3.618285305320898E-008
 -3.591830727487676E-008
 -3.565861702097427E-008
 -3.540397539122281E-008
 -3.515457126728981E-008
 -3.491058923045557E-008
 -3.467220900543461E-008
 -3.443960411697965E-008
 -3.421293979868876E-008
 -3.399237168770559E-008
 -3.377804993776581E-008
 -3.357013477297844E-008
 -3.336880382787395E-008
 -3.317405970087257E-008
 -4.567757038738817E-008
 -4.535936531694269E-008
 -4.503073063509198E-008
 -4.469299451428599E-008
 -4.434683600376944E-008
 -4.399301349702996E-008
 -4.363235504695708E-008
 -4.326568897128148E-008
 -4.289381301100293E-008
 -4.251748978139473E-008
 -4.213745051350388E-008
 -4.175439844554325E-008
 -4.136900952080832E-008
 -4.098193091441151E-008
 -4.059377848089341E-008
 -4.020513418257497E-008
 -3.981654410685047E-008
 -3.942851736747149E-008
 -3.904152599205698E-008
 -3.865600571194811E-008
 -3.827235752405139E-008
 -3.789094985229781E-008
 -3.751212117916233E-008
 -3.713618298602777E-008
 -3.676342287567011E-008
 -3.639410781208686E-008
 -3.602848734270681E-008
 -3.566679679023990E-008
 -3.530926030978525E-008
 -3.495609378683588E-008
 -3.460750751992112E-008
 -3.426370862724642E-008
 -3.392490313656579E-008
 -3.359129769780212E-008
 -3.326310086595579E-008
 -3.294052390955438E-008
 -3.262378112631247E-008
 -3.231308969607815E-008
 -3.200866916622714E-008
 -3.171074081274652E-008
 -3.141952723396669E-008
 -3.113525267024884E-008
 -3.085814444362791E-008
 -3.058843528631155E-008
 -3.032636446683826E-008
 -3.007217200327500E-008
 -2.982607647166082E-008
 -2.958823640652112E-008
 -2.935877919837332E-008
 -2.913837361533866E-008
 -4.503074437593542E-008
 -4.459495698206030E-008
 -4.415031398146218E-008
 -4.369613536565039E-008
 -4.323387769862917E-008
 -4.276496013734732E-008
 -4.229053498431407E-008
 -4.181160555906713E-008
 -4.132912596618521E-008
 -4.084404000950605E-008
 -4.035728113329352E-008
 -3.986975625216399E-008
 -3.938232700085091E-008
 -3.889579449431521E-008
 -3.841088939847219E-008
 -3.792826715988914E-008
 -3.744850740645211E-008
 -3.697211642022740E-008
 -3.649953171459222E-008
 -3.603112790026371E-008
 -3.556722327681007E-008
 -3.510808670837529E-008
 -3.465394453939467E-008
 -3.420498734710121E-008
 -3.376137644864598E-008
 -3.332325010853653E-008
 -3.289072942258565E-008
 -3.246392391138733E-008
 -3.204293680706879E-008
 -3.162787006553722E-008
 -3.121882910599488E-008
 -3.081592727584623E-008
 -3.041928998915587E-008
 -3.002905848001997E-008
 -2.964539305184004E-008
 -2.926847561967725E-008
 -2.889851132730910E-008
 -2.853572888112480E-008
 -2.818037925109934E-008
 -2.783273237480117E-008
 -2.749307171447025E-008
 -2.716168708699726E-008
 -2.683886743260263E-008
 -2.652489755274293E-008
 -2.622006650904216E-008
 -2.592469868302869E-008
 -2.563921244778304E-008
 -2.536416050780562E-008
 -2.509998792836274E-008
 -2.484546050194431E-008
 -4.465935176147515E-008
 -4.407572934255763E-008
 -4.347758457961545E-008
 -4.287297979692864E-008
 -4.226336007010891E-008
 -4.164926131543576E-008
 -4.103160522259327E-008
 -4.041174547563280E-008
 -3.979125533948142E-008
 -3.917173162255829E-008
 -3.855466732576547E-008
 -3.794138450559049E-008
 -3.733300833676012E-008
 -3.673046604879204E-008
 -3.613449948650074E-008
 -3.554568417620732E-008
 -3.496445060106724E-008
 -3.439110537729238E-008
 -3.382585106079865E-008
 -3.326880407482515E-008
 -3.272001057525286E-008
 -3.217946037044991E-008
 -3.164709902232351E-008
 -3.112283840820330E-008
 -3.060656595911699E-008
 -3.009815283057513E-008
 -2.959746123099313E-008
 -2.910435113704449E-008
 -2.861868658830989E-008
 -2.814034174910844E-008
 -2.766920692049090E-008
 -2.720519464925669E-008
 -2.674824607125615E-008
 -2.629833760582146E-008
 -2.585548805172150E-008
 -2.541976605873730E-008
 -2.499129783024261E-008
 -2.457027466304422E-008
 -2.415695957703165E-008
 -2.375169170201242E-008
 -2.335488615826917E-008
 -2.296702585488084E-008
 -2.258863984867919E-008
 -2.222026129871273E-008
 -2.186235872996065E-008
 -2.151524480079898E-008
 -2.117900982724737E-008
 -2.085367016681606E-008
 -2.054015895445977E-008
 -2.024407974669215E-008
 -4.456389606146808E-008
 -4.376285283040011E-008
 -4.297342110544273E-008
 -4.217660243333409E-008
 -4.137096231012801E-008
 -4.056049918910460E-008
 -3.975019588945235E-008
 -3.894451351366374E-008
 -3.814699772122873E-008
 -3.736028576953706E-008
 -3.658623871102155E-008
 -3.582609510625208E-008
 -3.508061031643331E-008
 -3.435017188439233E-008
 -3.363489115893637E-008
 -3.293467453207173E-008
 -3.224927814519051E-008
 -3.157834962354099E-008
 -3.092145975883984E-008
 -3.027812652577453E-008
 -2.964783322532598E-008
 -2.903004221056236E-008
 -2.842420525081066E-008
 -2.782977142020703E-008
 -2.724619314320555E-008
 -2.667293091722353E-008
 -2.610945715849866E-008
 -2.555525948007520E-008
 -2.500984375348487E-008
 -2.447273719924385E-008
 -2.394349180875870E-008
 -2.342168839187747E-008
 -2.290694157306312E-008
 -2.239890615015971E-008
 -2.189728528281473E-008
 -2.140184111309991E-008
 -2.091240856412963E-008
 -2.042891322885125E-008
 -1.995139445054382E-008
 -1.948003480094452E-008
 -1.901519705751754E-008
 -1.855746904221678E-008
 -1.810771429697142E-008
 -1.766712025153906E-008
 -1.723721952398960E-008
 -1.681982035007242E-008
 -1.641668402564755E-008
 -1.602854197001003E-008
 -1.565242260276966E-008
 -1.527465071171871E-008
 -4.472339929234017E-008
 -4.369732992156433E-008
 -4.258477985088419E-008
 -4.144823273468031E-008
 -4.031896096133507E-008
 -3.921267222858783E-008
 -3.813698636552714E-008
 -3.709518188635236E-008
 -3.608815750763563E-008
 -3.511549901834495E-008
 -3.417607769381429E-008
 -3.326839369388001E-008
 -3.239077578718930E-008
 -3.154149789721829E-008
 -3.071884644163238E-008
 -2.992115807971104E-008
 -2.914683951114947E-008
 -2.839437635432655E-008
 -2.766233539815348E-008
 -2.694936292704933E-008
 -2.625418072288045E-008
 -2.557558084783120E-008
 -2.491241979911449E-008
 -2.426361245151770E-008
 -2.362812604311899E-008
 -2.300497431517069E-008
 -2.239321190700988E-008
 -2.179192905449583E-008
 -2.120024662123725E-008
 -2.061731150259936E-008
 -2.004229243936272E-008
 -1.947437633984257E-008
 -1.891276521393083E-008
 -1.835667395392271E-008
 -1.780532925464536E-008
 -1.725797020950598E-008
 -1.671385137537565E-008
 -1.617224955233770E-008
 -1.563247631779059E-008
 -1.509389952377905E-008
 -1.455597914217238E-008
 -1.401832648685270E-008
 -1.348080252624025E-008
 -1.294368350459502E-008
 -1.240794638318512E-008
 -1.187577587075909E-008
 -1.135149878059684E-008
 -1.084338017746778E-008
 -1.036723964855759E-008
 -9.954091883654821E-009
 -4.514517488335344E-008
 -4.312288931905542E-008
 -4.131322158306484E-008
 -3.966964769481319E-008
 -3.815985850682412E-008
 -3.676044741069844E-008
 -3.545387821112375E-008
 -3.422664847220010E-008
 -3.306812048233510E-008
 -3.196974649362955E-008
 -3.092453817883266E-008
 -2.992669345143391E-008
 -2.897132796012909E-008
 -2.805427805595257E-008
 -2.717195367703387E-008
 -2.632122673431295E-008
 -2.549934514318288E-008
 -2.470386567601962E-008
 -2.393260079339654E-008
 -2.318357597272574E-008
 -2.245499499775669E-008
 -2.174521134897289E-008
 -2.105270427818813E-008
 -2.037605850502295E-008
 -1.971394670647712E-008
 -1.906511415620406E-008
 -1.842836496236893E-008
 -1.780254949241016E-008
 -1.718655258244848E-008
 -1.657928220683497E-008
 -1.597965825598990E-008
 -1.538660113347292E-008
 -1.479901978251512E-008
 -1.421579877546262E-008
 -1.363578400758246E-008
 -1.305776641682228E-008
 -1.248046303327922E-008
 -1.190249443144013E-008
 -1.132235736069588E-008
 -1.073839086847683E-008
 -1.014873359794992E-008
 -9.551268915821557E-009
 -8.943552957034724E-009
 -8.322718168330802E-009
 -7.685340625951007E-009
 -7.027251918894262E-009
 -6.343262464230842E-009
 -5.626735995967119E-009
 -4.868899165228097E-009
 -4.057649298831696E-009
SCALARS elementIsPlast double 
LOOKUP_TABLE default
  0.000000000000000E+000
  0.000000000000000E+000
  0.000000000000000E+000
  0.000000000000000E+000
  0.000000000000000E+000
  0.000000000000000E+000
  0.000000000000000E+000
  0.000000000000000E+000
  0.000000000000000E+000
  0.000000000000000E+000
  0.000000000000000E+000
  0.000000000000000E+000
  0.000000000000000E+000
  0.000000000000000E+000
  0.000000000000000E+000
  0.000000000000000E+000
  0.000000000000000E+000
  0.000000000000000E+000
  0.000000000000000E+000
  0.000000000000000E+000
  0.000000000000000E+000
  0.000000000000000E+000
  0.000000000000000E+000
  0.000000000000000E+000
  0.000000000000000E+000
  0.000000000000000E+000
  0.000000000000000E+000
  0.000000000000000E+000
  0.000000000000000E+000
  0.000000000000000E+000
  0.000000000000000E+000
  0.000000000000000E+000
  0.000000000000000E+000
  0.000000000000000E+000
  0.000000000000000E+000
  0.000000000000000E+000
  0.000000000000000E+000
  0.000000000000000E+000
  0.000000000000000E+000
  0.000000000000000E+000
  0.000000000000000E+000
  0.000000000000000E+000
  0.000000000000000E+000
  0.000000000000000E+000
  0.000000000000000E+000
  0.000000000000000E+000
  0.000000000000000E+000
  0.000000000000000E+000
  0.000000000000000E+000
  0.000000000000000E+000
  0.000000000000000E+000
  0.000000000000000E+000
  0.000000000000000E+000
  0.000000000000000E+000
  0.000000000000000E+000
  0.000000000000000E+000
  0.000000000000000E+000
  0.000000000000000E+000
  0.000000000000000E+000
  0.000000000000000E+000
  0.000000000000000E+000
  0.000000000000000E+000
  0.000000000000000E+000
  0.000000000000000E+000
  0.000000000000000E+000
  0.000000000000000E+000
  0.000000000000000E+000
  0.000000000000000E+000
  0.000000000000000E+000
  0.000000000000000E+000
  0.000000000000000E+000
  0.000000000000000E+000
  0.000000000000000E+000
  0.000000000000000E+000
  0.000000000000000E+000
  0.000000000000000E+000
  0.000000000000000E+000
  0.000000000000000E+000
  0.000000000000000E+000
  0.000000000000000E+000
  0.000000000000000E+000
  0.000000000000000E+000
  0.000000000000000E+000
  0.000000000000000E+000
  0.000000000000000E+000
  0.000000000000000E+000
  0.000000000000000E+000
  0.000000000000000E+000
  0.000000000000000E+000
  0.000000000000000E+000
  0.000000000000000E+000
  0.000000000000000E+000
  0.000000000000000E+000
  0.000000000000000E+000
  0.000000000000000E+000
  0.000000000000000E+000
  0.000000000000000E+000
  0.000000000000000E+000
  0.000000000000000E+000
  0.000000000000000E+000
  0.000000000000000E+000
  0.000000000000000E+000
  0.000000000000000E+000
  0.000000000000000E+000
  0.000000000000000E+000
  0.000000000000000E+000
  0.000000000000000E+000
  0.000000000000000E+000
  0.000000000000000E+000
  0.000000000000000E+000
  0.000000000000000E+000
  0.000000000000000E+000
  0.000000000000000E+000
  0.000000000000000E+000
  0.000000000000000E+000
  0.000000000000000E+000
  0.000000000000000E+000
  0.000000000000000E+000
  0.000000000000000E+000
  0.000000000000000E+000
  0.000000000000000E+000
  0.000000000000000E+000
  0.000000000000000E+000
  0.000000000000000E+000
  0.000000000000000E+000
  0.000000000000000E+000
  0.000000000000000E+000
  0.000000000000000E+000
  0.000000000000000E+000
  0.000000000000000E+000
  0.000000000000000E+000
  0.000000000000000E+000
  0.000000000000000E+000
  0.000000000000000E+000
  0.000000000000000E+000
  0.000000000000000E+000
  0.000000000000000E+000
  0.000000000000000E+000
  0.000000000000000E+000
  0.000000000000000E+000
  0.000000000000000E+000
  0.000000000000000E+000
  0.000000000000000E+000
  0.000000000000000E+000
  0.000000000000000E+000
  0.000000000000000E+000
  0.000000000000000E+000
  0.000000000000000E+000
  0.000000000000000E+000
  0.000000000000000E+000
  0.000000000000000E+000
  0.000000000000000E+000
  0.000000000000000E+000
  0.000000000000000E+000
  0.000000000000000E+000
  0.000000000000000E+000
  0.000000000000000E+000
  0.000000000000000E+000
  0.000000000000000E+000
  0.000000000000000E+000
  0.000000000000000E+000
  0.000000000000000E+000
  0.000000000000000E+000
  0.000000000000000E+000
  0.000000000000000E+000
  0.000000000000000E+000
  0.000000000000000E+000
  0.000000000000000E+000
  0.000000000000000E+000
  0.000000000000000E+000
  0.000000000000000E+000
  0.000000000000000E+000
  0.000000000000000E+000
  0.000000000000000E+000
  0.000000000000000E+000
  0.000000000000000E+000
  0.000000000000000E+000
  0.000000000000000E+000
  0.000000000000000E+000
  0.000000000000000E+000
  0.000000000000000E+000
  0.000000000000000E+000
  0.000000000000000E+000
  0.000000000000000E+000
  0.000000000000000E+000
  0.000000000000000E+000
  0.000000000000000E+000
  0.000000000000000E+000
  0.000000000000000E+000
  0.000000000000000E+000
  0.000000000000000E+000
  0.000000000000000E+000
  0.000000000000000E+000
  0.000000000000000E+000
  0.000000000000000E+000
  0.000000000000000E+000
  0.000000000000000E+000
  0.000000000000000E+000
  0.000000000000000E+000
  0.000000000000000E+000
  0.000000000000000E+000
  0.000000000000000E+000
  0.000000000000000E+000
  0.000000000000000E+000
  0.000000000000000E+000
  0.000000000000000E+000
  0.000000000000000E+000
  0.000000000000000E+000
  0.000000000000000E+000
  0.000000000000000E+000
  0.000000000000000E+000
  0.000000000000000E+000
  0.000000000000000E+000
  0.000000000000000E+000
  0.000000000000000E+000
  0.000000000000000E+000
  0.000000000000000E+000
  0.000000000000000E+000
  0.000000000000000E+000
  0.000000000000000E+000
  0.000000000000000E+000
  0.000000000000000E+000
  0.000000000000000E+000
  0.000000000000000E+000
  0.000000000000000E+000
  0.000000000000000E+000
  0.000000000000000E+000
  0.000000000000000E+000
  0.000000000000000E+000
  0.000000000000000E+000
  0.000000000000000E+000
  0.000000000000000E+000
  0.000000000000000E+000
  0.000000000000000E+000
  0.000000000000000E+000
  0.000000000000000E+000
  0.000000000000000E+000
  0.000000000000000E+000
  0.000000000000000E+000
  0.000000000000000E+000
  0.000000000000000E+000
  0.000000000000000E+000
  0.000000000000000E+000
  0.000000000000000E+000
  0.000000000000000E+000
  0.000000000000000E+000
  0.000000000000000E+000
  0.000000000000000E+000
  0.000000000000000E+000
  0.000000000000000E+000
  0.000000000000000E+000
  0.000000000000000E+000
  0.000000000000000E+000
  0.000000000000000E+000
  0.000000000000000E+000
  0.000000000000000E+000
  0.000000000000000E+000
  0.000000000000000E+000
  0.000000000000000E+000
  0.000000000000000E+000
  0.000000000000000E+000
  0.000000000000000E+000
  0.000000000000000E+000
  0.000000000000000E+000
  0.000000000000000E+000
  0.000000000000000E+000
  0.000000000000000E+000
  0.000000000000000E+000
  0.000000000000000E+000
  0.000000000000000E+000
  0.000000000000000E+000
  0.000000000000000E+000
  0.000000000000000E+000
  0.000000000000000E+000
  0.000000000000000E+000
  0.000000000000000E+000
  0.000000000000000E+000
  0.000000000000000E+000
  0.000000000000000E+000
  0.000000000000000E+000
  0.000000000000000E+000
  0.000000000000000E+000
  0.000000000000000E+000
  0.000000000000000E+000
  0.000000000000000E+000
  0.000000000000000E+000
  0.000000000000000E+000
  0.000000000000000E+000
  0.000000000000000E+000
  0.000000000000000E+000
  0.000000000000000E+000
  0.000000000000000E+000
  0.000000000000000E+000
  0.000000000000000E+000
  0.000000000000000E+000
  0.000000000000000E+000
  0.000000000000000E+000
  0.000000000000000E+000
  0.000000000000000E+000
  0.000000000000000E+000
  0.000000000000000E+000
  0.000000000000000E+000
  0.000000000000000E+000
  0.000000000000000E+000
  0.000000000000000E+000
  0.000000000000000E+000
  0.000000000000000E+000
  0.000000000000000E+000
  0.000000000000000E+000
  0.000000000000000E+000
  0.000000000000000E+000
  0.000000000000000E+000
  0.000000000000000E+000
  0.000000000000000E+000
  0.000000000000000E+000
  0.000000000000000E+000
  0.000000000000000E+000
  0.000000000000000E+000
  0.000000000000000E+000
  0.000000000000000E+000
  0.000000000000000E+000
  0.000000000000000E+000
  0.000000000000000E+000
  0.000000000000000E+000
  0.000000000000000E+000
  0.000000000000000E+000
  0.000000000000000E+000
  0.000000000000000E+000
  0.000000000000000E+000
  0.000000000000000E+000
  0.000000000000000E+000
  0.000000000000000E+000
  0.000000000000000E+000
  0.000000000000000E+000
  0.000000000000000E+000
  0.000000000000000E+000
  0.000000000000000E+000
  0.000000000000000E+000
  0.000000000000000E+000
  0.000000000000000E+000
  0.000000000000000E+000
  0.000000000000000E+000
  0.000000000000000E+000
  0.000000000000000E+000
  0.000000000000000E+000
  0.000000000000000E+000
  0.000000000000000E+000
  0.000000000000000E+000
  0.000000000000000E+000
  0.000000000000000E+000
  0.000000000000000E+000
  0.000000000000000E+000
  0.000000000000000E+000
  0.000000000000000E+000
  0.000000000000000E+000
  0.000000000000000E+000
  0.000000000000000E+000
  0.000000000000000E+000
  0.000000000000000E+000
  0.000000000000000E+000
  0.000000000000000E+000
  0.000000000000000E+000
  0.000000000000000E+000
  0.000000000000000E+000
  0.000000000000000E+000
  0.000000000000000E+000
  0.000000000000000E+000
  0.000000000000000E+000
  0.000000000000000E+000
  0.000000000000000E+000
  0.000000000000000E+000
  0.000000000000000E+000
  0.000000000000000E+000
  0.000000000000000E+000
  0.000000000000000E+000
  0.000000000000000E+000
  0.000000000000000E+000
  0.000000000000000E+000
  0.000000000000000E+000
  0.000000000000000E+000
  0.000000000000000E+000
  0.000000000000000E+000
  0.000000000000000E+000
  0.000000000000000E+000
  0.000000000000000E+000
  0.000000000000000E+000
  0.000000000000000E+000
  0.000000000000000E+000
  0.000000000000000E+000
  0.000000000000000E+000
  0.000000000000000E+000
  0.000000000000000E+000
  0.000000000000000E+000
  0.000000000000000E+000
  0.000000000000000E+000
  0.000000000000000E+000
  0.000000000000000E+000
  0.000000000000000E+000
  0.000000000000000E+000
  0.000000000000000E+000
  0.000000000000000E+000
  0.000000000000000E+000
  0.000000000000000E+000
  0.000000000000000E+000
  0.000000000000000E+000
  0.000000000000000E+000
  0.000000000000000E+000
  0.000000000000000E+000
  0.000000000000000E+000
  0.000000000000000E+000
  0.000000000000000E+000
  0.000000000000000E+000
  0.000000000000000E+000
  0.000000000000000E+000
  0.000000000000000E+000
  0.000000000000000E+000
  0.000000000000000E+000
  0.000000000000000E+000
  0.000000000000000E+000
  0.000000000000000E+000
  0.000000000000000E+000
  0.000000000000000E+000
  0.000000000000000E+000
  0.000000000000000E+000
  0.000000000000000E+000
  0.000000000000000E+000
  0.000000000000000E+000
  0.000000000000000E+000
  0.000000000000000E+000
  0.000000000000000E+000
  0.000000000000000E+000
  0.000000000000000E+000
  0.000000000000000E+000
  0.000000000000000E+000
  0.000000000000000E+000
  0.000000000000000E+000
  0.000000000000000E+000
  0.000000000000000E+000
  0.000000000000000E+000
  0.000000000000000E+000
  0.000000000000000E+000
  0.000000000000000E+000
  0.000000000000000E+000
  0.000000000000000E+000
  0.000000000000000E+000
  0.000000000000000E+000
  0.000000000000000E+000
  0.000000000000000E+000
  0.000000000000000E+000
  0.000000000000000E+000
  0.000000000000000E+000
  0.000000000000000E+000
  0.000000000000000E+000
  0.000000000000000E+000
  0.000000000000000E+000
  0.000000000000000E+000
  0.000000000000000E+000
  0.000000000000000E+000
  0.000000000000000E+000
  0.000000000000000E+000
  0.000000000000000E+000
  0.000000000000000E+000
  0.000000000000000E+000
  0.000000000000000E+000
  0.000000000000000E+000
  0.000000000000000E+000
  0.000000000000000E+000
  0.000000000000000E+000
  0.000000000000000E+000
  0.000000000000000E+000
  0.000000000000000E+000
  0.000000000000000E+000
  0.000000000000000E+000
  0.000000000000000E+000
  0.000000000000000E+000
  0.000000000000000E+000
  0.000000000000000E+000
  0.000000000000000E+000
  0.000000000000000E+000
  0.000000000000000E+000
  0.000000000000000E+000
  0.000000000000000E+000
  0.000000000000000E+000
  0.000000000000000E+000
  0.000000000000000E+000
  0.000000000000000E+000
  0.000000000000000E+000
  0.000000000000000E+000
  0.000000000000000E+000
  0.000000000000000E+000
  0.000000000000000E+000
  0.000000000000000E+000
  0.000000000000000E+000
  0.000000000000000E+000
  0.000000000000000E+000
  0.000000000000000E+000
  0.000000000000000E+000
  0.000000000000000E+000
  0.000000000000000E+000
  0.000000000000000E+000
  0.000000000000000E+000
  0.000000000000000E+000
  0.000000000000000E+000
  0.000000000000000E+000
  0.000000000000000E+000
  0.000000000000000E+000
  0.000000000000000E+000
  0.000000000000000E+000
  0.000000000000000E+000
  0.000000000000000E+000
  0.000000000000000E+000
  0.000000000000000E+000
  0.000000000000000E+000
  0.000000000000000E+000
  0.000000000000000E+000
  0.000000000000000E+000
  0.000000000000000E+000
  0.000000000000000E+000
  0.000000000000000E+000
  0.000000000000000E+000
  0.000000000000000E+000
  0.000000000000000E+000
  0.000000000000000E+000
  0.000000000000000E+000
  0.000000000000000E+000
  0.000000000000000E+000
  0.000000000000000E+000
  0.000000000000000E+000
  0.000000000000000E+000
  0.000000000000000E+000
  0.000000000000000E+000
  0.000000000000000E+000
  0.000000000000000E+000
  0.000000000000000E+000
  0.000000000000000E+000
  0.000000000000000E+000
  0.000000000000000E+000
  0.000000000000000E+000
  0.000000000000000E+000
  0.000000000000000E+000
  0.000000000000000E+000
  0.000000000000000E+000
  0.000000000000000E+000
  0.000000000000000E+000
  0.000000000000000E+000
  0.000000000000000E+000
  0.000000000000000E+000
  0.000000000000000E+000
  0.000000000000000E+000
  0.000000000000000E+000
  0.000000000000000E+000
  0.000000000000000E+000
  0.000000000000000E+000
  0.000000000000000E+000
  0.000000000000000E+000
  0.000000000000000E+000
  0.000000000000000E+000
  0.000000000000000E+000
  0.000000000000000E+000
  0.000000000000000E+000
  0.000000000000000E+000
  0.000000000000000E+000
  0.000000000000000E+000
  0.000000000000000E+000
  0.000000000000000E+000
  0.000000000000000E+000
  0.000000000000000E+000
  0.000000000000000E+000
  0.000000000000000E+000
  0.000000000000000E+000
  0.000000000000000E+000
  0.000000000000000E+000
  0.000000000000000E+000
  0.000000000000000E+000
  0.000000000000000E+000
  0.000000000000000E+000
  0.000000000000000E+000
  0.000000000000000E+000
  0.000000000000000E+000
  0.000000000000000E+000
  0.000000000000000E+000
  0.000000000000000E+000
  0.000000000000000E+000
  0.000000000000000E+000
  0.000000000000000E+000
  0.000000000000000E+000
  0.000000000000000E+000
  0.000000000000000E+000
  0.000000000000000E+000
  0.000000000000000E+000
  0.000000000000000E+000
  0.000000000000000E+000
  0.000000000000000E+000
  0.000000000000000E+000
  0.000000000000000E+000
  0.000000000000000E+000
  0.000000000000000E+000
  0.000000000000000E+000
  0.000000000000000E+000
  0.000000000000000E+000
  0.000000000000000E+000
  0.000000000000000E+000
  0.000000000000000E+000
  0.000000000000000E+000
  0.000000000000000E+000
  0.000000000000000E+000
  0.000000000000000E+000
  0.000000000000000E+000
  0.000000000000000E+000
  0.000000000000000E+000
  0.000000000000000E+000
  0.000000000000000E+000
  0.000000000000000E+000
  0.000000000000000E+000
  0.000000000000000E+000
  0.000000000000000E+000
  0.000000000000000E+000
  0.000000000000000E+000
  0.000000000000000E+000
  0.000000000000000E+000
  0.000000000000000E+000
  0.000000000000000E+000
  0.000000000000000E+000
  0.000000000000000E+000
  0.000000000000000E+000
  0.000000000000000E+000
  0.000000000000000E+000
  0.000000000000000E+000
  0.000000000000000E+000
  0.000000000000000E+000
  0.000000000000000E+000
  0.000000000000000E+000
  0.000000000000000E+000
  0.000000000000000E+000
  0.000000000000000E+000
  0.000000000000000E+000
  0.000000000000000E+000
  0.000000000000000E+000
  0.000000000000000E+000
  0.000000000000000E+000
  0.000000000000000E+000
  0.000000000000000E+000
  0.000000000000000E+000
  0.000000000000000E+000
  0.000000000000000E+000
  0.000000000000000E+000
  0.000000000000000E+000
  0.000000000000000E+000
  0.000000000000000E+000
  0.000000000000000E+000
  0.000000000000000E+000
  0.000000000000000E+000
  0.000000000000000E+000
  0.000000000000000E+000
  0.000000000000000E+000
  0.000000000000000E+000
  0.000000000000000E+000
  0.000000000000000E+000
  0.000000000000000E+000
  0.000000000000000E+000
  0.000000000000000E+000
  0.000000000000000E+000
  0.000000000000000E+000
  0.000000000000000E+000
  0.000000000000000E+000
  0.000000000000000E+000
  0.000000000000000E+000
  0.000000000000000E+000
  0.000000000000000E+000
  0.000000000000000E+000
  0.000000000000000E+000
  0.000000000000000E+000
  0.000000000000000E+000
  0.000000000000000E+000
  0.000000000000000E+000
  0.000000000000000E+000
  0.000000000000000E+000
  0.000000000000000E+000
  0.000000000000000E+000
  0.000000000000000E+000
  0.000000000000000E+000
  0.000000000000000E+000
  0.000000000000000E+000
  0.000000000000000E+000
  0.000000000000000E+000
  0.000000000000000E+000
  0.000000000000000E+000
  0.000000000000000E+000
  0.000000000000000E+000
  0.000000000000000E+000
  0.000000000000000E+000
  0.000000000000000E+000
  0.000000000000000E+000
  0.000000000000000E+000
  0.000000000000000E+000
  0.000000000000000E+000
  0.000000000000000E+000
  0.000000000000000E+000
  0.000000000000000E+000
  0.000000000000000E+000
  0.000000000000000E+000
  0.000000000000000E+000
  0.000000000000000E+000
  0.000000000000000E+000
  0.000000000000000E+000
  0.000000000000000E+000
  0.000000000000000E+000
  0.000000000000000E+000
  0.000000000000000E+000
  0.000000000000000E+000
  0.000000000000000E+000
  0.000000000000000E+000
  0.000000000000000E+000
  0.000000000000000E+000
  0.000000000000000E+000
  0.000000000000000E+000
  0.000000000000000E+000
  0.000000000000000E+000
  0.000000000000000E+000
  0.000000000000000E+000
  0.000000000000000E+000
  0.000000000000000E+000
  0.000000000000000E+000
  0.000000000000000E+000
  0.000000000000000E+000
  0.000000000000000E+000
  0.000000000000000E+000
  0.000000000000000E+000
  0.000000000000000E+000
  0.000000000000000E+000
  0.000000000000000E+000
  0.000000000000000E+000
  0.000000000000000E+000
  0.000000000000000E+000
  0.000000000000000E+000
  0.000000000000000E+000
  0.000000000000000E+000
  0.000000000000000E+000
  0.000000000000000E+000
  0.000000000000000E+000
  0.000000000000000E+000
  0.000000000000000E+000
  0.000000000000000E+000
  0.000000000000000E+000
  0.000000000000000E+000
  0.000000000000000E+000
  0.000000000000000E+000
  0.000000000000000E+000
  0.000000000000000E+000
  0.000000000000000E+000
  0.000000000000000E+000
  0.000000000000000E+000
  0.000000000000000E+000
  0.000000000000000E+000
  0.000000000000000E+000
  0.000000000000000E+000
  0.000000000000000E+000
  0.000000000000000E+000
  0.000000000000000E+000
  0.000000000000000E+000
  0.000000000000000E+000
  0.000000000000000E+000
  0.000000000000000E+000
  0.000000000000000E+000
  0.000000000000000E+000
  0.000000000000000E+000
  0.000000000000000E+000
  0.000000000000000E+000
  0.000000000000000E+000
  0.000000000000000E+000
  0.000000000000000E+000
  0.000000000000000E+000
  0.000000000000000E+000
  0.000000000000000E+000
  0.000000000000000E+000
  0.000000000000000E+000
  0.000000000000000E+000
  0.000000000000000E+000
  0.000000000000000E+000
  0.000000000000000E+000
  0.000000000000000E+000
  0.000000000000000E+000
  0.000000000000000E+000
  0.000000000000000E+000
  0.000000000000000E+000
  0.000000000000000E+000
  0.000000000000000E+000
  0.000000000000000E+000
  0.000000000000000E+000
  0.000000000000000E+000
  0.000000000000000E+000
  0.000000000000000E+000
  0.000000000000000E+000
  0.000000000000000E+000
  0.000000000000000E+000
  0.000000000000000E+000
  0.000000000000000E+000
  0.000000000000000E+000
  0.000000000000000E+000
  0.000000000000000E+000
  0.000000000000000E+000
  0.000000000000000E+000
  0.000000000000000E+000
  0.000000000000000E+000
  0.000000000000000E+000
  0.000000000000000E+000
  0.000000000000000E+000
  0.000000000000000E+000
  0.000000000000000E+000
  0.000000000000000E+000
  0.000000000000000E+000
  0.000000000000000E+000
  0.000000000000000E+000
  0.000000000000000E+000
  0.000000000000000E+000
  0.000000000000000E+000
  0.000000000000000E+000
  0.000000000000000E+000
  0.000000000000000E+000
  0.000000000000000E+000
  0.000000000000000E+000
  0.000000000000000E+000
  0.000000000000000E+000
  0.000000000000000E+000
  0.000000000000000E+000
  0.000000000000000E+000
  0.000000000000000E+000
  0.000000000000000E+000
  0.000000000000000E+000
  0.000000000000000E+000
  0.000000000000000E+000
  0.000000000000000E+000
  0.000000000000000E+000
  0.000000000000000E+000
  0.000000000000000E+000
  0.000000000000000E+000
  0.000000000000000E+000
  0.000000000000000E+000
  0.000000000000000E+000
  0.000000000000000E+000
  0.000000000000000E+000
  0.000000000000000E+000
  0.000000000000000E+000
  0.000000000000000E+000
  0.000000000000000E+000
  0.000000000000000E+000
  0.000000000000000E+000
  0.000000000000000E+000
  0.000000000000000E+000
  0.000000000000000E+000
  0.000000000000000E+000
  0.000000000000000E+000
  0.000000000000000E+000
  0.000000000000000E+000
  0.000000000000000E+000
  0.000000000000000E+000
  0.000000000000000E+000
  0.000000000000000E+000
  0.000000000000000E+000
  0.000000000000000E+000
  0.000000000000000E+000
  0.000000000000000E+000
  0.000000000000000E+000
  0.000000000000000E+000
  0.000000000000000E+000
  0.000000000000000E+000
  0.000000000000000E+000
  0.000000000000000E+000
  0.000000000000000E+000
  0.000000000000000E+000
  0.000000000000000E+000
  0.000000000000000E+000
  0.000000000000000E+000
  0.000000000000000E+000
  0.000000000000000E+000
  0.000000000000000E+000
  0.000000000000000E+000
  0.000000000000000E+000
  0.000000000000000E+000
  0.000000000000000E+000
  0.000000000000000E+000
  0.000000000000000E+000
  0.000000000000000E+000
  0.000000000000000E+000
  0.000000000000000E+000
  0.000000000000000E+000
  0.000000000000000E+000
  0.000000000000000E+000
  0.000000000000000E+000
  0.000000000000000E+000
  0.000000000000000E+000
  0.000000000000000E+000
  0.000000000000000E+000
  0.000000000000000E+000
  0.000000000000000E+000
  0.000000000000000E+000
  0.000000000000000E+000
  0.000000000000000E+000
  0.000000000000000E+000
  0.000000000000000E+000
  0.000000000000000E+000
  0.000000000000000E+000
  0.000000000000000E+000
  0.000000000000000E+000
  0.000000000000000E+000
  0.000000000000000E+000
  0.000000000000000E+000
  0.000000000000000E+000
  0.000000000000000E+000
  0.000000000000000E+000
  0.000000000000000E+000
  0.000000000000000E+000
  0.000000000000000E+000
  0.000000000000000E+000
  0.000000000000000E+000
  0.000000000000000E+000
  0.000000000000000E+000
  0.000000000000000E+000
  0.000000000000000E+000
  0.000000000000000E+000
  0.000000000000000E+000
  0.000000000000000E+000
  0.000000000000000E+000
  0.000000000000000E+000
  0.000000000000000E+000
  0.000000000000000E+000
  0.000000000000000E+000
  0.000000000000000E+000
  0.000000000000000E+000
  0.000000000000000E+000
  0.000000000000000E+000
  0.000000000000000E+000
  0.000000000000000E+000
  0.000000000000000E+000
  0.000000000000000E+000
  0.000000000000000E+000
  0.000000000000000E+000
  0.000000000000000E+000
  0.000000000000000E+000
  0.000000000000000E+000
  0.000000000000000E+000
  0.000000000000000E+000
  0.000000000000000E+000
  0.000000000000000E+000
  0.000000000000000E+000
  0.000000000000000E+000
  0.000000000000000E+000
  0.000000000000000E+000
  0.000000000000000E+000
  0.000000000000000E+000
  0.000000000000000E+000
  0.000000000000000E+000
  0.000000000000000E+000
  0.000000000000000E+000
  0.000000000000000E+000
  0.000000000000000E+000
  0.000000000000000E+000
  0.000000000000000E+000
  0.000000000000000E+000
  0.000000000000000E+000
  0.000000000000000E+000
  0.000000000000000E+000
  0.000000000000000E+000
  0.000000000000000E+000
  0.000000000000000E+000
  0.000000000000000E+000
  0.000000000000000E+000
  0.000000000000000E+000
  0.000000000000000E+000
  0.000000000000000E+000
  0.000000000000000E+000
  0.000000000000000E+000
  0.000000000000000E+000
  0.000000000000000E+000
  0.000000000000000E+000
  0.000000000000000E+000
  0.000000000000000E+000
  0.000000000000000E+000
  0.000000000000000E+000
  0.000000000000000E+000
  0.000000000000000E+000
  0.000000000000000E+000
  0.000000000000000E+000
  0.000000000000000E+000
  0.000000000000000E+000
  0.000000000000000E+000
  0.000000000000000E+000
  0.000000000000000E+000
  0.000000000000000E+000
  0.000000000000000E+000
  0.000000000000000E+000
  0.000000000000000E+000
  0.000000000000000E+000
  0.000000000000000E+000
  0.000000000000000E+000
  0.000000000000000E+000
  0.000000000000000E+000
  0.000000000000000E+000
  0.000000000000000E+000
  0.000000000000000E+000
  0.000000000000000E+000
  0.000000000000000E+000
  0.000000000000000E+000
  0.000000000000000E+000
  0.000000000000000E+000
  0.000000000000000E+000
  0.000000000000000E+000
  0.000000000000000E+000
  0.000000000000000E+000
  0.000000000000000E+000
  0.000000000000000E+000
  0.000000000000000E+000
  0.000000000000000E+000
  0.000000000000000E+000
  0.000000000000000E+000
  0.000000000000000E+000
  0.000000000000000E+000
  0.000000000000000E+000
  0.000000000000000E+000
  0.000000000000000E+000
  0.000000000000000E+000
  0.000000000000000E+000
  0.000000000000000E+000
  0.000000000000000E+000
  0.000000000000000E+000
  0.000000000000000E+000
  0.000000000000000E+000
  0.000000000000000E+000
  0.000000000000000E+000
  0.000000000000000E+000
  0.000000000000000E+000
  0.000000000000000E+000
  0.000000000000000E+000
  0.000000000000000E+000
  0.000000000000000E+000
  0.000000000000000E+000
  0.000000000000000E+000
  0.000000000000000E+000
  0.000000000000000E+000
  0.000000000000000E+000
  0.000000000000000E+000
  0.000000000000000E+000
  0.000000000000000E+000
  0.000000000000000E+000
  0.000000000000000E+000
  0.000000000000000E+000
  0.000000000000000E+000
  0.000000000000000E+000
  0.000000000000000E+000
  0.000000000000000E+000
  0.000000000000000E+000
  0.000000000000000E+000
  0.000000000000000E+000
  0.000000000000000E+000
  0.000000000000000E+000
  0.000000000000000E+000
  0.000000000000000E+000
  0.000000000000000E+000
  0.000000000000000E+000
  0.000000000000000E+000
  0.000000000000000E+000
  0.000000000000000E+000
  0.000000000000000E+000
  0.000000000000000E+000
  0.000000000000000E+000
  0.000000000000000E+000
  0.000000000000000E+000
  0.000000000000000E+000
  0.000000000000000E+000
  0.000000000000000E+000
  0.000000000000000E+000
  0.000000000000000E+000
  0.000000000000000E+000
  0.000000000000000E+000
  0.000000000000000E+000
  0.000000000000000E+000
  0.000000000000000E+000
  0.000000000000000E+000
  0.000000000000000E+000
  0.000000000000000E+000
  0.000000000000000E+000
  0.000000000000000E+000
  0.000000000000000E+000
  0.000000000000000E+000
  0.000000000000000E+000
  0.000000000000000E+000
  0.000000000000000E+000
  0.000000000000000E+000
  0.000000000000000E+000
  0.000000000000000E+000
  0.000000000000000E+000
  0.000000000000000E+000
  0.000000000000000E+000
  0.000000000000000E+000
  0.000000000000000E+000
  0.000000000000000E+000
  0.000000000000000E+000
  0.000000000000000E+000
  0.000000000000000E+000
  0.000000000000000E+000
  0.000000000000000E+000
  0.000000000000000E+000
  0.000000000000000E+000
  0.000000000000000E+000
  0.000000000000000E+000
  0.000000000000000E+000
  0.000000000000000E+000
  0.000000000000000E+000
  0.000000000000000E+000
  0.000000000000000E+000
  0.000000000000000E+000
  0.000000000000000E+000
  0.000000000000000E+000
  0.000000000000000E+000
  0.000000000000000E+000
  0.000000000000000E+000
  0.000000000000000E+000
  0.000000000000000E+000
  0.000000000000000E+000
  0.000000000000000E+000
  0.000000000000000E+000
  0.000000000000000E+000
  0.000000000000000E+000
  0.000000000000000E+000
  0.000000000000000E+000
  0.000000000000000E+000
  0.000000000000000E+000
  0.000000000000000E+000
  0.000000000000000E+000
  0.000000000000000E+000
  0.000000000000000E+000
  0.000000000000000E+000
  0.000000000000000E+000
  0.000000000000000E+000
  0.000000000000000E+000
  0.000000000000000E+000
  0.000000000000000E+000
  0.000000000000000E+000
  0.000000000000000E+000
  0.000000000000000E+000
  0.000000000000000E+000
  0.000000000000000E+000
  0.000000000000000E+000
  0.000000000000000E+000
  0.000000000000000E+000
  0.000000000000000E+000
  0.000000000000000E+000
  0.000000000000000E+000
  0.000000000000000E+000
  0.000000000000000E+000
  0.000000000000000E+000
  0.000000000000000E+000
  0.000000000000000E+000
  0.000000000000000E+000
  0.000000000000000E+000
  0.000000000000000E+000
  0.000000000000000E+000
  0.000000000000000E+000
  0.000000000000000E+000
  0.000000000000000E+000
  0.000000000000000E+000
  0.000000000000000E+000
  0.000000000000000E+000
  0.000000000000000E+000
  0.000000000000000E+000
  0.000000000000000E+000
  0.000000000000000E+000
  0.000000000000000E+000
  0.000000000000000E+000
  0.000000000000000E+000
  0.000000000000000E+000
  0.000000000000000E+000
  0.000000000000000E+000
  0.000000000000000E+000
  0.000000000000000E+000
  0.000000000000000E+000
  0.000000000000000E+000
  0.000000000000000E+000
  0.000000000000000E+000
  0.000000000000000E+000
  0.000000000000000E+000
  0.000000000000000E+000
  0.000000000000000E+000
  0.000000000000000E+000
  0.000000000000000E+000
  0.000000000000000E+000
  0.000000000000000E+000
  0.000000000000000E+000
  0.000000000000000E+000
  0.000000000000000E+000
  0.000000000000000E+000
  0.000000000000000E+000
  0.000000000000000E+000
  0.000000000000000E+000
  0.000000000000000E+000
  0.000000000000000E+000
  0.000000000000000E+000
  0.000000000000000E+000
  0.000000000000000E+000
  0.000000000000000E+000
  0.000000000000000E+000
  0.000000000000000E+000
  0.000000000000000E+000
  0.000000000000000E+000
  0.000000000000000E+000
  0.000000000000000E+000
  0.000000000000000E+000
  0.000000000000000E+000
  0.000000000000000E+000
  0.000000000000000E+000
  0.000000000000000E+000
  0.000000000000000E+000
  0.000000000000000E+000
  0.000000000000000E+000
  0.000000000000000E+000
  0.000000000000000E+000
  0.000000000000000E+000
  0.000000000000000E+000
  0.000000000000000E+000
  0.000000000000000E+000
  0.000000000000000E+000
  0.000000000000000E+000
  0.000000000000000E+000
  0.000000000000000E+000
  0.000000000000000E+000
  0.000000000000000E+000
  0.000000000000000E+000
  0.000000000000000E+000
  0.000000000000000E+000
  0.000000000000000E+000
  0.000000000000000E+000
  0.000000000000000E+000
  0.000000000000000E+000
  0.000000000000000E+000
  0.000000000000000E+000
  0.000000000000000E+000
  0.000000000000000E+000
  0.000000000000000E+000
  0.000000000000000E+000
  0.000000000000000E+000
  0.000000000000000E+000
  0.000000000000000E+000
  0.000000000000000E+000
  0.000000000000000E+000
  0.000000000000000E+000
  0.000000000000000E+000
  0.000000000000000E+000
  0.000000000000000E+000
  0.000000000000000E+000
  0.000000000000000E+000
  0.000000000000000E+000
  0.000000000000000E+000
  0.000000000000000E+000
  0.000000000000000E+000
  0.000000000000000E+000
  0.000000000000000E+000
  0.000000000000000E+000
  0.000000000000000E+000
  0.000000000000000E+000
  0.000000000000000E+000
  0.000000000000000E+000
  0.000000000000000E+000
  0.000000000000000E+000
  0.000000000000000E+000
  0.000000000000000E+000
  0.000000000000000E+000
  0.000000000000000E+000
  0.000000000000000E+000
  0.000000000000000E+000
  0.000000000000000E+000
  0.000000000000000E+000
  0.000000000000000E+000
  0.000000000000000E+000
  0.000000000000000E+000
  0.000000000000000E+000
  0.000000000000000E+000
  0.000000000000000E+000
  0.000000000000000E+000
  0.000000000000000E+000
  0.000000000000000E+000
  0.000000000000000E+000
  0.000000000000000E+000
  0.000000000000000E+000
  0.000000000000000E+000
  0.000000000000000E+000
  0.000000000000000E+000
  0.000000000000000E+000
  0.000000000000000E+000
  0.000000000000000E+000
  0.000000000000000E+000
  0.000000000000000E+000
  0.000000000000000E+000
  0.000000000000000E+000
  0.000000000000000E+000
  0.000000000000000E+000
  0.000000000000000E+000
  0.000000000000000E+000
  0.000000000000000E+000
  0.000000000000000E+000
  0.000000000000000E+000
  0.000000000000000E+000
  0.000000000000000E+000
  0.000000000000000E+000
  0.000000000000000E+000
  0.000000000000000E+000
  0.000000000000000E+000
  0.000000000000000E+000
  0.000000000000000E+000
  0.000000000000000E+000
  0.000000000000000E+000
  0.000000000000000E+000
  0.000000000000000E+000
  0.000000000000000E+000
  0.000000000000000E+000
  0.000000000000000E+000
  0.000000000000000E+000
  0.000000000000000E+000
  0.000000000000000E+000
  0.000000000000000E+000
  0.000000000000000E+000
  0.000000000000000E+000
  0.000000000000000E+000
  0.000000000000000E+000
  0.000000000000000E+000
  0.000000000000000E+000
  0.000000000000000E+000
  0.000000000000000E+000
  0.000000000000000E+000
  0.000000000000000E+000
  0.000000000000000E+000
  0.000000000000000E+000
  0.000000000000000E+000
  0.000000000000000E+000
  0.000000000000000E+000
  0.000000000000000E+000
  0.000000000000000E+000
  0.000000000000000E+000
  0.000000000000000E+000
  0.000000000000000E+000
  0.000000000000000E+000
  0.000000000000000E+000
  0.000000000000000E+000
  0.000000000000000E+000
  0.000000000000000E+000
  0.000000000000000E+000
  0.000000000000000E+000
  0.000000000000000E+000
  0.000000000000000E+000
  0.000000000000000E+000
  0.000000000000000E+000
  0.000000000000000E+000
  0.000000000000000E+000
  0.000000000000000E+000
  0.000000000000000E+000
  0.000000000000000E+000
  0.000000000000000E+000
  0.000000000000000E+000
  0.000000000000000E+000
  0.000000000000000E+000
  0.000000000000000E+000
  0.000000000000000E+000
  0.000000000000000E+000
  0.000000000000000E+000
  0.000000000000000E+000
  0.000000000000000E+000
  0.000000000000000E+000
  0.000000000000000E+000
  0.000000000000000E+000
  0.000000000000000E+000
  0.000000000000000E+000
  0.000000000000000E+000
  0.000000000000000E+000
  0.000000000000000E+000
  0.000000000000000E+000
  0.000000000000000E+000
  0.000000000000000E+000
  0.000000000000000E+000
  0.000000000000000E+000
  0.000000000000000E+000
  0.000000000000000E+000
  0.000000000000000E+000
  0.000000000000000E+000
  0.000000000000000E+000
  0.000000000000000E+000
  0.000000000000000E+000
  0.000000000000000E+000
  0.000000000000000E+000
  0.000000000000000E+000
  0.000000000000000E+000
  0.000000000000000E+000
  0.000000000000000E+000
  0.000000000000000E+000
  0.000000000000000E+000
  0.000000000000000E+000
  0.000000000000000E+000
  0.000000000000000E+000
  0.000000000000000E+000
  0.000000000000000E+000
  0.000000000000000E+000
  0.000000000000000E+000
  0.000000000000000E+000
  0.000000000000000E+000
  0.000000000000000E+000
  0.000000000000000E+000
  0.000000000000000E+000
  0.000000000000000E+000
  0.000000000000000E+000
  0.000000000000000E+000
  0.000000000000000E+000
  0.000000000000000E+000
  0.000000000000000E+000
  0.000000000000000E+000
  0.000000000000000E+000
  0.000000000000000E+000
  0.000000000000000E+000
  0.000000000000000E+000
  0.000000000000000E+000
  0.000000000000000E+000
  0.000000000000000E+000
  0.000000000000000E+000
  0.000000000000000E+000
  0.000000000000000E+000
  0.000000000000000E+000
  0.000000000000000E+000
  0.000000000000000E+000
  0.000000000000000E+000
  0.000000000000000E+000
  0.000000000000000E+000
  0.000000000000000E+000
  0.000000000000000E+000
  0.000000000000000E+000
  0.000000000000000E+000
  0.000000000000000E+000
  0.000000000000000E+000
  0.000000000000000E+000
  0.000000000000000E+000
  0.000000000000000E+000
  0.000000000000000E+000
  0.000000000000000E+000
  0.000000000000000E+000
  0.000000000000000E+000
  0.000000000000000E+000
  0.000000000000000E+000
  0.000000000000000E+000
  0.000000000000000E+000
  0.000000000000000E+000
  0.000000000000000E+000
  0.000000000000000E+000
  0.000000000000000E+000
  0.000000000000000E+000
  0.000000000000000E+000
  0.000000000000000E+000
  0.000000000000000E+000
  0.000000000000000E+000
  0.000000000000000E+000
  0.000000000000000E+000
  0.000000000000000E+000
  0.000000000000000E+000
  0.000000000000000E+000
  0.000000000000000E+000
  0.000000000000000E+000
  0.000000000000000E+000
  0.000000000000000E+000
  0.000000000000000E+000
  0.000000000000000E+000
  0.000000000000000E+000
  0.000000000000000E+000
  0.000000000000000E+000
  0.000000000000000E+000
  0.000000000000000E+000
  0.000000000000000E+000
  0.000000000000000E+000
  0.000000000000000E+000
  0.000000000000000E+000
  0.000000000000000E+000
  0.000000000000000E+000
  0.000000000000000E+000
  0.000000000000000E+000
  0.000000000000000E+000
  0.000000000000000E+000
  0.000000000000000E+000
  0.000000000000000E+000
  0.000000000000000E+000
  0.000000000000000E+000
  0.000000000000000E+000
  0.000000000000000E+000
  0.000000000000000E+000
  0.000000000000000E+000
  0.000000000000000E+000
  0.000000000000000E+000
  0.000000000000000E+000
  0.000000000000000E+000
  0.000000000000000E+000
  0.000000000000000E+000
  0.000000000000000E+000
  0.000000000000000E+000
  0.000000000000000E+000
  0.000000000000000E+000
  0.000000000000000E+000
  0.000000000000000E+000
  0.000000000000000E+000
  0.000000000000000E+000
  0.000000000000000E+000
  0.000000000000000E+000
  0.000000000000000E+000
  0.000000000000000E+000
  0.000000000000000E+000
  0.000000000000000E+000
  0.000000000000000E+000
  0.000000000000000E+000
  0.000000000000000E+000
  0.000000000000000E+000
  0.000000000000000E+000
  0.000000000000000E+000
  0.000000000000000E+000
  0.000000000000000E+000
  0.000000000000000E+000
  0.000000000000000E+000
  0.000000000000000E+000
  0.000000000000000E+000
  0.000000000000000E+000
  0.000000000000000E+000
  0.000000000000000E+000
  0.000000000000000E+000
  0.000000000000000E+000
  0.000000000000000E+000
  0.000000000000000E+000
  0.000000000000000E+000
  0.000000000000000E+000
  0.000000000000000E+000
  0.000000000000000E+000
  0.000000000000000E+000
  0.000000000000000E+000
  0.000000000000000E+000
  0.000000000000000E+000
  0.000000000000000E+000
  0.000000000000000E+000
  0.000000000000000E+000
  0.000000000000000E+000
  0.000000000000000E+000
  0.000000000000000E+000
  0.000000000000000E+000
  0.000000000000000E+000
  0.000000000000000E+000
  0.000000000000000E+000
  0.000000000000000E+000
  0.000000000000000E+000
  0.000000000000000E+000
  0.000000000000000E+000
  0.000000000000000E+000
  0.000000000000000E+000
  0.000000000000000E+000
  0.000000000000000E+000
  0.000000000000000E+000
  0.000000000000000E+000
  0.000000000000000E+000
  0.000000000000000E+000
  0.000000000000000E+000
  0.000000000000000E+000
  0.000000000000000E+000
  0.000000000000000E+000
  0.000000000000000E+000
  0.000000000000000E+000
  0.000000000000000E+000
  0.000000000000000E+000
  0.000000000000000E+000
  0.000000000000000E+000
  0.000000000000000E+000
  0.000000000000000E+000
  0.000000000000000E+000
  0.000000000000000E+000
  0.000000000000000E+000
  0.000000000000000E+000
  0.000000000000000E+000
  0.000000000000000E+000
  0.000000000000000E+000
  0.000000000000000E+000
  0.000000000000000E+000
  0.000000000000000E+000
  0.000000000000000E+000
  0.000000000000000E+000
  0.000000000000000E+000
  0.000000000000000E+000
  0.000000000000000E+000
  0.000000000000000E+000
  0.000000000000000E+000
  0.000000000000000E+000
  0.000000000000000E+000
  0.000000000000000E+000
  0.000000000000000E+000
  0.000000000000000E+000
  0.000000000000000E+000
  0.000000000000000E+000
  0.000000000000000E+000
  0.000000000000000E+000
  0.000000000000000E+000
  0.000000000000000E+000
  0.000000000000000E+000
  0.000000000000000E+000
  0.000000000000000E+000
  0.000000000000000E+000
  0.000000000000000E+000
  0.000000000000000E+000
  0.000000000000000E+000
  0.000000000000000E+000
  0.000000000000000E+000
  0.000000000000000E+000
  0.000000000000000E+000
  0.000000000000000E+000
  0.000000000000000E+000
  0.000000000000000E+000
  0.000000000000000E+000
  0.000000000000000E+000
  0.000000000000000E+000
  0.000000000000000E+000
  0.000000000000000E+000
  0.000000000000000E+000
  0.000000000000000E+000
  0.000000000000000E+000
  0.000000000000000E+000
  0.000000000000000E+000
  0.000000000000000E+000
  0.000000000000000E+000
  0.000000000000000E+000
  0.000000000000000E+000
  0.000000000000000E+000
  0.000000000000000E+000
  0.000000000000000E+000
  0.000000000000000E+000
  0.000000000000000E+000
  0.000000000000000E+000
  0.000000000000000E+000
  0.000000000000000E+000
  0.000000000000000E+000
  0.000000000000000E+000
  0.000000000000000E+000
  0.000000000000000E+000
  0.000000000000000E+000
  0.000000000000000E+000
  0.000000000000000E+000
  0.000000000000000E+000
  0.000000000000000E+000
  0.000000000000000E+000
  0.000000000000000E+000
  0.000000000000000E+000
  0.000000000000000E+000
  0.000000000000000E+000
  0.000000000000000E+000
  0.000000000000000E+000
  0.000000000000000E+000
  0.000000000000000E+000
  0.000000000000000E+000
  0.000000000000000E+000
  0.000000000000000E+000
  0.000000000000000E+000
  0.000000000000000E+000
  0.000000000000000E+000
  0.000000000000000E+000
  0.000000000000000E+000
  0.000000000000000E+000
  0.000000000000000E+000
  0.000000000000000E+000
  0.000000000000000E+000
  0.000000000000000E+000
  0.000000000000000E+000
  0.000000000000000E+000
  0.000000000000000E+000
  0.000000000000000E+000
  0.000000000000000E+000
  0.000000000000000E+000
  0.000000000000000E+000
  0.000000000000000E+000
  0.000000000000000E+000
  0.000000000000000E+000
  0.000000000000000E+000
  0.000000000000000E+000
  0.000000000000000E+000
  0.000000000000000E+000
  0.000000000000000E+000
  0.000000000000000E+000
  0.000000000000000E+000
  0.000000000000000E+000
  0.000000000000000E+000
  0.000000000000000E+000
  0.000000000000000E+000
  0.000000000000000E+000
  0.000000000000000E+000
  0.000000000000000E+000
  0.000000000000000E+000
  0.000000000000000E+000
  0.000000000000000E+000
  0.000000000000000E+000
  0.000000000000000E+000
  0.000000000000000E+000
  0.000000000000000E+000
  0.000000000000000E+000
  0.000000000000000E+000
  0.000000000000000E+000
  0.000000000000000E+000
  0.000000000000000E+000
  0.000000000000000E+000
  0.000000000000000E+000
  0.000000000000000E+000
  0.000000000000000E+000
  0.000000000000000E+000
  0.000000000000000E+000
  0.000000000000000E+000
  0.000000000000000E+000
  0.000000000000000E+000
  0.000000000000000E+000
  0.000000000000000E+000
  0.000000000000000E+000
  0.000000000000000E+000
  0.000000000000000E+000
  0.000000000000000E+000
  0.000000000000000E+000
  0.000000000000000E+000
  0.000000000000000E+000
  0.000000000000000E+000
  0.000000000000000E+000
  0.000000000000000E+000
  0.000000000000000E+000
  0.000000000000000E+000
  0.000000000000000E+000
  0.000000000000000E+000
  0.000000000000000E+000
  0.000000000000000E+000
  0.000000000000000E+000
  0.000000000000000E+000
  0.000000000000000E+000
  0.000000000000000E+000
  0.000000000000000E+000
  0.000000000000000E+000
  0.000000000000000E+000
  0.000000000000000E+000
  0.000000000000000E+000
  0.000000000000000E+000
  0.000000000000000E+000
  0.000000000000000E+000
  0.000000000000000E+000
  0.000000000000000E+000
  0.000000000000000E+000
  0.000000000000000E+000
  0.000000000000000E+000
  0.000000000000000E+000
  0.000000000000000E+000
  0.000000000000000E+000
  0.000000000000000E+000
  0.000000000000000E+000
  0.000000000000000E+000
  0.000000000000000E+000
  0.000000000000000E+000
  0.000000000000000E+000
  0.000000000000000E+000
  0.000000000000000E+000
  0.000000000000000E+000
  0.000000000000000E+000
  0.000000000000000E+000
  0.000000000000000E+000
  0.000000000000000E+000
  0.000000000000000E+000
  0.000000000000000E+000
  0.000000000000000E+000
  0.000000000000000E+000
  0.000000000000000E+000
  0.000000000000000E+000
  0.000000000000000E+000
  0.000000000000000E+000
  0.000000000000000E+000
  0.000000000000000E+000
  0.000000000000000E+000
  0.000000000000000E+000
  0.000000000000000E+000
  0.000000000000000E+000
  0.000000000000000E+000
  0.000000000000000E+000
  0.000000000000000E+000
  0.000000000000000E+000
  0.000000000000000E+000
  0.000000000000000E+000
  0.000000000000000E+000
  0.000000000000000E+000
  0.000000000000000E+000
  0.000000000000000E+000
  0.000000000000000E+000
  0.000000000000000E+000
  0.000000000000000E+000
  0.000000000000000E+000
  0.000000000000000E+000
  0.000000000000000E+000
  0.000000000000000E+000
  0.000000000000000E+000
  0.000000000000000E+000
  0.000000000000000E+000
  0.000000000000000E+000
  0.000000000000000E+000
  0.000000000000000E+000
  0.000000000000000E+000
  0.000000000000000E+000
  0.000000000000000E+000
  0.000000000000000E+000
  0.000000000000000E+000
  0.000000000000000E+000
  0.000000000000000E+000
  0.000000000000000E+000
  0.000000000000000E+000
  0.000000000000000E+000
  0.000000000000000E+000
  0.000000000000000E+000
  0.000000000000000E+000
  0.000000000000000E+000
  0.000000000000000E+000
  0.000000000000000E+000
  0.000000000000000E+000
  0.000000000000000E+000
  0.000000000000000E+000
  0.000000000000000E+000
  0.000000000000000E+000
  0.000000000000000E+000
  0.000000000000000E+000
  0.000000000000000E+000
  0.000000000000000E+000
  0.000000000000000E+000
  0.000000000000000E+000
  0.000000000000000E+000
  0.000000000000000E+000
  0.000000000000000E+000
  0.000000000000000E+000
  0.000000000000000E+000
  0.000000000000000E+000
  0.000000000000000E+000
  0.000000000000000E+000
  0.000000000000000E+000
  0.000000000000000E+000
  0.000000000000000E+000
  0.000000000000000E+000
  0.000000000000000E+000
  0.000000000000000E+000
  0.000000000000000E+000
  0.000000000000000E+000
  0.000000000000000E+000
  0.000000000000000E+000
  0.000000000000000E+000
  0.000000000000000E+000
  0.000000000000000E+000
  0.000000000000000E+000
  0.000000000000000E+000
  0.000000000000000E+000
  0.000000000000000E+000
  0.000000000000000E+000
  0.000000000000000E+000
  0.000000000000000E+000
  0.000000000000000E+000
  0.000000000000000E+000
  0.000000000000000E+000
  0.000000000000000E+000
  0.000000000000000E+000
  0.000000000000000E+000
  0.000000000000000E+000
  0.000000000000000E+000
  0.000000000000000E+000
  0.000000000000000E+000
  0.000000000000000E+000
  0.000000000000000E+000
  0.000000000000000E+000
  0.000000000000000E+000
  0.000000000000000E+000
  0.000000000000000E+000
  0.000000000000000E+000
  0.000000000000000E+000
  0.000000000000000E+000
  0.000000000000000E+000
  0.000000000000000E+000
  0.000000000000000E+000
  0.000000000000000E+000
  0.000000000000000E+000
  0.000000000000000E+000
  0.000000000000000E+000
  0.000000000000000E+000
  0.000000000000000E+000
  0.000000000000000E+000
  0.000000000000000E+000
  0.000000000000000E+000
  0.000000000000000E+000
  0.000000000000000E+000
  0.000000000000000E+000
  0.000000000000000E+000
  0.000000000000000E+000
  0.000000000000000E+000
  0.000000000000000E+000
  0.000000000000000E+000
  0.000000000000000E+000
  0.000000000000000E+000
  0.000000000000000E+000
  0.000000000000000E+000
  0.000000000000000E+000
  0.000000000000000E+000
  0.000000000000000E+000
  0.000000000000000E+000
  0.000000000000000E+000
  0.000000000000000E+000
  0.000000000000000E+000
  0.000000000000000E+000
  0.000000000000000E+000
  0.000000000000000E+000
  0.000000000000000E+000
  0.000000000000000E+000
  0.000000000000000E+000
  0.000000000000000E+000
  0.000000000000000E+000
  0.000000000000000E+000
  0.000000000000000E+000
  0.000000000000000E+000
  0.000000000000000E+000
  0.000000000000000E+000
  0.000000000000000E+000
  0.000000000000000E+000
  0.000000000000000E+000
  0.000000000000000E+000
  0.000000000000000E+000
  0.000000000000000E+000
  0.000000000000000E+000
  0.000000000000000E+000
  0.000000000000000E+000
  0.000000000000000E+000
  0.000000000000000E+000
  0.000000000000000E+000
  0.000000000000000E+000
  0.000000000000000E+000
  0.000000000000000E+000
  0.000000000000000E+000
  0.000000000000000E+000
  0.000000000000000E+000
  0.000000000000000E+000
  0.000000000000000E+000
  0.000000000000000E+000
  0.000000000000000E+000
  0.000000000000000E+000
  0.000000000000000E+000
  0.000000000000000E+000
  0.000000000000000E+000
  0.000000000000000E+000
  0.000000000000000E+000
  0.000000000000000E+000
  0.000000000000000E+000
  0.000000000000000E+000
  0.000000000000000E+000
  0.000000000000000E+000
  0.000000000000000E+000
  0.000000000000000E+000
  0.000000000000000E+000
  0.000000000000000E+000
  0.000000000000000E+000
  0.000000000000000E+000
  0.000000000000000E+000
  0.000000000000000E+000
  0.000000000000000E+000
  0.000000000000000E+000
  0.000000000000000E+000
  0.000000000000000E+000
  0.000000000000000E+000
  0.000000000000000E+000
  0.000000000000000E+000
  0.000000000000000E+000
  0.000000000000000E+000
  0.000000000000000E+000
  0.000000000000000E+000
  0.000000000000000E+000
  0.000000000000000E+000
  0.000000000000000E+000
  0.000000000000000E+000
  0.000000000000000E+000
  0.000000000000000E+000
  0.000000000000000E+000
  0.000000000000000E+000
  0.000000000000000E+000
  0.000000000000000E+000
  0.000000000000000E+000
  0.000000000000000E+000
  0.000000000000000E+000
  0.000000000000000E+000
  0.000000000000000E+000
  0.000000000000000E+000
  0.000000000000000E+000
  0.000000000000000E+000
  0.000000000000000E+000
  0.000000000000000E+000
  0.000000000000000E+000
  0.000000000000000E+000
  0.000000000000000E+000
  0.000000000000000E+000
  0.000000000000000E+000
  0.000000000000000E+000
  0.000000000000000E+000
  0.000000000000000E+000
  0.000000000000000E+000
  0.000000000000000E+000
  0.000000000000000E+000
  0.000000000000000E+000
  0.000000000000000E+000
  0.000000000000000E+000
  0.000000000000000E+000
  0.000000000000000E+000
  0.000000000000000E+000
  0.000000000000000E+000
  0.000000000000000E+000
  0.000000000000000E+000
  0.000000000000000E+000
  0.000000000000000E+000
  0.000000000000000E+000
  0.000000000000000E+000
  0.000000000000000E+000
  0.000000000000000E+000
  0.000000000000000E+000
  0.000000000000000E+000
  0.000000000000000E+000
  0.000000000000000E+000
  0.000000000000000E+000
  0.000000000000000E+000
  0.000000000000000E+000
  0.000000000000000E+000
  0.000000000000000E+000
  0.000000000000000E+000
  0.000000000000000E+000
  0.000000000000000E+000
  0.000000000000000E+000
  0.000000000000000E+000
  0.000000000000000E+000
  0.000000000000000E+000
  0.000000000000000E+000
  0.000000000000000E+000
  0.000000000000000E+000
  0.000000000000000E+000
  0.000000000000000E+000
  0.000000000000000E+000
  0.000000000000000E+000
  0.000000000000000E+000
  0.000000000000000E+000
  0.000000000000000E+000
  0.000000000000000E+000
  0.000000000000000E+000
  0.000000000000000E+000
  0.000000000000000E+000
  0.000000000000000E+000
  0.000000000000000E+000
  0.000000000000000E+000
  0.000000000000000E+000
  0.000000000000000E+000
  0.000000000000000E+000
  0.000000000000000E+000
  0.000000000000000E+000
  0.000000000000000E+000
  0.000000000000000E+000
  0.000000000000000E+000
  0.000000000000000E+000
  0.000000000000000E+000
  0.000000000000000E+000
  0.000000000000000E+000
  0.000000000000000E+000
  0.000000000000000E+000
  0.000000000000000E+000
  0.000000000000000E+000
  0.000000000000000E+000
  0.000000000000000E+000
  0.000000000000000E+000
  0.000000000000000E+000
  0.000000000000000E+000
  0.000000000000000E+000
  0.000000000000000E+000
  0.000000000000000E+000
  0.000000000000000E+000
  0.000000000000000E+000
  0.000000000000000E+000
  0.000000000000000E+000
  0.000000000000000E+000
  0.000000000000000E+000
  0.000000000000000E+000
  0.000000000000000E+000
  0.000000000000000E+000
  0.000000000000000E+000
  0.000000000000000E+000
  0.000000000000000E+000
  0.000000000000000E+000
  0.000000000000000E+000
  0.000000000000000E+000
  0.000000000000000E+000
  0.000000000000000E+000
  0.000000000000000E+000
  0.000000000000000E+000
  0.000000000000000E+000
  0.000000000000000E+000
  0.000000000000000E+000
  0.000000000000000E+000
  0.000000000000000E+000
  0.000000000000000E+000
  0.000000000000000E+000
  0.000000000000000E+000
  0.000000000000000E+000
  0.000000000000000E+000
  0.000000000000000E+000
  0.000000000000000E+000
  0.000000000000000E+000
  0.000000000000000E+000
  0.000000000000000E+000
  0.000000000000000E+000
  0.000000000000000E+000
  0.000000000000000E+000
  0.000000000000000E+000
  0.000000000000000E+000
  0.000000000000000E+000
  0.000000000000000E+000
  0.000000000000000E+000
  0.000000000000000E+000
  0.000000000000000E+000
  0.000000000000000E+000
  0.000000000000000E+000
  0.000000000000000E+000
  0.000000000000000E+000
  0.000000000000000E+000
  0.000000000000000E+000
  0.000000000000000E+000
  0.000000000000000E+000
  0.000000000000000E+000
  0.000000000000000E+000
  0.000000000000000E+000
  0.000000000000000E+000
  0.000000000000000E+000
  0.000000000000000E+000
  0.000000000000000E+000
  0.000000000000000E+000
  0.000000000000000E+000
  0.000000000000000E+000
  0.000000000000000E+000
  0.000000000000000E+000
  0.000000000000000E+000
  0.000000000000000E+000
  0.000000000000000E+000
  0.000000000000000E+000
  0.000000000000000E+000
  0.000000000000000E+000
  0.000000000000000E+000
  0.000000000000000E+000
  0.000000000000000E+000
  0.000000000000000E+000
  0.000000000000000E+000
  0.000000000000000E+000
  0.000000000000000E+000
  0.000000000000000E+000
  0.000000000000000E+000
  0.000000000000000E+000
  0.000000000000000E+000
  0.000000000000000E+000
  0.000000000000000E+000
  0.000000000000000E+000
  0.000000000000000E+000
  0.000000000000000E+000
  0.000000000000000E+000
  0.000000000000000E+000
  0.000000000000000E+000
  0.000000000000000E+000
  0.000000000000000E+000
  0.000000000000000E+000
  0.000000000000000E+000
  0.000000000000000E+000
  0.000000000000000E+000
  0.000000000000000E+000
  0.000000000000000E+000
  0.000000000000000E+000
  0.000000000000000E+000
  0.000000000000000E+000
  0.000000000000000E+000
  0.000000000000000E+000
  0.000000000000000E+000
  0.000000000000000E+000
  0.000000000000000E+000
  0.000000000000000E+000
  0.000000000000000E+000
  0.000000000000000E+000
  0.000000000000000E+000
  0.000000000000000E+000
  0.000000000000000E+000
  0.000000000000000E+000
  0.000000000000000E+000
  0.000000000000000E+000
  0.000000000000000E+000
  0.000000000000000E+000
  0.000000000000000E+000
  0.000000000000000E+000
  0.000000000000000E+000
  0.000000000000000E+000
  0.000000000000000E+000
  0.000000000000000E+000
  0.000000000000000E+000
  0.000000000000000E+000
  0.000000000000000E+000
  0.000000000000000E+000
  0.000000000000000E+000
  0.000000000000000E+000
  0.000000000000000E+000
  0.000000000000000E+000
  0.000000000000000E+000
  0.000000000000000E+000
  0.000000000000000E+000
  0.000000000000000E+000
  0.000000000000000E+000
  0.000000000000000E+000
  0.000000000000000E+000
  0.000000000000000E+000
  0.000000000000000E+000
  0.000000000000000E+000
  0.000000000000000E+000
  0.000000000000000E+000
  0.000000000000000E+000
  0.000000000000000E+000
  0.000000000000000E+000
  0.000000000000000E+000
  0.000000000000000E+000
  0.000000000000000E+000
  0.000000000000000E+000
  0.000000000000000E+000
  0.000000000000000E+000
  0.000000000000000E+000
  0.000000000000000E+000
  0.000000000000000E+000
  0.000000000000000E+000
  0.000000000000000E+000
  0.000000000000000E+000
  0.000000000000000E+000
  0.000000000000000E+000
  0.000000000000000E+000
  0.000000000000000E+000
  0.000000000000000E+000
  0.000000000000000E+000
  0.000000000000000E+000
  0.000000000000000E+000
  0.000000000000000E+000
  0.000000000000000E+000
  0.000000000000000E+000
  0.000000000000000E+000
  0.000000000000000E+000
  0.000000000000000E+000
  0.000000000000000E+000
  0.000000000000000E+000
  0.000000000000000E+000
  0.000000000000000E+000
  0.000000000000000E+000
  0.000000000000000E+000
  0.000000000000000E+000
  0.000000000000000E+000
  0.000000000000000E+000
  0.000000000000000E+000
  0.000000000000000E+000
  0.000000000000000E+000
  0.000000000000000E+000
  0.000000000000000E+000
  0.000000000000000E+000
  0.000000000000000E+000
  0.000000000000000E+000
  0.000000000000000E+000
  0.000000000000000E+000
  0.000000000000000E+000
  0.000000000000000E+000
  0.000000000000000E+000
  0.000000000000000E+000
  0.000000000000000E+000
  0.000000000000000E+000
  0.000000000000000E+000
  0.000000000000000E+000
  0.000000000000000E+000
  0.000000000000000E+000
  0.000000000000000E+000
  0.000000000000000E+000
  0.000000000000000E+000
  0.000000000000000E+000
  0.000000000000000E+000
  0.000000000000000E+000
  0.000000000000000E+000
  0.000000000000000E+000
  0.000000000000000E+000
  0.000000000000000E+000
  0.000000000000000E+000
  0.000000000000000E+000
  0.000000000000000E+000
  0.000000000000000E+000
  0.000000000000000E+000
  0.000000000000000E+000
  0.000000000000000E+000
  0.000000000000000E+000
  0.000000000000000E+000
  0.000000000000000E+000
  0.000000000000000E+000
  0.000000000000000E+000
  0.000000000000000E+000
  0.000000000000000E+000
  0.000000000000000E+000
  0.000000000000000E+000
  0.000000000000000E+000
  0.000000000000000E+000
  0.000000000000000E+000
  0.000000000000000E+000
  0.000000000000000E+000
  0.000000000000000E+000
  0.000000000000000E+000
  0.000000000000000E+000
  0.000000000000000E+000
  0.000000000000000E+000
  0.000000000000000E+000
  0.000000000000000E+000
  0.000000000000000E+000
  0.000000000000000E+000
  0.000000000000000E+000
  0.000000000000000E+000
  0.000000000000000E+000
  0.000000000000000E+000
  0.000000000000000E+000
  0.000000000000000E+000
  0.000000000000000E+000
  0.000000000000000E+000
  0.000000000000000E+000
  0.000000000000000E+000
  0.000000000000000E+000
  0.000000000000000E+000
  0.000000000000000E+000
  0.000000000000000E+000
  0.000000000000000E+000
  0.000000000000000E+000
  0.000000000000000E+000
  0.000000000000000E+000
  0.000000000000000E+000
  0.000000000000000E+000
  0.000000000000000E+000
  0.000000000000000E+000
  0.000000000000000E+000
  0.000000000000000E+000
  0.000000000000000E+000
  0.000000000000000E+000
  0.000000000000000E+000
  0.000000000000000E+000
  0.000000000000000E+000
  0.000000000000000E+000
  0.000000000000000E+000
  0.000000000000000E+000
  0.000000000000000E+000
  0.000000000000000E+000
  0.000000000000000E+000
  0.000000000000000E+000
  0.000000000000000E+000
  0.000000000000000E+000
  0.000000000000000E+000
  0.000000000000000E+000
  0.000000000000000E+000
  0.000000000000000E+000
  0.000000000000000E+000
  0.000000000000000E+000
  0.000000000000000E+000
  0.000000000000000E+000
  0.000000000000000E+000
  0.000000000000000E+000
  0.000000000000000E+000
  0.000000000000000E+000
  0.000000000000000E+000
  0.000000000000000E+000
  0.000000000000000E+000
  0.000000000000000E+000
  0.000000000000000E+000
  0.000000000000000E+000
  0.000000000000000E+000
  0.000000000000000E+000
  0.000000000000000E+000
  0.000000000000000E+000
  0.000000000000000E+000
  0.000000000000000E+000
  0.000000000000000E+000
  0.000000000000000E+000
  0.000000000000000E+000
  0.000000000000000E+000
  0.000000000000000E+000
  0.000000000000000E+000
  0.000000000000000E+000
  0.000000000000000E+000
  0.000000000000000E+000
  0.000000000000000E+000
  0.000000000000000E+000
  0.000000000000000E+000
  0.000000000000000E+000
  0.000000000000000E+000
  0.000000000000000E+000
  0.000000000000000E+000
  0.000000000000000E+000
  0.000000000000000E+000
  0.000000000000000E+000
  0.000000000000000E+000
  0.000000000000000E+000
  0.000000000000000E+000
  0.000000000000000E+000
  0.000000000000000E+000
  0.000000000000000E+000
  0.000000000000000E+000
  0.000000000000000E+000
  0.000000000000000E+000
  0.000000000000000E+000
  0.000000000000000E+000
  0.000000000000000E+000
  0.000000000000000E+000
  0.000000000000000E+000
  0.000000000000000E+000
  0.000000000000000E+000
  0.000000000000000E+000
  0.000000000000000E+000
  0.000000000000000E+000
  0.000000000000000E+000
  0.000000000000000E+000
  0.000000000000000E+000
  0.000000000000000E+000
  0.000000000000000E+000
  0.000000000000000E+000
  0.000000000000000E+000
  0.000000000000000E+000
  0.000000000000000E+000
  0.000000000000000E+000
  0.000000000000000E+000
  0.000000000000000E+000
  0.000000000000000E+000
  0.000000000000000E+000
  0.000000000000000E+000
  0.000000000000000E+000
  0.000000000000000E+000
  0.000000000000000E+000
  0.000000000000000E+000
  0.000000000000000E+000
  0.000000000000000E+000
  0.000000000000000E+000
  0.000000000000000E+000
  0.000000000000000E+000
  0.000000000000000E+000
  0.000000000000000E+000
  0.000000000000000E+000
  0.000000000000000E+000
  0.000000000000000E+000
  0.000000000000000E+000
  0.000000000000000E+000
  0.000000000000000E+000
  0.000000000000000E+000
  0.000000000000000E+000
  0.000000000000000E+000
  0.000000000000000E+000
  0.000000000000000E+000
  0.000000000000000E+000
  0.000000000000000E+000
  0.000000000000000E+000
  0.000000000000000E+000
  0.000000000000000E+000
  0.000000000000000E+000
  0.000000000000000E+000
  0.000000000000000E+000
  0.000000000000000E+000
  0.000000000000000E+000
  0.000000000000000E+000
  0.000000000000000E+000
  0.000000000000000E+000
  0.000000000000000E+000
  0.000000000000000E+000
  0.000000000000000E+000
  0.000000000000000E+000
  0.000000000000000E+000
  0.000000000000000E+000
  0.000000000000000E+000
  0.000000000000000E+000
  0.000000000000000E+000
  0.000000000000000E+000
  0.000000000000000E+000
  0.000000000000000E+000
  0.000000000000000E+000
  0.000000000000000E+000
  0.000000000000000E+000
  0.000000000000000E+000
  0.000000000000000E+000
  0.000000000000000E+000
  0.000000000000000E+000
  0.000000000000000E+000
  0.000000000000000E+000
  0.000000000000000E+000
  0.000000000000000E+000
  0.000000000000000E+000
  0.000000000000000E+000
  0.000000000000000E+000
  0.000000000000000E+000
  0.000000000000000E+000
  0.000000000000000E+000
  0.000000000000000E+000
  0.000000000000000E+000
  0.000000000000000E+000
  0.000000000000000E+000
  0.000000000000000E+000
  0.000000000000000E+000
  0.000000000000000E+000
  0.000000000000000E+000
  0.000000000000000E+000
  0.000000000000000E+000
  0.000000000000000E+000
  0.000000000000000E+000
  0.000000000000000E+000
  0.000000000000000E+000
  0.000000000000000E+000
  0.000000000000000E+000
  0.000000000000000E+000
  0.000000000000000E+000
  0.000000000000000E+000
  0.000000000000000E+000
  0.000000000000000E+000
  0.000000000000000E+000
  0.000000000000000E+000
  0.000000000000000E+000
  0.000000000000000E+000
  0.000000000000000E+000
  0.000000000000000E+000
  0.000000000000000E+000
  0.000000000000000E+000
  0.000000000000000E+000
  0.000000000000000E+000
  0.000000000000000E+000
  0.000000000000000E+000
  0.000000000000000E+000
  0.000000000000000E+000
  0.000000000000000E+000
  0.000000000000000E+000
  0.000000000000000E+000
  0.000000000000000E+000
  0.000000000000000E+000
  0.000000000000000E+000
  0.000000000000000E+000
  0.000000000000000E+000
  0.000000000000000E+000
  0.000000000000000E+000
  0.000000000000000E+000
  0.000000000000000E+000
  0.000000000000000E+000
  0.000000000000000E+000
  0.000000000000000E+000
  0.000000000000000E+000
  0.000000000000000E+000
  0.000000000000000E+000
  0.000000000000000E+000
  0.000000000000000E+000
  0.000000000000000E+000
  0.000000000000000E+000
  0.000000000000000E+000
  0.000000000000000E+000
  0.000000000000000E+000
  0.000000000000000E+000
  0.000000000000000E+000
  0.000000000000000E+000
  0.000000000000000E+000
  0.000000000000000E+000
  0.000000000000000E+000
  0.000000000000000E+000
  0.000000000000000E+000
  0.000000000000000E+000
  0.000000000000000E+000
  0.000000000000000E+000
  0.000000000000000E+000
  0.000000000000000E+000
  0.000000000000000E+000
  0.000000000000000E+000
  0.000000000000000E+000
  0.000000000000000E+000
  0.000000000000000E+000
  0.000000000000000E+000
  0.000000000000000E+000
  0.000000000000000E+000
  0.000000000000000E+000
  0.000000000000000E+000
  0.000000000000000E+000
  0.000000000000000E+000
  0.000000000000000E+000
  0.000000000000000E+000
  0.000000000000000E+000
  0.000000000000000E+000
  0.000000000000000E+000
  0.000000000000000E+000
  0.000000000000000E+000
  0.000000000000000E+000
  0.000000000000000E+000
  0.000000000000000E+000
  0.000000000000000E+000
  0.000000000000000E+000
  0.000000000000000E+000
  0.000000000000000E+000
  0.000000000000000E+000
  0.000000000000000E+000
  0.000000000000000E+000
  0.000000000000000E+000
  0.000000000000000E+000
  0.000000000000000E+000
  0.000000000000000E+000
  0.000000000000000E+000
  0.000000000000000E+000
  0.000000000000000E+000
  0.000000000000000E+000
  0.000000000000000E+000
  0.000000000000000E+000
  0.000000000000000E+000
  0.000000000000000E+000
  0.000000000000000E+000
  0.000000000000000E+000
  0.000000000000000E+000
  0.000000000000000E+000
  0.000000000000000E+000
  0.000000000000000E+000
  0.000000000000000E+000
  0.000000000000000E+000
  0.000000000000000E+000
  0.000000000000000E+000
  0.000000000000000E+000
  0.000000000000000E+000
  0.000000000000000E+000
  0.000000000000000E+000
  0.000000000000000E+000
  0.000000000000000E+000
  0.000000000000000E+000
  0.000000000000000E+000
  0.000000000000000E+000
  0.000000000000000E+000
  0.000000000000000E+000
  0.000000000000000E+000
  0.000000000000000E+000
  0.000000000000000E+000
  0.000000000000000E+000
  0.000000000000000E+000
  0.000000000000000E+000
  0.000000000000000E+000
  0.000000000000000E+000
  0.000000000000000E+000
  0.000000000000000E+000
  0.000000000000000E+000
  0.000000000000000E+000
  0.000000000000000E+000
  0.000000000000000E+000
  0.000000000000000E+000
  0.000000000000000E+000
  0.000000000000000E+000
  0.000000000000000E+000
  0.000000000000000E+000
  0.000000000000000E+000
  0.000000000000000E+000
  0.000000000000000E+000
  0.000000000000000E+000
  0.000000000000000E+000
  0.000000000000000E+000
  0.000000000000000E+000
  0.000000000000000E+000
  0.000000000000000E+000
  0.000000000000000E+000
  0.000000000000000E+000
  0.000000000000000E+000
  0.000000000000000E+000
  0.000000000000000E+000
  0.000000000000000E+000
  0.000000000000000E+000
  0.000000000000000E+000
  0.000000000000000E+000
  0.000000000000000E+000
  0.000000000000000E+000
  0.000000000000000E+000
  0.000000000000000E+000
  0.000000000000000E+000
  0.000000000000000E+000
  0.000000000000000E+000
  0.000000000000000E+000
  0.000000000000000E+000
  0.000000000000000E+000
  0.000000000000000E+000
  0.000000000000000E+000
  0.000000000000000E+000
  0.000000000000000E+000
  0.000000000000000E+000
  0.000000000000000E+000
  0.000000000000000E+000
  0.000000000000000E+000
  0.000000000000000E+000
  0.000000000000000E+000
  0.000000000000000E+000
  0.000000000000000E+000
  0.000000000000000E+000
  0.000000000000000E+000
  0.000000000000000E+000
  0.000000000000000E+000
  0.000000000000000E+000
  0.000000000000000E+000
  0.000000000000000E+000
  0.000000000000000E+000
  0.000000000000000E+000
  0.000000000000000E+000
  0.000000000000000E+000
  0.000000000000000E+000
  0.000000000000000E+000
  0.000000000000000E+000
  0.000000000000000E+000
  0.000000000000000E+000
  0.000000000000000E+000
  0.000000000000000E+000
  0.000000000000000E+000
  0.000000000000000E+000
  0.000000000000000E+000
  0.000000000000000E+000
  0.000000000000000E+000
  0.000000000000000E+000
  0.000000000000000E+000
  0.000000000000000E+000
  0.000000000000000E+000
  0.000000000000000E+000
  0.000000000000000E+000
  0.000000000000000E+000
  0.000000000000000E+000
  0.000000000000000E+000
  0.000000000000000E+000
  0.000000000000000E+000
  0.000000000000000E+000
  0.000000000000000E+000
  0.000000000000000E+000
  0.000000000000000E+000
  0.000000000000000E+000
  0.000000000000000E+000
  0.000000000000000E+000
  0.000000000000000E+000
  0.000000000000000E+000
  0.000000000000000E+000
  0.000000000000000E+000
  0.000000000000000E+000
  0.000000000000000E+000
  0.000000000000000E+000
  0.000000000000000E+000
  0.000000000000000E+000
  0.000000000000000E+000
  0.000000000000000E+000
  0.000000000000000E+000
  0.000000000000000E+000
  0.000000000000000E+000
  0.000000000000000E+000
  0.000000000000000E+000
  0.000000000000000E+000
  0.000000000000000E+000
  0.000000000000000E+000
  0.000000000000000E+000
  0.000000000000000E+000
  0.000000000000000E+000
  0.000000000000000E+000
  0.000000000000000E+000
  0.000000000000000E+000
  0.000000000000000E+000
  0.000000000000000E+000
  0.000000000000000E+000
  0.000000000000000E+000
  0.000000000000000E+000
  0.000000000000000E+000
  0.000000000000000E+000
  0.000000000000000E+000
  0.000000000000000E+000
  0.000000000000000E+000
  0.000000000000000E+000
  0.000000000000000E+000
  0.000000000000000E+000
  0.000000000000000E+000
  0.000000000000000E+000
  0.000000000000000E+000
  0.000000000000000E+000
  0.000000000000000E+000
  0.000000000000000E+000
  0.000000000000000E+000
  0.000000000000000E+000
  0.000000000000000E+000
  0.000000000000000E+000
  0.000000000000000E+000
  0.000000000000000E+000
  0.000000000000000E+000
  0.000000000000000E+000
  0.000000000000000E+000
  0.000000000000000E+000
  0.000000000000000E+000
  0.000000000000000E+000
  0.000000000000000E+000
  0.000000000000000E+000
  0.000000000000000E+000
  0.000000000000000E+000
  0.000000000000000E+000
  0.000000000000000E+000
  0.000000000000000E+000
  0.000000000000000E+000
  0.000000000000000E+000
  0.000000000000000E+000
  0.000000000000000E+000
  0.000000000000000E+000
  0.000000000000000E+000
  0.000000000000000E+000
  0.000000000000000E+000
  0.000000000000000E+000
  0.000000000000000E+000
  0.000000000000000E+000
  0.000000000000000E+000
  0.000000000000000E+000
  0.000000000000000E+000
  0.000000000000000E+000
  0.000000000000000E+000
  0.000000000000000E+000
  0.000000000000000E+000
  0.000000000000000E+000
  0.000000000000000E+000
  0.000000000000000E+000
  0.000000000000000E+000
  0.000000000000000E+000
  0.000000000000000E+000
  0.000000000000000E+000
  0.000000000000000E+000
  0.000000000000000E+000
  0.000000000000000E+000
  0.000000000000000E+000
  0.000000000000000E+000
  0.000000000000000E+000
  0.000000000000000E+000
  0.000000000000000E+000
  0.000000000000000E+000
  0.000000000000000E+000
  0.000000000000000E+000
  0.000000000000000E+000
  0.000000000000000E+000
  0.000000000000000E+000
  0.000000000000000E+000
  0.000000000000000E+000
  0.000000000000000E+000
  0.000000000000000E+000
  0.000000000000000E+000
  0.000000000000000E+000
  0.000000000000000E+000
  0.000000000000000E+000
  0.000000000000000E+000
  0.000000000000000E+000
  0.000000000000000E+000
  0.000000000000000E+000
  0.000000000000000E+000
  0.000000000000000E+000
  0.000000000000000E+000
  0.000000000000000E+000
  0.000000000000000E+000
  0.000000000000000E+000
  0.000000000000000E+000
  0.000000000000000E+000
  0.000000000000000E+000
  0.000000000000000E+000
  0.000000000000000E+000
  0.000000000000000E+000
  0.000000000000000E+000
  0.000000000000000E+000
  0.000000000000000E+000
  0.000000000000000E+000
  0.000000000000000E+000
  0.000000000000000E+000
  0.000000000000000E+000
  0.000000000000000E+000
  0.000000000000000E+000
  0.000000000000000E+000
  0.000000000000000E+000
  0.000000000000000E+000
  0.000000000000000E+000
  0.000000000000000E+000
  0.000000000000000E+000
  0.000000000000000E+000
  0.000000000000000E+000
  0.000000000000000E+000
  0.000000000000000E+000
  0.000000000000000E+000
  0.000000000000000E+000
  0.000000000000000E+000
  0.000000000000000E+000
  0.000000000000000E+000
  0.000000000000000E+000
  0.000000000000000E+000
  0.000000000000000E+000
  0.000000000000000E+000
  0.000000000000000E+000
  0.000000000000000E+000
  0.000000000000000E+000
  0.000000000000000E+000
  0.000000000000000E+000
  0.000000000000000E+000
  0.000000000000000E+000
  0.000000000000000E+000
  0.000000000000000E+000
  0.000000000000000E+000
  0.000000000000000E+000
  0.000000000000000E+000
  0.000000000000000E+000
  0.000000000000000E+000
  0.000000000000000E+000
  0.000000000000000E+000
  0.000000000000000E+000
  0.000000000000000E+000
  0.000000000000000E+000
  0.000000000000000E+000
  0.000000000000000E+000
  0.000000000000000E+000
  0.000000000000000E+000
  0.000000000000000E+000
  0.000000000000000E+000
  0.000000000000000E+000
  0.000000000000000E+000
  0.000000000000000E+000
  0.000000000000000E+000
  0.000000000000000E+000
  0.000000000000000E+000
  0.000000000000000E+000
  0.000000000000000E+000
  0.000000000000000E+000
  0.000000000000000E+000
  0.000000000000000E+000
  0.000000000000000E+000
  0.000000000000000E+000
  0.000000000000000E+000
  0.000000000000000E+000
  0.000000000000000E+000
  0.000000000000000E+000
  0.000000000000000E+000
  0.000000000000000E+000
  0.000000000000000E+000
  0.000000000000000E+000
  0.000000000000000E+000
  0.000000000000000E+000
  0.000000000000000E+000
  0.000000000000000E+000
  0.000000000000000E+000
  0.000000000000000E+000
  0.000000000000000E+000
  0.000000000000000E+000
  0.000000000000000E+000
  0.000000000000000E+000
  0.000000000000000E+000
  0.000000000000000E+000
  0.000000000000000E+000
  0.000000000000000E+000
  0.000000000000000E+000
  0.000000000000000E+000
  0.000000000000000E+000
  0.000000000000000E+000
  0.000000000000000E+000
  0.000000000000000E+000
  0.000000000000000E+000
  0.000000000000000E+000
  0.000000000000000E+000
  0.000000000000000E+000
  0.000000000000000E+000
  0.000000000000000E+000
  0.000000000000000E+000
  0.000000000000000E+000
  0.000000000000000E+000
  0.000000000000000E+000
  0.000000000000000E+000
  0.000000000000000E+000
  0.000000000000000E+000
  0.000000000000000E+000
  0.000000000000000E+000
  0.000000000000000E+000
  0.000000000000000E+000
  0.000000000000000E+000
  0.000000000000000E+000
  0.000000000000000E+000
  0.000000000000000E+000
  0.000000000000000E+000
  0.000000000000000E+000
  0.000000000000000E+000
  0.000000000000000E+000
  0.000000000000000E+000
  0.000000000000000E+000
  0.000000000000000E+000
  0.000000000000000E+000
  0.000000000000000E+000
  0.000000000000000E+000
  0.000000000000000E+000
  0.000000000000000E+000
  0.000000000000000E+000
  0.000000000000000E+000
  0.000000000000000E+000
  0.000000000000000E+000
  0.000000000000000E+000
  0.000000000000000E+000
  0.000000000000000E+000
  0.000000000000000E+000
  0.000000000000000E+000
  0.000000000000000E+000
  0.000000000000000E+000
  0.000000000000000E+000
  0.000000000000000E+000
  0.000000000000000E+000
  0.000000000000000E+000
  0.000000000000000E+000
  0.000000000000000E+000
  0.000000000000000E+000
  0.000000000000000E+000
  0.000000000000000E+000
  0.000000000000000E+000
  0.000000000000000E+000
  0.000000000000000E+000
  0.000000000000000E+000
  0.000000000000000E+000
  0.000000000000000E+000
  0.000000000000000E+000
  0.000000000000000E+000
  0.000000000000000E+000
  0.000000000000000E+000
  0.000000000000000E+000
  0.000000000000000E+000
  0.000000000000000E+000
  0.000000000000000E+000
  0.000000000000000E+000
  0.000000000000000E+000
  0.000000000000000E+000
  0.000000000000000E+000
  0.000000000000000E+000
  0.000000000000000E+000
  0.000000000000000E+000
  0.000000000000000E+000
  0.000000000000000E+000
  0.000000000000000E+000
  0.000000000000000E+000
  0.000000000000000E+000
  0.000000000000000E+000
  0.000000000000000E+000
  0.000000000000000E+000
  0.000000000000000E+000
  0.000000000000000E+000
  0.000000000000000E+000
  0.000000000000000E+000
  0.000000000000000E+000
  0.000000000000000E+000
  0.000000000000000E+000
  0.000000000000000E+000
  0.000000000000000E+000
  0.000000000000000E+000
  0.000000000000000E+000
  0.000000000000000E+000
  0.000000000000000E+000
  0.000000000000000E+000
  0.000000000000000E+000
  0.000000000000000E+000
  0.000000000000000E+000
  0.000000000000000E+000
  0.000000000000000E+000
  0.000000000000000E+000
  0.000000000000000E+000
  0.000000000000000E+000
  0.000000000000000E+000
  0.000000000000000E+000
  0.000000000000000E+000
  0.000000000000000E+000
  0.000000000000000E+000
  0.000000000000000E+000
  0.000000000000000E+000
  0.000000000000000E+000
  0.000000000000000E+000
  0.000000000000000E+000
  0.000000000000000E+000
  0.000000000000000E+000
  0.000000000000000E+000
  0.000000000000000E+000
  0.000000000000000E+000
  0.000000000000000E+000
  0.000000000000000E+000
  0.000000000000000E+000
  0.000000000000000E+000
  0.000000000000000E+000
  0.000000000000000E+000
  0.000000000000000E+000
  0.000000000000000E+000
  0.000000000000000E+000
  0.000000000000000E+000
  0.000000000000000E+000
  0.000000000000000E+000
  0.000000000000000E+000
  0.000000000000000E+000
  0.000000000000000E+000
  0.000000000000000E+000
  0.000000000000000E+000
  0.000000000000000E+000
  0.000000000000000E+000
  0.000000000000000E+000
  0.000000000000000E+000
  0.000000000000000E+000
  0.000000000000000E+000
  0.000000000000000E+000
  0.000000000000000E+000
  0.000000000000000E+000
  0.000000000000000E+000
  0.000000000000000E+000
  0.000000000000000E+000
  0.000000000000000E+000
  0.000000000000000E+000
  0.000000000000000E+000
  0.000000000000000E+000
  0.000000000000000E+000
  0.000000000000000E+000
  0.000000000000000E+000
  0.000000000000000E+000
  0.000000000000000E+000
  0.000000000000000E+000
  0.000000000000000E+000
  0.000000000000000E+000
  0.000000000000000E+000
  0.000000000000000E+000
  0.000000000000000E+000
  0.000000000000000E+000
  0.000000000000000E+000
  0.000000000000000E+000
  0.000000000000000E+000
  0.000000000000000E+000
  0.000000000000000E+000
  0.000000000000000E+000
  0.000000000000000E+000
  0.000000000000000E+000
  0.000000000000000E+000
  0.000000000000000E+000
  0.000000000000000E+000
  0.000000000000000E+000
  0.000000000000000E+000
  0.000000000000000E+000
  0.000000000000000E+000
  0.000000000000000E+000
  0.000000000000000E+000
  0.000000000000000E+000
  0.000000000000000E+000
  0.000000000000000E+000
  0.000000000000000E+000
  0.000000000000000E+000
  0.000000000000000E+000
  0.000000000000000E+000
  0.000000000000000E+000
  0.000000000000000E+000
  0.000000000000000E+000
  0.000000000000000E+000
  0.000000000000000E+000
  0.000000000000000E+000
  0.000000000000000E+000
  0.000000000000000E+000
  0.000000000000000E+000
  0.000000000000000E+000
  0.000000000000000E+000
  0.000000000000000E+000
  0.000000000000000E+000
  0.000000000000000E+000
  0.000000000000000E+000
  0.000000000000000E+000
  0.000000000000000E+000
  0.000000000000000E+000
  0.000000000000000E+000
  0.000000000000000E+000
  0.000000000000000E+000
  0.000000000000000E+000
  0.000000000000000E+000
  0.000000000000000E+000
  0.000000000000000E+000
  0.000000000000000E+000
  0.000000000000000E+000
  0.000000000000000E+000
  0.000000000000000E+000
  0.000000000000000E+000
  0.000000000000000E+000
  0.000000000000000E+000
  0.000000000000000E+000
  0.000000000000000E+000
  0.000000000000000E+000
  0.000000000000000E+000
  0.000000000000000E+000
  0.000000000000000E+000
  0.000000000000000E+000
  0.000000000000000E+000
  0.000000000000000E+000
  0.000000000000000E+000
  0.000000000000000E+000
  0.000000000000000E+000
  0.000000000000000E+000
  0.000000000000000E+000
  0.000000000000000E+000
  0.000000000000000E+000
  0.000000000000000E+000
  0.000000000000000E+000
  0.000000000000000E+000
  0.000000000000000E+000
  0.000000000000000E+000
  0.000000000000000E+000
  0.000000000000000E+000
  0.000000000000000E+000
  0.000000000000000E+000
  0.000000000000000E+000
  0.000000000000000E+000
  0.000000000000000E+000
  0.000000000000000E+000
  0.000000000000000E+000
  0.000000000000000E+000
  0.000000000000000E+000
  0.000000000000000E+000
  0.000000000000000E+000
  0.000000000000000E+000
  0.000000000000000E+000
  0.000000000000000E+000
  0.000000000000000E+000
  0.000000000000000E+000
  0.000000000000000E+000
  0.000000000000000E+000
  0.000000000000000E+000
  0.000000000000000E+000
  0.000000000000000E+000
  0.000000000000000E+000
  0.000000000000000E+000
  0.000000000000000E+000
  0.000000000000000E+000
  0.000000000000000E+000
  0.000000000000000E+000
  0.000000000000000E+000
  0.000000000000000E+000
  0.000000000000000E+000
  0.000000000000000E+000
  0.000000000000000E+000
  0.000000000000000E+000
  0.000000000000000E+000
  0.000000000000000E+000
  0.000000000000000E+000
  0.000000000000000E+000
  0.000000000000000E+000
  0.000000000000000E+000
  0.000000000000000E+000
  0.000000000000000E+000
  0.000000000000000E+000
  0.000000000000000E+000
  0.000000000000000E+000
  0.000000000000000E+000
  0.000000000000000E+000
  0.000000000000000E+000
  0.000000000000000E+000
  0.000000000000000E+000
  0.000000000000000E+000
  0.000000000000000E+000
  0.000000000000000E+000
  0.000000000000000E+000
  0.000000000000000E+000
  0.000000000000000E+000
  0.000000000000000E+000
  0.000000000000000E+000
  0.000000000000000E+000
  0.000000000000000E+000
  0.000000000000000E+000
  0.000000000000000E+000
  0.000000000000000E+000
  0.000000000000000E+000
  0.000000000000000E+000
  0.000000000000000E+000
  0.000000000000000E+000
  0.000000000000000E+000
  0.000000000000000E+000
  0.000000000000000E+000
  0.000000000000000E+000
  0.000000000000000E+000
  0.000000000000000E+000
  0.000000000000000E+000
  0.000000000000000E+000
  0.000000000000000E+000
  0.000000000000000E+000
  0.000000000000000E+000
  0.000000000000000E+000
  0.000000000000000E+000
  0.000000000000000E+000
  0.000000000000000E+000
  0.000000000000000E+000
  0.000000000000000E+000
  0.000000000000000E+000
  0.000000000000000E+000
  0.000000000000000E+000
  0.000000000000000E+000
  0.000000000000000E+000
  0.000000000000000E+000
  0.000000000000000E+000
  0.000000000000000E+000
  0.000000000000000E+000
  0.000000000000000E+000
  0.000000000000000E+000
  0.000000000000000E+000
  0.000000000000000E+000
  0.000000000000000E+000
  0.000000000000000E+000
  0.000000000000000E+000
  0.000000000000000E+000
  0.000000000000000E+000
  0.000000000000000E+000
  0.000000000000000E+000
  0.000000000000000E+000
  0.000000000000000E+000
  0.000000000000000E+000
  0.000000000000000E+000
  0.000000000000000E+000
  0.000000000000000E+000
  0.000000000000000E+000
  0.000000000000000E+000
  0.000000000000000E+000
  0.000000000000000E+000
  0.000000000000000E+000
  0.000000000000000E+000
  0.000000000000000E+000
  0.000000000000000E+000
  0.000000000000000E+000
  0.000000000000000E+000
  0.000000000000000E+000
  0.000000000000000E+000
  0.000000000000000E+000
  0.000000000000000E+000
  0.000000000000000E+000
  0.000000000000000E+000
  0.000000000000000E+000
  0.000000000000000E+000
  0.000000000000000E+000
  0.000000000000000E+000
  0.000000000000000E+000
  0.000000000000000E+000
  0.000000000000000E+000
  0.000000000000000E+000
  0.000000000000000E+000
  0.000000000000000E+000
  0.000000000000000E+000
  0.000000000000000E+000
  0.000000000000000E+000
  0.000000000000000E+000
  0.000000000000000E+000
  0.000000000000000E+000
  0.000000000000000E+000
  0.000000000000000E+000
  0.000000000000000E+000
  0.000000000000000E+000
  0.000000000000000E+000
  0.000000000000000E+000
  0.000000000000000E+000
  0.000000000000000E+000
  0.000000000000000E+000
  0.000000000000000E+000
  0.000000000000000E+000
  0.000000000000000E+000
  0.000000000000000E+000
  0.000000000000000E+000
  0.000000000000000E+000
  0.000000000000000E+000
  0.000000000000000E+000
  0.000000000000000E+000
  0.000000000000000E+000
  0.000000000000000E+000
  0.000000000000000E+000
  0.000000000000000E+000
  0.000000000000000E+000
  0.000000000000000E+000
  0.000000000000000E+000
  0.000000000000000E+000
  0.000000000000000E+000
  0.000000000000000E+000
  0.000000000000000E+000
  0.000000000000000E+000
  0.000000000000000E+000
  0.000000000000000E+000
  0.000000000000000E+000
  0.000000000000000E+000
  0.000000000000000E+000
  0.000000000000000E+000
  0.000000000000000E+000
  0.000000000000000E+000
  0.000000000000000E+000
  0.000000000000000E+000
  0.000000000000000E+000
  0.000000000000000E+000
  0.000000000000000E+000
  0.000000000000000E+000
  0.000000000000000E+000
  0.000000000000000E+000
  0.000000000000000E+000
  0.000000000000000E+000
  0.000000000000000E+000
  0.000000000000000E+000
  0.000000000000000E+000
  0.000000000000000E+000
  0.000000000000000E+000
  0.000000000000000E+000
  0.000000000000000E+000
  0.000000000000000E+000
  0.000000000000000E+000
  0.000000000000000E+000
  0.000000000000000E+000
  0.000000000000000E+000
  0.000000000000000E+000
  0.000000000000000E+000
  0.000000000000000E+000
  0.000000000000000E+000
  0.000000000000000E+000
  0.000000000000000E+000
  0.000000000000000E+000
  0.000000000000000E+000
  0.000000000000000E+000
  0.000000000000000E+000
  0.000000000000000E+000
  0.000000000000000E+000
  0.000000000000000E+000
  0.000000000000000E+000
  0.000000000000000E+000
  0.000000000000000E+000
  0.000000000000000E+000
  0.000000000000000E+000
  0.000000000000000E+000
  0.000000000000000E+000
  0.000000000000000E+000
  0.000000000000000E+000
  0.000000000000000E+000
  0.000000000000000E+000
  0.000000000000000E+000
  0.000000000000000E+000
  0.000000000000000E+000
  0.000000000000000E+000
  0.000000000000000E+000
  0.000000000000000E+000
  0.000000000000000E+000
  0.000000000000000E+000
  0.000000000000000E+000
  0.000000000000000E+000
  0.000000000000000E+000
  0.000000000000000E+000
  0.000000000000000E+000
  0.000000000000000E+000
  0.000000000000000E+000
  0.000000000000000E+000
  0.000000000000000E+000
  0.000000000000000E+000
  0.000000000000000E+000
  0.000000000000000E+000
  0.000000000000000E+000
  0.000000000000000E+000
  0.000000000000000E+000
  0.000000000000000E+000
  0.000000000000000E+000
  0.000000000000000E+000
  0.000000000000000E+000
  0.000000000000000E+000
  0.000000000000000E+000
  0.000000000000000E+000
  0.000000000000000E+000
  0.000000000000000E+000
  0.000000000000000E+000
  0.000000000000000E+000
  0.000000000000000E+000
  0.000000000000000E+000
  0.000000000000000E+000
  0.000000000000000E+000
  0.000000000000000E+000
  0.000000000000000E+000
  0.000000000000000E+000
  0.000000000000000E+000
  0.000000000000000E+000
  0.000000000000000E+000
  0.000000000000000E+000
  0.000000000000000E+000
  0.000000000000000E+000
  0.000000000000000E+000
  0.000000000000000E+000
  0.000000000000000E+000
  0.000000000000000E+000
  0.000000000000000E+000
  0.000000000000000E+000
  0.000000000000000E+000
  0.000000000000000E+000
  0.000000000000000E+000
  0.000000000000000E+000
  0.000000000000000E+000
  0.000000000000000E+000
  0.000000000000000E+000
  0.000000000000000E+000
  0.000000000000000E+000
  0.000000000000000E+000
  0.000000000000000E+000
  0.000000000000000E+000
  0.000000000000000E+000
  0.000000000000000E+000
  0.000000000000000E+000
  0.000000000000000E+000
  0.000000000000000E+000
  0.000000000000000E+000
  0.000000000000000E+000
  0.000000000000000E+000
  0.000000000000000E+000
  0.000000000000000E+000
  0.000000000000000E+000
  0.000000000000000E+000
  0.000000000000000E+000
  0.000000000000000E+000
  0.000000000000000E+000
  0.000000000000000E+000
  0.000000000000000E+000
  0.000000000000000E+000
  0.000000000000000E+000
  0.000000000000000E+000
  0.000000000000000E+000
  0.000000000000000E+000
  0.000000000000000E+000
  0.000000000000000E+000
  0.000000000000000E+000
  0.000000000000000E+000
  0.000000000000000E+000
  0.000000000000000E+000
  0.000000000000000E+000
  0.000000000000000E+000
  0.000000000000000E+000
  0.000000000000000E+000
  0.000000000000000E+000
  0.000000000000000E+000
  0.000000000000000E+000
  0.000000000000000E+000
  0.000000000000000E+000
  0.000000000000000E+000
  0.000000000000000E+000
  0.000000000000000E+000
  0.000000000000000E+000
  0.000000000000000E+000
  0.000000000000000E+000
  0.000000000000000E+000
  0.000000000000000E+000
  0.000000000000000E+000
  0.000000000000000E+000
  0.000000000000000E+000
  0.000000000000000E+000
  0.000000000000000E+000
  0.000000000000000E+000
  0.000000000000000E+000
  0.000000000000000E+000
  0.000000000000000E+000
  0.000000000000000E+000
  0.000000000000000E+000
  0.000000000000000E+000
  0.000000000000000E+000
  0.000000000000000E+000
  0.000000000000000E+000
  0.000000000000000E+000
  0.000000000000000E+000
  0.000000000000000E+000
  0.000000000000000E+000
  0.000000000000000E+000
  0.000000000000000E+000
  0.000000000000000E+000
  0.000000000000000E+000
  0.000000000000000E+000
  0.000000000000000E+000
  0.000000000000000E+000
  0.000000000000000E+000
  0.000000000000000E+000
  0.000000000000000E+000
  0.000000000000000E+000
  0.000000000000000E+000
  0.000000000000000E+000
  0.000000000000000E+000
  0.000000000000000E+000
  0.000000000000000E+000
  0.000000000000000E+000
  0.000000000000000E+000
  0.000000000000000E+000
  0.000000000000000E+000
  0.000000000000000E+000
  0.000000000000000E+000
  0.000000000000000E+000
  0.000000000000000E+000
  0.000000000000000E+000
  0.000000000000000E+000
  0.000000000000000E+000
  0.000000000000000E+000
  0.000000000000000E+000
  0.000000000000000E+000
  0.000000000000000E+000
  0.000000000000000E+000
  0.000000000000000E+000
  0.000000000000000E+000
  0.000000000000000E+000
  0.000000000000000E+000
  0.000000000000000E+000
  0.000000000000000E+000
  0.000000000000000E+000
  0.000000000000000E+000
  0.000000000000000E+000
  0.000000000000000E+000
  0.000000000000000E+000
  0.000000000000000E+000
  0.000000000000000E+000
  0.000000000000000E+000
  0.000000000000000E+000
  0.000000000000000E+000
  0.000000000000000E+000
  0.000000000000000E+000
  0.000000000000000E+000
  0.000000000000000E+000
  0.000000000000000E+000
  0.000000000000000E+000
  0.000000000000000E+000
  0.000000000000000E+000
  0.000000000000000E+000
  0.000000000000000E+000
  0.000000000000000E+000
  0.000000000000000E+000
  0.000000000000000E+000
  0.000000000000000E+000
  0.000000000000000E+000
  0.000000000000000E+000
  0.000000000000000E+000
  0.000000000000000E+000
  0.000000000000000E+000
  0.000000000000000E+000
  0.000000000000000E+000
  0.000000000000000E+000
  0.000000000000000E+000
  0.000000000000000E+000
  0.000000000000000E+000
  0.000000000000000E+000
  0.000000000000000E+000
  0.000000000000000E+000
  0.000000000000000E+000
  0.000000000000000E+000
  0.000000000000000E+000
  0.000000000000000E+000
  0.000000000000000E+000
  0.000000000000000E+000
  0.000000000000000E+000
  0.000000000000000E+000
  0.000000000000000E+000
  0.000000000000000E+000
  0.000000000000000E+000
  0.000000000000000E+000
  0.000000000000000E+000
  0.000000000000000E+000
  0.000000000000000E+000
  0.000000000000000E+000
  0.000000000000000E+000
  0.000000000000000E+000
  0.000000000000000E+000
  0.000000000000000E+000
  0.000000000000000E+000
  0.000000000000000E+000
  0.000000000000000E+000
  0.000000000000000E+000
  0.000000000000000E+000
  0.000000000000000E+000
  0.000000000000000E+000
  0.000000000000000E+000
  0.000000000000000E+000
  0.000000000000000E+000
  0.000000000000000E+000
  0.000000000000000E+000
  0.000000000000000E+000
  0.000000000000000E+000
  0.000000000000000E+000
  0.000000000000000E+000
  0.000000000000000E+000
  0.000000000000000E+000
  0.000000000000000E+000
  0.000000000000000E+000
  0.000000000000000E+000
  0.000000000000000E+000
  0.000000000000000E+000
  0.000000000000000E+000
  0.000000000000000E+000
  0.000000000000000E+000
  0.000000000000000E+000
  0.000000000000000E+000
  0.000000000000000E+000
  0.000000000000000E+000
  0.000000000000000E+000
  0.000000000000000E+000
  0.000000000000000E+000
  0.000000000000000E+000
  0.000000000000000E+000
  0.000000000000000E+000
  0.000000000000000E+000
  0.000000000000000E+000
  0.000000000000000E+000
  0.000000000000000E+000
  0.000000000000000E+000
  0.000000000000000E+000
  0.000000000000000E+000
  0.000000000000000E+000
  0.000000000000000E+000
  0.000000000000000E+000
  0.000000000000000E+000
  0.000000000000000E+000
  0.000000000000000E+000
  0.000000000000000E+000
  0.000000000000000E+000
  0.000000000000000E+000
  0.000000000000000E+000
  0.000000000000000E+000
  0.000000000000000E+000
  0.000000000000000E+000
  0.000000000000000E+000
  0.000000000000000E+000
  0.000000000000000E+000
  0.000000000000000E+000
  0.000000000000000E+000
  0.000000000000000E+000
  0.000000000000000E+000
  0.000000000000000E+000
  0.000000000000000E+000
  0.000000000000000E+000
  0.000000000000000E+000
  0.000000000000000E+000
  0.000000000000000E+000
  0.000000000000000E+000
  0.000000000000000E+000
  0.000000000000000E+000
  0.000000000000000E+000
  0.000000000000000E+000
  0.000000000000000E+000
  0.000000000000000E+000
  0.000000000000000E+000
  0.000000000000000E+000
  0.000000000000000E+000
  0.000000000000000E+000
  0.000000000000000E+000
  0.000000000000000E+000
  0.000000000000000E+000
  0.000000000000000E+000
  0.000000000000000E+000
  0.000000000000000E+000
  0.000000000000000E+000
  0.000000000000000E+000
  0.000000000000000E+000
  0.000000000000000E+000
  0.000000000000000E+000
  0.000000000000000E+000
  0.000000000000000E+000
  0.000000000000000E+000
  0.000000000000000E+000
  0.000000000000000E+000
  0.000000000000000E+000
  0.000000000000000E+000
  0.000000000000000E+000
  0.000000000000000E+000
  0.000000000000000E+000
  0.000000000000000E+000
  0.000000000000000E+000
  0.000000000000000E+000
  0.000000000000000E+000
  0.000000000000000E+000
  0.000000000000000E+000
  0.000000000000000E+000
  0.000000000000000E+000
  0.000000000000000E+000
  0.000000000000000E+000
  0.000000000000000E+000
  0.000000000000000E+000
  0.000000000000000E+000
  0.000000000000000E+000
  0.000000000000000E+000
  0.000000000000000E+000
  0.000000000000000E+000
  0.000000000000000E+000
  0.000000000000000E+000
  0.000000000000000E+000
  0.000000000000000E+000
  0.000000000000000E+000
  0.000000000000000E+000
  0.000000000000000E+000
  0.000000000000000E+000
  0.000000000000000E+000
  0.000000000000000E+000
  0.000000000000000E+000
  0.000000000000000E+000
  0.000000000000000E+000
  0.000000000000000E+000
  0.000000000000000E+000
  0.000000000000000E+000
  0.000000000000000E+000
  0.000000000000000E+000
  0.000000000000000E+000
  0.000000000000000E+000
  0.000000000000000E+000
  0.000000000000000E+000
  0.000000000000000E+000
  0.000000000000000E+000
  0.000000000000000E+000
  0.000000000000000E+000
  0.000000000000000E+000
  0.000000000000000E+000
  0.000000000000000E+000
  0.000000000000000E+000
  0.000000000000000E+000
  0.000000000000000E+000
  0.000000000000000E+000
  0.000000000000000E+000
  0.000000000000000E+000
  0.000000000000000E+000
  0.000000000000000E+000
  0.000000000000000E+000
  0.000000000000000E+000
  0.000000000000000E+000
  0.000000000000000E+000
  0.000000000000000E+000
  0.000000000000000E+000
  0.000000000000000E+000
  0.000000000000000E+000
  0.000000000000000E+000
  0.000000000000000E+000
  0.000000000000000E+000
  0.000000000000000E+000
  0.000000000000000E+000
  0.000000000000000E+000
  0.000000000000000E+000
  0.000000000000000E+000
  0.000000000000000E+000
  0.000000000000000E+000
  0.000000000000000E+000
  0.000000000000000E+000
  0.000000000000000E+000
  0.000000000000000E+000
  0.000000000000000E+000
  0.000000000000000E+000
  0.000000000000000E+000
  0.000000000000000E+000
  0.000000000000000E+000
  0.000000000000000E+000
  0.000000000000000E+000
  0.000000000000000E+000
  0.000000000000000E+000
  0.000000000000000E+000
  0.000000000000000E+000
  0.000000000000000E+000
  0.000000000000000E+000
  0.000000000000000E+000
  0.000000000000000E+000
  0.000000000000000E+000
  0.000000000000000E+000
  0.000000000000000E+000
  0.000000000000000E+000
  0.000000000000000E+000
  0.000000000000000E+000
  0.000000000000000E+000
  0.000000000000000E+000
  0.000000000000000E+000
  0.000000000000000E+000
  0.000000000000000E+000
  0.000000000000000E+000
  0.000000000000000E+000
  0.000000000000000E+000
  0.000000000000000E+000
  0.000000000000000E+000
  0.000000000000000E+000
  0.000000000000000E+000
  0.000000000000000E+000
  0.000000000000000E+000
  0.000000000000000E+000
  0.000000000000000E+000
  0.000000000000000E+000
  0.000000000000000E+000
  0.000000000000000E+000
  0.000000000000000E+000
  0.000000000000000E+000
  0.000000000000000E+000
  0.000000000000000E+000
  0.000000000000000E+000
  0.000000000000000E+000
  0.000000000000000E+000
  0.000000000000000E+000
  0.000000000000000E+000
  0.000000000000000E+000
  0.000000000000000E+000
  0.000000000000000E+000
  0.000000000000000E+000
  0.000000000000000E+000
  0.000000000000000E+000
  0.000000000000000E+000
  0.000000000000000E+000
  0.000000000000000E+000
  0.000000000000000E+000
  0.000000000000000E+000
  0.000000000000000E+000
  0.000000000000000E+000
  0.000000000000000E+000
  0.000000000000000E+000
  0.000000000000000E+000
  0.000000000000000E+000
  0.000000000000000E+000
  0.000000000000000E+000
  0.000000000000000E+000
  0.000000000000000E+000
  0.000000000000000E+000
  0.000000000000000E+000
  0.000000000000000E+000
  0.000000000000000E+000
  0.000000000000000E+000
  0.000000000000000E+000
  0.000000000000000E+000
  0.000000000000000E+000
  0.000000000000000E+000
  0.000000000000000E+000
  0.000000000000000E+000
  0.000000000000000E+000
  0.000000000000000E+000
  0.000000000000000E+000
  0.000000000000000E+000
  0.000000000000000E+000
  0.000000000000000E+000
  0.000000000000000E+000
  0.000000000000000E+000
  0.000000000000000E+000
  0.000000000000000E+000
  0.000000000000000E+000
  0.000000000000000E+000
  0.000000000000000E+000
  0.000000000000000E+000
  0.000000000000000E+000
  0.000000000000000E+000
  0.000000000000000E+000
  0.000000000000000E+000
  0.000000000000000E+000
  0.000000000000000E+000
  0.000000000000000E+000
  0.000000000000000E+000
  0.000000000000000E+000
  0.000000000000000E+000
  0.000000000000000E+000
  0.000000000000000E+000
  0.000000000000000E+000
  0.000000000000000E+000
  0.000000000000000E+000
  0.000000000000000E+000
  0.000000000000000E+000
  0.000000000000000E+000
  0.000000000000000E+000
  0.000000000000000E+000
  0.000000000000000E+000
  0.000000000000000E+000
  0.000000000000000E+000
  0.000000000000000E+000
  0.000000000000000E+000
  0.000000000000000E+000
  0.000000000000000E+000
  0.000000000000000E+000
  0.000000000000000E+000
  0.000000000000000E+000
  0.000000000000000E+000
  0.000000000000000E+000
  0.000000000000000E+000
  0.000000000000000E+000
  0.000000000000000E+000
  0.000000000000000E+000
  0.000000000000000E+000
  0.000000000000000E+000
  0.000000000000000E+000
  0.000000000000000E+000
  0.000000000000000E+000
  0.000000000000000E+000
  0.000000000000000E+000
  0.000000000000000E+000
  0.000000000000000E+000
  0.000000000000000E+000
  0.000000000000000E+000
  0.000000000000000E+000
  0.000000000000000E+000
  0.000000000000000E+000
  0.000000000000000E+000
  0.000000000000000E+000
  0.000000000000000E+000
  0.000000000000000E+000
  0.000000000000000E+000
  0.000000000000000E+000
  0.000000000000000E+000
  0.000000000000000E+000
  0.000000000000000E+000
  0.000000000000000E+000
  0.000000000000000E+000
  0.000000000000000E+000
  0.000000000000000E+000
  0.000000000000000E+000
  0.000000000000000E+000
  0.000000000000000E+000
  0.000000000000000E+000
  0.000000000000000E+000
  0.000000000000000E+000
  0.000000000000000E+000
  0.000000000000000E+000
  0.000000000000000E+000
  0.000000000000000E+000
  0.000000000000000E+000
  0.000000000000000E+000
  0.000000000000000E+000
  0.000000000000000E+000
  0.000000000000000E+000
  0.000000000000000E+000
  0.000000000000000E+000
  0.000000000000000E+000
  0.000000000000000E+000
  0.000000000000000E+000
  0.000000000000000E+000
  0.000000000000000E+000
  0.000000000000000E+000
  0.000000000000000E+000
  0.000000000000000E+000
  0.000000000000000E+000
  0.000000000000000E+000
  0.000000000000000E+000
  0.000000000000000E+000
  0.000000000000000E+000
  0.000000000000000E+000
  0.000000000000000E+000
  0.000000000000000E+000
  0.000000000000000E+000
  0.000000000000000E+000
  0.000000000000000E+000
  0.000000000000000E+000
  0.000000000000000E+000
  0.000000000000000E+000
  0.000000000000000E+000
  0.000000000000000E+000
  0.000000000000000E+000
  0.000000000000000E+000
  0.000000000000000E+000
  0.000000000000000E+000
  0.000000000000000E+000
  0.000000000000000E+000
  0.000000000000000E+000
  0.000000000000000E+000
  0.000000000000000E+000
  0.000000000000000E+000
  0.000000000000000E+000
  0.000000000000000E+000
  0.000000000000000E+000
  0.000000000000000E+000
  0.000000000000000E+000
  0.000000000000000E+000
  0.000000000000000E+000
  0.000000000000000E+000
  0.000000000000000E+000
  0.000000000000000E+000
  0.000000000000000E+000
  0.000000000000000E+000
  0.000000000000000E+000
  0.000000000000000E+000
  0.000000000000000E+000
  0.000000000000000E+000
  0.000000000000000E+000
  0.000000000000000E+000
  0.000000000000000E+000
  0.000000000000000E+000
  0.000000000000000E+000
  0.000000000000000E+000
  0.000000000000000E+000
  0.000000000000000E+000
  0.000000000000000E+000
  0.000000000000000E+000
  0.000000000000000E+000
  0.000000000000000E+000
  0.000000000000000E+000
  0.000000000000000E+000
  0.000000000000000E+000
  0.000000000000000E+000
  0.000000000000000E+000
  0.000000000000000E+000
  0.000000000000000E+000
  0.000000000000000E+000
  0.000000000000000E+000
  0.000000000000000E+000
  0.000000000000000E+000
  0.000000000000000E+000
  0.000000000000000E+000
  0.000000000000000E+000
  0.000000000000000E+000
  0.000000000000000E+000
  0.000000000000000E+000
  0.000000000000000E+000
  0.000000000000000E+000
  0.000000000000000E+000
  0.000000000000000E+000
  0.000000000000000E+000
  0.000000000000000E+000
  0.000000000000000E+000
  0.000000000000000E+000
  0.000000000000000E+000
  0.000000000000000E+000
  0.000000000000000E+000
  0.000000000000000E+000
  0.000000000000000E+000
  0.000000000000000E+000
  0.000000000000000E+000
  0.000000000000000E+000
  0.000000000000000E+000
  0.000000000000000E+000
  0.000000000000000E+000
  0.000000000000000E+000
  0.000000000000000E+000
  0.000000000000000E+000
  0.000000000000000E+000
  0.000000000000000E+000
  0.000000000000000E+000
  0.000000000000000E+000
  0.000000000000000E+000
  0.000000000000000E+000
  0.000000000000000E+000
  0.000000000000000E+000
  0.000000000000000E+000
  0.000000000000000E+000
  0.000000000000000E+000
  0.000000000000000E+000
  0.000000000000000E+000
  0.000000000000000E+000
  0.000000000000000E+000
  0.000000000000000E+000
  0.000000000000000E+000
  0.000000000000000E+000
  0.000000000000000E+000
  0.000000000000000E+000
  0.000000000000000E+000
  0.000000000000000E+000
  0.000000000000000E+000
  0.000000000000000E+000
  0.000000000000000E+000
  0.000000000000000E+000
  0.000000000000000E+000
  0.000000000000000E+000
  0.000000000000000E+000
  0.000000000000000E+000
  0.000000000000000E+000
  0.000000000000000E+000
  0.000000000000000E+000
  0.000000000000000E+000
  0.000000000000000E+000
  0.000000000000000E+000
  0.000000000000000E+000
  0.000000000000000E+000
  0.000000000000000E+000
  0.000000000000000E+000
  0.000000000000000E+000
  0.000000000000000E+000
  0.000000000000000E+000
  0.000000000000000E+000
  0.000000000000000E+000
  0.000000000000000E+000
  0.000000000000000E+000
  0.000000000000000E+000
  0.000000000000000E+000
  0.000000000000000E+000
  0.000000000000000E+000
  0.000000000000000E+000
  0.000000000000000E+000
  0.000000000000000E+000
  0.000000000000000E+000
  0.000000000000000E+000
  0.000000000000000E+000
  0.000000000000000E+000
  0.000000000000000E+000
  0.000000000000000E+000
  0.000000000000000E+000
  0.000000000000000E+000
  0.000000000000000E+000
  0.000000000000000E+000
  0.000000000000000E+000
  0.000000000000000E+000
  0.000000000000000E+000
  0.000000000000000E+000
  0.000000000000000E+000
  0.000000000000000E+000
  0.000000000000000E+000
  0.000000000000000E+000
  0.000000000000000E+000
  0.000000000000000E+000
  0.000000000000000E+000
  0.000000000000000E+000
  0.000000000000000E+000
  0.000000000000000E+000
  0.000000000000000E+000
  0.000000000000000E+000
  0.000000000000000E+000
  0.000000000000000E+000
  0.000000000000000E+000
  0.000000000000000E+000
  0.000000000000000E+000
  0.000000000000000E+000
  0.000000000000000E+000
  0.000000000000000E+000
  0.000000000000000E+000
  0.000000000000000E+000
  0.000000000000000E+000
  0.000000000000000E+000
  0.000000000000000E+000
  0.000000000000000E+000
  0.000000000000000E+000
  0.000000000000000E+000
  0.000000000000000E+000
  0.000000000000000E+000
  0.000000000000000E+000
  0.000000000000000E+000
  0.000000000000000E+000
  0.000000000000000E+000
  0.000000000000000E+000
  0.000000000000000E+000
  0.000000000000000E+000
  0.000000000000000E+000
  0.000000000000000E+000
  0.000000000000000E+000
  0.000000000000000E+000
  0.000000000000000E+000
  0.000000000000000E+000
  0.000000000000000E+000
  0.000000000000000E+000
  0.000000000000000E+000
  0.000000000000000E+000
  0.000000000000000E+000
  0.000000000000000E+000
  0.000000000000000E+000
  0.000000000000000E+000
  0.000000000000000E+000
  0.000000000000000E+000
  0.000000000000000E+000
  0.000000000000000E+000
  0.000000000000000E+000
  0.000000000000000E+000
  0.000000000000000E+000
  0.000000000000000E+000
  0.000000000000000E+000
  0.000000000000000E+000
  0.000000000000000E+000
  0.000000000000000E+000
  0.000000000000000E+000
  0.000000000000000E+000
  0.000000000000000E+000
  0.000000000000000E+000
  0.000000000000000E+000
  0.000000000000000E+000
  0.000000000000000E+000
  0.000000000000000E+000
  0.000000000000000E+000
  0.000000000000000E+000
  0.000000000000000E+000
  0.000000000000000E+000
  0.000000000000000E+000
  0.000000000000000E+000
  0.000000000000000E+000
  0.000000000000000E+000
  0.000000000000000E+000
  0.000000000000000E+000
  0.000000000000000E+000
  0.000000000000000E+000
  0.000000000000000E+000
  0.000000000000000E+000
  0.000000000000000E+000
  0.000000000000000E+000
  0.000000000000000E+000
  0.000000000000000E+000
  0.000000000000000E+000
  0.000000000000000E+000
  0.000000000000000E+000
  0.000000000000000E+000
  0.000000000000000E+000
  0.000000000000000E+000
  0.000000000000000E+000
  0.000000000000000E+000
  0.000000000000000E+000
  0.000000000000000E+000
  0.000000000000000E+000
  0.000000000000000E+000
  0.000000000000000E+000
  0.000000000000000E+000
  0.000000000000000E+000
  0.000000000000000E+000
  0.000000000000000E+000
  0.000000000000000E+000
  0.000000000000000E+000
  0.000000000000000E+000
  0.000000000000000E+000
  0.000000000000000E+000
  0.000000000000000E+000
  0.000000000000000E+000
  0.000000000000000E+000
  0.000000000000000E+000
  0.000000000000000E+000
  0.000000000000000E+000
  0.000000000000000E+000
  0.000000000000000E+000
  0.000000000000000E+000
  0.000000000000000E+000
  0.000000000000000E+000
  0.000000000000000E+000
  0.000000000000000E+000
  0.000000000000000E+000
  0.000000000000000E+000
  0.000000000000000E+000
  0.000000000000000E+000
  0.000000000000000E+000
  0.000000000000000E+000
  0.000000000000000E+000
  0.000000000000000E+000
  0.000000000000000E+000
  0.000000000000000E+000
  0.000000000000000E+000
  0.000000000000000E+000
  0.000000000000000E+000
  0.000000000000000E+000
  0.000000000000000E+000
  0.000000000000000E+000
  0.000000000000000E+000
  0.000000000000000E+000
  0.000000000000000E+000
  0.000000000000000E+000
  0.000000000000000E+000
  0.000000000000000E+000
  0.000000000000000E+000
  0.000000000000000E+000
  0.000000000000000E+000
  0.000000000000000E+000
  0.000000000000000E+000
  0.000000000000000E+000
  0.000000000000000E+000
  0.000000000000000E+000
  0.000000000000000E+000
  0.000000000000000E+000
  0.000000000000000E+000
  0.000000000000000E+000
  0.000000000000000E+000
  0.000000000000000E+000
  0.000000000000000E+000
  0.000000000000000E+000
  0.000000000000000E+000
  0.000000000000000E+000
  0.000000000000000E+000
  0.000000000000000E+000
  0.000000000000000E+000
  0.000000000000000E+000
  0.000000000000000E+000
  0.000000000000000E+000
  0.000000000000000E+000
  0.000000000000000E+000
  0.000000000000000E+000
  0.000000000000000E+000
  0.000000000000000E+000
  0.000000000000000E+000
  0.000000000000000E+000
  0.000000000000000E+000
  0.000000000000000E+000
  0.000000000000000E+000
  0.000000000000000E+000
  0.000000000000000E+000
  0.000000000000000E+000
  0.000000000000000E+000
  0.000000000000000E+000
  0.000000000000000E+000
  0.000000000000000E+000
  0.000000000000000E+000
  0.000000000000000E+000
  0.000000000000000E+000
  0.000000000000000E+000
  0.000000000000000E+000
  0.000000000000000E+000
  0.000000000000000E+000
  0.000000000000000E+000
  0.000000000000000E+000
  0.000000000000000E+000
  0.000000000000000E+000
  0.000000000000000E+000
  0.000000000000000E+000
  0.000000000000000E+000
  0.000000000000000E+000
  0.000000000000000E+000
  0.000000000000000E+000
  0.000000000000000E+000
  0.000000000000000E+000
  0.000000000000000E+000
  0.000000000000000E+000
  0.000000000000000E+000
  0.000000000000000E+000
  0.000000000000000E+000
  0.000000000000000E+000
  0.000000000000000E+000
  0.000000000000000E+000
  0.000000000000000E+000
  0.000000000000000E+000
  0.000000000000000E+000
  0.000000000000000E+000
  0.000000000000000E+000
  0.000000000000000E+000
  0.000000000000000E+000
  0.000000000000000E+000
  0.000000000000000E+000
  0.000000000000000E+000
  0.000000000000000E+000
  0.000000000000000E+000
  0.000000000000000E+000
  0.000000000000000E+000
  0.000000000000000E+000
  0.000000000000000E+000
  0.000000000000000E+000
  0.000000000000000E+000
  0.000000000000000E+000
  0.000000000000000E+000
  0.000000000000000E+000
  0.000000000000000E+000
  0.000000000000000E+000
  0.000000000000000E+000
  0.000000000000000E+000
  0.000000000000000E+000
  0.000000000000000E+000
  0.000000000000000E+000
  0.000000000000000E+000
  0.000000000000000E+000
  0.000000000000000E+000
  0.000000000000000E+000
  0.000000000000000E+000
  0.000000000000000E+000
  0.000000000000000E+000
  0.000000000000000E+000
  0.000000000000000E+000
  0.000000000000000E+000
  0.000000000000000E+000
  0.000000000000000E+000
  0.000000000000000E+000
  0.000000000000000E+000
  0.000000000000000E+000
  0.000000000000000E+000
  0.000000000000000E+000
  0.000000000000000E+000
  0.000000000000000E+000
  0.000000000000000E+000
  0.000000000000000E+000
  0.000000000000000E+000
  0.000000000000000E+000
  0.000000000000000E+000
  0.000000000000000E+000
  0.000000000000000E+000
  0.000000000000000E+000
  0.000000000000000E+000
  0.000000000000000E+000
  0.000000000000000E+000
  0.000000000000000E+000
  0.000000000000000E+000
  0.000000000000000E+000
  0.000000000000000E+000
  0.000000000000000E+000
  0.000000000000000E+000
  0.000000000000000E+000
  0.000000000000000E+000
  0.000000000000000E+000
  0.000000000000000E+000
  0.000000000000000E+000
  0.000000000000000E+000
  0.000000000000000E+000
  0.000000000000000E+000
  0.000000000000000E+000
  0.000000000000000E+000
  0.000000000000000E+000
  0.000000000000000E+000
  0.000000000000000E+000
  0.000000000000000E+000
  0.000000000000000E+000
  0.000000000000000E+000
  0.000000000000000E+000
  0.000000000000000E+000
  0.000000000000000E+000
  0.000000000000000E+000
  0.000000000000000E+000
  0.000000000000000E+000
  0.000000000000000E+000
  0.000000000000000E+000
  0.000000000000000E+000
  0.000000000000000E+000
  0.000000000000000E+000
  0.000000000000000E+000
  0.000000000000000E+000
  0.000000000000000E+000
  0.000000000000000E+000
  0.000000000000000E+000
  0.000000000000000E+000
  0.000000000000000E+000
  0.000000000000000E+000
  0.000000000000000E+000
  0.000000000000000E+000
  0.000000000000000E+000
  0.000000000000000E+000
  0.000000000000000E+000
  0.000000000000000E+000
  0.000000000000000E+000
  0.000000000000000E+000
  0.000000000000000E+000
  0.000000000000000E+000
  0.000000000000000E+000
  0.000000000000000E+000
  0.000000000000000E+000
  0.000000000000000E+000
  0.000000000000000E+000
  0.000000000000000E+000
  0.000000000000000E+000
  0.000000000000000E+000
  0.000000000000000E+000
  0.000000000000000E+000
  0.000000000000000E+000
  0.000000000000000E+000
  0.000000000000000E+000
  0.000000000000000E+000
  0.000000000000000E+000
  0.000000000000000E+000
  0.000000000000000E+000
  0.000000000000000E+000
  0.000000000000000E+000
  0.000000000000000E+000
  0.000000000000000E+000
  0.000000000000000E+000
  0.000000000000000E+000
  0.000000000000000E+000
  0.000000000000000E+000
  0.000000000000000E+000
  0.000000000000000E+000
  0.000000000000000E+000
  0.000000000000000E+000
  0.000000000000000E+000
  0.000000000000000E+000
  0.000000000000000E+000
  0.000000000000000E+000
  0.000000000000000E+000
  0.000000000000000E+000
  0.000000000000000E+000
  0.000000000000000E+000
  0.000000000000000E+000
  0.000000000000000E+000
  0.000000000000000E+000
  0.000000000000000E+000
  0.000000000000000E+000
  0.000000000000000E+000
  0.000000000000000E+000
  0.000000000000000E+000
  0.000000000000000E+000
  0.000000000000000E+000
  0.000000000000000E+000
  0.000000000000000E+000
  0.000000000000000E+000
  0.000000000000000E+000
  0.000000000000000E+000
  0.000000000000000E+000
  0.000000000000000E+000
  0.000000000000000E+000
  0.000000000000000E+000
  0.000000000000000E+000
  0.000000000000000E+000
  0.000000000000000E+000
  0.000000000000000E+000
  0.000000000000000E+000
  0.000000000000000E+000
  0.000000000000000E+000
  0.000000000000000E+000
  0.000000000000000E+000
  0.000000000000000E+000
  0.000000000000000E+000
  0.000000000000000E+000
  0.000000000000000E+000
  0.000000000000000E+000
  0.000000000000000E+000
  0.000000000000000E+000
  0.000000000000000E+000
  0.000000000000000E+000
  0.000000000000000E+000
  0.000000000000000E+000
  0.000000000000000E+000
  0.000000000000000E+000
  0.000000000000000E+000
  0.000000000000000E+000
  0.000000000000000E+000
  0.000000000000000E+000
  0.000000000000000E+000
  0.000000000000000E+000
  0.000000000000000E+000
  0.000000000000000E+000
  0.000000000000000E+000
  0.000000000000000E+000
  0.000000000000000E+000
  0.000000000000000E+000
  0.000000000000000E+000
  0.000000000000000E+000
  0.000000000000000E+000
  0.000000000000000E+000
  0.000000000000000E+000
  0.000000000000000E+000
  0.000000000000000E+000
  0.000000000000000E+000
  0.000000000000000E+000
  0.000000000000000E+000
  0.000000000000000E+000
  0.000000000000000E+000
  0.000000000000000E+000
  0.000000000000000E+000
  0.000000000000000E+000
  0.000000000000000E+000
  0.000000000000000E+000
  0.000000000000000E+000
  0.000000000000000E+000
  0.000000000000000E+000
  0.000000000000000E+000
  0.000000000000000E+000
  0.000000000000000E+000
  0.000000000000000E+000
  0.000000000000000E+000
  0.000000000000000E+000
  0.000000000000000E+000
  0.000000000000000E+000
  0.000000000000000E+000
  0.000000000000000E+000
  0.000000000000000E+000
  0.000000000000000E+000
  0.000000000000000E+000
  0.000000000000000E+000
  0.000000000000000E+000
  0.000000000000000E+000
  0.000000000000000E+000
  0.000000000000000E+000
  0.000000000000000E+000
  0.000000000000000E+000
  0.000000000000000E+000
  0.000000000000000E+000
  0.000000000000000E+000
  0.000000000000000E+000
  0.000000000000000E+000
  0.000000000000000E+000
  0.000000000000000E+000
  0.000000000000000E+000
  0.000000000000000E+000
  0.000000000000000E+000
  0.000000000000000E+000
  0.000000000000000E+000
  0.000000000000000E+000
  0.000000000000000E+000
  0.000000000000000E+000
  0.000000000000000E+000
  0.000000000000000E+000
  0.000000000000000E+000
  0.000000000000000E+000
  0.000000000000000E+000
  0.000000000000000E+000
  0.000000000000000E+000
  0.000000000000000E+000
  0.000000000000000E+000
  0.000000000000000E+000
  0.000000000000000E+000
  0.000000000000000E+000
  0.000000000000000E+000
  0.000000000000000E+000
  0.000000000000000E+000
  0.000000000000000E+000
  0.000000000000000E+000
  0.000000000000000E+000
  0.000000000000000E+000
  0.000000000000000E+000
  0.000000000000000E+000
  0.000000000000000E+000
  0.000000000000000E+000
  0.000000000000000E+000
  0.000000000000000E+000
  0.000000000000000E+000
  0.000000000000000E+000
  0.000000000000000E+000
  0.000000000000000E+000
  0.000000000000000E+000
  0.000000000000000E+000
  0.000000000000000E+000
  0.000000000000000E+000
  0.000000000000000E+000
  0.000000000000000E+000
  0.000000000000000E+000
  0.000000000000000E+000
  0.000000000000000E+000
  0.000000000000000E+000
  0.000000000000000E+000
  0.000000000000000E+000
  0.000000000000000E+000
  0.000000000000000E+000
  0.000000000000000E+000
  0.000000000000000E+000
  0.000000000000000E+000
  0.000000000000000E+000
  0.000000000000000E+000
  0.000000000000000E+000
  0.000000000000000E+000
  0.000000000000000E+000
  0.000000000000000E+000
  0.000000000000000E+000
  0.000000000000000E+000
  0.000000000000000E+000
  0.000000000000000E+000
  0.000000000000000E+000
  0.000000000000000E+000
  0.000000000000000E+000
  0.000000000000000E+000
  0.000000000000000E+000
  0.000000000000000E+000
  0.000000000000000E+000
  0.000000000000000E+000
  0.000000000000000E+000
  0.000000000000000E+000
  0.000000000000000E+000
  0.000000000000000E+000
  0.000000000000000E+000
  0.000000000000000E+000
  0.000000000000000E+000
  0.000000000000000E+000
  0.000000000000000E+000
  0.000000000000000E+000
  0.000000000000000E+000
  0.000000000000000E+000
  0.000000000000000E+000
  0.000000000000000E+000
  0.000000000000000E+000
  0.000000000000000E+000
  0.000000000000000E+000
  0.000000000000000E+000
  0.000000000000000E+000
  0.000000000000000E+000
  0.000000000000000E+000
  0.000000000000000E+000
  0.000000000000000E+000
  0.000000000000000E+000
  0.000000000000000E+000
  0.000000000000000E+000
  0.000000000000000E+000
  0.000000000000000E+000
  0.000000000000000E+000
  0.000000000000000E+000
  0.000000000000000E+000
  0.000000000000000E+000
  0.000000000000000E+000
  0.000000000000000E+000
  0.000000000000000E+000
  0.000000000000000E+000
  0.000000000000000E+000
  0.000000000000000E+000
  0.000000000000000E+000
  0.000000000000000E+000
  0.000000000000000E+000
  0.000000000000000E+000
  0.000000000000000E+000
  0.000000000000000E+000
  0.000000000000000E+000
  0.000000000000000E+000
  0.000000000000000E+000
  0.000000000000000E+000
  0.000000000000000E+000
  0.000000000000000E+000
  0.000000000000000E+000
  0.000000000000000E+000
  0.000000000000000E+000
  0.000000000000000E+000
  0.000000000000000E+000
  0.000000000000000E+000
  0.000000000000000E+000
  0.000000000000000E+000
  0.000000000000000E+000
  0.000000000000000E+000
  0.000000000000000E+000
  0.000000000000000E+000
  0.000000000000000E+000
  0.000000000000000E+000
  0.000000000000000E+000
  0.000000000000000E+000
  0.000000000000000E+000
  0.000000000000000E+000
  0.000000000000000E+000
  0.000000000000000E+000
  0.000000000000000E+000
  0.000000000000000E+000
  0.000000000000000E+000
  0.000000000000000E+000
  0.000000000000000E+000
  0.000000000000000E+000
  0.000000000000000E+000
  0.000000000000000E+000
  0.000000000000000E+000
  0.000000000000000E+000
  0.000000000000000E+000
  0.000000000000000E+000
  0.000000000000000E+000
  0.000000000000000E+000
  0.000000000000000E+000
  0.000000000000000E+000
  0.000000000000000E+000
  0.000000000000000E+000
  0.000000000000000E+000
  0.000000000000000E+000
  0.000000000000000E+000
  0.000000000000000E+000
  0.000000000000000E+000
  0.000000000000000E+000
  0.000000000000000E+000
  0.000000000000000E+000
  0.000000000000000E+000
  0.000000000000000E+000
  0.000000000000000E+000
  0.000000000000000E+000
  0.000000000000000E+000
  0.000000000000000E+000
  0.000000000000000E+000
  0.000000000000000E+000
  0.000000000000000E+000
  0.000000000000000E+000
  0.000000000000000E+000
  0.000000000000000E+000
  0.000000000000000E+000
  0.000000000000000E+000
  0.000000000000000E+000
  0.000000000000000E+000
  0.000000000000000E+000
  0.000000000000000E+000
  0.000000000000000E+000
  0.000000000000000E+000
  0.000000000000000E+000
  0.000000000000000E+000
  0.000000000000000E+000
  0.000000000000000E+000
  0.000000000000000E+000
  0.000000000000000E+000
  0.000000000000000E+000
  0.000000000000000E+000
  0.000000000000000E+000
  0.000000000000000E+000
  0.000000000000000E+000
  0.000000000000000E+000
  0.000000000000000E+000
  0.000000000000000E+000
  0.000000000000000E+000
  0.000000000000000E+000
  0.000000000000000E+000
  0.000000000000000E+000
  0.000000000000000E+000
  0.000000000000000E+000
  0.000000000000000E+000
  0.000000000000000E+000
  0.000000000000000E+000
  0.000000000000000E+000
  0.000000000000000E+000
  0.000000000000000E+000
  0.000000000000000E+000
  0.000000000000000E+000
  0.000000000000000E+000
  0.000000000000000E+000
  0.000000000000000E+000
  0.000000000000000E+000
  0.000000000000000E+000
  0.000000000000000E+000
  0.000000000000000E+000
  0.000000000000000E+000
  0.000000000000000E+000
  0.000000000000000E+000
  0.000000000000000E+000
  0.000000000000000E+000
  0.000000000000000E+000
  0.000000000000000E+000
  0.000000000000000E+000
  0.000000000000000E+000
  0.000000000000000E+000
  0.000000000000000E+000
  0.000000000000000E+000
  0.000000000000000E+000
  0.000000000000000E+000
  0.000000000000000E+000
  0.000000000000000E+000
  0.000000000000000E+000
  0.000000000000000E+000
  0.000000000000000E+000
  0.000000000000000E+000
  0.000000000000000E+000
  0.000000000000000E+000
  0.000000000000000E+000
  0.000000000000000E+000
  0.000000000000000E+000
  0.000000000000000E+000
  0.000000000000000E+000
  0.000000000000000E+000
  0.000000000000000E+000
  0.000000000000000E+000
  0.000000000000000E+000
  0.000000000000000E+000
  0.000000000000000E+000
  0.000000000000000E+000
  0.000000000000000E+000
  0.000000000000000E+000
  0.000000000000000E+000
  0.000000000000000E+000
  0.000000000000000E+000
  0.000000000000000E+000
  0.000000000000000E+000
  0.000000000000000E+000
  0.000000000000000E+000
  0.000000000000000E+000
  0.000000000000000E+000
  0.000000000000000E+000
  0.000000000000000E+000
  0.000000000000000E+000
  0.000000000000000E+000
  0.000000000000000E+000
  0.000000000000000E+000
  0.000000000000000E+000
  0.000000000000000E+000
  0.000000000000000E+000
  0.000000000000000E+000
  0.000000000000000E+000
  0.000000000000000E+000
  0.000000000000000E+000
  0.000000000000000E+000
  0.000000000000000E+000
  0.000000000000000E+000
  0.000000000000000E+000
  0.000000000000000E+000
  0.000000000000000E+000
  0.000000000000000E+000
  0.000000000000000E+000
  0.000000000000000E+000
  0.000000000000000E+000
  0.000000000000000E+000
  0.000000000000000E+000
  0.000000000000000E+000
  0.000000000000000E+000
  0.000000000000000E+000
  0.000000000000000E+000
  0.000000000000000E+000
  0.000000000000000E+000
  0.000000000000000E+000
  0.000000000000000E+000
  0.000000000000000E+000
  0.000000000000000E+000
  0.000000000000000E+000
  0.000000000000000E+000
  0.000000000000000E+000
  0.000000000000000E+000
  0.000000000000000E+000
  0.000000000000000E+000
  0.000000000000000E+000
  0.000000000000000E+000
  0.000000000000000E+000
  0.000000000000000E+000
  0.000000000000000E+000
  0.000000000000000E+000
  0.000000000000000E+000
  0.000000000000000E+000
  0.000000000000000E+000
  0.000000000000000E+000
  0.000000000000000E+000
  0.000000000000000E+000
  0.000000000000000E+000
  0.000000000000000E+000
  0.000000000000000E+000
  0.000000000000000E+000
  0.000000000000000E+000
  0.000000000000000E+000
  0.000000000000000E+000
  0.000000000000000E+000
  0.000000000000000E+000
  0.000000000000000E+000
  0.000000000000000E+000
  0.000000000000000E+000
  0.000000000000000E+000
  0.000000000000000E+000
  0.000000000000000E+000
  0.000000000000000E+000
  0.000000000000000E+000
  0.000000000000000E+000
  0.000000000000000E+000
  0.000000000000000E+000
  0.000000000000000E+000
  0.000000000000000E+000
  0.000000000000000E+000
  0.000000000000000E+000
  0.000000000000000E+000
  0.000000000000000E+000
  0.000000000000000E+000
  0.000000000000000E+000
  0.000000000000000E+000
  0.000000000000000E+000
  0.000000000000000E+000
  0.000000000000000E+000
  0.000000000000000E+000
  0.000000000000000E+000
  0.000000000000000E+000
  0.000000000000000E+000
  0.000000000000000E+000
  0.000000000000000E+000
  0.000000000000000E+000
  0.000000000000000E+000
  0.000000000000000E+000
  0.000000000000000E+000
  0.000000000000000E+000
  0.000000000000000E+000
  0.000000000000000E+000
  0.000000000000000E+000
  0.000000000000000E+000
  0.000000000000000E+000
  0.000000000000000E+000
  0.000000000000000E+000
  0.000000000000000E+000
  0.000000000000000E+000
  0.000000000000000E+000
  0.000000000000000E+000
  0.000000000000000E+000
  0.000000000000000E+000
  0.000000000000000E+000
  0.000000000000000E+000
  0.000000000000000E+000
  0.000000000000000E+000
  0.000000000000000E+000
