# vtk DataFile Version 3.0
vtk output
ASCII
DATASET UNSTRUCTURED_GRID
POINTS       496 double 
  0.00000000E+00  3.00000000E+02  0.00000000E+00
  0.00000000E+00  2.80000000E+02  0.00000000E+00
  0.00000000E+00  2.60000000E+02  0.00000000E+00
  0.00000000E+00  2.40000000E+02  0.00000000E+00
  0.00000000E+00  2.20000000E+02  0.00000000E+00
  0.00000000E+00  2.00000000E+02  0.00000000E+00
  0.00000000E+00  1.80000000E+02  0.00000000E+00
  0.00000000E+00  1.60000000E+02  0.00000000E+00
  0.00000000E+00  1.40000000E+02  0.00000000E+00
  0.00000000E+00  1.20000000E+02  0.00000000E+00
  0.00000000E+00  1.00000000E+02  0.00000000E+00
  0.00000000E+00  8.00000000E+01  0.00000000E+00
  0.00000000E+00  6.00000000E+01  0.00000000E+00
  0.00000000E+00  4.00000000E+01  0.00000000E+00
  0.00000000E+00  2.00000000E+01  0.00000000E+00
  0.00000000E+00  4.99600361E-14  0.00000000E+00
  2.00000000E+01  3.00000000E+02  0.00000000E+00
  2.00000000E+01  2.80000000E+02  0.00000000E+00
  2.00000000E+01  2.60000000E+02  0.00000000E+00
  2.00000000E+01  2.40000000E+02  0.00000000E+00
  2.00000000E+01  2.20000000E+02  0.00000000E+00
  2.00000000E+01  2.00000000E+02  0.00000000E+00
  2.00000000E+01  1.80000000E+02  0.00000000E+00
  2.00000000E+01  1.60000000E+02  0.00000000E+00
  2.00000000E+01  1.40000000E+02  0.00000000E+00
  2.00000000E+01  1.20000000E+02  0.00000000E+00
  2.00000000E+01  1.00000000E+02  0.00000000E+00
  2.00000000E+01  8.00000000E+01  0.00000000E+00
  2.00000000E+01  6.00000000E+01  0.00000000E+00
  2.00000000E+01  4.00000000E+01  0.00000000E+00
  2.00000000E+01  2.00000000E+01  0.00000000E+00
  2.00000000E+01  4.99600361E-14  0.00000000E+00
  4.00000000E+01  3.00000000E+02  0.00000000E+00
  4.00000000E+01  2.80000000E+02  0.00000000E+00
  4.00000000E+01  2.60000000E+02  0.00000000E+00
  4.00000000E+01  2.40000000E+02  0.00000000E+00
  4.00000000E+01  2.20000000E+02  0.00000000E+00
  4.00000000E+01  2.00000000E+02  0.00000000E+00
  4.00000000E+01  1.80000000E+02  0.00000000E+00
  4.00000000E+01  1.60000000E+02  0.00000000E+00
  4.00000000E+01  1.40000000E+02  0.00000000E+00
  4.00000000E+01  1.20000000E+02  0.00000000E+00
  4.00000000E+01  1.00000000E+02  0.00000000E+00
  4.00000000E+01  8.00000000E+01  0.00000000E+00
  4.00000000E+01  6.00000000E+01  0.00000000E+00
  4.00000000E+01  4.00000000E+01  0.00000000E+00
  4.00000000E+01  2.00000000E+01  0.00000000E+00
  4.00000000E+01  4.99600361E-14  0.00000000E+00
  6.00000000E+01  3.00000000E+02  0.00000000E+00
  6.00000000E+01  2.80000000E+02  0.00000000E+00
  6.00000000E+01  2.60000000E+02  0.00000000E+00
  6.00000000E+01  2.40000000E+02  0.00000000E+00
  6.00000000E+01  2.20000000E+02  0.00000000E+00
  6.00000000E+01  2.00000000E+02  0.00000000E+00
  6.00000000E+01  1.80000000E+02  0.00000000E+00
  6.00000000E+01  1.60000000E+02  0.00000000E+00
  6.00000000E+01  1.40000000E+02  0.00000000E+00
  6.00000000E+01  1.20000000E+02  0.00000000E+00
  6.00000000E+01  1.00000000E+02  0.00000000E+00
  6.00000000E+01  8.00000000E+01  0.00000000E+00
  6.00000000E+01  6.00000000E+01  0.00000000E+00
  6.00000000E+01  4.00000000E+01  0.00000000E+00
  6.00000000E+01  2.00000000E+01  0.00000000E+00
  6.00000000E+01  4.99600361E-14  0.00000000E+00
  8.00000000E+01  3.00000000E+02  0.00000000E+00
  8.00000000E+01  2.80000000E+02  0.00000000E+00
  8.00000000E+01  2.60000000E+02  0.00000000E+00
  8.00000000E+01  2.40000000E+02  0.00000000E+00
  8.00000000E+01  2.20000000E+02  0.00000000E+00
  8.00000000E+01  2.00000000E+02  0.00000000E+00
  8.00000000E+01  1.80000000E+02  0.00000000E+00
  8.00000000E+01  1.60000000E+02  0.00000000E+00
  8.00000000E+01  1.40000000E+02  0.00000000E+00
  8.00000000E+01  1.20000000E+02  0.00000000E+00
  8.00000000E+01  1.00000000E+02  0.00000000E+00
  8.00000000E+01  8.00000000E+01  0.00000000E+00
  8.00000000E+01  6.00000000E+01  0.00000000E+00
  8.00000000E+01  4.00000000E+01  0.00000000E+00
  8.00000000E+01  2.00000000E+01  0.00000000E+00
  8.00000000E+01  4.99600361E-14  0.00000000E+00
  1.00000000E+02  3.00000000E+02  0.00000000E+00
  1.00000000E+02  2.80000000E+02  0.00000000E+00
  1.00000000E+02  2.60000000E+02  0.00000000E+00
  1.00000000E+02  2.40000000E+02  0.00000000E+00
  1.00000000E+02  2.20000000E+02  0.00000000E+00
  1.00000000E+02  2.00000000E+02  0.00000000E+00
  1.00000000E+02  1.80000000E+02  0.00000000E+00
  1.00000000E+02  1.60000000E+02  0.00000000E+00
  1.00000000E+02  1.40000000E+02  0.00000000E+00
  1.00000000E+02  1.20000000E+02  0.00000000E+00
  1.00000000E+02  1.00000000E+02  0.00000000E+00
  1.00000000E+02  8.00000000E+01  0.00000000E+00
  1.00000000E+02  6.00000000E+01  0.00000000E+00
  1.00000000E+02  4.00000000E+01  0.00000000E+00
  1.00000000E+02  2.00000000E+01  0.00000000E+00
  1.00000000E+02  4.99600361E-14  0.00000000E+00
  1.20000000E+02  3.00000000E+02  0.00000000E+00
  1.20000000E+02  2.80000000E+02  0.00000000E+00
  1.20000000E+02  2.60000000E+02  0.00000000E+00
  1.20000000E+02  2.40000000E+02  0.00000000E+00
  1.20000000E+02  2.20000000E+02  0.00000000E+00
  1.20000000E+02  2.00000000E+02  0.00000000E+00
  1.20000000E+02  1.80000000E+02  0.00000000E+00
  1.20000000E+02  1.60000000E+02  0.00000000E+00
  1.20000000E+02  1.40000000E+02  0.00000000E+00
  1.20000000E+02  1.20000000E+02  0.00000000E+00
  1.20000000E+02  1.00000000E+02  0.00000000E+00
  1.20000000E+02  8.00000000E+01  0.00000000E+00
  1.20000000E+02  6.00000000E+01  0.00000000E+00
  1.20000000E+02  4.00000000E+01  0.00000000E+00
  1.20000000E+02  2.00000000E+01  0.00000000E+00
  1.20000000E+02  4.99600361E-14  0.00000000E+00
  1.40000000E+02  3.00000000E+02  0.00000000E+00
  1.40000000E+02  2.80000000E+02  0.00000000E+00
  1.40000000E+02  2.60000000E+02  0.00000000E+00
  1.40000000E+02  2.40000000E+02  0.00000000E+00
  1.40000000E+02  2.20000000E+02  0.00000000E+00
  1.40000000E+02  2.00000000E+02  0.00000000E+00
  1.40000000E+02  1.80000000E+02  0.00000000E+00
  1.40000000E+02  1.60000000E+02  0.00000000E+00
  1.40000000E+02  1.40000000E+02  0.00000000E+00
  1.40000000E+02  1.20000000E+02  0.00000000E+00
  1.40000000E+02  1.00000000E+02  0.00000000E+00
  1.40000000E+02  8.00000000E+01  0.00000000E+00
  1.40000000E+02  6.00000000E+01  0.00000000E+00
  1.40000000E+02  4.00000000E+01  0.00000000E+00
  1.40000000E+02  2.00000000E+01  0.00000000E+00
  1.40000000E+02  4.99600361E-14  0.00000000E+00
  1.60000000E+02  3.00000000E+02  0.00000000E+00
  1.60000000E+02  2.80000000E+02  0.00000000E+00
  1.60000000E+02  2.60000000E+02  0.00000000E+00
  1.60000000E+02  2.40000000E+02  0.00000000E+00
  1.60000000E+02  2.20000000E+02  0.00000000E+00
  1.60000000E+02  2.00000000E+02  0.00000000E+00
  1.60000000E+02  1.80000000E+02  0.00000000E+00
  1.60000000E+02  1.60000000E+02  0.00000000E+00
  1.60000000E+02  1.40000000E+02  0.00000000E+00
  1.60000000E+02  1.20000000E+02  0.00000000E+00
  1.60000000E+02  1.00000000E+02  0.00000000E+00
  1.60000000E+02  8.00000000E+01  0.00000000E+00
  1.60000000E+02  6.00000000E+01  0.00000000E+00
  1.60000000E+02  4.00000000E+01  0.00000000E+00
  1.60000000E+02  2.00000000E+01  0.00000000E+00
  1.60000000E+02  4.99600361E-14  0.00000000E+00
  1.80000000E+02  3.00000000E+02  0.00000000E+00
  1.80000000E+02  2.80000000E+02  0.00000000E+00
  1.80000000E+02  2.60000000E+02  0.00000000E+00
  1.80000000E+02  2.40000000E+02  0.00000000E+00
  1.80000000E+02  2.20000000E+02  0.00000000E+00
  1.80000000E+02  2.00000000E+02  0.00000000E+00
  1.80000000E+02  1.80000000E+02  0.00000000E+00
  1.80000000E+02  1.60000000E+02  0.00000000E+00
  1.80000000E+02  1.40000000E+02  0.00000000E+00
  1.80000000E+02  1.20000000E+02  0.00000000E+00
  1.80000000E+02  1.00000000E+02  0.00000000E+00
  1.80000000E+02  8.00000000E+01  0.00000000E+00
  1.80000000E+02  6.00000000E+01  0.00000000E+00
  1.80000000E+02  4.00000000E+01  0.00000000E+00
  1.80000000E+02  2.00000000E+01  0.00000000E+00
  1.80000000E+02  4.99600361E-14  0.00000000E+00
  2.00000000E+02  3.00000000E+02  0.00000000E+00
  2.00000000E+02  2.80000000E+02  0.00000000E+00
  2.00000000E+02  2.60000000E+02  0.00000000E+00
  2.00000000E+02  2.40000000E+02  0.00000000E+00
  2.00000000E+02  2.20000000E+02  0.00000000E+00
  2.00000000E+02  2.00000000E+02  0.00000000E+00
  2.00000000E+02  1.80000000E+02  0.00000000E+00
  2.00000000E+02  1.60000000E+02  0.00000000E+00
  2.00000000E+02  1.40000000E+02  0.00000000E+00
  2.00000000E+02  1.20000000E+02  0.00000000E+00
  2.00000000E+02  1.00000000E+02  0.00000000E+00
  2.00000000E+02  8.00000000E+01  0.00000000E+00
  2.00000000E+02  6.00000000E+01  0.00000000E+00
  2.00000000E+02  4.00000000E+01  0.00000000E+00
  2.00000000E+02  2.00000000E+01  0.00000000E+00
  2.00000000E+02  4.99600361E-14  0.00000000E+00
  2.20000000E+02  3.00000000E+02  0.00000000E+00
  2.20000000E+02  2.80000000E+02  0.00000000E+00
  2.20000000E+02  2.60000000E+02  0.00000000E+00
  2.20000000E+02  2.40000000E+02  0.00000000E+00
  2.20000000E+02  2.20000000E+02  0.00000000E+00
  2.20000000E+02  2.00000000E+02  0.00000000E+00
  2.20000000E+02  1.80000000E+02  0.00000000E+00
  2.20000000E+02  1.60000000E+02  0.00000000E+00
  2.20000000E+02  1.40000000E+02  0.00000000E+00
  2.20000000E+02  1.20000000E+02  0.00000000E+00
  2.20000000E+02  1.00000000E+02  0.00000000E+00
  2.20000000E+02  8.00000000E+01  0.00000000E+00
  2.20000000E+02  6.00000000E+01  0.00000000E+00
  2.20000000E+02  4.00000000E+01  0.00000000E+00
  2.20000000E+02  2.00000000E+01  0.00000000E+00
  2.20000000E+02  4.99600361E-14  0.00000000E+00
  2.40000000E+02  3.00000000E+02  0.00000000E+00
  2.40000000E+02  2.80000000E+02  0.00000000E+00
  2.40000000E+02  2.60000000E+02  0.00000000E+00
  2.40000000E+02  2.40000000E+02  0.00000000E+00
  2.40000000E+02  2.20000000E+02  0.00000000E+00
  2.40000000E+02  2.00000000E+02  0.00000000E+00
  2.40000000E+02  1.80000000E+02  0.00000000E+00
  2.40000000E+02  1.60000000E+02  0.00000000E+00
  2.40000000E+02  1.40000000E+02  0.00000000E+00
  2.40000000E+02  1.20000000E+02  0.00000000E+00
  2.40000000E+02  1.00000000E+02  0.00000000E+00
  2.40000000E+02  8.00000000E+01  0.00000000E+00
  2.40000000E+02  6.00000000E+01  0.00000000E+00
  2.40000000E+02  4.00000000E+01  0.00000000E+00
  2.40000000E+02  2.00000000E+01  0.00000000E+00
  2.40000000E+02  4.99600361E-14  0.00000000E+00
  2.60000000E+02  3.00000000E+02  0.00000000E+00
  2.60000000E+02  2.80000000E+02  0.00000000E+00
  2.60000000E+02  2.60000000E+02  0.00000000E+00
  2.60000000E+02  2.40000000E+02  0.00000000E+00
  2.60000000E+02  2.20000000E+02  0.00000000E+00
  2.60000000E+02  2.00000000E+02  0.00000000E+00
  2.60000000E+02  1.80000000E+02  0.00000000E+00
  2.60000000E+02  1.60000000E+02  0.00000000E+00
  2.60000000E+02  1.40000000E+02  0.00000000E+00
  2.60000000E+02  1.20000000E+02  0.00000000E+00
  2.60000000E+02  1.00000000E+02  0.00000000E+00
  2.60000000E+02  8.00000000E+01  0.00000000E+00
  2.60000000E+02  6.00000000E+01  0.00000000E+00
  2.60000000E+02  4.00000000E+01  0.00000000E+00
  2.60000000E+02  2.00000000E+01  0.00000000E+00
  2.60000000E+02  4.99600361E-14  0.00000000E+00
  2.80000000E+02  3.00000000E+02  0.00000000E+00
  2.80000000E+02  2.80000000E+02  0.00000000E+00
  2.80000000E+02  2.60000000E+02  0.00000000E+00
  2.80000000E+02  2.40000000E+02  0.00000000E+00
  2.80000000E+02  2.20000000E+02  0.00000000E+00
  2.80000000E+02  2.00000000E+02  0.00000000E+00
  2.80000000E+02  1.80000000E+02  0.00000000E+00
  2.80000000E+02  1.60000000E+02  0.00000000E+00
  2.80000000E+02  1.40000000E+02  0.00000000E+00
  2.80000000E+02  1.20000000E+02  0.00000000E+00
  2.80000000E+02  1.00000000E+02  0.00000000E+00
  2.80000000E+02  8.00000000E+01  0.00000000E+00
  2.80000000E+02  6.00000000E+01  0.00000000E+00
  2.80000000E+02  4.00000000E+01  0.00000000E+00
  2.80000000E+02  2.00000000E+01  0.00000000E+00
  2.80000000E+02  4.99600361E-14  0.00000000E+00
  3.00000000E+02  3.00000000E+02  0.00000000E+00
  3.00000000E+02  2.80000000E+02  0.00000000E+00
  3.00000000E+02  2.60000000E+02  0.00000000E+00
  3.00000000E+02  2.40000000E+02  0.00000000E+00
  3.00000000E+02  2.20000000E+02  0.00000000E+00
  3.00000000E+02  2.00000000E+02  0.00000000E+00
  3.00000000E+02  1.80000000E+02  0.00000000E+00
  3.00000000E+02  1.60000000E+02  0.00000000E+00
  3.00000000E+02  1.40000000E+02  0.00000000E+00
  3.00000000E+02  1.20000000E+02  0.00000000E+00
  3.00000000E+02  1.00000000E+02  0.00000000E+00
  3.00000000E+02  8.00000000E+01  0.00000000E+00
  3.00000000E+02  6.00000000E+01  0.00000000E+00
  3.00000000E+02  4.00000000E+01  0.00000000E+00
  3.00000000E+02  2.00000000E+01  0.00000000E+00
  3.00000000E+02  4.99600361E-14  0.00000000E+00
  3.20000000E+02  3.00000000E+02  0.00000000E+00
  3.20000000E+02  2.80000000E+02  0.00000000E+00
  3.20000000E+02  2.60000000E+02  0.00000000E+00
  3.20000000E+02  2.40000000E+02  0.00000000E+00
  3.20000000E+02  2.20000000E+02  0.00000000E+00
  3.20000000E+02  2.00000000E+02  0.00000000E+00
  3.20000000E+02  1.80000000E+02  0.00000000E+00
  3.20000000E+02  1.60000000E+02  0.00000000E+00
  3.20000000E+02  1.40000000E+02  0.00000000E+00
  3.20000000E+02  1.20000000E+02  0.00000000E+00
  3.20000000E+02  1.00000000E+02  0.00000000E+00
  3.20000000E+02  8.00000000E+01  0.00000000E+00
  3.20000000E+02  6.00000000E+01  0.00000000E+00
  3.20000000E+02  4.00000000E+01  0.00000000E+00
  3.20000000E+02  2.00000000E+01  0.00000000E+00
  3.20000000E+02  4.99600361E-14  0.00000000E+00
  3.40000000E+02  3.00000000E+02  0.00000000E+00
  3.40000000E+02  2.80000000E+02  0.00000000E+00
  3.40000000E+02  2.60000000E+02  0.00000000E+00
  3.40000000E+02  2.40000000E+02  0.00000000E+00
  3.40000000E+02  2.20000000E+02  0.00000000E+00
  3.40000000E+02  2.00000000E+02  0.00000000E+00
  3.40000000E+02  1.80000000E+02  0.00000000E+00
  3.40000000E+02  1.60000000E+02  0.00000000E+00
  3.40000000E+02  1.40000000E+02  0.00000000E+00
  3.40000000E+02  1.20000000E+02  0.00000000E+00
  3.40000000E+02  1.00000000E+02  0.00000000E+00
  3.40000000E+02  8.00000000E+01  0.00000000E+00
  3.40000000E+02  6.00000000E+01  0.00000000E+00
  3.40000000E+02  4.00000000E+01  0.00000000E+00
  3.40000000E+02  2.00000000E+01  0.00000000E+00
  3.40000000E+02  4.99600361E-14  0.00000000E+00
  3.60000000E+02  3.00000000E+02  0.00000000E+00
  3.60000000E+02  2.80000000E+02  0.00000000E+00
  3.60000000E+02  2.60000000E+02  0.00000000E+00
  3.60000000E+02  2.40000000E+02  0.00000000E+00
  3.60000000E+02  2.20000000E+02  0.00000000E+00
  3.60000000E+02  2.00000000E+02  0.00000000E+00
  3.60000000E+02  1.80000000E+02  0.00000000E+00
  3.60000000E+02  1.60000000E+02  0.00000000E+00
  3.60000000E+02  1.40000000E+02  0.00000000E+00
  3.60000000E+02  1.20000000E+02  0.00000000E+00
  3.60000000E+02  1.00000000E+02  0.00000000E+00
  3.60000000E+02  8.00000000E+01  0.00000000E+00
  3.60000000E+02  6.00000000E+01  0.00000000E+00
  3.60000000E+02  4.00000000E+01  0.00000000E+00
  3.60000000E+02  2.00000000E+01  0.00000000E+00
  3.60000000E+02  4.99600361E-14  0.00000000E+00
  3.80000000E+02  3.00000000E+02  0.00000000E+00
  3.80000000E+02  2.80000000E+02  0.00000000E+00
  3.80000000E+02  2.60000000E+02  0.00000000E+00
  3.80000000E+02  2.40000000E+02  0.00000000E+00
  3.80000000E+02  2.20000000E+02  0.00000000E+00
  3.80000000E+02  2.00000000E+02  0.00000000E+00
  3.80000000E+02  1.80000000E+02  0.00000000E+00
  3.80000000E+02  1.60000000E+02  0.00000000E+00
  3.80000000E+02  1.40000000E+02  0.00000000E+00
  3.80000000E+02  1.20000000E+02  0.00000000E+00
  3.80000000E+02  1.00000000E+02  0.00000000E+00
  3.80000000E+02  8.00000000E+01  0.00000000E+00
  3.80000000E+02  6.00000000E+01  0.00000000E+00
  3.80000000E+02  4.00000000E+01  0.00000000E+00
  3.80000000E+02  2.00000000E+01  0.00000000E+00
  3.80000000E+02  4.99600361E-14  0.00000000E+00
  4.00000000E+02  3.00000000E+02  0.00000000E+00
  4.00000000E+02  2.80000000E+02  0.00000000E+00
  4.00000000E+02  2.60000000E+02  0.00000000E+00
  4.00000000E+02  2.40000000E+02  0.00000000E+00
  4.00000000E+02  2.20000000E+02  0.00000000E+00
  4.00000000E+02  2.00000000E+02  0.00000000E+00
  4.00000000E+02  1.80000000E+02  0.00000000E+00
  4.00000000E+02  1.60000000E+02  0.00000000E+00
  4.00000000E+02  1.40000000E+02  0.00000000E+00
  4.00000000E+02  1.20000000E+02  0.00000000E+00
  4.00000000E+02  1.00000000E+02  0.00000000E+00
  4.00000000E+02  8.00000000E+01  0.00000000E+00
  4.00000000E+02  6.00000000E+01  0.00000000E+00
  4.00000000E+02  4.00000000E+01  0.00000000E+00
  4.00000000E+02  2.00000000E+01  0.00000000E+00
  4.00000000E+02  4.99600361E-14  0.00000000E+00
  4.20000000E+02  3.00000000E+02  0.00000000E+00
  4.20000000E+02  2.80000000E+02  0.00000000E+00
  4.20000000E+02  2.60000000E+02  0.00000000E+00
  4.20000000E+02  2.40000000E+02  0.00000000E+00
  4.20000000E+02  2.20000000E+02  0.00000000E+00
  4.20000000E+02  2.00000000E+02  0.00000000E+00
  4.20000000E+02  1.80000000E+02  0.00000000E+00
  4.20000000E+02  1.60000000E+02  0.00000000E+00
  4.20000000E+02  1.40000000E+02  0.00000000E+00
  4.20000000E+02  1.20000000E+02  0.00000000E+00
  4.20000000E+02  1.00000000E+02  0.00000000E+00
  4.20000000E+02  8.00000000E+01  0.00000000E+00
  4.20000000E+02  6.00000000E+01  0.00000000E+00
  4.20000000E+02  4.00000000E+01  0.00000000E+00
  4.20000000E+02  2.00000000E+01  0.00000000E+00
  4.20000000E+02  4.99600361E-14  0.00000000E+00
  4.40000000E+02  3.00000000E+02  0.00000000E+00
  4.40000000E+02  2.80000000E+02  0.00000000E+00
  4.40000000E+02  2.60000000E+02  0.00000000E+00
  4.40000000E+02  2.40000000E+02  0.00000000E+00
  4.40000000E+02  2.20000000E+02  0.00000000E+00
  4.40000000E+02  2.00000000E+02  0.00000000E+00
  4.40000000E+02  1.80000000E+02  0.00000000E+00
  4.40000000E+02  1.60000000E+02  0.00000000E+00
  4.40000000E+02  1.40000000E+02  0.00000000E+00
  4.40000000E+02  1.20000000E+02  0.00000000E+00
  4.40000000E+02  1.00000000E+02  0.00000000E+00
  4.40000000E+02  8.00000000E+01  0.00000000E+00
  4.40000000E+02  6.00000000E+01  0.00000000E+00
  4.40000000E+02  4.00000000E+01  0.00000000E+00
  4.40000000E+02  2.00000000E+01  0.00000000E+00
  4.40000000E+02  4.99600361E-14  0.00000000E+00
  4.60000000E+02  3.00000000E+02  0.00000000E+00
  4.60000000E+02  2.80000000E+02  0.00000000E+00
  4.60000000E+02  2.60000000E+02  0.00000000E+00
  4.60000000E+02  2.40000000E+02  0.00000000E+00
  4.60000000E+02  2.20000000E+02  0.00000000E+00
  4.60000000E+02  2.00000000E+02  0.00000000E+00
  4.60000000E+02  1.80000000E+02  0.00000000E+00
  4.60000000E+02  1.60000000E+02  0.00000000E+00
  4.60000000E+02  1.40000000E+02  0.00000000E+00
  4.60000000E+02  1.20000000E+02  0.00000000E+00
  4.60000000E+02  1.00000000E+02  0.00000000E+00
  4.60000000E+02  8.00000000E+01  0.00000000E+00
  4.60000000E+02  6.00000000E+01  0.00000000E+00
  4.60000000E+02  4.00000000E+01  0.00000000E+00
  4.60000000E+02  2.00000000E+01  0.00000000E+00
  4.60000000E+02  4.99600361E-14  0.00000000E+00
  4.80000000E+02  3.00000000E+02  0.00000000E+00
  4.80000000E+02  2.80000000E+02  0.00000000E+00
  4.80000000E+02  2.60000000E+02  0.00000000E+00
  4.80000000E+02  2.40000000E+02  0.00000000E+00
  4.80000000E+02  2.20000000E+02  0.00000000E+00
  4.80000000E+02  2.00000000E+02  0.00000000E+00
  4.80000000E+02  1.80000000E+02  0.00000000E+00
  4.80000000E+02  1.60000000E+02  0.00000000E+00
  4.80000000E+02  1.40000000E+02  0.00000000E+00
  4.80000000E+02  1.20000000E+02  0.00000000E+00
  4.80000000E+02  1.00000000E+02  0.00000000E+00
  4.80000000E+02  8.00000000E+01  0.00000000E+00
  4.80000000E+02  6.00000000E+01  0.00000000E+00
  4.80000000E+02  4.00000000E+01  0.00000000E+00
  4.80000000E+02  2.00000000E+01  0.00000000E+00
  4.80000000E+02  4.99600361E-14  0.00000000E+00
  5.00000000E+02  3.00000000E+02  0.00000000E+00
  5.00000000E+02  2.80000000E+02  0.00000000E+00
  5.00000000E+02  2.60000000E+02  0.00000000E+00
  5.00000000E+02  2.40000000E+02  0.00000000E+00
  5.00000000E+02  2.20000000E+02  0.00000000E+00
  5.00000000E+02  2.00000000E+02  0.00000000E+00
  5.00000000E+02  1.80000000E+02  0.00000000E+00
  5.00000000E+02  1.60000000E+02  0.00000000E+00
  5.00000000E+02  1.40000000E+02  0.00000000E+00
  5.00000000E+02  1.20000000E+02  0.00000000E+00
  5.00000000E+02  1.00000000E+02  0.00000000E+00
  5.00000000E+02  8.00000000E+01  0.00000000E+00
  5.00000000E+02  6.00000000E+01  0.00000000E+00
  5.00000000E+02  4.00000000E+01  0.00000000E+00
  5.00000000E+02  2.00000000E+01  0.00000000E+00
  5.00000000E+02  4.99600361E-14  0.00000000E+00
  5.20000000E+02  3.00000000E+02  0.00000000E+00
  5.20000000E+02  2.80000000E+02  0.00000000E+00
  5.20000000E+02  2.60000000E+02  0.00000000E+00
  5.20000000E+02  2.40000000E+02  0.00000000E+00
  5.20000000E+02  2.20000000E+02  0.00000000E+00
  5.20000000E+02  2.00000000E+02  0.00000000E+00
  5.20000000E+02  1.80000000E+02  0.00000000E+00
  5.20000000E+02  1.60000000E+02  0.00000000E+00
  5.20000000E+02  1.40000000E+02  0.00000000E+00
  5.20000000E+02  1.20000000E+02  0.00000000E+00
  5.20000000E+02  1.00000000E+02  0.00000000E+00
  5.20000000E+02  8.00000000E+01  0.00000000E+00
  5.20000000E+02  6.00000000E+01  0.00000000E+00
  5.20000000E+02  4.00000000E+01  0.00000000E+00
  5.20000000E+02  2.00000000E+01  0.00000000E+00
  5.20000000E+02  4.99600361E-14  0.00000000E+00
  5.40000000E+02  3.00000000E+02  0.00000000E+00
  5.40000000E+02  2.80000000E+02  0.00000000E+00
  5.40000000E+02  2.60000000E+02  0.00000000E+00
  5.40000000E+02  2.40000000E+02  0.00000000E+00
  5.40000000E+02  2.20000000E+02  0.00000000E+00
  5.40000000E+02  2.00000000E+02  0.00000000E+00
  5.40000000E+02  1.80000000E+02  0.00000000E+00
  5.40000000E+02  1.60000000E+02  0.00000000E+00
  5.40000000E+02  1.40000000E+02  0.00000000E+00
  5.40000000E+02  1.20000000E+02  0.00000000E+00
  5.40000000E+02  1.00000000E+02  0.00000000E+00
  5.40000000E+02  8.00000000E+01  0.00000000E+00
  5.40000000E+02  6.00000000E+01  0.00000000E+00
  5.40000000E+02  4.00000000E+01  0.00000000E+00
  5.40000000E+02  2.00000000E+01  0.00000000E+00
  5.40000000E+02  4.99600361E-14  0.00000000E+00
  5.60000000E+02  3.00000000E+02  0.00000000E+00
  5.60000000E+02  2.80000000E+02  0.00000000E+00
  5.60000000E+02  2.60000000E+02  0.00000000E+00
  5.60000000E+02  2.40000000E+02  0.00000000E+00
  5.60000000E+02  2.20000000E+02  0.00000000E+00
  5.60000000E+02  2.00000000E+02  0.00000000E+00
  5.60000000E+02  1.80000000E+02  0.00000000E+00
  5.60000000E+02  1.60000000E+02  0.00000000E+00
  5.60000000E+02  1.40000000E+02  0.00000000E+00
  5.60000000E+02  1.20000000E+02  0.00000000E+00
  5.60000000E+02  1.00000000E+02  0.00000000E+00
  5.60000000E+02  8.00000000E+01  0.00000000E+00
  5.60000000E+02  6.00000000E+01  0.00000000E+00
  5.60000000E+02  4.00000000E+01  0.00000000E+00
  5.60000000E+02  2.00000000E+01  0.00000000E+00
  5.60000000E+02  4.99600361E-14  0.00000000E+00
  5.80000000E+02  3.00000000E+02  0.00000000E+00
  5.80000000E+02  2.80000000E+02  0.00000000E+00
  5.80000000E+02  2.60000000E+02  0.00000000E+00
  5.80000000E+02  2.40000000E+02  0.00000000E+00
  5.80000000E+02  2.20000000E+02  0.00000000E+00
  5.80000000E+02  2.00000000E+02  0.00000000E+00
  5.80000000E+02  1.80000000E+02  0.00000000E+00
  5.80000000E+02  1.60000000E+02  0.00000000E+00
  5.80000000E+02  1.40000000E+02  0.00000000E+00
  5.80000000E+02  1.20000000E+02  0.00000000E+00
  5.80000000E+02  1.00000000E+02  0.00000000E+00
  5.80000000E+02  8.00000000E+01  0.00000000E+00
  5.80000000E+02  6.00000000E+01  0.00000000E+00
  5.80000000E+02  4.00000000E+01  0.00000000E+00
  5.80000000E+02  2.00000000E+01  0.00000000E+00
  5.80000000E+02  4.99600361E-14  0.00000000E+00
  6.00000000E+02  3.00000000E+02  0.00000000E+00
  6.00000000E+02  2.80000000E+02  0.00000000E+00
  6.00000000E+02  2.60000000E+02  0.00000000E+00
  6.00000000E+02  2.40000000E+02  0.00000000E+00
  6.00000000E+02  2.20000000E+02  0.00000000E+00
  6.00000000E+02  2.00000000E+02  0.00000000E+00
  6.00000000E+02  1.80000000E+02  0.00000000E+00
  6.00000000E+02  1.60000000E+02  0.00000000E+00
  6.00000000E+02  1.40000000E+02  0.00000000E+00
  6.00000000E+02  1.20000000E+02  0.00000000E+00
  6.00000000E+02  1.00000000E+02  0.00000000E+00
  6.00000000E+02  8.00000000E+01  0.00000000E+00
  6.00000000E+02  6.00000000E+01  0.00000000E+00
  6.00000000E+02  4.00000000E+01  0.00000000E+00
  6.00000000E+02  2.00000000E+01  0.00000000E+00
  6.00000000E+02  4.99600361E-14  0.00000000E+00
CELLS       450      2250
         4           0           1          17          16
         4           1           2          18          17
         4           2           3          19          18
         4           3           4          20          19
         4           4           5          21          20
         4           5           6          22          21
         4           6           7          23          22
         4           7           8          24          23
         4           8           9          25          24
         4           9          10          26          25
         4          10          11          27          26
         4          11          12          28          27
         4          12          13          29          28
         4          13          14          30          29
         4          14          15          31          30
         4          16          17          33          32
         4          17          18          34          33
         4          18          19          35          34
         4          19          20          36          35
         4          20          21          37          36
         4          21          22          38          37
         4          22          23          39          38
         4          23          24          40          39
         4          24          25          41          40
         4          25          26          42          41
         4          26          27          43          42
         4          27          28          44          43
         4          28          29          45          44
         4          29          30          46          45
         4          30          31          47          46
         4          32          33          49          48
         4          33          34          50          49
         4          34          35          51          50
         4          35          36          52          51
         4          36          37          53          52
         4          37          38          54          53
         4          38          39          55          54
         4          39          40          56          55
         4          40          41          57          56
         4          41          42          58          57
         4          42          43          59          58
         4          43          44          60          59
         4          44          45          61          60
         4          45          46          62          61
         4          46          47          63          62
         4          48          49          65          64
         4          49          50          66          65
         4          50          51          67          66
         4          51          52          68          67
         4          52          53          69          68
         4          53          54          70          69
         4          54          55          71          70
         4          55          56          72          71
         4          56          57          73          72
         4          57          58          74          73
         4          58          59          75          74
         4          59          60          76          75
         4          60          61          77          76
         4          61          62          78          77
         4          62          63          79          78
         4          64          65          81          80
         4          65          66          82          81
         4          66          67          83          82
         4          67          68          84          83
         4          68          69          85          84
         4          69          70          86          85
         4          70          71          87          86
         4          71          72          88          87
         4          72          73          89          88
         4          73          74          90          89
         4          74          75          91          90
         4          75          76          92          91
         4          76          77          93          92
         4          77          78          94          93
         4          78          79          95          94
         4          80          81          97          96
         4          81          82          98          97
         4          82          83          99          98
         4          83          84         100          99
         4          84          85         101         100
         4          85          86         102         101
         4          86          87         103         102
         4          87          88         104         103
         4          88          89         105         104
         4          89          90         106         105
         4          90          91         107         106
         4          91          92         108         107
         4          92          93         109         108
         4          93          94         110         109
         4          94          95         111         110
         4          96          97         113         112
         4          97          98         114         113
         4          98          99         115         114
         4          99         100         116         115
         4         100         101         117         116
         4         101         102         118         117
         4         102         103         119         118
         4         103         104         120         119
         4         104         105         121         120
         4         105         106         122         121
         4         106         107         123         122
         4         107         108         124         123
         4         108         109         125         124
         4         109         110         126         125
         4         110         111         127         126
         4         112         113         129         128
         4         113         114         130         129
         4         114         115         131         130
         4         115         116         132         131
         4         116         117         133         132
         4         117         118         134         133
         4         118         119         135         134
         4         119         120         136         135
         4         120         121         137         136
         4         121         122         138         137
         4         122         123         139         138
         4         123         124         140         139
         4         124         125         141         140
         4         125         126         142         141
         4         126         127         143         142
         4         128         129         145         144
         4         129         130         146         145
         4         130         131         147         146
         4         131         132         148         147
         4         132         133         149         148
         4         133         134         150         149
         4         134         135         151         150
         4         135         136         152         151
         4         136         137         153         152
         4         137         138         154         153
         4         138         139         155         154
         4         139         140         156         155
         4         140         141         157         156
         4         141         142         158         157
         4         142         143         159         158
         4         144         145         161         160
         4         145         146         162         161
         4         146         147         163         162
         4         147         148         164         163
         4         148         149         165         164
         4         149         150         166         165
         4         150         151         167         166
         4         151         152         168         167
         4         152         153         169         168
         4         153         154         170         169
         4         154         155         171         170
         4         155         156         172         171
         4         156         157         173         172
         4         157         158         174         173
         4         158         159         175         174
         4         160         161         177         176
         4         161         162         178         177
         4         162         163         179         178
         4         163         164         180         179
         4         164         165         181         180
         4         165         166         182         181
         4         166         167         183         182
         4         167         168         184         183
         4         168         169         185         184
         4         169         170         186         185
         4         170         171         187         186
         4         171         172         188         187
         4         172         173         189         188
         4         173         174         190         189
         4         174         175         191         190
         4         176         177         193         192
         4         177         178         194         193
         4         178         179         195         194
         4         179         180         196         195
         4         180         181         197         196
         4         181         182         198         197
         4         182         183         199         198
         4         183         184         200         199
         4         184         185         201         200
         4         185         186         202         201
         4         186         187         203         202
         4         187         188         204         203
         4         188         189         205         204
         4         189         190         206         205
         4         190         191         207         206
         4         192         193         209         208
         4         193         194         210         209
         4         194         195         211         210
         4         195         196         212         211
         4         196         197         213         212
         4         197         198         214         213
         4         198         199         215         214
         4         199         200         216         215
         4         200         201         217         216
         4         201         202         218         217
         4         202         203         219         218
         4         203         204         220         219
         4         204         205         221         220
         4         205         206         222         221
         4         206         207         223         222
         4         208         209         225         224
         4         209         210         226         225
         4         210         211         227         226
         4         211         212         228         227
         4         212         213         229         228
         4         213         214         230         229
         4         214         215         231         230
         4         215         216         232         231
         4         216         217         233         232
         4         217         218         234         233
         4         218         219         235         234
         4         219         220         236         235
         4         220         221         237         236
         4         221         222         238         237
         4         222         223         239         238
         4         224         225         241         240
         4         225         226         242         241
         4         226         227         243         242
         4         227         228         244         243
         4         228         229         245         244
         4         229         230         246         245
         4         230         231         247         246
         4         231         232         248         247
         4         232         233         249         248
         4         233         234         250         249
         4         234         235         251         250
         4         235         236         252         251
         4         236         237         253         252
         4         237         238         254         253
         4         238         239         255         254
         4         240         241         257         256
         4         241         242         258         257
         4         242         243         259         258
         4         243         244         260         259
         4         244         245         261         260
         4         245         246         262         261
         4         246         247         263         262
         4         247         248         264         263
         4         248         249         265         264
         4         249         250         266         265
         4         250         251         267         266
         4         251         252         268         267
         4         252         253         269         268
         4         253         254         270         269
         4         254         255         271         270
         4         256         257         273         272
         4         257         258         274         273
         4         258         259         275         274
         4         259         260         276         275
         4         260         261         277         276
         4         261         262         278         277
         4         262         263         279         278
         4         263         264         280         279
         4         264         265         281         280
         4         265         266         282         281
         4         266         267         283         282
         4         267         268         284         283
         4         268         269         285         284
         4         269         270         286         285
         4         270         271         287         286
         4         272         273         289         288
         4         273         274         290         289
         4         274         275         291         290
         4         275         276         292         291
         4         276         277         293         292
         4         277         278         294         293
         4         278         279         295         294
         4         279         280         296         295
         4         280         281         297         296
         4         281         282         298         297
         4         282         283         299         298
         4         283         284         300         299
         4         284         285         301         300
         4         285         286         302         301
         4         286         287         303         302
         4         288         289         305         304
         4         289         290         306         305
         4         290         291         307         306
         4         291         292         308         307
         4         292         293         309         308
         4         293         294         310         309
         4         294         295         311         310
         4         295         296         312         311
         4         296         297         313         312
         4         297         298         314         313
         4         298         299         315         314
         4         299         300         316         315
         4         300         301         317         316
         4         301         302         318         317
         4         302         303         319         318
         4         304         305         321         320
         4         305         306         322         321
         4         306         307         323         322
         4         307         308         324         323
         4         308         309         325         324
         4         309         310         326         325
         4         310         311         327         326
         4         311         312         328         327
         4         312         313         329         328
         4         313         314         330         329
         4         314         315         331         330
         4         315         316         332         331
         4         316         317         333         332
         4         317         318         334         333
         4         318         319         335         334
         4         320         321         337         336
         4         321         322         338         337
         4         322         323         339         338
         4         323         324         340         339
         4         324         325         341         340
         4         325         326         342         341
         4         326         327         343         342
         4         327         328         344         343
         4         328         329         345         344
         4         329         330         346         345
         4         330         331         347         346
         4         331         332         348         347
         4         332         333         349         348
         4         333         334         350         349
         4         334         335         351         350
         4         336         337         353         352
         4         337         338         354         353
         4         338         339         355         354
         4         339         340         356         355
         4         340         341         357         356
         4         341         342         358         357
         4         342         343         359         358
         4         343         344         360         359
         4         344         345         361         360
         4         345         346         362         361
         4         346         347         363         362
         4         347         348         364         363
         4         348         349         365         364
         4         349         350         366         365
         4         350         351         367         366
         4         352         353         369         368
         4         353         354         370         369
         4         354         355         371         370
         4         355         356         372         371
         4         356         357         373         372
         4         357         358         374         373
         4         358         359         375         374
         4         359         360         376         375
         4         360         361         377         376
         4         361         362         378         377
         4         362         363         379         378
         4         363         364         380         379
         4         364         365         381         380
         4         365         366         382         381
         4         366         367         383         382
         4         368         369         385         384
         4         369         370         386         385
         4         370         371         387         386
         4         371         372         388         387
         4         372         373         389         388
         4         373         374         390         389
         4         374         375         391         390
         4         375         376         392         391
         4         376         377         393         392
         4         377         378         394         393
         4         378         379         395         394
         4         379         380         396         395
         4         380         381         397         396
         4         381         382         398         397
         4         382         383         399         398
         4         384         385         401         400
         4         385         386         402         401
         4         386         387         403         402
         4         387         388         404         403
         4         388         389         405         404
         4         389         390         406         405
         4         390         391         407         406
         4         391         392         408         407
         4         392         393         409         408
         4         393         394         410         409
         4         394         395         411         410
         4         395         396         412         411
         4         396         397         413         412
         4         397         398         414         413
         4         398         399         415         414
         4         400         401         417         416
         4         401         402         418         417
         4         402         403         419         418
         4         403         404         420         419
         4         404         405         421         420
         4         405         406         422         421
         4         406         407         423         422
         4         407         408         424         423
         4         408         409         425         424
         4         409         410         426         425
         4         410         411         427         426
         4         411         412         428         427
         4         412         413         429         428
         4         413         414         430         429
         4         414         415         431         430
         4         416         417         433         432
         4         417         418         434         433
         4         418         419         435         434
         4         419         420         436         435
         4         420         421         437         436
         4         421         422         438         437
         4         422         423         439         438
         4         423         424         440         439
         4         424         425         441         440
         4         425         426         442         441
         4         426         427         443         442
         4         427         428         444         443
         4         428         429         445         444
         4         429         430         446         445
         4         430         431         447         446
         4         432         433         449         448
         4         433         434         450         449
         4         434         435         451         450
         4         435         436         452         451
         4         436         437         453         452
         4         437         438         454         453
         4         438         439         455         454
         4         439         440         456         455
         4         440         441         457         456
         4         441         442         458         457
         4         442         443         459         458
         4         443         444         460         459
         4         444         445         461         460
         4         445         446         462         461
         4         446         447         463         462
         4         448         449         465         464
         4         449         450         466         465
         4         450         451         467         466
         4         451         452         468         467
         4         452         453         469         468
         4         453         454         470         469
         4         454         455         471         470
         4         455         456         472         471
         4         456         457         473         472
         4         457         458         474         473
         4         458         459         475         474
         4         459         460         476         475
         4         460         461         477         476
         4         461         462         478         477
         4         462         463         479         478
         4         464         465         481         480
         4         465         466         482         481
         4         466         467         483         482
         4         467         468         484         483
         4         468         469         485         484
         4         469         470         486         485
         4         470         471         487         486
         4         471         472         488         487
         4         472         473         489         488
         4         473         474         490         489
         4         474         475         491         490
         4         475         476         492         491
         4         476         477         493         492
         4         477         478         494         493
         4         478         479         495         494
CELL_TYPES        450
9
9
9
9
9
9
9
9
9
9
9
9
9
9
9
9
9
9
9
9
9
9
9
9
9
9
9
9
9
9
9
9
9
9
9
9
9
9
9
9
9
9
9
9
9
9
9
9
9
9
9
9
9
9
9
9
9
9
9
9
9
9
9
9
9
9
9
9
9
9
9
9
9
9
9
9
9
9
9
9
9
9
9
9
9
9
9
9
9
9
9
9
9
9
9
9
9
9
9
9
9
9
9
9
9
9
9
9
9
9
9
9
9
9
9
9
9
9
9
9
9
9
9
9
9
9
9
9
9
9
9
9
9
9
9
9
9
9
9
9
9
9
9
9
9
9
9
9
9
9
9
9
9
9
9
9
9
9
9
9
9
9
9
9
9
9
9
9
9
9
9
9
9
9
9
9
9
9
9
9
9
9
9
9
9
9
9
9
9
9
9
9
9
9
9
9
9
9
9
9
9
9
9
9
9
9
9
9
9
9
9
9
9
9
9
9
9
9
9
9
9
9
9
9
9
9
9
9
9
9
9
9
9
9
9
9
9
9
9
9
9
9
9
9
9
9
9
9
9
9
9
9
9
9
9
9
9
9
9
9
9
9
9
9
9
9
9
9
9
9
9
9
9
9
9
9
9
9
9
9
9
9
9
9
9
9
9
9
9
9
9
9
9
9
9
9
9
9
9
9
9
9
9
9
9
9
9
9
9
9
9
9
9
9
9
9
9
9
9
9
9
9
9
9
9
9
9
9
9
9
9
9
9
9
9
9
9
9
9
9
9
9
9
9
9
9
9
9
9
9
9
9
9
9
9
9
9
9
9
9
9
9
9
9
9
9
9
9
9
9
9
9
9
9
9
9
9
9
9
9
9
9
9
9
9
9
9
9
9
9
9
9
9
9
9
9
9
9
9
9
9
9
9
9
9
9
9
9
9
9
9
9
9
9
9
9
9
9
9
9
9
9
9
9
9
9
9
9
9
9
9
9
9
9
9
9
9
9
9
9
9
9
9
9
9
9
9
9
9
9
POINT_DATA       496
SCALARS p double 
LOOKUP_TABLE default
   75653513.1351261     
   75686115.1386837     
   75764555.8779835     
   75862788.6200227     
   75973478.0014208     
   76091464.9683658     
   76212980.9428039     
   76334988.3367160     
   76454910.1574987     
   76570461.3540161     
   76679522.6195807     
   76780012.3260476     
   76869721.6448273     
   76945885.7252836     
   77005068.1889156     
   77030216.6760171     
   74541951.2082199     
   74557387.9171826     
   74603004.0942985     
   74672121.3892186     
   74756175.3217086     
   74849766.9183913     
   74948743.8341899     
   75049738.8512134     
   75149868.0772674     
   75246542.3387264     
   75337312.9715765     
   75419709.4445765     
   75490995.0700373     
   75547826.4047263     
   75584440.7291549     
   75596797.2314041     
   73391049.4370500     
   73400369.1925117     
   73429179.2885549     
   73476661.4436589     
   73538747.8311460     
   73610946.5104513     
   73689430.4113274     
   73770885.8417303     
   73852379.7876555     
   73931226.0056970     
   74004859.4922295     
   74070701.6217117     
   74126018.1185509     
   74167685.3557624     
   74193052.0868180     
   74201497.2202057     
   72214337.1197976     
   72220423.0664491     
   72239589.0053295     
   72272514.9005137     
   72317561.3905613     
   72371910.5517498     
   72432504.4749375     
   72496428.0858385     
   72560960.0586383     
   72623544.1950075     
   72681732.5851319     
   72733132.5869778     
   72775387.1495751     
   72806409.4723652     
   72824902.7473327     
   72831001.6055482     
   71018425.0017135     
   71022535.4948760     
   71035528.4588288     
   71058390.9051373     
   71090578.5867068     
   71130463.8544289     
   71175877.0067399     
   71224485.2749748     
   71273972.9149262     
   71322101.9903197     
   71366731.2129329     
   71405838.9949233     
   71437617.0138350     
   71460674.2072976     
   71474336.0815054     
   71478872.2093634     
   69807484.4830184     
   69810270.6089254     
   69819003.3076536     
   69834583.7541512     
   69856940.3817597     
   69885180.0344433     
   69917866.5299918     
   69953284.6287969     
   69989622.7301046     
   70025079.8893792     
   70057933.7281196     
   70086610.6977533     
   70109788.9656026     
   70126542.9002239     
   70136486.9756757     
   70139832.2973869     
   68584351.4576087     
   68586176.4373987     
   68591758.3327556     
   68601788.0565237     
   68616379.1866846     
   68635088.1068332     
   68657038.8065040     
   68681080.6244895     
   68705928.2134560     
   68730268.1879308     
   68752842.4626230     
   68772526.5329271     
   68788415.2519052     
   68799910.0032726     
   68806777.9790240     
   68809138.7534718     
   67350922.5332884     
   67351984.4370721     
   67355045.2273583     
   67360562.0092154     
   67368708.8963644     
   67379333.6988043     
   67391993.4070112     
   67406032.5580823     
   67420672.1630640     
   67435091.6584890     
   67448500.6650910     
   67460204.0763346     
   67469661.3869910     
   67476532.0584170     
   67480688.4486235     
   67482174.6080083     
   66108306.3753798     
   66108691.4994378     
   66109531.8302675     
   66111072.1008494     
   66113505.3504784     
   66116894.4890242     
   66121152.6193686     
   66126063.9151709     
   66131325.3160702     
   66136594.5108148     
   66141536.4596624     
   66145864.6722318     
   66149373.0444514     
   66151950.5245619     
   66153567.6926549     
   66154225.3631322     
   64856864.7729736     
   64856573.3414695     
   64855240.0937482     
   64852943.5089653     
   64849900.9366165     
   64846366.8337038     
   64842575.5120761     
   64838718.8635799     
   64834947.0133103     
   64831380.9663702     
   64828128.9758791     
   64825300.4052900     
   64823011.2905821     
   64821375.2134817     
   64820473.1554537     
   64820298.4936637     
   63596199.9803677     
   63595159.0022525     
   63591484.0424948     
   63585150.6389734     
   63576436.3851537     
   63565800.4449043     
   63553797.4765868     
   63541020.8548373     
   63528067.7899735     
   63515518.4638017     
   63503921.9561725     
   63493782.6320026     
   63485541.3332359     
   63479546.4122127     
   63476011.0849643     
   63474956.4503369     
   62325112.7348151     
   62323182.1909590     
   62316801.3884147     
   62305920.9898169     
   62290938.1584346     
   62272558.5028488     
   62251685.0696882     
   62229331.8678340     
   62206557.5258878     
   62184413.5999039     
   62163901.7297603     
   62145934.0697678     
   62131292.0722040     
   62120579.8950050     
   62114170.6878860     
   62112146.9165235     
   61041542.4855316     
   61038517.3235031     
   61028877.0142220     
   61012640.0813407     
   60990403.6222439     
   60963186.6679610     
   60932295.0781211     
   60899207.4761776     
   60865480.0449506     
   60832666.5543952     
   60802249.0730991     
   60775574.5736570     
   60753793.1755933     
   60737795.1558744     
   60728146.1102004     
   60725022.6130341     
   59742494.2673985     
   59738102.9603581     
   59724456.3313971     
   59701749.7418750     
   59670882.2986121     
   59633278.5282324     
   59590727.5318627     
   59545241.2815433     
   59498931.8304540     
   59453905.2216146     
   59412168.3220843     
   59375544.0918322     
   59345591.1709280     
   59323525.2095840     
   59310141.9458251     
   59305745.3064923     
   58423951.6934371     
   58417851.1458596     
   58399244.3501053     
   58368632.1919939     
   58327342.8821107     
   58277326.1087845     
   58220962.1621360     
   58160890.4943758     
   58099859.5001029     
   58040596.2787934     
   57985692.6093610     
   57937502.0006686     
   57898042.8803004     
   57868904.8143474     
   57851157.8532310     
   57845269.1249406     
   57080770.9569919     
   57072536.8340504     
   57047782.7541060     
   57007469.7944652     
   56953513.8369670     
   56888542.3277481     
   56815665.6680873     
   56738271.7028377     
   56659847.3910609     
   56583826.8130231     
   56513460.5171177     
   56451698.8771773     
   56401082.1665864     
   56363632.4824315     
   56340747.0174572     
   56333097.6569394     
   55706545.5700139     
   55695656.3983164     
   55663292.1097686     
   55611065.3143075     
   55541680.5617428     
   55458637.6246554     
   55365952.6297341     
   55267911.4855382     
   55168862.4421000     
   55073046.3160617     
   54984456.1153234     
   54906714.0450297     
   54842953.8526453     
   54795700.0417492     
   54766741.8763408     
   54757008.0764941     
   54293424.9187578     
   54279237.2795338     
   54237458.7461090     
   54170599.3345231     
   54082413.6304583     
   53977524.6714713     
   53861075.1640753     
   53738429.6634555     
   53614937.7522086     
   53495754.1465166     
   53385700.6781666     
   53289149.4218216     
   53209906.4895523     
   53151081.6626766     
   53114938.7743263     
   53102733.7821965     
   52831860.3174570     
   52813570.7361267     
   52760134.1951325     
   52675288.2960218     
   52564188.6429226     
   52432911.3415845     
   52288003.8885429     
   52136122.2983231     
   51983767.6158352     
   51837111.0307653     
   51701879.6031979     
   51583266.7420068     
   51485832.9903280     
   51413371.9029898     
   51368730.8112252     
   51353594.5798437     
   51310237.8613672     
   51286823.8944556     
   51218896.2340002     
   51111884.8420896     
   50972835.0196409     
   50809719.5445545     
   50630842.5506625     
   50444394.7057261     
   50258173.6293843     
   50079443.3398097     
   49914881.0157064     
   49770550.2152497     
   49651844.3042961     
   49563358.8608148     
   49508674.5559052     
   49490059.7097628     
   49714333.8273038     
   49684460.9928792     
   49598388.3249200     
   49463924.6012416     
   49290711.5060681     
   49089229.8269052     
   48869985.6945857     
   48642967.7254308     
   48417380.3557184     
   48201592.9856400     
   48003210.9193129     
   47829168.2428619     
   47685754.8096024     
   47578512.7142813     
   47511970.3008493     
   47489222.8222231     
   48026487.2987123     
   47988357.0134103     
   47879295.8905631     
   47710555.8065119     
   47495436.3263329     
   47247787.1649609     
   46980873.9373141     
   46706736.1522524     
   46436003.9069336     
   46178038.2748867     
   45941228.6229727     
   45733291.8916889     
   45561445.7816519     
   45432359.2088261     
   45351824.7840289     
   45324156.9915143     
   46224308.6343734     
   46175398.6549376     
   46036705.8409117     
   45824659.7578975     
   45557872.0610359     
   45254790.3798686     
   44932108.6854866     
   44604083.5592478     
   44282595.5267496     
   43977659.9996742     
   43698104.4981457     
   43452195.2711213     
   43248048.2905616     
   43093686.8567173     
   42996645.2830527     
   42963097.6418338     
   44278592.0025870     
   44215189.2373118     
   44037366.2131136     
   43769712.9440755     
   43438821.6376759     
   43069484.3317334     
   42682527.7516528     
   42294327.4219865     
   41917468.8629540     
   41561925.5145096     
   41236314.3597215     
   40948992.8070892     
   40708833.9927855     
   40525495.1646775     
   40408976.2106061     
   40368363.6345777     
   42149781.4763121     
   42066083.4045113     
   41834854.6820897     
   41494293.6519120     
   41083406.1714798     
   40635698.3166072     
   40176556.7852469     
   39723727.3681843     
   39289314.3496836     
   38882047.8873235     
   38509291.0838858     
   38178710.6453821     
   37899586.4923927     
   37683506.7266869     
   37544017.1215637     
   37494857.2461417     
   39781591.2835286     
   39667834.0435373     
   39360434.1257716     
   38921876.1035101     
   38411087.0006515     
   37872953.0797863     
   37336606.0170216     
   36818998.8313117     
   36329614.6764736     
   35874197.2940722     
   35457406.9054698     
   35085021.8757820     
   34765958.5660765     
   34513885.9182505     
   34347423.4342359     
   34287850.3594292     
   37088465.3253932     
   36926548.2252757     
   36503984.8500662     
   35930463.8421893     
   35297074.9147010     
   34660909.8873233     
   34050094.7159239     
   33476099.2498651     
   32942733.7099544     
   32450712.1441532     
   32000406.2885440     
   31594052.0277546     
   31238665.6706022     
   30949395.3416106     
   30751799.7643520     
   30679537.3185850     
   33927432.3569635     
   33678953.9752408     
   33069111.0455209     
   32307869.5354888     
   31536059.2167436     
   30810804.5527853     
   30145220.2978793     
   29538849.8349483     
   28986596.6577453     
   28482546.2811315     
   28021672.5702059     
   27601317.8338587     
   27223470.9866321     
   26902140.2260961     
   26670768.6556088     
   26583201.9032513     
   30021526.5225180     
   29590387.8284640     
   28641208.1624176     
   27646366.9703470     
   26768239.4270454     
   26004188.7371294     
   25338055.7212401     
   24751825.7438974     
   24230172.0726335     
   23760584.6526641     
   23333077.7776028     
   22940083.8342604     
   22577638.4230664     
   22247527.1517319     
   21987339.0845738     
   21884106.9934476     
   24701507.6642437     
   23625987.1320682     
   22146716.6870384     
   21089226.0862072     
   20272706.2924768     
   19621833.9912948     
   19085968.8680871     
   18633253.3084480     
   18242106.1434820     
   17897163.5762318     
   17586880.0222343     
   17302168.9630740     
   17035462.7206885     
   16782382.1084698     
   16533001.8135022     
   16413853.3354103     
   10000000.0000000     
   10000000.0000000     
   10000000.0000000     
   10000000.0000000     
   10000000.0000000     
   10000000.0000000     
   10000000.0000000     
   10000000.0000000     
   10000000.0000000     
   10000000.0000000     
   10000000.0000000     
   10000000.0000000     
   10000000.0000000     
  10000000.00000000     
   10000000.0000000     
   10000000.0000000     
VECTORS u double 
    0.00000E+00         0.73367E+01         0.00000E+00
    0.00000E+00         0.69300E+01         0.00000E+00
    0.00000E+00         0.65105E+01         0.00000E+00
    0.00000E+00         0.60851E+01         0.00000E+00
    0.00000E+00         0.56549E+01         0.00000E+00
    0.00000E+00         0.52199E+01         0.00000E+00
    0.00000E+00         0.47788E+01         0.00000E+00
    0.00000E+00         0.43301E+01         0.00000E+00
    0.00000E+00         0.38715E+01         0.00000E+00
    0.00000E+00         0.34001E+01         0.00000E+00
    0.00000E+00         0.29125E+01         0.00000E+00
    0.00000E+00         0.24042E+01         0.00000E+00
    0.00000E+00         0.18696E+01         0.00000E+00
    0.00000E+00         0.13011E+01         0.00000E+00
    0.00000E+00         0.68686E+00         0.00000E+00
    0.00000E+00         0.00000E+00         0.00000E+00
    0.11981E+01         0.72226E+01         0.00000E+00
    0.10426E+01         0.68422E+01         0.00000E+00
    0.93700E+00         0.64379E+01         0.00000E+00
    0.85304E+00         0.60226E+01         0.00000E+00
    0.78191E+00         0.56001E+01         0.00000E+00
    0.71896E+00         0.51714E+01         0.00000E+00
    0.66129E+00         0.47358E+01         0.00000E+00
    0.60677E+00         0.42919E+01         0.00000E+00
    0.55367E+00         0.38377E+01         0.00000E+00
    0.50039E+00         0.33704E+01         0.00000E+00
    0.44522E+00         0.28866E+01         0.00000E+00
    0.38615E+00         0.23820E+01         0.00000E+00
    0.32039E+00         0.18509E+01         0.00000E+00
    0.24343E+00         0.12858E+01         0.00000E+00
    0.14656E+00         0.67514E+00         0.00000E+00
    0.00000E+00         0.00000E+00         0.00000E+00
    0.23230E+01         0.69476E+01         0.00000E+00
    0.20377E+01         0.66017E+01         0.00000E+00
    0.18268E+01         0.62302E+01         0.00000E+00
    0.16578E+01         0.58410E+01         0.00000E+00
    0.15143E+01         0.54398E+01         0.00000E+00
    0.13872E+01         0.50290E+01         0.00000E+00
    0.12708E+01         0.46091E+01         0.00000E+00
    0.11610E+01         0.41794E+01         0.00000E+00
    0.10541E+01         0.37381E+01         0.00000E+00
    0.94699E+00         0.32830E+01         0.00000E+00
    0.83637E+00         0.28107E+01         0.00000E+00
    0.71827E+00         0.23172E+01         0.00000E+00
    0.58747E+00         0.17972E+01         0.00000E+00
    0.43595E+00         0.12436E+01         0.00000E+00
    0.24895E+00         0.64722E+00         0.00000E+00
    0.00000E+00         0.00000E+00         0.00000E+00
    0.33695E+01         0.65527E+01         0.00000E+00
    0.29776E+01         0.62423E+01         0.00000E+00
    0.26696E+01         0.59080E+01         0.00000E+00
    0.24170E+01         0.55533E+01         0.00000E+00
    0.22009E+01         0.51828E+01         0.00000E+00
    0.20091E+01         0.47992E+01         0.00000E+00
    0.18333E+01         0.44039E+01         0.00000E+00
    0.16676E+01         0.39966E+01         0.00000E+00
    0.15066E+01         0.35763E+01         0.00000E+00
    0.13456E+01         0.31411E+01         0.00000E+00
    0.11799E+01         0.26881E+01         0.00000E+00
    0.10039E+01         0.22136E+01         0.00000E+00
    0.81047E+00         0.17130E+01         0.00000E+00
    0.58962E+00         0.11807E+01         0.00000E+00
    0.32645E+00         0.61086E+00         0.00000E+00
    0.00000E+00         0.00000E+00         0.00000E+00
    0.43387E+01         0.60605E+01         0.00000E+00
    0.38570E+01         0.57866E+01         0.00000E+00
    0.34623E+01         0.54909E+01         0.00000E+00
    0.31307E+01         0.51745E+01         0.00000E+00
    0.28435E+01         0.48403E+01         0.00000E+00
    0.25874E+01         0.44905E+01         0.00000E+00
    0.23525E+01         0.41267E+01         0.00000E+00
    0.21309E+01         0.37491E+01         0.00000E+00
    0.19160E+01         0.33571E+01         0.00000E+00
    0.17019E+01         0.29492E+01         0.00000E+00
    0.14822E+01         0.25231E+01         0.00000E+00
    0.12503E+01         0.20756E+01         0.00000E+00
    0.99806E+00         0.16031E+01         0.00000E+00
    0.71502E+00         0.11016E+01         0.00000E+00
    0.38780E+00         0.56765E+00         0.00000E+00
    0.00000E+00         0.00000E+00         0.00000E+00
    0.52326E+01         0.54870E+01         0.00000E+00
    0.46739E+01         0.52504E+01         0.00000E+00
    0.42023E+01         0.49941E+01         0.00000E+00
    0.37975E+01         0.47180E+01         0.00000E+00
    0.34426E+01         0.44234E+01         0.00000E+00
    0.31240E+01         0.41121E+01         0.00000E+00
    0.28309E+01         0.37851E+01         0.00000E+00
    0.25545E+01         0.34432E+01         0.00000E+00
    0.22868E+01         0.30859E+01         0.00000E+00
    0.20207E+01         0.27121E+01         0.00000E+00
    0.17490E+01         0.23201E+01         0.00000E+00
    0.14642E+01         0.19074E+01         0.00000E+00
    0.11577E+01         0.14712E+01         0.00000E+00
    0.81946E+00         0.10089E+01         0.00000E+00
    0.43787E+00         0.51854E+00         0.00000E+00
    0.00000E+00         0.00000E+00         0.00000E+00
    0.60535E+01         0.48440E+01         0.00000E+00
    0.54280E+01         0.46457E+01         0.00000E+00
    0.48879E+01         0.44296E+01         0.00000E+00
    0.44162E+01         0.41949E+01         0.00000E+00
    0.39979E+01         0.39421E+01         0.00000E+00
    0.36198E+01         0.36724E+01         0.00000E+00
    0.32707E+01         0.33865E+01         0.00000E+00
    0.29411E+01         0.30852E+01         0.00000E+00
    0.26224E+01         0.27681E+01         0.00000E+00
    0.23064E+01         0.24347E+01         0.00000E+00
    0.19854E+01         0.20834E+01         0.00000E+00
    0.16512E+01         0.17126E+01         0.00000E+00
    0.12952E+01         0.13201E+01         0.00000E+00
    0.90804E+00         0.90429E+00         0.00000E+00
    0.47975E+00         0.46412E+00         0.00000E+00
    0.00000E+00         0.00000E+00         0.00000E+00
    0.68038E+01         0.41408E+01         0.00000E+00
    0.61196E+01         0.39815E+01         0.00000E+00
    0.55184E+01         0.38063E+01         0.00000E+00
    0.49861E+01         0.36141E+01         0.00000E+00
    0.45091E+01         0.34048E+01         0.00000E+00
    0.40751E+01         0.31790E+01         0.00000E+00
    0.36731E+01         0.29376E+01         0.00000E+00
    0.32931E+01         0.26809E+01         0.00000E+00
    0.29259E+01         0.24090E+01         0.00000E+00
    0.25629E+01         0.21213E+01         0.00000E+00
    0.21956E+01         0.18168E+01         0.00000E+00
    0.18158E+01         0.14942E+01         0.00000E+00
    0.14150E+01         0.11520E+01         0.00000E+00
    0.98442E+00         0.78904E+00         0.00000E+00
    0.51555E+00         0.40486E+00         0.00000E+00
    0.00000E+00         0.00000E+00         0.00000E+00
    0.74860E+01         0.33845E+01         0.00000E+00
    0.67496E+01         0.32652E+01         0.00000E+00
    0.60937E+01         0.31316E+01         0.00000E+00
    0.55065E+01         0.29826E+01         0.00000E+00
    0.49758E+01         0.28181E+01         0.00000E+00
    0.44903E+01         0.26383E+01         0.00000E+00
    0.40391E+01         0.24440E+01         0.00000E+00
    0.36121E+01         0.22356E+01         0.00000E+00
    0.31998E+01         0.20129E+01         0.00000E+00
    0.27930E+01         0.17758E+01         0.00000E+00
    0.23832E+01         0.15234E+01         0.00000E+00
    0.19617E+01         0.12547E+01         0.00000E+00
    0.15204E+01         0.96856E+00         0.00000E+00
    0.10513E+01         0.66415E+00         0.00000E+00
    0.54677E+00         0.34113E+00         0.00000E+00
    0.00000E+00         0.00000E+00         0.00000E+00
    0.81021E+01         0.25809E+01         0.00000E+00
    0.73189E+01         0.25023E+01         0.00000E+00
    0.66139E+01         0.24110E+01         0.00000E+00
    0.59771E+01         0.23061E+01         0.00000E+00
    0.53978E+01         0.21875E+01         0.00000E+00
    0.48654E+01         0.20555E+01         0.00000E+00
    0.43693E+01         0.19107E+01         0.00000E+00
    0.38994E+01         0.17534E+01         0.00000E+00
    0.34458E+01         0.15838E+01         0.00000E+00
    0.29992E+01         0.14015E+01         0.00000E+00
    0.25507E+01         0.12059E+01         0.00000E+00
    0.20917E+01         0.99618E+00         0.00000E+00
    0.16142E+01         0.77127E+00         0.00000E+00
    0.11107E+01         0.53042E+00         0.00000E+00
    0.57452E+00         0.27324E+00         0.00000E+00
    0.00000E+00         0.00000E+00         0.00000E+00
    0.86542E+01         0.17343E+01         0.00000E+00
    0.78282E+01         0.16972E+01         0.00000E+00
    0.70789E+01         0.16489E+01         0.00000E+00
    0.63977E+01         0.15888E+01         0.00000E+00
    0.57749E+01         0.15172E+01         0.00000E+00
    0.52005E+01         0.14344E+01         0.00000E+00
    0.46642E+01         0.13412E+01         0.00000E+00
    0.41559E+01         0.12379E+01         0.00000E+00
    0.36655E+01         0.11246E+01         0.00000E+00
    0.31834E+01         0.10010E+01         0.00000E+00
    0.27004E+01         0.86650E+00         0.00000E+00
    0.22080E+01         0.72023E+00         0.00000E+00
    0.16983E+01         0.56119E+00         0.00000E+00
    0.11642E+01         0.38846E+00         0.00000E+00
    0.59965E+00         0.20143E+00         0.00000E+00
    0.00000E+00         0.00000E+00         0.00000E+00
    0.91435E+01         0.84810E+00         0.00000E+00
    0.82783E+01         0.85318E+00         0.00000E+00
    0.74889E+01         0.84842E+00         0.00000E+00
    0.67679E+01         0.83391E+00         0.00000E+00
    0.61066E+01         0.81026E+00         0.00000E+00
    0.54954E+01         0.77824E+00         0.00000E+00
    0.49241E+01         0.73854E+00         0.00000E+00
    0.43823E+01         0.69164E+00         0.00000E+00
    0.38599E+01         0.63763E+00         0.00000E+00
    0.33469E+01         0.57622E+00         0.00000E+00
    0.28339E+01         0.50670E+00         0.00000E+00
    0.23124E+01         0.42808E+00         0.00000E+00
    0.17743E+01         0.33916E+00         0.00000E+00
    0.12129E+01         0.23877E+00         0.00000E+00
    0.62284E+00         0.12592E+00         0.00000E+00
    0.00000E+00         0.00000E+00         0.00000E+00
    0.95709E+01        -0.75429E-01         0.00000E+00
    0.86690E+01        -0.27549E-01         0.00000E+00
    0.78433E+01         0.11864E-01         0.00000E+00
    0.70873E+01         0.43692E-01         0.00000E+00
    0.63926E+01         0.69072E-01         0.00000E+00
    0.57499E+01         0.89135E-01         0.00000E+00
    0.51489E+01         0.10480E+00         0.00000E+00
    0.45790E+01         0.11664E+00         0.00000E+00
    0.40298E+01         0.12474E+00         0.00000E+00
    0.34909E+01         0.12873E+00         0.00000E+00
    0.29527E+01         0.12777E+00         0.00000E+00
    0.24061E+01         0.12062E+00         0.00000E+00
    0.18434E+01         0.10580E+00         0.00000E+00
    0.12580E+01         0.81712E-01         0.00000E+00
    0.64464E+00         0.46855E-01         0.00000E+00
    0.00000E+00         0.00000E+00         0.00000E+00
    0.99364E+01        -0.10346E+01         0.00000E+00
    0.90001E+01        -0.94335E+00         0.00000E+00
    0.81416E+01        -0.85916E+00         0.00000E+00
    0.73550E+01        -0.78024E+00         0.00000E+00
    0.66320E+01        -0.70481E+00         0.00000E+00
    0.59633E+01        -0.63127E+00         0.00000E+00
    0.53384E+01        -0.55845E+00         0.00000E+00
    0.47462E+01        -0.48565E+00         0.00000E+00
    0.41757E+01        -0.41279E+00         0.00000E+00
    0.36162E+01        -0.34035E+00         0.00000E+00
    0.30575E+01        -0.26939E+00         0.00000E+00
    0.24904E+01        -0.20145E+00         0.00000E+00
    0.19068E+01        -0.13844E+00         0.00000E+00
    0.13002E+01        -0.82459E-01         0.00000E+00
    0.66553E+00        -0.35659E-01         0.00000E+00
    0.00000E+00         0.00000E+00         0.00000E+00
    0.10239E+02        -0.20284E+01         0.00000E+00
    0.92704E+01        -0.18932E+01         0.00000E+00
    0.83825E+01        -0.17636E+01         0.00000E+00
    0.75697E+01        -0.16368E+01         0.00000E+00
    0.68238E+01        -0.15102E+01         0.00000E+00
    0.61350E+01        -0.13818E+01         0.00000E+00
    0.54921E+01        -0.12501E+01         0.00000E+00
    0.48836E+01        -0.11141E+01         0.00000E+00
    0.42978E+01        -0.97395E+00         0.00000E+00
    0.37233E+01        -0.83016E+00         0.00000E+00
    0.31493E+01        -0.68408E+00         0.00000E+00
    0.25661E+01        -0.53763E+00         0.00000E+00
    0.19653E+01        -0.39320E+00         0.00000E+00
    0.13402E+01        -0.25354E+00         0.00000E+00
    0.68595E+00        -0.12153E+00         0.00000E+00
    0.00000E+00         0.00000E+00         0.00000E+00
    0.10478E+02        -0.30560E+01         0.00000E+00
    0.94781E+01        -0.28763E+01         0.00000E+00
    0.85640E+01        -0.27007E+01         0.00000E+00
    0.77297E+01        -0.25251E+01         0.00000E+00
    0.69664E+01        -0.23463E+01         0.00000E+00
    0.62636E+01        -0.21616E+01         0.00000E+00
    0.56092E+01        -0.19691E+01         0.00000E+00
    0.49909E+01        -0.17678E+01         0.00000E+00
    0.43961E+01        -0.15579E+01         0.00000E+00
    0.38125E+01        -0.13399E+01         0.00000E+00
    0.32285E+01        -0.11157E+01         0.00000E+00
    0.26339E+01        -0.88744E+00         0.00000E+00
    0.20196E+01        -0.65818E+00         0.00000E+00
    0.13787E+01        -0.43136E+00         0.00000E+00
    0.70631E+00        -0.21070E+00         0.00000E+00
    0.00000E+00         0.00000E+00         0.00000E+00
    0.10650E+02        -0.41170E+01         0.00000E+00
    0.96202E+01        -0.38922E+01         0.00000E+00
    0.86835E+01        -0.36698E+01         0.00000E+00
    0.78327E+01        -0.34445E+01         0.00000E+00
    0.70580E+01        -0.32122E+01         0.00000E+00
    0.63476E+01        -0.29696E+01         0.00000E+00
    0.56886E+01        -0.27145E+01         0.00000E+00
    0.50674E+01        -0.24458E+01         0.00000E+00
    0.44701E+01        -0.21636E+01         0.00000E+00
    0.38836E+01        -0.18688E+01         0.00000E+00
    0.32953E+01        -0.15635E+01         0.00000E+00
    0.26941E+01        -0.12504E+01         0.00000E+00
    0.20703E+01        -0.93306E+00         0.00000E+00
    0.14163E+01        -0.61574E+00         0.00000E+00
    0.72695E+00        -0.30309E+00         0.00000E+00
    0.00000E+00         0.00000E+00         0.00000E+00
    0.10750E+02        -0.52108E+01         0.00000E+00
    0.96932E+01        -0.49402E+01         0.00000E+00
    0.87377E+01        -0.46701E+01         0.00000E+00
    0.78757E+01        -0.43941E+01         0.00000E+00
    0.70959E+01        -0.41069E+01         0.00000E+00
    0.63851E+01        -0.38047E+01         0.00000E+00
    0.57287E+01        -0.34849E+01         0.00000E+00
    0.51117E+01        -0.31466E+01         0.00000E+00
    0.45191E+01        -0.27897E+01         0.00000E+00
    0.39362E+01        -0.24156E+01         0.00000E+00
    0.33496E+01        -0.20266E+01         0.00000E+00
    0.27468E+01        -0.16258E+01         0.00000E+00
    0.21175E+01        -0.12174E+01         0.00000E+00
    0.14532E+01        -0.80644E+00         0.00000E+00
    0.74817E+00        -0.39860E+00         0.00000E+00
    0.00000E+00         0.00000E+00         0.00000E+00
    0.10775E+02        -0.63365E+01         0.00000E+00
    0.96921E+01        -0.60194E+01         0.00000E+00
    0.87223E+01        -0.57006E+01         0.00000E+00
    0.78550E+01        -0.53725E+01         0.00000E+00
    0.70772E+01        -0.50287E+01         0.00000E+00
    0.63734E+01        -0.46649E+01         0.00000E+00
    0.57274E+01        -0.42785E+01         0.00000E+00
    0.51223E+01        -0.38682E+01         0.00000E+00
    0.45416E+01        -0.34345E+01         0.00000E+00
    0.39693E+01        -0.29788E+01         0.00000E+00
    0.33905E+01        -0.25036E+01         0.00000E+00
    0.27917E+01        -0.20126E+01         0.00000E+00
    0.21612E+01        -0.15105E+01         0.00000E+00
    0.14896E+01        -0.10031E+01         0.00000E+00
    0.77016E+00        -0.49711E+00         0.00000E+00
    0.00000E+00         0.00000E+00         0.00000E+00
    0.10716E+02        -0.74929E+01         0.00000E+00
    0.96109E+01        -0.71282E+01         0.00000E+00
    0.86320E+01        -0.67595E+01         0.00000E+00
    0.77663E+01        -0.63775E+01         0.00000E+00
    0.69981E+01        -0.59751E+01         0.00000E+00
    0.63096E+01        -0.55476E+01         0.00000E+00
    0.56822E+01        -0.50922E+01         0.00000E+00
    0.50970E+01        -0.46078E+01         0.00000E+00
    0.45358E+01        -0.40951E+01         0.00000E+00
    0.39811E+01        -0.35556E+01         0.00000E+00
    0.34167E+01        -0.29924E+01         0.00000E+00
    0.28277E+01        -0.24093E+01         0.00000E+00
    0.22008E+01        -0.18114E+01         0.00000E+00
    0.15252E+01        -0.12052E+01         0.00000E+00
    0.79293E+00        -0.59841E+00         0.00000E+00
    0.00000E+00         0.00000E+00         0.00000E+00
    0.10566E+02        -0.86778E+01         0.00000E+00
    0.94425E+01        -0.82642E+01         0.00000E+00
    0.84607E+01        -0.78439E+01         0.00000E+00
    0.76044E+01        -0.74060E+01         0.00000E+00
    0.68544E+01        -0.69426E+01         0.00000E+00
    0.61900E+01        -0.64487E+01         0.00000E+00
    0.55897E+01        -0.59217E+01         0.00000E+00
    0.50326E+01        -0.53609E+01         0.00000E+00
    0.44987E+01        -0.47672E+01         0.00000E+00
    0.39690E+01        -0.41426E+01         0.00000E+00
    0.34259E+01        -0.34901E+01         0.00000E+00
    0.28527E+01        -0.28136E+01         0.00000E+00
    0.22348E+01        -0.21186E+01         0.00000E+00
    0.15592E+01        -0.14119E+01         0.00000E+00
    0.81621E+00        -0.70223E+00         0.00000E+00
    0.00000E+00         0.00000E+00         0.00000E+00
    0.10314E+02        -0.98880E+01         0.00000E+00
    0.91782E+01        -0.94240E+01         0.00000E+00
    0.82012E+01        -0.89498E+01         0.00000E+00
    0.73633E+01        -0.84532E+01         0.00000E+00
    0.66413E+01        -0.79256E+01         0.00000E+00
    0.60104E+01        -0.73621E+01         0.00000E+00
    0.54462E+01        -0.67606E+01         0.00000E+00
    0.49254E+01        -0.61212E+01         0.00000E+00
    0.44265E+01        -0.54451E+01         0.00000E+00
    0.39290E+01        -0.47345E+01         0.00000E+00
    0.34140E+01        -0.39923E+01         0.00000E+00
    0.28635E+01        -0.32225E+01         0.00000E+00
    0.22605E+01        -0.24301E+01         0.00000E+00
    0.15900E+01        -0.16222E+01         0.00000E+00
    0.83930E+00        -0.80817E+00         0.00000E+00
    0.00000E+00         0.00000E+00         0.00000E+00
    0.99503E+01        -0.11119E+02         0.00000E+00
    0.88078E+01        -0.10603E+02         0.00000E+00
    0.78452E+01        -0.10071E+02         0.00000E+00
    0.70366E+01        -0.95123E+01         0.00000E+00
    0.63532E+01        -0.89164E+01         0.00000E+00
    0.57658E+01        -0.82794E+01         0.00000E+00
    0.52466E+01        -0.76002E+01         0.00000E+00
    0.47702E+01        -0.68799E+01         0.00000E+00
    0.43135E+01        -0.61203E+01         0.00000E+00
    0.38553E+01        -0.53239E+01         0.00000E+00
    0.33755E+01        -0.44932E+01         0.00000E+00
    0.28546E+01        -0.36314E+01         0.00000E+00
    0.22737E+01        -0.27430E+01         0.00000E+00
    0.16146E+01        -0.18345E+01         0.00000E+00
    0.86083E+00        -0.91573E+00         0.00000E+00
    0.00000E+00         0.00000E+00         0.00000E+00
    0.94593E+01        -0.12365E+02         0.00000E+00
    0.83198E+01        -0.11793E+02         0.00000E+00
    0.73834E+01        -0.11201E+02         0.00000E+00
    0.66169E+01        -0.10574E+02         0.00000E+00
    0.59842E+01        -0.99043E+01         0.00000E+00
    0.54506E+01        -0.91888E+01         0.00000E+00
    0.49851E+01        -0.84283E+01         0.00000E+00
    0.45602E+01        -0.76252E+01         0.00000E+00
    0.41522E+01        -0.67821E+01         0.00000E+00
    0.37396E+01        -0.59014E+01         0.00000E+00
    0.33017E+01        -0.49849E+01         0.00000E+00
    0.28182E+01        -0.40346E+01         0.00000E+00
    0.22676E+01        -0.30535E+01         0.00000E+00
    0.16282E+01        -0.20469E+01         0.00000E+00
    0.87849E+00        -0.10242E+01         0.00000E+00
    0.00000E+00         0.00000E+00         0.00000E+00
    0.88247E+01        -0.13618E+02         0.00000E+00
    0.77002E+01        -0.12985E+02         0.00000E+00
    0.68055E+01        -0.12326E+02         0.00000E+00
    0.60964E+01        -0.11625E+02         0.00000E+00
    0.55276E+01        -0.10874E+02         0.00000E+00
    0.50582E+01        -0.10074E+02         0.00000E+00
    0.46538E+01        -0.92287E+01         0.00000E+00
    0.42862E+01        -0.83415E+01         0.00000E+00
    0.39320E+01        -0.74161E+01         0.00000E+00
    0.35703E+01        -0.64544E+01         0.00000E+00
    0.31808E+01        -0.54572E+01         0.00000E+00
    0.27426E+01        -0.44243E+01         0.00000E+00
    0.22322E+01        -0.33566E+01         0.00000E+00
    0.16236E+01        -0.22568E+01         0.00000E+00
    0.88854E+00        -0.11329E+01         0.00000E+00
    0.00000E+00         0.00000E+00         0.00000E+00
    0.80261E+01        -0.14866E+02         0.00000E+00
    0.69331E+01        -0.14167E+02         0.00000E+00
    0.60999E+01        -0.13433E+02         0.00000E+00
    0.54668E+01        -0.12647E+02         0.00000E+00
    0.49760E+01        -0.11806E+02         0.00000E+00
    0.45799E+01        -0.10915E+02         0.00000E+00
    0.42422E+01        -0.99804E+01         0.00000E+00
    0.39357E+01        -0.90093E+01         0.00000E+00
    0.36384E+01        -0.80047E+01         0.00000E+00
    0.33315E+01        -0.69678E+01         0.00000E+00
    0.29960E+01        -0.58974E+01         0.00000E+00
    0.26114E+01        -0.47910E+01         0.00000E+00
    0.21528E+01        -0.36459E+01         0.00000E+00
    0.15896E+01        -0.24609E+01         0.00000E+00
    0.88514E+00        -0.12408E+01         0.00000E+00
    0.00000E+00         0.00000E+00         0.00000E+00
    0.70378E+01        -0.16095E+02         0.00000E+00
    0.59993E+01        -0.15320E+02         0.00000E+00
    0.52546E+01        -0.14498E+02         0.00000E+00
    0.47194E+01        -0.13613E+02         0.00000E+00
    0.43200E+01        -0.12670E+02         0.00000E+00
    0.40037E+01        -0.11681E+02         0.00000E+00
    0.37354E+01        -0.10657E+02         0.00000E+00
    0.34908E+01        -0.96050E+01         0.00000E+00
    0.32515E+01        -0.85272E+01         0.00000E+00
    0.30015E+01        -0.74234E+01         0.00000E+00
    0.27247E+01        -0.62904E+01         0.00000E+00
    0.24019E+01        -0.51226E+01         0.00000E+00
    0.20083E+01        -0.39130E+01         0.00000E+00
    0.15097E+01        -0.26548E+01         0.00000E+00
    0.85917E+00        -0.13468E+01         0.00000E+00
    0.00000E+00         0.00000E+00         0.00000E+00
    0.58255E+01        -0.17283E+02         0.00000E+00
    0.48758E+01        -0.16418E+02         0.00000E+00
    0.42568E+01        -0.15487E+02         0.00000E+00
    0.38432E+01        -0.14484E+02         0.00000E+00
    0.35447E+01        -0.13428E+02         0.00000E+00
    0.33099E+01        -0.12339E+02         0.00000E+00
    0.31097E+01        -0.11229E+02         0.00000E+00
    0.29256E+01        -0.10102E+02         0.00000E+00
    0.27435E+01        -0.89611E+01         0.00000E+00
    0.25515E+01        -0.78018E+01         0.00000E+00
    0.23367E+01        -0.66190E+01         0.00000E+00
    0.20834E+01        -0.54045E+01         0.00000E+00
    0.17692E+01        -0.41469E+01         0.00000E+00
    0.13589E+01        -0.28323E+01         0.00000E+00
    0.79618E+00        -0.14491E+01         0.00000E+00
    0.00000E+00         0.00000E+00         0.00000E+00
    0.43379E+01        -0.18399E+02         0.00000E+00
    0.35351E+01        -0.17418E+02         0.00000E+00
    0.30931E+01        -0.16345E+02         0.00000E+00
    0.28188E+01        -0.15200E+02         0.00000E+00
    0.26211E+01        -0.14027E+02         0.00000E+00
    0.24638E+01        -0.12846E+02         0.00000E+00
    0.23280E+01        -0.11662E+02         0.00000E+00
    0.22015E+01        -0.10475E+02         0.00000E+00
    0.20757E+01        -0.92846E+01         0.00000E+00
    0.19424E+01        -0.80839E+01         0.00000E+00
    0.17928E+01        -0.68658E+01         0.00000E+00
    0.16158E+01        -0.56201E+01         0.00000E+00
    0.13943E+01        -0.43328E+01         0.00000E+00
    0.10993E+01        -0.29837E+01         0.00000E+00
    0.67189E+00        -0.15448E+01         0.00000E+00
    0.00000E+00         0.00000E+00         0.00000E+00
    0.24841E+01        -0.19395E+02         0.00000E+00
    0.19507E+01        -0.18230E+02         0.00000E+00
    0.17320E+01        -0.16958E+02         0.00000E+00
    0.15904E+01        -0.15676E+02         0.00000E+00
    0.14863E+01        -0.14411E+02         0.00000E+00
    0.14019E+01        -0.13162E+02         0.00000E+00
    0.13283E+01        -0.11928E+02         0.00000E+00
    0.12596E+01        -0.10703E+02         0.00000E+00
    0.11915E+01        -0.94807E+01         0.00000E+00
    0.11199E+01        -0.82548E+01         0.00000E+00
    0.10401E+01        -0.70162E+01         0.00000E+00
    0.94632E+00        -0.57536E+01         0.00000E+00
    0.82931E+00        -0.44522E+01         0.00000E+00
    0.67248E+00        -0.30897E+01         0.00000E+00
    0.44066E+00        -0.16282E+01         0.00000E+00
    0.00000E+00         0.00000E+00         0.00000E+00
    0.00000E+00        -0.20050E+02         0.00000E+00
    0.00000E+00        -0.18567E+02         0.00000E+00
    0.00000E+00        -0.17171E+02         0.00000E+00
    0.00000E+00        -0.15834E+02         0.00000E+00
    0.00000E+00        -0.14535E+02         0.00000E+00
    0.00000E+00        -0.13263E+02         0.00000E+00
    0.00000E+00        -0.12012E+02         0.00000E+00
    0.00000E+00        -0.10774E+02         0.00000E+00
    0.00000E+00        -0.95424E+01         0.00000E+00
    0.00000E+00        -0.83086E+01         0.00000E+00
    0.00000E+00        -0.70636E+01         0.00000E+00
    0.00000E+00        -0.57960E+01         0.00000E+00
    0.00000E+00        -0.44910E+01         0.00000E+00
    0.00000E+00        -0.31261E+01         0.00000E+00
    0.00000E+00        -0.16642E+01         0.00000E+00
    0.00000E+00         0.00000E+00         0.00000E+00
CELL_DATA        450
VECTORS vDarcy double 
    0.11736E-05         0.25165E-07         0.00000E+00
    0.11540E-05         0.62510E-07         0.00000E+00
    0.11497E-05         0.81796E-07         0.00000E+00
    0.11471E-05         0.92774E-07         0.00000E+00
    0.11456E-05         0.98573E-07         0.00000E+00
    0.11446E-05         0.10071E-06         0.00000E+00
    0.11439E-05         0.10006E-06         0.00000E+00
    0.11434E-05         0.97137E-07         0.00000E+00
    0.11430E-05         0.92271E-07         0.00000E+00
    0.11426E-05         0.85642E-07         0.00000E+00
    0.11422E-05         0.77295E-07         0.00000E+00
    0.11416E-05         0.67103E-07         0.00000E+00
    0.11407E-05         0.54634E-07         0.00000E+00
    0.11393E-05         0.38721E-07         0.00000E+00
    0.11296E-05         0.14844E-07         0.00000E+00
    0.11717E-05         0.12568E-07         0.00000E+00
    0.11453E-05         0.36572E-07         0.00000E+00
    0.11311E-05         0.55663E-07         0.00000E+00
    0.11233E-05         0.68037E-07         0.00000E+00
    0.11185E-05         0.75494E-07         0.00000E+00
    0.11152E-05         0.79221E-07         0.00000E+00
    0.11129E-05         0.79996E-07         0.00000E+00
    0.11111E-05         0.78329E-07         0.00000E+00
    0.11096E-05         0.74541E-07         0.00000E+00
    0.11082E-05         0.68812E-07         0.00000E+00
    0.11067E-05         0.61181E-07         0.00000E+00
    0.11047E-05         0.51531E-07         0.00000E+00
    0.11016E-05         0.39527E-07         0.00000E+00
    0.10955E-05         0.24500E-07         0.00000E+00
    0.10846E-05         0.80965E-08         0.00000E+00
    0.11543E-05         0.75458E-08         0.00000E+00
    0.11290E-05         0.22860E-07         0.00000E+00
    0.11114E-05         0.37333E-07         0.00000E+00
    0.10998E-05         0.48581E-07         0.00000E+00
    0.10920E-05         0.56171E-07         0.00000E+00
    0.10866E-05         0.60546E-07         0.00000E+00
    0.10826E-05         0.62175E-07         0.00000E+00
    0.10795E-05         0.61436E-07         0.00000E+00
    0.10769E-05         0.58599E-07         0.00000E+00
    0.10744E-05         0.53836E-07         0.00000E+00
    0.10717E-05         0.47225E-07         0.00000E+00
    0.10684E-05         0.38777E-07         0.00000E+00
    0.10636E-05         0.28508E-07         0.00000E+00
    0.10565E-05         0.16978E-07         0.00000E+00
    0.10470E-05         0.55601E-08         0.00000E+00
    0.11292E-05         0.48097E-08         0.00000E+00
    0.11063E-05         0.14812E-07         0.00000E+00
    0.10884E-05         0.25110E-07         0.00000E+00
    0.10751E-05         0.34015E-07         0.00000E+00
    0.10654E-05         0.40673E-07         0.00000E+00
    0.10583E-05         0.44910E-07         0.00000E+00
    0.10529E-05         0.46859E-07         0.00000E+00
    0.10487E-05         0.46725E-07         0.00000E+00
    0.10450E-05         0.44697E-07         0.00000E+00
    0.10416E-05         0.40930E-07         0.00000E+00
    0.10379E-05         0.35553E-07         0.00000E+00
    0.10336E-05         0.28714E-07         0.00000E+00
    0.10282E-05         0.20722E-07         0.00000E+00
    0.10214E-05         0.12181E-07         0.00000E+00
    0.10133E-05         0.39872E-08         0.00000E+00
    0.10996E-05         0.31296E-08         0.00000E+00
    0.10793E-05         0.96546E-08         0.00000E+00
    0.10623E-05         0.16735E-07         0.00000E+00
    0.10487E-05         0.23277E-07         0.00000E+00
    0.10382E-05         0.28530E-07         0.00000E+00
    0.10300E-05         0.32136E-07         0.00000E+00
    0.10237E-05         0.34009E-07         0.00000E+00
    0.10185E-05         0.34207E-07         0.00000E+00
    0.10141E-05         0.32838E-07         0.00000E+00
    0.10100E-05         0.30031E-07         0.00000E+00
    0.10057E-05         0.25941E-07         0.00000E+00
    0.10010E-05         0.20783E-07         0.00000E+00
    0.99558E-06         0.14890E-07         0.00000E+00
    0.98930E-06         0.87401E-08         0.00000E+00
    0.98245E-06         0.28926E-08         0.00000E+00
    0.10675E-05         0.20113E-08         0.00000E+00
    0.10496E-05         0.61289E-08         0.00000E+00
    0.10339E-05         0.10763E-07         0.00000E+00
    0.10208E-05         0.15249E-07         0.00000E+00
    0.10102E-05         0.19042E-07         0.00000E+00
    0.10017E-05         0.21796E-07         0.00000E+00
    0.99485E-06         0.23353E-07         0.00000E+00
    0.98922E-06         0.23681E-07         0.00000E+00
    0.98436E-06         0.22828E-07         0.00000E+00
    0.97986E-06         0.20890E-07         0.00000E+00
    0.97537E-06         0.18009E-07         0.00000E+00
    0.97062E-06         0.14388E-07         0.00000E+00
    0.96542E-06         0.10299E-07         0.00000E+00
    0.95979E-06         0.60746E-08         0.00000E+00
    0.95397E-06         0.20461E-08         0.00000E+00
    0.10340E-05         0.12097E-08         0.00000E+00
    0.10182E-05         0.35615E-08         0.00000E+00
    0.10041E-05         0.62994E-08         0.00000E+00
    0.99187E-06         0.90615E-08         0.00000E+00
    0.98170E-06         0.11503E-07         0.00000E+00
    0.97335E-06         0.13364E-07         0.00000E+00
    0.96651E-06         0.14490E-07         0.00000E+00
    0.96081E-06         0.14818E-07         0.00000E+00
    0.95586E-06         0.14358E-07         0.00000E+00
    0.95133E-06         0.13169E-07         0.00000E+00
    0.94691E-06         0.11358E-07         0.00000E+00
    0.94237E-06         0.90782E-08         0.00000E+00
    0.93760E-06         0.65172E-08         0.00000E+00
    0.93263E-06         0.38806E-08         0.00000E+00
    0.92763E-06         0.13451E-08         0.00000E+00
    0.10001E-05         0.58212E-09         0.00000E+00
    0.98613E-06         0.15457E-08         0.00000E+00
    0.97350E-06         0.27535E-08         0.00000E+00
    0.96246E-06         0.40655E-08         0.00000E+00
    0.95310E-06         0.53052E-08         0.00000E+00
    0.94531E-06         0.63130E-08         0.00000E+00
    0.93887E-06         0.69750E-08         0.00000E+00
    0.93346E-06         0.72302E-08         0.00000E+00
    0.92878E-06         0.70663E-08         0.00000E+00
    0.92452E-06         0.65116E-08         0.00000E+00
    0.92042E-06         0.56292E-08         0.00000E+00
    0.91629E-06         0.45093E-08         0.00000E+00
    0.91205E-06         0.32581E-08         0.00000E+00
    0.90770E-06         0.19763E-08         0.00000E+00
    0.90339E-06         0.72944E-09         0.00000E+00
    0.96637E-06         0.36165E-10         0.00000E+00
    0.95405E-06        -0.18763E-09         0.00000E+00
    0.94287E-06        -0.28383E-09         0.00000E+00
    0.93310E-06        -0.22546E-09         0.00000E+00
    0.92480E-06        -0.52903E-10         0.00000E+00
    0.91788E-06         0.16809E-09         0.00000E+00
    0.91215E-06         0.37491E-09         0.00000E+00
    0.90737E-06         0.52311E-09         0.00000E+00
    0.90325E-06         0.59132E-09         0.00000E+00
    0.89953E-06         0.58052E-09         0.00000E+00
    0.89598E-06         0.51012E-09         0.00000E+00
    0.89242E-06         0.41108E-09         0.00000E+00
    0.88877E-06         0.31491E-09         0.00000E+00
    0.88503E-06         0.23760E-09         0.00000E+00
    0.88128E-06         0.15960E-09         0.00000E+00
    0.93346E-06        -0.49315E-09         0.00000E+00
    0.92252E-06        -0.18296E-08         0.00000E+00
    0.91273E-06        -0.31115E-08         0.00000E+00
    0.90428E-06        -0.41836E-08         0.00000E+00
    0.89720E-06        -0.49777E-08         0.00000E+00
    0.89138E-06        -0.54795E-08         0.00000E+00
    0.88664E-06        -0.57019E-08         0.00000E+00
    0.88276E-06        -0.56685E-08         0.00000E+00
    0.87947E-06        -0.54039E-08         0.00000E+00
    0.87652E-06        -0.49298E-08         0.00000E+00
    0.87370E-06        -0.42663E-08         0.00000E+00
    0.87084E-06        -0.34359E-08         0.00000E+00
    0.86784E-06        -0.24717E-08         0.00000E+00
    0.86467E-06        -0.14283E-08         0.00000E+00
    0.86140E-06        -0.39368E-09         0.00000E+00
    0.90176E-06        -0.10537E-08         0.00000E+00
    0.89199E-06        -0.35221E-08         0.00000E+00
    0.88352E-06        -0.59551E-08         0.00000E+00
    0.87643E-06        -0.80978E-08         0.00000E+00
    0.87068E-06        -0.97968E-08         0.00000E+00
    0.86615E-06        -0.10972E-07         0.00000E+00
    0.86263E-06        -0.11594E-07         0.00000E+00
    0.85988E-06        -0.11667E-07         0.00000E+00
    0.85764E-06        -0.11217E-07         0.00000E+00
    0.85566E-06        -0.10286E-07         0.00000E+00
    0.85373E-06        -0.89274E-08         0.00000E+00
    0.85167E-06        -0.72125E-08         0.00000E+00
    0.84936E-06        -0.52301E-08         0.00000E+00
    0.84677E-06        -0.30949E-08         0.00000E+00
    0.84391E-06        -0.95348E-09         0.00000E+00
    0.87159E-06        -0.16818E-08         0.00000E+00
    0.86283E-06        -0.53734E-08         0.00000E+00
    0.85561E-06        -0.89887E-08         0.00000E+00
    0.84990E-06        -0.12195E-07         0.00000E+00
    0.84559E-06        -0.14773E-07         0.00000E+00
    0.84250E-06        -0.16590E-07         0.00000E+00
    0.84038E-06        -0.17585E-07         0.00000E+00
    0.83897E-06        -0.17746E-07         0.00000E+00
    0.83797E-06        -0.17102E-07         0.00000E+00
    0.83714E-06        -0.15713E-07         0.00000E+00
    0.83623E-06        -0.13664E-07         0.00000E+00
    0.83507E-06        -0.11069E-07         0.00000E+00
    0.83350E-06        -0.80655E-08         0.00000E+00
    0.83147E-06        -0.48223E-08         0.00000E+00
    0.82897E-06        -0.15387E-08         0.00000E+00
    0.84316E-06        -0.24056E-08         0.00000E+00
    0.83530E-06        -0.74675E-08         0.00000E+00
    0.82929E-06        -0.12349E-07         0.00000E+00
    0.82500E-06        -0.16655E-07         0.00000E+00
    0.82223E-06        -0.20117E-07         0.00000E+00
    0.82072E-06        -0.22563E-07         0.00000E+00
    0.82017E-06        -0.23908E-07         0.00000E+00
    0.82026E-06        -0.24132E-07         0.00000E+00
    0.82069E-06        -0.23270E-07         0.00000E+00
    0.82116E-06        -0.21399E-07         0.00000E+00
    0.82141E-06        -0.18635E-07         0.00000E+00
    0.82122E-06        -0.15129E-07         0.00000E+00
    0.82044E-06        -0.11065E-07         0.00000E+00
    0.81897E-06        -0.66600E-08         0.00000E+00
    0.81678E-06        -0.21648E-08         0.00000E+00
    0.81663E-06        -0.32469E-08         0.00000E+00
    0.80958E-06        -0.98704E-08         0.00000E+00
    0.80477E-06        -0.16141E-07         0.00000E+00
    0.80195E-06        -0.21619E-07         0.00000E+00
    0.80082E-06        -0.25993E-07         0.00000E+00
    0.80103E-06        -0.29069E-07         0.00000E+00
    0.80221E-06        -0.30747E-07         0.00000E+00
    0.80399E-06        -0.31005E-07         0.00000E+00
    0.80600E-06        -0.29888E-07         0.00000E+00
    0.80791E-06        -0.27494E-07         0.00000E+00
    0.80944E-06        -0.23967E-07         0.00000E+00
    0.81032E-06        -0.19492E-07         0.00000E+00
    0.81038E-06        -0.14298E-07         0.00000E+00
    0.80947E-06        -0.86487E-08         0.00000E+00
    0.80754E-06        -0.28450E-08         0.00000E+00
    0.79204E-06        -0.42231E-08         0.00000E+00
    0.78577E-06        -0.12634E-07         0.00000E+00
    0.78219E-06        -0.20451E-07         0.00000E+00
    0.78093E-06        -0.27196E-07         0.00000E+00
    0.78157E-06        -0.32531E-07         0.00000E+00
    0.78365E-06        -0.36248E-07         0.00000E+00
    0.78672E-06        -0.38243E-07         0.00000E+00
    0.79034E-06        -0.38502E-07         0.00000E+00
    0.79410E-06        -0.37086E-07         0.00000E+00
    0.79761E-06        -0.34113E-07         0.00000E+00
    0.80053E-06        -0.29756E-07         0.00000E+00
    0.80257E-06        -0.24237E-07         0.00000E+00
    0.80350E-06        -0.17821E-07         0.00000E+00
    0.80316E-06        -0.10822E-07         0.00000E+00
    0.80146E-06        -0.35897E-08         0.00000E+00
    0.76935E-06        -0.53479E-08         0.00000E+00
    0.76388E-06        -0.15801E-07         0.00000E+00
    0.76161E-06        -0.25344E-07         0.00000E+00
    0.76203E-06        -0.33469E-07         0.00000E+00
    0.76459E-06        -0.39824E-07         0.00000E+00
    0.76871E-06        -0.44197E-07         0.00000E+00
    0.77386E-06        -0.46493E-07         0.00000E+00
    0.77950E-06        -0.46716E-07         0.00000E+00
    0.78516E-06        -0.44947E-07         0.00000E+00
    0.79041E-06        -0.41332E-07         0.00000E+00
    0.79485E-06        -0.36072E-07         0.00000E+00
    0.79814E-06        -0.29418E-07         0.00000E+00
    0.80001E-06        -0.21677E-07         0.00000E+00
    0.80026E-06        -0.13205E-07         0.00000E+00
    0.79874E-06        -0.44077E-08         0.00000E+00
    0.74843E-06        -0.66330E-08         0.00000E+00
    0.74384E-06        -0.19404E-07         0.00000E+00
    0.74302E-06        -0.30870E-07         0.00000E+00
    0.74530E-06        -0.40499E-07         0.00000E+00
    0.74997E-06        -0.47934E-07         0.00000E+00
    0.75634E-06        -0.52973E-07         0.00000E+00
    0.76375E-06        -0.55547E-07         0.00000E+00
    0.77160E-06        -0.55689E-07         0.00000E+00
    0.77934E-06        -0.53512E-07         0.00000E+00
    0.78647E-06        -0.49189E-07         0.00000E+00
    0.79255E-06        -0.42948E-07         0.00000E+00
    0.79720E-06        -0.35071E-07         0.00000E+00
    0.80008E-06        -0.25894E-07         0.00000E+00
    0.80094E-06        -0.15818E-07         0.00000E+00
    0.79958E-06        -0.53060E-08         0.00000E+00
    0.72905E-06        -0.80887E-08         0.00000E+00
    0.72549E-06        -0.23472E-07         0.00000E+00
    0.72633E-06        -0.37067E-07         0.00000E+00
    0.73071E-06        -0.48322E-07         0.00000E+00
    0.73774E-06        -0.56885E-07         0.00000E+00
    0.74660E-06        -0.62587E-07         0.00000E+00
    0.75649E-06        -0.65402E-07         0.00000E+00
    0.76674E-06        -0.65410E-07         0.00000E+00
    0.77671E-06        -0.62764E-07         0.00000E+00
    0.78588E-06        -0.57671E-07         0.00000E+00
    0.79375E-06        -0.50384E-07         0.00000E+00
    0.79987E-06        -0.41201E-07         0.00000E+00
    0.80386E-06        -0.30486E-07         0.00000E+00
    0.80537E-06        -0.18675E-07         0.00000E+00
    0.80416E-06        -0.62903E-08         0.00000E+00
    0.71088E-06        -0.97253E-08         0.00000E+00
    0.70859E-06        -0.28031E-07         0.00000E+00
    0.71139E-06        -0.43962E-07         0.00000E+00
    0.71819E-06        -0.56947E-07         0.00000E+00
    0.72790E-06        -0.66663E-07         0.00000E+00
    0.73952E-06        -0.72994E-07         0.00000E+00
    0.75214E-06        -0.75986E-07         0.00000E+00
    0.76497E-06        -0.75791E-07         0.00000E+00
    0.77736E-06        -0.72616E-07         0.00000E+00
    0.78871E-06        -0.66706E-07         0.00000E+00
    0.79850E-06        -0.58327E-07         0.00000E+00
    0.80623E-06        -0.47785E-07         0.00000E+00
    0.81144E-06        -0.35450E-07         0.00000E+00
    0.81369E-06        -0.21784E-07         0.00000E+00
    0.81264E-06        -0.73659E-08         0.00000E+00
    0.69350E-06        -0.11555E-07         0.00000E+00
    0.69283E-06        -0.33106E-07         0.00000E+00
    0.69800E-06        -0.51569E-07         0.00000E+00
    0.70765E-06        -0.66357E-07         0.00000E+00
    0.72043E-06        -0.77196E-07         0.00000E+00
    0.73514E-06        -0.84069E-07         0.00000E+00
    0.75072E-06        -0.87134E-07         0.00000E+00
    0.76633E-06        -0.86645E-07         0.00000E+00
    0.78126E-06        -0.82886E-07         0.00000E+00
    0.79493E-06        -0.76135E-07         0.00000E+00
    0.80678E-06        -0.66664E-07         0.00000E+00
    0.81628E-06        -0.54758E-07         0.00000E+00
    0.82287E-06        -0.40765E-07         0.00000E+00
    0.82599E-06        -0.25149E-07         0.00000E+00
    0.82516E-06        -0.85379E-08         0.00000E+00
    0.67638E-06        -0.13592E-07         0.00000E+00
    0.67781E-06        -0.38728E-07         0.00000E+00
    0.68592E-06        -0.59893E-07         0.00000E+00
    0.69899E-06        -0.76491E-07         0.00000E+00
    0.71532E-06        -0.88341E-07         0.00000E+00
    0.73347E-06        -0.95584E-07         0.00000E+00
    0.75225E-06        -0.98552E-07         0.00000E+00
    0.77078E-06        -0.97650E-07         0.00000E+00
    0.78836E-06        -0.93257E-07         0.00000E+00
    0.80444E-06        -0.85689E-07         0.00000E+00
    0.81848E-06        -0.75193E-07         0.00000E+00
    0.82992E-06        -0.61997E-07         0.00000E+00
    0.83811E-06        -0.46381E-07         0.00000E+00
    0.84232E-06        -0.28768E-07         0.00000E+00
    0.84185E-06        -0.98127E-08         0.00000E+00
    0.65887E-06        -0.15863E-07         0.00000E+00
    0.66306E-06        -0.44939E-07         0.00000E+00
    0.67490E-06        -0.68927E-07         0.00000E+00
    0.69212E-06        -0.87235E-07         0.00000E+00
    0.71259E-06        -0.99845E-07         0.00000E+00
    0.73457E-06        -0.10716E-06         0.00000E+00
    0.75676E-06        -0.10977E-06         0.00000E+00
    0.77827E-06        -0.10829E-06         0.00000E+00
    0.79850E-06        -0.10324E-06         0.00000E+00
    0.81700E-06        -0.94941E-07         0.00000E+00
    0.83332E-06        -0.83595E-07         0.00000E+00
    0.84691E-06        -0.69307E-07         0.00000E+00
    0.85699E-06        -0.52216E-07         0.00000E+00
    0.86263E-06        -0.32635E-07         0.00000E+00
    0.86279E-06        -0.11199E-07         0.00000E+00
    0.64016E-06        -0.18407E-07         0.00000E+00
    0.64806E-06        -0.51804E-07         0.00000E+00
    0.66472E-06        -0.78649E-07         0.00000E+00
    0.68707E-06        -0.98383E-07         0.00000E+00
    0.71240E-06        -0.11129E-06         0.00000E+00
    0.73859E-06        -0.11818E-06         0.00000E+00
    0.76428E-06        -0.12006E-06         0.00000E+00
    0.78869E-06        -0.11782E-06         0.00000E+00
    0.81141E-06        -0.11210E-06         0.00000E+00
    0.83223E-06        -0.10326E-06         0.00000E+00
    0.85086E-06        -0.91381E-07         0.00000E+00
    0.86680E-06        -0.76377E-07         0.00000E+00
    0.87918E-06        -0.58131E-07         0.00000E+00
    0.88679E-06        -0.36732E-07         0.00000E+00
    0.88810E-06        -0.12709E-07         0.00000E+00
    0.61927E-06        -0.21294E-07         0.00000E+00
    0.63225E-06        -0.59431E-07         0.00000E+00
    0.65526E-06        -0.89001E-07         0.00000E+00
    0.68406E-06        -0.10957E-06         0.00000E+00
    0.71504E-06        -0.12199E-06         0.00000E+00
    0.74575E-06        -0.12774E-06         0.00000E+00
    0.77486E-06        -0.12837E-06         0.00000E+00
    0.80185E-06        -0.12513E-06         0.00000E+00
    0.82671E-06        -0.11881E-06         0.00000E+00
    0.84955E-06        -0.10973E-06         0.00000E+00
    0.87039E-06        -0.97833E-07         0.00000E+00
    0.88889E-06        -0.82728E-07         0.00000E+00
    0.90413E-06        -0.63902E-07         0.00000E+00
    0.91451E-06        -0.41024E-07         0.00000E+00
    0.91786E-06        -0.14359E-07         0.00000E+00
    0.59495E-06        -0.24646E-07         0.00000E+00
    0.61505E-06        -0.67988E-07         0.00000E+00
    0.64667E-06        -0.99831E-07         0.00000E+00
    0.68362E-06        -0.12014E-06         0.00000E+00
    0.72112E-06        -0.13080E-06         0.00000E+00
    0.75642E-06        -0.13440E-06         0.00000E+00
    0.78853E-06        -0.13320E-06         0.00000E+00
    0.81750E-06        -0.12878E-06         0.00000E+00
    0.84384E-06        -0.12199E-06         0.00000E+00
    0.86816E-06        -0.11312E-06         0.00000E+00
    0.89093E-06        -0.10191E-06         0.00000E+00
    0.91212E-06        -0.87617E-07         0.00000E+00
    0.93091E-06        -0.69140E-07         0.00000E+00
    0.94531E-06        -0.45430E-07         0.00000E+00
    0.95215E-06        -0.16168E-07         0.00000E+00
    0.56552E-06        -0.28687E-07         0.00000E+00
    0.59600E-06        -0.77720E-07         0.00000E+00
    0.63963E-06        -0.11070E-06         0.00000E+00
    0.68690E-06        -0.12873E-06         0.00000E+00
    0.73152E-06        -0.13579E-06         0.00000E+00
    0.77097E-06        -0.13610E-06         0.00000E+00
    0.80520E-06        -0.13259E-06         0.00000E+00
    0.83517E-06        -0.12692E-06         0.00000E+00
    0.86206E-06        -0.11993E-06         0.00000E+00
    0.88706E-06        -0.11179E-06         0.00000E+00
    0.91118E-06        -0.10213E-06         0.00000E+00
    0.93501E-06        -0.89854E-07         0.00000E+00
    0.95812E-06        -0.73137E-07         0.00000E+00
    0.97830E-06        -0.49742E-07         0.00000E+00
    0.99108E-06        -0.18137E-07         0.00000E+00
    0.52863E-06        -0.33853E-07         0.00000E+00
    0.57514E-06        -0.88855E-07         0.00000E+00
    0.63600E-06        -0.12029E-06         0.00000E+00
    0.69586E-06        -0.13243E-06         0.00000E+00
    0.74722E-06        -0.13366E-06         0.00000E+00
    0.78944E-06        -0.12993E-06         0.00000E+00
    0.82442E-06        -0.12409E-06         0.00000E+00
    0.85416E-06        -0.11748E-06         0.00000E+00
    0.88050E-06        -0.11068E-06         0.00000E+00
    0.90514E-06        -0.10378E-06         0.00000E+00
    0.92966E-06        -0.96413E-07         0.00000E+00
    0.95559E-06        -0.87497E-07         0.00000E+00
    0.98360E-06        -0.74492E-07         0.00000E+00
    0.10120E-05        -0.53406E-07         0.00000E+00
    0.10347E-05        -0.20223E-07         0.00000E+00
    0.48079E-06        -0.40872E-07         0.00000E+00
    0.55410E-06        -0.10143E-06         0.00000E+00
    0.64032E-06        -0.12371E-06         0.00000E+00
    0.71304E-06        -0.12477E-06         0.00000E+00
    0.76816E-06        -0.11949E-06         0.00000E+00
    0.81093E-06        -0.11233E-06         0.00000E+00
    0.84502E-06        -0.10504E-06         0.00000E+00
    0.87332E-06        -0.98273E-07         0.00000E+00
    0.89811E-06        -0.92255E-07         0.00000E+00
    0.92138E-06        -0.86980E-07         0.00000E+00
    0.94514E-06        -0.82218E-07         0.00000E+00
    0.97167E-06        -0.77288E-07         0.00000E+00
    0.10042E-05        -0.70341E-07         0.00000E+00
    0.10434E-05        -0.54925E-07         0.00000E+00
    0.10826E-05        -0.22015E-07         0.00000E+00
    0.41565E-06        -0.55496E-07         0.00000E+00
    0.54310E-06        -0.10586E-06         0.00000E+00
    0.66056E-06        -0.10387E-06         0.00000E+00
    0.73691E-06        -0.95675E-07         0.00000E+00
    0.79194E-06        -0.87013E-07         0.00000E+00
    0.83293E-06        -0.79242E-07         0.00000E+00
    0.86485E-06        -0.72634E-07         0.00000E+00
    0.89094E-06        -0.67174E-07         0.00000E+00
    0.91360E-06        -0.62790E-07         0.00000E+00
    0.93490E-06        -0.59413E-07         0.00000E+00
    0.95698E-06        -0.56970E-07         0.00000E+00
    0.98258E-06        -0.55294E-07         0.00000E+00
    0.10157E-05        -0.53816E-07         0.00000E+00
    0.10672E-05        -0.49802E-07         0.00000E+00
    0.11333E-05        -0.23069E-07         0.00000E+00
    0.34048E-06        -0.12927E-07         0.00000E+00
    0.56997E-06        -0.32715E-07         0.00000E+00
    0.68417E-06        -0.31137E-07         0.00000E+00
    0.75960E-06        -0.29034E-07         0.00000E+00
    0.81200E-06        -0.26566E-07         0.00000E+00
    0.85056E-06        -0.24363E-07         0.00000E+00
    0.88024E-06        -0.22490E-07         0.00000E+00
    0.90429E-06        -0.20960E-07         0.00000E+00
    0.92508E-06        -0.19772E-07         0.00000E+00
    0.94463E-06        -0.18929E-07         0.00000E+00
    0.96504E-06        -0.18454E-07         0.00000E+00
    0.98902E-06        -0.18398E-07         0.00000E+00
    0.10212E-05        -0.18704E-07         0.00000E+00
    0.10702E-05        -0.20043E-07         0.00000E+00
    0.11805E-05        -0.10864E-07         0.00000E+00
POINT_DATA        496
VECTORS vDarcyNodal double 
    0.11646E-05         0.34157E-07         0.00000E+00
    0.11600E-05         0.56603E-07         0.00000E+00
    0.11530E-05         0.87538E-07         0.00000E+00
    0.11492E-05         0.10074E-06         0.00000E+00
    0.11470E-05         0.10770E-06         0.00000E+00
    0.11457E-05         0.11047E-06         0.00000E+00
    0.11447E-05         0.11025E-06         0.00000E+00
    0.11440E-05         0.10768E-06         0.00000E+00
    0.11435E-05         0.10318E-06         0.00000E+00
    0.11430E-05         0.96979E-07         0.00000E+00
    0.11425E-05         0.89212E-07         0.00000E+00
    0.11419E-05         0.79862E-07         0.00000E+00
    0.11410E-05         0.68679E-07         0.00000E+00
    0.11394E-05         0.55210E-07         0.00000E+00
    0.11365E-05         0.33875E-07         0.00000E+00
    0.11347E-05         0.19907E-07         0.00000E+00
    0.11666E-05         0.15923E-07         0.00000E+00
    0.11580E-05         0.30662E-07         0.00000E+00
    0.11451E-05         0.56089E-07         0.00000E+00
    0.11382E-05         0.72977E-07         0.00000E+00
    0.11341E-05         0.82698E-07         0.00000E+00
    0.11314E-05         0.87808E-07         0.00000E+00
    0.11295E-05         0.89496E-07         0.00000E+00
    0.11281E-05         0.88490E-07         0.00000E+00
    0.11270E-05         0.85235E-07         0.00000E+00
    0.11261E-05         0.79991E-07         0.00000E+00
    0.11251E-05         0.72862E-07         0.00000E+00
    0.11239E-05         0.63779E-07         0.00000E+00
    0.11222E-05         0.52440E-07         0.00000E+00
    0.11194E-05         0.37713E-07         0.00000E+00
    0.11140E-05         0.19486E-07         0.00000E+00
    0.11104E-05         0.97001E-08         0.00000E+00
    0.11606E-05         0.92963E-08         0.00000E+00
    0.11480E-05         0.18590E-07         0.00000E+00
    0.11282E-05         0.36299E-07         0.00000E+00
    0.11162E-05         0.50886E-07         0.00000E+00
    0.11085E-05         0.60991E-07         0.00000E+00
    0.11033E-05         0.67064E-07         0.00000E+00
    0.10995E-05         0.69877E-07         0.00000E+00
    0.10967E-05         0.69991E-07         0.00000E+00
    0.10945E-05         0.67793E-07         0.00000E+00
    0.10925E-05         0.63523E-07         0.00000E+00
    0.10905E-05         0.57293E-07         0.00000E+00
    0.10881E-05         0.49098E-07         0.00000E+00
    0.10849E-05         0.38781E-07         0.00000E+00
    0.10801E-05         0.26454E-07         0.00000E+00
    0.10721E-05         0.13181E-07         0.00000E+00
    0.10670E-05         0.65156E-08         0.00000E+00
    0.11405E-05         0.58517E-08         0.00000E+00
    0.11285E-05         0.11906E-07         0.00000E+00
    0.11078E-05         0.24034E-07         0.00000E+00
    0.10932E-05         0.35187E-07         0.00000E+00
    0.10829E-05         0.43924E-07         0.00000E+00
    0.10756E-05         0.49816E-07         0.00000E+00
    0.10702E-05         0.53003E-07         0.00000E+00
    0.10661E-05         0.53776E-07         0.00000E+00
    0.10627E-05         0.52396E-07         0.00000E+00
    0.10597E-05         0.49063E-07         0.00000E+00
    0.10567E-05         0.43911E-07         0.00000E+00
    0.10533E-05         0.37038E-07         0.00000E+00
    0.10490E-05         0.28617E-07         0.00000E+00
    0.10431E-05         0.19109E-07         0.00000E+00
    0.10353E-05         0.93911E-08         0.00000E+00
    0.10309E-05         0.46181E-08         0.00000E+00
    0.11136E-05         0.38042E-08         0.00000E+00
    0.11028E-05         0.77813E-08         0.00000E+00
    0.10834E-05         0.16000E-07         0.00000E+00
    0.10681E-05         0.24077E-07         0.00000E+00
    0.10565E-05         0.30915E-07         0.00000E+00
    0.10478E-05         0.35922E-07         0.00000E+00
    0.10412E-05         0.38920E-07         0.00000E+00
    0.10360E-05         0.39959E-07         0.00000E+00
    0.10317E-05         0.39171E-07         0.00000E+00
    0.10279E-05         0.36701E-07         0.00000E+00
    0.10241E-05         0.32696E-07         0.00000E+00
    0.10200E-05         0.27336E-07         0.00000E+00
    0.10151E-05         0.20900E-07         0.00000E+00
    0.10092E-05         0.13846E-07         0.00000E+00
    0.10022E-05         0.67996E-08         0.00000E+00
    0.99838E-06         0.33655E-08         0.00000E+00
    0.10830E-05         0.24796E-08         0.00000E+00
    0.10734E-05         0.50496E-08         0.00000E+00
    0.10557E-05         0.10475E-07         0.00000E+00
    0.10410E-05         0.16049E-07         0.00000E+00
    0.10291E-05         0.21024E-07         0.00000E+00
    0.10198E-05         0.24885E-07         0.00000E+00
    0.10125E-05         0.27367E-07         0.00000E+00
    0.10066E-05         0.28396E-07         0.00000E+00
    0.10017E-05         0.28006E-07         0.00000E+00
    0.99727E-06         0.26291E-07         0.00000E+00
    0.99301E-06         0.23385E-07         0.00000E+00
    0.98854E-06         0.19478E-07         0.00000E+00
    0.98358E-06         0.14838E-07         0.00000E+00
    0.97797E-06         0.98245E-08         0.00000E+00
    0.97181E-06         0.48511E-08         0.00000E+00
    0.96861E-06         0.24273E-08         0.00000E+00
    0.10503E-05         0.15607E-08         0.00000E+00
    0.10419E-05         0.31254E-08         0.00000E+00
    0.10260E-05         0.64847E-08         0.00000E+00
    0.10123E-05         0.10058E-07         0.00000E+00
    0.10008E-05         0.13381E-07         0.00000E+00
    0.99152E-06         0.16079E-07         0.00000E+00
    0.98400E-06         0.17911E-07         0.00000E+00
    0.97785E-06         0.18766E-07         0.00000E+00
    0.97265E-06         0.18625E-07         0.00000E+00
    0.96802E-06         0.17539E-07         0.00000E+00
    0.96361E-06         0.15611E-07         0.00000E+00
    0.95913E-06         0.12998E-07         0.00000E+00
    0.95436E-06         0.99062E-08         0.00000E+00
    0.94923E-06         0.65845E-08         0.00000E+00
    0.94386E-06         0.32855E-08         0.00000E+00
    0.94113E-06         0.16720E-08         0.00000E+00
    0.10167E-05         0.87215E-09         0.00000E+00
    0.10093E-05         0.16731E-08         0.00000E+00
    0.99511E-06         0.34310E-08         0.00000E+00
    0.98262E-06         0.53826E-08         0.00000E+00
    0.97200E-06         0.72829E-08         0.00000E+00
    0.96316E-06         0.89005E-08         0.00000E+00
    0.95590E-06         0.10061E-07         0.00000E+00
    0.94989E-06         0.10661E-07         0.00000E+00
    0.94480E-06         0.10665E-07         0.00000E+00
    0.94027E-06         0.10091E-07         0.00000E+00
    0.93601E-06         0.90049E-08         0.00000E+00
    0.93177E-06         0.75105E-08         0.00000E+00
    0.92739E-06         0.57419E-08         0.00000E+00
    0.92282E-06         0.38466E-08         0.00000E+00
    0.91814E-06         0.19556E-08         0.00000E+00
    0.91580E-06         0.10253E-08         0.00000E+00
    0.98294E-06         0.30359E-09         0.00000E+00
    0.97636E-06         0.47821E-09         0.00000E+00
    0.96382E-06         0.91592E-09         0.00000E+00
    0.95267E-06         0.15072E-08         0.00000E+00
    0.94310E-06         0.21776E-08         0.00000E+00
    0.93508E-06         0.28210E-08         0.00000E+00
    0.92844E-06         0.33379E-08         0.00000E+00
    0.92294E-06         0.36564E-08         0.00000E+00
    0.91827E-06         0.37399E-08         0.00000E+00
    0.91415E-06         0.35859E-08         0.00000E+00
    0.91031E-06         0.32216E-08         0.00000E+00
    0.90653E-06         0.26975E-08         0.00000E+00
    0.90267E-06         0.20770E-08         0.00000E+00
    0.89868E-06         0.14209E-08         0.00000E+00
    0.89463E-06         0.76599E-09         0.00000E+00
    0.89261E-06         0.44109E-09         0.00000E+00
    0.94965E-06        -0.22036E-09         0.00000E+00
    0.94381E-06        -0.60746E-09         0.00000E+00
    0.93274E-06        -0.13422E-08         0.00000E+00
    0.92296E-06        -0.19492E-08         0.00000E+00
    0.91460E-06        -0.23698E-08         0.00000E+00
    0.90763E-06        -0.26058E-08         0.00000E+00
    0.90191E-06        -0.26868E-08         0.00000E+00
    0.89720E-06        -0.26480E-08         0.00000E+00
    0.89326E-06        -0.25184E-08         0.00000E+00
    0.88982E-06        -0.23153E-08         0.00000E+00
    0.88662E-06        -0.20448E-08         0.00000E+00
    0.88347E-06        -0.17057E-08         0.00000E+00
    0.88024E-06        -0.12979E-08         0.00000E+00
    0.87686E-06        -0.83364E-09         0.00000E+00
    0.87338E-06        -0.35186E-09         0.00000E+00
    0.87162E-06        -0.11365E-09         0.00000E+00
    0.91732E-06        -0.75441E-09         0.00000E+00
    0.91213E-06        -0.16921E-08         0.00000E+00
    0.90238E-06        -0.35521E-08         0.00000E+00
    0.89396E-06        -0.52766E-08         0.00000E+00
    0.88691E-06        -0.67031E-08         0.00000E+00
    0.88118E-06        -0.77486E-08         0.00000E+00
    0.87660E-06        -0.83832E-08         0.00000E+00
    0.87295E-06        -0.86082E-08         0.00000E+00
    0.86999E-06        -0.84428E-08         0.00000E+00
    0.86745E-06        -0.79152E-08         0.00000E+00
    0.86509E-06        -0.70606E-08         0.00000E+00
    0.86272E-06        -0.59214E-08         0.00000E+00
    0.86019E-06        -0.45525E-08         0.00000E+00
    0.85745E-06        -0.30283E-08         0.00000E+00
    0.85448E-06        -0.14513E-08         0.00000E+00
    0.85295E-06        -0.66440E-09         0.00000E+00
    0.88633E-06        -0.13397E-08         0.00000E+00
    0.88170E-06        -0.28574E-08         0.00000E+00
    0.87316E-06        -0.58728E-08         0.00000E+00
    0.86607E-06        -0.87000E-08         0.00000E+00
    0.86041E-06        -0.11095E-07         0.00000E+00
    0.85606E-06        -0.12908E-07         0.00000E+00
    0.85282E-06        -0.14062E-07         0.00000E+00
    0.85044E-06        -0.14529E-07         0.00000E+00
    0.84867E-06        -0.14320E-07         0.00000E+00
    0.84723E-06        -0.13475E-07         0.00000E+00
    0.84588E-06        -0.12053E-07         0.00000E+00
    0.84442E-06        -0.10136E-07         0.00000E+00
    0.84268E-06        -0.78264E-08         0.00000E+00
    0.84058E-06        -0.52537E-08         0.00000E+00
    0.83809E-06        -0.25756E-08         0.00000E+00
    0.83675E-06        -0.12318E-08         0.00000E+00
    0.85697E-06        -0.20079E-08         0.00000E+00
    0.85283E-06        -0.41663E-08         0.00000E+00
    0.84539E-06        -0.84277E-08         0.00000E+00
    0.83963E-06        -0.12396E-07         0.00000E+00
    0.83543E-06        -0.15762E-07         0.00000E+00
    0.83258E-06        -0.18328E-07         0.00000E+00
    0.83085E-06        -0.19977E-07         0.00000E+00
    0.82993E-06        -0.20662E-07         0.00000E+00
    0.82954E-06        -0.20391E-07         0.00000E+00
    0.82938E-06        -0.19213E-07         0.00000E+00
    0.82919E-06        -0.17212E-07         0.00000E+00
    0.82874E-06        -0.14503E-07         0.00000E+00
    0.82786E-06        -0.11235E-07         0.00000E+00
    0.82643E-06        -0.75844E-08         0.00000E+00
    0.82439E-06        -0.37603E-08         0.00000E+00
    0.82322E-06        -0.18329E-08         0.00000E+00
    0.82941E-06        -0.27834E-08         0.00000E+00
    0.82571E-06        -0.56678E-08         0.00000E+00
    0.81932E-06        -0.11313E-07         0.00000E+00
    0.81491E-06        -0.16502E-07         0.00000E+00
    0.81223E-06        -0.20877E-07         0.00000E+00
    0.81102E-06        -0.24201E-07         0.00000E+00
    0.81094E-06        -0.26333E-07         0.00000E+00
    0.81165E-06        -0.27214E-07         0.00000E+00
    0.81281E-06        -0.26852E-07         0.00000E+00
    0.81410E-06        -0.25308E-07         0.00000E+00
    0.81521E-06        -0.22692E-07         0.00000E+00
    0.81588E-06        -0.19151E-07         0.00000E+00
    0.81592E-06        -0.14873E-07         0.00000E+00
    0.81518E-06        -0.10082E-07         0.00000E+00
    0.81357E-06        -0.50349E-08         0.00000E+00
    0.81255E-06        -0.24818E-08         0.00000E+00
    0.80376E-06        -0.36852E-08         0.00000E+00
    0.80047E-06        -0.74004E-08         0.00000E+00
    0.79511E-06        -0.14605E-07         0.00000E+00
    0.79207E-06        -0.21127E-07         0.00000E+00
    0.79103E-06        -0.26574E-07         0.00000E+00
    0.79157E-06        -0.30680E-07         0.00000E+00
    0.79331E-06        -0.33291E-07         0.00000E+00
    0.79582E-06        -0.34344E-07         0.00000E+00
    0.79870E-06        -0.33854E-07         0.00000E+00
    0.80158E-06        -0.31901E-07         0.00000E+00
    0.80413E-06        -0.28615E-07         0.00000E+00
    0.80603E-06        -0.24179E-07         0.00000E+00
    0.80706E-06        -0.18816E-07         0.00000E+00
    0.80703E-06        -0.12796E-07         0.00000E+00
    0.80583E-06        -0.64237E-08         0.00000E+00
    0.80494E-06        -0.31903E-08         0.00000E+00
    0.78001E-06        -0.47285E-08         0.00000E+00
    0.77713E-06        -0.93945E-08         0.00000E+00
    0.77282E-06        -0.18363E-07         0.00000E+00
    0.77126E-06        -0.26356E-07         0.00000E+00
    0.77196E-06        -0.32955E-07         0.00000E+00
    0.77442E-06        -0.37878E-07         0.00000E+00
    0.77814E-06        -0.40968E-07         0.00000E+00
    0.78262E-06        -0.42168E-07         0.00000E+00
    0.78739E-06        -0.41510E-07         0.00000E+00
    0.79203E-06        -0.39091E-07         0.00000E+00
    0.79613E-06        -0.35071E-07         0.00000E+00
    0.79938E-06        -0.29661E-07         0.00000E+00
    0.80147E-06        -0.23123E-07         0.00000E+00
    0.80219E-06        -0.15765E-07         0.00000E+00
    0.80138E-06        -0.79459E-08         0.00000E+00
    0.80060E-06        -0.39679E-08         0.00000E+00
    0.75808E-06        -0.59254E-08         0.00000E+00
    0.75564E-06        -0.11674E-07         0.00000E+00
    0.75247E-06        -0.22632E-07         0.00000E+00
    0.75250E-06        -0.32252E-07         0.00000E+00
    0.75512E-06        -0.40093E-07         0.00000E+00
    0.75968E-06        -0.45871E-07         0.00000E+00
    0.76558E-06        -0.49439E-07         0.00000E+00
    0.77221E-06        -0.50759E-07         0.00000E+00
    0.77904E-06        -0.49884E-07         0.00000E+00
    0.78558E-06        -0.46941E-07         0.00000E+00
    0.79139E-06        -0.42116E-07         0.00000E+00
    0.79608E-06        -0.35648E-07         0.00000E+00
    0.79932E-06        -0.27832E-07         0.00000E+00
    0.80083E-06        -0.19020E-07         0.00000E+00
    0.80042E-06        -0.96170E-08         0.00000E+00
    0.79973E-06        -0.48223E-08         0.00000E+00
    0.73779E-06        -0.72862E-08         0.00000E+00
    0.73584E-06        -0.14259E-07         0.00000E+00
    0.73396E-06        -0.27450E-07         0.00000E+00
    0.73579E-06        -0.38858E-07         0.00000E+00
    0.74054E-06        -0.48033E-07         0.00000E+00
    0.74743E-06        -0.54700E-07         0.00000E+00
    0.75571E-06        -0.58736E-07         0.00000E+00
    0.76469E-06        -0.60137E-07         0.00000E+00
    0.77376E-06        -0.58994E-07         0.00000E+00
    0.78237E-06        -0.55465E-07         0.00000E+00
    0.79002E-06        -0.49764E-07         0.00000E+00
    0.79628E-06        -0.42157E-07         0.00000E+00
    0.80076E-06        -0.32966E-07         0.00000E+00
    0.80313E-06        -0.22578E-07         0.00000E+00
    0.80312E-06        -0.11448E-07         0.00000E+00
    0.80251E-06        -0.57598E-08         0.00000E+00
    0.71886E-06        -0.88203E-08         0.00000E+00
    0.71750E-06        -0.17167E-07         0.00000E+00
    0.71714E-06        -0.32844E-07         0.00000E+00
    0.72104E-06        -0.46202E-07         0.00000E+00
    0.72822E-06        -0.56789E-07         0.00000E+00
    0.73771E-06        -0.64358E-07         0.00000E+00
    0.74862E-06        -0.68832E-07         0.00000E+00
    0.76016E-06        -0.70264E-07         0.00000E+00
    0.77164E-06        -0.68793E-07         0.00000E+00
    0.78247E-06        -0.64620E-07         0.00000E+00
    0.79210E-06        -0.57986E-07         0.00000E+00
    0.80007E-06        -0.49174E-07         0.00000E+00
    0.80591E-06        -0.38525E-07         0.00000E+00
    0.80922E-06        -0.26448E-07         0.00000E+00
    0.80965E-06        -0.13448E-07         0.00000E+00
    0.80912E-06        -0.67857E-08         0.00000E+00
    0.70089E-06        -0.10537E-07         0.00000E+00
    0.70029E-06        -0.20414E-07         0.00000E+00
    0.70178E-06        -0.38832E-07         0.00000E+00
    0.70814E-06        -0.54289E-07         0.00000E+00
    0.71812E-06        -0.66338E-07         0.00000E+00
    0.73054E-06        -0.74785E-07         0.00000E+00
    0.74434E-06        -0.79633E-07         0.00000E+00
    0.75865E-06        -0.81017E-07         0.00000E+00
    0.77271E-06        -0.79152E-07         0.00000E+00
    0.78590E-06        -0.74287E-07         0.00000E+00
    0.79765E-06        -0.66687E-07         0.00000E+00
    0.80747E-06        -0.56640E-07         0.00000E+00
    0.81481E-06        -0.44480E-07         0.00000E+00
    0.81919E-06        -0.30628E-07         0.00000E+00
    0.82014E-06        -0.15621E-07         0.00000E+00
    0.81971E-06        -0.79050E-08         0.00000E+00
    0.68342E-06        -0.12449E-07         0.00000E+00
    0.68378E-06        -0.24017E-07         0.00000E+00
    0.68760E-06        -0.45431E-07         0.00000E+00
    0.69692E-06        -0.63102E-07         0.00000E+00
    0.71018E-06        -0.76608E-07         0.00000E+00
    0.72592E-06        -0.85846E-07         0.00000E+00
    0.74291E-06        -0.90944E-07         0.00000E+00
    0.76018E-06        -0.92166E-07         0.00000E+00
    0.77695E-06        -0.89830E-07         0.00000E+00
    0.79261E-06        -0.84244E-07         0.00000E+00
    0.80660E-06        -0.75690E-07         0.00000E+00
    0.81840E-06        -0.64433E-07         0.00000E+00
    0.82743E-06        -0.50772E-07         0.00000E+00
    0.83307E-06        -0.35101E-07         0.00000E+00
    0.83468E-06        -0.17972E-07         0.00000E+00
    0.83441E-06        -0.91230E-08         0.00000E+00
    0.66582E-06        -0.14571E-07         0.00000E+00
    0.66745E-06        -0.27999E-07         0.00000E+00
    0.67425E-06        -0.52651E-07         0.00000E+00
    0.68723E-06        -0.72595E-07         0.00000E+00
    0.70437E-06        -0.87461E-07         0.00000E+00
    0.72389E-06        -0.97299E-07         0.00000E+00
    0.74437E-06        -0.10244E-06         0.00000E+00
    0.76475E-06        -0.10333E-06         0.00000E+00
    0.78429E-06        -0.10043E-06         0.00000E+00
    0.80245E-06        -0.94130E-07         0.00000E+00
    0.81875E-06        -0.84701E-07         0.00000E+00
    0.83269E-06        -0.72352E-07         0.00000E+00
    0.84363E-06        -0.57292E-07         0.00000E+00
    0.85080E-06        -0.39834E-07         0.00000E+00
    0.85333E-06        -0.20500E-07         0.00000E+00
    0.85334E-06        -0.10447E-07         0.00000E+00
    0.64734E-06        -0.16930E-07         0.00000E+00
    0.65068E-06        -0.32393E-07         0.00000E+00
    0.66139E-06        -0.60503E-07         0.00000E+00
    0.67897E-06        -0.82679E-07         0.00000E+00
    0.70077E-06        -0.98659E-07         0.00000E+00
    0.72458E-06        -0.10875E-06         0.00000E+00
    0.74878E-06        -0.11358E-06         0.00000E+00
    0.77232E-06        -0.11390E-06         0.00000E+00
    0.79457E-06        -0.11035E-06         0.00000E+00
    0.81516E-06        -0.10339E-06         0.00000E+00
    0.83376E-06        -0.93268E-07         0.00000E+00
    0.84996E-06        -0.80080E-07         0.00000E+00
    0.86309E-06        -0.63866E-07         0.00000E+00
    0.87221E-06        -0.44766E-07         0.00000E+00
    0.87610E-06        -0.23206E-07         0.00000E+00
    0.87659E-06        -0.11886E-07         0.00000E+00
    0.62706E-06        -0.19570E-07         0.00000E+00
    0.63272E-06        -0.37255E-07         0.00000E+00
    0.64867E-06        -0.68995E-07         0.00000E+00
    0.67213E-06        -0.93197E-07         0.00000E+00
    0.69957E-06        -0.10981E-06         0.00000E+00
    0.72821E-06        -0.11957E-06         0.00000E+00
    0.75628E-06        -0.12359E-06         0.00000E+00
    0.78285E-06        -0.12302E-06         0.00000E+00
    0.80756E-06        -0.11871E-06         0.00000E+00
    0.83032E-06        -0.11122E-06         0.00000E+00
    0.85109E-06        -0.10072E-06         0.00000E+00
    0.86962E-06        -0.87137E-07         0.00000E+00
    0.88529E-06        -0.70218E-07         0.00000E+00
    0.89695E-06        -0.49802E-07         0.00000E+00
    0.90293E-06        -0.26084E-07         0.00000E+00
    0.90427E-06        -0.13456E-07         0.00000E+00
    0.60376E-06        -0.22563E-07         0.00000E+00
    0.61271E-06        -0.42673E-07         0.00000E+00
    0.63584E-06        -0.78127E-07         0.00000E+00
    0.66700E-06        -0.10386E-06         0.00000E+00
    0.70125E-06        -0.12025E-06         0.00000E+00
    0.73518E-06        -0.12878E-06         0.00000E+00
    0.76703E-06        -0.13129E-06         0.00000E+00
    0.79624E-06        -0.12942E-06         0.00000E+00
    0.82289E-06        -0.12429E-06         0.00000E+00
    0.84735E-06        -0.11650E-06         0.00000E+00
    0.86996E-06        -0.10612E-06         0.00000E+00
    0.89080E-06        -0.92809E-07         0.00000E+00
    0.90939E-06        -0.75917E-07         0.00000E+00
    0.92443E-06        -0.54774E-07         0.00000E+00
    0.93365E-06        -0.29119E-07         0.00000E+00
    0.93646E-06        -0.15173E-07         0.00000E+00
    0.57585E-06        -0.26037E-07         0.00000E+00
    0.58960E-06        -0.48784E-07         0.00000E+00
    0.62298E-06        -0.87847E-07         0.00000E+00
    0.66433E-06        -0.11410E-06         0.00000E+00
    0.70666E-06        -0.12884E-06         0.00000E+00
    0.74603E-06        -0.13484E-06         0.00000E+00
    0.78116E-06        -0.13498E-06         0.00000E+00
    0.81226E-06        -0.13143E-06         0.00000E+00
    0.84006E-06        -0.12550E-06         0.00000E+00
    0.86548E-06        -0.11775E-06         0.00000E+00
    0.88936E-06        -0.10813E-06         0.00000E+00
    0.91227E-06        -0.96031E-07         0.00000E+00
    0.93413E-06        -0.80262E-07         0.00000E+00
    0.95368E-06        -0.59373E-07         0.00000E+00
    0.96795E-06        -0.32258E-07         0.00000E+00
    0.97327E-06        -0.17054E-07         0.00000E+00
    0.54100E-06        -0.30206E-07         0.00000E+00
    0.56226E-06        -0.55783E-07         0.00000E+00
    0.61087E-06        -0.97887E-07         0.00000E+00
    0.66581E-06        -0.12268E-06         0.00000E+00
    0.71706E-06        -0.13349E-06         0.00000E+00
    0.76120E-06        -0.13533E-06         0.00000E+00
    0.79855E-06        -0.13235E-06         0.00000E+00
    0.83042E-06        -0.12698E-06         0.00000E+00
    0.85836E-06        -0.12043E-06         0.00000E+00
    0.88380E-06        -0.11315E-06         0.00000E+00
    0.90812E-06        -0.10501E-06         0.00000E+00
    0.93250E-06        -0.95218E-07         0.00000E+00
    0.95773E-06        -0.82063E-07         0.00000E+00
    0.98312E-06        -0.62985E-07         0.00000E+00
    0.10052E-05        -0.35341E-07         0.00000E+00
    0.10147E-05        -0.19085E-07         0.00000E+00
    0.49565E-06        -0.35440E-07         0.00000E+00
    0.52965E-06        -0.63802E-07         0.00000E+00
    0.60259E-06        -0.10720E-06         0.00000E+00
    0.67438E-06        -0.12667E-06         0.00000E+00
    0.73338E-06        -0.13025E-06         0.00000E+00
    0.78050E-06        -0.12664E-06         0.00000E+00
    0.81845E-06        -0.12053E-06         0.00000E+00
    0.84983E-06        -0.11372E-06         0.00000E+00
    0.87682E-06        -0.10703E-06         0.00000E+00
    0.90132E-06        -0.10069E-06         0.00000E+00
    0.92509E-06        -0.94566E-07         0.00000E+00
    0.94996E-06        -0.88026E-07         0.00000E+00
    0.97783E-06        -0.79217E-07         0.00000E+00
    0.10102E-05        -0.64278E-07         0.00000E+00
    0.10441E-05        -0.37921E-07         0.00000E+00
    0.10605E-05        -0.21183E-07         0.00000E+00
    0.43086E-06        -0.41809E-07         0.00000E+00
    0.49579E-06        -0.72471E-07         0.00000E+00
    0.60591E-06        -0.11178E-06         0.00000E+00
    0.69147E-06        -0.11821E-06         0.00000E+00
    0.75462E-06        -0.11213E-06         0.00000E+00
    0.80217E-06        -0.10420E-06         0.00000E+00
    0.83908E-06        -0.96361E-07         0.00000E+00
    0.86886E-06        -0.89371E-07         0.00000E+00
    0.89411E-06        -0.83410E-07         0.00000E+00
    0.91695E-06        -0.78489E-07         0.00000E+00
    0.93939E-06        -0.74523E-07         0.00000E+00
    0.96363E-06        -0.71228E-07         0.00000E+00
    0.99259E-06        -0.67900E-07         0.00000E+00
    0.10306E-05        -0.60304E-07         0.00000E+00
    0.10813E-05        -0.38561E-07         0.00000E+00
    0.11097E-05        -0.22620E-07         0.00000E+00
    0.37266E-06        -0.52543E-07         0.00000E+00
    0.47240E-06        -0.74870E-07         0.00000E+00
    0.61904E-06        -0.90928E-07         0.00000E+00
    0.71145E-06        -0.79895E-07         0.00000E+00
    0.77537E-06        -0.70862E-07         0.00000E+00
    0.82172E-06        -0.63141E-07         0.00000E+00
    0.85687E-06        -0.56915E-07         0.00000E+00
    0.88477E-06        -0.51942E-07         0.00000E+00
    0.90818E-06        -0.48054E-07         0.00000E+00
    0.92930E-06        -0.45139E-07         0.00000E+00
    0.95019E-06        -0.43152E-07         0.00000E+00
    0.97322E-06        -0.42112E-07         0.00000E+00
    0.10019E-05        -0.41948E-07         0.00000E+00
    0.10424E-05        -0.43237E-07         0.00000E+00
    0.11098E-05        -0.33820E-07         0.00000E+00
    0.11523E-05        -0.23224E-07         0.00000E+00
    0.35341E-06         0.00000E+00         0.00000E+00
    0.46512E-06         0.00000E+00         0.00000E+00
    0.62629E-06        -0.20224E-20         0.00000E+00
    0.72083E-06         0.38434E-21         0.00000E+00
    0.78457E-06         0.21112E-20         0.00000E+00
    0.83018E-06         0.00000E+00         0.00000E+00
    0.86446E-06         0.00000E+00         0.00000E+00
    0.89150E-06        -0.26201E-20         0.00000E+00
    0.91409E-06        -0.24953E-20         0.00000E+00
    0.93444E-06         0.26988E-20         0.00000E+00
    0.95460E-06         0.26988E-20         0.00000E+00
    0.97701E-06        -0.28910E-20         0.00000E+00
    0.10053E-05         0.10884E-21         0.00000E+00
    0.10463E-05         0.29403E-20         0.00000E+00
    0.11207E-05         0.18713E-21         0.00000E+00
    0.11696E-05         0.00000E+00         0.00000E+00
CELL_DATA        450
TENSORS stressef double 
    0.27082E+08        -0.19309E+06         0.00000E+00
   -0.19309E+06         0.14969E+08         0.00000E+00
    0.00000E+00         0.00000E+00         0.84103E+07
 
    0.24283E+08        -0.22853E+06         0.00000E+00
   -0.22853E+06         0.14652E+08         0.00000E+00
    0.00000E+00         0.00000E+00         0.77870E+07
 
    0.22225E+08        -0.21341E+06         0.00000E+00
   -0.21341E+06         0.14314E+08         0.00000E+00
    0.00000E+00         0.00000E+00         0.73077E+07
 
    0.20534E+08        -0.19266E+06         0.00000E+00
   -0.19266E+06         0.14015E+08         0.00000E+00
    0.00000E+00         0.00000E+00         0.69098E+07
 
    0.19076E+08        -0.16810E+06         0.00000E+00
   -0.16810E+06         0.13767E+08         0.00000E+00
    0.00000E+00         0.00000E+00         0.65685E+07
 
    0.17771E+08        -0.14094E+06         0.00000E+00
   -0.14094E+06         0.13574E+08         0.00000E+00
    0.00000E+00         0.00000E+00         0.62691E+07
 
    0.16569E+08        -0.11127E+06         0.00000E+00
   -0.11127E+06         0.13440E+08         0.00000E+00
    0.00000E+00         0.00000E+00         0.60017E+07
 
    0.15429E+08        -0.78719E+05         0.00000E+00
   -0.78719E+05         0.13366E+08         0.00000E+00
    0.00000E+00         0.00000E+00         0.57591E+07
 
    0.14319E+08        -0.42597E+05         0.00000E+00
   -0.42597E+05         0.13358E+08         0.00000E+00
    0.00000E+00         0.00000E+00         0.55354E+07
 
    0.13205E+08        -0.17652E+04         0.00000E+00
   -0.17652E+04         0.13421E+08         0.00000E+00
    0.00000E+00         0.00000E+00         0.53252E+07
 
    0.12051E+08         0.45700E+05         0.00000E+00
    0.45700E+05         0.13564E+08         0.00000E+00
    0.00000E+00         0.00000E+00         0.51231E+07
 
    0.10811E+08         0.10334E+06         0.00000E+00
    0.10334E+06         0.13803E+08         0.00000E+00
    0.00000E+00         0.00000E+00         0.49227E+07
 
    0.94137E+07         0.17904E+06         0.00000E+00
    0.17904E+06         0.14162E+08         0.00000E+00
    0.00000E+00         0.00000E+00         0.47152E+07
 
    0.77357E+07         0.29117E+06         0.00000E+00
    0.29117E+06         0.14693E+08         0.00000E+00
    0.00000E+00         0.00000E+00         0.44857E+07
 
    0.54118E+07         0.56182E+06         0.00000E+00
    0.56182E+06         0.15540E+08         0.00000E+00
    0.00000E+00         0.00000E+00         0.41904E+07
 
    0.25574E+08        -0.31101E+06         0.00000E+00
   -0.31101E+06         0.13959E+08         0.00000E+00
    0.00000E+00         0.00000E+00         0.79065E+07
 
    0.23099E+08        -0.54851E+06         0.00000E+00
   -0.54851E+06         0.13856E+08         0.00000E+00
    0.00000E+00         0.00000E+00         0.73909E+07
 
    0.21063E+08        -0.56808E+06         0.00000E+00
   -0.56808E+06         0.13647E+08         0.00000E+00
    0.00000E+00         0.00000E+00         0.69420E+07
 
    0.19367E+08        -0.53030E+06         0.00000E+00
   -0.53030E+06         0.13421E+08         0.00000E+00
    0.00000E+00         0.00000E+00         0.65577E+07
 
    0.17894E+08        -0.46967E+06         0.00000E+00
   -0.46967E+06         0.13218E+08         0.00000E+00
    0.00000E+00         0.00000E+00         0.62225E+07
 
    0.16574E+08        -0.39589E+06         0.00000E+00
   -0.39589E+06         0.13055E+08         0.00000E+00
    0.00000E+00         0.00000E+00         0.59258E+07
 
    0.15357E+08        -0.31176E+06         0.00000E+00
   -0.31176E+06         0.12939E+08         0.00000E+00
    0.00000E+00         0.00000E+00         0.56593E+07
 
    0.14205E+08        -0.21734E+06         0.00000E+00
   -0.21734E+06         0.12879E+08         0.00000E+00
    0.00000E+00         0.00000E+00         0.54168E+07
 
    0.13085E+08        -0.11108E+06         0.00000E+00
   -0.11108E+06         0.12880E+08         0.00000E+00
    0.00000E+00         0.00000E+00         0.51930E+07
 
    0.11964E+08         0.10183E+05         0.00000E+00
    0.10183E+05         0.12950E+08         0.00000E+00
    0.00000E+00         0.00000E+00         0.49829E+07
 
    0.10809E+08         0.15210E+06         0.00000E+00
    0.15210E+06         0.13100E+08         0.00000E+00
    0.00000E+00         0.00000E+00         0.47817E+07
 
    0.95777E+07         0.32537E+06         0.00000E+00
    0.32537E+06         0.13343E+08         0.00000E+00
    0.00000E+00         0.00000E+00         0.45842E+07
 
    0.82141E+07         0.55240E+06         0.00000E+00
    0.55240E+06         0.13706E+08         0.00000E+00
    0.00000E+00         0.00000E+00         0.43841E+07
 
    0.66297E+07         0.89068E+06         0.00000E+00
    0.89068E+06         0.14231E+08         0.00000E+00
    0.00000E+00         0.00000E+00         0.41721E+07
 
    0.48109E+07         0.15317E+07         0.00000E+00
    0.15317E+07         0.14977E+08         0.00000E+00
    0.00000E+00         0.00000E+00         0.39576E+07
 
    0.23894E+08        -0.32113E+06         0.00000E+00
   -0.32113E+06         0.12809E+08         0.00000E+00
    0.00000E+00         0.00000E+00         0.73407E+07
 
    0.21769E+08        -0.67814E+06         0.00000E+00
   -0.67814E+06         0.12795E+08         0.00000E+00
    0.00000E+00         0.00000E+00         0.69127E+07
 
    0.19867E+08        -0.78479E+06         0.00000E+00
   -0.78479E+06         0.12715E+08         0.00000E+00
    0.00000E+00         0.00000E+00         0.65164E+07
 
    0.18208E+08        -0.77055E+06         0.00000E+00
   -0.77055E+06         0.12591E+08         0.00000E+00
    0.00000E+00         0.00000E+00         0.61598E+07
 
    0.16745E+08        -0.69954E+06         0.00000E+00
   -0.69954E+06         0.12460E+08         0.00000E+00
    0.00000E+00         0.00000E+00         0.58410E+07
 
    0.15424E+08        -0.59581E+06         0.00000E+00
   -0.59581E+06         0.12348E+08         0.00000E+00
    0.00000E+00         0.00000E+00         0.55544E+07
 
    0.14204E+08        -0.46840E+06         0.00000E+00
   -0.46840E+06         0.12270E+08         0.00000E+00
    0.00000E+00         0.00000E+00         0.52947E+07
 
    0.13050E+08        -0.31973E+06         0.00000E+00
   -0.31973E+06         0.12236E+08         0.00000E+00
    0.00000E+00         0.00000E+00         0.50572E+07
 
    0.11930E+08        -0.14856E+06         0.00000E+00
   -0.14856E+06         0.12257E+08         0.00000E+00
    0.00000E+00         0.00000E+00         0.48376E+07
 
    0.10817E+08         0.49528E+05         0.00000E+00
    0.49528E+05         0.12343E+08         0.00000E+00
    0.00000E+00         0.00000E+00         0.46319E+07
 
    0.96798E+07         0.28323E+06         0.00000E+00
    0.28323E+06         0.12503E+08         0.00000E+00
    0.00000E+00         0.00000E+00         0.44366E+07
 
    0.84864E+07         0.56889E+06         0.00000E+00
    0.56889E+06         0.12753E+08         0.00000E+00
    0.00000E+00         0.00000E+00         0.42479E+07
 
    0.72016E+07         0.93875E+06         0.00000E+00
    0.93875E+06         0.13112E+08         0.00000E+00
    0.00000E+00         0.00000E+00         0.40627E+07
 
    0.58080E+07         0.14620E+07         0.00000E+00
    0.14620E+07         0.13600E+08         0.00000E+00
    0.00000E+00         0.00000E+00         0.38816E+07
 
    0.43557E+07         0.22460E+07         0.00000E+00
    0.22460E+07         0.14194E+08         0.00000E+00
    0.00000E+00         0.00000E+00         0.37099E+07
 
    0.22163E+08        -0.30883E+06         0.00000E+00
   -0.30883E+06         0.11627E+08         0.00000E+00
    0.00000E+00         0.00000E+00         0.67580E+07
 
    0.20330E+08        -0.70915E+06         0.00000E+00
   -0.70915E+06         0.11646E+08         0.00000E+00
    0.00000E+00         0.00000E+00         0.63951E+07
 
    0.18601E+08        -0.88189E+06         0.00000E+00
   -0.88189E+06         0.11639E+08         0.00000E+00
    0.00000E+00         0.00000E+00         0.60481E+07
 
    0.17027E+08        -0.90825E+06         0.00000E+00
   -0.90825E+06         0.11598E+08         0.00000E+00
    0.00000E+00         0.00000E+00         0.57251E+07
 
    0.15603E+08        -0.84692E+06         0.00000E+00
   -0.84692E+06         0.11540E+08         0.00000E+00
    0.00000E+00         0.00000E+00         0.54286E+07
 
    0.14303E+08        -0.72989E+06         0.00000E+00
   -0.72989E+06         0.11484E+08         0.00000E+00
    0.00000E+00         0.00000E+00         0.51575E+07
 
    0.13096E+08        -0.57196E+06         0.00000E+00
   -0.57196E+06         0.11450E+08         0.00000E+00
    0.00000E+00         0.00000E+00         0.49092E+07
 
    0.11954E+08        -0.37872E+06         0.00000E+00
   -0.37872E+06         0.11449E+08         0.00000E+00
    0.00000E+00         0.00000E+00         0.46806E+07
 
    0.10850E+08        -0.15012E+06         0.00000E+00
   -0.15012E+06         0.11495E+08         0.00000E+00
    0.00000E+00         0.00000E+00         0.44689E+07
 
    0.97587E+07         0.11846E+06         0.00000E+00
    0.11846E+06         0.11597E+08         0.00000E+00
    0.00000E+00         0.00000E+00         0.42712E+07
 
    0.86577E+07         0.43711E+06         0.00000E+00
    0.43711E+06         0.11768E+08         0.00000E+00
    0.00000E+00         0.00000E+00         0.40851E+07
 
    0.75255E+07         0.82421E+06         0.00000E+00
    0.82421E+06         0.12018E+08         0.00000E+00
    0.00000E+00         0.00000E+00         0.39087E+07
 
    0.63496E+07         0.13122E+07         0.00000E+00
    0.13122E+07         0.12357E+08         0.00000E+00
    0.00000E+00         0.00000E+00         0.37414E+07
 
    0.51410E+07         0.19505E+07         0.00000E+00
    0.19505E+07         0.12783E+08         0.00000E+00
    0.00000E+00         0.00000E+00         0.35848E+07
 
    0.39553E+07         0.27960E+07         0.00000E+00
    0.27960E+07         0.13265E+08         0.00000E+00
    0.00000E+00         0.00000E+00         0.34441E+07
 
    0.20427E+08        -0.28853E+06         0.00000E+00
   -0.28853E+06         0.10425E+08         0.00000E+00
    0.00000E+00         0.00000E+00         0.61704E+07
 
    0.18832E+08        -0.69429E+06         0.00000E+00
   -0.69429E+06         0.10459E+08         0.00000E+00
    0.00000E+00         0.00000E+00         0.58581E+07
 
    0.17276E+08        -0.90311E+06         0.00000E+00
   -0.90311E+06         0.10490E+08         0.00000E+00
    0.00000E+00         0.00000E+00         0.55534E+07
 
    0.15812E+08        -0.96375E+06         0.00000E+00
   -0.96375E+06         0.10503E+08         0.00000E+00
    0.00000E+00         0.00000E+00         0.52631E+07
 
    0.14455E+08        -0.91953E+06         0.00000E+00
   -0.91953E+06         0.10501E+08         0.00000E+00
    0.00000E+00         0.00000E+00         0.49912E+07
 
    0.13197E+08        -0.80013E+06         0.00000E+00
   -0.80013E+06         0.10495E+08         0.00000E+00
    0.00000E+00         0.00000E+00         0.47385E+07
 
    0.12022E+08        -0.62244E+06         0.00000E+00
   -0.62244E+06         0.10501E+08         0.00000E+00
    0.00000E+00         0.00000E+00         0.45045E+07
 
    0.10907E+08        -0.39422E+06         0.00000E+00
   -0.39422E+06         0.10532E+08         0.00000E+00
    0.00000E+00         0.00000E+00         0.42878E+07
 
    0.98327E+07        -0.11687E+06         0.00000E+00
   -0.11687E+06         0.10600E+08         0.00000E+00
    0.00000E+00         0.00000E+00         0.40866E+07
 
    0.87793E+07         0.21345E+06         0.00000E+00
    0.21345E+06         0.10717E+08         0.00000E+00
    0.00000E+00         0.00000E+00         0.38993E+07
 
    0.77302E+07         0.60614E+06         0.00000E+00
    0.60614E+06         0.10893E+08         0.00000E+00
    0.00000E+00         0.00000E+00         0.37245E+07
 
    0.66742E+07         0.10777E+07         0.00000E+00
    0.10777E+07         0.11134E+08         0.00000E+00
    0.00000E+00         0.00000E+00         0.35616E+07
 
    0.56115E+07         0.16527E+07         0.00000E+00
    0.16527E+07         0.11443E+08         0.00000E+00
    0.00000E+00         0.00000E+00         0.34109E+07
 
    0.45621E+07         0.23625E+07         0.00000E+00
    0.23625E+07         0.11811E+08         0.00000E+00
    0.00000E+00         0.00000E+00         0.32745E+07
 
    0.35735E+07         0.32356E+07         0.00000E+00
    0.32356E+07         0.12208E+08         0.00000E+00
    0.00000E+00         0.00000E+00         0.31563E+07
 
    0.18708E+08        -0.26491E+06         0.00000E+00
   -0.26491E+06         0.92080E+07         0.00000E+00
    0.00000E+00         0.00000E+00         0.55831E+07
 
    0.17308E+08        -0.65687E+06         0.00000E+00
   -0.65687E+06         0.92478E+07         0.00000E+00
    0.00000E+00         0.00000E+00         0.53112E+07
 
    0.15912E+08        -0.88026E+06         0.00000E+00
   -0.88026E+06         0.92987E+07         0.00000E+00
    0.00000E+00         0.00000E+00         0.50421E+07
 
    0.14566E+08        -0.96318E+06         0.00000E+00
   -0.96318E+06         0.93428E+07         0.00000E+00
    0.00000E+00         0.00000E+00         0.47817E+07
 
    0.13293E+08        -0.93456E+06         0.00000E+00
   -0.93456E+06         0.93770E+07         0.00000E+00
    0.00000E+00         0.00000E+00         0.45339E+07
 
    0.12097E+08        -0.81749E+06         0.00000E+00
   -0.81749E+06         0.94071E+07         0.00000E+00
    0.00000E+00         0.00000E+00         0.43007E+07
 
    0.10970E+08        -0.62731E+06         0.00000E+00
   -0.62731E+06         0.94438E+07         0.00000E+00
    0.00000E+00         0.00000E+00         0.40827E+07
 
    0.98988E+07        -0.37226E+06         0.00000E+00
   -0.37226E+06         0.94990E+07         0.00000E+00
    0.00000E+00         0.00000E+00         0.38796E+07
 
    0.88691E+07        -0.54870E+05         0.00000E+00
   -0.54870E+05         0.95840E+07         0.00000E+00
    0.00000E+00         0.00000E+00         0.36906E+07
 
    0.78666E+07         0.32724E+06         0.00000E+00
    0.32724E+06         0.97090E+07         0.00000E+00
    0.00000E+00         0.00000E+00         0.35151E+07
 
    0.68806E+07         0.78121E+06         0.00000E+00
    0.78121E+06         0.98823E+07         0.00000E+00
    0.00000E+00         0.00000E+00         0.33526E+07
 
    0.59068E+07         0.13190E+07         0.00000E+00
    0.13190E+07         0.10108E+08         0.00000E+00
    0.00000E+00         0.00000E+00         0.32030E+07
 
    0.49511E+07         0.19568E+07         0.00000E+00
    0.19568E+07         0.10385E+08         0.00000E+00
    0.00000E+00         0.00000E+00         0.30672E+07
 
    0.40344E+07         0.27119E+07         0.00000E+00
    0.27119E+07         0.10702E+08         0.00000E+00
    0.00000E+00         0.00000E+00         0.29472E+07
 
    0.31950E+07         0.35967E+07         0.00000E+00
    0.35967E+07         0.11035E+08         0.00000E+00
    0.00000E+00         0.00000E+00         0.28460E+07
 
    0.17015E+08        -0.24037E+06         0.00000E+00
   -0.24037E+06         0.79792E+07         0.00000E+00
    0.00000E+00         0.00000E+00         0.49989E+07
 
    0.15778E+08        -0.60911E+06         0.00000E+00
   -0.60911E+06         0.80201E+07         0.00000E+00
    0.00000E+00         0.00000E+00         0.47595E+07
 
    0.14524E+08        -0.83371E+06         0.00000E+00
   -0.83371E+06         0.80781E+07         0.00000E+00
    0.00000E+00         0.00000E+00         0.45203E+07
 
    0.13295E+08        -0.92853E+06         0.00000E+00
   -0.92853E+06         0.81369E+07         0.00000E+00
    0.00000E+00         0.00000E+00         0.42863E+07
 
    0.12116E+08        -0.91100E+06         0.00000E+00
   -0.91100E+06         0.81905E+07         0.00000E+00
    0.00000E+00         0.00000E+00         0.40612E+07
 
    0.10995E+08        -0.79700E+06         0.00000E+00
   -0.79700E+06         0.82412E+07         0.00000E+00
    0.00000E+00         0.00000E+00         0.38472E+07
 
    0.99321E+07        -0.59848E+06         0.00000E+00
   -0.59848E+06         0.82961E+07         0.00000E+00
    0.00000E+00         0.00000E+00         0.36456E+07
 
    0.89195E+07        -0.32284E+06         0.00000E+00
   -0.32284E+06         0.83648E+07         0.00000E+00
    0.00000E+00         0.00000E+00         0.34569E+07
 
    0.79475E+07         0.26795E+05         0.00000E+00
    0.26795E+05         0.84573E+07         0.00000E+00
    0.00000E+00         0.00000E+00         0.32810E+07
 
    0.70069E+07         0.45110E+06         0.00000E+00
    0.45110E+06         0.85824E+07         0.00000E+00
    0.00000E+00         0.00000E+00         0.31179E+07
 
    0.60915E+07         0.95418E+06         0.00000E+00
    0.95418E+06         0.87466E+07         0.00000E+00
    0.00000E+00         0.00000E+00         0.29676E+07
 
    0.52008E+07         0.15430E+07         0.00000E+00
    0.15430E+07         0.89527E+07         0.00000E+00
    0.00000E+00         0.00000E+00         0.28307E+07
 
    0.43428E+07         0.22261E+07         0.00000E+00
    0.22261E+07         0.91976E+07         0.00000E+00
    0.00000E+00         0.00000E+00         0.27081E+07
 
    0.35364E+07         0.30110E+07         0.00000E+00
    0.30110E+07         0.94711E+07         0.00000E+00
    0.00000E+00         0.00000E+00         0.26015E+07
 
    0.28116E+07         0.39002E+07         0.00000E+00
    0.39002E+07         0.97548E+07         0.00000E+00
    0.00000E+00         0.00000E+00         0.25133E+07
 
    0.15353E+08        -0.21660E+06         0.00000E+00
   -0.21660E+06         0.67401E+07         0.00000E+00
    0.00000E+00         0.00000E+00         0.44187E+07
 
    0.14250E+08        -0.55863E+06         0.00000E+00
   -0.55863E+06         0.67784E+07         0.00000E+00
    0.00000E+00         0.00000E+00         0.42057E+07
 
    0.13122E+08        -0.77720E+06         0.00000E+00
   -0.77720E+06         0.68353E+07         0.00000E+00
    0.00000E+00         0.00000E+00         0.39915E+07
 
    0.12006E+08        -0.87687E+06         0.00000E+00
   -0.87687E+06         0.68962E+07         0.00000E+00
    0.00000E+00         0.00000E+00         0.37805E+07
 
    0.10925E+08        -0.86613E+06         0.00000E+00
   -0.86613E+06         0.69548E+07         0.00000E+00
    0.00000E+00         0.00000E+00         0.35760E+07
 
    0.98899E+07        -0.75433E+06         0.00000E+00
   -0.75433E+06         0.70114E+07         0.00000E+00
    0.00000E+00         0.00000E+00         0.33803E+07
 
    0.89028E+07        -0.54960E+06         0.00000E+00
   -0.54960E+06         0.70711E+07         0.00000E+00
    0.00000E+00         0.00000E+00         0.31948E+07
 
    0.79606E+07        -0.25778E+06         0.00000E+00
   -0.25778E+06         0.71417E+07         0.00000E+00
    0.00000E+00         0.00000E+00         0.30204E+07
 
    0.70574E+07         0.11779E+06         0.00000E+00
    0.11779E+06         0.72314E+07         0.00000E+00
    0.00000E+00         0.00000E+00         0.28578E+07
 
    0.61875E+07         0.57619E+06         0.00000E+00
    0.57619E+06         0.73479E+07         0.00000E+00
    0.00000E+00         0.00000E+00         0.27071E+07
 
    0.53473E+07         0.11185E+07         0.00000E+00
    0.11185E+07         0.74966E+07         0.00000E+00
    0.00000E+00         0.00000E+00         0.25688E+07
 
    0.45384E+07         0.17469E+07         0.00000E+00
    0.17469E+07         0.76795E+07         0.00000E+00
    0.00000E+00         0.00000E+00         0.24436E+07
 
    0.37688E+07         0.24640E+07         0.00000E+00
    0.24640E+07         0.78936E+07         0.00000E+00
    0.00000E+00         0.00000E+00         0.23325E+07
 
    0.30545E+07         0.32699E+07         0.00000E+00
    0.32699E+07         0.81304E+07         0.00000E+00
    0.00000E+00         0.00000E+00         0.22370E+07
 
    0.24191E+07         0.41608E+07         0.00000E+00
    0.41608E+07         0.83755E+07         0.00000E+00
    0.00000E+00         0.00000E+00         0.21589E+07
 
    0.13721E+08        -0.19499E+06         0.00000E+00
   -0.19499E+06         0.54915E+07         0.00000E+00
    0.00000E+00         0.00000E+00         0.38426E+07
 
    0.12729E+08        -0.51097E+06         0.00000E+00
   -0.51097E+06         0.55243E+07         0.00000E+00
    0.00000E+00         0.00000E+00         0.36507E+07
 
    0.11714E+08        -0.72079E+06         0.00000E+00
   -0.72079E+06         0.55733E+07         0.00000E+00
    0.00000E+00         0.00000E+00         0.34574E+07
 
    0.10705E+08        -0.82153E+06         0.00000E+00
   -0.82153E+06         0.56264E+07         0.00000E+00
    0.00000E+00         0.00000E+00         0.32662E+07
 
    0.97231E+07        -0.81467E+06         0.00000E+00
   -0.81467E+06         0.56777E+07         0.00000E+00
    0.00000E+00         0.00000E+00         0.30802E+07
 
    0.87793E+07        -0.70405E+06         0.00000E+00
   -0.70405E+06         0.57273E+07         0.00000E+00
    0.00000E+00         0.00000E+00         0.29013E+07
 
    0.78770E+07        -0.49416E+06         0.00000E+00
   -0.49416E+06         0.57791E+07         0.00000E+00
    0.00000E+00         0.00000E+00         0.27312E+07
 
    0.70151E+07        -0.18912E+06         0.00000E+00
   -0.18912E+06         0.58396E+07         0.00000E+00
    0.00000E+00         0.00000E+00         0.25709E+07
 
    0.61897E+07         0.20779E+06         0.00000E+00
    0.20779E+06         0.59162E+07         0.00000E+00
    0.00000E+00         0.00000E+00         0.24212E+07
 
    0.53970E+07         0.69426E+06         0.00000E+00
    0.69426E+06         0.60157E+07         0.00000E+00
    0.00000E+00         0.00000E+00         0.22825E+07
 
    0.46351E+07         0.12686E+07         0.00000E+00
    0.12686E+07         0.61429E+07         0.00000E+00
    0.00000E+00         0.00000E+00         0.21556E+07
 
    0.39059E+07         0.19291E+07         0.00000E+00
    0.19291E+07         0.62998E+07         0.00000E+00
    0.00000E+00         0.00000E+00         0.20411E+07
 
    0.32166E+07         0.26733E+07         0.00000E+00
    0.26733E+07         0.64840E+07         0.00000E+00
    0.00000E+00         0.00000E+00         0.19401E+07
 
    0.25800E+07         0.34962E+07         0.00000E+00
    0.34962E+07         0.66888E+07         0.00000E+00
    0.00000E+00         0.00000E+00         0.18538E+07
 
    0.20149E+07         0.43892E+07         0.00000E+00
    0.43892E+07         0.69033E+07         0.00000E+00
    0.00000E+00         0.00000E+00         0.17837E+07
 
    0.12115E+08        -0.17677E+06         0.00000E+00
   -0.17677E+06         0.42333E+07         0.00000E+00
    0.00000E+00         0.00000E+00         0.32696E+07
 
    0.11215E+08        -0.47053E+06         0.00000E+00
   -0.47053E+06         0.42579E+07         0.00000E+00
    0.00000E+00         0.00000E+00         0.30946E+07
 
    0.10299E+08        -0.67232E+06         0.00000E+00
   -0.67232E+06         0.42935E+07         0.00000E+00
    0.00000E+00         0.00000E+00         0.29185E+07
 
    0.93914E+07        -0.77319E+06         0.00000E+00
   -0.77319E+06         0.43303E+07         0.00000E+00
    0.00000E+00         0.00000E+00         0.27444E+07
 
    0.85092E+07        -0.76900E+06         0.00000E+00
   -0.76900E+06         0.43640E+07         0.00000E+00
    0.00000E+00         0.00000E+00         0.25746E+07
 
    0.76613E+07        -0.65900E+06         0.00000E+00
   -0.65900E+06         0.43949E+07         0.00000E+00
    0.00000E+00         0.00000E+00         0.24112E+07
 
    0.68508E+07        -0.44454E+06         0.00000E+00
   -0.44454E+06         0.44270E+07         0.00000E+00
    0.00000E+00         0.00000E+00         0.22556E+07
 
    0.60769E+07        -0.12811E+06         0.00000E+00
   -0.12811E+06         0.44664E+07         0.00000E+00
    0.00000E+00         0.00000E+00         0.21087E+07
 
    0.53364E+07         0.28720E+06         0.00000E+00
    0.28720E+06         0.45201E+07         0.00000E+00
    0.00000E+00         0.00000E+00         0.19713E+07
 
    0.46262E+07         0.79789E+06         0.00000E+00
    0.79789E+06         0.45946E+07         0.00000E+00
    0.00000E+00         0.00000E+00         0.18442E+07
 
    0.39446E+07         0.13999E+07         0.00000E+00
    0.13999E+07         0.46948E+07         0.00000E+00
    0.00000E+00         0.00000E+00         0.17279E+07
 
    0.32931E+07         0.20884E+07         0.00000E+00
    0.20884E+07         0.48228E+07         0.00000E+00
    0.00000E+00         0.00000E+00         0.16232E+07
 
    0.26772E+07         0.28566E+07         0.00000E+00
    0.28566E+07         0.49775E+07         0.00000E+00
    0.00000E+00         0.00000E+00         0.15309E+07
 
    0.21072E+07         0.36956E+07         0.00000E+00
    0.36956E+07         0.51540E+07         0.00000E+00
    0.00000E+00         0.00000E+00         0.14523E+07
 
    0.15978E+07         0.45932E+07         0.00000E+00
    0.45932E+07         0.53439E+07         0.00000E+00
    0.00000E+00         0.00000E+00         0.13883E+07
 
    0.10526E+08        -0.16310E+06         0.00000E+00
   -0.16310E+06         0.29648E+07         0.00000E+00
    0.00000E+00         0.00000E+00         0.26981E+07
 
    0.97025E+07        -0.44105E+06         0.00000E+00
   -0.44105E+06         0.29787E+07         0.00000E+00
    0.00000E+00         0.00000E+00         0.25363E+07
 
    0.88758E+07        -0.63825E+06         0.00000E+00
   -0.63825E+06         0.29959E+07         0.00000E+00
    0.00000E+00         0.00000E+00         0.23744E+07
 
    0.80649E+07        -0.74063E+06         0.00000E+00
   -0.74063E+06         0.30091E+07         0.00000E+00
    0.00000E+00         0.00000E+00         0.22148E+07
 
    0.72820E+07        -0.73946E+06         0.00000E+00
   -0.73946E+06         0.30159E+07         0.00000E+00
    0.00000E+00         0.00000E+00         0.20596E+07
 
    0.65333E+07        -0.63021E+06         0.00000E+00
   -0.63021E+06         0.30179E+07         0.00000E+00
    0.00000E+00         0.00000E+00         0.19103E+07
 
    0.58202E+07        -0.41161E+06         0.00000E+00
   -0.41161E+06         0.30198E+07         0.00000E+00
    0.00000E+00         0.00000E+00         0.17680E+07
 
    0.51406E+07        -0.84743E+05         0.00000E+00
   -0.84743E+05         0.30281E+07         0.00000E+00
    0.00000E+00         0.00000E+00         0.16337E+07
 
    0.44909E+07         0.34746E+06         0.00000E+00
    0.34746E+06         0.30498E+07         0.00000E+00
    0.00000E+00         0.00000E+00         0.15082E+07
 
    0.38675E+07         0.88051E+06         0.00000E+00
    0.88051E+06         0.30919E+07         0.00000E+00
    0.00000E+00         0.00000E+00         0.13919E+07
 
    0.32680E+07         0.15084E+07         0.00000E+00
    0.15084E+07         0.31596E+07         0.00000E+00
    0.00000E+00         0.00000E+00         0.12855E+07
 
    0.26924E+07         0.22234E+07         0.00000E+00
    0.22234E+07         0.32560E+07         0.00000E+00
    0.00000E+00         0.00000E+00         0.11897E+07
 
    0.21447E+07         0.30156E+07         0.00000E+00
    0.30156E+07         0.33811E+07         0.00000E+00
    0.00000E+00         0.00000E+00         0.11052E+07
 
    0.16324E+07         0.38726E+07         0.00000E+00
    0.38726E+07         0.35319E+07         0.00000E+00
    0.00000E+00         0.00000E+00         0.10328E+07
 
    0.11669E+07         0.47791E+07         0.00000E+00
    0.47791E+07         0.37017E+07         0.00000E+00
    0.00000E+00         0.00000E+00         0.97373E+06
 
    0.89437E+07        -0.15503E+06         0.00000E+00
   -0.15503E+06         0.16842E+07         0.00000E+00
    0.00000E+00         0.00000E+00         0.21256E+07
 
    0.81845E+07        -0.42581E+06         0.00000E+00
   -0.42581E+06         0.16852E+07         0.00000E+00
    0.00000E+00         0.00000E+00         0.19739E+07
 
    0.74393E+07        -0.62400E+06         0.00000E+00
   -0.62400E+06         0.16793E+07         0.00000E+00
    0.00000E+00         0.00000E+00         0.18237E+07
 
    0.67214E+07        -0.73116E+06         0.00000E+00
   -0.73116E+06         0.16623E+07         0.00000E+00
    0.00000E+00         0.00000E+00         0.16767E+07
 
    0.60380E+07        -0.73468E+06         0.00000E+00
   -0.73468E+06         0.16341E+07         0.00000E+00
    0.00000E+00         0.00000E+00         0.15344E+07
 
    0.53917E+07        -0.62697E+06         0.00000E+00
   -0.62697E+06         0.15982E+07         0.00000E+00
    0.00000E+00         0.00000E+00         0.13980E+07
 
    0.47808E+07        -0.40462E+06         0.00000E+00
   -0.40462E+06         0.15605E+07         0.00000E+00
    0.00000E+00         0.00000E+00         0.12683E+07
 
    0.42012E+07        -0.67614E+05         0.00000E+00
   -0.67614E+05         0.15284E+07         0.00000E+00
    0.00000E+00         0.00000E+00         0.11459E+07
 
    0.36477E+07         0.38122E+06         0.00000E+00
    0.38122E+06         0.15101E+07         0.00000E+00
    0.00000E+00         0.00000E+00         0.10315E+07
 
    0.31150E+07         0.93651E+06         0.00000E+00
    0.93651E+06         0.15129E+07         0.00000E+00
    0.00000E+00         0.00000E+00         0.92558E+06
 
    0.25991E+07         0.15905E+07         0.00000E+00
    0.15905E+07         0.15433E+07         0.00000E+00
    0.00000E+00         0.00000E+00         0.82848E+06
 
    0.20985E+07         0.23331E+07         0.00000E+00
    0.23331E+07         0.16052E+07         0.00000E+00
    0.00000E+00         0.00000E+00         0.74075E+06
 
    0.16148E+07         0.31516E+07         0.00000E+00
    0.31516E+07         0.17003E+07         0.00000E+00
    0.00000E+00         0.00000E+00         0.66301E+06
 
    0.11530E+07         0.40304E+07         0.00000E+00
    0.40304E+07         0.18269E+07         0.00000E+00
    0.00000E+00         0.00000E+00         0.59598E+06
 
    0.72212E+06         0.49517E+07         0.00000E+00
    0.49517E+07         0.19803E+07         0.00000E+00
    0.00000E+00         0.00000E+00         0.54049E+06
 
    0.73543E+07        -0.15353E+06         0.00000E+00
   -0.15353E+06         0.38914E+06         0.00000E+00
    0.00000E+00         0.00000E+00         0.15487E+07
 
    0.66499E+07        -0.42768E+06         0.00000E+00
   -0.42768E+06         0.37487E+06         0.00000E+00
    0.00000E+00         0.00000E+00         0.14050E+07
 
    0.59810E+07        -0.63423E+06         0.00000E+00
   -0.63423E+06         0.34168E+06         0.00000E+00
    0.00000E+00         0.00000E+00         0.12645E+07
 
    0.53544E+07        -0.75089E+06         0.00000E+00
   -0.75089E+06         0.28848E+06         0.00000E+00
    0.00000E+00         0.00000E+00         0.11286E+07
 
    0.47720E+07        -0.76184E+06         0.00000E+00
   -0.76184E+06         0.21802E+06         0.00000E+00
    0.00000E+00         0.00000E+00         0.99800E+06
 
    0.42315E+07        -0.65699E+06         0.00000E+00
   -0.65699E+06         0.13605E+06         0.00000E+00
    0.00000E+00         0.00000E+00         0.87351E+06
 
    0.37278E+07        -0.43127E+06         0.00000E+00
   -0.43127E+06         0.50375E+05         0.00000E+00
    0.00000E+00         0.00000E+00         0.75563E+06
 
    0.32537E+07        -0.83860E+05         0.00000E+00
   -0.83860E+05        -0.30005E+05         0.00000E+00
    0.00000E+00         0.00000E+00         0.64473E+06
 
    0.28013E+07         0.38234E+06         0.00000E+00
    0.38234E+06        -0.95812E+05         0.00000E+00
    0.00000E+00         0.00000E+00         0.54110E+06
 
    0.23632E+07         0.96116E+06         0.00000E+00
    0.96116E+06        -0.13829E+06         0.00000E+00
    0.00000E+00         0.00000E+00         0.44498E+06
 
    0.19331E+07         0.16433E+07         0.00000E+00
    0.16433E+07        -0.14994E+06         0.00000E+00
    0.00000E+00         0.00000E+00         0.35663E+06
 
    0.15072E+07         0.24165E+07         0.00000E+00
    0.24165E+07        -0.12523E+06         0.00000E+00
    0.00000E+00         0.00000E+00         0.27639E+06
 
    0.10845E+07         0.32655E+07         0.00000E+00
    0.32655E+07        -0.61108E+05         0.00000E+00
    0.00000E+00         0.00000E+00         0.20467E+06
 
    0.66764E+06         0.41721E+07         0.00000E+00
    0.41721E+07         0.42509E+05         0.00000E+00
    0.00000E+00         0.00000E+00         0.14203E+06
 
    0.26324E+06         0.51152E+07         0.00000E+00
    0.51152E+07         0.18243E+06         0.00000E+00
    0.00000E+00         0.00000E+00         0.89134E+05
 
    0.57411E+07        -0.15948E+06         0.00000E+00
   -0.15948E+06        -0.92394E+06         0.00000E+00
    0.00000E+00         0.00000E+00         0.96343E+06
 
    0.50856E+07        -0.44916E+06         0.00000E+00
   -0.44916E+06        -0.95562E+06         0.00000E+00
    0.00000E+00         0.00000E+00         0.82600E+06
 
    0.44904E+07        -0.67285E+06         0.00000E+00
   -0.67285E+06        -0.10202E+07         0.00000E+00
    0.00000E+00         0.00000E+00         0.69405E+06
 
    0.39556E+07        -0.80488E+06         0.00000E+00
   -0.80488E+06        -0.11151E+07         0.00000E+00
    0.00000E+00         0.00000E+00         0.56810E+06
 
    0.34768E+07        -0.82674E+06         0.00000E+00
   -0.82674E+06        -0.12343E+07         0.00000E+00
    0.00000E+00         0.00000E+00         0.44850E+06
 
    0.30467E+07        -0.72641E+06         0.00000E+00
   -0.72641E+06        -0.13695E+07         0.00000E+00
    0.00000E+00         0.00000E+00         0.33545E+06
 
    0.26556E+07        -0.49764E+06         0.00000E+00
   -0.49764E+06        -0.15104E+07         0.00000E+00
    0.00000E+00         0.00000E+00         0.22904E+06
 
    0.22926E+07        -0.13914E+06         0.00000E+00
   -0.13914E+06        -0.16461E+07         0.00000E+00
    0.00000E+00         0.00000E+00         0.12930E+06
 
    0.19466E+07         0.34598E+06         0.00000E+00
    0.34598E+06        -0.17657E+07         0.00000E+00
    0.00000E+00         0.00000E+00         0.36173E+05
 
    0.16072E+07         0.95070E+06         0.00000E+00
    0.95070E+06        -0.18590E+07         0.00000E+00
    0.00000E+00         0.00000E+00        -0.50350E+05
 
    0.12656E+07         0.16644E+07         0.00000E+00
    0.16644E+07        -0.19169E+07         0.00000E+00
    0.00000E+00         0.00000E+00        -0.13026E+06
 
    0.91487E+06         0.24727E+07         0.00000E+00
    0.24727E+07        -0.19321E+07         0.00000E+00
    0.00000E+00         0.00000E+00        -0.20345E+06
 
    0.55143E+06         0.33582E+07         0.00000E+00
    0.33582E+07        -0.19001E+07         0.00000E+00
    0.00000E+00         0.00000E+00        -0.26973E+06
 
    0.17516E+06         0.42997E+07         0.00000E+00
    0.42997E+07        -0.18188E+07         0.00000E+00
    0.00000E+00         0.00000E+00        -0.32872E+06
 
   -0.20971E+06         0.52734E+07         0.00000E+00
    0.52734E+07        -0.16899E+07         0.00000E+00
    0.00000E+00         0.00000E+00        -0.37991E+06
 
    0.40846E+07        -0.17366E+06         0.00000E+00
   -0.17366E+06        -0.22596E+07         0.00000E+00
    0.00000E+00         0.00000E+00         0.36500E+06
 
    0.34757E+07        -0.49240E+06         0.00000E+00
   -0.49240E+06        -0.23108E+07         0.00000E+00
    0.00000E+00         0.00000E+00         0.23299E+06
 
    0.29548E+07        -0.74310E+06         0.00000E+00
   -0.74310E+06        -0.24104E+07         0.00000E+00
    0.00000E+00         0.00000E+00         0.10888E+06
 
    0.25146E+07        -0.89714E+06         0.00000E+00
   -0.89714E+06        -0.25520E+07         0.00000E+00
    0.00000E+00         0.00000E+00        -0.74878E+04
 
    0.21441E+07        -0.93387E+06         0.00000E+00
   -0.93387E+06        -0.27259E+07         0.00000E+00
    0.00000E+00         0.00000E+00        -0.11637E+06
 
    0.18300E+07        -0.83988E+06         0.00000E+00
   -0.83988E+06        -0.29204E+07         0.00000E+00
    0.00000E+00         0.00000E+00        -0.21809E+06
 
    0.15576E+07        -0.60822E+06         0.00000E+00
   -0.60822E+06        -0.31227E+07         0.00000E+00
    0.00000E+00         0.00000E+00        -0.31302E+06
 
    0.13118E+07        -0.23754E+06         0.00000E+00
   -0.23754E+06        -0.33197E+07         0.00000E+00
    0.00000E+00         0.00000E+00        -0.40157E+06
 
    0.10779E+07         0.26863E+06         0.00000E+00
    0.26863E+06        -0.34985E+07         0.00000E+00
    0.00000E+00         0.00000E+00        -0.48412E+06
 
    0.84202E+06         0.90241E+06         0.00000E+00
    0.90241E+06        -0.36472E+07         0.00000E+00
    0.00000E+00         0.00000E+00        -0.56103E+06
 
    0.59211E+06         0.16518E+07         0.00000E+00
    0.16518E+07        -0.37550E+07         0.00000E+00
    0.00000E+00         0.00000E+00        -0.63258E+06
 
    0.31825E+06         0.25010E+07         0.00000E+00
    0.25010E+07        -0.38129E+07         0.00000E+00
    0.00000E+00         0.00000E+00        -0.69893E+06
 
    0.13489E+05         0.34301E+07         0.00000E+00
    0.34301E+07        -0.38142E+07         0.00000E+00
    0.00000E+00         0.00000E+00        -0.76014E+06
 
   -0.32535E+06         0.44154E+07         0.00000E+00
    0.44154E+07        -0.37549E+07         0.00000E+00
    0.00000E+00         0.00000E+00        -0.81605E+06
 
   -0.69671E+06         0.54296E+07         0.00000E+00
    0.54296E+07        -0.36350E+07         0.00000E+00
    0.00000E+00         0.00000E+00        -0.86633E+06
 
    0.23630E+07        -0.19673E+06         0.00000E+00
   -0.19673E+06        -0.36236E+07         0.00000E+00
    0.00000E+00         0.00000E+00        -0.25213E+06
 
    0.18021E+07        -0.55914E+06         0.00000E+00
   -0.55914E+06        -0.36963E+07         0.00000E+00
    0.00000E+00         0.00000E+00        -0.37883E+06
 
    0.13594E+07        -0.84749E+06         0.00000E+00
   -0.84749E+06        -0.38346E+07         0.00000E+00
    0.00000E+00         0.00000E+00        -0.49504E+06
 
    0.10193E+07        -0.10306E+07         0.00000E+00
   -0.10306E+07        -0.40274E+07         0.00000E+00
    0.00000E+00         0.00000E+00        -0.60162E+06
 
    0.76365E+06        -0.10863E+07         0.00000E+00
   -0.10863E+07        -0.42610E+07         0.00000E+00
    0.00000E+00         0.00000E+00        -0.69946E+06
 
    0.57263E+06        -0.10004E+07         0.00000E+00
   -0.10004E+07        -0.45199E+07         0.00000E+00
    0.00000E+00         0.00000E+00        -0.78945E+06
 
    0.42607E+06        -0.76572E+06         0.00000E+00
   -0.76572E+06        -0.47885E+07         0.00000E+00
    0.00000E+00         0.00000E+00        -0.87248E+06
 
    0.30426E+06        -0.38144E+06         0.00000E+00
   -0.38144E+06        -0.50512E+07         0.00000E+00
    0.00000E+00         0.00000E+00        -0.94938E+06
 
    0.18851E+06         0.14830E+06         0.00000E+00
    0.14830E+06        -0.52933E+07         0.00000E+00
    0.00000E+00         0.00000E+00        -0.10210E+07
 
    0.61482E+05         0.81471E+06         0.00000E+00
    0.81471E+06        -0.55011E+07         0.00000E+00
    0.00000E+00         0.00000E+00        -0.10879E+07
 
   -0.92412E+05         0.16048E+07         0.00000E+00
    0.16048E+07        -0.56620E+07         0.00000E+00
    0.00000E+00         0.00000E+00        -0.11509E+07
 
   -0.28664E+06         0.25011E+07         0.00000E+00
    0.25011E+07        -0.57651E+07         0.00000E+00
    0.00000E+00         0.00000E+00        -0.12103E+07
 
   -0.53188E+06         0.34819E+07         0.00000E+00
    0.34819E+07        -0.58012E+07         0.00000E+00
    0.00000E+00         0.00000E+00        -0.12666E+07
 
   -0.83501E+06         0.45207E+07         0.00000E+00
    0.45207E+07        -0.57641E+07         0.00000E+00
    0.00000E+00         0.00000E+00        -0.13198E+07
 
   -0.11978E+07         0.55870E+07         0.00000E+00
    0.55870E+07        -0.56514E+07         0.00000E+00
    0.00000E+00         0.00000E+00        -0.13699E+07
 
    0.55174E+06        -0.22922E+06         0.00000E+00
   -0.22922E+06        -0.50231E+07         0.00000E+00
    0.00000E+00         0.00000E+00        -0.89428E+06
 
    0.44494E+05        -0.65074E+06         0.00000E+00
   -0.65074E+06        -0.51192E+07         0.00000E+00
    0.00000E+00         0.00000E+00        -0.10149E+07
 
   -0.31266E+06        -0.98779E+06         0.00000E+00
   -0.98779E+06        -0.52995E+07         0.00000E+00
    0.00000E+00         0.00000E+00        -0.11224E+07
 
   -0.54404E+06        -0.12071E+07         0.00000E+00
   -0.12071E+07        -0.55476E+07         0.00000E+00
    0.00000E+00         0.00000E+00        -0.12183E+07
 
   -0.67602E+06        -0.12856E+07         0.00000E+00
   -0.12856E+07        -0.58449E+07         0.00000E+00
    0.00000E+00         0.00000E+00        -0.13042E+07
 
   -0.73539E+06        -0.12089E+07         0.00000E+00
   -0.12089E+07        -0.61721E+07         0.00000E+00
    0.00000E+00         0.00000E+00        -0.13815E+07
 
   -0.74813E+06        -0.97077E+06         0.00000E+00
   -0.97077E+06        -0.65103E+07         0.00000E+00
    0.00000E+00         0.00000E+00        -0.14517E+07
 
   -0.73869E+06        -0.57113E+06         0.00000E+00
   -0.57113E+06        -0.68416E+07         0.00000E+00
    0.00000E+00         0.00000E+00        -0.15161E+07
 
   -0.72968E+06        -0.15174E+05         0.00000E+00
   -0.15174E+05        -0.71496E+07         0.00000E+00
    0.00000E+00         0.00000E+00        -0.15758E+07
 
   -0.74196E+06         0.68746E+06         0.00000E+00
    0.68746E+06        -0.74188E+07         0.00000E+00
    0.00000E+00         0.00000E+00        -0.16322E+07
 
   -0.79465E+06         0.15229E+07         0.00000E+00
    0.15229E+07        -0.76352E+07         0.00000E+00
    0.00000E+00         0.00000E+00        -0.16860E+07
 
   -0.90508E+06         0.24727E+07         0.00000E+00
    0.24727E+07        -0.77855E+07         0.00000E+00
    0.00000E+00         0.00000E+00        -0.17381E+07
 
   -0.10882E+07         0.35137E+07         0.00000E+00
    0.35137E+07        -0.78582E+07         0.00000E+00
    0.00000E+00         0.00000E+00        -0.17893E+07
 
   -0.13555E+07         0.46171E+07         0.00000E+00
    0.46171E+07        -0.78441E+07         0.00000E+00
    0.00000E+00         0.00000E+00        -0.18399E+07
 
   -0.17133E+07         0.57484E+07         0.00000E+00
    0.57484E+07        -0.77376E+07         0.00000E+00
    0.00000E+00         0.00000E+00        -0.18902E+07
 
   -0.13759E+07        -0.27156E+06         0.00000E+00
   -0.27156E+06        -0.64668E+07         0.00000E+00
    0.00000E+00         0.00000E+00        -0.15685E+07
 
   -0.18195E+07        -0.76814E+06         0.00000E+00
   -0.76814E+06        -0.65882E+07         0.00000E+00
    0.00000E+00         0.00000E+00        -0.16815E+07
 
   -0.20797E+07        -0.11649E+07         0.00000E+00
   -0.11649E+07        -0.68136E+07         0.00000E+00
    0.00000E+00         0.00000E+00        -0.17787E+07
 
   -0.21906E+07        -0.14271E+07         0.00000E+00
   -0.14271E+07        -0.71205E+07         0.00000E+00
    0.00000E+00         0.00000E+00        -0.18622E+07
 
   -0.21878E+07        -0.15312E+07         0.00000E+00
   -0.15312E+07        -0.74847E+07         0.00000E+00
    0.00000E+00         0.00000E+00        -0.19345E+07
 
   -0.21055E+07        -0.14643E+07         0.00000E+00
   -0.14643E+07        -0.78824E+07         0.00000E+00
    0.00000E+00         0.00000E+00        -0.19976E+07
 
   -0.19758E+07        -0.12214E+07         0.00000E+00
   -0.12214E+07        -0.82915E+07         0.00000E+00
    0.00000E+00         0.00000E+00        -0.20534E+07
 
   -0.18276E+07        -0.80439E+06         0.00000E+00
   -0.80439E+06        -0.86920E+07         0.00000E+00
    0.00000E+00         0.00000E+00        -0.21039E+07
 
   -0.16872E+07        -0.21969E+06         0.00000E+00
   -0.21969E+06        -0.90661E+07         0.00000E+00
    0.00000E+00         0.00000E+00        -0.21507E+07
 
   -0.15784E+07         0.52221E+06         0.00000E+00
    0.52221E+06        -0.93974E+07         0.00000E+00
    0.00000E+00         0.00000E+00        -0.21952E+07
 
   -0.15237E+07         0.14071E+07         0.00000E+00
    0.14071E+07        -0.96704E+07         0.00000E+00
    0.00000E+00         0.00000E+00        -0.22388E+07
 
   -0.15446E+07         0.24163E+07         0.00000E+00
    0.24163E+07        -0.98699E+07         0.00000E+00
    0.00000E+00         0.00000E+00        -0.22829E+07
 
   -0.16608E+07         0.35259E+07         0.00000E+00
    0.35259E+07        -0.99813E+07         0.00000E+00
    0.00000E+00         0.00000E+00        -0.23284E+07
 
   -0.18898E+07         0.47051E+07         0.00000E+00
    0.47051E+07        -0.99916E+07         0.00000E+00
    0.00000E+00         0.00000E+00        -0.23763E+07
 
   -0.22437E+07         0.59159E+07         0.00000E+00
    0.59159E+07        -0.98913E+07         0.00000E+00
    0.00000E+00         0.00000E+00        -0.24270E+07
 
   -0.34494E+07        -0.32406E+06         0.00000E+00
   -0.32406E+06        -0.79654E+07         0.00000E+00
    0.00000E+00         0.00000E+00        -0.22830E+07
 
   -0.38143E+07        -0.91186E+06         0.00000E+00
   -0.91186E+06        -0.81142E+07         0.00000E+00
    0.00000E+00         0.00000E+00        -0.23857E+07
 
   -0.39616E+07        -0.13789E+07         0.00000E+00
   -0.13789E+07        -0.83879E+07         0.00000E+00
    0.00000E+00         0.00000E+00        -0.24699E+07
 
   -0.39369E+07        -0.16893E+07         0.00000E+00
   -0.16893E+07        -0.87564E+07         0.00000E+00
    0.00000E+00         0.00000E+00        -0.25387E+07
 
   -0.37856E+07        -0.18207E+07         0.00000E+00
   -0.18207E+07        -0.91892E+07         0.00000E+00
    0.00000E+00         0.00000E+00        -0.25950E+07
 
   -0.35506E+07        -0.17623E+07         0.00000E+00
   -0.17623E+07        -0.96574E+07         0.00000E+00
    0.00000E+00         0.00000E+00        -0.26416E+07
 
   -0.32696E+07        -0.15125E+07         0.00000E+00
   -0.15125E+07        -0.10136E+08         0.00000E+00
    0.00000E+00         0.00000E+00        -0.26811E+07
 
   -0.29757E+07        -0.10757E+07         0.00000E+00
   -0.10757E+07        -0.10603E+08         0.00000E+00
    0.00000E+00         0.00000E+00        -0.27158E+07
 
   -0.26976E+07        -0.46029E+06         0.00000E+00
   -0.46029E+06        -0.11041E+08         0.00000E+00
    0.00000E+00         0.00000E+00        -0.27477E+07
 
   -0.24615E+07         0.32274E+06         0.00000E+00
    0.32274E+06        -0.11432E+08         0.00000E+00
    0.00000E+00         0.00000E+00        -0.27788E+07
 
   -0.22925E+07         0.12595E+07         0.00000E+00
    0.12595E+07        -0.11762E+08         0.00000E+00
    0.00000E+00         0.00000E+00        -0.28109E+07
 
   -0.22161E+07         0.23324E+07         0.00000E+00
    0.23324E+07        -0.12012E+08         0.00000E+00
    0.00000E+00         0.00000E+00        -0.28456E+07
 
   -0.22578E+07         0.35178E+07         0.00000E+00
    0.35178E+07        -0.12164E+08         0.00000E+00
    0.00000E+00         0.00000E+00        -0.28845E+07
 
   -0.24422E+07         0.47844E+07         0.00000E+00
    0.47844E+07        -0.12202E+08         0.00000E+00
    0.00000E+00         0.00000E+00        -0.29289E+07
 
   -0.27901E+07         0.60908E+07         0.00000E+00
    0.60908E+07        -0.12109E+08         0.00000E+00
    0.00000E+00         0.00000E+00        -0.29799E+07
 
   -0.57009E+07        -0.38697E+06         0.00000E+00
   -0.38697E+06        -0.95319E+07         0.00000E+00
    0.00000E+00         0.00000E+00        -0.30466E+07
 
   -0.59666E+07        -0.10821E+07         0.00000E+00
   -0.10821E+07        -0.97105E+07         0.00000E+00
    0.00000E+00         0.00000E+00        -0.31354E+07
 
   -0.59800E+07        -0.16289E+07         0.00000E+00
   -0.16289E+07        -0.10036E+08         0.00000E+00
    0.00000E+00         0.00000E+00        -0.32031E+07
 
   -0.58002E+07        -0.19908E+07         0.00000E+00
   -0.19908E+07        -0.10468E+08         0.00000E+00
    0.00000E+00         0.00000E+00        -0.32537E+07
 
   -0.54848E+07        -0.21482E+07         0.00000E+00
   -0.21482E+07        -0.10970E+08         0.00000E+00
    0.00000E+00         0.00000E+00        -0.32909E+07
 
   -0.50852E+07        -0.20950E+07         0.00000E+00
   -0.20950E+07        -0.11505E+08         0.00000E+00
    0.00000E+00         0.00000E+00        -0.33181E+07
 
   -0.46449E+07        -0.18346E+07         0.00000E+00
   -0.18346E+07        -0.12048E+08         0.00000E+00
    0.00000E+00         0.00000E+00        -0.33386E+07
 
   -0.41997E+07        -0.13755E+07         0.00000E+00
   -0.13755E+07        -0.12575E+08         0.00000E+00
    0.00000E+00         0.00000E+00        -0.33550E+07
 
   -0.37791E+07        -0.72832E+06         0.00000E+00
   -0.72832E+06        -0.13070E+08         0.00000E+00
    0.00000E+00         0.00000E+00        -0.33698E+07
 
   -0.34101E+07         0.95565E+05         0.00000E+00
    0.95565E+05        -0.13517E+08         0.00000E+00
    0.00000E+00         0.00000E+00        -0.33854E+07
 
   -0.31192E+07         0.10840E+07         0.00000E+00
    0.10840E+07        -0.13900E+08         0.00000E+00
    0.00000E+00         0.00000E+00        -0.34039E+07
 
   -0.29356E+07         0.22218E+07         0.00000E+00
    0.22218E+07        -0.14201E+08         0.00000E+00
    0.00000E+00         0.00000E+00        -0.34274E+07
 
   -0.28913E+07         0.34883E+07         0.00000E+00
    0.34883E+07        -0.14399E+08         0.00000E+00
    0.00000E+00         0.00000E+00        -0.34580E+07
 
   -0.30201E+07         0.48529E+07         0.00000E+00
    0.48529E+07        -0.14468E+08         0.00000E+00
    0.00000E+00         0.00000E+00        -0.34977E+07
 
   -0.33542E+07         0.62722E+07         0.00000E+00
    0.62722E+07        -0.14387E+08         0.00000E+00
    0.00000E+00         0.00000E+00        -0.35482E+07
 
   -0.81661E+07        -0.46063E+06         0.00000E+00
   -0.46063E+06        -0.11182E+08         0.00000E+00
    0.00000E+00         0.00000E+00        -0.38697E+07
 
   -0.83053E+07        -0.12788E+07         0.00000E+00
   -0.12788E+07        -0.11394E+08         0.00000E+00
    0.00000E+00         0.00000E+00        -0.39399E+07
 
   -0.81576E+07        -0.19126E+07         0.00000E+00
   -0.19126E+07        -0.11775E+08         0.00000E+00
    0.00000E+00         0.00000E+00        -0.39864E+07
 
   -0.77991E+07        -0.23259E+07         0.00000E+00
   -0.23259E+07        -0.12273E+08         0.00000E+00
    0.00000E+00         0.00000E+00        -0.40144E+07
 
   -0.73015E+07        -0.25043E+07         0.00000E+00
   -0.25043E+07        -0.12840E+08         0.00000E+00
    0.00000E+00         0.00000E+00        -0.40283E+07
 
   -0.67259E+07        -0.24495E+07         0.00000E+00
   -0.24495E+07        -0.13437E+08         0.00000E+00
    0.00000E+00         0.00000E+00        -0.40325E+07
 
   -0.61203E+07        -0.21728E+07         0.00000E+00
   -0.21728E+07        -0.14032E+08         0.00000E+00
    0.00000E+00         0.00000E+00        -0.40305E+07
 
   -0.55210E+07        -0.16886E+07         0.00000E+00
   -0.16886E+07        -0.14607E+08         0.00000E+00
    0.00000E+00         0.00000E+00        -0.40256E+07
 
   -0.49559E+07        -0.10105E+07         0.00000E+00
   -0.10105E+07        -0.15147E+08         0.00000E+00
    0.00000E+00         0.00000E+00        -0.40206E+07
 
   -0.44500E+07        -0.14934E+06         0.00000E+00
   -0.14934E+06        -0.15640E+08         0.00000E+00
    0.00000E+00         0.00000E+00        -0.40181E+07
 
   -0.40295E+07         0.88599E+06         0.00000E+00
    0.88599E+06        -0.16073E+08         0.00000E+00
    0.00000E+00         0.00000E+00        -0.40204E+07
 
   -0.37262E+07         0.20857E+07         0.00000E+00
    0.20857E+07        -0.16425E+08         0.00000E+00
    0.00000E+00         0.00000E+00        -0.40303E+07
 
   -0.35792E+07         0.34347E+07         0.00000E+00
    0.34347E+07        -0.16672E+08         0.00000E+00
    0.00000E+00         0.00000E+00        -0.40502E+07
 
   -0.36342E+07         0.49061E+07         0.00000E+00
    0.49061E+07        -0.16781E+08         0.00000E+00
    0.00000E+00         0.00000E+00        -0.40830E+07
 
   -0.39391E+07         0.64565E+07         0.00000E+00
    0.64565E+07        -0.16718E+08         0.00000E+00
    0.00000E+00         0.00000E+00        -0.41314E+07
 
   -0.10885E+08        -0.54555E+06         0.00000E+00
   -0.54555E+06        -0.12938E+08         0.00000E+00
    0.00000E+00         0.00000E+00        -0.47646E+07
 
   -0.10862E+08        -0.15019E+07         0.00000E+00
   -0.15019E+07        -0.13187E+08         0.00000E+00
    0.00000E+00         0.00000E+00        -0.48098E+07
 
   -0.10519E+08        -0.22266E+07         0.00000E+00
   -0.22266E+07        -0.13627E+08         0.00000E+00
    0.00000E+00         0.00000E+00        -0.48292E+07
 
   -0.99523E+07        -0.26856E+07         0.00000E+00
   -0.26856E+07        -0.14192E+08         0.00000E+00
    0.00000E+00         0.00000E+00        -0.48288E+07
 
   -0.92531E+07        -0.28740E+07         0.00000E+00
   -0.28740E+07        -0.14819E+08         0.00000E+00
    0.00000E+00         0.00000E+00        -0.48144E+07
 
   -0.84918E+07        -0.28061E+07         0.00000E+00
   -0.28061E+07        -0.15463E+08         0.00000E+00
    0.00000E+00         0.00000E+00        -0.47909E+07
 
   -0.77190E+07        -0.25051E+07         0.00000E+00
   -0.25051E+07        -0.16094E+08         0.00000E+00
    0.00000E+00         0.00000E+00        -0.47626E+07
 
   -0.69678E+07        -0.19933E+07         0.00000E+00
   -0.19933E+07        -0.16697E+08         0.00000E+00
    0.00000E+00         0.00000E+00        -0.47329E+07
 
   -0.62606E+07        -0.12878E+07         0.00000E+00
   -0.12878E+07        -0.17263E+08         0.00000E+00
    0.00000E+00         0.00000E+00        -0.47048E+07
 
   -0.56167E+07        -0.39785E+06         0.00000E+00
   -0.39785E+06        -0.17788E+08         0.00000E+00
    0.00000E+00         0.00000E+00        -0.46810E+07
 
   -0.50591E+07         0.67345E+06         0.00000E+00
    0.67345E+06        -0.18261E+08         0.00000E+00
    0.00000E+00         0.00000E+00        -0.46640E+07
 
   -0.46207E+07         0.19251E+07         0.00000E+00
    0.19251E+07        -0.18663E+08         0.00000E+00
    0.00000E+00         0.00000E+00        -0.46568E+07
 
   -0.43480E+07         0.33519E+07         0.00000E+00
    0.33519E+07        -0.18966E+08         0.00000E+00
    0.00000E+00         0.00000E+00        -0.46627E+07
 
   -0.43011E+07         0.49356E+07         0.00000E+00
    0.49356E+07        -0.19126E+08         0.00000E+00
    0.00000E+00         0.00000E+00        -0.46854E+07
 
   -0.45494E+07         0.66358E+07         0.00000E+00
    0.66358E+07        -0.19095E+08         0.00000E+00
    0.00000E+00         0.00000E+00        -0.47288E+07
 
   -0.13905E+08        -0.64283E+06         0.00000E+00
   -0.64283E+06        -0.14824E+08         0.00000E+00
    0.00000E+00         0.00000E+00        -0.57459E+07
 
   -0.13674E+08        -0.17516E+07         0.00000E+00
   -0.17516E+07        -0.15117E+08         0.00000E+00
    0.00000E+00         0.00000E+00        -0.57582E+07
 
   -0.13088E+08        -0.25654E+07         0.00000E+00
   -0.25654E+07        -0.15624E+08         0.00000E+00
    0.00000E+00         0.00000E+00        -0.57426E+07
 
   -0.12280E+08        -0.30559E+07         0.00000E+00
   -0.30559E+07        -0.16254E+08         0.00000E+00
    0.00000E+00         0.00000E+00        -0.57067E+07
 
   -0.11359E+08        -0.32346E+07         0.00000E+00
   -0.32346E+07        -0.16929E+08         0.00000E+00
    0.00000E+00         0.00000E+00        -0.56575E+07
 
   -0.10407E+08        -0.31363E+07         0.00000E+00
   -0.31363E+07        -0.17598E+08         0.00000E+00
    0.00000E+00         0.00000E+00        -0.56010E+07
 
   -0.94716E+07        -0.28005E+07         0.00000E+00
   -0.28005E+07        -0.18237E+08         0.00000E+00
    0.00000E+00         0.00000E+00        -0.55417E+07
 
   -0.85780E+07        -0.22601E+07         0.00000E+00
   -0.22601E+07        -0.18838E+08         0.00000E+00
    0.00000E+00         0.00000E+00        -0.54833E+07
 
   -0.77373E+07        -0.15349E+07         0.00000E+00
   -0.15349E+07        -0.19405E+08         0.00000E+00
    0.00000E+00         0.00000E+00        -0.54284E+07
 
   -0.69585E+07        -0.63110E+06         0.00000E+00
   -0.63110E+06        -0.19940E+08         0.00000E+00
    0.00000E+00         0.00000E+00        -0.53797E+07
 
   -0.62575E+07         0.45670E+06         0.00000E+00
    0.45670E+06        -0.20440E+08         0.00000E+00
    0.00000E+00         0.00000E+00        -0.53396E+07
 
   -0.56654E+07         0.17409E+07         0.00000E+00
    0.17409E+07        -0.20890E+08         0.00000E+00
    0.00000E+00         0.00000E+00        -0.53112E+07
 
   -0.52354E+07         0.32321E+07         0.00000E+00
    0.32321E+07        -0.21257E+08         0.00000E+00
    0.00000E+00         0.00000E+00        -0.52984E+07
 
   -0.50452E+07         0.49273E+07         0.00000E+00
    0.49273E+07        -0.21485E+08         0.00000E+00
    0.00000E+00         0.00000E+00        -0.53061E+07
 
   -0.51926E+07         0.67950E+07         0.00000E+00
    0.67950E+07        -0.21506E+08         0.00000E+00
    0.00000E+00         0.00000E+00        -0.53397E+07
 
   -0.17284E+08        -0.75459E+06         0.00000E+00
   -0.75459E+06        -0.16878E+08         0.00000E+00
    0.00000E+00         0.00000E+00        -0.68323E+07
 
   -0.16780E+08        -0.20286E+07         0.00000E+00
   -0.20286E+07        -0.17226E+08         0.00000E+00
    0.00000E+00         0.00000E+00        -0.68012E+07
 
   -0.15894E+08        -0.29203E+07         0.00000E+00
   -0.29203E+07        -0.17808E+08         0.00000E+00
    0.00000E+00         0.00000E+00        -0.67404E+07
 
   -0.14802E+08        -0.34142E+07         0.00000E+00
   -0.34142E+07        -0.18496E+08         0.00000E+00
    0.00000E+00         0.00000E+00        -0.66596E+07
 
   -0.13643E+08        -0.35522E+07         0.00000E+00
   -0.35522E+07        -0.19196E+08         0.00000E+00
    0.00000E+00         0.00000E+00        -0.65678E+07
 
   -0.12503E+08        -0.33997E+07         0.00000E+00
   -0.33997E+07        -0.19856E+08         0.00000E+00
    0.00000E+00         0.00000E+00        -0.64718E+07
 
   -0.11421E+08        -0.30180E+07         0.00000E+00
   -0.30180E+07        -0.20462E+08         0.00000E+00
    0.00000E+00         0.00000E+00        -0.63766E+07
 
   -0.10403E+08        -0.24508E+07         0.00000E+00
   -0.24508E+07        -0.21022E+08         0.00000E+00
    0.00000E+00         0.00000E+00        -0.62852E+07
 
   -0.94457E+07        -0.17196E+07         0.00000E+00
   -0.17196E+07        -0.21553E+08         0.00000E+00
    0.00000E+00         0.00000E+00        -0.61998E+07
 
   -0.85408E+07        -0.82536E+06         0.00000E+00
   -0.82536E+06        -0.22070E+08         0.00000E+00
    0.00000E+00         0.00000E+00        -0.61222E+07
 
   -0.76921E+07         0.24893E+06         0.00000E+00
    0.24893E+06        -0.22581E+08         0.00000E+00
    0.00000E+00         0.00000E+00        -0.60545E+07
 
   -0.69246E+07         0.15335E+07         0.00000E+00
    0.15335E+07        -0.23074E+08         0.00000E+00
    0.00000E+00         0.00000E+00        -0.59997E+07
 
   -0.62956E+07         0.30628E+07         0.00000E+00
    0.30628E+07        -0.23514E+08         0.00000E+00
    0.00000E+00         0.00000E+00        -0.59620E+07
 
   -0.59025E+07         0.48590E+07         0.00000E+00
    0.48590E+07        -0.23836E+08         0.00000E+00
    0.00000E+00         0.00000E+00        -0.59476E+07
 
   -0.58805E+07         0.69098E+07         0.00000E+00
    0.69098E+07        -0.23941E+08         0.00000E+00
    0.00000E+00         0.00000E+00        -0.59642E+07
 
   -0.21097E+08        -0.88499E+06         0.00000E+00
   -0.88499E+06        -0.19150E+08         0.00000E+00
    0.00000E+00         0.00000E+00        -0.80493E+07
 
   -0.20232E+08        -0.23341E+07         0.00000E+00
   -0.23341E+07        -0.19569E+08         0.00000E+00
    0.00000E+00         0.00000E+00        -0.79604E+07
 
   -0.18966E+08        -0.32748E+07         0.00000E+00
   -0.32748E+07        -0.20235E+08         0.00000E+00
    0.00000E+00         0.00000E+00        -0.78402E+07
 
   -0.17545E+08        -0.37234E+07         0.00000E+00
   -0.37234E+07        -0.20966E+08         0.00000E+00
    0.00000E+00         0.00000E+00        -0.77023E+07
 
   -0.16140E+08        -0.37755E+07         0.00000E+00
   -0.37755E+07        -0.21650E+08         0.00000E+00
    0.00000E+00         0.00000E+00        -0.75580E+07
 
   -0.14830E+08        -0.35411E+07         0.00000E+00
   -0.35411E+07        -0.22246E+08         0.00000E+00
    0.00000E+00         0.00000E+00        -0.74153E+07
 
   -0.13629E+08        -0.31058E+07         0.00000E+00
   -0.31058E+07        -0.22765E+08         0.00000E+00
    0.00000E+00         0.00000E+00        -0.72787E+07
 
   -0.12518E+08        -0.25206E+07         0.00000E+00
   -0.25206E+07        -0.23233E+08         0.00000E+00
    0.00000E+00         0.00000E+00        -0.71502E+07
 
   -0.11467E+08        -0.18052E+07         0.00000E+00
   -0.18052E+07        -0.23686E+08         0.00000E+00
    0.00000E+00         0.00000E+00        -0.70306E+07
 
   -0.10450E+08        -0.95286E+06         0.00000E+00
   -0.95286E+06        -0.24151E+08         0.00000E+00
    0.00000E+00         0.00000E+00        -0.69202E+07
 
   -0.94533E+07         0.66358E+05         0.00000E+00
    0.66358E+05        -0.24646E+08         0.00000E+00
    0.00000E+00         0.00000E+00        -0.68200E+07
 
   -0.84873E+07         0.13041E+07         0.00000E+00
    0.13041E+07        -0.25174E+08         0.00000E+00
    0.00000E+00         0.00000E+00        -0.67322E+07
 
   -0.76064E+07         0.28269E+07         0.00000E+00
    0.28269E+07        -0.25700E+08         0.00000E+00
    0.00000E+00         0.00000E+00        -0.66614E+07
 
   -0.69265E+07         0.46979E+07         0.00000E+00
    0.46979E+07        -0.26148E+08         0.00000E+00
    0.00000E+00         0.00000E+00        -0.66149E+07
 
   -0.66316E+07         0.69408E+07         0.00000E+00
    0.69408E+07        -0.26385E+08         0.00000E+00
    0.00000E+00         0.00000E+00        -0.66032E+07
 
   -0.25451E+08        -0.10419E+07         0.00000E+00
   -0.10419E+07        -0.21716E+08         0.00000E+00
    0.00000E+00         0.00000E+00        -0.94333E+07
 
   -0.24092E+08        -0.26675E+07         0.00000E+00
   -0.26675E+07        -0.22235E+08         0.00000E+00
    0.00000E+00         0.00000E+00        -0.92654E+07
 
   -0.22339E+08        -0.35950E+07         0.00000E+00
   -0.35950E+07        -0.22989E+08         0.00000E+00
    0.00000E+00         0.00000E+00        -0.90655E+07
 
   -0.20550E+08        -0.39182E+07         0.00000E+00
   -0.39182E+07        -0.23719E+08         0.00000E+00
    0.00000E+00         0.00000E+00        -0.88537E+07
 
   -0.18914E+08        -0.38279E+07         0.00000E+00
   -0.38279E+07        -0.24311E+08         0.00000E+00
    0.00000E+00         0.00000E+00        -0.86449E+07
 
   -0.17473E+08        -0.34899E+07         0.00000E+00
   -0.34899E+07        -0.24764E+08         0.00000E+00
    0.00000E+00         0.00000E+00        -0.84476E+07
 
   -0.16196E+08        -0.30060E+07         0.00000E+00
   -0.30060E+07        -0.25126E+08         0.00000E+00
    0.00000E+00         0.00000E+00        -0.82644E+07
 
   -0.15027E+08        -0.24238E+07         0.00000E+00
   -0.24238E+07        -0.25448E+08         0.00000E+00
    0.00000E+00         0.00000E+00        -0.80951E+07
 
   -0.13912E+08        -0.17551E+07         0.00000E+00
   -0.17551E+07        -0.25777E+08         0.00000E+00
    0.00000E+00         0.00000E+00        -0.79378E+07
 
   -0.12801E+08        -0.98467E+06         0.00000E+00
   -0.98467E+06        -0.26152E+08         0.00000E+00
    0.00000E+00         0.00000E+00        -0.77908E+07
 
   -0.11660E+08        -0.71563E+05         0.00000E+00
   -0.71563E+05        -0.26604E+08         0.00000E+00
    0.00000E+00         0.00000E+00        -0.76528E+07
 
   -0.10474E+08         0.10559E+07         0.00000E+00
    0.10559E+07        -0.27148E+08         0.00000E+00
    0.00000E+00         0.00000E+00        -0.75245E+07
 
   -0.92797E+07         0.25035E+07         0.00000E+00
    0.25035E+07        -0.27769E+08         0.00000E+00
    0.00000E+00         0.00000E+00        -0.74097E+07
 
   -0.81993E+07         0.43962E+07         0.00000E+00
    0.43962E+07        -0.28385E+08         0.00000E+00
    0.00000E+00         0.00000E+00        -0.73168E+07
 
   -0.74762E+07         0.68266E+07         0.00000E+00
    0.68266E+07        -0.28823E+08         0.00000E+00
    0.00000E+00         0.00000E+00        -0.72599E+07
 
   -0.30508E+08        -0.12414E+07         0.00000E+00
   -0.12414E+07        -0.24706E+08         0.00000E+00
    0.00000E+00         0.00000E+00        -0.11043E+08
 
   -0.28438E+08        -0.30176E+07         0.00000E+00
   -0.30176E+07        -0.25367E+08         0.00000E+00
    0.00000E+00         0.00000E+00        -0.10761E+08
 
   -0.26066E+08        -0.38012E+07         0.00000E+00
   -0.38012E+07        -0.26183E+08         0.00000E+00
    0.00000E+00         0.00000E+00        -0.10450E+08
 
   -0.23902E+08        -0.38808E+07         0.00000E+00
   -0.38808E+07        -0.26800E+08         0.00000E+00
    0.00000E+00         0.00000E+00        -0.10140E+08
 
   -0.22094E+08        -0.36013E+07         0.00000E+00
   -0.36013E+07        -0.27169E+08         0.00000E+00
    0.00000E+00         0.00000E+00        -0.98527E+07
 
   -0.20588E+08        -0.31677E+07         0.00000E+00
   -0.31677E+07        -0.27377E+08         0.00000E+00
    0.00000E+00         0.00000E+00        -0.95931E+07
 
   -0.19282E+08        -0.26661E+07         0.00000E+00
   -0.26661E+07        -0.27512E+08         0.00000E+00
    0.00000E+00         0.00000E+00        -0.93589E+07
 
   -0.18089E+08        -0.21250E+07         0.00000E+00
   -0.21250E+07        -0.27638E+08         0.00000E+00
    0.00000E+00         0.00000E+00        -0.91454E+07
 
   -0.16931E+08        -0.15429E+07         0.00000E+00
   -0.15429E+07        -0.27807E+08         0.00000E+00
    0.00000E+00         0.00000E+00        -0.89476E+07
 
   -0.15744E+08        -0.89738E+06         0.00000E+00
   -0.89738E+06        -0.28059E+08         0.00000E+00
    0.00000E+00         0.00000E+00        -0.87605E+07
 
   -0.14466E+08        -0.14333E+06         0.00000E+00
   -0.14333E+06        -0.28432E+08         0.00000E+00
    0.00000E+00         0.00000E+00        -0.85797E+07
 
   -0.13049E+08         0.79972E+06         0.00000E+00
    0.79972E+06        -0.28963E+08         0.00000E+00
    0.00000E+00         0.00000E+00        -0.84024E+07
 
   -0.11479E+08         0.20729E+07         0.00000E+00
    0.20729E+07        -0.29669E+08         0.00000E+00
    0.00000E+00         0.00000E+00        -0.82297E+07
 
   -0.98512E+07         0.38889E+07         0.00000E+00
    0.38889E+07        -0.30497E+08         0.00000E+00
    0.00000E+00         0.00000E+00        -0.80697E+07
 
   -0.84661E+07         0.64709E+07         0.00000E+00
    0.64709E+07        -0.31240E+08         0.00000E+00
    0.00000E+00         0.00000E+00        -0.79412E+07
 
   -0.36549E+08        -0.15169E+07         0.00000E+00
   -0.15169E+07        -0.28356E+08         0.00000E+00
    0.00000E+00         0.00000E+00        -0.12981E+08
 
   -0.33393E+08        -0.33213E+07         0.00000E+00
   -0.33213E+07        -0.29224E+08         0.00000E+00
    0.00000E+00         0.00000E+00        -0.12523E+08
 
   -0.30279E+08        -0.36892E+07         0.00000E+00
   -0.36892E+07        -0.29943E+08         0.00000E+00
    0.00000E+00         0.00000E+00        -0.12044E+08
 
   -0.27837E+08        -0.34139E+07         0.00000E+00
   -0.34139E+07        -0.30179E+08         0.00000E+00
    0.00000E+00         0.00000E+00        -0.11603E+08
 
   -0.25972E+08        -0.29773E+07         0.00000E+00
   -0.29773E+07        -0.30148E+08         0.00000E+00
    0.00000E+00         0.00000E+00        -0.11224E+08
 
   -0.24461E+08        -0.25164E+07         0.00000E+00
   -0.25164E+07        -0.30015E+08         0.00000E+00
    0.00000E+00         0.00000E+00        -0.10895E+08
 
   -0.23154E+08        -0.20638E+07         0.00000E+00
   -0.20638E+07        -0.29874E+08         0.00000E+00
    0.00000E+00         0.00000E+00        -0.10606E+08
 
   -0.21944E+08        -0.16190E+07         0.00000E+00
   -0.16190E+07        -0.29779E+08         0.00000E+00
    0.00000E+00         0.00000E+00        -0.10344E+08
 
   -0.20744E+08        -0.11678E+07         0.00000E+00
   -0.11678E+07        -0.29770E+08         0.00000E+00
    0.00000E+00         0.00000E+00        -0.10103E+08
 
   -0.19481E+08        -0.68586E+06         0.00000E+00
   -0.68586E+06        -0.29879E+08         0.00000E+00
    0.00000E+00         0.00000E+00        -0.98720E+07
 
   -0.18073E+08        -0.13343E+06         0.00000E+00
   -0.13343E+06        -0.30146E+08         0.00000E+00
    0.00000E+00         0.00000E+00        -0.96437E+07
 
   -0.16430E+08         0.55987E+06         0.00000E+00
    0.55987E+06        -0.30617E+08         0.00000E+00
    0.00000E+00         0.00000E+00        -0.94095E+07
 
   -0.14449E+08         0.15336E+07         0.00000E+00
    0.15336E+07        -0.31359E+08         0.00000E+00
    0.00000E+00         0.00000E+00        -0.91615E+07
 
   -0.12104E+08         0.30958E+07         0.00000E+00
    0.30958E+07        -0.32423E+08         0.00000E+00
    0.00000E+00         0.00000E+00        -0.89056E+07
 
   -0.96974E+07         0.57181E+07         0.00000E+00
    0.57181E+07        -0.33611E+08         0.00000E+00
    0.00000E+00         0.00000E+00        -0.86616E+07
 
   -0.44162E+08        -0.19686E+07         0.00000E+00
   -0.19686E+07        -0.33386E+08         0.00000E+00
    0.00000E+00         0.00000E+00        -0.15510E+08
 
   -0.39246E+08        -0.31834E+07         0.00000E+00
   -0.31834E+07        -0.34252E+08         0.00000E+00
    0.00000E+00         0.00000E+00        -0.14700E+08
 
   -0.35511E+08        -0.28045E+07         0.00000E+00
   -0.28045E+07        -0.34148E+08         0.00000E+00
    0.00000E+00         0.00000E+00        -0.13932E+08
 
   -0.33030E+08        -0.23230E+07         0.00000E+00
   -0.23230E+07        -0.33658E+08         0.00000E+00
    0.00000E+00         0.00000E+00        -0.13338E+08
 
   -0.31159E+08        -0.19082E+07         0.00000E+00
   -0.19082E+07        -0.33106E+08         0.00000E+00
    0.00000E+00         0.00000E+00        -0.12853E+08
 
   -0.29625E+08        -0.15542E+07         0.00000E+00
   -0.15542E+07        -0.32600E+08         0.00000E+00
    0.00000E+00         0.00000E+00        -0.12445E+08
 
   -0.28271E+08        -0.12425E+07         0.00000E+00
   -0.12425E+07        -0.32185E+08         0.00000E+00
    0.00000E+00         0.00000E+00        -0.12091E+08
 
   -0.26991E+08        -0.95503E+06         0.00000E+00
   -0.95503E+06        -0.31880E+08         0.00000E+00
    0.00000E+00         0.00000E+00        -0.11774E+08
 
   -0.25703E+08        -0.67483E+06         0.00000E+00
   -0.67483E+06        -0.31703E+08         0.00000E+00
    0.00000E+00         0.00000E+00        -0.11481E+08
 
   -0.24327E+08        -0.38319E+06         0.00000E+00
   -0.38319E+06        -0.31673E+08         0.00000E+00
    0.00000E+00         0.00000E+00        -0.11200E+08
 
   -0.22770E+08        -0.54169E+05         0.00000E+00
   -0.54169E+05        -0.31820E+08         0.00000E+00
    0.00000E+00         0.00000E+00        -0.10918E+08
 
   -0.20907E+08         0.35696E+06         0.00000E+00
    0.35696E+06        -0.32194E+08         0.00000E+00
    0.00000E+00         0.00000E+00        -0.10620E+08
 
   -0.18552E+08         0.94334E+06         0.00000E+00
    0.94334E+06        -0.32883E+08         0.00000E+00
    0.00000E+00         0.00000E+00        -0.10287E+08
 
   -0.15368E+08         0.19576E+07         0.00000E+00
    0.19576E+07        -0.34055E+08         0.00000E+00
    0.00000E+00         0.00000E+00        -0.98847E+07
 
   -0.11383E+08         0.42883E+07         0.00000E+00
    0.42883E+07        -0.35898E+08         0.00000E+00
    0.00000E+00         0.00000E+00        -0.94562E+07
 
   -0.56633E+08        -0.19082E+07         0.00000E+00
   -0.19082E+07        -0.41748E+08         0.00000E+00
    0.00000E+00         0.00000E+00        -0.19676E+08
 
   -0.48332E+08        -0.13779E+07         0.00000E+00
   -0.13779E+07        -0.39882E+08         0.00000E+00
    0.00000E+00         0.00000E+00        -0.17643E+08
 
   -0.44188E+08        -0.95455E+06         0.00000E+00
   -0.95455E+06        -0.38318E+08         0.00000E+00
    0.00000E+00         0.00000E+00        -0.16501E+08
 
   -0.41311E+08        -0.73896E+06         0.00000E+00
   -0.73896E+06        -0.37048E+08         0.00000E+00
    0.00000E+00         0.00000E+00        -0.15672E+08
 
   -0.39091E+08        -0.58573E+06         0.00000E+00
   -0.58573E+06        -0.36023E+08         0.00000E+00
    0.00000E+00         0.00000E+00        -0.15023E+08
 
   -0.37240E+08        -0.46607E+06         0.00000E+00
   -0.46607E+06        -0.35200E+08         0.00000E+00
    0.00000E+00         0.00000E+00        -0.14488E+08
 
   -0.35596E+08        -0.36450E+06         0.00000E+00
   -0.36450E+06        -0.34555E+08         0.00000E+00
    0.00000E+00         0.00000E+00        -0.14030E+08
 
   -0.34051E+08        -0.27223E+06         0.00000E+00
   -0.27223E+06        -0.34073E+08         0.00000E+00
    0.00000E+00         0.00000E+00        -0.13625E+08
 
   -0.32514E+08        -0.18266E+06         0.00000E+00
   -0.18266E+06        -0.33751E+08         0.00000E+00
    0.00000E+00         0.00000E+00        -0.13253E+08
 
   -0.30899E+08        -0.89277E+05         0.00000E+00
   -0.89277E+05        -0.33596E+08         0.00000E+00
    0.00000E+00         0.00000E+00        -0.12899E+08
 
   -0.29099E+08         0.16492E+05         0.00000E+00
    0.16492E+05        -0.33629E+08         0.00000E+00
    0.00000E+00         0.00000E+00        -0.12546E+08
 
   -0.26970E+08         0.14897E+06         0.00000E+00
    0.14897E+06        -0.33894E+08         0.00000E+00
    0.00000E+00         0.00000E+00        -0.12173E+08
 
   -0.24263E+08         0.34031E+06         0.00000E+00
    0.34031E+06        -0.34476E+08         0.00000E+00
    0.00000E+00         0.00000E+00        -0.11748E+08
 
   -0.20489E+08         0.66453E+06         0.00000E+00
    0.66453E+06        -0.35575E+08         0.00000E+00
    0.00000E+00         0.00000E+00        -0.11213E+08
 
   -0.14042E+08         0.16862E+07         0.00000E+00
    0.16862E+07        -0.37806E+08         0.00000E+00
    0.00000E+00         0.00000E+00        -0.10369E+08
 
TENSORS stresstot double 
   -0.48028E+08        -0.19309E+06         0.00000E+00
   -0.19309E+06        -0.60140E+08         0.00000E+00
    0.00000E+00         0.00000E+00        -0.66699E+08
 
   -0.50869E+08        -0.22853E+06         0.00000E+00
   -0.22853E+06        -0.60501E+08         0.00000E+00
    0.00000E+00         0.00000E+00        -0.67366E+08
 
   -0.53001E+08        -0.21341E+06         0.00000E+00
   -0.21341E+06        -0.60912E+08         0.00000E+00
    0.00000E+00         0.00000E+00        -0.67918E+08
 
   -0.54782E+08        -0.19266E+06         0.00000E+00
   -0.19266E+06        -0.61301E+08         0.00000E+00
    0.00000E+00         0.00000E+00        -0.68406E+08
 
   -0.56342E+08        -0.16810E+06         0.00000E+00
   -0.16810E+06        -0.61651E+08         0.00000E+00
    0.00000E+00         0.00000E+00        -0.68849E+08
 
   -0.57755E+08        -0.14094E+06         0.00000E+00
   -0.14094E+06        -0.61951E+08         0.00000E+00
    0.00000E+00         0.00000E+00        -0.69257E+08
 
   -0.59068E+08        -0.11127E+06         0.00000E+00
   -0.11127E+06        -0.62197E+08         0.00000E+00
    0.00000E+00         0.00000E+00        -0.69635E+08
 
   -0.60318E+08        -0.78719E+05         0.00000E+00
   -0.78719E+05        -0.62381E+08         0.00000E+00
    0.00000E+00         0.00000E+00        -0.69988E+08
 
   -0.61536E+08        -0.42597E+05         0.00000E+00
   -0.42597E+05        -0.62498E+08         0.00000E+00
    0.00000E+00         0.00000E+00        -0.70320E+08
 
   -0.62753E+08        -0.17652E+04         0.00000E+00
   -0.17652E+04        -0.62538E+08         0.00000E+00
    0.00000E+00         0.00000E+00        -0.70633E+08
 
   -0.64003E+08         0.45700E+05         0.00000E+00
    0.45700E+05        -0.62490E+08         0.00000E+00
    0.00000E+00         0.00000E+00        -0.70931E+08
 
   -0.65330E+08         0.10334E+06         0.00000E+00
    0.10334E+06        -0.62337E+08         0.00000E+00
    0.00000E+00         0.00000E+00        -0.71217E+08
 
   -0.66800E+08         0.17904E+06         0.00000E+00
    0.17904E+06        -0.62051E+08         0.00000E+00
    0.00000E+00         0.00000E+00        -0.71498E+08
 
   -0.68535E+08         0.29117E+06         0.00000E+00
    0.29117E+06        -0.61578E+08         0.00000E+00
    0.00000E+00         0.00000E+00        -0.71785E+08
 
   -0.70892E+08         0.56182E+06         0.00000E+00
    0.56182E+06        -0.60764E+08         0.00000E+00
    0.00000E+00         0.00000E+00        -0.72114E+08
 
   -0.48399E+08        -0.31101E+06         0.00000E+00
   -0.31101E+06        -0.60014E+08         0.00000E+00
    0.00000E+00         0.00000E+00        -0.66066E+08
 
   -0.50899E+08        -0.54851E+06         0.00000E+00
   -0.54851E+06        -0.60141E+08         0.00000E+00
    0.00000E+00         0.00000E+00        -0.66607E+08
 
   -0.52982E+08        -0.56808E+06         0.00000E+00
   -0.56808E+06        -0.60399E+08         0.00000E+00
    0.00000E+00         0.00000E+00        -0.67103E+08
 
   -0.54744E+08        -0.53030E+06         0.00000E+00
   -0.53030E+06        -0.60690E+08         0.00000E+00
    0.00000E+00         0.00000E+00        -0.67553E+08
 
   -0.56294E+08        -0.46967E+06         0.00000E+00
   -0.46967E+06        -0.60971E+08         0.00000E+00
    0.00000E+00         0.00000E+00        -0.67966E+08
 
   -0.57700E+08        -0.39589E+06         0.00000E+00
   -0.39589E+06        -0.61220E+08         0.00000E+00
    0.00000E+00         0.00000E+00        -0.68349E+08
 
   -0.59007E+08        -0.31176E+06         0.00000E+00
   -0.31176E+06        -0.61425E+08         0.00000E+00
    0.00000E+00         0.00000E+00        -0.68705E+08
 
   -0.60251E+08        -0.21734E+06         0.00000E+00
   -0.21734E+06        -0.61577E+08         0.00000E+00
    0.00000E+00         0.00000E+00        -0.69039E+08
 
   -0.61460E+08        -0.11108E+06         0.00000E+00
   -0.11108E+06        -0.61665E+08         0.00000E+00
    0.00000E+00         0.00000E+00        -0.69352E+08
 
   -0.62666E+08         0.10183E+05         0.00000E+00
    0.10183E+05        -0.61680E+08         0.00000E+00
    0.00000E+00         0.00000E+00        -0.69647E+08
 
   -0.63899E+08         0.15210E+06         0.00000E+00
    0.15210E+06        -0.61609E+08         0.00000E+00
    0.00000E+00         0.00000E+00        -0.69926E+08
 
   -0.65199E+08         0.32537E+06         0.00000E+00
    0.32537E+06        -0.61433E+08         0.00000E+00
    0.00000E+00         0.00000E+00        -0.70193E+08
 
   -0.66619E+08         0.55240E+06         0.00000E+00
    0.55240E+06        -0.61127E+08         0.00000E+00
    0.00000E+00         0.00000E+00        -0.70449E+08
 
   -0.68244E+08         0.89068E+06         0.00000E+00
    0.89068E+06        -0.60642E+08         0.00000E+00
    0.00000E+00         0.00000E+00        -0.70701E+08
 
   -0.70083E+08         0.15317E+07         0.00000E+00
    0.15317E+07        -0.59917E+08         0.00000E+00
    0.00000E+00         0.00000E+00        -0.70936E+08
 
   -0.48912E+08        -0.32113E+06         0.00000E+00
   -0.32113E+06        -0.59997E+08         0.00000E+00
    0.00000E+00         0.00000E+00        -0.65466E+08
 
   -0.51054E+08        -0.67814E+06         0.00000E+00
   -0.67814E+06        -0.60028E+08         0.00000E+00
    0.00000E+00         0.00000E+00        -0.65910E+08
 
   -0.52988E+08        -0.78479E+06         0.00000E+00
   -0.78479E+06        -0.60139E+08         0.00000E+00
    0.00000E+00         0.00000E+00        -0.66338E+08
 
   -0.54693E+08        -0.77055E+06         0.00000E+00
   -0.77055E+06        -0.60310E+08         0.00000E+00
    0.00000E+00         0.00000E+00        -0.66742E+08
 
   -0.56215E+08        -0.69954E+06         0.00000E+00
   -0.69954E+06        -0.60499E+08         0.00000E+00
    0.00000E+00         0.00000E+00        -0.67119E+08
 
   -0.57602E+08        -0.59581E+06         0.00000E+00
   -0.59581E+06        -0.60678E+08         0.00000E+00
    0.00000E+00         0.00000E+00        -0.67472E+08
 
   -0.58893E+08        -0.46840E+06         0.00000E+00
   -0.46840E+06        -0.60828E+08         0.00000E+00
    0.00000E+00         0.00000E+00        -0.67803E+08
 
   -0.60121E+08        -0.31973E+06         0.00000E+00
   -0.31973E+06        -0.60934E+08         0.00000E+00
    0.00000E+00         0.00000E+00        -0.68113E+08
 
   -0.61312E+08        -0.14856E+06         0.00000E+00
   -0.14856E+06        -0.60985E+08         0.00000E+00
    0.00000E+00         0.00000E+00        -0.68404E+08
 
   -0.62493E+08         0.49528E+05         0.00000E+00
    0.49528E+05        -0.60968E+08         0.00000E+00
    0.00000E+00         0.00000E+00        -0.68678E+08
 
   -0.63693E+08         0.28323E+06         0.00000E+00
    0.28323E+06        -0.60870E+08         0.00000E+00
    0.00000E+00         0.00000E+00        -0.68936E+08
 
   -0.64940E+08         0.56889E+06         0.00000E+00
    0.56889E+06        -0.60673E+08         0.00000E+00
    0.00000E+00         0.00000E+00        -0.69178E+08
 
   -0.66267E+08         0.93875E+06         0.00000E+00
    0.93875E+06        -0.60357E+08         0.00000E+00
    0.00000E+00         0.00000E+00        -0.69406E+08
 
   -0.67690E+08         0.14620E+07         0.00000E+00
    0.14620E+07        -0.59898E+08         0.00000E+00
    0.00000E+00         0.00000E+00        -0.69616E+08
 
   -0.69157E+08         0.22460E+07         0.00000E+00
    0.22460E+07        -0.59319E+08         0.00000E+00
    0.00000E+00         0.00000E+00        -0.69803E+08
 
   -0.49456E+08        -0.30883E+06         0.00000E+00
   -0.30883E+06        -0.59992E+08         0.00000E+00
    0.00000E+00         0.00000E+00        -0.64861E+08
 
   -0.51300E+08        -0.70915E+06         0.00000E+00
   -0.70915E+06        -0.59983E+08         0.00000E+00
    0.00000E+00         0.00000E+00        -0.65234E+08
 
   -0.53050E+08        -0.88189E+06         0.00000E+00
   -0.88189E+06        -0.60012E+08         0.00000E+00
    0.00000E+00         0.00000E+00        -0.65603E+08
 
   -0.54658E+08        -0.90825E+06         0.00000E+00
   -0.90825E+06        -0.60086E+08         0.00000E+00
    0.00000E+00         0.00000E+00        -0.65960E+08
 
   -0.56124E+08        -0.84692E+06         0.00000E+00
   -0.84692E+06        -0.60188E+08         0.00000E+00
    0.00000E+00         0.00000E+00        -0.66299E+08
 
   -0.57475E+08        -0.72989E+06         0.00000E+00
   -0.72989E+06        -0.60293E+08         0.00000E+00
    0.00000E+00         0.00000E+00        -0.66620E+08
 
   -0.58736E+08        -0.57196E+06         0.00000E+00
   -0.57196E+06        -0.60383E+08         0.00000E+00
    0.00000E+00         0.00000E+00        -0.66923E+08
 
   -0.59935E+08        -0.37872E+06         0.00000E+00
   -0.37872E+06        -0.60440E+08         0.00000E+00
    0.00000E+00         0.00000E+00        -0.67208E+08
 
   -0.61096E+08        -0.15012E+06         0.00000E+00
   -0.15012E+06        -0.60450E+08         0.00000E+00
    0.00000E+00         0.00000E+00        -0.67476E+08
 
   -0.62240E+08         0.11846E+06         0.00000E+00
    0.11846E+06        -0.60401E+08         0.00000E+00
    0.00000E+00         0.00000E+00        -0.67727E+08
 
   -0.63389E+08         0.43711E+06         0.00000E+00
    0.43711E+06        -0.60279E+08         0.00000E+00
    0.00000E+00         0.00000E+00        -0.67962E+08
 
   -0.64562E+08         0.82421E+06         0.00000E+00
    0.82421E+06        -0.60070E+08         0.00000E+00
    0.00000E+00         0.00000E+00        -0.68179E+08
 
   -0.65770E+08         0.13122E+07         0.00000E+00
    0.13122E+07        -0.59763E+08         0.00000E+00
    0.00000E+00         0.00000E+00        -0.68379E+08
 
   -0.67001E+08         0.19505E+07         0.00000E+00
    0.19505E+07        -0.59359E+08         0.00000E+00
    0.00000E+00         0.00000E+00        -0.68557E+08
 
   -0.68197E+08         0.27960E+07         0.00000E+00
    0.27960E+07        -0.58887E+08         0.00000E+00
    0.00000E+00         0.00000E+00        -0.68708E+08
 
   -0.49988E+08        -0.28853E+06         0.00000E+00
   -0.28853E+06        -0.59990E+08         0.00000E+00
    0.00000E+00         0.00000E+00        -0.64244E+08
 
   -0.51590E+08        -0.69429E+06         0.00000E+00
   -0.69429E+06        -0.59963E+08         0.00000E+00
    0.00000E+00         0.00000E+00        -0.64564E+08
 
   -0.53160E+08        -0.90311E+06         0.00000E+00
   -0.90311E+06        -0.59947E+08         0.00000E+00
    0.00000E+00         0.00000E+00        -0.64884E+08
 
   -0.54648E+08        -0.96375E+06         0.00000E+00
   -0.96375E+06        -0.59957E+08         0.00000E+00
    0.00000E+00         0.00000E+00        -0.65197E+08
 
   -0.56036E+08        -0.91953E+06         0.00000E+00
   -0.91953E+06        -0.59990E+08         0.00000E+00
    0.00000E+00         0.00000E+00        -0.65500E+08
 
   -0.57330E+08        -0.80013E+06         0.00000E+00
   -0.80013E+06        -0.60032E+08         0.00000E+00
    0.00000E+00         0.00000E+00        -0.65789E+08
 
   -0.58546E+08        -0.62244E+06         0.00000E+00
   -0.62244E+06        -0.60067E+08         0.00000E+00
    0.00000E+00         0.00000E+00        -0.66063E+08
 
   -0.59703E+08        -0.39422E+06         0.00000E+00
   -0.39422E+06        -0.60079E+08         0.00000E+00
    0.00000E+00         0.00000E+00        -0.66323E+08
 
   -0.60820E+08        -0.11687E+06         0.00000E+00
   -0.11687E+06        -0.60052E+08         0.00000E+00
    0.00000E+00         0.00000E+00        -0.66566E+08
 
   -0.61914E+08         0.21345E+06         0.00000E+00
    0.21345E+06        -0.59976E+08         0.00000E+00
    0.00000E+00         0.00000E+00        -0.66794E+08
 
   -0.62999E+08         0.60614E+06         0.00000E+00
    0.60614E+06        -0.59837E+08         0.00000E+00
    0.00000E+00         0.00000E+00        -0.67005E+08
 
   -0.64086E+08         0.10777E+07         0.00000E+00
    0.10777E+07        -0.59626E+08         0.00000E+00
    0.00000E+00         0.00000E+00        -0.67198E+08
 
   -0.65172E+08         0.16527E+07         0.00000E+00
    0.16527E+07        -0.59340E+08         0.00000E+00
    0.00000E+00         0.00000E+00        -0.67373E+08
 
   -0.66237E+08         0.23625E+07         0.00000E+00
    0.23625E+07        -0.58989E+08         0.00000E+00
    0.00000E+00         0.00000E+00        -0.67525E+08
 
   -0.67234E+08         0.32356E+07         0.00000E+00
    0.32356E+07        -0.58600E+08         0.00000E+00
    0.00000E+00         0.00000E+00        -0.67651E+08
 
   -0.50489E+08        -0.26491E+06         0.00000E+00
   -0.26491E+06        -0.59989E+08         0.00000E+00
    0.00000E+00         0.00000E+00        -0.63614E+08
 
   -0.51893E+08        -0.65687E+06         0.00000E+00
   -0.65687E+06        -0.59954E+08         0.00000E+00
    0.00000E+00         0.00000E+00        -0.63891E+08
 
   -0.53300E+08        -0.88026E+06         0.00000E+00
   -0.88026E+06        -0.59913E+08         0.00000E+00
    0.00000E+00         0.00000E+00        -0.64170E+08
 
   -0.54662E+08        -0.96318E+06         0.00000E+00
   -0.96318E+06        -0.59885E+08         0.00000E+00
    0.00000E+00         0.00000E+00        -0.64446E+08
 
   -0.55956E+08        -0.93456E+06         0.00000E+00
   -0.93456E+06        -0.59871E+08         0.00000E+00
    0.00000E+00         0.00000E+00        -0.64714E+08
 
   -0.57177E+08        -0.81749E+06         0.00000E+00
   -0.81749E+06        -0.59867E+08         0.00000E+00
    0.00000E+00         0.00000E+00        -0.64973E+08
 
   -0.58333E+08        -0.62731E+06         0.00000E+00
   -0.62731E+06        -0.59858E+08         0.00000E+00
    0.00000E+00         0.00000E+00        -0.65220E+08
 
   -0.59434E+08        -0.37226E+06         0.00000E+00
   -0.37226E+06        -0.59833E+08         0.00000E+00
    0.00000E+00         0.00000E+00        -0.65453E+08
 
   -0.60494E+08        -0.54870E+05         0.00000E+00
   -0.54870E+05        -0.59779E+08         0.00000E+00
    0.00000E+00         0.00000E+00        -0.65672E+08
 
   -0.61525E+08         0.32724E+06         0.00000E+00
    0.32724E+06        -0.59682E+08         0.00000E+00
    0.00000E+00         0.00000E+00        -0.65876E+08
 
   -0.62537E+08         0.78121E+06         0.00000E+00
    0.78121E+06        -0.59535E+08         0.00000E+00
    0.00000E+00         0.00000E+00        -0.66065E+08
 
   -0.63533E+08         0.13190E+07         0.00000E+00
    0.13190E+07        -0.59331E+08         0.00000E+00
    0.00000E+00         0.00000E+00        -0.66236E+08
 
   -0.64505E+08         0.19568E+07         0.00000E+00
    0.19568E+07        -0.59071E+08         0.00000E+00
    0.00000E+00         0.00000E+00        -0.66389E+08
 
   -0.65433E+08         0.27119E+07         0.00000E+00
    0.27119E+07        -0.58766E+08         0.00000E+00
    0.00000E+00         0.00000E+00        -0.66520E+08
 
   -0.66278E+08         0.35967E+07         0.00000E+00
    0.35967E+07        -0.58438E+08         0.00000E+00
    0.00000E+00         0.00000E+00        -0.66627E+08
 
   -0.50953E+08        -0.24037E+06         0.00000E+00
   -0.24037E+06        -0.59989E+08         0.00000E+00
    0.00000E+00         0.00000E+00        -0.62969E+08
 
   -0.52194E+08        -0.60911E+06         0.00000E+00
   -0.60911E+06        -0.59951E+08         0.00000E+00
    0.00000E+00         0.00000E+00        -0.63212E+08
 
   -0.53454E+08        -0.83371E+06         0.00000E+00
   -0.83371E+06        -0.59899E+08         0.00000E+00
    0.00000E+00         0.00000E+00        -0.63457E+08
 
   -0.54692E+08        -0.92853E+06         0.00000E+00
   -0.92853E+06        -0.59850E+08         0.00000E+00
    0.00000E+00         0.00000E+00        -0.63701E+08
 
   -0.55884E+08        -0.91100E+06         0.00000E+00
   -0.91100E+06        -0.59809E+08         0.00000E+00
    0.00000E+00         0.00000E+00        -0.63939E+08
 
   -0.57021E+08        -0.79700E+06         0.00000E+00
   -0.79700E+06        -0.59775E+08         0.00000E+00
    0.00000E+00         0.00000E+00        -0.64169E+08
 
   -0.58102E+08        -0.59848E+06         0.00000E+00
   -0.59848E+06        -0.59738E+08         0.00000E+00
    0.00000E+00         0.00000E+00        -0.64388E+08
 
   -0.59134E+08        -0.32284E+06         0.00000E+00
   -0.32284E+06        -0.59689E+08         0.00000E+00
    0.00000E+00         0.00000E+00        -0.64597E+08
 
   -0.60126E+08         0.26795E+05         0.00000E+00
    0.26795E+05        -0.59616E+08         0.00000E+00
    0.00000E+00         0.00000E+00        -0.64792E+08
 
   -0.61085E+08         0.45110E+06         0.00000E+00
    0.45110E+06        -0.59509E+08         0.00000E+00
    0.00000E+00         0.00000E+00        -0.64974E+08
 
   -0.62017E+08         0.95418E+06         0.00000E+00
    0.95418E+06        -0.59362E+08         0.00000E+00
    0.00000E+00         0.00000E+00        -0.65141E+08
 
   -0.62922E+08         0.15430E+07         0.00000E+00
    0.15430E+07        -0.59170E+08         0.00000E+00
    0.00000E+00         0.00000E+00        -0.65292E+08
 
   -0.63791E+08         0.22261E+07         0.00000E+00
    0.22261E+07        -0.58936E+08         0.00000E+00
    0.00000E+00         0.00000E+00        -0.65426E+08
 
   -0.64605E+08         0.30110E+07         0.00000E+00
    0.30110E+07        -0.58670E+08         0.00000E+00
    0.00000E+00         0.00000E+00        -0.65539E+08
 
   -0.65333E+08         0.39002E+07         0.00000E+00
    0.39002E+07        -0.58390E+08         0.00000E+00
    0.00000E+00         0.00000E+00        -0.65631E+08
 
   -0.51377E+08        -0.21660E+06         0.00000E+00
   -0.21660E+06        -0.59990E+08         0.00000E+00
    0.00000E+00         0.00000E+00        -0.62311E+08
 
   -0.52481E+08        -0.55863E+06         0.00000E+00
   -0.55863E+06        -0.59953E+08         0.00000E+00
    0.00000E+00         0.00000E+00        -0.62526E+08
 
   -0.53612E+08        -0.77720E+06         0.00000E+00
   -0.77720E+06        -0.59899E+08         0.00000E+00
    0.00000E+00         0.00000E+00        -0.62743E+08
 
   -0.54732E+08        -0.87687E+06         0.00000E+00
   -0.87687E+06        -0.59842E+08         0.00000E+00
    0.00000E+00         0.00000E+00        -0.62958E+08
 
   -0.55819E+08        -0.86613E+06         0.00000E+00
   -0.86613E+06        -0.59790E+08         0.00000E+00
    0.00000E+00         0.00000E+00        -0.63169E+08
 
   -0.56862E+08        -0.75433E+06         0.00000E+00
   -0.75433E+06        -0.59741E+08         0.00000E+00
    0.00000E+00         0.00000E+00        -0.63372E+08
 
   -0.57859E+08        -0.54960E+06         0.00000E+00
   -0.54960E+06        -0.59690E+08         0.00000E+00
    0.00000E+00         0.00000E+00        -0.63567E+08
 
   -0.58810E+08        -0.25778E+06         0.00000E+00
   -0.25778E+06        -0.59629E+08         0.00000E+00
    0.00000E+00         0.00000E+00        -0.63751E+08
 
   -0.59723E+08         0.11779E+06         0.00000E+00
    0.11779E+06        -0.59550E+08         0.00000E+00
    0.00000E+00         0.00000E+00        -0.63923E+08
 
   -0.60603E+08         0.57619E+06         0.00000E+00
    0.57619E+06        -0.59443E+08         0.00000E+00
    0.00000E+00         0.00000E+00        -0.64083E+08
 
   -0.61452E+08         0.11185E+07         0.00000E+00
    0.11185E+07        -0.59302E+08         0.00000E+00
    0.00000E+00         0.00000E+00        -0.64230E+08
 
   -0.62268E+08         0.17469E+07         0.00000E+00
    0.17469E+07        -0.59127E+08         0.00000E+00
    0.00000E+00         0.00000E+00        -0.64363E+08
 
   -0.63043E+08         0.24640E+07         0.00000E+00
    0.24640E+07        -0.58918E+08         0.00000E+00
    0.00000E+00         0.00000E+00        -0.64479E+08
 
   -0.63761E+08         0.32699E+07         0.00000E+00
    0.32699E+07        -0.58685E+08         0.00000E+00
    0.00000E+00         0.00000E+00        -0.64579E+08
 
   -0.64399E+08         0.41608E+07         0.00000E+00
    0.41608E+07        -0.58442E+08         0.00000E+00
    0.00000E+00         0.00000E+00        -0.64659E+08
 
   -0.51761E+08        -0.19499E+06         0.00000E+00
   -0.19499E+06        -0.59991E+08         0.00000E+00
    0.00000E+00         0.00000E+00        -0.61640E+08
 
   -0.52753E+08        -0.51097E+06         0.00000E+00
   -0.51097E+06        -0.59958E+08         0.00000E+00
    0.00000E+00         0.00000E+00        -0.61832E+08
 
   -0.53769E+08        -0.72079E+06         0.00000E+00
   -0.72079E+06        -0.59909E+08         0.00000E+00
    0.00000E+00         0.00000E+00        -0.62025E+08
 
   -0.54777E+08        -0.82153E+06         0.00000E+00
   -0.82153E+06        -0.59855E+08         0.00000E+00
    0.00000E+00         0.00000E+00        -0.62216E+08
 
   -0.55759E+08        -0.81467E+06         0.00000E+00
   -0.81467E+06        -0.59804E+08         0.00000E+00
    0.00000E+00         0.00000E+00        -0.62402E+08
 
   -0.56702E+08        -0.70405E+06         0.00000E+00
   -0.70405E+06        -0.59754E+08         0.00000E+00
    0.00000E+00         0.00000E+00        -0.62580E+08
 
   -0.57605E+08        -0.49416E+06         0.00000E+00
   -0.49416E+06        -0.59703E+08         0.00000E+00
    0.00000E+00         0.00000E+00        -0.62751E+08
 
   -0.58468E+08        -0.18912E+06         0.00000E+00
   -0.18912E+06        -0.59643E+08         0.00000E+00
    0.00000E+00         0.00000E+00        -0.62912E+08
 
   -0.59294E+08         0.20779E+06         0.00000E+00
    0.20779E+06        -0.59567E+08         0.00000E+00
    0.00000E+00         0.00000E+00        -0.63062E+08
 
   -0.60087E+08         0.69426E+06         0.00000E+00
    0.69426E+06        -0.59469E+08         0.00000E+00
    0.00000E+00         0.00000E+00        -0.63202E+08
 
   -0.60850E+08         0.12686E+07         0.00000E+00
    0.12686E+07        -0.59342E+08         0.00000E+00
    0.00000E+00         0.00000E+00        -0.63330E+08
 
   -0.61580E+08         0.19291E+07         0.00000E+00
    0.19291E+07        -0.59186E+08         0.00000E+00
    0.00000E+00         0.00000E+00        -0.63445E+08
 
   -0.62270E+08         0.26733E+07         0.00000E+00
    0.26733E+07        -0.59002E+08         0.00000E+00
    0.00000E+00         0.00000E+00        -0.63546E+08
 
   -0.62907E+08         0.34962E+07         0.00000E+00
    0.34962E+07        -0.58798E+08         0.00000E+00
    0.00000E+00         0.00000E+00        -0.63633E+08
 
   -0.63472E+08         0.43892E+07         0.00000E+00
    0.43892E+07        -0.58584E+08         0.00000E+00
    0.00000E+00         0.00000E+00        -0.63703E+08
 
   -0.52111E+08        -0.17677E+06         0.00000E+00
   -0.17677E+06        -0.59993E+08         0.00000E+00
    0.00000E+00         0.00000E+00        -0.60957E+08
 
   -0.53010E+08        -0.47053E+06         0.00000E+00
   -0.47053E+06        -0.59967E+08         0.00000E+00
    0.00000E+00         0.00000E+00        -0.61130E+08
 
   -0.53922E+08        -0.67232E+06         0.00000E+00
   -0.67232E+06        -0.59928E+08         0.00000E+00
    0.00000E+00         0.00000E+00        -0.61303E+08
 
   -0.54825E+08        -0.77319E+06         0.00000E+00
   -0.77319E+06        -0.59886E+08         0.00000E+00
    0.00000E+00         0.00000E+00        -0.61472E+08
 
   -0.55700E+08        -0.76900E+06         0.00000E+00
   -0.76900E+06        -0.59846E+08         0.00000E+00
    0.00000E+00         0.00000E+00        -0.61635E+08
 
   -0.56541E+08        -0.65900E+06         0.00000E+00
   -0.65900E+06        -0.59807E+08         0.00000E+00
    0.00000E+00         0.00000E+00        -0.61791E+08
 
   -0.57343E+08        -0.44454E+06         0.00000E+00
   -0.44454E+06        -0.59767E+08         0.00000E+00
    0.00000E+00         0.00000E+00        -0.61938E+08
 
   -0.58109E+08        -0.12811E+06         0.00000E+00
   -0.12811E+06        -0.59719E+08         0.00000E+00
    0.00000E+00         0.00000E+00        -0.62077E+08
 
   -0.58841E+08         0.28720E+06         0.00000E+00
    0.28720E+06        -0.59657E+08         0.00000E+00
    0.00000E+00         0.00000E+00        -0.62206E+08
 
   -0.59544E+08         0.79789E+06         0.00000E+00
    0.79789E+06        -0.59575E+08         0.00000E+00
    0.00000E+00         0.00000E+00        -0.62326E+08
 
   -0.60218E+08         0.13999E+07         0.00000E+00
    0.13999E+07        -0.59468E+08         0.00000E+00
    0.00000E+00         0.00000E+00        -0.62435E+08
 
   -0.60864E+08         0.20884E+07         0.00000E+00
    0.20884E+07        -0.59334E+08         0.00000E+00
    0.00000E+00         0.00000E+00        -0.62534E+08
 
   -0.61475E+08         0.28566E+07         0.00000E+00
    0.28566E+07        -0.59175E+08         0.00000E+00
    0.00000E+00         0.00000E+00        -0.62621E+08
 
   -0.62042E+08         0.36956E+07         0.00000E+00
    0.36956E+07        -0.58995E+08         0.00000E+00
    0.00000E+00         0.00000E+00        -0.62697E+08
 
   -0.62550E+08         0.45932E+07         0.00000E+00
    0.45932E+07        -0.58804E+08         0.00000E+00
    0.00000E+00         0.00000E+00        -0.62760E+08
 
   -0.52434E+08        -0.16310E+06         0.00000E+00
   -0.16310E+06        -0.59995E+08         0.00000E+00
    0.00000E+00         0.00000E+00        -0.60262E+08
 
   -0.53254E+08        -0.44105E+06         0.00000E+00
   -0.44105E+06        -0.59978E+08         0.00000E+00
    0.00000E+00         0.00000E+00        -0.60420E+08
 
   -0.54074E+08        -0.63825E+06         0.00000E+00
   -0.63825E+06        -0.59954E+08         0.00000E+00
    0.00000E+00         0.00000E+00        -0.60575E+08
 
   -0.54875E+08        -0.74063E+06         0.00000E+00
   -0.74063E+06        -0.59931E+08         0.00000E+00
    0.00000E+00         0.00000E+00        -0.60725E+08
 
   -0.55644E+08        -0.73946E+06         0.00000E+00
   -0.73946E+06        -0.59911E+08         0.00000E+00
    0.00000E+00         0.00000E+00        -0.60867E+08
 
   -0.56378E+08        -0.63021E+06         0.00000E+00
   -0.63021E+06        -0.59893E+08         0.00000E+00
    0.00000E+00         0.00000E+00        -0.61001E+08
 
   -0.57074E+08        -0.41161E+06         0.00000E+00
   -0.41161E+06        -0.59874E+08         0.00000E+00
    0.00000E+00         0.00000E+00        -0.61126E+08
 
   -0.57736E+08        -0.84743E+05         0.00000E+00
   -0.84743E+05        -0.59848E+08         0.00000E+00
    0.00000E+00         0.00000E+00        -0.61243E+08
 
   -0.58368E+08         0.34746E+06         0.00000E+00
    0.34746E+06        -0.59809E+08         0.00000E+00
    0.00000E+00         0.00000E+00        -0.61350E+08
 
   -0.58974E+08         0.88051E+06         0.00000E+00
    0.88051E+06        -0.59750E+08         0.00000E+00
    0.00000E+00         0.00000E+00        -0.61450E+08
 
   -0.59559E+08         0.15084E+07         0.00000E+00
    0.15084E+07        -0.59667E+08         0.00000E+00
    0.00000E+00         0.00000E+00        -0.61541E+08
 
   -0.60122E+08         0.22234E+07         0.00000E+00
    0.22234E+07        -0.59558E+08         0.00000E+00
    0.00000E+00         0.00000E+00        -0.61624E+08
 
   -0.60660E+08         0.30156E+07         0.00000E+00
    0.30156E+07        -0.59423E+08         0.00000E+00
    0.00000E+00         0.00000E+00        -0.61699E+08
 
   -0.61165E+08         0.38726E+07         0.00000E+00
    0.38726E+07        -0.59266E+08         0.00000E+00
    0.00000E+00         0.00000E+00        -0.61765E+08
 
   -0.61627E+08         0.47791E+07         0.00000E+00
    0.47791E+07        -0.59093E+08         0.00000E+00
    0.00000E+00         0.00000E+00        -0.61821E+08
 
   -0.52738E+08        -0.15503E+06         0.00000E+00
   -0.15503E+06        -0.59998E+08         0.00000E+00
    0.00000E+00         0.00000E+00        -0.59557E+08
 
   -0.53492E+08        -0.42581E+06         0.00000E+00
   -0.42581E+06        -0.59992E+08         0.00000E+00
    0.00000E+00         0.00000E+00        -0.59703E+08
 
   -0.54227E+08        -0.62400E+06         0.00000E+00
   -0.62400E+06        -0.59987E+08         0.00000E+00
    0.00000E+00         0.00000E+00        -0.59842E+08
 
   -0.54929E+08        -0.73116E+06         0.00000E+00
   -0.73116E+06        -0.59988E+08         0.00000E+00
    0.00000E+00         0.00000E+00        -0.59973E+08
 
   -0.55591E+08        -0.73468E+06         0.00000E+00
   -0.73468E+06        -0.59995E+08         0.00000E+00
    0.00000E+00         0.00000E+00        -0.60095E+08
 
   -0.56213E+08        -0.62697E+06         0.00000E+00
   -0.62697E+06        -0.60007E+08         0.00000E+00
    0.00000E+00         0.00000E+00        -0.60207E+08
 
   -0.56797E+08        -0.40462E+06         0.00000E+00
   -0.40462E+06        -0.60018E+08         0.00000E+00
    0.00000E+00         0.00000E+00        -0.60310E+08
 
   -0.57349E+08        -0.67614E+05         0.00000E+00
   -0.67614E+05        -0.60022E+08         0.00000E+00
    0.00000E+00         0.00000E+00        -0.60404E+08
 
   -0.57875E+08         0.38122E+06         0.00000E+00
    0.38122E+06        -0.60012E+08         0.00000E+00
    0.00000E+00         0.00000E+00        -0.60491E+08
 
   -0.58381E+08         0.93651E+06         0.00000E+00
    0.93651E+06        -0.59983E+08         0.00000E+00
    0.00000E+00         0.00000E+00        -0.60570E+08
 
   -0.58873E+08         0.15905E+07         0.00000E+00
    0.15905E+07        -0.59929E+08         0.00000E+00
    0.00000E+00         0.00000E+00        -0.60643E+08
 
   -0.59353E+08         0.23331E+07         0.00000E+00
    0.23331E+07        -0.59846E+08         0.00000E+00
    0.00000E+00         0.00000E+00        -0.60711E+08
 
   -0.59821E+08         0.31516E+07         0.00000E+00
    0.31516E+07        -0.59736E+08         0.00000E+00
    0.00000E+00         0.00000E+00        -0.60773E+08
 
   -0.60272E+08         0.40304E+07         0.00000E+00
    0.40304E+07        -0.59598E+08         0.00000E+00
    0.00000E+00         0.00000E+00        -0.60829E+08
 
   -0.60698E+08         0.49517E+07         0.00000E+00
    0.49517E+07        -0.59440E+08         0.00000E+00
    0.00000E+00         0.00000E+00        -0.60879E+08
 
   -0.53036E+08        -0.15353E+06         0.00000E+00
   -0.15353E+06        -0.60001E+08         0.00000E+00
    0.00000E+00         0.00000E+00        -0.58841E+08
 
   -0.53733E+08        -0.42768E+06         0.00000E+00
   -0.42768E+06        -0.60008E+08         0.00000E+00
    0.00000E+00         0.00000E+00        -0.58978E+08
 
   -0.54386E+08        -0.63423E+06         0.00000E+00
   -0.63423E+06        -0.60025E+08         0.00000E+00
    0.00000E+00         0.00000E+00        -0.59102E+08
 
   -0.54990E+08        -0.75089E+06         0.00000E+00
   -0.75089E+06        -0.60055E+08         0.00000E+00
    0.00000E+00         0.00000E+00        -0.59215E+08
 
   -0.55542E+08        -0.76184E+06         0.00000E+00
   -0.76184E+06        -0.60096E+08         0.00000E+00
    0.00000E+00         0.00000E+00        -0.59316E+08
 
   -0.56048E+08        -0.65699E+06         0.00000E+00
   -0.65699E+06        -0.60144E+08         0.00000E+00
    0.00000E+00         0.00000E+00        -0.59406E+08
 
   -0.56514E+08        -0.43127E+06         0.00000E+00
   -0.43127E+06        -0.60191E+08         0.00000E+00
    0.00000E+00         0.00000E+00        -0.59486E+08
 
   -0.56949E+08        -0.83860E+05         0.00000E+00
   -0.83860E+05        -0.60232E+08         0.00000E+00
    0.00000E+00         0.00000E+00        -0.59557E+08
 
   -0.57361E+08         0.38234E+06         0.00000E+00
    0.38234E+06        -0.60259E+08         0.00000E+00
    0.00000E+00         0.00000E+00        -0.59622E+08
 
   -0.57762E+08         0.96116E+06         0.00000E+00
    0.96116E+06        -0.60264E+08         0.00000E+00
    0.00000E+00         0.00000E+00        -0.59680E+08
 
   -0.58158E+08         0.16433E+07         0.00000E+00
    0.16433E+07        -0.60241E+08         0.00000E+00
    0.00000E+00         0.00000E+00        -0.59735E+08
 
   -0.58555E+08         0.24165E+07         0.00000E+00
    0.24165E+07        -0.60188E+08         0.00000E+00
    0.00000E+00         0.00000E+00        -0.59786E+08
 
   -0.58956E+08         0.32655E+07         0.00000E+00
    0.32655E+07        -0.60101E+08         0.00000E+00
    0.00000E+00         0.00000E+00        -0.59836E+08
 
   -0.59357E+08         0.41721E+07         0.00000E+00
    0.41721E+07        -0.59982E+08         0.00000E+00
    0.00000E+00         0.00000E+00        -0.59883E+08
 
   -0.59754E+08         0.51152E+07         0.00000E+00
    0.51152E+07        -0.59835E+08         0.00000E+00
    0.00000E+00         0.00000E+00        -0.59928E+08
 
   -0.53340E+08        -0.15948E+06         0.00000E+00
   -0.15948E+06        -0.60005E+08         0.00000E+00
    0.00000E+00         0.00000E+00        -0.58117E+08
 
   -0.53984E+08        -0.44916E+06         0.00000E+00
   -0.44916E+06        -0.60026E+08         0.00000E+00
    0.00000E+00         0.00000E+00        -0.58244E+08
 
   -0.54558E+08        -0.67285E+06         0.00000E+00
   -0.67285E+06        -0.60069E+08         0.00000E+00
    0.00000E+00         0.00000E+00        -0.58354E+08
 
   -0.55062E+08        -0.80488E+06         0.00000E+00
   -0.80488E+06        -0.60132E+08         0.00000E+00
    0.00000E+00         0.00000E+00        -0.58449E+08
 
   -0.55500E+08        -0.82674E+06         0.00000E+00
   -0.82674E+06        -0.60212E+08         0.00000E+00
    0.00000E+00         0.00000E+00        -0.58529E+08
 
   -0.55884E+08        -0.72641E+06         0.00000E+00
   -0.72641E+06        -0.60300E+08         0.00000E+00
    0.00000E+00         0.00000E+00        -0.58595E+08
 
   -0.56224E+08        -0.49764E+06         0.00000E+00
   -0.49764E+06        -0.60390E+08         0.00000E+00
    0.00000E+00         0.00000E+00        -0.58650E+08
 
   -0.56534E+08        -0.13914E+06         0.00000E+00
   -0.13914E+06        -0.60472E+08         0.00000E+00
    0.00000E+00         0.00000E+00        -0.58697E+08
 
   -0.56827E+08         0.34598E+06         0.00000E+00
    0.34598E+06        -0.60539E+08         0.00000E+00
    0.00000E+00         0.00000E+00        -0.58737E+08
 
   -0.57116E+08         0.95070E+06         0.00000E+00
    0.95070E+06        -0.60582E+08         0.00000E+00
    0.00000E+00         0.00000E+00        -0.58773E+08
 
   -0.57412E+08         0.16644E+07         0.00000E+00
    0.16644E+07        -0.60595E+08         0.00000E+00
    0.00000E+00         0.00000E+00        -0.58808E+08
 
   -0.57724E+08         0.24727E+07         0.00000E+00
    0.24727E+07        -0.60571E+08         0.00000E+00
    0.00000E+00         0.00000E+00        -0.58843E+08
 
   -0.58058E+08         0.33582E+07         0.00000E+00
    0.33582E+07        -0.60509E+08         0.00000E+00
    0.00000E+00         0.00000E+00        -0.58879E+08
 
   -0.58413E+08         0.42997E+07         0.00000E+00
    0.42997E+07        -0.60407E+08         0.00000E+00
    0.00000E+00         0.00000E+00        -0.58917E+08
 
   -0.58788E+08         0.52734E+07         0.00000E+00
    0.52734E+07        -0.60268E+08         0.00000E+00
    0.00000E+00         0.00000E+00        -0.58958E+08
 
   -0.53664E+08        -0.17366E+06         0.00000E+00
   -0.17366E+06        -0.60008E+08         0.00000E+00
    0.00000E+00         0.00000E+00        -0.57384E+08
 
   -0.54259E+08        -0.49240E+06         0.00000E+00
   -0.49240E+06        -0.60045E+08         0.00000E+00
    0.00000E+00         0.00000E+00        -0.57501E+08
 
   -0.54751E+08        -0.74310E+06         0.00000E+00
   -0.74310E+06        -0.60116E+08         0.00000E+00
    0.00000E+00         0.00000E+00        -0.57597E+08
 
   -0.55150E+08        -0.89714E+06         0.00000E+00
   -0.89714E+06        -0.60216E+08         0.00000E+00
    0.00000E+00         0.00000E+00        -0.57672E+08
 
   -0.55468E+08        -0.93387E+06         0.00000E+00
   -0.93387E+06        -0.60338E+08         0.00000E+00
    0.00000E+00         0.00000E+00        -0.57728E+08
 
   -0.55721E+08        -0.83988E+06         0.00000E+00
   -0.83988E+06        -0.60471E+08         0.00000E+00
    0.00000E+00         0.00000E+00        -0.57769E+08
 
   -0.55926E+08        -0.60822E+06         0.00000E+00
   -0.60822E+06        -0.60607E+08         0.00000E+00
    0.00000E+00         0.00000E+00        -0.57797E+08
 
   -0.56103E+08        -0.23754E+06         0.00000E+00
   -0.23754E+06        -0.60734E+08         0.00000E+00
    0.00000E+00         0.00000E+00        -0.57816E+08
 
   -0.56268E+08         0.26863E+06         0.00000E+00
    0.26863E+06        -0.60845E+08         0.00000E+00
    0.00000E+00         0.00000E+00        -0.57830E+08
 
   -0.56439E+08         0.90241E+06         0.00000E+00
    0.90241E+06        -0.60928E+08         0.00000E+00
    0.00000E+00         0.00000E+00        -0.57842E+08
 
   -0.56630E+08         0.16518E+07         0.00000E+00
    0.16518E+07        -0.60977E+08         0.00000E+00
    0.00000E+00         0.00000E+00        -0.57855E+08
 
   -0.56854E+08         0.25010E+07         0.00000E+00
    0.25010E+07        -0.60985E+08         0.00000E+00
    0.00000E+00         0.00000E+00        -0.57871E+08
 
   -0.57119E+08         0.34301E+07         0.00000E+00
    0.34301E+07        -0.60947E+08         0.00000E+00
    0.00000E+00         0.00000E+00        -0.57893E+08
 
   -0.57431E+08         0.44154E+07         0.00000E+00
    0.44154E+07        -0.60861E+08         0.00000E+00
    0.00000E+00         0.00000E+00        -0.57922E+08
 
   -0.57789E+08         0.54296E+07         0.00000E+00
    0.54296E+07        -0.60728E+08         0.00000E+00
    0.00000E+00         0.00000E+00        -0.57959E+08
 
   -0.54026E+08        -0.19673E+06         0.00000E+00
   -0.19673E+06        -0.60012E+08         0.00000E+00
    0.00000E+00         0.00000E+00        -0.56641E+08
 
   -0.54568E+08        -0.55914E+06         0.00000E+00
   -0.55914E+06        -0.60066E+08         0.00000E+00
    0.00000E+00         0.00000E+00        -0.56749E+08
 
   -0.54973E+08        -0.84749E+06         0.00000E+00
   -0.84749E+06        -0.60167E+08         0.00000E+00
    0.00000E+00         0.00000E+00        -0.56827E+08
 
   -0.55259E+08        -0.10306E+07         0.00000E+00
   -0.10306E+07        -0.60306E+08         0.00000E+00
    0.00000E+00         0.00000E+00        -0.56880E+08
 
   -0.55447E+08        -0.10863E+07         0.00000E+00
   -0.10863E+07        -0.60472E+08         0.00000E+00
    0.00000E+00         0.00000E+00        -0.56910E+08
 
   -0.55560E+08        -0.10004E+07         0.00000E+00
   -0.10004E+07        -0.60652E+08         0.00000E+00
    0.00000E+00         0.00000E+00        -0.56922E+08
 
   -0.55621E+08        -0.76572E+06         0.00000E+00
   -0.76572E+06        -0.60835E+08         0.00000E+00
    0.00000E+00         0.00000E+00        -0.56919E+08
 
   -0.55654E+08        -0.38144E+06         0.00000E+00
   -0.38144E+06        -0.61010E+08         0.00000E+00
    0.00000E+00         0.00000E+00        -0.56908E+08
 
   -0.55683E+08         0.14830E+06         0.00000E+00
    0.14830E+06        -0.61165E+08         0.00000E+00
    0.00000E+00         0.00000E+00        -0.56892E+08
 
   -0.55727E+08         0.81471E+06         0.00000E+00
    0.81471E+06        -0.61290E+08         0.00000E+00
    0.00000E+00         0.00000E+00        -0.56877E+08
 
   -0.55806E+08         0.16048E+07         0.00000E+00
    0.16048E+07        -0.61376E+08         0.00000E+00
    0.00000E+00         0.00000E+00        -0.56865E+08
 
   -0.55937E+08         0.25011E+07         0.00000E+00
    0.25011E+07        -0.61416E+08         0.00000E+00
    0.00000E+00         0.00000E+00        -0.56861E+08
 
   -0.56133E+08         0.34819E+07         0.00000E+00
    0.34819E+07        -0.61402E+08         0.00000E+00
    0.00000E+00         0.00000E+00        -0.56867E+08
 
   -0.56402E+08         0.45207E+07         0.00000E+00
    0.45207E+07        -0.61331E+08         0.00000E+00
    0.00000E+00         0.00000E+00        -0.56887E+08
 
   -0.56747E+08         0.55870E+07         0.00000E+00
    0.55870E+07        -0.61201E+08         0.00000E+00
    0.00000E+00         0.00000E+00        -0.56919E+08
 
   -0.54442E+08        -0.22922E+06         0.00000E+00
   -0.22922E+06        -0.60017E+08         0.00000E+00
    0.00000E+00         0.00000E+00        -0.55888E+08
 
   -0.54924E+08        -0.65074E+06         0.00000E+00
   -0.65074E+06        -0.60088E+08         0.00000E+00
    0.00000E+00         0.00000E+00        -0.55984E+08
 
   -0.55233E+08        -0.98779E+06         0.00000E+00
   -0.98779E+06        -0.60220E+08         0.00000E+00
    0.00000E+00         0.00000E+00        -0.56043E+08
 
   -0.55395E+08        -0.12071E+07         0.00000E+00
   -0.12071E+07        -0.60399E+08         0.00000E+00
    0.00000E+00         0.00000E+00        -0.56070E+08
 
   -0.55441E+08        -0.12856E+07         0.00000E+00
   -0.12856E+07        -0.60610E+08         0.00000E+00
    0.00000E+00         0.00000E+00        -0.56069E+08
 
   -0.55401E+08        -0.12089E+07         0.00000E+00
   -0.12089E+07        -0.60838E+08         0.00000E+00
    0.00000E+00         0.00000E+00        -0.56047E+08
 
   -0.55306E+08        -0.97077E+06         0.00000E+00
   -0.97077E+06        -0.61069E+08         0.00000E+00
    0.00000E+00         0.00000E+00        -0.56010E+08
 
   -0.55186E+08        -0.57113E+06         0.00000E+00
   -0.57113E+06        -0.61289E+08         0.00000E+00
    0.00000E+00         0.00000E+00        -0.55964E+08
 
   -0.55068E+08        -0.15174E+05         0.00000E+00
   -0.15174E+05        -0.61488E+08         0.00000E+00
    0.00000E+00         0.00000E+00        -0.55914E+08
 
   -0.54977E+08         0.68746E+06         0.00000E+00
    0.68746E+06        -0.61654E+08         0.00000E+00
    0.00000E+00         0.00000E+00        -0.55867E+08
 
   -0.54936E+08         0.15229E+07         0.00000E+00
    0.15229E+07        -0.61777E+08         0.00000E+00
    0.00000E+00         0.00000E+00        -0.55827E+08
 
   -0.54967E+08         0.24727E+07         0.00000E+00
    0.24727E+07        -0.61848E+08         0.00000E+00
    0.00000E+00         0.00000E+00        -0.55800E+08
 
   -0.55088E+08         0.35137E+07         0.00000E+00
    0.35137E+07        -0.61858E+08         0.00000E+00
    0.00000E+00         0.00000E+00        -0.55789E+08
 
   -0.55313E+08         0.46171E+07         0.00000E+00
    0.46171E+07        -0.61801E+08         0.00000E+00
    0.00000E+00         0.00000E+00        -0.55797E+08
 
   -0.55649E+08         0.57484E+07         0.00000E+00
    0.57484E+07        -0.61673E+08         0.00000E+00
    0.00000E+00         0.00000E+00        -0.55826E+08
 
   -0.54930E+08        -0.27156E+06         0.00000E+00
   -0.27156E+06        -0.60021E+08         0.00000E+00
    0.00000E+00         0.00000E+00        -0.55123E+08
 
   -0.55342E+08        -0.76814E+06         0.00000E+00
   -0.76814E+06        -0.60111E+08         0.00000E+00
    0.00000E+00         0.00000E+00        -0.55204E+08
 
   -0.55541E+08        -0.11649E+07         0.00000E+00
   -0.11649E+07        -0.60275E+08         0.00000E+00
    0.00000E+00         0.00000E+00        -0.55240E+08
 
   -0.55564E+08        -0.14271E+07         0.00000E+00
   -0.14271E+07        -0.60494E+08         0.00000E+00
    0.00000E+00         0.00000E+00        -0.55235E+08
 
   -0.55452E+08        -0.15312E+07         0.00000E+00
   -0.15312E+07        -0.60749E+08         0.00000E+00
    0.00000E+00         0.00000E+00        -0.55199E+08
 
   -0.55245E+08        -0.14643E+07         0.00000E+00
   -0.14643E+07        -0.61022E+08         0.00000E+00
    0.00000E+00         0.00000E+00        -0.55137E+08
 
   -0.54982E+08        -0.12214E+07         0.00000E+00
   -0.12214E+07        -0.61297E+08         0.00000E+00
    0.00000E+00         0.00000E+00        -0.55059E+08
 
   -0.54696E+08        -0.80439E+06         0.00000E+00
   -0.80439E+06        -0.61560E+08         0.00000E+00
    0.00000E+00         0.00000E+00        -0.54972E+08
 
   -0.54420E+08        -0.21969E+06         0.00000E+00
   -0.21969E+06        -0.61799E+08         0.00000E+00
    0.00000E+00         0.00000E+00        -0.54884E+08
 
   -0.54183E+08         0.52221E+06         0.00000E+00
    0.52221E+06        -0.62003E+08         0.00000E+00
    0.00000E+00         0.00000E+00        -0.54800E+08
 
   -0.54014E+08         0.14071E+07         0.00000E+00
    0.14071E+07        -0.62160E+08         0.00000E+00
    0.00000E+00         0.00000E+00        -0.54729E+08
 
   -0.53937E+08         0.24163E+07         0.00000E+00
    0.24163E+07        -0.62262E+08         0.00000E+00
    0.00000E+00         0.00000E+00        -0.54675E+08
 
   -0.53976E+08         0.35259E+07         0.00000E+00
    0.35259E+07        -0.62296E+08         0.00000E+00
    0.00000E+00         0.00000E+00        -0.54643E+08
 
   -0.54152E+08         0.47051E+07         0.00000E+00
    0.47051E+07        -0.62254E+08         0.00000E+00
    0.00000E+00         0.00000E+00        -0.54638E+08
 
   -0.54479E+08         0.59159E+07         0.00000E+00
    0.59159E+07        -0.62126E+08         0.00000E+00
    0.00000E+00         0.00000E+00        -0.54662E+08
 
   -0.55510E+08        -0.32406E+06         0.00000E+00
   -0.32406E+06        -0.60026E+08         0.00000E+00
    0.00000E+00         0.00000E+00        -0.54344E+08
 
   -0.55834E+08        -0.91186E+06         0.00000E+00
   -0.91186E+06        -0.60134E+08         0.00000E+00
    0.00000E+00         0.00000E+00        -0.54406E+08
 
   -0.55903E+08        -0.13789E+07         0.00000E+00
   -0.13789E+07        -0.60329E+08         0.00000E+00
    0.00000E+00         0.00000E+00        -0.54411E+08
 
   -0.55768E+08        -0.16893E+07         0.00000E+00
   -0.16893E+07        -0.60587E+08         0.00000E+00
    0.00000E+00         0.00000E+00        -0.54370E+08
 
   -0.55481E+08        -0.18207E+07         0.00000E+00
   -0.18207E+07        -0.60884E+08         0.00000E+00
    0.00000E+00         0.00000E+00        -0.54290E+08
 
   -0.55091E+08        -0.17623E+07         0.00000E+00
   -0.17623E+07        -0.61198E+08         0.00000E+00
    0.00000E+00         0.00000E+00        -0.54182E+08
 
   -0.54644E+08        -0.15125E+07         0.00000E+00
   -0.15125E+07        -0.61511E+08         0.00000E+00
    0.00000E+00         0.00000E+00        -0.54056E+08
 
   -0.54181E+08        -0.10757E+07         0.00000E+00
   -0.10757E+07        -0.61809E+08         0.00000E+00
    0.00000E+00         0.00000E+00        -0.53921E+08
 
   -0.53737E+08        -0.46029E+06         0.00000E+00
   -0.46029E+06        -0.62080E+08         0.00000E+00
    0.00000E+00         0.00000E+00        -0.53787E+08
 
   -0.53345E+08         0.32274E+06         0.00000E+00
    0.32274E+06        -0.62316E+08         0.00000E+00
    0.00000E+00         0.00000E+00        -0.53662E+08
 
   -0.53035E+08         0.12595E+07         0.00000E+00
    0.12595E+07        -0.62504E+08         0.00000E+00
    0.00000E+00         0.00000E+00        -0.53554E+08
 
   -0.52839E+08         0.23324E+07         0.00000E+00
    0.23324E+07        -0.62635E+08         0.00000E+00
    0.00000E+00         0.00000E+00        -0.53468E+08
 
   -0.52786E+08         0.35178E+07         0.00000E+00
    0.35178E+07        -0.62693E+08         0.00000E+00
    0.00000E+00         0.00000E+00        -0.53413E+08
 
   -0.52906E+08         0.47844E+07         0.00000E+00
    0.47844E+07        -0.62666E+08         0.00000E+00
    0.00000E+00         0.00000E+00        -0.53392E+08
 
   -0.53220E+08         0.60908E+07         0.00000E+00
    0.60908E+07        -0.62539E+08         0.00000E+00
    0.00000E+00         0.00000E+00        -0.53410E+08
 
   -0.56200E+08        -0.38697E+06         0.00000E+00
   -0.38697E+06        -0.60031E+08         0.00000E+00
    0.00000E+00         0.00000E+00        -0.53546E+08
 
   -0.56414E+08        -0.10821E+07         0.00000E+00
   -0.10821E+07        -0.60158E+08         0.00000E+00
    0.00000E+00         0.00000E+00        -0.53583E+08
 
   -0.56328E+08        -0.16289E+07         0.00000E+00
   -0.16289E+07        -0.60384E+08         0.00000E+00
    0.00000E+00         0.00000E+00        -0.53551E+08
 
   -0.56010E+08        -0.19908E+07         0.00000E+00
   -0.19908E+07        -0.60678E+08         0.00000E+00
    0.00000E+00         0.00000E+00        -0.53464E+08
 
   -0.55525E+08        -0.21482E+07         0.00000E+00
   -0.21482E+07        -0.61010E+08         0.00000E+00
    0.00000E+00         0.00000E+00        -0.53332E+08
 
   -0.54935E+08        -0.20950E+07         0.00000E+00
   -0.20950E+07        -0.61355E+08         0.00000E+00
    0.00000E+00         0.00000E+00        -0.53168E+08
 
   -0.54292E+08        -0.18346E+07         0.00000E+00
   -0.18346E+07        -0.61695E+08         0.00000E+00
    0.00000E+00         0.00000E+00        -0.52986E+08
 
   -0.53640E+08        -0.13755E+07         0.00000E+00
   -0.13755E+07        -0.62016E+08         0.00000E+00
    0.00000E+00         0.00000E+00        -0.52796E+08
 
   -0.53018E+08        -0.72832E+06         0.00000E+00
   -0.72832E+06        -0.62309E+08         0.00000E+00
    0.00000E+00         0.00000E+00        -0.52609E+08
 
   -0.52460E+08         0.95565E+05         0.00000E+00
    0.95565E+05        -0.62567E+08         0.00000E+00
    0.00000E+00         0.00000E+00        -0.52435E+08
 
   -0.51999E+08         0.10840E+07         0.00000E+00
    0.10840E+07        -0.62780E+08         0.00000E+00
    0.00000E+00         0.00000E+00        -0.52283E+08
 
   -0.51670E+08         0.22218E+07         0.00000E+00
    0.22218E+07        -0.62936E+08         0.00000E+00
    0.00000E+00         0.00000E+00        -0.52162E+08
 
   -0.51511E+08         0.34883E+07         0.00000E+00
    0.34883E+07        -0.63019E+08         0.00000E+00
    0.00000E+00         0.00000E+00        -0.52078E+08
 
   -0.51561E+08         0.48529E+07         0.00000E+00
    0.48529E+07        -0.63009E+08         0.00000E+00
    0.00000E+00         0.00000E+00        -0.52038E+08
 
   -0.51854E+08         0.62722E+07         0.00000E+00
    0.62722E+07        -0.62887E+08         0.00000E+00
    0.00000E+00         0.00000E+00        -0.52048E+08
 
   -0.57019E+08        -0.46063E+06         0.00000E+00
   -0.46063E+06        -0.60036E+08         0.00000E+00
    0.00000E+00         0.00000E+00        -0.52723E+08
 
   -0.57093E+08        -0.12788E+07         0.00000E+00
   -0.12788E+07        -0.60182E+08         0.00000E+00
    0.00000E+00         0.00000E+00        -0.52727E+08
 
   -0.56821E+08        -0.19126E+07         0.00000E+00
   -0.19126E+07        -0.60438E+08         0.00000E+00
    0.00000E+00         0.00000E+00        -0.52649E+08
 
   -0.56289E+08        -0.23259E+07         0.00000E+00
   -0.23259E+07        -0.60763E+08         0.00000E+00
    0.00000E+00         0.00000E+00        -0.52505E+08
 
   -0.55582E+08        -0.25043E+07         0.00000E+00
   -0.25043E+07        -0.61121E+08         0.00000E+00
    0.00000E+00         0.00000E+00        -0.52309E+08
 
   -0.54773E+08        -0.24495E+07         0.00000E+00
   -0.24495E+07        -0.61483E+08         0.00000E+00
    0.00000E+00         0.00000E+00        -0.52079E+08
 
   -0.53920E+08        -0.21728E+07         0.00000E+00
   -0.21728E+07        -0.61832E+08         0.00000E+00
    0.00000E+00         0.00000E+00        -0.51831E+08
 
   -0.53072E+08        -0.16886E+07         0.00000E+00
   -0.16886E+07        -0.62158E+08         0.00000E+00
    0.00000E+00         0.00000E+00        -0.51576E+08
 
   -0.52264E+08        -0.10105E+07         0.00000E+00
   -0.10105E+07        -0.62456E+08         0.00000E+00
    0.00000E+00         0.00000E+00        -0.51329E+08
 
   -0.51531E+08        -0.14934E+06         0.00000E+00
   -0.14934E+06        -0.62721E+08         0.00000E+00
    0.00000E+00         0.00000E+00        -0.51099E+08
 
   -0.50906E+08         0.88599E+06         0.00000E+00
    0.88599E+06        -0.62949E+08         0.00000E+00
    0.00000E+00         0.00000E+00        -0.50897E+08
 
   -0.50429E+08         0.20857E+07         0.00000E+00
    0.20857E+07        -0.63128E+08         0.00000E+00
    0.00000E+00         0.00000E+00        -0.50733E+08
 
   -0.50144E+08         0.34347E+07         0.00000E+00
    0.34347E+07        -0.63236E+08         0.00000E+00
    0.00000E+00         0.00000E+00        -0.50615E+08
 
   -0.50103E+08         0.49061E+07         0.00000E+00
    0.49061E+07        -0.63250E+08         0.00000E+00
    0.00000E+00         0.00000E+00        -0.50552E+08
 
   -0.50358E+08         0.64565E+07         0.00000E+00
    0.64565E+07        -0.63137E+08         0.00000E+00
    0.00000E+00         0.00000E+00        -0.50551E+08
 
   -0.57989E+08        -0.54555E+06         0.00000E+00
   -0.54555E+06        -0.60041E+08         0.00000E+00
    0.00000E+00         0.00000E+00        -0.51868E+08
 
   -0.57882E+08        -0.15019E+07         0.00000E+00
   -0.15019E+07        -0.60207E+08         0.00000E+00
    0.00000E+00         0.00000E+00        -0.51830E+08
 
   -0.57381E+08        -0.22266E+07         0.00000E+00
   -0.22266E+07        -0.60490E+08         0.00000E+00
    0.00000E+00         0.00000E+00        -0.51692E+08
 
   -0.56599E+08        -0.26856E+07         0.00000E+00
   -0.26856E+07        -0.60839E+08         0.00000E+00
    0.00000E+00         0.00000E+00        -0.51476E+08
 
   -0.55642E+08        -0.28740E+07         0.00000E+00
   -0.28740E+07        -0.61208E+08         0.00000E+00
    0.00000E+00         0.00000E+00        -0.51203E+08
 
   -0.54596E+08        -0.28061E+07         0.00000E+00
   -0.28061E+07        -0.61567E+08         0.00000E+00
    0.00000E+00         0.00000E+00        -0.50895E+08
 
   -0.53525E+08        -0.25051E+07         0.00000E+00
   -0.25051E+07        -0.61900E+08         0.00000E+00
    0.00000E+00         0.00000E+00        -0.50569E+08
 
   -0.52475E+08        -0.19933E+07         0.00000E+00
   -0.19933E+07        -0.62204E+08         0.00000E+00
    0.00000E+00         0.00000E+00        -0.50240E+08
 
   -0.51479E+08        -0.12878E+07         0.00000E+00
   -0.12878E+07        -0.62482E+08         0.00000E+00
    0.00000E+00         0.00000E+00        -0.49923E+08
 
   -0.50565E+08        -0.39785E+06         0.00000E+00
   -0.39785E+06        -0.62737E+08         0.00000E+00
    0.00000E+00         0.00000E+00        -0.49630E+08
 
   -0.49765E+08         0.67345E+06         0.00000E+00
    0.67345E+06        -0.62967E+08         0.00000E+00
    0.00000E+00         0.00000E+00        -0.49370E+08
 
   -0.49119E+08         0.19251E+07         0.00000E+00
    0.19251E+07        -0.63162E+08         0.00000E+00
    0.00000E+00         0.00000E+00        -0.49156E+08
 
   -0.48682E+08         0.33519E+07         0.00000E+00
    0.33519E+07        -0.63299E+08         0.00000E+00
    0.00000E+00         0.00000E+00        -0.48997E+08
 
   -0.48520E+08         0.49356E+07         0.00000E+00
    0.49356E+07        -0.63344E+08         0.00000E+00
    0.00000E+00         0.00000E+00        -0.48904E+08
 
   -0.48708E+08         0.66358E+07         0.00000E+00
    0.66358E+07        -0.63254E+08         0.00000E+00
    0.00000E+00         0.00000E+00        -0.48888E+08
 
   -0.59128E+08        -0.64283E+06         0.00000E+00
   -0.64283E+06        -0.60048E+08         0.00000E+00
    0.00000E+00         0.00000E+00        -0.50969E+08
 
   -0.58790E+08        -0.17516E+07         0.00000E+00
   -0.17516E+07        -0.60233E+08         0.00000E+00
    0.00000E+00         0.00000E+00        -0.50874E+08
 
   -0.58005E+08        -0.25654E+07         0.00000E+00
   -0.25654E+07        -0.60542E+08         0.00000E+00
    0.00000E+00         0.00000E+00        -0.50660E+08
 
   -0.56927E+08        -0.30559E+07         0.00000E+00
   -0.30559E+07        -0.60902E+08         0.00000E+00
    0.00000E+00         0.00000E+00        -0.50354E+08
 
   -0.55689E+08        -0.32346E+07         0.00000E+00
   -0.32346E+07        -0.61259E+08         0.00000E+00
    0.00000E+00         0.00000E+00        -0.49988E+08
 
   -0.54392E+08        -0.31363E+07         0.00000E+00
   -0.31363E+07        -0.61583E+08         0.00000E+00
    0.00000E+00         0.00000E+00        -0.49586E+08
 
   -0.53100E+08        -0.28005E+07         0.00000E+00
   -0.28005E+07        -0.61865E+08         0.00000E+00
    0.00000E+00         0.00000E+00        -0.49170E+08
 
   -0.51853E+08        -0.22601E+07         0.00000E+00
   -0.22601E+07        -0.62113E+08         0.00000E+00
    0.00000E+00         0.00000E+00        -0.48758E+08
 
   -0.50672E+08        -0.15349E+07         0.00000E+00
   -0.15349E+07        -0.62340E+08         0.00000E+00
    0.00000E+00         0.00000E+00        -0.48363E+08
 
   -0.49577E+08        -0.63110E+06         0.00000E+00
   -0.63110E+06        -0.62558E+08         0.00000E+00
    0.00000E+00         0.00000E+00        -0.47998E+08
 
   -0.48591E+08         0.45670E+06         0.00000E+00
    0.45670E+06        -0.62774E+08         0.00000E+00
    0.00000E+00         0.00000E+00        -0.47673E+08
 
   -0.47755E+08         0.17409E+07         0.00000E+00
    0.17409E+07        -0.62980E+08         0.00000E+00
    0.00000E+00         0.00000E+00        -0.47401E+08
 
   -0.47129E+08         0.32321E+07         0.00000E+00
    0.32321E+07        -0.63151E+08         0.00000E+00
    0.00000E+00         0.00000E+00        -0.47192E+08
 
   -0.46801E+08         0.49273E+07         0.00000E+00
    0.49273E+07        -0.63241E+08         0.00000E+00
    0.00000E+00         0.00000E+00        -0.47062E+08
 
   -0.46877E+08         0.67950E+07         0.00000E+00
    0.67950E+07        -0.63190E+08         0.00000E+00
    0.00000E+00         0.00000E+00        -0.47024E+08
 
   -0.60461E+08        -0.75459E+06         0.00000E+00
   -0.75459E+06        -0.60055E+08         0.00000E+00
    0.00000E+00         0.00000E+00        -0.50010E+08
 
   -0.59819E+08        -0.20286E+07         0.00000E+00
   -0.20286E+07        -0.60264E+08         0.00000E+00
    0.00000E+00         0.00000E+00        -0.49840E+08
 
   -0.58678E+08        -0.29203E+07         0.00000E+00
   -0.29203E+07        -0.60592E+08         0.00000E+00
    0.00000E+00         0.00000E+00        -0.49524E+08
 
   -0.57249E+08        -0.34142E+07         0.00000E+00
   -0.34142E+07        -0.60943E+08         0.00000E+00
    0.00000E+00         0.00000E+00        -0.49106E+08
 
   -0.55700E+08        -0.35522E+07         0.00000E+00
   -0.35522E+07        -0.61253E+08         0.00000E+00
    0.00000E+00         0.00000E+00        -0.48625E+08
 
   -0.54144E+08        -0.33997E+07         0.00000E+00
   -0.33997E+07        -0.61497E+08         0.00000E+00
    0.00000E+00         0.00000E+00        -0.48113E+08
 
   -0.52640E+08        -0.30180E+07         0.00000E+00
   -0.30180E+07        -0.61682E+08         0.00000E+00
    0.00000E+00         0.00000E+00        -0.47596E+08
 
   -0.51210E+08        -0.24508E+07         0.00000E+00
   -0.24508E+07        -0.61829E+08         0.00000E+00
    0.00000E+00         0.00000E+00        -0.47091E+08
 
   -0.49858E+08        -0.17196E+07         0.00000E+00
   -0.17196E+07        -0.61966E+08         0.00000E+00
    0.00000E+00         0.00000E+00        -0.46613E+08
 
   -0.48588E+08        -0.82536E+06         0.00000E+00
   -0.82536E+06        -0.62118E+08         0.00000E+00
    0.00000E+00         0.00000E+00        -0.46170E+08
 
   -0.47410E+08         0.24893E+06         0.00000E+00
    0.24893E+06        -0.62299E+08         0.00000E+00
    0.00000E+00         0.00000E+00        -0.45773E+08
 
   -0.46359E+08         0.15335E+07         0.00000E+00
    0.15335E+07        -0.62508E+08         0.00000E+00
    0.00000E+00         0.00000E+00        -0.45434E+08
 
   -0.45500E+08         0.30628E+07         0.00000E+00
    0.30628E+07        -0.62719E+08         0.00000E+00
    0.00000E+00         0.00000E+00        -0.45166E+08
 
   -0.44943E+08         0.48590E+07         0.00000E+00
    0.48590E+07        -0.62876E+08         0.00000E+00
    0.00000E+00         0.00000E+00        -0.44988E+08
 
   -0.44835E+08         0.69098E+07         0.00000E+00
    0.69098E+07        -0.62895E+08         0.00000E+00
    0.00000E+00         0.00000E+00        -0.44918E+08
 
   -0.62013E+08        -0.88499E+06         0.00000E+00
   -0.88499E+06        -0.60066E+08         0.00000E+00
    0.00000E+00         0.00000E+00        -0.48966E+08
 
   -0.60965E+08        -0.23341E+07         0.00000E+00
   -0.23341E+07        -0.60302E+08         0.00000E+00
    0.00000E+00         0.00000E+00        -0.48693E+08
 
   -0.59369E+08        -0.32748E+07         0.00000E+00
   -0.32748E+07        -0.60638E+08         0.00000E+00
    0.00000E+00         0.00000E+00        -0.48243E+08
 
   -0.57523E+08        -0.37234E+07         0.00000E+00
   -0.37234E+07        -0.60944E+08         0.00000E+00
    0.00000E+00         0.00000E+00        -0.47680E+08
 
   -0.55641E+08        -0.37755E+07         0.00000E+00
   -0.37755E+07        -0.61150E+08         0.00000E+00
    0.00000E+00         0.00000E+00        -0.47059E+08
 
   -0.53836E+08        -0.35411E+07         0.00000E+00
   -0.35411E+07        -0.61252E+08         0.00000E+00
    0.00000E+00         0.00000E+00        -0.46421E+08
 
   -0.52143E+08        -0.31058E+07         0.00000E+00
   -0.31058E+07        -0.61279E+08         0.00000E+00
    0.00000E+00         0.00000E+00        -0.45793E+08
 
   -0.50558E+08        -0.25206E+07         0.00000E+00
   -0.25206E+07        -0.61274E+08         0.00000E+00
    0.00000E+00         0.00000E+00        -0.45191E+08
 
   -0.49061E+08        -0.18052E+07         0.00000E+00
   -0.18052E+07        -0.61280E+08         0.00000E+00
    0.00000E+00         0.00000E+00        -0.44624E+08
 
   -0.47631E+08        -0.95286E+06         0.00000E+00
   -0.95286E+06        -0.61331E+08         0.00000E+00
    0.00000E+00         0.00000E+00        -0.44101E+08
 
   -0.46261E+08         0.66358E+05         0.00000E+00
    0.66358E+05        -0.61454E+08         0.00000E+00
    0.00000E+00         0.00000E+00        -0.43628E+08
 
   -0.44970E+08         0.13041E+07         0.00000E+00
    0.13041E+07        -0.61656E+08         0.00000E+00
    0.00000E+00         0.00000E+00        -0.43214E+08
 
   -0.43822E+08         0.28269E+07         0.00000E+00
    0.28269E+07        -0.61916E+08         0.00000E+00
    0.00000E+00         0.00000E+00        -0.42877E+08
 
   -0.42949E+08         0.46979E+07         0.00000E+00
    0.46979E+07        -0.62170E+08         0.00000E+00
    0.00000E+00         0.00000E+00        -0.42637E+08
 
   -0.42550E+08         0.69408E+07         0.00000E+00
    0.69408E+07        -0.62303E+08         0.00000E+00
    0.00000E+00         0.00000E+00        -0.42522E+08
 
   -0.63817E+08        -0.10419E+07         0.00000E+00
   -0.10419E+07        -0.60082E+08         0.00000E+00
    0.00000E+00         0.00000E+00        -0.47799E+08
 
   -0.62206E+08        -0.26675E+07         0.00000E+00
   -0.26675E+07        -0.60350E+08         0.00000E+00
    0.00000E+00         0.00000E+00        -0.47380E+08
 
   -0.60018E+08        -0.35950E+07         0.00000E+00
   -0.35950E+07        -0.60668E+08         0.00000E+00
    0.00000E+00         0.00000E+00        -0.46745E+08
 
   -0.57690E+08        -0.39182E+07         0.00000E+00
   -0.39182E+07        -0.60859E+08         0.00000E+00
    0.00000E+00         0.00000E+00        -0.45994E+08
 
   -0.55474E+08        -0.38279E+07         0.00000E+00
   -0.38279E+07        -0.60871E+08         0.00000E+00
    0.00000E+00         0.00000E+00        -0.45205E+08
 
   -0.53454E+08        -0.34899E+07         0.00000E+00
   -0.34899E+07        -0.60745E+08         0.00000E+00
    0.00000E+00         0.00000E+00        -0.44428E+08
 
   -0.51616E+08        -0.30060E+07         0.00000E+00
   -0.30060E+07        -0.60547E+08         0.00000E+00
    0.00000E+00         0.00000E+00        -0.43685E+08
 
   -0.49919E+08        -0.24238E+07         0.00000E+00
   -0.24238E+07        -0.60340E+08         0.00000E+00
    0.00000E+00         0.00000E+00        -0.42987E+08
 
   -0.48311E+08        -0.17551E+07         0.00000E+00
   -0.17551E+07        -0.60177E+08         0.00000E+00
    0.00000E+00         0.00000E+00        -0.42337E+08
 
   -0.46747E+08        -0.98467E+06         0.00000E+00
   -0.98467E+06        -0.60098E+08         0.00000E+00
    0.00000E+00         0.00000E+00        -0.41736E+08
 
   -0.45194E+08        -0.71563E+05         0.00000E+00
   -0.71563E+05        -0.60138E+08         0.00000E+00
    0.00000E+00         0.00000E+00        -0.41187E+08
 
   -0.43645E+08         0.10559E+07         0.00000E+00
    0.10559E+07        -0.60319E+08         0.00000E+00
    0.00000E+00         0.00000E+00        -0.40695E+08
 
   -0.42147E+08         0.25035E+07         0.00000E+00
    0.25035E+07        -0.60636E+08         0.00000E+00
    0.00000E+00         0.00000E+00        -0.40277E+08
 
   -0.40840E+08         0.43962E+07         0.00000E+00
    0.43962E+07        -0.61025E+08         0.00000E+00
    0.00000E+00         0.00000E+00        -0.39957E+08
 
   -0.39993E+08         0.68266E+07         0.00000E+00
    0.68266E+07        -0.61340E+08         0.00000E+00
    0.00000E+00         0.00000E+00        -0.39777E+08
 
   -0.65914E+08        -0.12414E+07         0.00000E+00
   -0.12414E+07        -0.60111E+08         0.00000E+00
    0.00000E+00         0.00000E+00        -0.46448E+08
 
   -0.63483E+08        -0.30176E+07         0.00000E+00
   -0.30176E+07        -0.60411E+08         0.00000E+00
    0.00000E+00         0.00000E+00        -0.45806E+08
 
   -0.60519E+08        -0.38012E+07         0.00000E+00
   -0.38012E+07        -0.60636E+08         0.00000E+00
    0.00000E+00         0.00000E+00        -0.44903E+08
 
   -0.57670E+08        -0.38808E+07         0.00000E+00
   -0.38808E+07        -0.60568E+08         0.00000E+00
    0.00000E+00         0.00000E+00        -0.43908E+08
 
   -0.55171E+08        -0.36013E+07         0.00000E+00
   -0.36013E+07        -0.60245E+08         0.00000E+00
    0.00000E+00         0.00000E+00        -0.42929E+08
 
   -0.53005E+08        -0.31677E+07         0.00000E+00
   -0.31677E+07        -0.59794E+08         0.00000E+00
    0.00000E+00         0.00000E+00        -0.42010E+08
 
   -0.51085E+08        -0.26661E+07         0.00000E+00
   -0.26661E+07        -0.59314E+08         0.00000E+00
    0.00000E+00         0.00000E+00        -0.41161E+08
 
   -0.49325E+08        -0.21250E+07         0.00000E+00
   -0.21250E+07        -0.58874E+08         0.00000E+00
    0.00000E+00         0.00000E+00        -0.40381E+08
 
   -0.47647E+08        -0.15429E+07         0.00000E+00
   -0.15429E+07        -0.58522E+08         0.00000E+00
    0.00000E+00         0.00000E+00        -0.39663E+08
 
   -0.45982E+08        -0.89738E+06         0.00000E+00
   -0.89738E+06        -0.58298E+08         0.00000E+00
    0.00000E+00         0.00000E+00        -0.38999E+08
 
   -0.44271E+08        -0.14333E+06         0.00000E+00
   -0.14333E+06        -0.58237E+08         0.00000E+00
    0.00000E+00         0.00000E+00        -0.38384E+08
 
   -0.42464E+08         0.79972E+06         0.00000E+00
    0.79972E+06        -0.58377E+08         0.00000E+00
    0.00000E+00         0.00000E+00        -0.37817E+08
 
   -0.40558E+08         0.20729E+07         0.00000E+00
    0.20729E+07        -0.58748E+08         0.00000E+00
    0.00000E+00         0.00000E+00        -0.37308E+08
 
   -0.38670E+08         0.38889E+07         0.00000E+00
    0.38889E+07        -0.59316E+08         0.00000E+00
    0.00000E+00         0.00000E+00        -0.36888E+08
 
   -0.37137E+08         0.64709E+07         0.00000E+00
    0.64709E+07        -0.59911E+08         0.00000E+00
    0.00000E+00         0.00000E+00        -0.36613E+08
 
   -0.68354E+08        -0.15169E+07         0.00000E+00
   -0.15169E+07        -0.60161E+08         0.00000E+00
    0.00000E+00         0.00000E+00        -0.44786E+08
 
   -0.64638E+08        -0.33213E+07         0.00000E+00
   -0.33213E+07        -0.60469E+08         0.00000E+00
    0.00000E+00         0.00000E+00        -0.43768E+08
 
   -0.60695E+08        -0.36892E+07         0.00000E+00
   -0.36892E+07        -0.60359E+08         0.00000E+00
    0.00000E+00         0.00000E+00        -0.42461E+08
 
   -0.57402E+08        -0.34139E+07         0.00000E+00
   -0.34139E+07        -0.59744E+08         0.00000E+00
    0.00000E+00         0.00000E+00        -0.41168E+08
 
   -0.54751E+08        -0.29773E+07         0.00000E+00
   -0.29773E+07        -0.58928E+08         0.00000E+00
    0.00000E+00         0.00000E+00        -0.40004E+08
 
   -0.52535E+08        -0.25164E+07         0.00000E+00
   -0.25164E+07        -0.58090E+08         0.00000E+00
    0.00000E+00         0.00000E+00        -0.38970E+08
 
   -0.50598E+08        -0.20638E+07         0.00000E+00
   -0.20638E+07        -0.57317E+08         0.00000E+00
    0.00000E+00         0.00000E+00        -0.38049E+08
 
   -0.48820E+08        -0.16190E+07         0.00000E+00
   -0.16190E+07        -0.56656E+08         0.00000E+00
    0.00000E+00         0.00000E+00        -0.37221E+08
 
   -0.47109E+08        -0.11678E+07         0.00000E+00
   -0.11678E+07        -0.56135E+08         0.00000E+00
    0.00000E+00         0.00000E+00        -0.36468E+08
 
   -0.45380E+08        -0.68586E+06         0.00000E+00
   -0.68586E+06        -0.55779E+08         0.00000E+00
    0.00000E+00         0.00000E+00        -0.35771E+08
 
   -0.43547E+08        -0.13343E+06         0.00000E+00
   -0.13343E+06        -0.55620E+08         0.00000E+00
    0.00000E+00         0.00000E+00        -0.35118E+08
 
   -0.41516E+08         0.55987E+06         0.00000E+00
    0.55987E+06        -0.55703E+08         0.00000E+00
    0.00000E+00         0.00000E+00        -0.34495E+08
 
   -0.39187E+08         0.15336E+07         0.00000E+00
    0.15336E+07        -0.56096E+08         0.00000E+00
    0.00000E+00         0.00000E+00        -0.33899E+08
 
   -0.36556E+08         0.30958E+07         0.00000E+00
    0.30958E+07        -0.56875E+08         0.00000E+00
    0.00000E+00         0.00000E+00        -0.33358E+08
 
   -0.33979E+08         0.57181E+07         0.00000E+00
    0.57181E+07        -0.57892E+08         0.00000E+00
    0.00000E+00         0.00000E+00        -0.32943E+08
 
   -0.71147E+08        -0.19686E+07         0.00000E+00
   -0.19686E+07        -0.60371E+08         0.00000E+00
    0.00000E+00         0.00000E+00        -0.42494E+08
 
   -0.65247E+08        -0.31834E+07         0.00000E+00
   -0.31834E+07        -0.60253E+08         0.00000E+00
    0.00000E+00         0.00000E+00        -0.40701E+08
 
   -0.60391E+08        -0.28045E+07         0.00000E+00
   -0.28045E+07        -0.59029E+08         0.00000E+00
    0.00000E+00         0.00000E+00        -0.38813E+08
 
   -0.56974E+08        -0.23230E+07         0.00000E+00
   -0.23230E+07        -0.57602E+08         0.00000E+00
    0.00000E+00         0.00000E+00        -0.37282E+08
 
   -0.54325E+08        -0.19082E+07         0.00000E+00
   -0.19082E+07        -0.56272E+08         0.00000E+00
    0.00000E+00         0.00000E+00        -0.36020E+08
 
   -0.52137E+08        -0.15542E+07         0.00000E+00
   -0.15542E+07        -0.55113E+08         0.00000E+00
    0.00000E+00         0.00000E+00        -0.34958E+08
 
   -0.50223E+08        -0.12425E+07         0.00000E+00
   -0.12425E+07        -0.54137E+08         0.00000E+00
    0.00000E+00         0.00000E+00        -0.34043E+08
 
   -0.48456E+08        -0.95503E+06         0.00000E+00
   -0.95503E+06        -0.53344E+08         0.00000E+00
    0.00000E+00         0.00000E+00        -0.33239E+08
 
   -0.46736E+08        -0.67483E+06         0.00000E+00
   -0.67483E+06        -0.52735E+08         0.00000E+00
    0.00000E+00         0.00000E+00        -0.32514E+08
 
   -0.44971E+08        -0.38319E+06         0.00000E+00
   -0.38319E+06        -0.52317E+08         0.00000E+00
    0.00000E+00         0.00000E+00        -0.31844E+08
 
   -0.43060E+08        -0.54169E+05         0.00000E+00
   -0.54169E+05        -0.52110E+08         0.00000E+00
    0.00000E+00         0.00000E+00        -0.31209E+08
 
   -0.40871E+08         0.35696E+06         0.00000E+00
    0.35696E+06        -0.52157E+08         0.00000E+00
    0.00000E+00         0.00000E+00        -0.30584E+08
 
   -0.38212E+08         0.94334E+06         0.00000E+00
    0.94334E+06        -0.52543E+08         0.00000E+00
    0.00000E+00         0.00000E+00        -0.29948E+08
 
   -0.34756E+08         0.19576E+07         0.00000E+00
    0.19576E+07        -0.53443E+08         0.00000E+00
    0.00000E+00         0.00000E+00        -0.29272E+08
 
   -0.30588E+08         0.42883E+07         0.00000E+00
    0.42883E+07        -0.55102E+08         0.00000E+00
    0.00000E+00         0.00000E+00        -0.28661E+08
 
   -0.73715E+08        -0.19082E+07         0.00000E+00
   -0.19082E+07        -0.58830E+08         0.00000E+00
    0.00000E+00         0.00000E+00        -0.36758E+08
 
   -0.64775E+08        -0.13779E+07         0.00000E+00
   -0.13779E+07        -0.56325E+08         0.00000E+00
    0.00000E+00         0.00000E+00        -0.34086E+08
 
   -0.59997E+08        -0.95455E+06         0.00000E+00
   -0.95455E+06        -0.54127E+08         0.00000E+00
    0.00000E+00         0.00000E+00        -0.32310E+08
 
   -0.56652E+08        -0.73896E+06         0.00000E+00
   -0.73896E+06        -0.52388E+08         0.00000E+00
    0.00000E+00         0.00000E+00        -0.31012E+08
 
   -0.54065E+08        -0.58573E+06         0.00000E+00
   -0.58573E+06        -0.50997E+08         0.00000E+00
    0.00000E+00         0.00000E+00        -0.29997E+08
 
   -0.51917E+08        -0.46607E+06         0.00000E+00
   -0.46607E+06        -0.49877E+08         0.00000E+00
    0.00000E+00         0.00000E+00        -0.29165E+08
 
   -0.50026E+08        -0.36450E+06         0.00000E+00
   -0.36450E+06        -0.48985E+08         0.00000E+00
    0.00000E+00         0.00000E+00        -0.28460E+08
 
   -0.48270E+08        -0.27223E+06         0.00000E+00
   -0.27223E+06        -0.48291E+08         0.00000E+00
    0.00000E+00         0.00000E+00        -0.27844E+08
 
   -0.46549E+08        -0.18266E+06         0.00000E+00
   -0.18266E+06        -0.47785E+08         0.00000E+00
    0.00000E+00         0.00000E+00        -0.27288E+08
 
   -0.44770E+08        -0.89277E+05         0.00000E+00
   -0.89277E+05        -0.47467E+08         0.00000E+00
    0.00000E+00         0.00000E+00        -0.26770E+08
 
   -0.42822E+08         0.16492E+05         0.00000E+00
    0.16492E+05        -0.47352E+08         0.00000E+00
    0.00000E+00         0.00000E+00        -0.26268E+08
 
   -0.40554E+08         0.14897E+06         0.00000E+00
    0.14897E+06        -0.47478E+08         0.00000E+00
    0.00000E+00         0.00000E+00        -0.25757E+08
 
   -0.37717E+08         0.34031E+06         0.00000E+00
    0.34031E+06        -0.47930E+08         0.00000E+00
    0.00000E+00         0.00000E+00        -0.25202E+08
 
   -0.33818E+08         0.66453E+06         0.00000E+00
    0.66453E+06        -0.48904E+08         0.00000E+00
    0.00000E+00         0.00000E+00        -0.24542E+08
 
   -0.27278E+08         0.16862E+07         0.00000E+00
    0.16862E+07        -0.51042E+08         0.00000E+00
    0.00000E+00         0.00000E+00        -0.23606E+08
 
SCALARS stresss double 
LOOKUP_TABLE default
  -58289130.4153556     
  -59578728.6044212     
  -60610285.1440182     
  -61496479.0936458     
  -62280636.3880501     
  -62987540.4306589     
  -63633186.7350371     
  -64229135.0999345     
  -64784647.0065710     
  -65308053.9725932     
  -65807944.1375073     
  -66294657.6963571     
  -66783206.9014846     
  -67299397.2564160     
  -67923237.0574932     
  -58159630.8934391     
  -59215619.8820988     
  -60161256.2045085     
  -60995507.6009818     
  -61743811.2186868     
  -62423153.1289476     
  -63046039.2693863     
  -63622043.4837897     
  -64159069.9967140     
  -64664245.6054918     
  -65144692.6416962     
  -65608417.1765510     
  -66065025.9866467     
  -66528995.4746193     
  -66978699.7404553     
  -58125198.6667802     
  -58997040.0545586     
  -59821715.1774491     
  -60581770.8122945     
  -61277813.9827715     
  -61917404.8079552     
  -62507880.2148507     
  -63055787.3741950     
  -63566903.0245706     
  -64046478.2266827     
  -64499461.8749774     
  -64930467.8129340     
  -65343424.8836166     
  -65734788.0130974     
  -66092749.9249714     
  -58102956.4222715     
  -58839250.4467970     
  -59555291.1472306     
  -60234540.5229037     
  -60870395.0126670     
  -61462661.6590472     
  -62013993.0747249     
  -62527771.0604950     
  -63007431.4926089     
  -63456162.1344358     
  -63876648.7762495     
  -64270626.8770168     
  -64637301.9500341     
  -64971990.1271889     
  -65264160.5427482     
  -58073963.3171205     
  -58705554.4638896     
  -59330171.5979119     
  -59933881.6656513     
  -60508474.8791884     
  -61050363.2646069     
  -61558871.9980775     
  -62034807.4247616     
  -62479525.7020455     
  -62894371.5078368     
  -63280201.8075382     
  -63636734.7212467     
  -63961800.3587597     
  -64250461.1364881     
  -64494816.4478596     
  -58030826.6388327     
  -58579310.3377628     
  -59127568.4330193     
  -59663990.9942724     
  -60180516.9668608     
  -60672298.6160755     
  -61136890.2324267     
  -61573352.4697274     
  -61981496.6750057     
  -62361288.2608373     
  -62712326.5439261     
  -63033340.5496550     
  -63321683.1260548     
  -63572992.9641835     
  -63781146.9218403     
  -57970629.2327434     
  -58452167.2488778     
  -58936610.6948447     
  -59414160.8478377     
  -59877442.0148561     
  -60321376.8904516     
  -60742760.7868909     
  -61139702.4050408     
  -61511062.3904679     
  -61855946.4107002     
  -62173256.7154379     
  -62461294.0774281     
  -62717440.7893977     
  -62937978.8573762     
  -63118128.5422632     
  -57892626.6515908     
  -58319999.1578242     
  -58751044.8797168     
  -59177426.3566081     
  -59592621.3723521     
  -59991838.5539086     
  -60371751.5552250     
  -60730124.0319260     
  -61065397.6168443     
  -61376292.0362226     
  -61661443.1737565     
  -61919098.0098206     
  -62146889.9742339     
  -62341729.9567542     
  -62499841.6538203     
  -57797490.8280228     
  -58181131.4414090     
  -58567453.4179961     
  -58949390.5588736     
  -59321353.8576396     
  -59679133.9864045     
  -60019697.9710966     
  -60340911.0539442     
  -60641223.0926991     
  -60919354.2860272     
  -61174006.9491870     
  -61403624.7597126     
  -61606220.3698059     
  -61779291.1269604     
  -61919837.8857044     
  -57686960.6670948     
  -58035491.1416572     
  -58384258.5268270     
  -58727401.1893920     
  -59060339.9133575     
  -59379654.2880021     
  -59682899.2954456     
  -59968375.6172812     
  -60234875.3061794     
  -60481425.8646351     
  -60707053.5825772     
  -60910584.3426483     
  -61090497.8324474     
  -61244848.5814956     
  -61371262.6251848     
  -57563651.6661601     
  -57884139.6413919     
  -58201132.4018289     
  -58509993.4477869     
  -58807251.3633921     
  -59090449.2792543     
  -59357962.3732529     
  -59608789.5477562     
  -59842331.5337016     
  -60058170.1169895     
  -60255863.1165422     
  -60434768.4765133     
  -60593909.1563451     
  -60731888.3735739     
  -60846861.9929505     
  -57430925.2503464     
  -57728983.0102406     
  -58018618.3685468     
  -58296502.1766554     
  -58560394.9837321     
  -58808971.4839203     
  -59041629.7692915     
  -59258288.7776259     
  -59459181.2113423     
  -59644651.0184090     
  -59814964.7777820     
  -59970145.7482599     
  -60109838.4517349     
  -60233210.7048630     
  -60338898.9983276     
  -57292779.9023714     
  -57572567.4192769     
  -57837864.0582904     
  -58086775.1899023     
  -58318443.2796845     
  -58532848.4032172     
  -58730603.8126790     
  -58912749.5964362     
  -59080549.2036252     
  -59235294.0571739     
  -59378121.1681287     
  -59509848.1880478     
  -59630830.1464493     
  -59740842.4124402     
  -59838995.1639358     
  -57153746.7148965     
  -57417914.8459975     
  -57660412.8020252     
  -57880943.0822848     
  -58080205.5478554     
  -58259672.5561993     
  -58421366.0171481     
  -58567640.7483162     
  -58700977.8607174     
  -58823790.3866634     
  -58938241.8209837     
  -59046077.4258148     
  -59148468.5021320     
  -59245871.4539004     
  -59337906.1306871     
  -57018780.6423628     
  -57268374.9761140     
  -57488021.7219745     
  -57679215.3045572     
  -57844416.2337723     
  -57986795.2832136     
  -58109985.7709157     
  -58217851.3790378     
  -58314273.1288057     
  -58402954.7106499     
  -58487241.8235317     
  -58569949.5735375     
  -58653192.8263587     
  -58738217.6303465     
  -58825236.8759097     
  -56893142.3503282     
  -57127478.6951755     
  -57322485.5314987     
  -57481679.6846175     
  -57609520.0430487     
  -57711108.6787110     
  -57791908.6734977     
  -57857491.3849362     
  -57913317.1779045     
  -57964544.7604087     
  -58015857.6229726     
  -58071293.2382583     
  -58134062.1597155     
  -58206349.5975386     
  -58289100.4038150     
  -56782267.5421488     
  -56998782.6825798     
  -57165448.9423255     
  -57288084.3506411     
  -57373432.2742306     
  -57428796.8482027     
  -57461710.8097295     
  -57479656.8718611     
  -57489846.9874701     
  -57499047.9003511     
  -57513430.1296415     
  -57538413.0424818     
  -57578481.2941120     
  -57636956.7253422     
  -57715723.0157760     
  -56691622.4875408     
  -56885695.7040679     
  -57018189.5087520     
  -57097577.3070312     
  -57133246.9781874     
  -57135030.8124227     
  -57112798.6888145     
  -57076148.2045262     
  -57034194.9044571     
  -56995438.7019487     
  -56967664.8200904     
  -56957831.3710554     
  -56971900.6035264     
  -57014584.9595830     
  -57088999.5779882     
  -56626546.9167060     
  -56791275.6001923     
  -56881346.1545438     
  -56908368.1134958     
  -56884852.4924610     
  -56823568.3817785     
  -56737023.5660200     
  -56637120.2629062     
  -56534982.8133463     
  -56440910.1245985     
  -56364379.7645369     
  -56314023.7098767     
  -56297505.1992274     
  -56321248.3681492     
  -56390003.6792857     
  -56592088.6106774     
  -56717980.2966698     
  -56754553.4127366     
  -56717253.9972077     
  -56622389.2679030     
  -56486197.4772795     
  -56324160.7139475     
  -56150632.3224359     
  -55978755.2861364     
  -55820579.8235039     
  -55687255.2913993     
  -55589168.0383714     
  -55535914.5093871     
  -55536032.5123172     
  -55596459.9904040     
  -56592837.3235639     
  -56667342.2857186     
  -56635910.1306909     
  -56518910.3439825     
  -56337440.5265430     
  -56111922.5737162     
  -55861174.9652401     
  -55602045.9492793     
  -55349527.2292527     
  -55117170.9246738     
  -54917602.8503315     
  -54762936.3580928     
  -54664921.8662782     
  -54634712.1053241     
  -54682188.6087983     
  -56632766.9513211     
  -56639504.3688687     
  -56521147.4024399     
  -56304764.5371098     
  -56017766.9291754     
  -55685729.2985610     
  -55331147.8391172     
  -54973189.6339440     
  -54628204.5450652     
  -54310660.1065940     
  -54034173.3036575     
  -53812366.1486053     
  -53659315.5287082     
  -53589413.6537293     
  -53616531.6420665     
  -56715090.0372307     
  -56632480.9644600     
  -56402226.5634632     
  -56061113.1930535     
  -55645253.7651264     
  -55186656.4572374     
  -54711671.2096526     
  -54241162.1614914     
  -53791803.6768402     
  -53377865.2170157     
  -53013019.5582843     
  -52711858.3957659     
  -52490839.3496987     
  -52368364.4485897     
  -52363767.4416797     
  -56842099.6497317     
  -56640839.5666684     
  -56264798.3417129     
  -55765820.9387604     
  -55192479.7998315     
  -54584735.6858903     
  -53972409.7110477     
  -53376569.3104526     
  -52812324.4301458     
  -52291884.6095205     
  -51827392.1063742     
  -51433350.8047921     
  -51128373.3505487     
  -50935789.2237957     
  -50882501.7053334     
  -57014920.5228906     
  -56653034.1504751     
  -56083260.5631941     
  -55382245.7975008     
  -54616841.0591060     
  -53836109.6179752     
  -53071380.1017143     
  -52340846.0153229     
  -51654960.7629496     
  -51021122.6786093     
  -50447531.7930744     
  -49946668.5653904     
  -49538462.9847478     
  -49252049.8275308     
  -49125001.9364949     
  -57232687.8142312     
  -56645495.3067381     
  -55810247.4303174     
  -54847496.6813638     
  -53850355.7560171     
  -52875243.4905881     
  -51949274.6389719     
  -51081967.4127899     
  -50274888.0889129     
  -49527201.5117549     
  -48839806.7179866     
  -48219951.4971817     
  -47686320.7106157     
  -47274306.3022847     
  -47036374.8932298     
  -57490884.2009404     
  -56566647.4124107     
  -55352298.9390934     
  -54048700.0433654     
  -52781655.7749132     
  -51602897.9055518     
  -50520271.1306472     
  -49526879.1900217     
  -48610814.1335341     
  -47759743.7715524     
  -46963773.2517607     
  -46219097.2962762     
  -45537880.1944163     
  -44958002.5085197     
  -44553755.9036959     
  -57766613.6600151     
  -56291448.7537468     
  -54504966.3379117     
  -52771249.9022640     
  -51227834.4309829     
  -49865011.2968643     
  -48654606.3814753     
  -47565859.3260142     
  -46570589.3107491     
  -45643418.7391805     
  -44761346.9559532     
  -43904673.6833347     
  -43060733.4183407     
  -42263127.8313404     
  -41604634.6223367     
  -58003933.8796081     
  -55400423.1833215     
  -52744291.0091020     
  -50619274.3392213     
  -48872450.6959301     
  -47402629.6856004     
  -46134359.9736581     
  -45012734.9150218     
  -43994882.6448917     
  -43044326.4819127     
  -42126475.0591497     
  -41204112.2708441     
  -40234419.8884210     
  -39156915.1740324     
  -38116898.2247392     
  -56434181.1367784     
  -51728787.9575065     
  -48811633.5232758     
  -46684149.2713047     
  -45019397.1887742     
  -43653081.2279175     
  -42490228.3715026     
  -41468243.7127248     
  -40540816.2495066     
  -39668869.8844861     
  -38813786.8122051     
  -37929742.5295073     
  -36949665.4721193     
  -35754323.6967742     
  -33975606.7861068     
SCALARS 2waySource double 
LOOKUP_TABLE default
  2.799153565634076E-002
  2.906459575680613E-002
  3.050705960708133E-002
  3.198583700791960E-002
  3.340682337523194E-002
  3.473007855427182E-002
  3.594311987478381E-002
  3.704711108421938E-002
  3.805010827124175E-002
  3.896286573825232E-002
  3.979569479097308E-002
  4.055538921432607E-002
  4.124058184977056E-002
  4.183505793115110E-002
  4.224375366937504E-002
  2.798597588173940E-002
  2.967537428927413E-002
  3.131813299122525E-002
  3.290754415462216E-002
  3.438930945259146E-002
  3.574615302859583E-002
  3.697655771223820E-002
  3.808846659636860E-002
  3.909466659776097E-002
  4.000981134085761E-002
  4.084814014482736E-002
  4.162131046247985E-002
  4.233620778549375E-002
  4.298763936405886E-002
  4.356802167494969E-002
  2.769029947528332E-002
  2.986879115661965E-002
  3.178770009925723E-002
  3.351983549854239E-002
  3.508322593558036E-002
  3.648568773569922E-002
  3.774044483917712E-002
  3.886442464387556E-002
  3.987675758303134E-002
  4.079726188534320E-002
  4.164521754448607E-002
  4.243840536731193E-002
  4.319194799976719E-002
  4.391989022621343E-002
  4.464032391312806E-002
  2.728067382836015E-002
  2.980646969649035E-002
  3.196680461622167E-002
  3.384494680285202E-002
  3.549169361510524E-002
  3.694040170322750E-002
  3.821873371354476E-002
  3.935318783250012E-002
  4.036970862584783E-002
  4.129360807138448E-002
  4.214932626360791E-002
  4.296028411539679E-002
  4.374941903110993E-002
  4.454092963596925E-002
  4.536633381320852E-002
  2.679350223529112E-002
  2.956616476091370E-002
  3.190782406885279E-002
  3.390427408383375E-002
  3.562037933294512E-002
  3.710534778598309E-002
  3.839918944495038E-002
  3.953702737537987E-002
  4.055119588401662E-002
  4.147213152058078E-002
  4.232888808857875E-002
  4.314969524397762E-002
  4.396290835085054E-002
  4.479904979974433E-002
  4.569381852549322E-002
  2.624554545569951E-002
  2.918186615395455E-002
  3.164266770109811E-002
  3.371643570248212E-002
  3.547539595321617E-002
  3.697809789652628E-002
  3.827316457717117E-002
  3.940259113581415E-002
  4.040401504362429E-002
  4.131215508224424E-002
  4.215981914371307E-002
  4.297883412666317E-002
  4.380120809605467E-002
  4.466067844046571E-002
  4.559452811415695E-002
  2.564857041575401E-002
  2.867139256371753E-002
  3.118950720739004E-002
  3.329438483608733E-002
  3.506268252942192E-002
  3.655842574303175E-002
  3.783570308481873E-002
  3.894125761308445E-002
  3.991659891198228E-002
  4.079960331010446E-002
  4.162576653922952E-002
  4.242932093666393E-002
  4.324438477720369E-002
  4.410620800863779E-002
  4.505236546703954E-002
  2.501289644504793E-002
  2.804634921714836E-002
  3.056005428833972E-002
  3.264764007911659E-002
  3.438818123198283E-002
  3.584856013366111E-002
  3.708584310671990E-002
  3.814951185331555E-002
  3.908339576166239E-002
  3.992726748521763E-002
  4.071816904312618E-002
  4.149157778752019E-002
  4.228250348352787E-002
  4.312653625371674E-002
  4.406077100574628E-002
  2.434831652869694E-002
  2.731635062723262E-002
  2.976390267725258E-002
  3.178498046784656E-002
  3.345908467078559E-002
  3.485379671615623E-002
  3.602707980280778E-002
  3.702933275507043E-002
  3.790517983206725E-002
  3.869499815051995E-002
  3.943622226268319E-002
  4.016448570370722E-002
  4.091464875275086E-002
  4.172172572558878E-002
  4.262168008340406E-002
  2.366435155010273E-002
  2.649095065558315E-002
  2.881100033398272E-002
  3.071647518646456E-002
  3.228515143032042E-002
  3.358328886491054E-002
  3.466787692501045E-002
  3.558856284781622E-002
  3.638931428776908E-002
  3.710984953459086E-002
  3.778687141847942E-002
  3.845514415907893E-002
  3.914844493052469E-002
  3.990040377998975E-002
  4.074522615729659E-002
  2.297024023606072E-002
  2.558055246743963E-002
  2.771299667624616E-002
  2.945478180411820E-002
  3.087970052487641E-002
  3.205072152084157E-002
  3.302210823536103E-002
  3.384120097781448E-002
  3.454993951537811E-002
  3.518617348703618E-002
  3.578479652280546E-002
  3.637873490019236E-002
  3.699981536533629E-002
  3.767952797529010E-002
  3.844969198968210E-002
  2.227480523995584E-002
  2.459675887250469E-002
  2.648387525127490E-002
  2.801582816068744E-002
  2.926018354744117E-002
  3.027471982795650E-002
  3.110931992707987E-002
  3.180755755051898E-002
  3.240805165785036E-002
  3.294563481227887E-002
  3.345236696971824E-002
  3.395841959311474E-002
  3.449285082007487E-002
  3.508428889099906E-002
  3.576153902593081E-002
  2.158625194244980E-002
  2.355236383769281E-002
  2.514008682095509E-002
  2.641899778941129E-002
  2.744834522990984E-002
  2.827894631639513E-002
  2.895476135770081E-002
  2.951423338094652E-002
  2.999144560777435E-002
  3.041712862886845E-002
  3.081953875020839E-002
  3.122522513577702E-002
  3.165970256568849E-002
  3.214804701756450E-002
  3.271543261606372E-002
  2.091193486882637E-002
  2.246109488057343E-002
  2.370031710161580E-002
  2.468692410010431E-002
  2.547002793618636E-002
  2.609190310670069E-002
  2.658918259746317E-002
  2.699391741496319E-002
  2.733451932162628E-002
  2.763659592658151E-002
  2.792368457499040E-002
  2.821789349610030E-002
  2.854046255700560E-002
  2.891225996439737E-002
  2.935423484422610E-002
  2.025812172509213E-002
  2.133718878670366E-002
  2.218499586883716E-002
  2.284499547788710E-002
  2.335470079842625E-002
  2.374649634946363E-002
  2.404843882465374E-002
  2.428503325851600E-002
  2.447796320933995E-002
  2.464675550646626E-002
  2.480936798113478E-002
  2.498269894677604E-002
  2.518302693873396E-002
  2.542639667008058E-002
  2.572897205106594E-002
  1.962978407228005E-002
  2.019487679048535E-002
  2.061564887680466E-002
  2.092067902576722E-002
  2.113481430778819E-002
  2.127945063929901E-002
  2.137297536463913E-002
  2.143129581806291E-002
  2.146838507198884E-002
  2.149679309268789E-002
  2.152809357658780E-002
  2.157325803657070E-002
  2.164296516559620E-002
  2.174786371091105E-002
  2.189881172784299E-002
  1.903044070166238E-002
  1.904785271621328E-002
  1.901419476769910E-002
  1.894277944505034E-002
  1.884509980668959E-002
  1.873068742317424E-002
  1.860729650921864E-002
  1.848126740261237E-002
  1.835794533307817E-002
  1.824206867484914E-002
  1.813808325191655E-002
  1.805037486175942E-002
  1.798343540359669E-002
  1.794198882831707E-002
  1.793110458920519E-002
  1.846207253463823E-002
  1.790879158207005E-002
  1.740228945227785E-002
  1.694075973368907E-002
  1.652195363433839E-002
  1.614280866830747E-002
  1.579955052491385E-002
  1.548802945695855E-002
  1.520409910551621E-002
  1.494391957264430E-002
  1.470414061294257E-002
  1.448197472453794E-002
  1.427519752552432E-002
  1.408211898041756E-002
  1.390156220733534E-002
  1.792511575034607E-002
  1.678897581079548E-002
  1.580082127924401E-002
  1.494426657612064E-002
  1.420307530371938E-002
  1.356086375626374E-002
  1.300139946367413E-002
  1.250911601366851E-002
  1.206956268240302E-002
  1.166964930192190E-002
  1.129767229844957E-002
  1.094318245672969E-002
  1.059677778317931E-002
  1.024989484083891E-002
  9.894648629270076E-003
  1.741852315927132E-002
  1.569807493838222E-002
  1.422967031359887E-002
  1.298303937834485E-002
  1.192758462536074E-002
  1.103263923559519E-002
  1.026839719239071E-002
  9.606895067032750E-003
  9.022645807829650E-003
  8.492802406927251E-003
  7.996935773352127E-003
  7.516598023885835E-003
  7.034834934136069E-003
  6.535761874831408E-003
  6.004267367626425E-003
  1.693986326697577E-002
  1.464412114355182E-002
  1.270788425511399E-002
  1.108746794257009E-002
  9.736956811449151E-003
  8.609825217597030E-003
  7.661190984513974E-003
  6.849644857717113E-003
  6.138123122183684E-003
  5.493836486170976E-003
  4.887581454694036E-003
  4.292814303662029E-003
  3.684769027173275E-003
  3.039773189754381E-003
  2.334827232103484E-003
  1.648540367445980E-002
  1.363374409275490E-002
  1.125453623025046E-002
  9.290263205012039E-003
  7.677351245675105E-003
  6.350626205402356E-003
  5.248018599558920E-003
  4.313668081077035E-003
  3.498868338583474E-003
  2.761323759213231E-003
  2.063561754544308E-003
  1.371217926492698E-003
  6.516082725264997E-004
 -1.272621688617828E-004
 -9.972195548980137E-004
  1.605009930352897E-002
  1.267281724022132E-002
  9.890818311301442E-003
  7.630162768454548E-003
  5.804395964434071E-003
  4.324776643775907E-003
  3.109231320286308E-003
  2.086939711807997E-003
  1.198566587193730E-003
  3.938740473518173E-004
 -3.714839116384278E-004
 -1.138864502800731E-003
 -1.948780069113009E-003
 -2.842216682541249E-003
 -3.861240772464308E-003
  1.562739703402329E-002
  1.176791558012797E-002
  8.644678687902165E-003
  6.159650511501181E-003
  4.192486313199691E-003
  2.622612926233424E-003
  1.344974049450468E-003
  2.750404986124508E-004
 -6.539706693898813E-004
 -1.496847733755081E-003
 -2.302111730851543E-003
 -3.116521010292147E-003
 -3.988043033245521E-003
 -4.967553004942602E-003
 -6.109478739429748E-003
  1.520866514067180E-002
  1.092982098415112E-002
  7.561308212827588E-003
  4.961255144675684E-003
  2.952674906499802E-003
  1.370960019886568E-003
  8.776977524370368E-005
 -9.893635239827741E-004
 -1.927789210008816E-003
 -2.781058843132949E-003
 -3.597534860558399E-003
 -4.426621993744436E-003
 -5.322995047342453E-003
 -6.348436710549073E-003
 -7.572936945597657E-003
  1.478250389795777E-002
  1.018246241435853E-002
  6.729211929237170E-003
  4.183444592883187E-003
  2.267009979906510E-003
  7.602910049955304E-004
 -4.772639180584673E-004
 -1.530735813406387E-003
 -2.457224962088334E-003
 -3.301179109492954E-003
 -4.104514654791332E-003
 -4.914974892181806E-003
 -5.791601269560882E-003
 -6.808682384088291E-003
 -8.055345164945757E-003
  1.433031933896538E-002
  9.593877835605863E-003
  6.351846340392030E-003
  4.123603560747435E-003
  2.453946831502954E-003
  1.089026477239905E-003
 -7.747290476298685E-005
 -1.100920423846456E-003
 -2.015825668740222E-003
 -2.849735179959275E-003
 -3.630950483323096E-003
 -4.396398160951486E-003
 -5.205877462226356E-003
 -6.143312663560777E-003
 -7.324720552273000E-003
  1.383909773404960E-002
  9.388051542410538E-003
  6.983704873721899E-003
  5.425168891534116E-003
  4.076106290043688E-003
  2.849138492064208E-003
  1.722208014938364E-003
  6.899169346476610E-004
 -2.527226526221724E-004
 -1.112342791668763E-003
 -1.898187052256296E-003
 -2.625759402120839E-003
 -3.327979187198956E-003
 -4.110122789732753E-003
 -5.097367456294416E-003
  1.323322896320901E-002
  1.077479688820435E-002
  1.036420932729918E-002
  9.398375357763264E-003
  8.218954851426347E-003
  6.973846484993629E-003
  5.747472378905589E-003
  4.580985617327577E-003
  3.494981622645115E-003
  2.500655429266240E-003
  1.606733858409567E-003
  8.242355306238958E-004
  1.670556428006616E-004
 -3.598926443941211E-004
 -1.043753638201569E-003
  1.867752766879681E-002
  2.205629260944578E-002
  2.147892489072502E-002
  1.990975334810287E-002
  1.805211056140684E-002
  1.615284885714422E-002
  1.431421865196061E-002
  1.258128540769541E-002
  1.097461122504053E-002
  9.505647047506085E-003
  8.186336083442724E-003
  7.038526204358931E-003
  6.108228480197718E-003
  5.501626672462980E-003
  5.402304504011896E-003
SCALARS elementIsPlast double 
LOOKUP_TABLE default
  0.000000000000000E+000
  0.000000000000000E+000
  0.000000000000000E+000
  0.000000000000000E+000
  0.000000000000000E+000
  0.000000000000000E+000
  0.000000000000000E+000
  0.000000000000000E+000
  0.000000000000000E+000
  0.000000000000000E+000
  0.000000000000000E+000
  0.000000000000000E+000
  0.000000000000000E+000
  0.000000000000000E+000
  0.000000000000000E+000
  0.000000000000000E+000
  0.000000000000000E+000
  0.000000000000000E+000
  0.000000000000000E+000
  0.000000000000000E+000
  0.000000000000000E+000
  0.000000000000000E+000
  0.000000000000000E+000
  0.000000000000000E+000
  0.000000000000000E+000
  0.000000000000000E+000
  0.000000000000000E+000
  0.000000000000000E+000
  0.000000000000000E+000
  0.000000000000000E+000
  0.000000000000000E+000
  0.000000000000000E+000
  0.000000000000000E+000
  0.000000000000000E+000
  0.000000000000000E+000
  0.000000000000000E+000
  0.000000000000000E+000
  0.000000000000000E+000
  0.000000000000000E+000
  0.000000000000000E+000
  0.000000000000000E+000
  0.000000000000000E+000
  0.000000000000000E+000
  0.000000000000000E+000
  0.000000000000000E+000
  0.000000000000000E+000
  0.000000000000000E+000
  0.000000000000000E+000
  0.000000000000000E+000
  0.000000000000000E+000
  0.000000000000000E+000
  0.000000000000000E+000
  0.000000000000000E+000
  0.000000000000000E+000
  0.000000000000000E+000
  0.000000000000000E+000
  0.000000000000000E+000
  0.000000000000000E+000
  0.000000000000000E+000
  0.000000000000000E+000
  0.000000000000000E+000
  0.000000000000000E+000
  0.000000000000000E+000
  0.000000000000000E+000
  0.000000000000000E+000
  0.000000000000000E+000
  0.000000000000000E+000
  0.000000000000000E+000
  0.000000000000000E+000
  0.000000000000000E+000
  0.000000000000000E+000
  0.000000000000000E+000
  0.000000000000000E+000
  0.000000000000000E+000
  0.000000000000000E+000
  0.000000000000000E+000
  0.000000000000000E+000
  0.000000000000000E+000
  0.000000000000000E+000
  0.000000000000000E+000
  0.000000000000000E+000
  0.000000000000000E+000
  0.000000000000000E+000
  0.000000000000000E+000
  0.000000000000000E+000
  0.000000000000000E+000
  0.000000000000000E+000
  0.000000000000000E+000
  0.000000000000000E+000
  0.000000000000000E+000
  0.000000000000000E+000
  0.000000000000000E+000
  0.000000000000000E+000
  0.000000000000000E+000
  0.000000000000000E+000
  0.000000000000000E+000
  0.000000000000000E+000
  0.000000000000000E+000
  0.000000000000000E+000
  0.000000000000000E+000
  0.000000000000000E+000
  0.000000000000000E+000
  0.000000000000000E+000
  0.000000000000000E+000
  0.000000000000000E+000
  0.000000000000000E+000
  0.000000000000000E+000
  0.000000000000000E+000
  0.000000000000000E+000
  0.000000000000000E+000
  0.000000000000000E+000
  0.000000000000000E+000
  0.000000000000000E+000
  0.000000000000000E+000
  0.000000000000000E+000
  0.000000000000000E+000
  0.000000000000000E+000
  0.000000000000000E+000
  0.000000000000000E+000
  0.000000000000000E+000
  0.000000000000000E+000
  0.000000000000000E+000
  0.000000000000000E+000
  0.000000000000000E+000
  0.000000000000000E+000
  0.000000000000000E+000
  0.000000000000000E+000
  0.000000000000000E+000
  0.000000000000000E+000
  0.000000000000000E+000
  0.000000000000000E+000
  0.000000000000000E+000
  0.000000000000000E+000
  0.000000000000000E+000
  0.000000000000000E+000
  0.000000000000000E+000
  0.000000000000000E+000
  0.000000000000000E+000
  0.000000000000000E+000
  0.000000000000000E+000
  0.000000000000000E+000
  0.000000000000000E+000
  0.000000000000000E+000
  0.000000000000000E+000
  0.000000000000000E+000
  0.000000000000000E+000
  0.000000000000000E+000
  0.000000000000000E+000
  0.000000000000000E+000
  0.000000000000000E+000
  0.000000000000000E+000
  0.000000000000000E+000
  0.000000000000000E+000
  0.000000000000000E+000
  0.000000000000000E+000
  0.000000000000000E+000
  0.000000000000000E+000
  0.000000000000000E+000
  0.000000000000000E+000
  0.000000000000000E+000
  0.000000000000000E+000
  0.000000000000000E+000
  0.000000000000000E+000
  0.000000000000000E+000
  0.000000000000000E+000
  0.000000000000000E+000
  0.000000000000000E+000
  0.000000000000000E+000
  0.000000000000000E+000
  0.000000000000000E+000
  0.000000000000000E+000
  0.000000000000000E+000
  0.000000000000000E+000
  0.000000000000000E+000
  0.000000000000000E+000
  0.000000000000000E+000
  0.000000000000000E+000
  0.000000000000000E+000
  0.000000000000000E+000
  0.000000000000000E+000
  0.000000000000000E+000
  0.000000000000000E+000
  0.000000000000000E+000
  0.000000000000000E+000
  0.000000000000000E+000
  0.000000000000000E+000
  0.000000000000000E+000
  0.000000000000000E+000
  0.000000000000000E+000
  0.000000000000000E+000
  0.000000000000000E+000
  0.000000000000000E+000
  0.000000000000000E+000
  0.000000000000000E+000
  0.000000000000000E+000
  0.000000000000000E+000
  0.000000000000000E+000
  0.000000000000000E+000
  0.000000000000000E+000
  0.000000000000000E+000
  0.000000000000000E+000
  0.000000000000000E+000
  0.000000000000000E+000
  0.000000000000000E+000
  0.000000000000000E+000
  0.000000000000000E+000
  0.000000000000000E+000
  0.000000000000000E+000
  0.000000000000000E+000
  0.000000000000000E+000
  0.000000000000000E+000
  0.000000000000000E+000
  0.000000000000000E+000
  0.000000000000000E+000
  0.000000000000000E+000
  0.000000000000000E+000
  0.000000000000000E+000
  0.000000000000000E+000
  0.000000000000000E+000
  0.000000000000000E+000
  0.000000000000000E+000
  0.000000000000000E+000
  0.000000000000000E+000
  0.000000000000000E+000
  0.000000000000000E+000
  0.000000000000000E+000
  0.000000000000000E+000
  0.000000000000000E+000
  0.000000000000000E+000
  0.000000000000000E+000
  0.000000000000000E+000
  0.000000000000000E+000
  0.000000000000000E+000
  0.000000000000000E+000
  0.000000000000000E+000
  0.000000000000000E+000
  0.000000000000000E+000
  0.000000000000000E+000
  0.000000000000000E+000
  0.000000000000000E+000
  0.000000000000000E+000
  0.000000000000000E+000
  0.000000000000000E+000
  0.000000000000000E+000
  0.000000000000000E+000
  0.000000000000000E+000
  0.000000000000000E+000
  0.000000000000000E+000
  0.000000000000000E+000
  0.000000000000000E+000
  0.000000000000000E+000
  0.000000000000000E+000
  0.000000000000000E+000
  0.000000000000000E+000
  0.000000000000000E+000
  0.000000000000000E+000
  0.000000000000000E+000
  0.000000000000000E+000
  0.000000000000000E+000
  0.000000000000000E+000
  0.000000000000000E+000
  0.000000000000000E+000
  0.000000000000000E+000
  0.000000000000000E+000
  0.000000000000000E+000
  0.000000000000000E+000
  0.000000000000000E+000
  0.000000000000000E+000
  0.000000000000000E+000
  0.000000000000000E+000
  0.000000000000000E+000
  0.000000000000000E+000
  0.000000000000000E+000
  0.000000000000000E+000
  0.000000000000000E+000
  0.000000000000000E+000
  0.000000000000000E+000
  0.000000000000000E+000
  0.000000000000000E+000
  0.000000000000000E+000
  0.000000000000000E+000
  0.000000000000000E+000
  0.000000000000000E+000
  0.000000000000000E+000
  0.000000000000000E+000
  0.000000000000000E+000
  0.000000000000000E+000
  0.000000000000000E+000
  0.000000000000000E+000
  0.000000000000000E+000
  0.000000000000000E+000
  0.000000000000000E+000
  0.000000000000000E+000
  0.000000000000000E+000
  0.000000000000000E+000
  0.000000000000000E+000
  0.000000000000000E+000
  0.000000000000000E+000
  0.000000000000000E+000
  0.000000000000000E+000
  0.000000000000000E+000
  0.000000000000000E+000
  0.000000000000000E+000
  0.000000000000000E+000
  0.000000000000000E+000
  0.000000000000000E+000
  0.000000000000000E+000
  0.000000000000000E+000
  0.000000000000000E+000
  0.000000000000000E+000
  0.000000000000000E+000
  0.000000000000000E+000
  0.000000000000000E+000
  0.000000000000000E+000
  0.000000000000000E+000
  0.000000000000000E+000
  0.000000000000000E+000
  0.000000000000000E+000
  0.000000000000000E+000
  0.000000000000000E+000
  0.000000000000000E+000
  0.000000000000000E+000
  0.000000000000000E+000
  0.000000000000000E+000
  0.000000000000000E+000
  0.000000000000000E+000
  0.000000000000000E+000
  0.000000000000000E+000
  0.000000000000000E+000
  0.000000000000000E+000
  0.000000000000000E+000
  0.000000000000000E+000
  0.000000000000000E+000
  0.000000000000000E+000
  0.000000000000000E+000
  0.000000000000000E+000
  0.000000000000000E+000
  0.000000000000000E+000
  0.000000000000000E+000
  0.000000000000000E+000
  0.000000000000000E+000
  0.000000000000000E+000
  0.000000000000000E+000
  0.000000000000000E+000
  0.000000000000000E+000
  0.000000000000000E+000
  0.000000000000000E+000
  0.000000000000000E+000
  0.000000000000000E+000
  0.000000000000000E+000
  0.000000000000000E+000
  0.000000000000000E+000
  0.000000000000000E+000
  0.000000000000000E+000
  0.000000000000000E+000
  0.000000000000000E+000
  0.000000000000000E+000
  0.000000000000000E+000
  0.000000000000000E+000
  0.000000000000000E+000
  0.000000000000000E+000
  0.000000000000000E+000
  0.000000000000000E+000
  0.000000000000000E+000
  0.000000000000000E+000
  0.000000000000000E+000
  0.000000000000000E+000
  0.000000000000000E+000
  0.000000000000000E+000
  0.000000000000000E+000
  0.000000000000000E+000
  0.000000000000000E+000
  0.000000000000000E+000
  0.000000000000000E+000
  0.000000000000000E+000
  0.000000000000000E+000
  0.000000000000000E+000
  0.000000000000000E+000
  0.000000000000000E+000
  0.000000000000000E+000
  0.000000000000000E+000
  0.000000000000000E+000
  0.000000000000000E+000
  0.000000000000000E+000
  0.000000000000000E+000
  0.000000000000000E+000
  0.000000000000000E+000
  0.000000000000000E+000
  0.000000000000000E+000
  0.000000000000000E+000
  0.000000000000000E+000
  0.000000000000000E+000
  0.000000000000000E+000
  0.000000000000000E+000
  0.000000000000000E+000
  0.000000000000000E+000
  0.000000000000000E+000
  0.000000000000000E+000
  0.000000000000000E+000
  0.000000000000000E+000
  0.000000000000000E+000
  0.000000000000000E+000
  0.000000000000000E+000
  0.000000000000000E+000
  0.000000000000000E+000
  0.000000000000000E+000
  0.000000000000000E+000
  0.000000000000000E+000
  0.000000000000000E+000
  0.000000000000000E+000
  0.000000000000000E+000
  0.000000000000000E+000
  0.000000000000000E+000
  0.000000000000000E+000
  0.000000000000000E+000
  0.000000000000000E+000
  0.000000000000000E+000
  0.000000000000000E+000
  0.000000000000000E+000
  0.000000000000000E+000
  0.000000000000000E+000
  0.000000000000000E+000
  0.000000000000000E+000
  0.000000000000000E+000
  0.000000000000000E+000
  0.000000000000000E+000
  0.000000000000000E+000
  0.000000000000000E+000
  0.000000000000000E+000
  0.000000000000000E+000
  0.000000000000000E+000
  0.000000000000000E+000
  0.000000000000000E+000
  0.000000000000000E+000
  0.000000000000000E+000
  0.000000000000000E+000
  0.000000000000000E+000
  0.000000000000000E+000
  0.000000000000000E+000
  0.000000000000000E+000
  0.000000000000000E+000
  0.000000000000000E+000
  0.000000000000000E+000
  0.000000000000000E+000
  0.000000000000000E+000
  0.000000000000000E+000
  0.000000000000000E+000
  0.000000000000000E+000
  0.000000000000000E+000
  0.000000000000000E+000
SCALARS poroL double 
LOOKUP_TABLE default
  0.325692751455014     
  0.320083167186771     
  0.315768995581132     
  0.312188477827511     
  0.309116882114897     
  0.306421894308755     
  0.304015418152872     
  0.301832085650827     
  0.299818593138878     
  0.297926826317718     
  0.296107878413221     
  0.294304533662568     
  0.292436801393803     
  0.290371336025218     
  0.287714021419959     
  0.321158763453859     
  0.316518393584671     
  0.312477934072409     
  0.309019385029530     
  0.306002940670319     
  0.303332059553391     
  0.300933972093530     
  0.298751535950546     
  0.296736703250301     
  0.294845828184545     
  0.293035539583723     
  0.291257974992256     
  0.289456473627801     
  0.287549150512732     
  0.285618611843981     
  0.316066057167273     
  0.312214075376437     
  0.308647469419293     
  0.305438202606289     
  0.302568899146925     
  0.299989569306226     
  0.297652443948735     
  0.295514692311718     
  0.293538060192305     
  0.291687380542752     
  0.289929151134409     
  0.288231289253214     
  0.286564525632010     
  0.284934509811125     
  0.283389385705021     
  0.310821881867969     
  0.307556208518082     
  0.304432966015998     
  0.301525994152717     
  0.298857551124376     
  0.296417622908126     
  0.294182487861540     
  0.292125357353948     
  0.290219709837013     
  0.288440644126355     
  0.286765945309339     
  0.285178151766900     
  0.283672240048303     
  0.282263157249713     
  0.280996529281851     
  0.305533220110058     
  0.302723260016566     
  0.299980172538389     
  0.297368087835794     
  0.294920421258159     
  0.292646426163073     
  0.290540528629217     
  0.288589902830976     
  0.286779259056116     
  0.285093655888080     
  0.283520845829023     
  0.282054531385518     
  0.280698349358410     
  0.279470720071094     
  0.278406544494054     
  0.300248098485573     
  0.297801213252642     
  0.295378967183883     
  0.293035443327283     
  0.290805459822562     
  0.288706726390154     
  0.286744423367585     
  0.284916069607679     
  0.283215526360954     
  0.281636092627791     
  0.280173183151433     
  0.278826976655764     
  0.277605165193883     
  0.276524964251645     
  0.275613604357972     
  0.294989782676193     
  0.292835832368958     
  0.290683049702284     
  0.288577144102117     
  0.286550959557920     
  0.284625189764515     
  0.282810740029589     
  0.281111766931295     
  0.279528674493702     
  0.278060781997749     
  0.276708677734627     
  0.275476334805751     
  0.274372849985869     
  0.273413492192311     
  0.272619548822584     
  0.289768073018667     
  0.287850913408194     
  0.285923535604926     
  0.284024660796784     
  0.282183951563421     
  0.280422272498396     
  0.278753015813575     
  0.277184047552769     
  0.275719854828693     
  0.274363624542813     
  0.273119124825580     
  0.271992300033317     
  0.270992451757171     
  0.270132796259396     
  0.269430200684280     
  0.284583031761816     
  0.282856199874198     
  0.281116345594576     
  0.279396092119092     
  0.277721408701673     
  0.276111760197124     
  0.274580933904035     
  0.273138337253899     
  0.271790524865240     
  0.270542751739695     
  0.269400403055855     
  0.268370181670418     
  0.267460932168085     
  0.266683977338100     
  0.266052864807348     
  0.279426573732269     
  0.277851053402503     
  0.276266257198983     
  0.274699180051159     
  0.273171788065317     
  0.271701163504671     
  0.270300079965960     
  0.268977908559148     
  0.267741714634831     
  0.266597402766643     
  0.265550784593915     
  0.264608460576832     
  0.263778418284688     
  0.263070262982646     
  0.262495024769139     
  0.274283178149223     
  0.272826326565873     
  0.271369180883932     
  0.269933281428885     
  0.268536319042495     
  0.267192299924137     
  0.265911983997927     
  0.264703547328446     
  0.263573385150355     
  0.262526959691891     
  0.261569598911726     
  0.260707160726302     
  0.259946488473187     
  0.259295598908994     
  0.258763566813897     
  0.269130235450101     
  0.267765376610654     
  0.266413486749558     
  0.265090630913366     
  0.263809945393630     
  0.262581819305805     
  0.261414250466487     
  0.260313349529890     
  0.259283941989739     
  0.258330205243963     
  0.257456275377051     
  0.256666762260455     
  0.255967119803204     
  0.255363830158203     
  0.254864376626125     
  0.263938229605719     
  0.262644644446419     
  0.261380800302632     
  0.260157146857520     
  0.258981975248100     
  0.257861605967472     
  0.256800688131612     
  0.255802595028303     
  0.254869885191528     
  0.254004789560310     
  0.253209682811678     
  0.252487499042297     
  0.251842057141956     
  0.251278268618189     
  0.250802209734785     
  0.258670839858401     
  0.257433994829196     
  0.256246485333179     
  0.255112939133634     
  0.254036508579608     
  0.253019054619496     
  0.252061402076491     
  0.251163655127363     
  0.250325554061607     
  0.249546850995850     
  0.248827682207513     
  0.248168916745529     
  0.247572463824961     
  0.247041524508309     
  0.246580775921208     
  0.253284986568499     
  0.252096904577123     
  0.250979922478119     
  0.249932609673221     
  0.248952692748086     
  0.248037229525639     
  0.247182827811746     
  0.246385896518755     
  0.245642917151227     
  0.244950727047658     
  0.244306810048972     
  0.243709593584405     
  0.243158752418010     
  0.242655518101841     
  0.242202989667546     
  0.247730807902817     
  0.246590522479982     
  0.245544626327484     
  0.244585387115139     
  0.243704830951283     
  0.242894908977304     
  0.242147687641232     
  0.241455543417016     
  0.240811353531956     
  0.240208687059878     
  0.239642011445603     
  0.239106935486956     
  0.238600509892619     
  0.238121600906302     
  0.237671342138468     
  0.241951518247780     
  0.240865578028835     
  0.239898197202332     
  0.239035099118276     
  0.238262343315331     
  0.237566503034266     
  0.236934841416871     
  0.236355453087840     
  0.235817364295382     
  0.235310611361497     
  0.234826337209497     
  0.234356955594012     
  0.233896431478947     
  0.233440714885439     
  0.232988346752035     
  0.235883053714426     
  0.234866070408209     
  0.233992062853876     
  0.233239953260276     
  0.232589556670398     
  0.232021815792981     
  0.231518990791531     
  0.231064747575682     
  0.230644139793434     
  0.230243526982208     
  0.229850504310435     
  0.229453933929423     
  0.229044164460371     
  0.228613506226997     
  0.228156999590094     
  0.229453343285405     
  0.228528612991314     
  0.227770921317703     
  0.227152064890028     
  0.226645275151216     
  0.226225604273009     
  0.225870177826571     
  0.225558224347349     
  0.225270884907710     
  0.224990883802471     
  0.224702190832765     
  0.224389824338921     
  0.224039935669209     
  0.223640285490630     
  0.223181175557044     
  0.222580939899958     
  0.221781229292023     
  0.221171740395218     
  0.220716632477735     
  0.220382056178751     
  0.220136861171039     
  0.219952991298192     
  0.219805435517330     
  0.219671765311757     
  0.219531410087260     
  0.219364887880975     
  0.219153226095840     
  0.218877789232877     
  0.218520684680404     
  0.218065848355515     
  0.215172576067806     
  0.214541274713760     
  0.214122089613032     
  0.213870610222253     
  0.213745078057857     
  0.213707709620014     
  0.213725346604700     
  0.213769267386120     
  0.213814269931939     
  0.213837310492132     
  0.213816049309949     
  0.213727654705113     
  0.213548183180405     
  0.213252795910025     
  0.212816973021350     
  0.207118919270668     
  0.206711957414891     
  0.206537456146890     
  0.206540649028757     
  0.206670420492434     
  0.206881723345059     
  0.207136612350061     
  0.207403743185583     
  0.207656664468981     
  0.207871439840466     
  0.208024142952961     
  0.208088706220678     
  0.208035562775790     
  0.207831469207421     
  0.207440797898684     
  0.198287269427823     
  0.198176578099489     
  0.198316980814914     
  0.198639940332030     
  0.199082447518535     
  0.199591320984766     
  0.200124657902234     
  0.200650555065594     
  0.201143989596093     
  0.201582861441987     
  0.201943969790808     
  0.202199466375806     
  0.202314295269190     
  0.202245263935782     
  0.201942264628770     
  0.188508903462020     
  0.188788902179147     
  0.189336663389881     
  0.190063319481364     
  0.190889677665441     
  0.191753489996889     
  0.192610938043240     
  0.193433380856123     
  0.194201641255624     
  0.194899795458278     
  0.195509208029405     
  0.196003060808291     
  0.196341920096141     
  0.196471193119395     
  0.196321983315500     
  0.177556309130868     
  0.178356703360761     
  0.179438218349320     
  0.180679389704744     
  0.181977752873613     
  0.183262047692606     
  0.184491664669271     
  0.185648055059907     
  0.186724747550224     
  0.187718259013353     
  0.188620341255500     
  0.189410428732831     
  0.190047721484967     
  0.190465713126940     
  0.190570907967315     
  0.165100398573411     
  0.166611422519911     
  0.168410240350301     
  0.170316829527546     
  0.172195677090693     
  0.173972038454916     
  0.175620287790514     
  0.177144523918501     
  0.178559918652627     
  0.179883156158372     
  0.181124867753805     
  0.182279378670424     
  0.183312950485836     
  0.184148439155474     
  0.184661250216643     
  0.150615095964001     
  0.153151009502268     
  0.155952512706503     
  0.158736250752619     
  0.161325503655888     
  0.163662367560668     
  0.165770327023031     
  0.167691358028979     
  0.169471748791204     
  0.171155907472553     
  0.172782650177485     
  0.174378757000461     
  0.175932420378185     
  0.177372355697787     
  0.178529069530390     
  0.133170826798517     
  0.137290599246238     
  0.141600276657394     
  0.145570227483140     
  0.148983948485994     
  0.151943002136774     
  0.154549966831072     
  0.156899507880814     
  0.159074735223825     
  0.161152232115492     
  0.163207109716130     
  0.165314293387539     
  0.167546323503434     
  0.169849671766730     
  0.172045237915977     
  0.110414132832469     
  0.117702932961290     
  0.124614648103303     
  0.129961871596590     
  0.134324311372255     
  0.137994469647269     
  0.141180621715420     
  0.144032219809420     
  0.146669307848625     
  0.149200450113717     
  0.151738349155644     
  0.154418767964927     
  0.157418497206557     
  0.161037913144917     
  0.164894546868974     
  7.291461653034811E-002
  9.121474598771545E-002
  0.101488084765160     
  0.108953502205148     
  0.114794070469759     
  0.119607412691176     
  0.123728097276840     
  0.127377682676160     
  0.130723005311899     
  0.133909634568087     
  0.137088139453549     
  0.140445994261450     
  0.144271580808266     
  0.149085350276734     
  0.156674981505046     
