# vtk DataFile Version 3.0
vtk output
ASCII
DATASET UNSTRUCTURED_GRID
POINTS       496 double 
  0.00000000E+00  3.00000000E+02  0.00000000E+00
  0.00000000E+00  2.80000000E+02  0.00000000E+00
  0.00000000E+00  2.60000000E+02  0.00000000E+00
  0.00000000E+00  2.40000000E+02  0.00000000E+00
  0.00000000E+00  2.20000000E+02  0.00000000E+00
  0.00000000E+00  2.00000000E+02  0.00000000E+00
  0.00000000E+00  1.80000000E+02  0.00000000E+00
  0.00000000E+00  1.60000000E+02  0.00000000E+00
  0.00000000E+00  1.40000000E+02  0.00000000E+00
  0.00000000E+00  1.20000000E+02  0.00000000E+00
  0.00000000E+00  1.00000000E+02  0.00000000E+00
  0.00000000E+00  8.00000000E+01  0.00000000E+00
  0.00000000E+00  6.00000000E+01  0.00000000E+00
  0.00000000E+00  4.00000000E+01  0.00000000E+00
  0.00000000E+00  2.00000000E+01  0.00000000E+00
  0.00000000E+00  4.99600361E-14  0.00000000E+00
  2.00000000E+01  3.00000000E+02  0.00000000E+00
  2.00000000E+01  2.80000000E+02  0.00000000E+00
  2.00000000E+01  2.60000000E+02  0.00000000E+00
  2.00000000E+01  2.40000000E+02  0.00000000E+00
  2.00000000E+01  2.20000000E+02  0.00000000E+00
  2.00000000E+01  2.00000000E+02  0.00000000E+00
  2.00000000E+01  1.80000000E+02  0.00000000E+00
  2.00000000E+01  1.60000000E+02  0.00000000E+00
  2.00000000E+01  1.40000000E+02  0.00000000E+00
  2.00000000E+01  1.20000000E+02  0.00000000E+00
  2.00000000E+01  1.00000000E+02  0.00000000E+00
  2.00000000E+01  8.00000000E+01  0.00000000E+00
  2.00000000E+01  6.00000000E+01  0.00000000E+00
  2.00000000E+01  4.00000000E+01  0.00000000E+00
  2.00000000E+01  2.00000000E+01  0.00000000E+00
  2.00000000E+01  4.99600361E-14  0.00000000E+00
  4.00000000E+01  3.00000000E+02  0.00000000E+00
  4.00000000E+01  2.80000000E+02  0.00000000E+00
  4.00000000E+01  2.60000000E+02  0.00000000E+00
  4.00000000E+01  2.40000000E+02  0.00000000E+00
  4.00000000E+01  2.20000000E+02  0.00000000E+00
  4.00000000E+01  2.00000000E+02  0.00000000E+00
  4.00000000E+01  1.80000000E+02  0.00000000E+00
  4.00000000E+01  1.60000000E+02  0.00000000E+00
  4.00000000E+01  1.40000000E+02  0.00000000E+00
  4.00000000E+01  1.20000000E+02  0.00000000E+00
  4.00000000E+01  1.00000000E+02  0.00000000E+00
  4.00000000E+01  8.00000000E+01  0.00000000E+00
  4.00000000E+01  6.00000000E+01  0.00000000E+00
  4.00000000E+01  4.00000000E+01  0.00000000E+00
  4.00000000E+01  2.00000000E+01  0.00000000E+00
  4.00000000E+01  4.99600361E-14  0.00000000E+00
  6.00000000E+01  3.00000000E+02  0.00000000E+00
  6.00000000E+01  2.80000000E+02  0.00000000E+00
  6.00000000E+01  2.60000000E+02  0.00000000E+00
  6.00000000E+01  2.40000000E+02  0.00000000E+00
  6.00000000E+01  2.20000000E+02  0.00000000E+00
  6.00000000E+01  2.00000000E+02  0.00000000E+00
  6.00000000E+01  1.80000000E+02  0.00000000E+00
  6.00000000E+01  1.60000000E+02  0.00000000E+00
  6.00000000E+01  1.40000000E+02  0.00000000E+00
  6.00000000E+01  1.20000000E+02  0.00000000E+00
  6.00000000E+01  1.00000000E+02  0.00000000E+00
  6.00000000E+01  8.00000000E+01  0.00000000E+00
  6.00000000E+01  6.00000000E+01  0.00000000E+00
  6.00000000E+01  4.00000000E+01  0.00000000E+00
  6.00000000E+01  2.00000000E+01  0.00000000E+00
  6.00000000E+01  4.99600361E-14  0.00000000E+00
  8.00000000E+01  3.00000000E+02  0.00000000E+00
  8.00000000E+01  2.80000000E+02  0.00000000E+00
  8.00000000E+01  2.60000000E+02  0.00000000E+00
  8.00000000E+01  2.40000000E+02  0.00000000E+00
  8.00000000E+01  2.20000000E+02  0.00000000E+00
  8.00000000E+01  2.00000000E+02  0.00000000E+00
  8.00000000E+01  1.80000000E+02  0.00000000E+00
  8.00000000E+01  1.60000000E+02  0.00000000E+00
  8.00000000E+01  1.40000000E+02  0.00000000E+00
  8.00000000E+01  1.20000000E+02  0.00000000E+00
  8.00000000E+01  1.00000000E+02  0.00000000E+00
  8.00000000E+01  8.00000000E+01  0.00000000E+00
  8.00000000E+01  6.00000000E+01  0.00000000E+00
  8.00000000E+01  4.00000000E+01  0.00000000E+00
  8.00000000E+01  2.00000000E+01  0.00000000E+00
  8.00000000E+01  4.99600361E-14  0.00000000E+00
  1.00000000E+02  3.00000000E+02  0.00000000E+00
  1.00000000E+02  2.80000000E+02  0.00000000E+00
  1.00000000E+02  2.60000000E+02  0.00000000E+00
  1.00000000E+02  2.40000000E+02  0.00000000E+00
  1.00000000E+02  2.20000000E+02  0.00000000E+00
  1.00000000E+02  2.00000000E+02  0.00000000E+00
  1.00000000E+02  1.80000000E+02  0.00000000E+00
  1.00000000E+02  1.60000000E+02  0.00000000E+00
  1.00000000E+02  1.40000000E+02  0.00000000E+00
  1.00000000E+02  1.20000000E+02  0.00000000E+00
  1.00000000E+02  1.00000000E+02  0.00000000E+00
  1.00000000E+02  8.00000000E+01  0.00000000E+00
  1.00000000E+02  6.00000000E+01  0.00000000E+00
  1.00000000E+02  4.00000000E+01  0.00000000E+00
  1.00000000E+02  2.00000000E+01  0.00000000E+00
  1.00000000E+02  4.99600361E-14  0.00000000E+00
  1.20000000E+02  3.00000000E+02  0.00000000E+00
  1.20000000E+02  2.80000000E+02  0.00000000E+00
  1.20000000E+02  2.60000000E+02  0.00000000E+00
  1.20000000E+02  2.40000000E+02  0.00000000E+00
  1.20000000E+02  2.20000000E+02  0.00000000E+00
  1.20000000E+02  2.00000000E+02  0.00000000E+00
  1.20000000E+02  1.80000000E+02  0.00000000E+00
  1.20000000E+02  1.60000000E+02  0.00000000E+00
  1.20000000E+02  1.40000000E+02  0.00000000E+00
  1.20000000E+02  1.20000000E+02  0.00000000E+00
  1.20000000E+02  1.00000000E+02  0.00000000E+00
  1.20000000E+02  8.00000000E+01  0.00000000E+00
  1.20000000E+02  6.00000000E+01  0.00000000E+00
  1.20000000E+02  4.00000000E+01  0.00000000E+00
  1.20000000E+02  2.00000000E+01  0.00000000E+00
  1.20000000E+02  4.99600361E-14  0.00000000E+00
  1.40000000E+02  3.00000000E+02  0.00000000E+00
  1.40000000E+02  2.80000000E+02  0.00000000E+00
  1.40000000E+02  2.60000000E+02  0.00000000E+00
  1.40000000E+02  2.40000000E+02  0.00000000E+00
  1.40000000E+02  2.20000000E+02  0.00000000E+00
  1.40000000E+02  2.00000000E+02  0.00000000E+00
  1.40000000E+02  1.80000000E+02  0.00000000E+00
  1.40000000E+02  1.60000000E+02  0.00000000E+00
  1.40000000E+02  1.40000000E+02  0.00000000E+00
  1.40000000E+02  1.20000000E+02  0.00000000E+00
  1.40000000E+02  1.00000000E+02  0.00000000E+00
  1.40000000E+02  8.00000000E+01  0.00000000E+00
  1.40000000E+02  6.00000000E+01  0.00000000E+00
  1.40000000E+02  4.00000000E+01  0.00000000E+00
  1.40000000E+02  2.00000000E+01  0.00000000E+00
  1.40000000E+02  4.99600361E-14  0.00000000E+00
  1.60000000E+02  3.00000000E+02  0.00000000E+00
  1.60000000E+02  2.80000000E+02  0.00000000E+00
  1.60000000E+02  2.60000000E+02  0.00000000E+00
  1.60000000E+02  2.40000000E+02  0.00000000E+00
  1.60000000E+02  2.20000000E+02  0.00000000E+00
  1.60000000E+02  2.00000000E+02  0.00000000E+00
  1.60000000E+02  1.80000000E+02  0.00000000E+00
  1.60000000E+02  1.60000000E+02  0.00000000E+00
  1.60000000E+02  1.40000000E+02  0.00000000E+00
  1.60000000E+02  1.20000000E+02  0.00000000E+00
  1.60000000E+02  1.00000000E+02  0.00000000E+00
  1.60000000E+02  8.00000000E+01  0.00000000E+00
  1.60000000E+02  6.00000000E+01  0.00000000E+00
  1.60000000E+02  4.00000000E+01  0.00000000E+00
  1.60000000E+02  2.00000000E+01  0.00000000E+00
  1.60000000E+02  4.99600361E-14  0.00000000E+00
  1.80000000E+02  3.00000000E+02  0.00000000E+00
  1.80000000E+02  2.80000000E+02  0.00000000E+00
  1.80000000E+02  2.60000000E+02  0.00000000E+00
  1.80000000E+02  2.40000000E+02  0.00000000E+00
  1.80000000E+02  2.20000000E+02  0.00000000E+00
  1.80000000E+02  2.00000000E+02  0.00000000E+00
  1.80000000E+02  1.80000000E+02  0.00000000E+00
  1.80000000E+02  1.60000000E+02  0.00000000E+00
  1.80000000E+02  1.40000000E+02  0.00000000E+00
  1.80000000E+02  1.20000000E+02  0.00000000E+00
  1.80000000E+02  1.00000000E+02  0.00000000E+00
  1.80000000E+02  8.00000000E+01  0.00000000E+00
  1.80000000E+02  6.00000000E+01  0.00000000E+00
  1.80000000E+02  4.00000000E+01  0.00000000E+00
  1.80000000E+02  2.00000000E+01  0.00000000E+00
  1.80000000E+02  4.99600361E-14  0.00000000E+00
  2.00000000E+02  3.00000000E+02  0.00000000E+00
  2.00000000E+02  2.80000000E+02  0.00000000E+00
  2.00000000E+02  2.60000000E+02  0.00000000E+00
  2.00000000E+02  2.40000000E+02  0.00000000E+00
  2.00000000E+02  2.20000000E+02  0.00000000E+00
  2.00000000E+02  2.00000000E+02  0.00000000E+00
  2.00000000E+02  1.80000000E+02  0.00000000E+00
  2.00000000E+02  1.60000000E+02  0.00000000E+00
  2.00000000E+02  1.40000000E+02  0.00000000E+00
  2.00000000E+02  1.20000000E+02  0.00000000E+00
  2.00000000E+02  1.00000000E+02  0.00000000E+00
  2.00000000E+02  8.00000000E+01  0.00000000E+00
  2.00000000E+02  6.00000000E+01  0.00000000E+00
  2.00000000E+02  4.00000000E+01  0.00000000E+00
  2.00000000E+02  2.00000000E+01  0.00000000E+00
  2.00000000E+02  4.99600361E-14  0.00000000E+00
  2.20000000E+02  3.00000000E+02  0.00000000E+00
  2.20000000E+02  2.80000000E+02  0.00000000E+00
  2.20000000E+02  2.60000000E+02  0.00000000E+00
  2.20000000E+02  2.40000000E+02  0.00000000E+00
  2.20000000E+02  2.20000000E+02  0.00000000E+00
  2.20000000E+02  2.00000000E+02  0.00000000E+00
  2.20000000E+02  1.80000000E+02  0.00000000E+00
  2.20000000E+02  1.60000000E+02  0.00000000E+00
  2.20000000E+02  1.40000000E+02  0.00000000E+00
  2.20000000E+02  1.20000000E+02  0.00000000E+00
  2.20000000E+02  1.00000000E+02  0.00000000E+00
  2.20000000E+02  8.00000000E+01  0.00000000E+00
  2.20000000E+02  6.00000000E+01  0.00000000E+00
  2.20000000E+02  4.00000000E+01  0.00000000E+00
  2.20000000E+02  2.00000000E+01  0.00000000E+00
  2.20000000E+02  4.99600361E-14  0.00000000E+00
  2.40000000E+02  3.00000000E+02  0.00000000E+00
  2.40000000E+02  2.80000000E+02  0.00000000E+00
  2.40000000E+02  2.60000000E+02  0.00000000E+00
  2.40000000E+02  2.40000000E+02  0.00000000E+00
  2.40000000E+02  2.20000000E+02  0.00000000E+00
  2.40000000E+02  2.00000000E+02  0.00000000E+00
  2.40000000E+02  1.80000000E+02  0.00000000E+00
  2.40000000E+02  1.60000000E+02  0.00000000E+00
  2.40000000E+02  1.40000000E+02  0.00000000E+00
  2.40000000E+02  1.20000000E+02  0.00000000E+00
  2.40000000E+02  1.00000000E+02  0.00000000E+00
  2.40000000E+02  8.00000000E+01  0.00000000E+00
  2.40000000E+02  6.00000000E+01  0.00000000E+00
  2.40000000E+02  4.00000000E+01  0.00000000E+00
  2.40000000E+02  2.00000000E+01  0.00000000E+00
  2.40000000E+02  4.99600361E-14  0.00000000E+00
  2.60000000E+02  3.00000000E+02  0.00000000E+00
  2.60000000E+02  2.80000000E+02  0.00000000E+00
  2.60000000E+02  2.60000000E+02  0.00000000E+00
  2.60000000E+02  2.40000000E+02  0.00000000E+00
  2.60000000E+02  2.20000000E+02  0.00000000E+00
  2.60000000E+02  2.00000000E+02  0.00000000E+00
  2.60000000E+02  1.80000000E+02  0.00000000E+00
  2.60000000E+02  1.60000000E+02  0.00000000E+00
  2.60000000E+02  1.40000000E+02  0.00000000E+00
  2.60000000E+02  1.20000000E+02  0.00000000E+00
  2.60000000E+02  1.00000000E+02  0.00000000E+00
  2.60000000E+02  8.00000000E+01  0.00000000E+00
  2.60000000E+02  6.00000000E+01  0.00000000E+00
  2.60000000E+02  4.00000000E+01  0.00000000E+00
  2.60000000E+02  2.00000000E+01  0.00000000E+00
  2.60000000E+02  4.99600361E-14  0.00000000E+00
  2.80000000E+02  3.00000000E+02  0.00000000E+00
  2.80000000E+02  2.80000000E+02  0.00000000E+00
  2.80000000E+02  2.60000000E+02  0.00000000E+00
  2.80000000E+02  2.40000000E+02  0.00000000E+00
  2.80000000E+02  2.20000000E+02  0.00000000E+00
  2.80000000E+02  2.00000000E+02  0.00000000E+00
  2.80000000E+02  1.80000000E+02  0.00000000E+00
  2.80000000E+02  1.60000000E+02  0.00000000E+00
  2.80000000E+02  1.40000000E+02  0.00000000E+00
  2.80000000E+02  1.20000000E+02  0.00000000E+00
  2.80000000E+02  1.00000000E+02  0.00000000E+00
  2.80000000E+02  8.00000000E+01  0.00000000E+00
  2.80000000E+02  6.00000000E+01  0.00000000E+00
  2.80000000E+02  4.00000000E+01  0.00000000E+00
  2.80000000E+02  2.00000000E+01  0.00000000E+00
  2.80000000E+02  4.99600361E-14  0.00000000E+00
  3.00000000E+02  3.00000000E+02  0.00000000E+00
  3.00000000E+02  2.80000000E+02  0.00000000E+00
  3.00000000E+02  2.60000000E+02  0.00000000E+00
  3.00000000E+02  2.40000000E+02  0.00000000E+00
  3.00000000E+02  2.20000000E+02  0.00000000E+00
  3.00000000E+02  2.00000000E+02  0.00000000E+00
  3.00000000E+02  1.80000000E+02  0.00000000E+00
  3.00000000E+02  1.60000000E+02  0.00000000E+00
  3.00000000E+02  1.40000000E+02  0.00000000E+00
  3.00000000E+02  1.20000000E+02  0.00000000E+00
  3.00000000E+02  1.00000000E+02  0.00000000E+00
  3.00000000E+02  8.00000000E+01  0.00000000E+00
  3.00000000E+02  6.00000000E+01  0.00000000E+00
  3.00000000E+02  4.00000000E+01  0.00000000E+00
  3.00000000E+02  2.00000000E+01  0.00000000E+00
  3.00000000E+02  4.99600361E-14  0.00000000E+00
  3.20000000E+02  3.00000000E+02  0.00000000E+00
  3.20000000E+02  2.80000000E+02  0.00000000E+00
  3.20000000E+02  2.60000000E+02  0.00000000E+00
  3.20000000E+02  2.40000000E+02  0.00000000E+00
  3.20000000E+02  2.20000000E+02  0.00000000E+00
  3.20000000E+02  2.00000000E+02  0.00000000E+00
  3.20000000E+02  1.80000000E+02  0.00000000E+00
  3.20000000E+02  1.60000000E+02  0.00000000E+00
  3.20000000E+02  1.40000000E+02  0.00000000E+00
  3.20000000E+02  1.20000000E+02  0.00000000E+00
  3.20000000E+02  1.00000000E+02  0.00000000E+00
  3.20000000E+02  8.00000000E+01  0.00000000E+00
  3.20000000E+02  6.00000000E+01  0.00000000E+00
  3.20000000E+02  4.00000000E+01  0.00000000E+00
  3.20000000E+02  2.00000000E+01  0.00000000E+00
  3.20000000E+02  4.99600361E-14  0.00000000E+00
  3.40000000E+02  3.00000000E+02  0.00000000E+00
  3.40000000E+02  2.80000000E+02  0.00000000E+00
  3.40000000E+02  2.60000000E+02  0.00000000E+00
  3.40000000E+02  2.40000000E+02  0.00000000E+00
  3.40000000E+02  2.20000000E+02  0.00000000E+00
  3.40000000E+02  2.00000000E+02  0.00000000E+00
  3.40000000E+02  1.80000000E+02  0.00000000E+00
  3.40000000E+02  1.60000000E+02  0.00000000E+00
  3.40000000E+02  1.40000000E+02  0.00000000E+00
  3.40000000E+02  1.20000000E+02  0.00000000E+00
  3.40000000E+02  1.00000000E+02  0.00000000E+00
  3.40000000E+02  8.00000000E+01  0.00000000E+00
  3.40000000E+02  6.00000000E+01  0.00000000E+00
  3.40000000E+02  4.00000000E+01  0.00000000E+00
  3.40000000E+02  2.00000000E+01  0.00000000E+00
  3.40000000E+02  4.99600361E-14  0.00000000E+00
  3.60000000E+02  3.00000000E+02  0.00000000E+00
  3.60000000E+02  2.80000000E+02  0.00000000E+00
  3.60000000E+02  2.60000000E+02  0.00000000E+00
  3.60000000E+02  2.40000000E+02  0.00000000E+00
  3.60000000E+02  2.20000000E+02  0.00000000E+00
  3.60000000E+02  2.00000000E+02  0.00000000E+00
  3.60000000E+02  1.80000000E+02  0.00000000E+00
  3.60000000E+02  1.60000000E+02  0.00000000E+00
  3.60000000E+02  1.40000000E+02  0.00000000E+00
  3.60000000E+02  1.20000000E+02  0.00000000E+00
  3.60000000E+02  1.00000000E+02  0.00000000E+00
  3.60000000E+02  8.00000000E+01  0.00000000E+00
  3.60000000E+02  6.00000000E+01  0.00000000E+00
  3.60000000E+02  4.00000000E+01  0.00000000E+00
  3.60000000E+02  2.00000000E+01  0.00000000E+00
  3.60000000E+02  4.99600361E-14  0.00000000E+00
  3.80000000E+02  3.00000000E+02  0.00000000E+00
  3.80000000E+02  2.80000000E+02  0.00000000E+00
  3.80000000E+02  2.60000000E+02  0.00000000E+00
  3.80000000E+02  2.40000000E+02  0.00000000E+00
  3.80000000E+02  2.20000000E+02  0.00000000E+00
  3.80000000E+02  2.00000000E+02  0.00000000E+00
  3.80000000E+02  1.80000000E+02  0.00000000E+00
  3.80000000E+02  1.60000000E+02  0.00000000E+00
  3.80000000E+02  1.40000000E+02  0.00000000E+00
  3.80000000E+02  1.20000000E+02  0.00000000E+00
  3.80000000E+02  1.00000000E+02  0.00000000E+00
  3.80000000E+02  8.00000000E+01  0.00000000E+00
  3.80000000E+02  6.00000000E+01  0.00000000E+00
  3.80000000E+02  4.00000000E+01  0.00000000E+00
  3.80000000E+02  2.00000000E+01  0.00000000E+00
  3.80000000E+02  4.99600361E-14  0.00000000E+00
  4.00000000E+02  3.00000000E+02  0.00000000E+00
  4.00000000E+02  2.80000000E+02  0.00000000E+00
  4.00000000E+02  2.60000000E+02  0.00000000E+00
  4.00000000E+02  2.40000000E+02  0.00000000E+00
  4.00000000E+02  2.20000000E+02  0.00000000E+00
  4.00000000E+02  2.00000000E+02  0.00000000E+00
  4.00000000E+02  1.80000000E+02  0.00000000E+00
  4.00000000E+02  1.60000000E+02  0.00000000E+00
  4.00000000E+02  1.40000000E+02  0.00000000E+00
  4.00000000E+02  1.20000000E+02  0.00000000E+00
  4.00000000E+02  1.00000000E+02  0.00000000E+00
  4.00000000E+02  8.00000000E+01  0.00000000E+00
  4.00000000E+02  6.00000000E+01  0.00000000E+00
  4.00000000E+02  4.00000000E+01  0.00000000E+00
  4.00000000E+02  2.00000000E+01  0.00000000E+00
  4.00000000E+02  4.99600361E-14  0.00000000E+00
  4.20000000E+02  3.00000000E+02  0.00000000E+00
  4.20000000E+02  2.80000000E+02  0.00000000E+00
  4.20000000E+02  2.60000000E+02  0.00000000E+00
  4.20000000E+02  2.40000000E+02  0.00000000E+00
  4.20000000E+02  2.20000000E+02  0.00000000E+00
  4.20000000E+02  2.00000000E+02  0.00000000E+00
  4.20000000E+02  1.80000000E+02  0.00000000E+00
  4.20000000E+02  1.60000000E+02  0.00000000E+00
  4.20000000E+02  1.40000000E+02  0.00000000E+00
  4.20000000E+02  1.20000000E+02  0.00000000E+00
  4.20000000E+02  1.00000000E+02  0.00000000E+00
  4.20000000E+02  8.00000000E+01  0.00000000E+00
  4.20000000E+02  6.00000000E+01  0.00000000E+00
  4.20000000E+02  4.00000000E+01  0.00000000E+00
  4.20000000E+02  2.00000000E+01  0.00000000E+00
  4.20000000E+02  4.99600361E-14  0.00000000E+00
  4.40000000E+02  3.00000000E+02  0.00000000E+00
  4.40000000E+02  2.80000000E+02  0.00000000E+00
  4.40000000E+02  2.60000000E+02  0.00000000E+00
  4.40000000E+02  2.40000000E+02  0.00000000E+00
  4.40000000E+02  2.20000000E+02  0.00000000E+00
  4.40000000E+02  2.00000000E+02  0.00000000E+00
  4.40000000E+02  1.80000000E+02  0.00000000E+00
  4.40000000E+02  1.60000000E+02  0.00000000E+00
  4.40000000E+02  1.40000000E+02  0.00000000E+00
  4.40000000E+02  1.20000000E+02  0.00000000E+00
  4.40000000E+02  1.00000000E+02  0.00000000E+00
  4.40000000E+02  8.00000000E+01  0.00000000E+00
  4.40000000E+02  6.00000000E+01  0.00000000E+00
  4.40000000E+02  4.00000000E+01  0.00000000E+00
  4.40000000E+02  2.00000000E+01  0.00000000E+00
  4.40000000E+02  4.99600361E-14  0.00000000E+00
  4.60000000E+02  3.00000000E+02  0.00000000E+00
  4.60000000E+02  2.80000000E+02  0.00000000E+00
  4.60000000E+02  2.60000000E+02  0.00000000E+00
  4.60000000E+02  2.40000000E+02  0.00000000E+00
  4.60000000E+02  2.20000000E+02  0.00000000E+00
  4.60000000E+02  2.00000000E+02  0.00000000E+00
  4.60000000E+02  1.80000000E+02  0.00000000E+00
  4.60000000E+02  1.60000000E+02  0.00000000E+00
  4.60000000E+02  1.40000000E+02  0.00000000E+00
  4.60000000E+02  1.20000000E+02  0.00000000E+00
  4.60000000E+02  1.00000000E+02  0.00000000E+00
  4.60000000E+02  8.00000000E+01  0.00000000E+00
  4.60000000E+02  6.00000000E+01  0.00000000E+00
  4.60000000E+02  4.00000000E+01  0.00000000E+00
  4.60000000E+02  2.00000000E+01  0.00000000E+00
  4.60000000E+02  4.99600361E-14  0.00000000E+00
  4.80000000E+02  3.00000000E+02  0.00000000E+00
  4.80000000E+02  2.80000000E+02  0.00000000E+00
  4.80000000E+02  2.60000000E+02  0.00000000E+00
  4.80000000E+02  2.40000000E+02  0.00000000E+00
  4.80000000E+02  2.20000000E+02  0.00000000E+00
  4.80000000E+02  2.00000000E+02  0.00000000E+00
  4.80000000E+02  1.80000000E+02  0.00000000E+00
  4.80000000E+02  1.60000000E+02  0.00000000E+00
  4.80000000E+02  1.40000000E+02  0.00000000E+00
  4.80000000E+02  1.20000000E+02  0.00000000E+00
  4.80000000E+02  1.00000000E+02  0.00000000E+00
  4.80000000E+02  8.00000000E+01  0.00000000E+00
  4.80000000E+02  6.00000000E+01  0.00000000E+00
  4.80000000E+02  4.00000000E+01  0.00000000E+00
  4.80000000E+02  2.00000000E+01  0.00000000E+00
  4.80000000E+02  4.99600361E-14  0.00000000E+00
  5.00000000E+02  3.00000000E+02  0.00000000E+00
  5.00000000E+02  2.80000000E+02  0.00000000E+00
  5.00000000E+02  2.60000000E+02  0.00000000E+00
  5.00000000E+02  2.40000000E+02  0.00000000E+00
  5.00000000E+02  2.20000000E+02  0.00000000E+00
  5.00000000E+02  2.00000000E+02  0.00000000E+00
  5.00000000E+02  1.80000000E+02  0.00000000E+00
  5.00000000E+02  1.60000000E+02  0.00000000E+00
  5.00000000E+02  1.40000000E+02  0.00000000E+00
  5.00000000E+02  1.20000000E+02  0.00000000E+00
  5.00000000E+02  1.00000000E+02  0.00000000E+00
  5.00000000E+02  8.00000000E+01  0.00000000E+00
  5.00000000E+02  6.00000000E+01  0.00000000E+00
  5.00000000E+02  4.00000000E+01  0.00000000E+00
  5.00000000E+02  2.00000000E+01  0.00000000E+00
  5.00000000E+02  4.99600361E-14  0.00000000E+00
  5.20000000E+02  3.00000000E+02  0.00000000E+00
  5.20000000E+02  2.80000000E+02  0.00000000E+00
  5.20000000E+02  2.60000000E+02  0.00000000E+00
  5.20000000E+02  2.40000000E+02  0.00000000E+00
  5.20000000E+02  2.20000000E+02  0.00000000E+00
  5.20000000E+02  2.00000000E+02  0.00000000E+00
  5.20000000E+02  1.80000000E+02  0.00000000E+00
  5.20000000E+02  1.60000000E+02  0.00000000E+00
  5.20000000E+02  1.40000000E+02  0.00000000E+00
  5.20000000E+02  1.20000000E+02  0.00000000E+00
  5.20000000E+02  1.00000000E+02  0.00000000E+00
  5.20000000E+02  8.00000000E+01  0.00000000E+00
  5.20000000E+02  6.00000000E+01  0.00000000E+00
  5.20000000E+02  4.00000000E+01  0.00000000E+00
  5.20000000E+02  2.00000000E+01  0.00000000E+00
  5.20000000E+02  4.99600361E-14  0.00000000E+00
  5.40000000E+02  3.00000000E+02  0.00000000E+00
  5.40000000E+02  2.80000000E+02  0.00000000E+00
  5.40000000E+02  2.60000000E+02  0.00000000E+00
  5.40000000E+02  2.40000000E+02  0.00000000E+00
  5.40000000E+02  2.20000000E+02  0.00000000E+00
  5.40000000E+02  2.00000000E+02  0.00000000E+00
  5.40000000E+02  1.80000000E+02  0.00000000E+00
  5.40000000E+02  1.60000000E+02  0.00000000E+00
  5.40000000E+02  1.40000000E+02  0.00000000E+00
  5.40000000E+02  1.20000000E+02  0.00000000E+00
  5.40000000E+02  1.00000000E+02  0.00000000E+00
  5.40000000E+02  8.00000000E+01  0.00000000E+00
  5.40000000E+02  6.00000000E+01  0.00000000E+00
  5.40000000E+02  4.00000000E+01  0.00000000E+00
  5.40000000E+02  2.00000000E+01  0.00000000E+00
  5.40000000E+02  4.99600361E-14  0.00000000E+00
  5.60000000E+02  3.00000000E+02  0.00000000E+00
  5.60000000E+02  2.80000000E+02  0.00000000E+00
  5.60000000E+02  2.60000000E+02  0.00000000E+00
  5.60000000E+02  2.40000000E+02  0.00000000E+00
  5.60000000E+02  2.20000000E+02  0.00000000E+00
  5.60000000E+02  2.00000000E+02  0.00000000E+00
  5.60000000E+02  1.80000000E+02  0.00000000E+00
  5.60000000E+02  1.60000000E+02  0.00000000E+00
  5.60000000E+02  1.40000000E+02  0.00000000E+00
  5.60000000E+02  1.20000000E+02  0.00000000E+00
  5.60000000E+02  1.00000000E+02  0.00000000E+00
  5.60000000E+02  8.00000000E+01  0.00000000E+00
  5.60000000E+02  6.00000000E+01  0.00000000E+00
  5.60000000E+02  4.00000000E+01  0.00000000E+00
  5.60000000E+02  2.00000000E+01  0.00000000E+00
  5.60000000E+02  4.99600361E-14  0.00000000E+00
  5.80000000E+02  3.00000000E+02  0.00000000E+00
  5.80000000E+02  2.80000000E+02  0.00000000E+00
  5.80000000E+02  2.60000000E+02  0.00000000E+00
  5.80000000E+02  2.40000000E+02  0.00000000E+00
  5.80000000E+02  2.20000000E+02  0.00000000E+00
  5.80000000E+02  2.00000000E+02  0.00000000E+00
  5.80000000E+02  1.80000000E+02  0.00000000E+00
  5.80000000E+02  1.60000000E+02  0.00000000E+00
  5.80000000E+02  1.40000000E+02  0.00000000E+00
  5.80000000E+02  1.20000000E+02  0.00000000E+00
  5.80000000E+02  1.00000000E+02  0.00000000E+00
  5.80000000E+02  8.00000000E+01  0.00000000E+00
  5.80000000E+02  6.00000000E+01  0.00000000E+00
  5.80000000E+02  4.00000000E+01  0.00000000E+00
  5.80000000E+02  2.00000000E+01  0.00000000E+00
  5.80000000E+02  4.99600361E-14  0.00000000E+00
  6.00000000E+02  3.00000000E+02  0.00000000E+00
  6.00000000E+02  2.80000000E+02  0.00000000E+00
  6.00000000E+02  2.60000000E+02  0.00000000E+00
  6.00000000E+02  2.40000000E+02  0.00000000E+00
  6.00000000E+02  2.20000000E+02  0.00000000E+00
  6.00000000E+02  2.00000000E+02  0.00000000E+00
  6.00000000E+02  1.80000000E+02  0.00000000E+00
  6.00000000E+02  1.60000000E+02  0.00000000E+00
  6.00000000E+02  1.40000000E+02  0.00000000E+00
  6.00000000E+02  1.20000000E+02  0.00000000E+00
  6.00000000E+02  1.00000000E+02  0.00000000E+00
  6.00000000E+02  8.00000000E+01  0.00000000E+00
  6.00000000E+02  6.00000000E+01  0.00000000E+00
  6.00000000E+02  4.00000000E+01  0.00000000E+00
  6.00000000E+02  2.00000000E+01  0.00000000E+00
  6.00000000E+02  4.99600361E-14  0.00000000E+00
CELLS       450      2250
         4           0           1          17          16
         4           1           2          18          17
         4           2           3          19          18
         4           3           4          20          19
         4           4           5          21          20
         4           5           6          22          21
         4           6           7          23          22
         4           7           8          24          23
         4           8           9          25          24
         4           9          10          26          25
         4          10          11          27          26
         4          11          12          28          27
         4          12          13          29          28
         4          13          14          30          29
         4          14          15          31          30
         4          16          17          33          32
         4          17          18          34          33
         4          18          19          35          34
         4          19          20          36          35
         4          20          21          37          36
         4          21          22          38          37
         4          22          23          39          38
         4          23          24          40          39
         4          24          25          41          40
         4          25          26          42          41
         4          26          27          43          42
         4          27          28          44          43
         4          28          29          45          44
         4          29          30          46          45
         4          30          31          47          46
         4          32          33          49          48
         4          33          34          50          49
         4          34          35          51          50
         4          35          36          52          51
         4          36          37          53          52
         4          37          38          54          53
         4          38          39          55          54
         4          39          40          56          55
         4          40          41          57          56
         4          41          42          58          57
         4          42          43          59          58
         4          43          44          60          59
         4          44          45          61          60
         4          45          46          62          61
         4          46          47          63          62
         4          48          49          65          64
         4          49          50          66          65
         4          50          51          67          66
         4          51          52          68          67
         4          52          53          69          68
         4          53          54          70          69
         4          54          55          71          70
         4          55          56          72          71
         4          56          57          73          72
         4          57          58          74          73
         4          58          59          75          74
         4          59          60          76          75
         4          60          61          77          76
         4          61          62          78          77
         4          62          63          79          78
         4          64          65          81          80
         4          65          66          82          81
         4          66          67          83          82
         4          67          68          84          83
         4          68          69          85          84
         4          69          70          86          85
         4          70          71          87          86
         4          71          72          88          87
         4          72          73          89          88
         4          73          74          90          89
         4          74          75          91          90
         4          75          76          92          91
         4          76          77          93          92
         4          77          78          94          93
         4          78          79          95          94
         4          80          81          97          96
         4          81          82          98          97
         4          82          83          99          98
         4          83          84         100          99
         4          84          85         101         100
         4          85          86         102         101
         4          86          87         103         102
         4          87          88         104         103
         4          88          89         105         104
         4          89          90         106         105
         4          90          91         107         106
         4          91          92         108         107
         4          92          93         109         108
         4          93          94         110         109
         4          94          95         111         110
         4          96          97         113         112
         4          97          98         114         113
         4          98          99         115         114
         4          99         100         116         115
         4         100         101         117         116
         4         101         102         118         117
         4         102         103         119         118
         4         103         104         120         119
         4         104         105         121         120
         4         105         106         122         121
         4         106         107         123         122
         4         107         108         124         123
         4         108         109         125         124
         4         109         110         126         125
         4         110         111         127         126
         4         112         113         129         128
         4         113         114         130         129
         4         114         115         131         130
         4         115         116         132         131
         4         116         117         133         132
         4         117         118         134         133
         4         118         119         135         134
         4         119         120         136         135
         4         120         121         137         136
         4         121         122         138         137
         4         122         123         139         138
         4         123         124         140         139
         4         124         125         141         140
         4         125         126         142         141
         4         126         127         143         142
         4         128         129         145         144
         4         129         130         146         145
         4         130         131         147         146
         4         131         132         148         147
         4         132         133         149         148
         4         133         134         150         149
         4         134         135         151         150
         4         135         136         152         151
         4         136         137         153         152
         4         137         138         154         153
         4         138         139         155         154
         4         139         140         156         155
         4         140         141         157         156
         4         141         142         158         157
         4         142         143         159         158
         4         144         145         161         160
         4         145         146         162         161
         4         146         147         163         162
         4         147         148         164         163
         4         148         149         165         164
         4         149         150         166         165
         4         150         151         167         166
         4         151         152         168         167
         4         152         153         169         168
         4         153         154         170         169
         4         154         155         171         170
         4         155         156         172         171
         4         156         157         173         172
         4         157         158         174         173
         4         158         159         175         174
         4         160         161         177         176
         4         161         162         178         177
         4         162         163         179         178
         4         163         164         180         179
         4         164         165         181         180
         4         165         166         182         181
         4         166         167         183         182
         4         167         168         184         183
         4         168         169         185         184
         4         169         170         186         185
         4         170         171         187         186
         4         171         172         188         187
         4         172         173         189         188
         4         173         174         190         189
         4         174         175         191         190
         4         176         177         193         192
         4         177         178         194         193
         4         178         179         195         194
         4         179         180         196         195
         4         180         181         197         196
         4         181         182         198         197
         4         182         183         199         198
         4         183         184         200         199
         4         184         185         201         200
         4         185         186         202         201
         4         186         187         203         202
         4         187         188         204         203
         4         188         189         205         204
         4         189         190         206         205
         4         190         191         207         206
         4         192         193         209         208
         4         193         194         210         209
         4         194         195         211         210
         4         195         196         212         211
         4         196         197         213         212
         4         197         198         214         213
         4         198         199         215         214
         4         199         200         216         215
         4         200         201         217         216
         4         201         202         218         217
         4         202         203         219         218
         4         203         204         220         219
         4         204         205         221         220
         4         205         206         222         221
         4         206         207         223         222
         4         208         209         225         224
         4         209         210         226         225
         4         210         211         227         226
         4         211         212         228         227
         4         212         213         229         228
         4         213         214         230         229
         4         214         215         231         230
         4         215         216         232         231
         4         216         217         233         232
         4         217         218         234         233
         4         218         219         235         234
         4         219         220         236         235
         4         220         221         237         236
         4         221         222         238         237
         4         222         223         239         238
         4         224         225         241         240
         4         225         226         242         241
         4         226         227         243         242
         4         227         228         244         243
         4         228         229         245         244
         4         229         230         246         245
         4         230         231         247         246
         4         231         232         248         247
         4         232         233         249         248
         4         233         234         250         249
         4         234         235         251         250
         4         235         236         252         251
         4         236         237         253         252
         4         237         238         254         253
         4         238         239         255         254
         4         240         241         257         256
         4         241         242         258         257
         4         242         243         259         258
         4         243         244         260         259
         4         244         245         261         260
         4         245         246         262         261
         4         246         247         263         262
         4         247         248         264         263
         4         248         249         265         264
         4         249         250         266         265
         4         250         251         267         266
         4         251         252         268         267
         4         252         253         269         268
         4         253         254         270         269
         4         254         255         271         270
         4         256         257         273         272
         4         257         258         274         273
         4         258         259         275         274
         4         259         260         276         275
         4         260         261         277         276
         4         261         262         278         277
         4         262         263         279         278
         4         263         264         280         279
         4         264         265         281         280
         4         265         266         282         281
         4         266         267         283         282
         4         267         268         284         283
         4         268         269         285         284
         4         269         270         286         285
         4         270         271         287         286
         4         272         273         289         288
         4         273         274         290         289
         4         274         275         291         290
         4         275         276         292         291
         4         276         277         293         292
         4         277         278         294         293
         4         278         279         295         294
         4         279         280         296         295
         4         280         281         297         296
         4         281         282         298         297
         4         282         283         299         298
         4         283         284         300         299
         4         284         285         301         300
         4         285         286         302         301
         4         286         287         303         302
         4         288         289         305         304
         4         289         290         306         305
         4         290         291         307         306
         4         291         292         308         307
         4         292         293         309         308
         4         293         294         310         309
         4         294         295         311         310
         4         295         296         312         311
         4         296         297         313         312
         4         297         298         314         313
         4         298         299         315         314
         4         299         300         316         315
         4         300         301         317         316
         4         301         302         318         317
         4         302         303         319         318
         4         304         305         321         320
         4         305         306         322         321
         4         306         307         323         322
         4         307         308         324         323
         4         308         309         325         324
         4         309         310         326         325
         4         310         311         327         326
         4         311         312         328         327
         4         312         313         329         328
         4         313         314         330         329
         4         314         315         331         330
         4         315         316         332         331
         4         316         317         333         332
         4         317         318         334         333
         4         318         319         335         334
         4         320         321         337         336
         4         321         322         338         337
         4         322         323         339         338
         4         323         324         340         339
         4         324         325         341         340
         4         325         326         342         341
         4         326         327         343         342
         4         327         328         344         343
         4         328         329         345         344
         4         329         330         346         345
         4         330         331         347         346
         4         331         332         348         347
         4         332         333         349         348
         4         333         334         350         349
         4         334         335         351         350
         4         336         337         353         352
         4         337         338         354         353
         4         338         339         355         354
         4         339         340         356         355
         4         340         341         357         356
         4         341         342         358         357
         4         342         343         359         358
         4         343         344         360         359
         4         344         345         361         360
         4         345         346         362         361
         4         346         347         363         362
         4         347         348         364         363
         4         348         349         365         364
         4         349         350         366         365
         4         350         351         367         366
         4         352         353         369         368
         4         353         354         370         369
         4         354         355         371         370
         4         355         356         372         371
         4         356         357         373         372
         4         357         358         374         373
         4         358         359         375         374
         4         359         360         376         375
         4         360         361         377         376
         4         361         362         378         377
         4         362         363         379         378
         4         363         364         380         379
         4         364         365         381         380
         4         365         366         382         381
         4         366         367         383         382
         4         368         369         385         384
         4         369         370         386         385
         4         370         371         387         386
         4         371         372         388         387
         4         372         373         389         388
         4         373         374         390         389
         4         374         375         391         390
         4         375         376         392         391
         4         376         377         393         392
         4         377         378         394         393
         4         378         379         395         394
         4         379         380         396         395
         4         380         381         397         396
         4         381         382         398         397
         4         382         383         399         398
         4         384         385         401         400
         4         385         386         402         401
         4         386         387         403         402
         4         387         388         404         403
         4         388         389         405         404
         4         389         390         406         405
         4         390         391         407         406
         4         391         392         408         407
         4         392         393         409         408
         4         393         394         410         409
         4         394         395         411         410
         4         395         396         412         411
         4         396         397         413         412
         4         397         398         414         413
         4         398         399         415         414
         4         400         401         417         416
         4         401         402         418         417
         4         402         403         419         418
         4         403         404         420         419
         4         404         405         421         420
         4         405         406         422         421
         4         406         407         423         422
         4         407         408         424         423
         4         408         409         425         424
         4         409         410         426         425
         4         410         411         427         426
         4         411         412         428         427
         4         412         413         429         428
         4         413         414         430         429
         4         414         415         431         430
         4         416         417         433         432
         4         417         418         434         433
         4         418         419         435         434
         4         419         420         436         435
         4         420         421         437         436
         4         421         422         438         437
         4         422         423         439         438
         4         423         424         440         439
         4         424         425         441         440
         4         425         426         442         441
         4         426         427         443         442
         4         427         428         444         443
         4         428         429         445         444
         4         429         430         446         445
         4         430         431         447         446
         4         432         433         449         448
         4         433         434         450         449
         4         434         435         451         450
         4         435         436         452         451
         4         436         437         453         452
         4         437         438         454         453
         4         438         439         455         454
         4         439         440         456         455
         4         440         441         457         456
         4         441         442         458         457
         4         442         443         459         458
         4         443         444         460         459
         4         444         445         461         460
         4         445         446         462         461
         4         446         447         463         462
         4         448         449         465         464
         4         449         450         466         465
         4         450         451         467         466
         4         451         452         468         467
         4         452         453         469         468
         4         453         454         470         469
         4         454         455         471         470
         4         455         456         472         471
         4         456         457         473         472
         4         457         458         474         473
         4         458         459         475         474
         4         459         460         476         475
         4         460         461         477         476
         4         461         462         478         477
         4         462         463         479         478
         4         464         465         481         480
         4         465         466         482         481
         4         466         467         483         482
         4         467         468         484         483
         4         468         469         485         484
         4         469         470         486         485
         4         470         471         487         486
         4         471         472         488         487
         4         472         473         489         488
         4         473         474         490         489
         4         474         475         491         490
         4         475         476         492         491
         4         476         477         493         492
         4         477         478         494         493
         4         478         479         495         494
CELL_TYPES        450
9
9
9
9
9
9
9
9
9
9
9
9
9
9
9
9
9
9
9
9
9
9
9
9
9
9
9
9
9
9
9
9
9
9
9
9
9
9
9
9
9
9
9
9
9
9
9
9
9
9
9
9
9
9
9
9
9
9
9
9
9
9
9
9
9
9
9
9
9
9
9
9
9
9
9
9
9
9
9
9
9
9
9
9
9
9
9
9
9
9
9
9
9
9
9
9
9
9
9
9
9
9
9
9
9
9
9
9
9
9
9
9
9
9
9
9
9
9
9
9
9
9
9
9
9
9
9
9
9
9
9
9
9
9
9
9
9
9
9
9
9
9
9
9
9
9
9
9
9
9
9
9
9
9
9
9
9
9
9
9
9
9
9
9
9
9
9
9
9
9
9
9
9
9
9
9
9
9
9
9
9
9
9
9
9
9
9
9
9
9
9
9
9
9
9
9
9
9
9
9
9
9
9
9
9
9
9
9
9
9
9
9
9
9
9
9
9
9
9
9
9
9
9
9
9
9
9
9
9
9
9
9
9
9
9
9
9
9
9
9
9
9
9
9
9
9
9
9
9
9
9
9
9
9
9
9
9
9
9
9
9
9
9
9
9
9
9
9
9
9
9
9
9
9
9
9
9
9
9
9
9
9
9
9
9
9
9
9
9
9
9
9
9
9
9
9
9
9
9
9
9
9
9
9
9
9
9
9
9
9
9
9
9
9
9
9
9
9
9
9
9
9
9
9
9
9
9
9
9
9
9
9
9
9
9
9
9
9
9
9
9
9
9
9
9
9
9
9
9
9
9
9
9
9
9
9
9
9
9
9
9
9
9
9
9
9
9
9
9
9
9
9
9
9
9
9
9
9
9
9
9
9
9
9
9
9
9
9
9
9
9
9
9
9
9
9
9
9
9
9
9
9
9
9
9
9
9
9
9
9
9
9
9
9
9
9
9
9
9
9
9
9
9
9
9
9
9
9
9
9
9
9
9
9
9
9
9
9
9
9
9
9
9
9
9
9
9
9
9
9
POINT_DATA       496
SCALARS p double 
LOOKUP_TABLE default
   60987064.3319376     
   61079926.8594109     
   61283249.1973045     
   61524820.7762805     
   61776538.6337323     
   62024948.1810232     
   62264942.7513021     
   62495244.8945561     
   62716134.7819030     
   62928312.2991527     
   63132233.1371196     
   63327388.9700991     
   63511105.1787952     
   63676295.1746541     
   63809287.6735261     
   63871773.2062603     
   59474433.0378247     
   59549080.2925295     
   59722064.3825817     
   59943118.8805868     
   60179995.5919355     
   60417758.7670933     
   60649891.3944055     
   60874054.2880640     
   61089695.9685390     
   61296816.7333053     
   61495204.2620641     
   61683624.9684208     
   61858491.3118837     
   62011717.2222435     
   62125736.5820473     
   62175648.2249061     
   58423418.3344712     
   58483936.9228799     
   58626080.1606041     
   58813642.7019641     
   59022830.9850954     
   59239213.4866571     
   59455091.7815534     
   59666477.7407498     
   59871224.9870857     
   60067891.4297623     
   60254965.0324189     
   60430082.4585508     
   60588948.7055721     
   60723610.9379650     
   60821452.9636521     
   60863705.8457719     
   57796307.6224837     
   57837630.1370309     
   57943006.8816650     
   58091237.2047796     
   58265810.9995062     
   58454462.3922932     
   58648696.6086079     
   58842783.1024551     
   59032655.3463904     
   59215054.1539223     
   59386851.9508044     
   59544427.2250520     
   59682975.7505656     
   59795916.1206503     
   59874301.6971930     
   59905885.1445061     
   57482734.0405092     
   57505773.7704754     
   57575570.1514190     
   57685534.7195005     
   57825560.9771041     
   57985522.5994360     
   58156658.0151433     
   58331827.4635153     
   58505197.7046101     
   58671746.2743407     
   58826777.2726315     
   58965515.5501580     
   59082859.8847221     
   59173378.3228545     
   59231571.8318978     
   59252228.8303708     
   57360946.9241968     
   57371402.4881663     
   57414617.8418983     
   57494243.6460600     
   57605510.4416145     
   57740479.9999645     
   57890652.3637601     
   58048086.4333559     
   58205679.1338294     
   58357037.8701540     
   58496236.1338495     
   58617650.9759683     
   58716048.3194651     
   58787065.7926645     
   58828160.3637991     
   58839969.9801351     
   57337324.8628192     
   57341588.6530484     
   57369558.1275133     
   57429740.7595698     
   57520980.6896402     
   57637342.3876804     
   57771019.9458889     
   57913893.9450961     
   58058207.9228793     
   58196749.5064204     
   58322845.0229102     
   58430416.5548717     
   58514315.0716803     
   58571101.7522971     
   58600358.4698174     
   58606480.9618243     
   57354749.7040927     
   57357510.4176524     
   57379617.4023053     
   57430335.6833927     
   57510265.9321893     
   57614942.4209454     
   57737400.7987030     
   57869788.0953676     
   58004229.7513190     
   58133222.1311578     
   58249818.7229265     
   58347854.7819546     
   58422424.4827648     
   58470772.4375011     
   58493660.4373495     
   58497129.7508025     
   57384009.4034919     
   57387887.8056274     
   57410174.9262533     
   57458625.8744261     
   57534136.9288020     
   57633048.2997654     
   57749127.0869475     
   57874995.2223670     
   58003017.3894491     
   58125796.9846963     
   58236481.2358597     
   58329082.6508106     
   58399002.2339299     
   58443886.4996584     
   58464850.4390649     
   58467957.2405319     
   57412251.0691004     
   57418345.3128132     
   57443918.3476614     
   57494352.7460947     
   57569951.5546802     
   57667292.8886468     
   57780650.7685274     
   57903153.4565201     
   58027587.5640650     
   58146907.3667618     
   58254584.7301194     
   58344958.1543150     
   58413726.3455446     
   58458683.9422704     
   58480707.5609295     
   58484873.3267782     
   57434367.3494278     
   57442884.1815552     
   57472825.6368552     
   57527135.8437231     
   57605125.6680431     
   57703241.6055510     
   57816051.5221095     
   57937138.5420739     
   58059775.7181824     
   58177389.1764835     
   58283894.3242785     
   58374018.6447350     
   58443717.6915978     
   58490751.6930579     
   58515416.4437827     
   58521318.7230465     
   57447902.9296605     
   57458588.6943706     
   57492735.4928095     
   57551135.0234710     
   57632034.8890839     
   57731580.0163924     
   57844495.8755068     
   57964761.4281646     
   58086146.8779504     
   58202599.7646997     
   58308530.0824933     
   58399072.9051237     
   58470403.6763149     
   58520151.0018019     
   58547895.0674429     
   58555662.1650173     
   57450383.9164939     
   57462750.5246310     
   57500180.1852385     
   57561710.1500941     
   57644642.5914211     
   57744808.9108419     
   57857050.5287402     
   57975719.2853570     
   58095089.0832391     
   58209654.3177664     
   58314345.3543953     
   58404714.9652567     
   58477148.0685340     
   58529124.6702097     
   58559524.8232181     
   58568910.1572138     
   57437966.5570417     
   57451384.4227705     
   57490660.7703638     
   57553489.9806579     
   57636448.1268043     
   57735154.9442920     
   57844615.4967791     
   57959586.8532446     
   58074879.7528574     
   58185570.4966744     
   58287141.7914955     
   58375590.2016066     
   58447537.0672939     
   58500363.7880661     
   58532364.3572246     
   58542872.8318813     
   57404698.9146084     
   57418421.2845513     
   57457690.3291591     
   57519258.5499868     
   57599253.7566040     
   57693269.0598552     
   57796599.5918194     
   57904501.2494600     
   58012397.2796941     
   58116010.4402120     
   58211432.8743332     
   58295160.4888105     
   58364118.1840136     
   58415691.5575565     
   58447763.1786352     
   58458731.1053920     
   57342028.1667843     
   57355185.4492317     
   57392189.9512978     
   57449249.5999393     
   57522366.6615223     
   57607361.2613710     
   57700016.4387121     
   57796242.5802754     
   57892200.1727568     
   57984361.5131488     
   58069518.8679295     
   58144757.4591361     
   58207411.4638423     
   58255014.9012144     
   58285250.3308976     
   58295889.4460054     
   57238386.0518773     
   57249967.3206430     
   57282016.1786656     
   57330607.3550522     
   57391989.7636155     
   57462532.3411693     
   57538774.4026525     
   57617498.6418223     
   57695777.4224170     
   57770975.0774479     
   57840708.4584265     
   57902775.2055784     
   57955059.3461472     
   57995421.7564331     
   58021581.8219571     
   58030997.7573538     
   57078777.1003006     
   57087602.2153014     
   57111504.4888583     
   57146874.4987638     
   57190647.8751980     
   57240144.7974611     
   57293006.2732385     
   57347168.2381361     
   57400835.9135790     
   57452441.1394166     
   57500576.1876877     
   57543900.6978979     
   57581019.1967909     
   57610329.5429886     
   57629849.7573429     
   57637042.0256547     
   56844320.7497537     
   56848998.0056862     
   56860951.9619003     
   56877409.6016601     
   56896535.8801079     
   56917112.3796396     
   56938318.9716850     
   56959590.3038146     
   56980522.3890162     
   57000807.4045865     
   57020173.6499100     
   57038305.9244888     
   57054724.1216574     
   57068607.5841581     
   57078570.4586724     
   57082417.1623426     
   56511686.7072901     
   56510544.1579972     
   56505954.6352898     
   56496629.6834499     
   56482669.3762486     
   56464982.1541937     
   56444839.8535848     
   56423585.1475652     
   56402479.7231566     
   56382656.2042803     
   56365118.9787913     
   56350732.6615979     
   56340143.7335379     
   56333600.9770826     
   56330672.6185022     
   56329899.3298592     
   56052324.5088289     
   56043294.4375190     
   56016469.9529436     
   55972923.8027147     
   55915666.7671592     
   55848634.1970170     
   55775893.6192154     
   55701159.5598215     
   55627610.7147843     
   55557933.1810850     
   55494474.9683575     
   55439390.1001671     
   55394667.4201740     
   55361974.2081635     
   55342296.5893994     
   55335424.9425864     
   55431320.2235844     
   55411740.4120006     
   55355383.6096200     
   55266978.1913691     
   55153881.5221715     
   55024319.6818640     
   54886052.6089942     
   54745651.5457444     
   54608360.7125220     
   54478371.6398494     
   54359285.9707046     
   54254552.7622865     
   54167704.1385790     
   54102265.1447228     
   54061286.8833993     
   54046553.7613775     
   54605594.4954705     
   54571856.7432018     
   54476186.6528113     
   54329049.6064366     
   54144392.7358094     
   53936563.9256881     
   53718136.6327696     
   53498950.7569220     
   53286212.0738482     
   53085255.2684063     
   52900558.0920895     
   52736674.6302854     
   52598831.2656713     
   52492981.9902861     
   52425200.0117615     
   52400432.0814915     
   53520930.4790210     
   53467832.1231460     
   53319017.0765583     
   53094312.9830475     
   52817953.1577907     
   52513100.7580862     
   52198438.6089806     
   51887176.3854681     
   51587856.6012900     
   51306055.7240446     
   51046285.1580302     
   50813682.3552857     
   50615197.2146822     
   50459960.4550615     
   50358533.8749315     
   50320953.9716948     
   52106847.9433618     
   52026320.1993473     
   51803539.6498853     
   51474522.4602142     
   51080159.3653364     
   50656316.1963596     
   50228895.8088766     
   49813707.7072549     
   49419049.4891417     
   49049035.4407451     
   48706717.0302968     
   48396768.3206233     
   48127608.3552769     
   47912465.9076784     
   47768659.7900974     
   47714593.2330452     
   50267238.7263909     
   50145641.9255184     
   49815224.9385756     
   49342137.7436871     
   48795313.5550123     
   48228301.1612528     
   47673823.0279178     
   47147440.2832929     
   46654114.2560094     
   46193880.4750030     
   45766104.7993046     
   45373195.5086269     
   45024102.0244140     
   44737031.9903353     
   44539490.4638142     
   44463930.7637843     
   47861832.0875446     
   47673537.8314812     
   47176217.3008250     
   46497759.6768274     
   45755303.8029348     
   45023688.0283396     
   44336332.6110779     
   43701620.3474255     
   43116546.4941218     
   42573890.2958955     
   42066762.0665801     
   41592519.2523676     
   41158239.7767244     
   40786887.1065050     
   40520938.0129860     
   40417015.5515781     
   44664901.8728356     
   44353968.4073110     
   43575226.4663182     
   42595907.3410265     
   41616097.3842916     
   40717380.9706872     
   39912092.5779597     
   39191370.2752565     
   38539198.6982069     
   37938595.6698088     
   37374540.3242246     
   36836810.2852253     
   36324633.3669904     
   35861780.3596429     
   35510078.1945144     
   35368358.6192239     
   40252045.9362334     
   39676054.4005298     
   38352181.2591796     
   36959033.4657397     
   35760459.0054875     
   34745208.3039214     
   33881167.0904247     
   33133006.3642031     
   32469666.3088036     
   31864602.8929443     
   31295439.8339151     
   30744063.6705364     
   30199429.8656900     
   29662491.0888349     
   29212435.2729496     
   29024444.1365376     
   33663865.0528394     
   32035293.2296117     
   29702215.0945795     
   28089410.4619507     
   26875381.9553993     
   25931869.2587137     
   25170963.2071313     
   24535995.4789604     
   23987069.3463756     
   23494357.0355000     
   23034135.5756607     
   22586596.5611793     
   22134304.3745608     
   21666348.6857856     
   21157637.9535336     
   20910404.0105432     
   10375000.0000000     
   10375000.0000000     
   10375000.0000000     
   10375000.0000000     
   10375000.0000000     
   10375000.0000000     
   10375000.0000000     
   10375000.0000000     
   10375000.0000000     
   10375000.0000000     
   10375000.0000000     
   10375000.0000000     
   10375000.0000000     
   10375000.0000000     
   10375000.0000000     
   10375000.0000000     
VECTORS u double 
    0.00000E+00        -0.42294E+00         0.00000E+00
    0.00000E+00        -0.35011E+00         0.00000E+00
    0.00000E+00        -0.27023E+00         0.00000E+00
    0.00000E+00        -0.18701E+00         0.00000E+00
    0.00000E+00        -0.10632E+00         0.00000E+00
    0.00000E+00        -0.31962E-01         0.00000E+00
    0.00000E+00         0.33467E-01         0.00000E+00
    0.00000E+00         0.88235E-01         0.00000E+00
    0.00000E+00         0.13118E+00         0.00000E+00
    0.00000E+00         0.16151E+00         0.00000E+00
    0.00000E+00         0.17865E+00         0.00000E+00
    0.00000E+00         0.18202E+00         0.00000E+00
    0.00000E+00         0.17072E+00         0.00000E+00
    0.00000E+00         0.14275E+00         0.00000E+00
    0.00000E+00         0.93157E-01         0.00000E+00
    0.00000E+00         0.00000E+00         0.00000E+00
    0.41435E+00        -0.50330E+00         0.00000E+00
    0.34530E+00        -0.39637E+00         0.00000E+00
    0.31956E+00        -0.30043E+00         0.00000E+00
    0.30290E+00        -0.20893E+00         0.00000E+00
    0.28874E+00        -0.12322E+00         0.00000E+00
    0.27488E+00        -0.45595E-01         0.00000E+00
    0.26067E+00         0.22079E-01         0.00000E+00
    0.24598E+00         0.78421E-01         0.00000E+00
    0.23080E+00         0.12246E+00         0.00000E+00
    0.21510E+00         0.15353E+00         0.00000E+00
    0.19868E+00         0.17108E+00         0.00000E+00
    0.18088E+00         0.17457E+00         0.00000E+00
    0.16023E+00         0.16305E+00         0.00000E+00
    0.13328E+00         0.13455E+00         0.00000E+00
    0.91592E-01         0.84071E-01         0.00000E+00
    0.00000E+00         0.00000E+00         0.00000E+00
    0.74525E+00        -0.64159E+00         0.00000E+00
    0.64158E+00        -0.50326E+00         0.00000E+00
    0.58712E+00        -0.37900E+00         0.00000E+00
    0.55072E+00        -0.26883E+00         0.00000E+00
    0.51986E+00        -0.17072E+00         0.00000E+00
    0.49028E+00        -0.84541E-01         0.00000E+00
    0.46048E+00        -0.10798E-01         0.00000E+00
    0.43004E+00         0.49925E-01         0.00000E+00
    0.39886E+00         0.97123E-01         0.00000E+00
    0.36683E+00         0.13039E+00         0.00000E+00
    0.33348E+00         0.14936E+00         0.00000E+00
    0.29762E+00         0.15357E+00         0.00000E+00
    0.25660E+00         0.14222E+00         0.00000E+00
    0.20467E+00         0.11383E+00         0.00000E+00
    0.12825E+00         0.65803E-01         0.00000E+00
    0.00000E+00         0.00000E+00         0.00000E+00
    0.10148E+01        -0.78549E+00         0.00000E+00
    0.90050E+00        -0.62827E+00         0.00000E+00
    0.82327E+00        -0.48283E+00         0.00000E+00
    0.76508E+00        -0.35390E+00         0.00000E+00
    0.71468E+00        -0.24124E+00         0.00000E+00
    0.66682E+00        -0.14406E+00         0.00000E+00
    0.61937E+00        -0.61969E-01         0.00000E+00
    0.57154E+00         0.51110E-02         0.00000E+00
    0.52307E+00         0.57156E-01         0.00000E+00
    0.47369E+00         0.94092E-01         0.00000E+00
    0.42274E+00         0.11581E+00         0.00000E+00
    0.36867E+00         0.12214E+00         0.00000E+00
    0.30829E+00         0.11281E+00         0.00000E+00
    0.23527E+00         0.87621E-01         0.00000E+00
    0.13819E+00         0.47912E-01         0.00000E+00
    0.00000E+00         0.00000E+00         0.00000E+00
    0.12491E+01        -0.91898E+00         0.00000E+00
    0.11339E+01        -0.75210E+00         0.00000E+00
    0.10402E+01        -0.59425E+00         0.00000E+00
    0.96102E+00        -0.45173E+00         0.00000E+00
    0.88943E+00        -0.32645E+00         0.00000E+00
    0.82114E+00        -0.21846E+00         0.00000E+00
    0.75399E+00        -0.12740E+00         0.00000E+00
    0.68704E+00        -0.52950E-01         0.00000E+00
    0.61988E+00         0.51777E-02         0.00000E+00
    0.55210E+00         0.47194E-01         0.00000E+00
    0.48294E+00         0.73305E-01         0.00000E+00
    0.41080E+00         0.83770E-01         0.00000E+00
    0.33267E+00         0.79094E-01         0.00000E+00
    0.24344E+00         0.60601E-01         0.00000E+00
    0.13550E+00         0.31703E-01         0.00000E+00
    0.00000E+00         0.00000E+00         0.00000E+00
    0.14677E+01        -0.10405E+01         0.00000E+00
    0.13532E+01        -0.86943E+00         0.00000E+00
    0.12466E+01        -0.70539E+00         0.00000E+00
    0.11480E+01        -0.55453E+00         0.00000E+00
    0.10549E+01        -0.42000E+00         0.00000E+00
    0.96488E+00        -0.30291E+00         0.00000E+00
    0.87655E+00        -0.20342E+00         0.00000E+00
    0.78909E+00        -0.12133E+00         0.00000E+00
    0.70207E+00        -0.56279E-01         0.00000E+00
    0.61505E+00        -0.78797E-02         0.00000E+00
    0.52730E+00         0.24362E-01         0.00000E+00
    0.43749E+00         0.41159E-01         0.00000E+00
    0.34335E+00         0.43738E-01         0.00000E+00
    0.24157E+00         0.34398E-01         0.00000E+00
    0.12817E+00         0.17405E-01         0.00000E+00
    0.00000E+00         0.00000E+00         0.00000E+00
    0.16834E+01        -0.11543E+01         0.00000E+00
    0.15673E+01        -0.98166E+00         0.00000E+00
    0.14487E+01        -0.81491E+00         0.00000E+00
    0.13318E+01        -0.65942E+00         0.00000E+00
    0.12174E+01        -0.51868E+00         0.00000E+00
    0.11053E+01        -0.39449E+00         0.00000E+00
    0.99500E+00        -0.28755E+00         0.00000E+00
    0.88619E+00        -0.19793E+00         0.00000E+00
    0.77858E+00        -0.12537E+00         0.00000E+00
    0.67185E+00        -0.69403E-01         0.00000E+00
    0.56544E+00        -0.29349E-01         0.00000E+00
    0.45847E+00        -0.41678E-02         0.00000E+00
    0.34964E+00         0.78109E-02         0.00000E+00
    0.23743E+00         0.93147E-02         0.00000E+00
    0.12070E+00         0.46379E-02         0.00000E+00
    0.00000E+00         0.00000E+00         0.00000E+00
    0.19037E+01        -0.12665E+01         0.00000E+00
    0.17822E+01        -0.10930E+01         0.00000E+00
    0.16508E+01        -0.92504E+00         0.00000E+00
    0.15159E+01        -0.76700E+00         0.00000E+00
    0.13806E+01        -0.62211E+00         0.00000E+00
    0.12464E+01        -0.49240E+00         0.00000E+00
    0.11140E+01        -0.37889E+00         0.00000E+00
    0.98357E+00        -0.28190E+00         0.00000E+00
    0.85517E+00        -0.20130E+00         0.00000E+00
    0.72865E+00        -0.13666E+00         0.00000E+00
    0.60376E+00        -0.87224E-01         0.00000E+00
    0.48013E+00        -0.51837E-01         0.00000E+00
    0.35740E+00        -0.28699E-01         0.00000E+00
    0.23554E+00        -0.15105E-01         0.00000E+00
    0.11547E+00        -0.72049E-02         0.00000E+00
    0.00000E+00         0.00000E+00         0.00000E+00
    0.21331E+01        -0.13828E+01         0.00000E+00
    0.20019E+01        -0.12084E+01         0.00000E+00
    0.18559E+01        -0.10397E+01         0.00000E+00
    0.17024E+01        -0.87997E+00         0.00000E+00
    0.15463E+01        -0.73204E+00         0.00000E+00
    0.13903E+01        -0.59773E+00         0.00000E+00
    0.12360E+01        -0.47814E+00         0.00000E+00
    0.10842E+01        -0.37372E+00         0.00000E+00
    0.93530E+00        -0.28445E+00         0.00000E+00
    0.78930E+00        -0.20999E+00         0.00000E+00
    0.64628E+00        -0.14968E+00         0.00000E+00
    0.50638E+00        -0.10241E+00         0.00000E+00
    0.37003E+00        -0.66544E-01         0.00000E+00
    0.23835E+00        -0.39728E-01         0.00000E+00
    0.11362E+00        -0.18812E-01         0.00000E+00
    0.00000E+00         0.00000E+00         0.00000E+00
    0.23740E+01        -0.15089E+01         0.00000E+00
    0.22287E+01        -0.13331E+01         0.00000E+00
    0.20655E+01        -0.11634E+01         0.00000E+00
    0.18926E+01        -0.10023E+01         0.00000E+00
    0.17155E+01        -0.85163E+00         0.00000E+00
    0.15380E+01        -0.71302E+00         0.00000E+00
    0.13624E+01        -0.58736E+00         0.00000E+00
    0.11898E+01        -0.47510E+00         0.00000E+00
    0.10210E+01        -0.37631E+00         0.00000E+00
    0.85606E+00        -0.29078E+00         0.00000E+00
    0.69542E+00        -0.21800E+00         0.00000E+00
    0.53954E+00        -0.15716E+00         0.00000E+00
    0.38946E+00        -0.10697E+00         0.00000E+00
    0.24709E+00        -0.65648E-01         0.00000E+00
    0.11564E+00        -0.30886E-01         0.00000E+00
    0.00000E+00         0.00000E+00         0.00000E+00
    0.26278E+01        -0.16501E+01         0.00000E+00
    0.24640E+01        -0.14724E+01         0.00000E+00
    0.22808E+01        -0.13014E+01         0.00000E+00
    0.20869E+01        -0.11385E+01         0.00000E+00
    0.18885E+01        -0.98501E+00         0.00000E+00
    0.16899E+01        -0.84186E+00         0.00000E+00
    0.14936E+01        -0.70968E+00         0.00000E+00
    0.13012E+01        -0.58879E+00         0.00000E+00
    0.11133E+01        -0.47931E+00         0.00000E+00
    0.93031E+00        -0.38119E+00         0.00000E+00
    0.75264E+00        -0.29420E+00         0.00000E+00
    0.58098E+00        -0.21788E+00         0.00000E+00
    0.41676E+00        -0.15154E+00         0.00000E+00
    0.26240E+00        -0.94083E-01         0.00000E+00
    0.12169E+00        -0.44117E-01         0.00000E+00
    0.00000E+00         0.00000E+00         0.00000E+00
    0.28953E+01        -0.18117E+01         0.00000E+00
    0.27083E+01        -0.16317E+01         0.00000E+00
    0.25020E+01        -0.14588E+01         0.00000E+00
    0.22855E+01        -0.12938E+01         0.00000E+00
    0.20653E+01        -0.11369E+01         0.00000E+00
    0.18458E+01        -0.98861E+00         0.00000E+00
    0.16298E+01        -0.84903E+00         0.00000E+00
    0.14186E+01        -0.71833E+00         0.00000E+00
    0.12129E+01        -0.59664E+00         0.00000E+00
    0.10129E+01        -0.48408E+00         0.00000E+00
    0.81890E+00        -0.38077E+00         0.00000E+00
    0.63162E+00        -0.28677E+00         0.00000E+00
    0.45265E+00        -0.20203E+00         0.00000E+00
    0.28470E+00        -0.12632E+00         0.00000E+00
    0.13191E+00        -0.59186E-01         0.00000E+00
    0.00000E+00         0.00000E+00         0.00000E+00
    0.31763E+01        -0.19991E+01         0.00000E+00
    0.29613E+01        -0.18163E+01         0.00000E+00
    0.27287E+01        -0.16413E+01         0.00000E+00
    0.24878E+01        -0.14735E+01         0.00000E+00
    0.22454E+01        -0.13126E+01         0.00000E+00
    0.20055E+01        -0.11581E+01         0.00000E+00
    0.17708E+01        -0.10099E+01         0.00000E+00
    0.15423E+01        -0.86782E+00         0.00000E+00
    0.13202E+01        -0.73199E+00         0.00000E+00
    0.11044E+01        -0.60274E+00         0.00000E+00
    0.89491E+00        -0.48061E+00         0.00000E+00
    0.69217E+00        -0.36625E+00         0.00000E+00
    0.49773E+00        -0.26038E+00         0.00000E+00
    0.31436E+00        -0.16369E+00         0.00000E+00
    0.14644E+00        -0.76761E-01         0.00000E+00
    0.00000E+00         0.00000E+00         0.00000E+00
    0.34701E+01        -0.22181E+01         0.00000E+00
    0.32220E+01        -0.20323E+01         0.00000E+00
    0.29598E+01        -0.18546E+01         0.00000E+00
    0.26929E+01        -0.16835E+01         0.00000E+00
    0.24278E+01        -0.15175E+01         0.00000E+00
    0.21683E+01        -0.13557E+01         0.00000E+00
    0.19163E+01        -0.11972E+01         0.00000E+00
    0.16721E+01        -0.10418E+01         0.00000E+00
    0.14354E+01        -0.88942E+00         0.00000E+00
    0.12053E+01        -0.74078E+00         0.00000E+00
    0.98129E+00        -0.59684E+00         0.00000E+00
    0.76332E+00        -0.45891E+00         0.00000E+00
    0.55262E+00        -0.32857E+00         0.00000E+00
    0.35188E+00        -0.20754E+00         0.00000E+00
    0.16554E+00        -0.97513E-01         0.00000E+00
    0.00000E+00         0.00000E+00         0.00000E+00
    0.37749E+01        -0.24751E+01         0.00000E+00
    0.34884E+01        -0.22858E+01         0.00000E+00
    0.31934E+01        -0.21049E+01         0.00000E+00
    0.28990E+01        -0.19296E+01         0.00000E+00
    0.26112E+01        -0.17575E+01         0.00000E+00
    0.23330E+01        -0.15868E+01         0.00000E+00
    0.20654E+01        -0.14160E+01         0.00000E+00
    0.18077E+01        -0.12448E+01         0.00000E+00
    0.15585E+01        -0.10731E+01         0.00000E+00
    0.13159E+01        -0.90193E+00         0.00000E+00
    0.10786E+01        -0.73266E+00         0.00000E+00
    0.84575E+00        -0.56739E+00         0.00000E+00
    0.61805E+00        -0.40865E+00         0.00000E+00
    0.39785E+00        -0.25924E+00         0.00000E+00
    0.18960E+00        -0.12211E+00         0.00000E+00
    0.00000E+00         0.00000E+00         0.00000E+00
    0.40880E+01        -0.27765E+01         0.00000E+00
    0.37576E+01        -0.25832E+01         0.00000E+00
    0.34266E+01        -0.23984E+01         0.00000E+00
    0.31035E+01        -0.22180E+01         0.00000E+00
    0.27933E+01        -0.20383E+01         0.00000E+00
    0.24980E+01        -0.18568E+01         0.00000E+00
    0.22170E+01        -0.16714E+01         0.00000E+00
    0.19484E+01        -0.14816E+01         0.00000E+00
    0.16892E+01        -0.12873E+01         0.00000E+00
    0.14364E+01        -0.10899E+01         0.00000E+00
    0.11873E+01        -0.89126E+00         0.00000E+00
    0.94017E+00        -0.69432E+00         0.00000E+00
    0.69480E+00        -0.50260E+00         0.00000E+00
    0.45302E+00        -0.32013E+00         0.00000E+00
    0.21909E+00        -0.15120E+00         0.00000E+00
    0.00000E+00         0.00000E+00         0.00000E+00
    0.44049E+01        -0.31290E+01         0.00000E+00
    0.40254E+01        -0.29311E+01         0.00000E+00
    0.36555E+01        -0.27416E+01         0.00000E+00
    0.33030E+01        -0.25547E+01         0.00000E+00
    0.29714E+01        -0.23657E+01         0.00000E+00
    0.26609E+01        -0.21710E+01         0.00000E+00
    0.23694E+01        -0.19683E+01         0.00000E+00
    0.20930E+01        -0.17565E+01         0.00000E+00
    0.18270E+01        -0.15359E+01         0.00000E+00
    0.15666E+01        -0.13081E+01         0.00000E+00
    0.13077E+01        -0.10756E+01         0.00000E+00
    0.10472E+01        -0.84216E+00         0.00000E+00
    0.78367E+00        -0.61235E+00         0.00000E+00
    0.51817E+00        -0.39151E+00         0.00000E+00
    0.25455E+00        -0.18544E+00         0.00000E+00
    0.00000E+00         0.00000E+00         0.00000E+00
    0.47201E+01        -0.35396E+01         0.00000E+00
    0.42861E+01        -0.33361E+01         0.00000E+00
    0.38749E+01        -0.31405E+01         0.00000E+00
    0.34929E+01        -0.29455E+01         0.00000E+00
    0.31415E+01        -0.27450E+01         0.00000E+00
    0.28189E+01        -0.25344E+01         0.00000E+00
    0.25203E+01        -0.23109E+01         0.00000E+00
    0.22399E+01        -0.20734E+01         0.00000E+00
    0.19708E+01        -0.18224E+01         0.00000E+00
    0.17061E+01        -0.15596E+01         0.00000E+00
    0.14398E+01        -0.12883E+01         0.00000E+00
    0.11672E+01        -0.10131E+01         0.00000E+00
    0.88532E+00        -0.73962E+00         0.00000E+00
    0.59406E+00        -0.47458E+00         0.00000E+00
    0.29658E+00        -0.22545E+00         0.00000E+00
    0.00000E+00         0.00000E+00         0.00000E+00
    0.50258E+01        -0.40149E+01         0.00000E+00
    0.45325E+01        -0.38045E+01         0.00000E+00
    0.40784E+01        -0.36012E+01         0.00000E+00
    0.36676E+01        -0.33958E+01         0.00000E+00
    0.32991E+01        -0.31809E+01         0.00000E+00
    0.29679E+01        -0.29509E+01         0.00000E+00
    0.26667E+01        -0.27028E+01         0.00000E+00
    0.23868E+01        -0.24354E+01         0.00000E+00
    0.21189E+01        -0.21492E+01         0.00000E+00
    0.18537E+01        -0.18466E+01         0.00000E+00
    0.15830E+01        -0.15314E+01         0.00000E+00
    0.13000E+01        -0.12089E+01         0.00000E+00
    0.10001E+01        -0.88586E+00         0.00000E+00
    0.68128E+00        -0.57041E+00         0.00000E+00
    0.34569E+00        -0.27181E+00         0.00000E+00
    0.00000E+00         0.00000E+00         0.00000E+00
    0.53122E+01        -0.45613E+01         0.00000E+00
    0.47555E+01        -0.43421E+01         0.00000E+00
    0.42579E+01        -0.41288E+01         0.00000E+00
    0.38202E+01        -0.39101E+01         0.00000E+00
    0.34381E+01        -0.36771E+01         0.00000E+00
    0.31032E+01        -0.34237E+01         0.00000E+00
    0.28046E+01        -0.31463E+01         0.00000E+00
    0.25304E+01        -0.28441E+01         0.00000E+00
    0.22685E+01        -0.25178E+01         0.00000E+00
    0.20072E+01        -0.21703E+01         0.00000E+00
    0.17357E+01        -0.18059E+01         0.00000E+00
    0.14449E+01        -0.14306E+01         0.00000E+00
    0.11276E+01        -0.10521E+01         0.00000E+00
    0.78003E+00        -0.67985E+00         0.00000E+00
    0.40226E+00        -0.32501E+00         0.00000E+00
    0.00000E+00         0.00000E+00         0.00000E+00
    0.55674E+01        -0.51846E+01         0.00000E+00
    0.49442E+01        -0.49540E+01         0.00000E+00
    0.44035E+01        -0.47276E+01         0.00000E+00
    0.39423E+01        -0.44917E+01         0.00000E+00
    0.35517E+01        -0.42359E+01         0.00000E+00
    0.32189E+01        -0.39538E+01         0.00000E+00
    0.29289E+01        -0.36418E+01         0.00000E+00
    0.26663E+01        -0.32993E+01         0.00000E+00
    0.24159E+01        -0.29277E+01         0.00000E+00
    0.21633E+01        -0.25303E+01         0.00000E+00
    0.18951E+01        -0.21117E+01         0.00000E+00
    0.15996E+01        -0.16784E+01         0.00000E+00
    0.12667E+01        -0.12388E+01         0.00000E+00
    0.88982E+00        -0.80348E+00         0.00000E+00
    0.46636E+00        -0.38548E+00         0.00000E+00
    0.00000E+00         0.00000E+00         0.00000E+00
    0.57765E+01        -0.58896E+01         0.00000E+00
    0.50849E+01        -0.56442E+01         0.00000E+00
    0.45036E+01        -0.54003E+01         0.00000E+00
    0.40242E+01        -0.51419E+01         0.00000E+00
    0.36317E+01        -0.48574E+01         0.00000E+00
    0.33079E+01        -0.45401E+01         0.00000E+00
    0.30333E+01        -0.41871E+01         0.00000E+00
    0.27884E+01        -0.37984E+01         0.00000E+00
    0.25552E+01        -0.33762E+01         0.00000E+00
    0.23164E+01        -0.29240E+01         0.00000E+00
    0.20563E+01        -0.24469E+01         0.00000E+00
    0.17600E+01        -0.19512E+01         0.00000E+00
    0.14145E+01        -0.14456E+01         0.00000E+00
    0.10091E+01        -0.94148E+00         0.00000E+00
    0.53751E+00        -0.45355E+00         0.00000E+00
    0.00000E+00         0.00000E+00         0.00000E+00
    0.59214E+01        -0.66797E+01         0.00000E+00
    0.51618E+01        -0.64148E+01         0.00000E+00
    0.45447E+01        -0.61477E+01         0.00000E+00
    0.40544E+01        -0.58598E+01         0.00000E+00
    0.36685E+01        -0.55387E+01         0.00000E+00
    0.33620E+01        -0.51782E+01         0.00000E+00
    0.31098E+01        -0.47766E+01         0.00000E+00
    0.28890E+01        -0.43353E+01         0.00000E+00
    0.26783E+01        -0.38572E+01         0.00000E+00
    0.24585E+01        -0.33464E+01         0.00000E+00
    0.22115E+01        -0.28075E+01         0.00000E+00
    0.19195E+01        -0.22464E+01         0.00000E+00
    0.15656E+01        -0.16713E+01         0.00000E+00
    0.11346E+01        -0.10936E+01         0.00000E+00
    0.61440E+00        -0.52941E+00         0.00000E+00
    0.00000E+00         0.00000E+00         0.00000E+00
    0.59804E+01        -0.75568E+01         0.00000E+00
    0.51556E+01        -0.72659E+01         0.00000E+00
    0.45107E+01        -0.69679E+01         0.00000E+00
    0.40202E+01        -0.66411E+01         0.00000E+00
    0.36515E+01        -0.62731E+01         0.00000E+00
    0.33712E+01        -0.58594E+01         0.00000E+00
    0.31487E+01        -0.54004E+01         0.00000E+00
    0.29573E+01        -0.48996E+01         0.00000E+00
    0.27739E+01        -0.43610E+01         0.00000E+00
    0.25777E+01        -0.37887E+01         0.00000E+00
    0.23489E+01        -0.31866E+01         0.00000E+00
    0.20672E+01        -0.25592E+01         0.00000E+00
    0.17115E+01        -0.19132E+01         0.00000E+00
    0.12604E+01        -0.12590E+01         0.00000E+00
    0.69441E+00        -0.61315E+00         0.00000E+00
    0.00000E+00         0.00000E+00         0.00000E+00
    0.59273E+01        -0.85200E+01         0.00000E+00
    0.50437E+01        -0.81949E+01         0.00000E+00
    0.43837E+01        -0.78551E+01         0.00000E+00
    0.39073E+01        -0.74767E+01         0.00000E+00
    0.35684E+01        -0.70483E+01         0.00000E+00
    0.33237E+01        -0.65689E+01         0.00000E+00
    0.31370E+01        -0.60427E+01         0.00000E+00
    0.29791E+01        -0.54756E+01         0.00000E+00
    0.28261E+01        -0.48728E+01         0.00000E+00
    0.26570E+01        -0.42381E+01         0.00000E+00
    0.24513E+01        -0.35740E+01         0.00000E+00
    0.21868E+01        -0.28825E+01         0.00000E+00
    0.18383E+01        -0.21672E+01         0.00000E+00
    0.13770E+01        -0.14361E+01         0.00000E+00
    0.77290E+00        -0.70472E+00         0.00000E+00
    0.00000E+00         0.00000E+00         0.00000E+00
    0.57295E+01        -0.95657E+01         0.00000E+00
    0.47988E+01        -0.91947E+01         0.00000E+00
    0.41430E+01        -0.87984E+01         0.00000E+00
    0.37000E+01        -0.83505E+01         0.00000E+00
    0.34053E+01        -0.78441E+01         0.00000E+00
    0.32047E+01        -0.72843E+01         0.00000E+00
    0.30576E+01        -0.66805E+01         0.00000E+00
    0.29345E+01        -0.60415E+01         0.00000E+00
    0.28127E+01        -0.53728E+01         0.00000E+00
    0.26724E+01        -0.46774E+01         0.00000E+00
    0.24940E+01        -0.39555E+01         0.00000E+00
    0.22545E+01        -0.32057E+01         0.00000E+00
    0.19251E+01        -0.24269E+01         0.00000E+00
    0.14690E+01        -0.16223E+01         0.00000E+00
    0.84216E+00        -0.80396E+00         0.00000E+00
    0.00000E+00         0.00000E+00         0.00000E+00
    0.53458E+01        -0.10686E+02         0.00000E+00
    0.43883E+01        -0.10252E+02         0.00000E+00
    0.37658E+01        -0.97778E+01         0.00000E+00
    0.33810E+01        -0.92357E+01         0.00000E+00
    0.31448E+01        -0.86290E+01         0.00000E+00
    0.29934E+01        -0.79732E+01         0.00000E+00
    0.28858E+01        -0.72832E+01         0.00000E+00
    0.27953E+01        -0.65692E+01         0.00000E+00
    0.27026E+01        -0.58361E+01         0.00000E+00
    0.25909E+01        -0.50849E+01         0.00000E+00
    0.24426E+01        -0.43128E+01         0.00000E+00
    0.22361E+01        -0.35145E+01         0.00000E+00
    0.19407E+01        -0.26831E+01         0.00000E+00
    0.15122E+01        -0.18135E+01         0.00000E+00
    0.88945E+00        -0.91048E+00         0.00000E+00
    0.00000E+00         0.00000E+00         0.00000E+00
    0.47210E+01        -0.11865E+02         0.00000E+00
    0.37716E+01        -0.11345E+02         0.00000E+00
    0.32271E+01        -0.10758E+02         0.00000E+00
    0.29293E+01        -0.10087E+02         0.00000E+00
    0.27610E+01        -0.93554E+01         0.00000E+00
    0.26572E+01        -0.85915E+01         0.00000E+00
    0.25837E+01        -0.78122E+01         0.00000E+00
    0.25201E+01        -0.70257E+01         0.00000E+00
    0.24520E+01        -0.62341E+01         0.00000E+00
    0.23666E+01        -0.54352E+01         0.00000E+00
    0.22501E+01        -0.46236E+01         0.00000E+00
    0.20837E+01        -0.37900E+01         0.00000E+00
    0.18392E+01        -0.29216E+01         0.00000E+00
    0.14687E+01        -0.20027E+01         0.00000E+00
    0.89334E+00        -0.10234E+01         0.00000E+00
    0.00000E+00         0.00000E+00         0.00000E+00
    0.37736E+01        -0.13077E+02         0.00000E+00
    0.28991E+01        -0.12430E+02         0.00000E+00
    0.25000E+01        -0.11672E+02         0.00000E+00
    0.23101E+01        -0.10827E+02         0.00000E+00
    0.22047E+01        -0.99557E+01         0.00000E+00
    0.21387E+01        -0.90851E+01         0.00000E+00
    0.20900E+01        -0.82249E+01         0.00000E+00
    0.20459E+01        -0.73767E+01         0.00000E+00
    0.19973E+01        -0.65379E+01         0.00000E+00
    0.19358E+01        -0.57029E+01         0.00000E+00
    0.18519E+01        -0.48637E+01         0.00000E+00
    0.17319E+01        -0.40087E+01         0.00000E+00
    0.15538E+01        -0.31213E+01         0.00000E+00
    0.12774E+01        -0.21769E+01         0.00000E+00
    0.81567E+00        -0.11398E+01         0.00000E+00
    0.00000E+00         0.00000E+00         0.00000E+00
    0.23576E+01        -0.14287E+02         0.00000E+00
    0.17202E+01        -0.13397E+02         0.00000E+00
    0.15291E+01        -0.12366E+02         0.00000E+00
    0.14299E+01        -0.11339E+02         0.00000E+00
    0.13711E+01        -0.10350E+02         0.00000E+00
    0.13312E+01        -0.93990E+01         0.00000E+00
    0.13000E+01        -0.84821E+01         0.00000E+00
    0.12713E+01        -0.75926E+01         0.00000E+00
    0.12407E+01        -0.67235E+01         0.00000E+00
    0.12038E+01        -0.58664E+01         0.00000E+00
    0.11554E+01        -0.50116E+01         0.00000E+00
    0.10883E+01        -0.41466E+01         0.00000E+00
    0.99035E+00        -0.32537E+01         0.00000E+00
    0.83817E+00        -0.23060E+01         0.00000E+00
    0.57958E+00        -0.12524E+01         0.00000E+00
    0.00000E+00         0.00000E+00         0.00000E+00
    0.00000E+00        -0.15210E+02         0.00000E+00
    0.00000E+00        -0.13822E+02         0.00000E+00
    0.00000E+00        -0.12609E+02         0.00000E+00
    0.00000E+00        -0.11507E+02         0.00000E+00
    0.00000E+00        -0.10475E+02         0.00000E+00
    0.00000E+00        -0.94970E+01         0.00000E+00
    0.00000E+00        -0.85615E+01         0.00000E+00
    0.00000E+00        -0.76588E+01         0.00000E+00
    0.00000E+00        -0.67801E+01         0.00000E+00
    0.00000E+00        -0.59161E+01         0.00000E+00
    0.00000E+00        -0.50566E+01         0.00000E+00
    0.00000E+00        -0.41889E+01         0.00000E+00
    0.00000E+00        -0.32955E+01         0.00000E+00
    0.00000E+00        -0.23495E+01         0.00000E+00
    0.00000E+00        -0.13028E+01         0.00000E+00
    0.00000E+00         0.00000E+00         0.00000E+00
CELL_DATA        450
VECTORS vDarcy double 
    0.99205E-06         0.54602E-07         0.00000E+00
    0.98785E-06         0.12022E-06         0.00000E+00
    0.99491E-06         0.14645E-06         0.00000E+00
    0.10011E-05         0.15389E-06         0.00000E+00
    0.10060E-05         0.15267E-06         0.00000E+00
    0.10097E-05         0.14795E-06         0.00000E+00
    0.10126E-05         0.14219E-06         0.00000E+00
    0.10148E-05         0.13641E-06         0.00000E+00
    0.10168E-05         0.13087E-06         0.00000E+00
    0.10189E-05         0.12541E-06         0.00000E+00
    0.10212E-05         0.11940E-06         0.00000E+00
    0.10241E-05         0.11140E-06         0.00000E+00
    0.10273E-05         0.98611E-07         0.00000E+00
    0.10310E-05         0.76066E-07         0.00000E+00
    0.10276E-05         0.34174E-07         0.00000E+00
    0.66009E-06         0.42162E-07         0.00000E+00
    0.66833E-06         0.97453E-07         0.00000E+00
    0.68358E-06         0.12551E-06         0.00000E+00
    0.69941E-06         0.13644E-06         0.00000E+00
    0.71241E-06         0.13852E-06         0.00000E+00
    0.72242E-06         0.13637E-06         0.00000E+00
    0.73010E-06         0.13237E-06         0.00000E+00
    0.73630E-06         0.12759E-06         0.00000E+00
    0.74186E-06         0.12240E-06         0.00000E+00
    0.74753E-06         0.11670E-06         0.00000E+00
    0.75392E-06         0.10990E-06         0.00000E+00
    0.76141E-06         0.10071E-06         0.00000E+00
    0.76984E-06         0.86653E-07         0.00000E+00
    0.77707E-06         0.63505E-07         0.00000E+00
    0.78062E-06         0.27500E-07         0.00000E+00
    0.38402E-06         0.30712E-07         0.00000E+00
    0.40020E-06         0.74515E-07         0.00000E+00
    0.42176E-06         0.10077E-06         0.00000E+00
    0.44263E-06         0.11482E-06         0.00000E+00
    0.46018E-06         0.12089E-06         0.00000E+00
    0.47400E-06         0.12217E-06         0.00000E+00
    0.48482E-06         0.12060E-06         0.00000E+00
    0.49369E-06         0.11720E-06         0.00000E+00
    0.50170E-06         0.11244E-06         0.00000E+00
    0.50982E-06         0.10631E-06         0.00000E+00
    0.51887E-06         0.98430E-07         0.00000E+00
    0.52929E-06         0.87863E-07         0.00000E+00
    0.54077E-06         0.73020E-07         0.00000E+00
    0.55194E-06         0.51880E-07         0.00000E+00
    0.56021E-06         0.21714E-07         0.00000E+00
    0.19068E-06         0.19015E-07         0.00000E+00
    0.20676E-06         0.51793E-07         0.00000E+00
    0.22830E-06         0.76242E-07         0.00000E+00
    0.24930E-06         0.92712E-07         0.00000E+00
    0.26739E-06         0.10252E-06         0.00000E+00
    0.28209E-06         0.10725E-06         0.00000E+00
    0.29393E-06         0.10821E-06         0.00000E+00
    0.30385E-06         0.10629E-06         0.00000E+00
    0.31289E-06         0.10197E-06         0.00000E+00
    0.32201E-06         0.95382E-07         0.00000E+00
    0.33200E-06         0.86371E-07         0.00000E+00
    0.34327E-06         0.74502E-07         0.00000E+00
    0.35562E-06         0.59177E-07         0.00000E+00
    0.36783E-06         0.39705E-07         0.00000E+00
    0.37712E-06         0.15197E-07         0.00000E+00
    0.74918E-07         0.97962E-08         0.00000E+00
    0.86448E-07         0.33081E-07         0.00000E+00
    0.10302E-06         0.55449E-07         0.00000E+00
    0.12010E-06         0.73368E-07         0.00000E+00
    0.13552E-06         0.85939E-07         0.00000E+00
    0.14863E-06         0.93444E-07         0.00000E+00
    0.15959E-06         0.96556E-07         0.00000E+00
    0.16905E-06         0.95923E-07         0.00000E+00
    0.17776E-06         0.92002E-07         0.00000E+00
    0.18648E-06         0.85036E-07         0.00000E+00
    0.19583E-06         0.75096E-07         0.00000E+00
    0.20609E-06         0.62213E-07         0.00000E+00
    0.21703E-06         0.46551E-07         0.00000E+00
    0.22758E-06         0.28613E-07         0.00000E+00
    0.23534E-06         0.93675E-08         0.00000E+00
    0.15578E-07         0.42910E-08         0.00000E+00
    0.21824E-07         0.20749E-07         0.00000E+00
    0.31891E-07         0.40695E-07         0.00000E+00
    0.43295E-07         0.58829E-07         0.00000E+00
    0.54399E-07         0.72853E-07         0.00000E+00
    0.64435E-07         0.82102E-07         0.00000E+00
    0.73270E-07         0.86688E-07         0.00000E+00
    0.81158E-07         0.86990E-07         0.00000E+00
    0.88530E-07         0.83393E-07         0.00000E+00
    0.95845E-07         0.76202E-07         0.00000E+00
    0.10345E-06         0.65689E-07         0.00000E+00
    0.11147E-06         0.52240E-07         0.00000E+00
    0.11962E-06         0.36601E-07         0.00000E+00
    0.12709E-06         0.20148E-07         0.00000E+00
    0.13225E-06         0.51410E-08         0.00000E+00
   -0.97282E-08         0.20493E-08         0.00000E+00
   -0.75676E-08         0.14586E-07         0.00000E+00
   -0.30963E-08         0.32230E-07         0.00000E+00
    0.29334E-08         0.49617E-07         0.00000E+00
    0.95738E-08         0.63904E-07         0.00000E+00
    0.16155E-07         0.73865E-07         0.00000E+00
    0.22363E-07         0.79197E-07         0.00000E+00
    0.28161E-07         0.80035E-07         0.00000E+00
    0.33674E-07         0.76668E-07         0.00000E+00
    0.39067E-07         0.69433E-07         0.00000E+00
    0.44448E-07         0.58737E-07         0.00000E+00
    0.49777E-07         0.45216E-07         0.00000E+00
    0.54801E-07         0.29973E-07         0.00000E+00
    0.59007E-07         0.14862E-07         0.00000E+00
    0.61615E-07         0.27355E-08         0.00000E+00
   -0.17446E-07         0.19422E-08         0.00000E+00
   -0.17772E-07         0.12948E-07         0.00000E+00
   -0.17107E-07         0.28828E-07         0.00000E+00
   -0.15112E-07         0.45034E-07         0.00000E+00
   -0.12122E-07         0.58793E-07         0.00000E+00
   -0.85894E-08         0.68681E-07         0.00000E+00
   -0.48624E-08         0.74157E-07         0.00000E+00
   -0.11443E-08         0.75183E-07         0.00000E+00
    0.24688E-08         0.71963E-07         0.00000E+00
    0.59230E-08         0.64837E-07         0.00000E+00
    0.91443E-08         0.54290E-07         0.00000E+00
    0.11999E-07         0.41088E-07         0.00000E+00
    0.14290E-07         0.26482E-07         0.00000E+00
    0.15809E-07         0.12447E-07         0.00000E+00
    0.16458E-07         0.18666E-08         0.00000E+00
   -0.17237E-07         0.29285E-08         0.00000E+00
   -0.18768E-07         0.13991E-07         0.00000E+00
   -0.20219E-07         0.28780E-07         0.00000E+00
   -0.20733E-07         0.43793E-07         0.00000E+00
   -0.20224E-07         0.56653E-07         0.00000E+00
   -0.18918E-07         0.65998E-07         0.00000E+00
   -0.17113E-07         0.71218E-07         0.00000E+00
   -0.15077E-07         0.72184E-07         0.00000E+00
   -0.13028E-07         0.69048E-07         0.00000E+00
   -0.11159E-07         0.62137E-07         0.00000E+00
   -0.96495E-08         0.51962E-07         0.00000E+00
   -0.86741E-08         0.39314E-07         0.00000E+00
   -0.83557E-08         0.25429E-07         0.00000E+00
   -0.86662E-08         0.12153E-07         0.00000E+00
   -0.92591E-08         0.20547E-08         0.00000E+00
   -0.13758E-07         0.43087E-08         0.00000E+00
   -0.15667E-07         0.16273E-07         0.00000E+00
   -0.17982E-07         0.30532E-07         0.00000E+00
   -0.19706E-07         0.44537E-07         0.00000E+00
   -0.20527E-07         0.56412E-07         0.00000E+00
   -0.20506E-07         0.65003E-07         0.00000E+00
   -0.19868E-07         0.69751E-07         0.00000E+00
   -0.18886E-07         0.70515E-07         0.00000E+00
   -0.17834E-07         0.67424E-07         0.00000E+00
   -0.16970E-07         0.60789E-07         0.00000E+00
   -0.16527E-07         0.51105E-07         0.00000E+00
   -0.16683E-07         0.39119E-07         0.00000E+00
   -0.17498E-07         0.25938E-07         0.00000E+00
   -0.18796E-07         0.13142E-07         0.00000E+00
   -0.20002E-07         0.28302E-08         0.00000E+00
   -0.86594E-08         0.56868E-08         0.00000E+00
   -0.10468E-07         0.18838E-07         0.00000E+00
   -0.12818E-07         0.32901E-07         0.00000E+00
   -0.14768E-07         0.46093E-07         0.00000E+00
   -0.15938E-07         0.57024E-07         0.00000E+00
   -0.16301E-07         0.64802E-07         0.00000E+00
   -0.16027E-07         0.68991E-07         0.00000E+00
   -0.15376E-07         0.69490E-07         0.00000E+00
   -0.14639E-07         0.66430E-07         0.00000E+00
   -0.14103E-07         0.60106E-07         0.00000E+00
   -0.14020E-07         0.50973E-07         0.00000E+00
   -0.14559E-07         0.39685E-07         0.00000E+00
   -0.15743E-07         0.27167E-07         0.00000E+00
   -0.17330E-07         0.14678E-07         0.00000E+00
   -0.18677E-07         0.38206E-08         0.00000E+00
   -0.19751E-08         0.68542E-08         0.00000E+00
   -0.34197E-08         0.21089E-07         0.00000E+00
   -0.52656E-08         0.35045E-07         0.00000E+00
   -0.67247E-08         0.47524E-07         0.00000E+00
   -0.74463E-08         0.57558E-07         0.00000E+00
   -0.73892E-08         0.64527E-07         0.00000E+00
   -0.67051E-08         0.68138E-07         0.00000E+00
   -0.56504E-08         0.68359E-07         0.00000E+00
   -0.45245E-08         0.65341E-07         0.00000E+00
   -0.36272E-08         0.59361E-07         0.00000E+00
   -0.32185E-08         0.50821E-07         0.00000E+00
   -0.34687E-08         0.40259E-07         0.00000E+00
   -0.43884E-08         0.28401E-07         0.00000E+00
   -0.57357E-08         0.16186E-07         0.00000E+00
   -0.69066E-08         0.47619E-08         0.00000E+00
    0.70954E-08         0.76924E-08         0.00000E+00
    0.61638E-08         0.22638E-07         0.00000E+00
    0.51850E-08         0.36348E-07         0.00000E+00
    0.47571E-08         0.48076E-07         0.00000E+00
    0.51343E-08         0.57208E-07         0.00000E+00
    0.63134E-08         0.63366E-07         0.00000E+00
    0.81194E-08         0.66405E-07         0.00000E+00
    0.10278E-07         0.66368E-07         0.00000E+00
    0.12472E-07         0.63428E-07         0.00000E+00
    0.14383E-07         0.57846E-07         0.00000E+00
    0.15737E-07         0.49959E-07         0.00000E+00
    0.16350E-07         0.40190E-07         0.00000E+00
    0.16190E-07         0.29068E-07         0.00000E+00
    0.15455E-07         0.17246E-07         0.00000E+00
    0.14650E-07         0.54786E-08         0.00000E+00
    0.19805E-07         0.81159E-08         0.00000E+00
    0.19469E-07         0.23193E-07         0.00000E+00
    0.19623E-07         0.36325E-07         0.00000E+00
    0.20655E-07         0.47123E-07         0.00000E+00
    0.22677E-07         0.55264E-07         0.00000E+00
    0.25593E-07         0.60578E-07         0.00000E+00
    0.29167E-07         0.63050E-07         0.00000E+00
    0.33077E-07         0.62793E-07         0.00000E+00
    0.36966E-07         0.59996E-07         0.00000E+00
    0.40485E-07         0.54900E-07         0.00000E+00
    0.43326E-07         0.47776E-07         0.00000E+00
    0.45273E-07         0.38933E-07         0.00000E+00
    0.46248E-07         0.28724E-07         0.00000E+00
    0.46372E-07         0.17552E-07         0.00000E+00
    0.46022E-07         0.58573E-08         0.00000E+00
    0.37681E-07         0.80444E-08         0.00000E+00
    0.37972E-07         0.22498E-07         0.00000E+00
    0.39466E-07         0.34550E-07         0.00000E+00
    0.42316E-07         0.44106E-07         0.00000E+00
    0.46456E-07         0.51083E-07         0.00000E+00
    0.51658E-07         0.55478E-07         0.00000E+00
    0.57583E-07         0.57382E-07         0.00000E+00
    0.63831E-07         0.56957E-07         0.00000E+00
    0.69983E-07         0.54402E-07         0.00000E+00
    0.75634E-07         0.49926E-07         0.00000E+00
    0.80426E-07         0.43737E-07         0.00000E+00
    0.84087E-07         0.36036E-07         0.00000E+00
    0.86470E-07         0.27020E-07         0.00000E+00
    0.87597E-07         0.16888E-07         0.00000E+00
    0.87708E-07         0.58248E-08         0.00000E+00
    0.62419E-07         0.73933E-08         0.00000E+00
    0.63322E-07         0.20301E-07         0.00000E+00
    0.66317E-07         0.30620E-07         0.00000E+00
    0.71297E-07         0.38509E-07         0.00000E+00
    0.77980E-07         0.44072E-07         0.00000E+00
    0.85962E-07         0.47436E-07         0.00000E+00
    0.94765E-07         0.48765E-07         0.00000E+00
    0.10388E-06         0.48245E-07         0.00000E+00
    0.11280E-06         0.46066E-07         0.00000E+00
    0.12104E-06         0.42398E-07         0.00000E+00
    0.12817E-06         0.37381E-07         0.00000E+00
    0.13385E-06         0.31121E-07         0.00000E+00
    0.13783E-06         0.23682E-07         0.00000E+00
    0.14002E-06         0.15091E-07         0.00000E+00
    0.14052E-06         0.53316E-08         0.00000E+00
    0.95802E-07         0.60718E-08         0.00000E+00
    0.97244E-07         0.16345E-07         0.00000E+00
    0.10187E-06         0.24144E-07         0.00000E+00
    0.10926E-06         0.29837E-07         0.00000E+00
    0.11888E-06         0.33677E-07         0.00000E+00
    0.13010E-06         0.35877E-07         0.00000E+00
    0.14226E-06         0.36629E-07         0.00000E+00
    0.15471E-06         0.36113E-07         0.00000E+00
    0.16684E-06         0.34485E-07         0.00000E+00
    0.17806E-06         0.31864E-07         0.00000E+00
    0.18786E-06         0.28324E-07         0.00000E+00
    0.19577E-06         0.23881E-07         0.00000E+00
    0.20146E-06         0.18490E-07         0.00000E+00
    0.20471E-06         0.12037E-07         0.00000E+00
    0.20544E-06         0.43428E-08         0.00000E+00
    0.13958E-06         0.39841E-08         0.00000E+00
    0.14144E-06         0.10368E-07         0.00000E+00
    0.14780E-06         0.14731E-07         0.00000E+00
    0.15789E-06         0.17621E-07         0.00000E+00
    0.17082E-06         0.19396E-07         0.00000E+00
    0.18570E-06         0.20295E-07         0.00000E+00
    0.20166E-06         0.20494E-07         0.00000E+00
    0.21787E-06         0.20118E-07         0.00000E+00
    0.23358E-06         0.19259E-07         0.00000E+00
    0.24811E-06         0.17969E-07         0.00000E+00
    0.26082E-06         0.16257E-07         0.00000E+00
    0.27115E-06         0.14068E-07         0.00000E+00
    0.27861E-06         0.11268E-07         0.00000E+00
    0.28282E-06         0.76290E-08         0.00000E+00
    0.28357E-06         0.28306E-08         0.00000E+00
    0.19536E-06         0.10290E-08         0.00000E+00
    0.19748E-06         0.20972E-08         0.00000E+00
    0.20570E-06         0.19941E-08         0.00000E+00
    0.21878E-06         0.14223E-08         0.00000E+00
    0.23542E-06         0.78546E-09         0.00000E+00
    0.25439E-06         0.28632E-09         0.00000E+00
    0.27455E-06         0.44339E-11         0.00000E+00
    0.29487E-06        -0.45881E-10         0.00000E+00
    0.31448E-06         0.12133E-09         0.00000E+00
    0.33256E-06         0.47773E-09         0.00000E+00
    0.34838E-06         0.97197E-09         0.00000E+00
    0.36123E-06         0.15018E-08         0.00000E+00
    0.37048E-06         0.18761E-08         0.00000E+00
    0.37554E-06         0.17815E-08         0.00000E+00
    0.37599E-06         0.77017E-09         0.00000E+00
    0.26438E-06        -0.29024E-08         0.00000E+00
    0.26662E-06        -0.87545E-08         0.00000E+00
    0.27691E-06        -0.14450E-07         0.00000E+00
    0.29338E-06        -0.19156E-07         0.00000E+00
    0.31420E-06        -0.22495E-07         0.00000E+00
    0.33770E-06        -0.24404E-07         0.00000E+00
    0.36241E-06        -0.25002E-07         0.00000E+00
    0.38713E-06        -0.24473E-07         0.00000E+00
    0.41083E-06        -0.22987E-07         0.00000E+00
    0.43263E-06        -0.20669E-07         0.00000E+00
    0.45169E-06        -0.17609E-07         0.00000E+00
    0.46716E-06        -0.13916E-07         0.00000E+00
    0.47819E-06        -0.97868E-08         0.00000E+00
    0.48395E-06        -0.55817E-08         0.00000E+00
    0.48374E-06        -0.18651E-08         0.00000E+00
    0.34734E-06        -0.79337E-08         0.00000E+00
    0.34969E-06        -0.22502E-07         0.00000E+00
    0.36243E-06        -0.34983E-07         0.00000E+00
    0.38289E-06        -0.44440E-07         0.00000E+00
    0.40849E-06        -0.50631E-07         0.00000E+00
    0.43699E-06        -0.53792E-07         0.00000E+00
    0.46657E-06        -0.54394E-07         0.00000E+00
    0.49584E-06        -0.52939E-07         0.00000E+00
    0.52371E-06        -0.49822E-07         0.00000E+00
    0.54928E-06        -0.45272E-07         0.00000E+00
    0.57163E-06        -0.39378E-07         0.00000E+00
    0.58980E-06        -0.32175E-07         0.00000E+00
    0.60265E-06        -0.23782E-07         0.00000E+00
    0.60900E-06        -0.14539E-07         0.00000E+00
    0.60774E-06        -0.51092E-08         0.00000E+00
    0.44415E-06        -0.14218E-07         0.00000E+00
    0.44684E-06        -0.39517E-07         0.00000E+00
    0.46283E-06        -0.59994E-07         0.00000E+00
    0.48822E-06        -0.74647E-07         0.00000E+00
    0.51941E-06        -0.83560E-07         0.00000E+00
    0.55344E-06        -0.87516E-07         0.00000E+00
    0.58810E-06        -0.87580E-07         0.00000E+00
    0.62190E-06        -0.84739E-07         0.00000E+00
    0.65380E-06        -0.79687E-07         0.00000E+00
    0.68299E-06        -0.72754E-07         0.00000E+00
    0.70861E-06        -0.63947E-07         0.00000E+00
    0.72955E-06        -0.53106E-07         0.00000E+00
    0.74437E-06        -0.40118E-07         0.00000E+00
    0.75135E-06        -0.25179E-07         0.00000E+00
    0.74875E-06        -0.90111E-08         0.00000E+00
    0.55361E-06        -0.21965E-07         0.00000E+00
    0.55743E-06        -0.60271E-07         0.00000E+00
    0.57814E-06        -0.89877E-07         0.00000E+00
    0.61000E-06        -0.10980E-06         0.00000E+00
    0.64792E-06        -0.12080E-06         0.00000E+00
    0.68802E-06        -0.12462E-06         0.00000E+00
    0.72777E-06        -0.12328E-06         0.00000E+00
    0.76574E-06        -0.11846E-06         0.00000E+00
    0.80119E-06        -0.11122E-06         0.00000E+00
    0.83361E-06        -0.10197E-06         0.00000E+00
    0.86231E-06        -0.90514E-07         0.00000E+00
    0.88616E-06        -0.76291E-07         0.00000E+00
    0.90330E-06        -0.58715E-07         0.00000E+00
    0.91129E-06        -0.37612E-07         0.00000E+00
    0.90734E-06        -0.13644E-07         0.00000E+00
    0.67301E-06        -0.31493E-07         0.00000E+00
    0.67977E-06        -0.85424E-07         0.00000E+00
    0.70789E-06        -0.12502E-06         0.00000E+00
    0.74868E-06        -0.14956E-06         0.00000E+00
    0.79485E-06        -0.16113E-06         0.00000E+00
    0.84147E-06        -0.16319E-06         0.00000E+00
    0.88590E-06        -0.15918E-06         0.00000E+00
    0.92717E-06        -0.15167E-06         0.00000E+00
    0.96517E-06        -0.14215E-06         0.00000E+00
    0.99999E-06        -0.13098E-06         0.00000E+00
    0.10314E-05        -0.11764E-06         0.00000E+00
    0.10583E-05        -0.10091E-06         0.00000E+00
    0.10785E-05        -0.79336E-07         0.00000E+00
    0.10885E-05        -0.51960E-07         0.00000E+00
    0.10839E-05        -0.19116E-07         0.00000E+00
    0.79759E-06        -0.43333E-07         0.00000E+00
    0.81098E-06        -0.11596E-06         0.00000E+00
    0.85130E-06        -0.16571E-06         0.00000E+00
    0.90481E-06        -0.19279E-06         0.00000E+00
    0.96105E-06        -0.20206E-06         0.00000E+00
    0.10142E-05        -0.19984E-06         0.00000E+00
    0.10621E-05        -0.19154E-06         0.00000E+00
    0.11051E-05        -0.18067E-06         0.00000E+00
    0.11439E-05        -0.16899E-06         0.00000E+00
    0.11797E-05        -0.15675E-06         0.00000E+00
    0.12130E-05        -0.14295E-06         0.00000E+00
    0.12432E-05        -0.12544E-06         0.00000E+00
    0.12677E-05        -0.10140E-06         0.00000E+00
    0.12818E-05        -0.68318E-07         0.00000E+00
    0.12784E-05        -0.25574E-07         0.00000E+00
    0.91964E-06        -0.58429E-07         0.00000E+00
    0.94700E-06        -0.15337E-06         0.00000E+00
    0.10079E-05        -0.21166E-06         0.00000E+00
    0.10796E-05        -0.23653E-06         0.00000E+00
    0.11474E-05        -0.23861E-06         0.00000E+00
    0.12058E-05        -0.22889E-06         0.00000E+00
    0.12549E-05        -0.21480E-06         0.00000E+00
    0.12968E-05        -0.20026E-06         0.00000E+00
    0.13341E-05        -0.18692E-06         0.00000E+00
    0.13687E-05        -0.17482E-06         0.00000E+00
    0.14024E-05        -0.16258E-06         0.00000E+00
    0.14357E-05        -0.14708E-06         0.00000E+00
    0.14665E-05        -0.12354E-06         0.00000E+00
    0.14885E-05        -0.86576E-07         0.00000E+00
    0.14907E-05        -0.33174E-07         0.00000E+00
    0.10269E-05        -0.78673E-07         0.00000E+00
    0.10830E-05        -0.19970E-06         0.00000E+00
    0.11790E-05        -0.26049E-06         0.00000E+00
    0.12754E-05        -0.27317E-06         0.00000E+00
    0.13539E-05        -0.26136E-06         0.00000E+00
    0.14137E-05        -0.24170E-06         0.00000E+00
    0.14601E-05        -0.22151E-06         0.00000E+00
    0.14977E-05        -0.20390E-06         0.00000E+00
    0.15302E-05        -0.18989E-06         0.00000E+00
    0.15609E-05        -0.17926E-06         0.00000E+00
    0.15926E-05        -0.17058E-06         0.00000E+00
    0.16278E-05        -0.16066E-06         0.00000E+00
    0.16667E-05        -0.14247E-06         0.00000E+00
    0.17029E-05        -0.10586E-06         0.00000E+00
    0.17199E-05        -0.41997E-07         0.00000E+00
    0.10994E-05        -0.10726E-06         0.00000E+00
    0.12159E-05        -0.25822E-06         0.00000E+00
    0.13722E-05        -0.29977E-06         0.00000E+00
    0.14950E-05        -0.28337E-06         0.00000E+00
    0.15756E-05        -0.25496E-06         0.00000E+00
    0.16304E-05        -0.22675E-06         0.00000E+00
    0.16693E-05        -0.20282E-06         0.00000E+00
    0.16989E-05        -0.18428E-06         0.00000E+00
    0.17238E-05        -0.17115E-06         0.00000E+00
    0.17477E-05        -0.16297E-06         0.00000E+00
    0.17742E-05        -0.15875E-06         0.00000E+00
    0.18075E-05        -0.15634E-06         0.00000E+00
    0.18546E-05        -0.15045E-06         0.00000E+00
    0.19137E-05        -0.12278E-06         0.00000E+00
    0.19633E-05        -0.51206E-07         0.00000E+00
    0.10976E-05        -0.17006E-06         0.00000E+00
    0.13647E-05        -0.30636E-06         0.00000E+00
    0.16036E-05        -0.27514E-06         0.00000E+00
    0.17244E-05        -0.23432E-06         0.00000E+00
    0.17954E-05        -0.19871E-06         0.00000E+00
    0.18383E-05        -0.17047E-06         0.00000E+00
    0.18659E-05        -0.14912E-06         0.00000E+00
    0.18852E-05        -0.13381E-06         0.00000E+00
    0.19007E-05        -0.12381E-06         0.00000E+00
    0.19160E-05        -0.11859E-06         0.00000E+00
    0.19346E-05        -0.11770E-06         0.00000E+00
    0.19619E-05        -0.12057E-06         0.00000E+00
    0.20067E-05        -0.12555E-06         0.00000E+00
    0.20971E-05        -0.12527E-06         0.00000E+00
    0.22134E-05        -0.59580E-07         0.00000E+00
    0.99116E-06        -0.35911E-07         0.00000E+00
    0.15922E-05        -0.90631E-07         0.00000E+00
    0.18041E-05        -0.78550E-07         0.00000E+00
    0.19119E-05        -0.67841E-07         0.00000E+00
    0.19677E-05        -0.57914E-07         0.00000E+00
    0.19979E-05        -0.50086E-07         0.00000E+00
    0.20147E-05        -0.44178E-07         0.00000E+00
    0.20246E-05        -0.40016E-07         0.00000E+00
    0.20317E-05        -0.37449E-07         0.00000E+00
    0.20393E-05        -0.36407E-07         0.00000E+00
    0.20506E-05        -0.36899E-07         0.00000E+00
    0.20709E-05        -0.39075E-07         0.00000E+00
    0.21108E-05        -0.42852E-07         0.00000E+00
    0.21917E-05        -0.50509E-07         0.00000E+00
    0.24449E-05        -0.28355E-07         0.00000E+00
POINT_DATA        496
VECTORS vDarcyNodal double 
    0.98612E-06         0.60539E-07         0.00000E+00
    0.98807E-06         0.95228E-07         0.00000E+00
    0.99298E-06         0.14143E-06         0.00000E+00
    0.99890E-06         0.15576E-06         0.00000E+00
    0.10042E-05         0.15729E-06         0.00000E+00
    0.10083E-05         0.15321E-06         0.00000E+00
    0.10114E-05         0.14726E-06         0.00000E+00
    0.10138E-05         0.14108E-06         0.00000E+00
    0.10159E-05         0.13525E-06         0.00000E+00
    0.10178E-05         0.12979E-06         0.00000E+00
    0.10199E-05         0.12432E-06         0.00000E+00
    0.10223E-05         0.11782E-06         0.00000E+00
    0.10252E-05         0.10823E-06         0.00000E+00
    0.10281E-05         0.92112E-07         0.00000E+00
    0.10303E-05         0.59953E-07         0.00000E+00
    0.10314E-05         0.37997E-07         0.00000E+00
    0.82090E-06         0.47617E-07         0.00000E+00
    0.82486E-06         0.78189E-07         0.00000E+00
    0.83428E-06         0.12332E-06         0.00000E+00
    0.84565E-06         0.14247E-06         0.00000E+00
    0.85555E-06         0.14712E-06         0.00000E+00
    0.86326E-06         0.14529E-06         0.00000E+00
    0.86911E-06         0.14083E-06         0.00000E+00
    0.87366E-06         0.13555E-06         0.00000E+00
    0.87750E-06         0.13013E-06         0.00000E+00
    0.88118E-06         0.12467E-06         0.00000E+00
    0.88515E-06         0.11876E-06         0.00000E+00
    0.88980E-06         0.11136E-06         0.00000E+00
    0.89523E-06         0.10033E-06         0.00000E+00
    0.90096E-06         0.81431E-07         0.00000E+00
    0.90522E-06         0.49678E-07         0.00000E+00
    0.90715E-06         0.30068E-07         0.00000E+00
    0.51696E-06         0.37128E-07         0.00000E+00
    0.52556E-06         0.61938E-07         0.00000E+00
    0.54310E-06         0.10032E-06         0.00000E+00
    0.56266E-06         0.12023E-06         0.00000E+00
    0.57967E-06         0.12858E-06         0.00000E+00
    0.59311E-06         0.13030E-06         0.00000E+00
    0.60343E-06         0.12857E-06         0.00000E+00
    0.61155E-06         0.12503E-06         0.00000E+00
    0.61847E-06         0.12045E-06         0.00000E+00
    0.62509E-06         0.11500E-06         0.00000E+00
    0.63222E-06         0.10840E-06         0.00000E+00
    0.64047E-06         0.99813E-07         0.00000E+00
    0.65004E-06         0.87560E-07         0.00000E+00
    0.66026E-06         0.69189E-07         0.00000E+00
    0.66875E-06         0.41582E-07         0.00000E+00
    0.67312E-06         0.25033E-07         0.00000E+00
    0.28175E-06         0.24669E-07         0.00000E+00
    0.29282E-06         0.43775E-07         0.00000E+00
    0.31388E-06         0.75566E-07         0.00000E+00
    0.33614E-06         0.95965E-07         0.00000E+00
    0.35583E-06         0.10773E-06         0.00000E+00
    0.37179E-06         0.11333E-06         0.00000E+00
    0.38434E-06         0.11474E-06         0.00000E+00
    0.39443E-06         0.11328E-06         0.00000E+00
    0.40313E-06         0.10968E-06         0.00000E+00
    0.41147E-06         0.10422E-06         0.00000E+00
    0.42036E-06         0.96791E-07         0.00000E+00
    0.43048E-06         0.86910E-07         0.00000E+00
    0.44205E-06         0.73712E-07         0.00000E+00
    0.45437E-06         0.56010E-07         0.00000E+00
    0.46559E-06         0.32170E-07         0.00000E+00
    0.47182E-06         0.18476E-07         0.00000E+00
    0.12826E-06         0.13545E-07         0.00000E+00
    0.13740E-06         0.27306E-07         0.00000E+00
    0.15566E-06         0.52850E-07         0.00000E+00
    0.17558E-06         0.73390E-07         0.00000E+00
    0.19379E-06         0.87901E-07         0.00000E+00
    0.20912E-06         0.96830E-07         0.00000E+00
    0.22160E-06         0.10110E-06         0.00000E+00
    0.23193E-06         0.10158E-06         0.00000E+00
    0.24098E-06         0.98923E-07         0.00000E+00
    0.24968E-06         0.93459E-07         0.00000E+00
    0.25883E-06         0.85270E-07         0.00000E+00
    0.26901E-06         0.74246E-07         0.00000E+00
    0.28038E-06         0.60208E-07         0.00000E+00
    0.29235E-06         0.43051E-07         0.00000E+00
    0.30324E-06         0.22829E-07         0.00000E+00
    0.30910E-06         0.11969E-07         0.00000E+00
    0.42505E-07         0.61059E-08         0.00000E+00
    0.48007E-07         0.15676E-07         0.00000E+00
    0.60219E-07         0.35856E-07         0.00000E+00
    0.74655E-07         0.55637E-07         0.00000E+00
    0.88713E-07         0.71631E-07         0.00000E+00
    0.10120E-06         0.82781E-07         0.00000E+00
    0.11186E-06         0.89130E-07         0.00000E+00
    0.12100E-06         0.91116E-07         0.00000E+00
    0.12920E-06         0.89213E-07         0.00000E+00
    0.13709E-06         0.83778E-07         0.00000E+00
    0.14524E-06         0.75045E-07         0.00000E+00
    0.15405E-06         0.63225E-07         0.00000E+00
    0.16353E-06         0.48688E-07         0.00000E+00
    0.17318E-06         0.32208E-07         0.00000E+00
    0.18160E-06         0.15202E-07         0.00000E+00
    0.18589E-06         0.67931E-08         0.00000E+00
    0.18030E-08         0.24869E-08         0.00000E+00
    0.40495E-08         0.93931E-08         0.00000E+00
    0.10198E-07         0.25654E-07         0.00000E+00
    0.18584E-07         0.43981E-07         0.00000E+00
    0.27631E-07         0.60162E-07         0.00000E+00
    0.36332E-07         0.72293E-07         0.00000E+00
    0.44252E-07         0.79783E-07         0.00000E+00
    0.51378E-07         0.82683E-07         0.00000E+00
    0.57940E-07         0.81286E-07         0.00000E+00
    0.64265E-07         0.75925E-07         0.00000E+00
    0.70649E-07         0.66942E-07         0.00000E+00
    0.77255E-07         0.54785E-07         0.00000E+00
    0.84000E-07         0.40217E-07         0.00000E+00
    0.90449E-07         0.24585E-07         0.00000E+00
    0.95695E-07         0.10109E-07         0.00000E+00
    0.98126E-07         0.35014E-08         0.00000E+00
   -0.13643E-07         0.16130E-08         0.00000E+00
   -0.13515E-07         0.72500E-08         0.00000E+00
   -0.11824E-07         0.21185E-07         0.00000E+00
   -0.83826E-08         0.37905E-07         0.00000E+00
   -0.38029E-08         0.53409E-07         0.00000E+00
    0.12470E-08         0.65533E-07         0.00000E+00
    0.63123E-08         0.73339E-07         0.00000E+00
    0.11183E-07         0.76608E-07         0.00000E+00
    0.15830E-07         0.75473E-07         0.00000E+00
    0.20310E-07         0.70227E-07         0.00000E+00
    0.24679E-07         0.61272E-07         0.00000E+00
    0.28914E-07         0.49204E-07         0.00000E+00
    0.32865E-07         0.34999E-07         0.00000E+00
    0.36234E-07         0.20268E-07         0.00000E+00
    0.38598E-07         0.74972E-08         0.00000E+00
    0.39467E-07         0.19742E-08         0.00000E+00
   -0.16853E-07         0.22735E-08         0.00000E+00
   -0.17797E-07         0.76446E-08         0.00000E+00
   -0.18740E-07         0.20601E-07         0.00000E+00
   -0.18586E-07         0.35973E-07         0.00000E+00
   -0.17264E-07         0.50439E-07         0.00000E+00
   -0.15089E-07         0.61965E-07         0.00000E+00
   -0.12425E-07         0.69523E-07         0.00000E+00
   -0.95561E-08         0.72756E-07         0.00000E+00
   -0.66695E-08         0.71694E-07         0.00000E+00
   -0.38938E-08         0.66591E-07         0.00000E+00
   -0.13448E-08         0.57870E-07         0.00000E+00
    0.83775E-09         0.46186E-07         0.00000E+00
    0.24860E-08         0.32578E-07         0.00000E+00
    0.34483E-08         0.18665E-07         0.00000E+00
    0.36962E-08         0.68184E-08         0.00000E+00
    0.35014E-08         0.17596E-08         0.00000E+00
   -0.14815E-07         0.35868E-08         0.00000E+00
   -0.16139E-07         0.92796E-08         0.00000E+00
   -0.18293E-07         0.22176E-07         0.00000E+00
   -0.19907E-07         0.36605E-07         0.00000E+00
   -0.20535E-07         0.50012E-07         0.00000E+00
   -0.20222E-07         0.60691E-07         0.00000E+00
   -0.19209E-07         0.67696E-07         0.00000E+00
   -0.17778E-07         0.70649E-07         0.00000E+00
   -0.16190E-07         0.69539E-07         0.00000E+00
   -0.14677E-07         0.64594E-07         0.00000E+00
   -0.13455E-07         0.56227E-07         0.00000E+00
   -0.12723E-07         0.45087E-07         0.00000E+00
   -0.12635E-07         0.32161E-07         0.00000E+00
   -0.13220E-07         0.18913E-07         0.00000E+00
   -0.14245E-07         0.73866E-08         0.00000E+00
   -0.15024E-07         0.23479E-08         0.00000E+00
   -0.10530E-07         0.50338E-08         0.00000E+00
   -0.11848E-07         0.11306E-07         0.00000E+00
   -0.14282E-07         0.24631E-07         0.00000E+00
   -0.16515E-07         0.38462E-07         0.00000E+00
   -0.17960E-07         0.50931E-07         0.00000E+00
   -0.18509E-07         0.60716E-07         0.00000E+00
   -0.18304E-07         0.67047E-07         0.00000E+00
   -0.17597E-07         0.69605E-07         0.00000E+00
   -0.16670E-07         0.68387E-07         0.00000E+00
   -0.15807E-07         0.63605E-07         0.00000E+00
   -0.15269E-07         0.55654E-07         0.00000E+00
   -0.15279E-07         0.45125E-07         0.00000E+00
   -0.15965E-07         0.32884E-07         0.00000E+00
   -0.17277E-07         0.20157E-07         0.00000E+00
   -0.18850E-07         0.85795E-08         0.00000E+00
   -0.19844E-07         0.33088E-08         0.00000E+00
   -0.47462E-08         0.63418E-08         0.00000E+00
   -0.58653E-08         0.13220E-07         0.00000E+00
   -0.80165E-08         0.27105E-07         0.00000E+00
   -0.10063E-07         0.40524E-07         0.00000E+00
   -0.11430E-07         0.52172E-07         0.00000E+00
   -0.11957E-07         0.61092E-07         0.00000E+00
   -0.11738E-07         0.66726E-07         0.00000E+00
   -0.10999E-07         0.68854E-07         0.00000E+00
   -0.10031E-07         0.67510E-07         0.00000E+00
   -0.91358E-08         0.62907E-07         0.00000E+00
   -0.85968E-08         0.55404E-07         0.00000E+00
   -0.86419E-08         0.45514E-07         0.00000E+00
   -0.93859E-08         0.33950E-07         0.00000E+00
   -0.10745E-07         0.21673E-07         0.00000E+00
   -0.12320E-07         0.99104E-08         0.00000E+00
   -0.13277E-07         0.43272E-08         0.00000E+00
    0.29669E-08         0.73664E-08         0.00000E+00
    0.21408E-08         0.14720E-07         0.00000E+00
    0.61144E-09         0.29019E-07         0.00000E+00
   -0.68644E-09         0.42027E-07         0.00000E+00
   -0.12794E-08         0.52887E-07         0.00000E+00
   -0.10337E-08         0.60965E-07         0.00000E+00
   -0.44905E-10         0.65908E-07         0.00000E+00
    0.14558E-08         0.67612E-07         0.00000E+00
    0.31690E-08         0.66158E-07         0.00000E+00
    0.47761E-08         0.61765E-07         0.00000E+00
    0.59785E-08         0.54750E-07         0.00000E+00
    0.65397E-08         0.45540E-07         0.00000E+00
    0.63420E-08         0.34687E-07         0.00000E+00
    0.54611E-08         0.22896E-07         0.00000E+00
    0.42599E-08         0.11027E-07         0.00000E+00
    0.34925E-08         0.51902E-08         0.00000E+00
    0.13653E-07         0.80154E-08         0.00000E+00
    0.13168E-07         0.15602E-07         0.00000E+00
    0.12477E-07         0.29950E-07         0.00000E+00
    0.12340E-07         0.42371E-07         0.00000E+00
    0.13077E-07         0.52365E-07         0.00000E+00
    0.14736E-07         0.59573E-07         0.00000E+00
    0.17171E-07         0.63825E-07         0.00000E+00
    0.20115E-07         0.65123E-07         0.00000E+00
    0.23239E-07         0.63601E-07         0.00000E+00
    0.26198E-07         0.59475E-07         0.00000E+00
    0.28668E-07         0.53023E-07         0.00000E+00
    0.30393E-07         0.44581E-07         0.00000E+00
    0.31228E-07         0.34547E-07         0.00000E+00
    0.31209E-07         0.23399E-07         0.00000E+00
    0.30618E-07         0.11685E-07         0.00000E+00
    0.30119E-07         0.57600E-08         0.00000E+00
    0.28704E-07         0.82102E-08         0.00000E+00
    0.28584E-07         0.15694E-07         0.00000E+00
    0.28880E-07         0.29544E-07         0.00000E+00
    0.30226E-07         0.41043E-07         0.00000E+00
    0.32755E-07         0.49982E-07         0.00000E+00
    0.36384E-07         0.56227E-07         0.00000E+00
    0.40872E-07         0.59762E-07         0.00000E+00
    0.45881E-07         0.60680E-07         0.00000E+00
    0.51028E-07         0.59151E-07         0.00000E+00
    0.55920E-07         0.55387E-07         0.00000E+00
    0.60194E-07         0.49622E-07         0.00000E+00
    0.63552E-07         0.42102E-07         0.00000E+00
    0.65801E-07         0.33088E-07         0.00000E+00
    0.66909E-07         0.22860E-07         0.00000E+00
    0.67053E-07         0.11713E-07         0.00000E+00
    0.66847E-07         0.59480E-08         0.00000E+00
    0.49730E-07         0.78698E-08         0.00000E+00
    0.49977E-07         0.14832E-07         0.00000E+00
    0.51359E-07         0.27475E-07         0.00000E+00
    0.54456E-07         0.37576E-07         0.00000E+00
    0.59180E-07         0.45167E-07         0.00000E+00
    0.65273E-07         0.50294E-07         0.00000E+00
    0.72360E-07         0.53061E-07         0.00000E+00
    0.79997E-07         0.53626E-07         0.00000E+00
    0.87719E-07         0.52179E-07         0.00000E+00
    0.95062E-07         0.48916E-07         0.00000E+00
    0.10160E-06         0.44019E-07         0.00000E+00
    0.10698E-06         0.37652E-07         0.00000E+00
    0.11093E-06         0.29952E-07         0.00000E+00
    0.11334E-06         0.21035E-07         0.00000E+00
    0.11425E-06         0.10991E-07         0.00000E+00
    0.11432E-06         0.56965E-08         0.00000E+00
    0.78465E-07         0.69071E-08         0.00000E+00
    0.79060E-07         0.12846E-07         0.00000E+00
    0.81583E-07         0.23420E-07         0.00000E+00
    0.86661E-07         0.31524E-07         0.00000E+00
    0.93943E-07         0.37385E-07         0.00000E+00
    0.10295E-06         0.41190E-07         0.00000E+00
    0.11313E-06         0.43121E-07         0.00000E+00
    0.12391E-06         0.43371E-07         0.00000E+00
    0.13470E-06         0.42124E-07         0.00000E+00
    0.14494E-06         0.39544E-07         0.00000E+00
    0.15414E-06         0.35759E-07         0.00000E+00
    0.16185E-06         0.30850E-07         0.00000E+00
    0.16772E-06         0.24850E-07         0.00000E+00
    0.17151E-06         0.17736E-07         0.00000E+00
    0.17315E-06         0.94295E-08         0.00000E+00
    0.17343E-06         0.49653E-08         0.00000E+00
    0.11667E-06         0.52299E-08         0.00000E+00
    0.11757E-06         0.95620E-08         0.00000E+00
    0.12125E-06         0.17059E-07         0.00000E+00
    0.12852E-06         0.22454E-07         0.00000E+00
    0.13871E-06         0.26135E-07         0.00000E+00
    0.15106E-06         0.28380E-07         0.00000E+00
    0.16479E-06         0.29409E-07         0.00000E+00
    0.17916E-06         0.29403E-07         0.00000E+00
    0.19344E-06         0.28510E-07         0.00000E+00
    0.20698E-06         0.26843E-07         0.00000E+00
    0.21916E-06         0.24465E-07         0.00000E+00
    0.22945E-06         0.21386E-07         0.00000E+00
    0.23738E-06         0.17546E-07         0.00000E+00
    0.24258E-06         0.12810E-07         0.00000E+00
    0.24483E-06         0.69599E-08         0.00000E+00
    0.24523E-06         0.37249E-08         0.00000E+00
    0.16601E-06         0.27417E-08         0.00000E+00
    0.16715E-06         0.48012E-08         0.00000E+00
    0.17200E-06         0.80698E-08         0.00000E+00
    0.18168E-06         0.99513E-08         0.00000E+00
    0.19513E-06         0.10957E-07         0.00000E+00
    0.21124E-06         0.11403E-07         0.00000E+00
    0.22896E-06         0.11484E-07         0.00000E+00
    0.24732E-06         0.11319E-07         0.00000E+00
    0.26546E-06         0.10976E-07         0.00000E+00
    0.28259E-06         0.10490E-07         0.00000E+00
    0.29801E-06         0.98575E-08         0.00000E+00
    0.31107E-06         0.90226E-08         0.00000E+00
    0.32115E-06         0.78570E-08         0.00000E+00
    0.32774E-06         0.61355E-08         0.00000E+00
    0.33041E-06         0.35257E-08         0.00000E+00
    0.33079E-06         0.19503E-08         0.00000E+00
    0.22790E-06        -0.65859E-09         0.00000E+00
    0.22922E-06        -0.16223E-08         0.00000E+00
    0.23526E-06        -0.38707E-08         0.00000E+00
    0.24764E-06        -0.63770E-08         0.00000E+00
    0.26476E-06        -0.85515E-08         0.00000E+00
    0.28507E-06        -0.10108E-07         0.00000E+00
    0.30718E-06        -0.10958E-07         0.00000E+00
    0.32989E-06        -0.11124E-07         0.00000E+00
    0.35216E-06        -0.10673E-07         0.00000E+00
    0.37312E-06        -0.96794E-08         0.00000E+00
    0.39196E-06        -0.82176E-08         0.00000E+00
    0.40792E-06        -0.63858E-08         0.00000E+00
    0.42022E-06        -0.43481E-08         0.00000E+00
    0.42813E-06        -0.23844E-08         0.00000E+00
    0.43099E-06        -0.92354E-09         0.00000E+00
    0.43119E-06        -0.38243E-09         0.00000E+00
    0.30327E-06        -0.50805E-08         0.00000E+00
    0.30476E-06        -0.99063E-08         0.00000E+00
    0.31215E-06        -0.19089E-07         0.00000E+00
    0.32766E-06        -0.26892E-07         0.00000E+00
    0.34899E-06        -0.32700E-07         0.00000E+00
    0.37401E-06        -0.36359E-07         0.00000E+00
    0.40091E-06        -0.38008E-07         0.00000E+00
    0.42823E-06        -0.37922E-07         0.00000E+00
    0.45480E-06        -0.36383E-07         0.00000E+00
    0.47970E-06        -0.33607E-07         0.00000E+00
    0.50205E-06        -0.29733E-07         0.00000E+00
    0.52098E-06        -0.24862E-07         0.00000E+00
    0.53556E-06        -0.19133E-07         0.00000E+00
    0.54475E-06        -0.12827E-07         0.00000E+00
    0.54758E-06        -0.64384E-08         0.00000E+00
    0.54741E-06        -0.33015E-08         0.00000E+00
    0.39240E-06        -0.10651E-07         0.00000E+00
    0.39413E-06        -0.20273E-07         0.00000E+00
    0.40329E-06        -0.37925E-07         0.00000E+00
    0.42268E-06        -0.51906E-07         0.00000E+00
    0.44901E-06        -0.61656E-07         0.00000E+00
    0.47936E-06        -0.67314E-07         0.00000E+00
    0.51142E-06        -0.69433E-07         0.00000E+00
    0.54348E-06        -0.68702E-07         0.00000E+00
    0.57434E-06        -0.65722E-07         0.00000E+00
    0.60310E-06        -0.60895E-07         0.00000E+00
    0.62893E-06        -0.54396E-07         0.00000E+00
    0.65089E-06        -0.46252E-07         0.00000E+00
    0.66783E-06        -0.36475E-07         0.00000E+00
    0.67836E-06        -0.25248E-07         0.00000E+00
    0.68100E-06        -0.13077E-07         0.00000E+00
    0.68032E-06        -0.68451E-08         0.00000E+00
    0.49455E-06        -0.17530E-07         0.00000E+00
    0.49685E-06        -0.32991E-07         0.00000E+00
    0.50871E-06        -0.60746E-07         0.00000E+00
    0.53328E-06        -0.81657E-07         0.00000E+00
    0.56577E-06        -0.95357E-07         0.00000E+00
    0.60222E-06        -0.10255E-06         0.00000E+00
    0.63972E-06        -0.10449E-06         0.00000E+00
    0.67645E-06        -0.10252E-06         0.00000E+00
    0.71130E-06        -0.97701E-07         0.00000E+00
    0.74359E-06        -0.90647E-07         0.00000E+00
    0.77267E-06        -0.81517E-07         0.00000E+00
    0.79765E-06        -0.70137E-07         0.00000E+00
    0.81715E-06        -0.56221E-07         0.00000E+00
    0.82930E-06        -0.39677E-07         0.00000E+00
    0.83183E-06        -0.20915E-07         0.00000E+00
    0.83059E-06        -0.11070E-07         0.00000E+00
    0.60763E-06        -0.25945E-07         0.00000E+00
    0.61127E-06        -0.48421E-07         0.00000E+00
    0.62776E-06        -0.87972E-07         0.00000E+00
    0.65972E-06        -0.11625E-06         0.00000E+00
    0.70011E-06        -0.13334E-06         0.00000E+00
    0.74353E-06        -0.14100E-06         0.00000E+00
    0.78657E-06        -0.14165E-06         0.00000E+00
    0.82747E-06        -0.13760E-06         0.00000E+00
    0.86557E-06        -0.13052E-06         0.00000E+00
    0.90066E-06        -0.12124E-06         0.00000E+00
    0.93250E-06        -0.10982E-06         0.00000E+00
    0.96040E-06        -0.95695E-07         0.00000E+00
    0.98284E-06        -0.78008E-07         0.00000E+00
    0.99728E-06        -0.56099E-07         0.00000E+00
    0.10003E-05        -0.30049E-07         0.00000E+00
    0.99873E-06        -0.16063E-07         0.00000E+00
    0.72766E-06        -0.36243E-07         0.00000E+00
    0.73426E-06        -0.67077E-07         0.00000E+00
    0.75905E-06        -0.12009E-06         0.00000E+00
    0.80212E-06        -0.15549E-06         0.00000E+00
    0.85286E-06        -0.17443E-06         0.00000E+00
    0.90410E-06        -0.18057E-06         0.00000E+00
    0.95224E-06        -0.17821E-06         0.00000E+00
    0.99619E-06        -0.17099E-06         0.00000E+00
    0.10362E-05        -0.16128E-06         0.00000E+00
    0.10728E-05        -0.15008E-06         0.00000E+00
    0.11064E-05        -0.13720E-06         0.00000E+00
    0.11370E-05        -0.12147E-06         0.00000E+00
    0.11630E-05        -0.10111E-06         0.00000E+00
    0.11811E-05        -0.74387E-07         0.00000E+00
    0.11862E-05        -0.40598E-07         0.00000E+00
    0.11850E-05        -0.21945E-07         0.00000E+00
    0.84793E-06        -0.48996E-07         0.00000E+00
    0.86078E-06        -0.89738E-07         0.00000E+00
    0.90078E-06        -0.15759E-06         0.00000E+00
    0.96098E-06        -0.19851E-06         0.00000E+00
    0.10251E-05        -0.21607E-06         0.00000E+00
    0.10844E-05        -0.21743E-06         0.00000E+00
    0.11362E-05        -0.20975E-06         0.00000E+00
    0.11811E-05        -0.19822E-06         0.00000E+00
    0.12208E-05        -0.18572E-06         0.00000E+00
    0.12570E-05        -0.17326E-06         0.00000E+00
    0.12910E-05        -0.16032E-06         0.00000E+00
    0.13235E-05        -0.14497E-06         0.00000E+00
    0.13537E-05        -0.12410E-06         0.00000E+00
    0.13778E-05        -0.94129E-07         0.00000E+00
    0.13884E-05        -0.52654E-07         0.00000E+00
    0.13893E-05        -0.28873E-07         0.00000E+00
    0.95734E-06        -0.65176E-07         0.00000E+00
    0.98338E-06        -0.11757E-06         0.00000E+00
    0.10517E-05        -0.20064E-06         0.00000E+00
    0.11383E-05        -0.24264E-06         0.00000E+00
    0.12182E-05        -0.25284E-06         0.00000E+00
    0.12836E-05        -0.24485E-06         0.00000E+00
    0.13360E-05        -0.22957E-06         0.00000E+00
    0.13789E-05        -0.21311E-06         0.00000E+00
    0.14155E-05        -0.19817E-06         0.00000E+00
    0.14486E-05        -0.18549E-06         0.00000E+00
    0.14807E-05        -0.17428E-06         0.00000E+00
    0.15138E-05        -0.16206E-06         0.00000E+00
    0.15486E-05        -0.14418E-06         0.00000E+00
    0.15821E-05        -0.11418E-06         0.00000E+00
    0.16044E-05        -0.66117E-07         0.00000E+00
    0.16112E-05        -0.36976E-07         0.00000E+00
    0.10375E-05        -0.86602E-07         0.00000E+00
    0.10914E-05        -0.15205E-06         0.00000E+00
    0.12154E-05        -0.24756E-06         0.00000E+00
    0.13388E-05        -0.28025E-06         0.00000E+00
    0.14309E-05        -0.27333E-06         0.00000E+00
    0.14972E-05        -0.25179E-06         0.00000E+00
    0.15457E-05        -0.22854E-06         0.00000E+00
    0.15828E-05        -0.20807E-06         0.00000E+00
    0.16132E-05        -0.19193E-06         0.00000E+00
    0.16407E-05        -0.18026E-06         0.00000E+00
    0.16682E-05        -0.17226E-06         0.00000E+00
    0.16992E-05        -0.16587E-06         0.00000E+00
    0.17370E-05        -0.15571E-06         0.00000E+00
    0.17837E-05        -0.13142E-06         0.00000E+00
    0.18290E-05        -0.80188E-07         0.00000E+00
    0.18484E-05        -0.46240E-07         0.00000E+00
    0.10419E-05        -0.11409E-06         0.00000E+00
    0.11848E-05        -0.19379E-06         0.00000E+00
    0.14089E-05        -0.28852E-06         0.00000E+00
    0.15594E-05        -0.28794E-06         0.00000E+00
    0.16530E-05        -0.25528E-06         0.00000E+00
    0.17127E-05        -0.22312E-06         0.00000E+00
    0.17524E-05        -0.19599E-06         0.00000E+00
    0.17805E-05        -0.17505E-06         0.00000E+00
    0.18024E-05        -0.16014E-06         0.00000E+00
    0.18220E-05        -0.15078E-06         0.00000E+00
    0.18427E-05        -0.14638E-06         0.00000E+00
    0.18686E-05        -0.14589E-06         0.00000E+00
    0.19055E-05        -0.14716E-06         0.00000E+00
    0.19630E-05        -0.13780E-06         0.00000E+00
    0.20487E-05        -0.91326E-07         0.00000E+00
    0.20960E-05        -0.54931E-07         0.00000E+00
    0.10217E-05        -0.16154E-06         0.00000E+00
    0.12743E-05        -0.22381E-06         0.00000E+00
    0.16042E-05        -0.25613E-06         0.00000E+00
    0.17630E-05        -0.20596E-06         0.00000E+00
    0.18496E-05        -0.16969E-06         0.00000E+00
    0.18988E-05        -0.14177E-06         0.00000E+00
    0.19281E-05        -0.12127E-06         0.00000E+00
    0.19467E-05        -0.10662E-06         0.00000E+00
    0.19599E-05        -0.96812E-07         0.00000E+00
    0.19716E-05        -0.91222E-07         0.00000E+00
    0.19851E-05        -0.89528E-07         0.00000E+00
    0.20048E-05        -0.91703E-07         0.00000E+00
    0.20379E-05        -0.97547E-07         0.00000E+00
    0.20994E-05        -0.10915E-06         0.00000E+00
    0.22311E-05        -0.89587E-07         0.00000E+00
    0.23191E-05        -0.62200E-07         0.00000E+00
    0.10271E-05         0.00000E+00         0.00000E+00
    0.13190E-05         0.00000E+00         0.00000E+00
    0.16921E-05        -0.53297E-20         0.00000E+00
    0.18527E-05         0.71849E-21         0.00000E+00
    0.19349E-05         0.52043E-20         0.00000E+00
    0.19789E-05         0.00000E+00         0.00000E+00
    0.20034E-05         0.00000E+00         0.00000E+00
    0.20176E-05        -0.58557E-20         0.00000E+00
    0.20269E-05        -0.56011E-20         0.00000E+00
    0.20350E-05         0.58939E-20         0.00000E+00
    0.20452E-05         0.56177E-20         0.00000E+00
    0.20618E-05        -0.60344E-20         0.00000E+00
    0.20927E-05         0.23716E-21         0.00000E+00
    0.21551E-05         0.58812E-20         0.00000E+00
    0.23072E-05         0.23117E-21         0.00000E+00
    0.24166E-05         0.00000E+00         0.00000E+00
CELL_DATA        450
TENSORS stressef double 
    0.79411E+07        -0.23991E+06         0.00000E+00
   -0.23991E+06         0.11272E+06         0.00000E+00
    0.00000E+00         0.00000E+00         0.16108E+07
 
    0.68989E+07        -0.21135E+06         0.00000E+00
   -0.21135E+06        -0.10675E+06         0.00000E+00
    0.00000E+00         0.00000E+00         0.13584E+07
 
    0.64309E+07        -0.14780E+06         0.00000E+00
   -0.14780E+06        -0.21223E+06         0.00000E+00
    0.00000E+00         0.00000E+00         0.12437E+07
 
    0.61116E+07        -0.10278E+06         0.00000E+00
   -0.10278E+06        -0.20546E+06         0.00000E+00
    0.00000E+00         0.00000E+00         0.11812E+07
 
    0.58403E+07        -0.69509E+05         0.00000E+00
   -0.69509E+05        -0.12306E+06         0.00000E+00
    0.00000E+00         0.00000E+00         0.11434E+07
 
    0.55809E+07        -0.45057E+05         0.00000E+00
   -0.45057E+05         0.87348E+04         0.00000E+00
    0.00000E+00         0.00000E+00         0.11179E+07
 
    0.53208E+07        -0.27099E+05         0.00000E+00
   -0.27099E+05         0.17281E+06         0.00000E+00
    0.00000E+00         0.00000E+00         0.10987E+07
 
    0.50558E+07        -0.13944E+05         0.00000E+00
   -0.13944E+05         0.35788E+06         0.00000E+00
    0.00000E+00         0.00000E+00         0.10827E+07
 
    0.47839E+07        -0.41753E+04         0.00000E+00
   -0.41753E+04         0.55645E+06         0.00000E+00
    0.00000E+00         0.00000E+00         0.10681E+07
 
    0.45012E+07         0.36626E+04         0.00000E+00
    0.36626E+04         0.76384E+06         0.00000E+00
    0.00000E+00         0.00000E+00         0.10530E+07
 
    0.41982E+07         0.11553E+05         0.00000E+00
    0.11553E+05         0.97810E+06         0.00000E+00
    0.00000E+00         0.00000E+00         0.10353E+07
 
    0.38535E+07         0.22977E+05         0.00000E+00
    0.22977E+05         0.12011E+07         0.00000E+00
    0.00000E+00         0.00000E+00         0.10109E+07
 
    0.34181E+07         0.46173E+05         0.00000E+00
    0.46173E+05         0.14428E+07         0.00000E+00
    0.00000E+00         0.00000E+00         0.97219E+06
 
    0.27765E+07         0.10169E+06         0.00000E+00
    0.10169E+06         0.17365E+07         0.00000E+00
    0.00000E+00         0.00000E+00         0.90260E+06
 
    0.15100E+07         0.34377E+06         0.00000E+00
    0.34377E+06         0.22236E+07         0.00000E+00
    0.00000E+00         0.00000E+00         0.74672E+06
 
    0.62874E+07        -0.30190E+06         0.00000E+00
   -0.30190E+06        -0.98292E+06         0.00000E+00
    0.00000E+00         0.00000E+00         0.10609E+07
 
    0.56532E+07        -0.43854E+06         0.00000E+00
   -0.43854E+06        -0.88052E+06         0.00000E+00
    0.00000E+00         0.00000E+00         0.95454E+06
 
    0.51662E+07        -0.35590E+06         0.00000E+00
   -0.35590E+06        -0.80912E+06         0.00000E+00
    0.00000E+00         0.00000E+00         0.87142E+06
 
    0.48109E+07        -0.25983E+06         0.00000E+00
   -0.25983E+06        -0.71205E+06         0.00000E+00
    0.00000E+00         0.00000E+00         0.81978E+06
 
    0.45063E+07        -0.17917E+06         0.00000E+00
   -0.17917E+06        -0.57971E+06         0.00000E+00
    0.00000E+00         0.00000E+00         0.78532E+06
 
    0.42206E+07        -0.11591E+06         0.00000E+00
   -0.11591E+06        -0.41794E+06         0.00000E+00
    0.00000E+00         0.00000E+00         0.76053E+06
 
    0.39401E+07        -0.67629E+05         0.00000E+00
   -0.67629E+05        -0.23442E+06         0.00000E+00
    0.00000E+00         0.00000E+00         0.74113E+06
 
    0.36591E+07        -0.31156E+05         0.00000E+00
   -0.31156E+05        -0.35649E+05         0.00000E+00
    0.00000E+00         0.00000E+00         0.72469E+06
 
    0.33745E+07        -0.31210E+04         0.00000E+00
   -0.31210E+04         0.17352E+06         0.00000E+00
    0.00000E+00         0.00000E+00         0.70960E+06
 
    0.30821E+07         0.20476E+05         0.00000E+00
    0.20476E+05         0.39006E+06         0.00000E+00
    0.00000E+00         0.00000E+00         0.69444E+06
 
    0.27736E+07         0.45504E+05         0.00000E+00
    0.45504E+05         0.61327E+06         0.00000E+00
    0.00000E+00         0.00000E+00         0.67737E+06
 
    0.24314E+07         0.82698E+05         0.00000E+00
    0.82698E+05         0.84600E+06         0.00000E+00
    0.00000E+00         0.00000E+00         0.65548E+06
 
    0.20220E+07         0.15560E+06         0.00000E+00
    0.15560E+06         0.10981E+07         0.00000E+00
    0.00000E+00         0.00000E+00         0.62402E+06
 
    0.14742E+07         0.32968E+06         0.00000E+00
    0.32968E+06         0.13947E+07         0.00000E+00
    0.00000E+00         0.00000E+00         0.57377E+06
 
    0.82364E+06         0.83990E+06         0.00000E+00
    0.83990E+06         0.17671E+07         0.00000E+00
    0.00000E+00         0.00000E+00         0.51815E+06
 
    0.50508E+07        -0.21226E+06         0.00000E+00
   -0.21226E+06        -0.18159E+07         0.00000E+00
    0.00000E+00         0.00000E+00         0.64698E+06
 
    0.47517E+07        -0.40483E+06         0.00000E+00
   -0.40483E+06        -0.16214E+07         0.00000E+00
    0.00000E+00         0.00000E+00         0.62604E+06
 
    0.43415E+07        -0.39298E+06         0.00000E+00
   -0.39298E+06        -0.14053E+07         0.00000E+00
    0.00000E+00         0.00000E+00         0.58724E+06
 
    0.39609E+07        -0.30975E+06         0.00000E+00
   -0.30975E+06        -0.12052E+07         0.00000E+00
    0.00000E+00         0.00000E+00         0.55114E+06
 
    0.36170E+07        -0.21918E+06         0.00000E+00
   -0.21918E+06        -0.10058E+07         0.00000E+00
    0.00000E+00         0.00000E+00         0.52224E+06
 
    0.32941E+07        -0.13930E+06         0.00000E+00
   -0.13930E+06        -0.79970E+06         0.00000E+00
    0.00000E+00         0.00000E+00         0.49889E+06
 
    0.29826E+07        -0.73795E+05         0.00000E+00
   -0.73795E+05        -0.58563E+06         0.00000E+00
    0.00000E+00         0.00000E+00         0.47939E+06
 
    0.26766E+07        -0.21384E+05         0.00000E+00
   -0.21384E+05        -0.36462E+06         0.00000E+00
    0.00000E+00         0.00000E+00         0.46240E+06
 
    0.23724E+07         0.21454E+05         0.00000E+00
    0.21454E+05        -0.13818E+06         0.00000E+00
    0.00000E+00         0.00000E+00         0.44685E+06
 
    0.20661E+07         0.60239E+05         0.00000E+00
    0.60239E+05         0.92687E+05         0.00000E+00
    0.00000E+00         0.00000E+00         0.43176E+06
 
    0.17519E+07         0.10396E+06         0.00000E+00
    0.10396E+06         0.32823E+06         0.00000E+00
    0.00000E+00         0.00000E+00         0.41603E+06
 
    0.14212E+07         0.16902E+06         0.00000E+00
    0.16902E+06         0.57064E+06         0.00000E+00
    0.00000E+00         0.00000E+00         0.39837E+06
 
    0.10633E+07         0.28887E+06         0.00000E+00
    0.28887E+06         0.82396E+06         0.00000E+00
    0.00000E+00         0.00000E+00         0.37744E+06
 
    0.69412E+06         0.53918E+06         0.00000E+00
    0.53918E+06         0.10875E+07         0.00000E+00
    0.00000E+00         0.00000E+00         0.35632E+06
 
    0.42626E+06         0.10356E+07         0.00000E+00
    0.10356E+07         0.12911E+07         0.00000E+00
    0.00000E+00         0.00000E+00         0.34347E+06
 
    0.42956E+07        -0.11592E+06         0.00000E+00
   -0.11592E+06        -0.23022E+07         0.00000E+00
    0.00000E+00         0.00000E+00         0.39868E+06
 
    0.41608E+07        -0.26824E+06         0.00000E+00
   -0.26824E+06        -0.21190E+07         0.00000E+00
    0.00000E+00         0.00000E+00         0.40836E+06
 
    0.38335E+07        -0.29942E+06         0.00000E+00
   -0.29942E+06        -0.18692E+07         0.00000E+00
    0.00000E+00         0.00000E+00         0.39285E+06
 
    0.34578E+07        -0.25440E+06         0.00000E+00
   -0.25440E+06        -0.16141E+07         0.00000E+00
    0.00000E+00         0.00000E+00         0.36875E+06
 
    0.30863E+07        -0.18106E+06         0.00000E+00
   -0.18106E+06        -0.13657E+07         0.00000E+00
    0.00000E+00         0.00000E+00         0.34413E+06
 
    0.27295E+07        -0.10512E+06         0.00000E+00
   -0.10512E+06        -0.11212E+07         0.00000E+00
    0.00000E+00         0.00000E+00         0.32166E+06
 
    0.23861E+07        -0.36339E+05         0.00000E+00
   -0.36339E+05        -0.87781E+06         0.00000E+00
    0.00000E+00         0.00000E+00         0.30165E+06
 
    0.20531E+07         0.23317E+05         0.00000E+00
    0.23317E+05        -0.63436E+06         0.00000E+00
    0.00000E+00         0.00000E+00         0.28374E+06
 
    0.17276E+07         0.76175E+05         0.00000E+00
    0.76175E+05        -0.39052E+06         0.00000E+00
    0.00000E+00         0.00000E+00         0.26742E+06
 
    0.14073E+07         0.12796E+06         0.00000E+00
    0.12796E+06        -0.14642E+06         0.00000E+00
    0.00000E+00         0.00000E+00         0.25217E+06
 
    0.10903E+07         0.18886E+06         0.00000E+00
    0.18886E+06         0.97636E+05         0.00000E+00
    0.00000E+00         0.00000E+00         0.23759E+06
 
    0.77783E+06         0.27671E+06         0.00000E+00
    0.27671E+06         0.34036E+06         0.00000E+00
    0.00000E+00         0.00000E+00         0.22364E+06
 
    0.48296E+06         0.42300E+06         0.00000E+00
    0.42300E+06         0.57577E+06         0.00000E+00
    0.00000E+00         0.00000E+00         0.21175E+06
 
    0.25152E+06         0.67414E+06         0.00000E+00
    0.67414E+06         0.77754E+06         0.00000E+00
    0.00000E+00         0.00000E+00         0.20581E+06
 
    0.19135E+06         0.10728E+07         0.00000E+00
    0.10728E+07         0.87716E+06         0.00000E+00
    0.00000E+00         0.00000E+00         0.21370E+06
 
    0.39270E+07        -0.37964E+05         0.00000E+00
   -0.37964E+05        -0.25385E+07         0.00000E+00
    0.00000E+00         0.00000E+00         0.27770E+06
 
    0.38356E+07        -0.11773E+06         0.00000E+00
   -0.11773E+06        -0.23942E+07         0.00000E+00
    0.00000E+00         0.00000E+00         0.28827E+06
 
    0.35555E+07        -0.15060E+06         0.00000E+00
   -0.15060E+06        -0.21670E+07         0.00000E+00
    0.00000E+00         0.00000E+00         0.27769E+06
 
    0.31937E+07        -0.13185E+06         0.00000E+00
   -0.13185E+06        -0.19080E+07         0.00000E+00
    0.00000E+00         0.00000E+00         0.25714E+06
 
    0.28100E+07        -0.82235E+05         0.00000E+00
   -0.82235E+05        -0.16421E+07         0.00000E+00
    0.00000E+00         0.00000E+00         0.23359E+06
 
    0.24296E+07        -0.20809E+05         0.00000E+00
   -0.20809E+05        -0.13773E+07         0.00000E+00
    0.00000E+00         0.00000E+00         0.21046E+06
 
    0.20608E+07         0.41702E+05         0.00000E+00
    0.41702E+05        -0.11155E+07         0.00000E+00
    0.00000E+00         0.00000E+00         0.18906E+06
 
    0.17049E+07         0.10148E+06         0.00000E+00
    0.10148E+06        -0.85684E+06         0.00000E+00
    0.00000E+00         0.00000E+00         0.16962E+06
 
    0.13615E+07         0.15944E+06         0.00000E+00
    0.15944E+06        -0.60146E+06         0.00000E+00
    0.00000E+00         0.00000E+00         0.15200E+06
 
    0.10303E+07         0.22039E+06         0.00000E+00
    0.22039E+06        -0.35026E+06         0.00000E+00
    0.00000E+00         0.00000E+00         0.13601E+06
 
    0.71383E+06         0.29335E+06         0.00000E+00
    0.29335E+06        -0.10552E+06         0.00000E+00
    0.00000E+00         0.00000E+00         0.12166E+06
 
    0.42103E+06         0.39290E+06         0.00000E+00
    0.39290E+06         0.12710E+06         0.00000E+00
    0.00000E+00         0.00000E+00         0.10963E+06
 
    0.17516E+06         0.53939E+06         0.00000E+00
    0.53939E+06         0.33371E+06         0.00000E+00
    0.00000E+00         0.00000E+00         0.10178E+06
 
    0.25230E+05         0.75348E+06         0.00000E+00
    0.75348E+06         0.48434E+06         0.00000E+00
    0.00000E+00         0.00000E+00         0.10191E+06
 
    0.54936E+05         0.10391E+07         0.00000E+00
    0.10391E+07         0.52528E+06         0.00000E+00
    0.00000E+00         0.00000E+00         0.11604E+06
 
    0.38206E+07         0.19057E+05         0.00000E+00
    0.19057E+05        -0.26253E+07         0.00000E+00
    0.00000E+00         0.00000E+00         0.23906E+06
 
    0.37055E+07         0.14085E+05         0.00000E+00
    0.14085E+05        -0.25194E+07         0.00000E+00
    0.00000E+00         0.00000E+00         0.23723E+06
 
    0.34367E+07         0.46261E+04         0.00000E+00
    0.46261E+04        -0.23319E+07         0.00000E+00
    0.00000E+00         0.00000E+00         0.22096E+06
 
    0.30833E+07         0.16388E+05         0.00000E+00
    0.16388E+05        -0.20967E+07         0.00000E+00
    0.00000E+00         0.00000E+00         0.19732E+06
 
    0.26957E+07         0.49281E+05         0.00000E+00
    0.49281E+05        -0.18394E+07         0.00000E+00
    0.00000E+00         0.00000E+00         0.17125E+06
 
    0.23027E+07         0.95453E+05         0.00000E+00
    0.95453E+05        -0.15746E+07         0.00000E+00
    0.00000E+00         0.00000E+00         0.14562E+06
 
    0.19179E+07         0.14810E+06         0.00000E+00
    0.14810E+06        -0.13092E+07         0.00000E+00
    0.00000E+00         0.00000E+00         0.12173E+06
 
    0.15467E+07         0.20392E+06         0.00000E+00
    0.20392E+06        -0.10467E+07         0.00000E+00
    0.00000E+00         0.00000E+00         0.99989E+05
 
    0.11913E+07         0.26308E+06         0.00000E+00
    0.26308E+06        -0.78930E+06         0.00000E+00
    0.00000E+00         0.00000E+00         0.80401E+05
 
    0.85402E+06         0.32881E+06         0.00000E+00
    0.32881E+06        -0.53958E+06         0.00000E+00
    0.00000E+00         0.00000E+00         0.62888E+05
 
    0.54029E+06         0.40728E+06         0.00000E+00
    0.40728E+06        -0.30220E+06         0.00000E+00
    0.00000E+00         0.00000E+00         0.47618E+05
 
    0.26263E+06         0.50715E+06         0.00000E+00
    0.50715E+06        -0.85980E+05         0.00000E+00
    0.00000E+00         0.00000E+00         0.35331E+05
 
    0.45698E+05         0.63742E+06         0.00000E+00
    0.63742E+06         0.93046E+05         0.00000E+00
    0.00000E+00         0.00000E+00         0.27749E+05
 
   -0.68834E+05         0.80118E+06         0.00000E+00
    0.80118E+06         0.20852E+06         0.00000E+00
    0.00000E+00         0.00000E+00         0.27937E+05
 
   -0.21801E+05         0.98375E+06         0.00000E+00
    0.98375E+06         0.22416E+06         0.00000E+00
    0.00000E+00         0.00000E+00         0.40473E+05
 
    0.38751E+07         0.59207E+05         0.00000E+00
    0.59207E+05        -0.26372E+07         0.00000E+00
    0.00000E+00         0.00000E+00         0.24758E+06
 
    0.37048E+07         0.11877E+06         0.00000E+00
    0.11877E+06        -0.25599E+07         0.00000E+00
    0.00000E+00         0.00000E+00         0.22897E+06
 
    0.34209E+07         0.14239E+06         0.00000E+00
    0.14239E+06        -0.24107E+07         0.00000E+00
    0.00000E+00         0.00000E+00         0.20204E+06
 
    0.30655E+07         0.16117E+06         0.00000E+00
    0.16117E+06        -0.22090E+07         0.00000E+00
    0.00000E+00         0.00000E+00         0.17131E+06
 
    0.26759E+07         0.18722E+06         0.00000E+00
    0.18722E+06        -0.19758E+07         0.00000E+00
    0.00000E+00         0.00000E+00         0.14003E+06
 
    0.22778E+07         0.22267E+06         0.00000E+00
    0.22267E+06        -0.17269E+07         0.00000E+00
    0.00000E+00         0.00000E+00         0.11017E+06
 
    0.18858E+07         0.26633E+06         0.00000E+00
    0.26633E+06        -0.14724E+07         0.00000E+00
    0.00000E+00         0.00000E+00         0.82679E+05
 
    0.15076E+07         0.31713E+06         0.00000E+00
    0.31713E+06        -0.12185E+07         0.00000E+00
    0.00000E+00         0.00000E+00         0.57816E+05
 
    0.11471E+07         0.37527E+06         0.00000E+00
    0.37527E+06        -0.96954E+06         0.00000E+00
    0.00000E+00         0.00000E+00         0.35519E+05
 
    0.80840E+06         0.44237E+06         0.00000E+00
    0.44237E+06        -0.73005E+06         0.00000E+00
    0.00000E+00         0.00000E+00         0.15670E+05
 
    0.49818E+06         0.52109E+06         0.00000E+00
    0.52109E+06        -0.50637E+06         0.00000E+00
    0.00000E+00         0.00000E+00        -0.16384E+04
 
    0.22925E+06         0.61409E+06         0.00000E+00
    0.61409E+06        -0.30849E+06         0.00000E+00
    0.00000E+00         0.00000E+00        -0.15847E+05
 
    0.23238E+05         0.72141E+06         0.00000E+00
    0.72141E+06        -0.15146E+06         0.00000E+00
    0.00000E+00         0.00000E+00        -0.25645E+05
 
   -0.88025E+05         0.83559E+06         0.00000E+00
    0.83559E+06        -0.55583E+05         0.00000E+00
    0.00000E+00         0.00000E+00        -0.28722E+05
 
   -0.65214E+05         0.93468E+06         0.00000E+00
    0.93468E+06        -0.43043E+05         0.00000E+00
    0.00000E+00         0.00000E+00        -0.21651E+05
 
    0.40231E+07         0.87258E+05         0.00000E+00
    0.87258E+05        -0.26186E+07         0.00000E+00
    0.00000E+00         0.00000E+00         0.28089E+06
 
    0.37840E+07         0.19728E+06         0.00000E+00
    0.19728E+06        -0.25606E+07         0.00000E+00
    0.00000E+00         0.00000E+00         0.24469E+06
 
    0.34680E+07         0.25332E+06         0.00000E+00
    0.25332E+06        -0.24427E+07         0.00000E+00
    0.00000E+00         0.00000E+00         0.20507E+06
 
    0.31005E+07         0.28550E+06         0.00000E+00
    0.28550E+06        -0.22751E+07         0.00000E+00
    0.00000E+00         0.00000E+00         0.16507E+06
 
    0.27071E+07         0.31204E+06         0.00000E+00
    0.31204E+06        -0.20733E+07         0.00000E+00
    0.00000E+00         0.00000E+00         0.12676E+06
 
    0.23077E+07         0.34211E+06         0.00000E+00
    0.34211E+06        -0.18512E+07         0.00000E+00
    0.00000E+00         0.00000E+00         0.91307E+05
 
    0.19153E+07         0.37975E+06         0.00000E+00
    0.37975E+06        -0.16193E+07         0.00000E+00
    0.00000E+00         0.00000E+00         0.59189E+05
 
    0.15371E+07         0.42662E+06         0.00000E+00
    0.42662E+06        -0.13852E+07         0.00000E+00
    0.00000E+00         0.00000E+00         0.30388E+05
 
    0.11777E+07         0.48344E+06         0.00000E+00
    0.48344E+06        -0.11545E+07         0.00000E+00
    0.00000E+00         0.00000E+00         0.46499E+04
 
    0.84136E+06         0.55046E+06         0.00000E+00
    0.55046E+06        -0.93288E+06         0.00000E+00
    0.00000E+00         0.00000E+00        -0.18303E+05
 
    0.53451E+06         0.62713E+06         0.00000E+00
    0.62713E+06        -0.72737E+06         0.00000E+00
    0.00000E+00         0.00000E+00        -0.38573E+05
 
    0.26817E+06         0.71111E+06         0.00000E+00
    0.71111E+06        -0.54757E+06         0.00000E+00
    0.00000E+00         0.00000E+00        -0.55881E+05
 
    0.59303E+05         0.79613E+06         0.00000E+00
    0.79613E+06        -0.40611E+06         0.00000E+00
    0.00000E+00         0.00000E+00        -0.69362E+05
 
   -0.69374E+05         0.86902E+06         0.00000E+00
    0.86902E+06        -0.31751E+06         0.00000E+00
    0.00000E+00         0.00000E+00        -0.77377E+05
 
   -0.92772E+05         0.90619E+06         0.00000E+00
    0.90619E+06        -0.29420E+06         0.00000E+00
    0.00000E+00         0.00000E+00        -0.77395E+05
 
    0.42239E+07         0.10662E+06         0.00000E+00
    0.10662E+06        -0.25925E+07         0.00000E+00
    0.00000E+00         0.00000E+00         0.32629E+06
 
    0.39100E+07         0.25284E+06         0.00000E+00
    0.25284E+06        -0.25474E+07         0.00000E+00
    0.00000E+00         0.00000E+00         0.27252E+06
 
    0.35511E+07         0.33479E+06         0.00000E+00
    0.33479E+06        -0.24546E+07         0.00000E+00
    0.00000E+00         0.00000E+00         0.21930E+06
 
    0.31631E+07         0.38041E+06         0.00000E+00
    0.38041E+06        -0.23194E+07         0.00000E+00
    0.00000E+00         0.00000E+00         0.16875E+06
 
    0.27628E+07         0.41064E+06         0.00000E+00
    0.41064E+06        -0.21521E+07         0.00000E+00
    0.00000E+00         0.00000E+00         0.12213E+06
 
    0.23638E+07         0.43915E+06         0.00000E+00
    0.43915E+06        -0.19637E+07         0.00000E+00
    0.00000E+00         0.00000E+00         0.80003E+05
 
    0.19752E+07         0.47395E+06         0.00000E+00
    0.47395E+06        -0.17634E+07         0.00000E+00
    0.00000E+00         0.00000E+00         0.42366E+05
 
    0.16026E+07         0.51913E+06         0.00000E+00
    0.51913E+06        -0.15583E+07         0.00000E+00
    0.00000E+00         0.00000E+00         0.88698E+04
 
    0.12492E+07         0.57607E+06         0.00000E+00
    0.57607E+06        -0.13542E+07         0.00000E+00
    0.00000E+00         0.00000E+00        -0.20998E+05
 
    0.91809E+06         0.64394E+06         0.00000E+00
    0.64394E+06        -0.11568E+07         0.00000E+00
    0.00000E+00         0.00000E+00        -0.47748E+05
 
    0.61406E+06         0.71961E+06         0.00000E+00
    0.71961E+06        -0.97270E+06         0.00000E+00
    0.00000E+00         0.00000E+00        -0.71729E+05
 
    0.34524E+06         0.79692E+06         0.00000E+00
    0.79692E+06        -0.81008E+06         0.00000E+00
    0.00000E+00         0.00000E+00        -0.92968E+05
 
    0.12372E+06         0.86546E+06         0.00000E+00
    0.86546E+06        -0.67880E+06         0.00000E+00
    0.00000E+00         0.00000E+00        -0.11102E+06
 
   -0.35172E+05         0.90909E+06         0.00000E+00
    0.90909E+06        -0.58878E+06         0.00000E+00
    0.00000E+00         0.00000E+00        -0.12479E+06
 
   -0.11569E+06         0.90495E+06         0.00000E+00
    0.90495E+06        -0.54661E+06         0.00000E+00
    0.00000E+00         0.00000E+00        -0.13246E+06
 
    0.44528E+07         0.11910E+06         0.00000E+00
    0.11910E+06        -0.25690E+07         0.00000E+00
    0.00000E+00         0.00000E+00         0.37676E+06
 
    0.40600E+07         0.28790E+06         0.00000E+00
    0.28790E+06        -0.25341E+07         0.00000E+00
    0.00000E+00         0.00000E+00         0.30518E+06
 
    0.36511E+07         0.38632E+06         0.00000E+00
    0.38632E+06        -0.24630E+07         0.00000E+00
    0.00000E+00         0.00000E+00         0.23762E+06
 
    0.32368E+07         0.44107E+06         0.00000E+00
    0.44107E+06        -0.23589E+07         0.00000E+00
    0.00000E+00         0.00000E+00         0.17557E+06
 
    0.28267E+07         0.47448E+06         0.00000E+00
    0.47448E+06        -0.22283E+07         0.00000E+00
    0.00000E+00         0.00000E+00         0.11968E+06
 
    0.24286E+07         0.50301E+06         0.00000E+00
    0.50301E+06        -0.20787E+07         0.00000E+00
    0.00000E+00         0.00000E+00         0.69988E+05
 
    0.20471E+07         0.53742E+06         0.00000E+00
    0.53742E+06        -0.19169E+07         0.00000E+00
    0.00000E+00         0.00000E+00         0.26057E+05
 
    0.16843E+07         0.58362E+06         0.00000E+00
    0.58362E+06        -0.17484E+07         0.00000E+00
    0.00000E+00         0.00000E+00        -0.12815E+05
 
    0.13407E+07         0.64353E+06         0.00000E+00
    0.64353E+06        -0.15779E+07         0.00000E+00
    0.00000E+00         0.00000E+00        -0.47441E+05
 
    0.10170E+07         0.71545E+06         0.00000E+00
    0.71545E+06        -0.14100E+07         0.00000E+00
    0.00000E+00         0.00000E+00        -0.78604E+05
 
    0.71529E+06         0.79422E+06         0.00000E+00
    0.79422E+06        -0.12499E+07         0.00000E+00
    0.00000E+00         0.00000E+00        -0.10693E+06
 
    0.44017E+06         0.87087E+06         0.00000E+00
    0.87087E+06        -0.11039E+07         0.00000E+00
    0.00000E+00         0.00000E+00        -0.13274E+06
 
    0.19919E+06         0.93218E+06         0.00000E+00
    0.93218E+06        -0.97906E+06         0.00000E+00
    0.00000E+00         0.00000E+00        -0.15598E+06
 
    0.20951E+04         0.96040E+06         0.00000E+00
    0.96040E+06        -0.88206E+06         0.00000E+00
    0.00000E+00         0.00000E+00        -0.17599E+06
 
   -0.14106E+06         0.93374E+06         0.00000E+00
    0.93374E+06        -0.81655E+06         0.00000E+00
    0.00000E+00         0.00000E+00        -0.19152E+06
 
    0.46921E+07         0.12522E+06         0.00000E+00
    0.12522E+06        -0.25528E+07         0.00000E+00
    0.00000E+00         0.00000E+00         0.42785E+06
 
    0.42165E+07         0.30339E+06         0.00000E+00
    0.30339E+06        -0.25277E+07         0.00000E+00
    0.00000E+00         0.00000E+00         0.33776E+06
 
    0.37531E+07         0.40738E+06         0.00000E+00
    0.40738E+06        -0.24779E+07         0.00000E+00
    0.00000E+00         0.00000E+00         0.25504E+06
 
    0.33087E+07         0.46427E+06         0.00000E+00
    0.46427E+06        -0.24056E+07         0.00000E+00
    0.00000E+00         0.00000E+00         0.18061E+06
 
    0.28874E+07         0.49762E+06         0.00000E+00
    0.49762E+06        -0.23143E+07         0.00000E+00
    0.00000E+00         0.00000E+00         0.11462E+06
 
    0.24912E+07         0.52576E+06         0.00000E+00
    0.52576E+06        -0.22081E+07         0.00000E+00
    0.00000E+00         0.00000E+00         0.56613E+05
 
    0.21195E+07         0.56130E+06         0.00000E+00
    0.56130E+06        -0.20908E+07         0.00000E+00
    0.00000E+00         0.00000E+00         0.57305E+04
 
    0.17700E+07         0.61139E+06         0.00000E+00
    0.61139E+06        -0.19655E+07         0.00000E+00
    0.00000E+00         0.00000E+00        -0.39102E+05
 
    0.14395E+07         0.67819E+06         0.00000E+00
    0.67819E+06        -0.18347E+07         0.00000E+00
    0.00000E+00         0.00000E+00        -0.79033E+05
 
    0.11253E+07         0.75927E+06         0.00000E+00
    0.75927E+06        -0.17010E+07         0.00000E+00
    0.00000E+00         0.00000E+00        -0.11515E+06
 
    0.82577E+06         0.84777E+06         0.00000E+00
    0.84777E+06        -0.15676E+07         0.00000E+00
    0.00000E+00         0.00000E+00        -0.14837E+06
 
    0.54175E+06         0.93255E+06         0.00000E+00
    0.93255E+06        -0.14384E+07         0.00000E+00
    0.00000E+00         0.00000E+00        -0.17933E+06
 
    0.27659E+06         0.99825E+06         0.00000E+00
    0.99825E+06        -0.13180E+07         0.00000E+00
    0.00000E+00         0.00000E+00        -0.20828E+06
 
    0.35920E+05         0.10258E+07         0.00000E+00
    0.10258E+07        -0.12108E+07         0.00000E+00
    0.00000E+00         0.00000E+00        -0.23498E+06
 
   -0.17347E+06         0.99387E+06         0.00000E+00
    0.99387E+06        -0.11194E+07         0.00000E+00
    0.00000E+00         0.00000E+00        -0.25858E+06
 
    0.49260E+07         0.12475E+06         0.00000E+00
    0.12475E+06        -0.25469E+07         0.00000E+00
    0.00000E+00         0.00000E+00         0.47581E+06
 
    0.43635E+07         0.29880E+06         0.00000E+00
    0.29880E+06        -0.25328E+07         0.00000E+00
    0.00000E+00         0.00000E+00         0.36615E+06
 
    0.38428E+07         0.39662E+06         0.00000E+00
    0.39662E+06        -0.25062E+07         0.00000E+00
    0.00000E+00         0.00000E+00         0.26732E+06
 
    0.33668E+07         0.44708E+06         0.00000E+00
    0.44708E+06        -0.24684E+07         0.00000E+00
    0.00000E+00         0.00000E+00         0.17969E+06
 
    0.29346E+07         0.47534E+06         0.00000E+00
    0.47534E+06        -0.24202E+07         0.00000E+00
    0.00000E+00         0.00000E+00         0.10289E+06
 
    0.25423E+07         0.50125E+06         0.00000E+00
    0.50125E+06        -0.23625E+07         0.00000E+00
    0.00000E+00         0.00000E+00         0.35959E+05
 
    0.21837E+07         0.53871E+06         0.00000E+00
    0.53871E+06        -0.22956E+07         0.00000E+00
    0.00000E+00         0.00000E+00        -0.22392E+05
 
    0.18514E+07         0.59562E+06         0.00000E+00
    0.59562E+06        -0.22197E+07         0.00000E+00
    0.00000E+00         0.00000E+00        -0.73648E+05
 
    0.15377E+07         0.67412E+06         0.00000E+00
    0.67412E+06        -0.21343E+07         0.00000E+00
    0.00000E+00         0.00000E+00        -0.11932E+06
 
    0.12353E+07         0.77098E+06         0.00000E+00
    0.77098E+06        -0.20395E+07         0.00000E+00
    0.00000E+00         0.00000E+00        -0.16084E+06
 
    0.93856E+06         0.87785E+06         0.00000E+00
    0.87785E+06        -0.19358E+07         0.00000E+00
    0.00000E+00         0.00000E+00        -0.19944E+06
 
    0.64414E+06         0.98165E+06         0.00000E+00
    0.98165E+06        -0.18245E+07         0.00000E+00
    0.00000E+00         0.00000E+00        -0.23607E+06
 
    0.35153E+06         0.10650E+07         0.00000E+00
    0.10650E+07        -0.17080E+07         0.00000E+00
    0.00000E+00         0.00000E+00        -0.27129E+06
 
    0.63109E+05         0.11074E+07         0.00000E+00
    0.11074E+07        -0.15890E+07         0.00000E+00
    0.00000E+00         0.00000E+00        -0.30518E+06
 
   -0.21617E+06         0.10865E+07         0.00000E+00
    0.10865E+07        -0.14702E+07         0.00000E+00
    0.00000E+00         0.00000E+00        -0.33727E+06
 
    0.51373E+07         0.11696E+06         0.00000E+00
    0.11696E+06        -0.25547E+07         0.00000E+00
    0.00000E+00         0.00000E+00         0.51653E+06
 
    0.44842E+07         0.27262E+06         0.00000E+00
    0.27262E+06        -0.25538E+07         0.00000E+00
    0.00000E+00         0.00000E+00         0.38609E+06
 
    0.39051E+07         0.35178E+06         0.00000E+00
    0.35178E+06        -0.25540E+07         0.00000E+00
    0.00000E+00         0.00000E+00         0.27022E+06
 
    0.33984E+07         0.38630E+06         0.00000E+00
    0.38630E+06        -0.25550E+07         0.00000E+00
    0.00000E+00         0.00000E+00         0.16867E+06
 
    0.29576E+07         0.40340E+06         0.00000E+00
    0.40340E+06        -0.25551E+07         0.00000E+00
    0.00000E+00         0.00000E+00         0.80493E+05
 
    0.25728E+07         0.42441E+06         0.00000E+00
    0.42441E+06        -0.25517E+07         0.00000E+00
    0.00000E+00         0.00000E+00         0.42174E+04
 
    0.22319E+07         0.46417E+06         0.00000E+00
    0.46417E+06        -0.25417E+07         0.00000E+00
    0.00000E+00         0.00000E+00        -0.61942E+05
 
    0.19218E+07         0.53096E+06         0.00000E+00
    0.53096E+06        -0.25214E+07         0.00000E+00
    0.00000E+00         0.00000E+00        -0.11991E+06
 
    0.16292E+07         0.62668E+06         0.00000E+00
    0.62668E+06        -0.24873E+07         0.00000E+00
    0.00000E+00         0.00000E+00        -0.17162E+06
 
    0.13418E+07         0.74716E+06         0.00000E+00
    0.74716E+06        -0.24362E+07         0.00000E+00
    0.00000E+00         0.00000E+00        -0.21888E+06
 
    0.10494E+07         0.88257E+06         0.00000E+00
    0.88257E+06        -0.23657E+07         0.00000E+00
    0.00000E+00         0.00000E+00        -0.26325E+06
 
    0.74426E+06         0.10179E+07         0.00000E+00
    0.10179E+07        -0.22744E+07         0.00000E+00
    0.00000E+00         0.00000E+00        -0.30603E+06
 
    0.42198E+06         0.11336E+07         0.00000E+00
    0.11336E+07        -0.21624E+07         0.00000E+00
    0.00000E+00         0.00000E+00        -0.34809E+06
 
    0.82047E+05         0.12069E+07         0.00000E+00
    0.12069E+07        -0.20311E+07         0.00000E+00
    0.00000E+00         0.00000E+00        -0.38981E+06
 
   -0.27179E+06         0.12135E+07         0.00000E+00
    0.12135E+07        -0.18833E+07         0.00000E+00
    0.00000E+00         0.00000E+00        -0.43102E+06
 
    0.53056E+07         0.10090E+06         0.00000E+00
    0.10090E+06        -0.25811E+07         0.00000E+00
    0.00000E+00         0.00000E+00         0.54490E+06
 
    0.45594E+07         0.22267E+06         0.00000E+00
    0.22267E+06        -0.25964E+07         0.00000E+00
    0.00000E+00         0.00000E+00         0.39259E+06
 
    0.39226E+07         0.26995E+06         0.00000E+00
    0.26995E+06        -0.26280E+07         0.00000E+00
    0.00000E+00         0.00000E+00         0.25891E+06
 
    0.33883E+07         0.27843E+06         0.00000E+00
    0.27843E+06        -0.26736E+07         0.00000E+00
    0.00000E+00         0.00000E+00         0.14293E+06
 
    0.29437E+07         0.27779E+06         0.00000E+00
    0.27779E+06        -0.27284E+07         0.00000E+00
    0.00000E+00         0.00000E+00         0.43063E+05
 
    0.25724E+07         0.29085E+06         0.00000E+00
    0.29085E+06        -0.27861E+07         0.00000E+00
    0.00000E+00         0.00000E+00        -0.42733E+05
 
    0.22556E+07         0.33320E+06         0.00000E+00
    0.33320E+06        -0.28395E+07         0.00000E+00
    0.00000E+00         0.00000E+00        -0.11679E+06
 
    0.19738E+07         0.41322E+06         0.00000E+00
    0.41322E+06        -0.28815E+07         0.00000E+00
    0.00000E+00         0.00000E+00        -0.18154E+06
 
    0.17079E+07         0.53228E+06         0.00000E+00
    0.53228E+06        -0.29047E+07         0.00000E+00
    0.00000E+00         0.00000E+00        -0.23937E+06
 
    0.14401E+07         0.68515E+06         0.00000E+00
    0.68515E+06        -0.29026E+07         0.00000E+00
    0.00000E+00         0.00000E+00        -0.29251E+06
 
    0.11549E+07         0.86041E+06         0.00000E+00
    0.86041E+06        -0.28696E+07         0.00000E+00
    0.00000E+00         0.00000E+00        -0.34293E+06
 
    0.83992E+06         0.10410E+07         0.00000E+00
    0.10410E+07        -0.28013E+07         0.00000E+00
    0.00000E+00         0.00000E+00        -0.39228E+06
 
    0.48665E+06         0.12048E+07         0.00000E+00
    0.12048E+07        -0.26954E+07         0.00000E+00
    0.00000E+00         0.00000E+00        -0.44174E+06
 
    0.91601E+05         0.13262E+07         0.00000E+00
    0.13262E+07        -0.25517E+07         0.00000E+00
    0.00000E+00         0.00000E+00        -0.49203E+06
 
   -0.34274E+06         0.13773E+07         0.00000E+00
    0.13773E+07        -0.23734E+07         0.00000E+00
    0.00000E+00         0.00000E+00        -0.54322E+06
 
    0.54064E+07         0.75489E+05         0.00000E+00
    0.75489E+05        -0.26336E+07         0.00000E+00
    0.00000E+00         0.00000E+00         0.55457E+06
 
    0.45663E+07         0.14642E+06         0.00000E+00
    0.14642E+06        -0.26684E+07         0.00000E+00
    0.00000E+00         0.00000E+00         0.37959E+06
 
    0.38751E+07         0.14785E+06         0.00000E+00
    0.14785E+06        -0.27369E+07         0.00000E+00
    0.00000E+00         0.00000E+00         0.22764E+06
 
    0.33191E+07         0.11981E+06         0.00000E+00
    0.11981E+06        -0.28338E+07         0.00000E+00
    0.00000E+00         0.00000E+00         0.97063E+05
 
    0.28782E+07         0.94700E+05         0.00000E+00
    0.94700E+05        -0.29505E+07         0.00000E+00
    0.00000E+00         0.00000E+00        -0.14448E+05
 
    0.25285E+07         0.96813E+05         0.00000E+00
    0.96813E+05        -0.30765E+07         0.00000E+00
    0.00000E+00         0.00000E+00        -0.10960E+06
 
    0.22441E+07         0.14225E+06         0.00000E+00
    0.14225E+06        -0.32007E+07         0.00000E+00
    0.00000E+00         0.00000E+00        -0.19132E+06
 
    0.19987E+07         0.23918E+06         0.00000E+00
    0.23918E+06        -0.33117E+07         0.00000E+00
    0.00000E+00         0.00000E+00        -0.26261E+06
 
    0.17667E+07         0.38822E+06         0.00000E+00
    0.38822E+06        -0.33986E+07         0.00000E+00
    0.00000E+00         0.00000E+00        -0.32637E+06
 
    0.15245E+07         0.58294E+06         0.00000E+00
    0.58294E+06        -0.34511E+07         0.00000E+00
    0.00000E+00         0.00000E+00        -0.38531E+06
 
    0.12510E+07         0.81022E+06         0.00000E+00
    0.81022E+06        -0.34602E+07         0.00000E+00
    0.00000E+00         0.00000E+00        -0.44185E+06
 
    0.92847E+06         0.10508E+07         0.00000E+00
    0.10508E+07        -0.34186E+07         0.00000E+00
    0.00000E+00         0.00000E+00        -0.49802E+06
 
    0.54395E+06         0.12797E+07         0.00000E+00
    0.12797E+07        -0.33210E+07         0.00000E+00
    0.00000E+00         0.00000E+00        -0.55542E+06
 
    0.90399E+05         0.14675E+07         0.00000E+00
    0.14675E+07        -0.31656E+07         0.00000E+00
    0.00000E+00         0.00000E+00        -0.61505E+06
 
   -0.43157E+06         0.15816E+07         0.00000E+00
    0.15816E+07        -0.29548E+07         0.00000E+00
    0.00000E+00         0.00000E+00        -0.67728E+06
 
    0.54105E+07         0.39597E+05         0.00000E+00
    0.39597E+05        -0.27223E+07         0.00000E+00
    0.00000E+00         0.00000E+00         0.53764E+06
 
    0.44786E+07         0.41255E+05         0.00000E+00
    0.41255E+05        -0.27802E+07         0.00000E+00
    0.00000E+00         0.00000E+00         0.33968E+06
 
    0.37393E+07        -0.17869E+05         0.00000E+00
   -0.17869E+05        -0.28916E+07         0.00000E+00
    0.00000E+00         0.00000E+00         0.16954E+06
 
    0.31705E+07        -0.93074E+05         0.00000E+00
   -0.93074E+05        -0.30471E+07         0.00000E+00
    0.00000E+00         0.00000E+00         0.24678E+05
 
    0.27436E+07        -0.14918E+06         0.00000E+00
   -0.14918E+06        -0.32335E+07         0.00000E+00
    0.00000E+00         0.00000E+00        -0.97974E+05
 
    0.24263E+07        -0.16062E+06         0.00000E+00
   -0.16062E+06        -0.34355E+07         0.00000E+00
    0.00000E+00         0.00000E+00        -0.20186E+06
 
    0.21848E+07        -0.11114E+06         0.00000E+00
   -0.11114E+06        -0.36377E+07         0.00000E+00
    0.00000E+00         0.00000E+00        -0.29059E+06
 
    0.19855E+07         0.68342E+04         0.00000E+00
    0.68342E+04        -0.38244E+07         0.00000E+00
    0.00000E+00         0.00000E+00        -0.36778E+06
 
    0.17965E+07         0.19291E+06         0.00000E+00
    0.19291E+06        -0.39810E+07         0.00000E+00
    0.00000E+00         0.00000E+00        -0.43692E+06
 
    0.15876E+07         0.43930E+06         0.00000E+00
    0.43930E+06        -0.40938E+07         0.00000E+00
    0.00000E+00         0.00000E+00        -0.50125E+06
 
    0.13317E+07         0.73121E+06         0.00000E+00
    0.73121E+06        -0.41502E+07         0.00000E+00
    0.00000E+00         0.00000E+00        -0.56370E+06
 
    0.10057E+07         0.10471E+07         0.00000E+00
    0.10471E+07        -0.41395E+07         0.00000E+00
    0.00000E+00         0.00000E+00        -0.62678E+06
 
    0.59102E+06         0.13590E+07         0.00000E+00
    0.13590E+07        -0.40534E+07         0.00000E+00
    0.00000E+00         0.00000E+00        -0.69247E+06
 
    0.76272E+05         0.16330E+07         0.00000E+00
    0.16330E+07        -0.38872E+07         0.00000E+00
    0.00000E+00         0.00000E+00        -0.76219E+06
 
   -0.54106E+06         0.18308E+07         0.00000E+00
    0.18308E+07        -0.36420E+07         0.00000E+00
    0.00000E+00         0.00000E+00        -0.83661E+06
 
    0.52833E+07        -0.78825E+04         0.00000E+00
   -0.78825E+04        -0.28605E+07         0.00000E+00
    0.00000E+00         0.00000E+00         0.48455E+06
 
    0.42654E+07        -0.95435E+05         0.00000E+00
   -0.95435E+05        -0.29453E+07         0.00000E+00
    0.00000E+00         0.00000E+00         0.26401E+06
 
    0.34880E+07        -0.23040E+06         0.00000E+00
   -0.23040E+06        -0.31061E+07         0.00000E+00
    0.00000E+00         0.00000E+00         0.76372E+05
 
    0.29189E+07        -0.36327E+06         0.00000E+00
   -0.36327E+06        -0.33280E+07         0.00000E+00
    0.00000E+00         0.00000E+00        -0.81810E+05
 
    0.25194E+07        -0.45627E+06         0.00000E+00
   -0.45627E+06        -0.35919E+07         0.00000E+00
    0.00000E+00         0.00000E+00        -0.21450E+06
 
    0.22478E+07        -0.48308E+06         0.00000E+00
   -0.48308E+06        -0.38775E+07         0.00000E+00
    0.00000E+00         0.00000E+00        -0.32593E+06
 
    0.20618E+07        -0.42788E+06         0.00000E+00
   -0.42788E+06        -0.41643E+07         0.00000E+00
    0.00000E+00         0.00000E+00        -0.42049E+06
 
    0.19204E+07        -0.28421E+06         0.00000E+00
   -0.28421E+06        -0.44327E+07         0.00000E+00
    0.00000E+00         0.00000E+00        -0.50246E+06
 
    0.17846E+07        -0.53830E+05         0.00000E+00
   -0.53830E+05        -0.46645E+07         0.00000E+00
    0.00000E+00         0.00000E+00        -0.57598E+06
 
    0.16183E+07         0.25406E+06         0.00000E+00
    0.25406E+06        -0.48428E+07         0.00000E+00
    0.00000E+00         0.00000E+00        -0.64490E+06
 
    0.13881E+07         0.62316E+06         0.00000E+00
    0.62316E+06        -0.49515E+07         0.00000E+00
    0.00000E+00         0.00000E+00        -0.71268E+06
 
    0.10646E+07         0.10299E+07         0.00000E+00
    0.10299E+07        -0.49765E+07         0.00000E+00
    0.00000E+00         0.00000E+00        -0.78238E+06
 
    0.62294E+06         0.14434E+07         0.00000E+00
    0.14434E+07        -0.49055E+07         0.00000E+00
    0.00000E+00         0.00000E+00        -0.85650E+06
 
    0.45721E+05         0.18251E+07         0.00000E+00
    0.18251E+07        -0.47302E+07         0.00000E+00
    0.00000E+00         0.00000E+00        -0.93690E+06
 
   -0.67445E+06         0.21297E+07         0.00000E+00
    0.21297E+07        -0.44488E+07         0.00000E+00
    0.00000E+00         0.00000E+00        -0.10246E+07
 
    0.49846E+07        -0.68022E+05         0.00000E+00
   -0.68022E+05        -0.30653E+07         0.00000E+00
    0.00000E+00         0.00000E+00         0.38387E+06
 
    0.38912E+07        -0.26609E+06         0.00000E+00
   -0.26609E+06        -0.31812E+07         0.00000E+00
    0.00000E+00         0.00000E+00         0.14200E+06
 
    0.30903E+07        -0.49248E+06         0.00000E+00
   -0.49248E+06        -0.33982E+07         0.00000E+00
    0.00000E+00         0.00000E+00        -0.61568E+05
 
    0.25375E+07        -0.69292E+06         0.00000E+00
   -0.69292E+06        -0.36941E+07         0.00000E+00
    0.00000E+00         0.00000E+00        -0.23132E+06
 
    0.21823E+07        -0.82757E+06         0.00000E+00
   -0.82757E+06        -0.40433E+07         0.00000E+00
    0.00000E+00         0.00000E+00        -0.37219E+06
 
    0.19723E+07        -0.87021E+06         0.00000E+00
   -0.87021E+06        -0.44189E+07         0.00000E+00
    0.00000E+00         0.00000E+00        -0.48932E+06
 
    0.18562E+07        -0.80650E+06         0.00000E+00
   -0.80650E+06        -0.47956E+07         0.00000E+00
    0.00000E+00         0.00000E+00        -0.58788E+06
 
    0.17853E+07        -0.63194E+06         0.00000E+00
   -0.63194E+06        -0.51501E+07         0.00000E+00
    0.00000E+00         0.00000E+00        -0.67294E+06
 
    0.17144E+07        -0.35007E+06         0.00000E+00
   -0.35007E+06        -0.54610E+07         0.00000E+00
    0.00000E+00         0.00000E+00        -0.74931E+06
 
    0.16014E+07         0.28579E+05         0.00000E+00
    0.28579E+05        -0.57087E+07         0.00000E+00
    0.00000E+00         0.00000E+00        -0.82147E+06
 
    0.14068E+07         0.48665E+06         0.00000E+00
    0.48665E+06        -0.58744E+07         0.00000E+00
    0.00000E+00         0.00000E+00        -0.89353E+06
 
    0.10943E+07         0.99933E+06         0.00000E+00
    0.99933E+06        -0.59400E+07         0.00000E+00
    0.00000E+00         0.00000E+00        -0.96915E+06
 
    0.63160E+06         0.15332E+07         0.00000E+00
    0.15332E+07        -0.58888E+07         0.00000E+00
    0.00000E+00         0.00000E+00        -0.10514E+07
 
   -0.67269E+04         0.20454E+07         0.00000E+00
    0.20454E+07        -0.57073E+07         0.00000E+00
    0.00000E+00         0.00000E+00        -0.11428E+07
 
   -0.83559E+06         0.24830E+07         0.00000E+00
    0.24830E+07        -0.53887E+07         0.00000E+00
    0.00000E+00         0.00000E+00        -0.12449E+07
 
    0.44684E+07        -0.14186E+06         0.00000E+00
   -0.14186E+06        -0.33578E+07         0.00000E+00
    0.00000E+00         0.00000E+00         0.22213E+06
 
    0.33156E+07        -0.47293E+06         0.00000E+00
   -0.47293E+06        -0.35093E+07         0.00000E+00
    0.00000E+00         0.00000E+00        -0.38747E+05
 
    0.25113E+07        -0.80623E+06         0.00000E+00
   -0.80623E+06        -0.37897E+07         0.00000E+00
    0.00000E+00         0.00000E+00        -0.25567E+06
 
    0.19962E+07        -0.10828E+07         0.00000E+00
   -0.10828E+07        -0.41677E+07         0.00000E+00
    0.00000E+00         0.00000E+00        -0.43429E+06
 
    0.17058E+07        -0.12618E+07         0.00000E+00
   -0.12618E+07        -0.46088E+07         0.00000E+00
    0.00000E+00         0.00000E+00        -0.58060E+06
 
    0.15756E+07        -0.13186E+07         0.00000E+00
   -0.13186E+07        -0.50793E+07         0.00000E+00
    0.00000E+00         0.00000E+00        -0.70074E+06
 
    0.15448E+07        -0.12421E+07         0.00000E+00
   -0.12421E+07        -0.55486E+07         0.00000E+00
    0.00000E+00         0.00000E+00        -0.80076E+06
 
    0.15576E+07        -0.10308E+07         0.00000E+00
   -0.10308E+07        -0.59903E+07         0.00000E+00
    0.00000E+00         0.00000E+00        -0.88653E+06
 
    0.15635E+07        -0.69079E+06         0.00000E+00
   -0.69079E+06        -0.63813E+07         0.00000E+00
    0.00000E+00         0.00000E+00        -0.96356E+06
 
    0.15153E+07        -0.23354E+06         0.00000E+00
   -0.23354E+06        -0.67004E+07         0.00000E+00
    0.00000E+00         0.00000E+00        -0.10370E+07
 
    0.13680E+07         0.32343E+06         0.00000E+00
    0.32343E+06        -0.69266E+07         0.00000E+00
    0.00000E+00         0.00000E+00        -0.11117E+07
 
    0.10781E+07         0.95541E+06         0.00000E+00
    0.95541E+06        -0.70379E+07         0.00000E+00
    0.00000E+00         0.00000E+00        -0.11920E+07
 
    0.60441E+06         0.16280E+07         0.00000E+00
    0.16280E+07        -0.70122E+07         0.00000E+00
    0.00000E+00         0.00000E+00        -0.12816E+07
 
   -0.89376E+05         0.22946E+07         0.00000E+00
    0.22946E+07        -0.68292E+07         0.00000E+00
    0.00000E+00         0.00000E+00        -0.13837E+07
 
   -0.10292E+07         0.28948E+07         0.00000E+00
    0.28948E+07        -0.64741E+07         0.00000E+00
    0.00000E+00         0.00000E+00        -0.15007E+07
 
    0.36819E+07        -0.23043E+06         0.00000E+00
   -0.23043E+06        -0.37643E+07         0.00000E+00
    0.00000E+00         0.00000E+00        -0.16474E+05
 
    0.24927E+07        -0.71804E+06         0.00000E+00
   -0.71804E+06        -0.39565E+07         0.00000E+00
    0.00000E+00         0.00000E+00        -0.29276E+06
 
    0.17118E+07        -0.11729E+07         0.00000E+00
   -0.11729E+07        -0.43081E+07         0.00000E+00
    0.00000E+00         0.00000E+00        -0.51925E+06
 
    0.12616E+07        -0.15318E+07         0.00000E+00
   -0.15318E+07        -0.47759E+07         0.00000E+00
    0.00000E+00         0.00000E+00        -0.70286E+06
 
    0.10602E+07        -0.17545E+07         0.00000E+00
   -0.17545E+07        -0.53142E+07         0.00000E+00
    0.00000E+00         0.00000E+00        -0.85081E+06
 
    0.10296E+07        -0.18207E+07         0.00000E+00
   -0.18207E+07        -0.58812E+07         0.00000E+00
    0.00000E+00         0.00000E+00        -0.97033E+06
 
    0.10994E+07        -0.17247E+07         0.00000E+00
   -0.17247E+07        -0.64416E+07         0.00000E+00
    0.00000E+00         0.00000E+00        -0.10684E+07
 
    0.12082E+07        -0.14704E+07         0.00000E+00
   -0.14704E+07        -0.69671E+07         0.00000E+00
    0.00000E+00         0.00000E+00        -0.11518E+07
 
    0.13018E+07        -0.10666E+07         0.00000E+00
   -0.10666E+07        -0.74347E+07         0.00000E+00
    0.00000E+00         0.00000E+00        -0.12266E+07
 
    0.13300E+07        -0.52552E+06         0.00000E+00
   -0.52552E+06        -0.78236E+07         0.00000E+00
    0.00000E+00         0.00000E+00        -0.12987E+07
 
    0.12435E+07         0.13687E+06         0.00000E+00
    0.13687E+06        -0.81118E+07         0.00000E+00
    0.00000E+00         0.00000E+00        -0.13737E+07
 
    0.99164E+06         0.89830E+06         0.00000E+00
    0.89830E+06        -0.82739E+07         0.00000E+00
    0.00000E+00         0.00000E+00        -0.14565E+07
 
    0.52238E+06         0.17259E+07         0.00000E+00
    0.17259E+07        -0.82813E+07         0.00000E+00
    0.00000E+00         0.00000E+00        -0.15518E+07
 
   -0.21459E+06         0.25714E+07         0.00000E+00
    0.25714E+07        -0.81040E+07         0.00000E+00
    0.00000E+00         0.00000E+00        -0.16637E+07
 
   -0.12614E+07         0.33673E+07         0.00000E+00
    0.33673E+07        -0.77163E+07         0.00000E+00
    0.00000E+00         0.00000E+00        -0.17955E+07
 
    0.25645E+07        -0.33494E+06         0.00000E+00
   -0.33494E+06        -0.43168E+07         0.00000E+00
    0.00000E+00         0.00000E+00        -0.35046E+06
 
    0.13706E+07        -0.10035E+07         0.00000E+00
   -0.10035E+07        -0.45560E+07         0.00000E+00
    0.00000E+00         0.00000E+00        -0.63708E+06
 
    0.64869E+06        -0.15928E+07         0.00000E+00
   -0.15928E+07        -0.49879E+07         0.00000E+00
    0.00000E+00         0.00000E+00        -0.86784E+06
 
    0.29702E+06        -0.20360E+07         0.00000E+00
   -0.20360E+07        -0.55529E+07         0.00000E+00
    0.00000E+00         0.00000E+00        -0.10512E+07
 
    0.21267E+06        -0.22964E+07         0.00000E+00
   -0.22964E+07        -0.61912E+07         0.00000E+00
    0.00000E+00         0.00000E+00        -0.11957E+07
 
    0.30206E+06        -0.23622E+07         0.00000E+00
   -0.23622E+07        -0.68516E+07         0.00000E+00
    0.00000E+00         0.00000E+00        -0.13099E+07
 
    0.48607E+06        -0.22373E+07         0.00000E+00
   -0.22373E+07        -0.74949E+07         0.00000E+00
    0.00000E+00         0.00000E+00        -0.14018E+07
 
    0.69995E+06        -0.19330E+07         0.00000E+00
   -0.19330E+07        -0.80936E+07         0.00000E+00
    0.00000E+00         0.00000E+00        -0.14787E+07
 
    0.88928E+06        -0.14620E+07         0.00000E+00
   -0.14620E+07        -0.86277E+07         0.00000E+00
    0.00000E+00         0.00000E+00        -0.15477E+07
 
    0.10041E+07        -0.83620E+06         0.00000E+00
   -0.83620E+06        -0.90796E+07         0.00000E+00
    0.00000E+00         0.00000E+00        -0.16151E+07
 
    0.99315E+06        -0.67488E+05         0.00000E+00
   -0.67488E+05        -0.94283E+07         0.00000E+00
    0.00000E+00         0.00000E+00        -0.16870E+07
 
    0.79909E+06         0.82793E+06         0.00000E+00
    0.82793E+06        -0.96460E+07         0.00000E+00
    0.00000E+00         0.00000E+00        -0.17694E+07
 
    0.35746E+06         0.18228E+07         0.00000E+00
    0.18228E+07        -0.96964E+07         0.00000E+00
    0.00000E+00         0.00000E+00        -0.18678E+07
 
   -0.40058E+06         0.28708E+07         0.00000E+00
    0.28708E+07        -0.95368E+07         0.00000E+00
    0.00000E+00         0.00000E+00        -0.19875E+07
 
   -0.15401E+07         0.38992E+07         0.00000E+00
    0.38992E+07        -0.91250E+07         0.00000E+00
    0.00000E+00         0.00000E+00        -0.21330E+07
 
    0.10461E+07        -0.45698E+06         0.00000E+00
   -0.45698E+06        -0.50550E+07         0.00000E+00
    0.00000E+00         0.00000E+00        -0.80178E+06
 
   -0.10958E+06        -0.13316E+07         0.00000E+00
   -0.13316E+07        -0.53495E+07         0.00000E+00
    0.00000E+00         0.00000E+00        -0.10918E+07
 
   -0.72588E+06        -0.20648E+07         0.00000E+00
   -0.20648E+07        -0.58728E+07         0.00000E+00
    0.00000E+00         0.00000E+00        -0.13197E+07
 
   -0.93701E+06        -0.25872E+07         0.00000E+00
   -0.25872E+07        -0.65420E+07         0.00000E+00
    0.00000E+00         0.00000E+00        -0.14958E+07
 
   -0.87306E+06        -0.28714E+07         0.00000E+00
   -0.28714E+07        -0.72788E+07         0.00000E+00
    0.00000E+00         0.00000E+00        -0.16304E+07
 
   -0.64471E+06        -0.29204E+07         0.00000E+00
   -0.29204E+07        -0.80218E+07         0.00000E+00
    0.00000E+00         0.00000E+00        -0.17333E+07
 
   -0.33770E+06        -0.27531E+07         0.00000E+00
   -0.27531E+07        -0.87304E+07         0.00000E+00
    0.00000E+00         0.00000E+00        -0.18136E+07
 
   -0.15638E+05        -0.23918E+07         0.00000E+00
   -0.23918E+07        -0.93817E+07         0.00000E+00
    0.00000E+00         0.00000E+00        -0.18795E+07
 
    0.27212E+06        -0.18537E+07         0.00000E+00
   -0.18537E+07        -0.99631E+07         0.00000E+00
    0.00000E+00         0.00000E+00        -0.19382E+07
 
    0.48073E+06        -0.11488E+07         0.00000E+00
   -0.11488E+07        -0.10464E+08         0.00000E+00
    0.00000E+00         0.00000E+00        -0.19966E+07
 
    0.56049E+06        -0.28130E+06         0.00000E+00
   -0.28130E+06        -0.10868E+08         0.00000E+00
    0.00000E+00         0.00000E+00        -0.20614E+07
 
    0.44929E+06         0.74379E+06         0.00000E+00
    0.74379E+06        -0.11145E+08         0.00000E+00
    0.00000E+00         0.00000E+00        -0.21392E+07
 
    0.68729E+05         0.19112E+07         0.00000E+00
    0.19112E+07        -0.11252E+08         0.00000E+00
    0.00000E+00         0.00000E+00        -0.22366E+07
 
   -0.67398E+06         0.31825E+07         0.00000E+00
    0.31825E+07        -0.11128E+08         0.00000E+00
    0.00000E+00         0.00000E+00        -0.23604E+07
 
   -0.18761E+07         0.44835E+07         0.00000E+00
    0.44835E+07        -0.10708E+08         0.00000E+00
    0.00000E+00         0.00000E+00        -0.25169E+07
 
   -0.95637E+06        -0.59903E+06         0.00000E+00
   -0.59903E+06        -0.60288E+07         0.00000E+00
    0.00000E+00         0.00000E+00        -0.13970E+07
 
   -0.20155E+07        -0.17058E+07         0.00000E+00
   -0.17058E+07        -0.63907E+07         0.00000E+00
    0.00000E+00         0.00000E+00        -0.16812E+07
 
   -0.24644E+07        -0.25860E+07         0.00000E+00
   -0.25860E+07        -0.70193E+07         0.00000E+00
    0.00000E+00         0.00000E+00        -0.18967E+07
 
   -0.24834E+07        -0.31713E+07         0.00000E+00
   -0.31713E+07        -0.77982E+07         0.00000E+00
    0.00000E+00         0.00000E+00        -0.20563E+07
 
   -0.22380E+07        -0.34530E+07         0.00000E+00
   -0.34530E+07        -0.86248E+07         0.00000E+00
    0.00000E+00         0.00000E+00        -0.21726E+07
 
   -0.18566E+07        -0.34596E+07         0.00000E+00
   -0.34596E+07        -0.94281E+07         0.00000E+00
    0.00000E+00         0.00000E+00        -0.22569E+07
 
   -0.14264E+07        -0.32327E+07         0.00000E+00
   -0.32327E+07        -0.10171E+08         0.00000E+00
    0.00000E+00         0.00000E+00        -0.23195E+07
 
   -0.10027E+07        -0.28084E+07         0.00000E+00
   -0.28084E+07        -0.10841E+08         0.00000E+00
    0.00000E+00         0.00000E+00        -0.23687E+07
 
   -0.62224E+06        -0.22088E+07         0.00000E+00
   -0.22088E+07        -0.11438E+08         0.00000E+00
    0.00000E+00         0.00000E+00        -0.24121E+07
 
   -0.31820E+06        -0.14394E+07         0.00000E+00
   -0.14394E+07        -0.11965E+08         0.00000E+00
    0.00000E+00         0.00000E+00        -0.24567E+07
 
   -0.13309E+06        -0.49266E+06         0.00000E+00
   -0.49266E+06        -0.12412E+08         0.00000E+00
    0.00000E+00         0.00000E+00        -0.25091E+07
 
   -0.13049E+06         0.64472E+06         0.00000E+00
    0.64472E+06        -0.12753E+08         0.00000E+00
    0.00000E+00         0.00000E+00        -0.25767E+07
 
   -0.40312E+06         0.19784E+07         0.00000E+00
    0.19784E+07        -0.12933E+08         0.00000E+00
    0.00000E+00         0.00000E+00        -0.26673E+07
 
   -0.10739E+07         0.34878E+07         0.00000E+00
    0.34878E+07        -0.12873E+08         0.00000E+00
    0.00000E+00         0.00000E+00        -0.27893E+07
 
   -0.22848E+07         0.51045E+07         0.00000E+00
    0.51045E+07        -0.12473E+08         0.00000E+00
    0.00000E+00         0.00000E+00        -0.29515E+07
 
   -0.35450E+07        -0.76530E+06         0.00000E+00
   -0.76530E+06        -0.73029E+07         0.00000E+00
    0.00000E+00         0.00000E+00        -0.21696E+07
 
   -0.44267E+07        -0.21308E+07         0.00000E+00
   -0.21308E+07        -0.77503E+07         0.00000E+00
    0.00000E+00         0.00000E+00        -0.24354E+07
 
   -0.46249E+07        -0.31496E+07         0.00000E+00
   -0.31496E+07        -0.85027E+07         0.00000E+00
    0.00000E+00         0.00000E+00        -0.26255E+07
 
   -0.43895E+07        -0.37630E+07         0.00000E+00
   -0.37630E+07        -0.93926E+07         0.00000E+00
    0.00000E+00         0.00000E+00        -0.27564E+07
 
   -0.39315E+07        -0.39988E+07         0.00000E+00
   -0.39988E+07        -0.10287E+08         0.00000E+00
    0.00000E+00         0.00000E+00        -0.28437E+07
 
   -0.33935E+07        -0.39272E+07         0.00000E+00
   -0.39272E+07        -0.11110E+08         0.00000E+00
    0.00000E+00         0.00000E+00        -0.29008E+07
 
   -0.28540E+07        -0.36206E+07         0.00000E+00
   -0.36206E+07        -0.11838E+08         0.00000E+00
    0.00000E+00         0.00000E+00        -0.29383E+07
 
   -0.23486E+07        -0.31311E+07         0.00000E+00
   -0.31311E+07        -0.12476E+08         0.00000E+00
    0.00000E+00         0.00000E+00        -0.29650E+07
 
   -0.18923E+07        -0.24835E+07         0.00000E+00
   -0.24835E+07        -0.13046E+08         0.00000E+00
    0.00000E+00         0.00000E+00        -0.29877E+07
 
   -0.14987E+07        -0.16762E+07         0.00000E+00
   -0.16762E+07        -0.13565E+08         0.00000E+00
    0.00000E+00         0.00000E+00        -0.30127E+07
 
   -0.11961E+07        -0.68513E+06         0.00000E+00
   -0.68513E+06        -0.14037E+08         0.00000E+00
    0.00000E+00         0.00000E+00        -0.30466E+07
 
   -0.10431E+07         0.52905E+06         0.00000E+00
    0.52905E+06        -0.14441E+08         0.00000E+00
    0.00000E+00         0.00000E+00        -0.30968E+07
 
   -0.11441E+07         0.20053E+07         0.00000E+00
    0.20053E+07        -0.14717E+08         0.00000E+00
    0.00000E+00         0.00000E+00        -0.31722E+07
 
   -0.16579E+07         0.37561E+07         0.00000E+00
    0.37561E+07        -0.14760E+08         0.00000E+00
    0.00000E+00         0.00000E+00        -0.32836E+07
 
   -0.27886E+07         0.57322E+07         0.00000E+00
    0.57322E+07        -0.14425E+08         0.00000E+00
    0.00000E+00         0.00000E+00        -0.34427E+07
 
   -0.68518E+07        -0.96321E+06         0.00000E+00
   -0.96321E+06        -0.89647E+07         0.00000E+00
    0.00000E+00         0.00000E+00        -0.31633E+07
 
   -0.74390E+07        -0.26137E+07         0.00000E+00
   -0.26137E+07        -0.95265E+07         0.00000E+00
    0.00000E+00         0.00000E+00        -0.33931E+07
 
   -0.72728E+07        -0.37404E+07         0.00000E+00
   -0.37404E+07        -0.10426E+08         0.00000E+00
    0.00000E+00         0.00000E+00        -0.35398E+07
 
   -0.67118E+07        -0.43166E+07         0.00000E+00
   -0.43166E+07        -0.11416E+08         0.00000E+00
    0.00000E+00         0.00000E+00        -0.36255E+07
 
   -0.60212E+07        -0.44413E+07         0.00000E+00
   -0.44413E+07        -0.12331E+08         0.00000E+00
    0.00000E+00         0.00000E+00        -0.36704E+07
 
   -0.53433E+07        -0.42479E+07         0.00000E+00
   -0.42479E+07        -0.13106E+08         0.00000E+00
    0.00000E+00         0.00000E+00        -0.36898E+07
 
   -0.47278E+07        -0.38447E+07         0.00000E+00
   -0.38447E+07        -0.13746E+08         0.00000E+00
    0.00000E+00         0.00000E+00        -0.36948E+07
 
   -0.41759E+07        -0.32962E+07         0.00000E+00
   -0.32962E+07        -0.14288E+08         0.00000E+00
    0.00000E+00         0.00000E+00        -0.36927E+07
 
   -0.36724E+07        -0.26252E+07         0.00000E+00
   -0.26252E+07        -0.14773E+08         0.00000E+00
    0.00000E+00         0.00000E+00        -0.36891E+07
 
   -0.32042E+07        -0.18197E+07         0.00000E+00
   -0.18197E+07        -0.15240E+08         0.00000E+00
    0.00000E+00         0.00000E+00        -0.36888E+07
 
   -0.27769E+07        -0.83645E+06         0.00000E+00
   -0.83645E+06        -0.15708E+08         0.00000E+00
    0.00000E+00         0.00000E+00        -0.36970E+07
 
   -0.24331E+07         0.39589E+06         0.00000E+00
    0.39589E+06        -0.16170E+08         0.00000E+00
    0.00000E+00         0.00000E+00        -0.37207E+07
 
   -0.22799E+07         0.19645E+07         0.00000E+00
    0.19645E+07        -0.16568E+08         0.00000E+00
    0.00000E+00         0.00000E+00        -0.37696E+07
 
   -0.25133E+07         0.39394E+07         0.00000E+00
    0.39394E+07        -0.16770E+08         0.00000E+00
    0.00000E+00         0.00000E+00        -0.38568E+07
 
   -0.34212E+07         0.63159E+07         0.00000E+00
    0.63159E+07        -0.16571E+08         0.00000E+00
    0.00000E+00         0.00000E+00        -0.39984E+07
 
   -0.11059E+08        -0.12064E+07         0.00000E+00
   -0.12064E+07        -0.11141E+08         0.00000E+00
    0.00000E+00         0.00000E+00        -0.44400E+07
 
   -0.11173E+08        -0.31624E+07         0.00000E+00
   -0.31624E+07        -0.11866E+08         0.00000E+00
    0.00000E+00         0.00000E+00        -0.46077E+07
 
   -0.10486E+08        -0.43203E+07         0.00000E+00
   -0.43203E+07        -0.12934E+08         0.00000E+00
    0.00000E+00         0.00000E+00        -0.46840E+07
 
   -0.95311E+07        -0.47468E+07         0.00000E+00
   -0.47468E+07        -0.13978E+08         0.00000E+00
    0.00000E+00         0.00000E+00        -0.47018E+07
 
   -0.86189E+07        -0.46742E+07         0.00000E+00
   -0.46742E+07        -0.14818E+08         0.00000E+00
    0.00000E+00         0.00000E+00        -0.46873E+07
 
   -0.78501E+07        -0.43203E+07         0.00000E+00
   -0.43203E+07        -0.15438E+08         0.00000E+00
    0.00000E+00         0.00000E+00        -0.46577E+07
 
   -0.72138E+07        -0.38201E+07         0.00000E+00
   -0.38201E+07        -0.15898E+08         0.00000E+00
    0.00000E+00         0.00000E+00        -0.46224E+07
 
   -0.66630E+07        -0.32350E+07         0.00000E+00
   -0.32350E+07        -0.16267E+08         0.00000E+00
    0.00000E+00         0.00000E+00        -0.45859E+07
 
   -0.61481E+07        -0.25781E+07         0.00000E+00
   -0.25781E+07        -0.16606E+08         0.00000E+00
    0.00000E+00         0.00000E+00        -0.45509E+07
 
   -0.56275E+07        -0.18252E+07         0.00000E+00
   -0.18252E+07        -0.16970E+08         0.00000E+00
    0.00000E+00         0.00000E+00        -0.45195E+07
 
   -0.50761E+07        -0.91691E+06         0.00000E+00
   -0.91691E+06        -0.17395E+08         0.00000E+00
    0.00000E+00         0.00000E+00        -0.44943E+07
 
   -0.45042E+07         0.24941E+06         0.00000E+00
    0.24941E+06        -0.17898E+08         0.00000E+00
    0.00000E+00         0.00000E+00        -0.44805E+07
 
   -0.39970E+07         0.18220E+07         0.00000E+00
    0.18220E+07        -0.18439E+08         0.00000E+00
    0.00000E+00         0.00000E+00        -0.44872E+07
 
   -0.37757E+07         0.39658E+07         0.00000E+00
    0.39658E+07        -0.18875E+08         0.00000E+00
    0.00000E+00         0.00000E+00        -0.45300E+07
 
   -0.42369E+07         0.67712E+07         0.00000E+00
    0.67712E+07        -0.18918E+08         0.00000E+00
    0.00000E+00         0.00000E+00        -0.46310E+07
 
   -0.16442E+08        -0.15221E+07         0.00000E+00
   -0.15221E+07        -0.14039E+08         0.00000E+00
    0.00000E+00         0.00000E+00        -0.60961E+07
 
   -0.15786E+08        -0.37759E+07         0.00000E+00
   -0.37759E+07        -0.15003E+08         0.00000E+00
    0.00000E+00         0.00000E+00        -0.61577E+07
 
   -0.14375E+08        -0.47892E+07         0.00000E+00
   -0.47892E+07        -0.16233E+08         0.00000E+00
    0.00000E+00         0.00000E+00        -0.61216E+07
 
   -0.13001E+08        -0.48883E+07         0.00000E+00
   -0.48883E+07        -0.17192E+08         0.00000E+00
    0.00000E+00         0.00000E+00        -0.60387E+07
 
   -0.11945E+08        -0.45395E+07         0.00000E+00
   -0.45395E+07        -0.17776E+08         0.00000E+00
    0.00000E+00         0.00000E+00        -0.59441E+07
 
   -0.11174E+08        -0.40263E+07         0.00000E+00
   -0.40263E+07        -0.18097E+08         0.00000E+00
    0.00000E+00         0.00000E+00        -0.58542E+07
 
   -0.10583E+08        -0.34646E+07         0.00000E+00
   -0.34646E+07        -0.18276E+08         0.00000E+00
    0.00000E+00         0.00000E+00        -0.57717E+07
 
   -0.10078E+08        -0.28900E+07         0.00000E+00
   -0.28900E+07        -0.18402E+08         0.00000E+00
    0.00000E+00         0.00000E+00        -0.56960E+07
 
   -0.95827E+07        -0.22969E+07         0.00000E+00
   -0.22969E+07        -0.18543E+08         0.00000E+00
    0.00000E+00         0.00000E+00        -0.56251E+07
 
   -0.90309E+07        -0.16518E+07         0.00000E+00
   -0.16518E+07        -0.18755E+08         0.00000E+00
    0.00000E+00         0.00000E+00        -0.55573E+07
 
   -0.83654E+07        -0.88911E+06         0.00000E+00
   -0.88911E+06        -0.19090E+08         0.00000E+00
    0.00000E+00         0.00000E+00        -0.54911E+07
 
   -0.75426E+07         0.10800E+06         0.00000E+00
    0.10800E+06        -0.19592E+08         0.00000E+00
    0.00000E+00         0.00000E+00        -0.54268E+07
 
   -0.65794E+07         0.15466E+07         0.00000E+00
    0.15466E+07        -0.20275E+08         0.00000E+00
    0.00000E+00         0.00000E+00        -0.53708E+07
 
   -0.56686E+07         0.37333E+07         0.00000E+00
    0.37333E+07        -0.21025E+08         0.00000E+00
    0.00000E+00         0.00000E+00        -0.53386E+07
 
   -0.53287E+07         0.69577E+07         0.00000E+00
    0.69577E+07        -0.21477E+08         0.00000E+00
    0.00000E+00         0.00000E+00        -0.53611E+07
 
   -0.23465E+08        -0.19707E+07         0.00000E+00
   -0.19707E+07        -0.18027E+08         0.00000E+00
    0.00000E+00         0.00000E+00        -0.82983E+07
 
   -0.21508E+08        -0.43956E+07         0.00000E+00
   -0.43956E+07        -0.19381E+08         0.00000E+00
    0.00000E+00         0.00000E+00        -0.81778E+07
 
   -0.19172E+08        -0.48590E+07         0.00000E+00
   -0.48590E+07        -0.20589E+08         0.00000E+00
    0.00000E+00         0.00000E+00        -0.79522E+07
 
   -0.17514E+08        -0.44439E+07         0.00000E+00
   -0.44439E+07        -0.21078E+08         0.00000E+00
    0.00000E+00         0.00000E+00        -0.77185E+07
 
   -0.16481E+08        -0.38506E+07         0.00000E+00
   -0.38506E+07        -0.21146E+08         0.00000E+00
    0.00000E+00         0.00000E+00        -0.75254E+07
 
   -0.15800E+08        -0.32674E+07         0.00000E+00
   -0.32674E+07        -0.21027E+08         0.00000E+00
    0.00000E+00         0.00000E+00        -0.73654E+07
 
   -0.15295E+08        -0.27330E+07         0.00000E+00
   -0.27330E+07        -0.20852E+08         0.00000E+00
    0.00000E+00         0.00000E+00        -0.72295E+07
 
   -0.14850E+08        -0.22413E+07         0.00000E+00
   -0.22413E+07        -0.20697E+08         0.00000E+00
    0.00000E+00         0.00000E+00        -0.71094E+07
 
   -0.14376E+08        -0.17691E+07         0.00000E+00
   -0.17691E+07        -0.20613E+08         0.00000E+00
    0.00000E+00         0.00000E+00        -0.69979E+07
 
   -0.13796E+08        -0.12806E+07         0.00000E+00
   -0.12806E+07        -0.20646E+08         0.00000E+00
    0.00000E+00         0.00000E+00        -0.68883E+07
 
   -0.13023E+08        -0.71895E+06         0.00000E+00
   -0.71895E+06        -0.20845E+08         0.00000E+00
    0.00000E+00         0.00000E+00        -0.67737E+07
 
   -0.11956E+08         0.17839E+05         0.00000E+00
    0.17839E+05        -0.21278E+08         0.00000E+00
    0.00000E+00         0.00000E+00        -0.66468E+07
 
   -0.10472E+08         0.11373E+07         0.00000E+00
    0.11373E+07        -0.22028E+08         0.00000E+00
    0.00000E+00         0.00000E+00        -0.65000E+07
 
   -0.85894E+07         0.31107E+07         0.00000E+00
    0.31107E+07        -0.23151E+08         0.00000E+00
    0.00000E+00         0.00000E+00        -0.63481E+07
 
   -0.68720E+07         0.66359E+07         0.00000E+00
    0.66359E+07        -0.24252E+08         0.00000E+00
    0.00000E+00         0.00000E+00        -0.62248E+07
 
   -0.33100E+08        -0.27711E+07         0.00000E+00
   -0.27711E+07        -0.24284E+08         0.00000E+00
    0.00000E+00         0.00000E+00        -0.11477E+08
 
   -0.28855E+08        -0.44628E+07         0.00000E+00
   -0.44628E+07        -0.25848E+08         0.00000E+00
    0.00000E+00         0.00000E+00        -0.10941E+08
 
   -0.25769E+08        -0.38180E+07         0.00000E+00
   -0.38180E+07        -0.25945E+08         0.00000E+00
    0.00000E+00         0.00000E+00        -0.10343E+08
 
   -0.24211E+08        -0.30903E+07         0.00000E+00
   -0.30903E+07        -0.25434E+08         0.00000E+00
    0.00000E+00         0.00000E+00        -0.99289E+07
 
   -0.23295E+08        -0.25084E+07         0.00000E+00
   -0.25084E+07        -0.24795E+08         0.00000E+00
    0.00000E+00         0.00000E+00        -0.96181E+07
 
   -0.22688E+08        -0.20463E+07         0.00000E+00
   -0.20463E+07        -0.24183E+08         0.00000E+00
    0.00000E+00         0.00000E+00        -0.93743E+07
 
   -0.22212E+08        -0.16681E+07         0.00000E+00
   -0.16681E+07        -0.23653E+08         0.00000E+00
    0.00000E+00         0.00000E+00        -0.91730E+07
 
   -0.21757E+08        -0.13431E+07         0.00000E+00
   -0.13431E+07        -0.23231E+08         0.00000E+00
    0.00000E+00         0.00000E+00        -0.89975E+07
 
   -0.21240E+08        -0.10450E+07         0.00000E+00
   -0.10450E+07        -0.22935E+08         0.00000E+00
    0.00000E+00         0.00000E+00        -0.88350E+07
 
   -0.20578E+08        -0.74665E+06         0.00000E+00
   -0.74665E+06        -0.22790E+08         0.00000E+00
    0.00000E+00         0.00000E+00        -0.86737E+07
 
   -0.19668E+08        -0.41147E+06         0.00000E+00
   -0.41147E+06        -0.22834E+08         0.00000E+00
    0.00000E+00         0.00000E+00        -0.85006E+07
 
   -0.18357E+08         0.24018E+05         0.00000E+00
    0.24018E+05        -0.23133E+08         0.00000E+00
    0.00000E+00         0.00000E+00        -0.82981E+07
 
   -0.16397E+08         0.69605E+06         0.00000E+00
    0.69605E+06        -0.23810E+08         0.00000E+00
    0.00000E+00         0.00000E+00        -0.80414E+07
 
   -0.13311E+08         0.19942E+07         0.00000E+00
    0.19942E+07        -0.25105E+08         0.00000E+00
    0.00000E+00         0.00000E+00        -0.76831E+07
 
   -0.92684E+07         0.53443E+07         0.00000E+00
    0.53443E+07        -0.27237E+08         0.00000E+00
    0.00000E+00         0.00000E+00        -0.73010E+07
 
   -0.51636E+08        -0.29605E+07         0.00000E+00
   -0.29605E+07        -0.36633E+08         0.00000E+00
    0.00000E+00         0.00000E+00        -0.17654E+08
 
   -0.42337E+08        -0.19856E+07         0.00000E+00
   -0.19856E+07        -0.33962E+08         0.00000E+00
    0.00000E+00         0.00000E+00        -0.15260E+08
 
   -0.38792E+08        -0.12992E+07         0.00000E+00
   -0.12992E+07        -0.31878E+08         0.00000E+00
    0.00000E+00         0.00000E+00        -0.14134E+08
 
   -0.36736E+08        -0.97681E+06         0.00000E+00
   -0.97681E+06        -0.30237E+08         0.00000E+00
    0.00000E+00         0.00000E+00        -0.13395E+08
 
   -0.35382E+08        -0.76359E+06         0.00000E+00
   -0.76359E+06        -0.28936E+08         0.00000E+00
    0.00000E+00         0.00000E+00        -0.12864E+08
 
   -0.34380E+08        -0.60917E+06         0.00000E+00
   -0.60917E+06        -0.27891E+08         0.00000E+00
    0.00000E+00         0.00000E+00        -0.12454E+08
 
   -0.33548E+08        -0.48740E+06         0.00000E+00
   -0.48740E+06        -0.27054E+08         0.00000E+00
    0.00000E+00         0.00000E+00        -0.12120E+08
 
   -0.32767E+08        -0.38404E+06         0.00000E+00
   -0.38404E+06        -0.26399E+08         0.00000E+00
    0.00000E+00         0.00000E+00        -0.11833E+08
 
   -0.31942E+08        -0.28898E+06         0.00000E+00
   -0.28898E+06        -0.25913E+08         0.00000E+00
    0.00000E+00         0.00000E+00        -0.11571E+08
 
   -0.30975E+08        -0.19292E+06         0.00000E+00
   -0.19292E+06        -0.25601E+08         0.00000E+00
    0.00000E+00         0.00000E+00        -0.11315E+08
 
   -0.29743E+08        -0.83996E+05         0.00000E+00
   -0.83996E+05        -0.25486E+08         0.00000E+00
    0.00000E+00         0.00000E+00        -0.11046E+08
 
   -0.28058E+08         0.57618E+05         0.00000E+00
    0.57618E+05        -0.25621E+08         0.00000E+00
    0.00000E+00         0.00000E+00        -0.10736E+08
 
   -0.25577E+08         0.27847E+06         0.00000E+00
    0.27847E+06        -0.26121E+08         0.00000E+00
    0.00000E+00         0.00000E+00        -0.10340E+08
 
   -0.21587E+08         0.68634E+06         0.00000E+00
    0.68634E+06        -0.27275E+08         0.00000E+00
    0.00000E+00         0.00000E+00        -0.97723E+07
 
   -0.13538E+08         0.22052E+07         0.00000E+00
    0.22052E+07        -0.30001E+08         0.00000E+00
    0.00000E+00         0.00000E+00        -0.87078E+07
 
TENSORS stresstot double 
   -0.52331E+08        -0.23991E+06         0.00000E+00
   -0.23991E+06        -0.60160E+08         0.00000E+00
    0.00000E+00         0.00000E+00        -0.58662E+08
 
   -0.53510E+08        -0.21135E+06         0.00000E+00
   -0.21135E+06        -0.60515E+08         0.00000E+00
    0.00000E+00         0.00000E+00        -0.59050E+08
 
   -0.54187E+08        -0.14780E+06         0.00000E+00
   -0.14780E+06        -0.60831E+08         0.00000E+00
    0.00000E+00         0.00000E+00        -0.59375E+08
 
   -0.54745E+08        -0.10278E+06         0.00000E+00
   -0.10278E+06        -0.61062E+08         0.00000E+00
    0.00000E+00         0.00000E+00        -0.59675E+08
 
   -0.55260E+08        -0.69509E+05         0.00000E+00
   -0.69509E+05        -0.61223E+08         0.00000E+00
    0.00000E+00         0.00000E+00        -0.59956E+08
 
   -0.55759E+08        -0.45057E+05         0.00000E+00
   -0.45057E+05        -0.61331E+08         0.00000E+00
    0.00000E+00         0.00000E+00        -0.60221E+08
 
   -0.56250E+08        -0.27099E+05         0.00000E+00
   -0.27099E+05        -0.61398E+08         0.00000E+00
    0.00000E+00         0.00000E+00        -0.60472E+08
 
   -0.56738E+08        -0.13944E+05         0.00000E+00
   -0.13944E+05        -0.61436E+08         0.00000E+00
    0.00000E+00         0.00000E+00        -0.60711E+08
 
   -0.57224E+08        -0.41753E+04         0.00000E+00
   -0.41753E+04        -0.61451E+08         0.00000E+00
    0.00000E+00         0.00000E+00        -0.60940E+08
 
   -0.57712E+08         0.36626E+04         0.00000E+00
    0.36626E+04        -0.61449E+08         0.00000E+00
    0.00000E+00         0.00000E+00        -0.61160E+08
 
   -0.58211E+08         0.11553E+05         0.00000E+00
    0.11553E+05        -0.61432E+08         0.00000E+00
    0.00000E+00         0.00000E+00        -0.61374E+08
 
   -0.58742E+08         0.22977E+05         0.00000E+00
    0.22977E+05        -0.61394E+08         0.00000E+00
    0.00000E+00         0.00000E+00        -0.61584E+08
 
   -0.59346E+08         0.46173E+05         0.00000E+00
    0.46173E+05        -0.61322E+08         0.00000E+00
    0.00000E+00         0.00000E+00        -0.61792E+08
 
   -0.60129E+08         0.10169E+06         0.00000E+00
    0.10169E+06        -0.61169E+08         0.00000E+00
    0.00000E+00         0.00000E+00        -0.62003E+08
 
   -0.61486E+08         0.34377E+06         0.00000E+00
    0.34377E+06        -0.60772E+08         0.00000E+00
    0.00000E+00         0.00000E+00        -0.62249E+08
 
   -0.52695E+08        -0.30190E+06         0.00000E+00
   -0.30190E+06        -0.59966E+08         0.00000E+00
    0.00000E+00         0.00000E+00        -0.57922E+08
 
   -0.53442E+08        -0.43854E+06         0.00000E+00
   -0.43854E+06        -0.59976E+08         0.00000E+00
    0.00000E+00         0.00000E+00        -0.58141E+08
 
   -0.54110E+08        -0.35590E+06         0.00000E+00
   -0.35590E+06        -0.60085E+08         0.00000E+00
    0.00000E+00         0.00000E+00        -0.58405E+08
 
   -0.54679E+08        -0.25983E+06         0.00000E+00
   -0.25983E+06        -0.60202E+08         0.00000E+00
    0.00000E+00         0.00000E+00        -0.58670E+08
 
   -0.55209E+08        -0.17917E+06         0.00000E+00
   -0.17917E+06        -0.60295E+08         0.00000E+00
    0.00000E+00         0.00000E+00        -0.58930E+08
 
   -0.55720E+08        -0.11591E+06         0.00000E+00
   -0.11591E+06        -0.60358E+08         0.00000E+00
    0.00000E+00         0.00000E+00        -0.59180E+08
 
   -0.56221E+08        -0.67629E+05         0.00000E+00
   -0.67629E+05        -0.60396E+08         0.00000E+00
    0.00000E+00         0.00000E+00        -0.59420E+08
 
   -0.56716E+08        -0.31156E+05         0.00000E+00
   -0.31156E+05        -0.60411E+08         0.00000E+00
    0.00000E+00         0.00000E+00        -0.59651E+08
 
   -0.57207E+08        -0.31210E+04         0.00000E+00
   -0.31210E+04        -0.60408E+08         0.00000E+00
    0.00000E+00         0.00000E+00        -0.59872E+08
 
   -0.57697E+08         0.20476E+05         0.00000E+00
    0.20476E+05        -0.60389E+08         0.00000E+00
    0.00000E+00         0.00000E+00        -0.60084E+08
 
   -0.58192E+08         0.45504E+05         0.00000E+00
    0.45504E+05        -0.60353E+08         0.00000E+00
    0.00000E+00         0.00000E+00        -0.60289E+08
 
   -0.58709E+08         0.82698E+05         0.00000E+00
    0.82698E+05        -0.60294E+08         0.00000E+00
    0.00000E+00         0.00000E+00        -0.60485E+08
 
   -0.59274E+08         0.15560E+06         0.00000E+00
    0.15560E+06        -0.60198E+08         0.00000E+00
    0.00000E+00         0.00000E+00        -0.60672E+08
 
   -0.59946E+08         0.32968E+06         0.00000E+00
    0.32968E+06        -0.60026E+08         0.00000E+00
    0.00000E+00         0.00000E+00        -0.60847E+08
 
   -0.60673E+08         0.83990E+06         0.00000E+00
    0.83990E+06        -0.59730E+08         0.00000E+00
    0.00000E+00         0.00000E+00        -0.60978E+08
 
   -0.53084E+08        -0.21226E+06         0.00000E+00
   -0.21226E+06        -0.59951E+08         0.00000E+00
    0.00000E+00         0.00000E+00        -0.57488E+08
 
   -0.53471E+08        -0.40483E+06         0.00000E+00
   -0.40483E+06        -0.59844E+08         0.00000E+00
    0.00000E+00         0.00000E+00        -0.57597E+08
 
   -0.54027E+08        -0.39298E+06         0.00000E+00
   -0.39298E+06        -0.59774E+08         0.00000E+00
    0.00000E+00         0.00000E+00        -0.57781E+08
 
   -0.54587E+08        -0.30975E+06         0.00000E+00
   -0.30975E+06        -0.59754E+08         0.00000E+00
    0.00000E+00         0.00000E+00        -0.57997E+08
 
   -0.55129E+08        -0.21918E+06         0.00000E+00
   -0.21918E+06        -0.59751E+08         0.00000E+00
    0.00000E+00         0.00000E+00        -0.58223E+08
 
   -0.55655E+08        -0.13930E+06         0.00000E+00
   -0.13930E+06        -0.59749E+08         0.00000E+00
    0.00000E+00         0.00000E+00        -0.58450E+08
 
   -0.56171E+08        -0.73795E+05         0.00000E+00
   -0.73795E+05        -0.59739E+08         0.00000E+00
    0.00000E+00         0.00000E+00        -0.58674E+08
 
   -0.56677E+08        -0.21384E+05         0.00000E+00
   -0.21384E+05        -0.59718E+08         0.00000E+00
    0.00000E+00         0.00000E+00        -0.58891E+08
 
   -0.57174E+08         0.21454E+05         0.00000E+00
    0.21454E+05        -0.59685E+08         0.00000E+00
    0.00000E+00         0.00000E+00        -0.59100E+08
 
   -0.57665E+08         0.60239E+05         0.00000E+00
    0.60239E+05        -0.59639E+08         0.00000E+00
    0.00000E+00         0.00000E+00        -0.59299E+08
 
   -0.58152E+08         0.10396E+06         0.00000E+00
    0.10396E+06        -0.59576E+08         0.00000E+00
    0.00000E+00         0.00000E+00        -0.59488E+08
 
   -0.58640E+08         0.16902E+06         0.00000E+00
    0.16902E+06        -0.59491E+08         0.00000E+00
    0.00000E+00         0.00000E+00        -0.59663E+08
 
   -0.59135E+08         0.28887E+06         0.00000E+00
    0.28887E+06        -0.59374E+08         0.00000E+00
    0.00000E+00         0.00000E+00        -0.59820E+08
 
   -0.59610E+08         0.53918E+06         0.00000E+00
    0.53918E+06        -0.59216E+08         0.00000E+00
    0.00000E+00         0.00000E+00        -0.59948E+08
 
   -0.59940E+08         0.10356E+07         0.00000E+00
    0.10356E+07        -0.59075E+08         0.00000E+00
    0.00000E+00         0.00000E+00        -0.60023E+08
 
   -0.53360E+08        -0.11592E+06         0.00000E+00
   -0.11592E+06        -0.59958E+08         0.00000E+00
    0.00000E+00         0.00000E+00        -0.57257E+08
 
   -0.53555E+08        -0.26824E+06         0.00000E+00
   -0.26824E+06        -0.59835E+08         0.00000E+00
    0.00000E+00         0.00000E+00        -0.57307E+08
 
   -0.53990E+08        -0.29942E+06         0.00000E+00
   -0.29942E+06        -0.59693E+08         0.00000E+00
    0.00000E+00         0.00000E+00        -0.57431E+08
 
   -0.54509E+08        -0.25440E+06         0.00000E+00
   -0.25440E+06        -0.59581E+08         0.00000E+00
    0.00000E+00         0.00000E+00        -0.57598E+08
 
   -0.55047E+08        -0.18106E+06         0.00000E+00
   -0.18106E+06        -0.59499E+08         0.00000E+00
    0.00000E+00         0.00000E+00        -0.57789E+08
 
   -0.55582E+08        -0.10512E+06         0.00000E+00
   -0.10512E+06        -0.59432E+08         0.00000E+00
    0.00000E+00         0.00000E+00        -0.57990E+08
 
   -0.56109E+08        -0.36339E+05         0.00000E+00
   -0.36339E+05        -0.59373E+08         0.00000E+00
    0.00000E+00         0.00000E+00        -0.58193E+08
 
   -0.56625E+08         0.23317E+05         0.00000E+00
    0.23317E+05        -0.59312E+08         0.00000E+00
    0.00000E+00         0.00000E+00        -0.58394E+08
 
   -0.57129E+08         0.76175E+05         0.00000E+00
    0.76175E+05        -0.59247E+08         0.00000E+00
    0.00000E+00         0.00000E+00        -0.58589E+08
 
   -0.57618E+08         0.12796E+06         0.00000E+00
    0.12796E+06        -0.59172E+08         0.00000E+00
    0.00000E+00         0.00000E+00        -0.58773E+08
 
   -0.58091E+08         0.18886E+06         0.00000E+00
    0.18886E+06        -0.59083E+08         0.00000E+00
    0.00000E+00         0.00000E+00        -0.58943E+08
 
   -0.58541E+08         0.27671E+06         0.00000E+00
    0.27671E+06        -0.58979E+08         0.00000E+00
    0.00000E+00         0.00000E+00        -0.59095E+08
 
   -0.58951E+08         0.42300E+06         0.00000E+00
    0.42300E+06        -0.58858E+08         0.00000E+00
    0.00000E+00         0.00000E+00        -0.59222E+08
 
   -0.59267E+08         0.67414E+06         0.00000E+00
    0.67414E+06        -0.58741E+08         0.00000E+00
    0.00000E+00         0.00000E+00        -0.59313E+08
 
   -0.59375E+08         0.10728E+07         0.00000E+00
    0.10728E+07        -0.58689E+08         0.00000E+00
    0.00000E+00         0.00000E+00        -0.59352E+08
 
   -0.53503E+08        -0.37964E+05         0.00000E+00
   -0.37964E+05        -0.59969E+08         0.00000E+00
    0.00000E+00         0.00000E+00        -0.57153E+08
 
   -0.53631E+08        -0.11773E+06         0.00000E+00
   -0.11773E+06        -0.59861E+08         0.00000E+00
    0.00000E+00         0.00000E+00        -0.57179E+08
 
   -0.53987E+08        -0.15060E+06         0.00000E+00
   -0.15060E+06        -0.59710E+08         0.00000E+00
    0.00000E+00         0.00000E+00        -0.57265E+08
 
   -0.54459E+08        -0.13185E+06         0.00000E+00
   -0.13185E+06        -0.59561E+08         0.00000E+00
    0.00000E+00         0.00000E+00        -0.57396E+08
 
   -0.54979E+08        -0.82235E+05         0.00000E+00
   -0.82235E+05        -0.59431E+08         0.00000E+00
    0.00000E+00         0.00000E+00        -0.57556E+08
 
   -0.55514E+08        -0.20809E+05         0.00000E+00
   -0.20809E+05        -0.59321E+08         0.00000E+00
    0.00000E+00         0.00000E+00        -0.57733E+08
 
   -0.56046E+08         0.41702E+05         0.00000E+00
    0.41702E+05        -0.59222E+08         0.00000E+00
    0.00000E+00         0.00000E+00        -0.57918E+08
 
   -0.56568E+08         0.10148E+06         0.00000E+00
    0.10148E+06        -0.59130E+08         0.00000E+00
    0.00000E+00         0.00000E+00        -0.58103E+08
 
   -0.57073E+08         0.15944E+06         0.00000E+00
    0.15944E+06        -0.59036E+08         0.00000E+00
    0.00000E+00         0.00000E+00        -0.58283E+08
 
   -0.57558E+08         0.22039E+06         0.00000E+00
    0.22039E+06        -0.58938E+08         0.00000E+00
    0.00000E+00         0.00000E+00        -0.58452E+08
 
   -0.58013E+08         0.29335E+06         0.00000E+00
    0.29335E+06        -0.58832E+08         0.00000E+00
    0.00000E+00         0.00000E+00        -0.58605E+08
 
   -0.58424E+08         0.39290E+06         0.00000E+00
    0.39290E+06        -0.58718E+08         0.00000E+00
    0.00000E+00         0.00000E+00        -0.58736E+08
 
   -0.58765E+08         0.53939E+06         0.00000E+00
    0.53939E+06        -0.58606E+08         0.00000E+00
    0.00000E+00         0.00000E+00        -0.58838E+08
 
   -0.58980E+08         0.75348E+06         0.00000E+00
    0.75348E+06        -0.58521E+08         0.00000E+00
    0.00000E+00         0.00000E+00        -0.58903E+08
 
   -0.58983E+08         0.10391E+07         0.00000E+00
    0.10391E+07        -0.58513E+08         0.00000E+00
    0.00000E+00         0.00000E+00        -0.58922E+08
 
   -0.53532E+08         0.19057E+05         0.00000E+00
    0.19057E+05        -0.59978E+08         0.00000E+00
    0.00000E+00         0.00000E+00        -0.57114E+08
 
   -0.53669E+08         0.14085E+05         0.00000E+00
    0.14085E+05        -0.59894E+08         0.00000E+00
    0.00000E+00         0.00000E+00        -0.57137E+08
 
   -0.53990E+08         0.46261E+04         0.00000E+00
    0.46261E+04        -0.59759E+08         0.00000E+00
    0.00000E+00         0.00000E+00        -0.57206E+08
 
   -0.54429E+08         0.16388E+05         0.00000E+00
    0.16388E+05        -0.59609E+08         0.00000E+00
    0.00000E+00         0.00000E+00        -0.57315E+08
 
   -0.54930E+08         0.49281E+05         0.00000E+00
    0.49281E+05        -0.59465E+08         0.00000E+00
    0.00000E+00         0.00000E+00        -0.57455E+08
 
   -0.55457E+08         0.95453E+05         0.00000E+00
    0.95453E+05        -0.59334E+08         0.00000E+00
    0.00000E+00         0.00000E+00        -0.57614E+08
 
   -0.55988E+08         0.14810E+06         0.00000E+00
    0.14810E+06        -0.59215E+08         0.00000E+00
    0.00000E+00         0.00000E+00        -0.57784E+08
 
   -0.56510E+08         0.20392E+06         0.00000E+00
    0.20392E+06        -0.59103E+08         0.00000E+00
    0.00000E+00         0.00000E+00        -0.57956E+08
 
   -0.57013E+08         0.26308E+06         0.00000E+00
    0.26308E+06        -0.58994E+08         0.00000E+00
    0.00000E+00         0.00000E+00        -0.58124E+08
 
   -0.57489E+08         0.32881E+06         0.00000E+00
    0.32881E+06        -0.58883E+08         0.00000E+00
    0.00000E+00         0.00000E+00        -0.58280E+08
 
   -0.57926E+08         0.40728E+06         0.00000E+00
    0.40728E+06        -0.58769E+08         0.00000E+00
    0.00000E+00         0.00000E+00        -0.58419E+08
 
   -0.58307E+08         0.50715E+06         0.00000E+00
    0.50715E+06        -0.58656E+08         0.00000E+00
    0.00000E+00         0.00000E+00        -0.58534E+08
 
   -0.58601E+08         0.63742E+06         0.00000E+00
    0.63742E+06        -0.58554E+08         0.00000E+00
    0.00000E+00         0.00000E+00        -0.58619E+08
 
   -0.58766E+08         0.80118E+06         0.00000E+00
    0.80118E+06        -0.58488E+08         0.00000E+00
    0.00000E+00         0.00000E+00        -0.58669E+08
 
   -0.58741E+08         0.98375E+06         0.00000E+00
    0.98375E+06        -0.58495E+08         0.00000E+00
    0.00000E+00         0.00000E+00        -0.58678E+08
 
   -0.53473E+08         0.59207E+05         0.00000E+00
    0.59207E+05        -0.59985E+08         0.00000E+00
    0.00000E+00         0.00000E+00        -0.57100E+08
 
   -0.53657E+08         0.11877E+06         0.00000E+00
    0.11877E+06        -0.59922E+08         0.00000E+00
    0.00000E+00         0.00000E+00        -0.57133E+08
 
   -0.53981E+08         0.14239E+06         0.00000E+00
    0.14239E+06        -0.59813E+08         0.00000E+00
    0.00000E+00         0.00000E+00        -0.57200E+08
 
   -0.54407E+08         0.16117E+06         0.00000E+00
    0.16117E+06        -0.59682E+08         0.00000E+00
    0.00000E+00         0.00000E+00        -0.57302E+08
 
   -0.54895E+08         0.18722E+06         0.00000E+00
    0.18722E+06        -0.59547E+08         0.00000E+00
    0.00000E+00         0.00000E+00        -0.57431E+08
 
   -0.55412E+08         0.22267E+06         0.00000E+00
    0.22267E+06        -0.59417E+08         0.00000E+00
    0.00000E+00         0.00000E+00        -0.57580E+08
 
   -0.55937E+08         0.26633E+06         0.00000E+00
    0.26633E+06        -0.59295E+08         0.00000E+00
    0.00000E+00         0.00000E+00        -0.57740E+08
 
   -0.56454E+08         0.31713E+06         0.00000E+00
    0.31713E+06        -0.59180E+08         0.00000E+00
    0.00000E+00         0.00000E+00        -0.57904E+08
 
   -0.56951E+08         0.37527E+06         0.00000E+00
    0.37527E+06        -0.59068E+08         0.00000E+00
    0.00000E+00         0.00000E+00        -0.58063E+08
 
   -0.57417E+08         0.44237E+06         0.00000E+00
    0.44237E+06        -0.58956E+08         0.00000E+00
    0.00000E+00         0.00000E+00        -0.58210E+08
 
   -0.57840E+08         0.52109E+06         0.00000E+00
    0.52109E+06        -0.58844E+08         0.00000E+00
    0.00000E+00         0.00000E+00        -0.58339E+08
 
   -0.58199E+08         0.61409E+06         0.00000E+00
    0.61409E+06        -0.58737E+08         0.00000E+00
    0.00000E+00         0.00000E+00        -0.58445E+08
 
   -0.58471E+08         0.72141E+06         0.00000E+00
    0.72141E+06        -0.58646E+08         0.00000E+00
    0.00000E+00         0.00000E+00        -0.58520E+08
 
   -0.58622E+08         0.83559E+06         0.00000E+00
    0.83559E+06        -0.58590E+08         0.00000E+00
    0.00000E+00         0.00000E+00        -0.58563E+08
 
   -0.58615E+08         0.93468E+06         0.00000E+00
    0.93468E+06        -0.58592E+08         0.00000E+00
    0.00000E+00         0.00000E+00        -0.58571E+08
 
   -0.53348E+08         0.87258E+05         0.00000E+00
    0.87258E+05        -0.59990E+08         0.00000E+00
    0.00000E+00         0.00000E+00        -0.57090E+08
 
   -0.53600E+08         0.19728E+06         0.00000E+00
    0.19728E+06        -0.59944E+08         0.00000E+00
    0.00000E+00         0.00000E+00        -0.57139E+08
 
   -0.53952E+08         0.25332E+06         0.00000E+00
    0.25332E+06        -0.59862E+08         0.00000E+00
    0.00000E+00         0.00000E+00        -0.57215E+08
 
   -0.54383E+08         0.28550E+06         0.00000E+00
    0.28550E+06        -0.59758E+08         0.00000E+00
    0.00000E+00         0.00000E+00        -0.57318E+08
 
   -0.54866E+08         0.31204E+06         0.00000E+00
    0.31204E+06        -0.59646E+08         0.00000E+00
    0.00000E+00         0.00000E+00        -0.57446E+08
 
   -0.55376E+08         0.34211E+06         0.00000E+00
    0.34211E+06        -0.59535E+08         0.00000E+00
    0.00000E+00         0.00000E+00        -0.57592E+08
 
   -0.55893E+08         0.37975E+06         0.00000E+00
    0.37975E+06        -0.59427E+08         0.00000E+00
    0.00000E+00         0.00000E+00        -0.57749E+08
 
   -0.56401E+08         0.42662E+06         0.00000E+00
    0.42662E+06        -0.59323E+08         0.00000E+00
    0.00000E+00         0.00000E+00        -0.57908E+08
 
   -0.56889E+08         0.48344E+06         0.00000E+00
    0.48344E+06        -0.59221E+08         0.00000E+00
    0.00000E+00         0.00000E+00        -0.58062E+08
 
   -0.57345E+08         0.55046E+06         0.00000E+00
    0.55046E+06        -0.59119E+08         0.00000E+00
    0.00000E+00         0.00000E+00        -0.58205E+08
 
   -0.57756E+08         0.62713E+06         0.00000E+00
    0.62713E+06        -0.59018E+08         0.00000E+00
    0.00000E+00         0.00000E+00        -0.58329E+08
 
   -0.58106E+08         0.71111E+06         0.00000E+00
    0.71111E+06        -0.58922E+08         0.00000E+00
    0.00000E+00         0.00000E+00        -0.58430E+08
 
   -0.58375E+08         0.79613E+06         0.00000E+00
    0.79613E+06        -0.58840E+08         0.00000E+00
    0.00000E+00         0.00000E+00        -0.58503E+08
 
   -0.58538E+08         0.86902E+06         0.00000E+00
    0.86902E+06        -0.58786E+08         0.00000E+00
    0.00000E+00         0.00000E+00        -0.58546E+08
 
   -0.58574E+08         0.90619E+06         0.00000E+00
    0.90619E+06        -0.58775E+08         0.00000E+00
    0.00000E+00         0.00000E+00        -0.58558E+08
 
   -0.53177E+08         0.10662E+06         0.00000E+00
    0.10662E+06        -0.59993E+08         0.00000E+00
    0.00000E+00         0.00000E+00        -0.57074E+08
 
   -0.53505E+08         0.25284E+06         0.00000E+00
    0.25284E+06        -0.59962E+08         0.00000E+00
    0.00000E+00         0.00000E+00        -0.57143E+08
 
   -0.53901E+08         0.33479E+06         0.00000E+00
    0.33479E+06        -0.59906E+08         0.00000E+00
    0.00000E+00         0.00000E+00        -0.57232E+08
 
   -0.54351E+08         0.38041E+06         0.00000E+00
    0.38041E+06        -0.59834E+08         0.00000E+00
    0.00000E+00         0.00000E+00        -0.57346E+08
 
   -0.54838E+08         0.41064E+06         0.00000E+00
    0.41064E+06        -0.59753E+08         0.00000E+00
    0.00000E+00         0.00000E+00        -0.57479E+08
 
   -0.55344E+08         0.43915E+06         0.00000E+00
    0.43915E+06        -0.59671E+08         0.00000E+00
    0.00000E+00         0.00000E+00        -0.57628E+08
 
   -0.55852E+08         0.47395E+06         0.00000E+00
    0.47395E+06        -0.59590E+08         0.00000E+00
    0.00000E+00         0.00000E+00        -0.57785E+08
 
   -0.56350E+08         0.51913E+06         0.00000E+00
    0.51913E+06        -0.59510E+08         0.00000E+00
    0.00000E+00         0.00000E+00        -0.57943E+08
 
   -0.56827E+08         0.57607E+06         0.00000E+00
    0.57607E+06        -0.59430E+08         0.00000E+00
    0.00000E+00         0.00000E+00        -0.58097E+08
 
   -0.57273E+08         0.64394E+06         0.00000E+00
    0.64394E+06        -0.59348E+08         0.00000E+00
    0.00000E+00         0.00000E+00        -0.58239E+08
 
   -0.57677E+08         0.71961E+06         0.00000E+00
    0.71961E+06        -0.59264E+08         0.00000E+00
    0.00000E+00         0.00000E+00        -0.58363E+08
 
   -0.58026E+08         0.79692E+06         0.00000E+00
    0.79692E+06        -0.59182E+08         0.00000E+00
    0.00000E+00         0.00000E+00        -0.58465E+08
 
   -0.58305E+08         0.86546E+06         0.00000E+00
    0.86546E+06        -0.59108E+08         0.00000E+00
    0.00000E+00         0.00000E+00        -0.58540E+08
 
   -0.58497E+08         0.90909E+06         0.00000E+00
    0.90909E+06        -0.59051E+08         0.00000E+00
    0.00000E+00         0.00000E+00        -0.58587E+08
 
   -0.58590E+08         0.90495E+06         0.00000E+00
    0.90495E+06        -0.59021E+08         0.00000E+00
    0.00000E+00         0.00000E+00        -0.58607E+08
 
   -0.52974E+08         0.11910E+06         0.00000E+00
    0.11910E+06        -0.59996E+08         0.00000E+00
    0.00000E+00         0.00000E+00        -0.57050E+08
 
   -0.53385E+08         0.28790E+06         0.00000E+00
    0.28790E+06        -0.59979E+08         0.00000E+00
    0.00000E+00         0.00000E+00        -0.57139E+08
 
   -0.53833E+08         0.38632E+06         0.00000E+00
    0.38632E+06        -0.59948E+08         0.00000E+00
    0.00000E+00         0.00000E+00        -0.57247E+08
 
   -0.54312E+08         0.44107E+06         0.00000E+00
    0.44107E+06        -0.59908E+08         0.00000E+00
    0.00000E+00         0.00000E+00        -0.57374E+08
 
   -0.54810E+08         0.47448E+06         0.00000E+00
    0.47448E+06        -0.59865E+08         0.00000E+00
    0.00000E+00         0.00000E+00        -0.57517E+08
 
   -0.55313E+08         0.50301E+06         0.00000E+00
    0.50301E+06        -0.59821E+08         0.00000E+00
    0.00000E+00         0.00000E+00        -0.57672E+08
 
   -0.55812E+08         0.53742E+06         0.00000E+00
    0.53742E+06        -0.59776E+08         0.00000E+00
    0.00000E+00         0.00000E+00        -0.57833E+08
 
   -0.56298E+08         0.58362E+06         0.00000E+00
    0.58362E+06        -0.59730E+08         0.00000E+00
    0.00000E+00         0.00000E+00        -0.57995E+08
 
   -0.56762E+08         0.64353E+06         0.00000E+00
    0.64353E+06        -0.59681E+08         0.00000E+00
    0.00000E+00         0.00000E+00        -0.58150E+08
 
   -0.57199E+08         0.71545E+06         0.00000E+00
    0.71545E+06        -0.59626E+08         0.00000E+00
    0.00000E+00         0.00000E+00        -0.58294E+08
 
   -0.57599E+08         0.79422E+06         0.00000E+00
    0.79422E+06        -0.59564E+08         0.00000E+00
    0.00000E+00         0.00000E+00        -0.58421E+08
 
   -0.57954E+08         0.87087E+06         0.00000E+00
    0.87087E+06        -0.59498E+08         0.00000E+00
    0.00000E+00         0.00000E+00        -0.58527E+08
 
   -0.58253E+08         0.93218E+06         0.00000E+00
    0.93218E+06        -0.59431E+08         0.00000E+00
    0.00000E+00         0.00000E+00        -0.58608E+08
 
   -0.58484E+08         0.96040E+06         0.00000E+00
    0.96040E+06        -0.59368E+08         0.00000E+00
    0.00000E+00         0.00000E+00        -0.58662E+08
 
   -0.58642E+08         0.93374E+06         0.00000E+00
    0.93374E+06        -0.59317E+08         0.00000E+00
    0.00000E+00         0.00000E+00        -0.58692E+08
 
   -0.52754E+08         0.12522E+06         0.00000E+00
    0.12522E+06        -0.59999E+08         0.00000E+00
    0.00000E+00         0.00000E+00        -0.57018E+08
 
   -0.53250E+08         0.30339E+06         0.00000E+00
    0.30339E+06        -0.59994E+08         0.00000E+00
    0.00000E+00         0.00000E+00        -0.57129E+08
 
   -0.53758E+08         0.40738E+06         0.00000E+00
    0.40738E+06        -0.59989E+08         0.00000E+00
    0.00000E+00         0.00000E+00        -0.57256E+08
 
   -0.54270E+08         0.46427E+06         0.00000E+00
    0.46427E+06        -0.59984E+08         0.00000E+00
    0.00000E+00         0.00000E+00        -0.57398E+08
 
   -0.54781E+08         0.49762E+06         0.00000E+00
    0.49762E+06        -0.59982E+08         0.00000E+00
    0.00000E+00         0.00000E+00        -0.57553E+08
 
   -0.55283E+08         0.52576E+06         0.00000E+00
    0.52576E+06        -0.59982E+08         0.00000E+00
    0.00000E+00         0.00000E+00        -0.57717E+08
 
   -0.55771E+08         0.56130E+06         0.00000E+00
    0.56130E+06        -0.59981E+08         0.00000E+00
    0.00000E+00         0.00000E+00        -0.57885E+08
 
   -0.56242E+08         0.61139E+06         0.00000E+00
    0.61139E+06        -0.59977E+08         0.00000E+00
    0.00000E+00         0.00000E+00        -0.58051E+08
 
   -0.56692E+08         0.67819E+06         0.00000E+00
    0.67819E+06        -0.59966E+08         0.00000E+00
    0.00000E+00         0.00000E+00        -0.58211E+08
 
   -0.57118E+08         0.75927E+06         0.00000E+00
    0.75927E+06        -0.59944E+08         0.00000E+00
    0.00000E+00         0.00000E+00        -0.58358E+08
 
   -0.57516E+08         0.84777E+06         0.00000E+00
    0.84777E+06        -0.59909E+08         0.00000E+00
    0.00000E+00         0.00000E+00        -0.58490E+08
 
   -0.57880E+08         0.93255E+06         0.00000E+00
    0.93255E+06        -0.59860E+08         0.00000E+00
    0.00000E+00         0.00000E+00        -0.58601E+08
 
   -0.58205E+08         0.99825E+06         0.00000E+00
    0.99825E+06        -0.59799E+08         0.00000E+00
    0.00000E+00         0.00000E+00        -0.58690E+08
 
   -0.58483E+08         0.10258E+07         0.00000E+00
    0.10258E+07        -0.59729E+08         0.00000E+00
    0.00000E+00         0.00000E+00        -0.58754E+08
 
   -0.58709E+08         0.99387E+06         0.00000E+00
    0.99387E+06        -0.59655E+08         0.00000E+00
    0.00000E+00         0.00000E+00        -0.58794E+08
 
   -0.52529E+08         0.12475E+06         0.00000E+00
    0.12475E+06        -0.60002E+08         0.00000E+00
    0.00000E+00         0.00000E+00        -0.56979E+08
 
   -0.53115E+08         0.29880E+06         0.00000E+00
    0.29880E+06        -0.60011E+08         0.00000E+00
    0.00000E+00         0.00000E+00        -0.57112E+08
 
   -0.53684E+08         0.39662E+06         0.00000E+00
    0.39662E+06        -0.60033E+08         0.00000E+00
    0.00000E+00         0.00000E+00        -0.57259E+08
 
   -0.54231E+08         0.44708E+06         0.00000E+00
    0.44708E+06        -0.60066E+08         0.00000E+00
    0.00000E+00         0.00000E+00        -0.57418E+08
 
   -0.54754E+08         0.47534E+06         0.00000E+00
    0.47534E+06        -0.60108E+08         0.00000E+00
    0.00000E+00         0.00000E+00        -0.57585E+08
 
   -0.55252E+08         0.50125E+06         0.00000E+00
    0.50125E+06        -0.60157E+08         0.00000E+00
    0.00000E+00         0.00000E+00        -0.57759E+08
 
   -0.55727E+08         0.53871E+06         0.00000E+00
    0.53871E+06        -0.60206E+08         0.00000E+00
    0.00000E+00         0.00000E+00        -0.57933E+08
 
   -0.56179E+08         0.59562E+06         0.00000E+00
    0.59562E+06        -0.60250E+08         0.00000E+00
    0.00000E+00         0.00000E+00        -0.58104E+08
 
   -0.56611E+08         0.67412E+06         0.00000E+00
    0.67412E+06        -0.60283E+08         0.00000E+00
    0.00000E+00         0.00000E+00        -0.58268E+08
 
   -0.57023E+08         0.77098E+06         0.00000E+00
    0.77098E+06        -0.60298E+08         0.00000E+00
    0.00000E+00         0.00000E+00        -0.58420E+08
 
   -0.57418E+08         0.87785E+06         0.00000E+00
    0.87785E+06        -0.60292E+08         0.00000E+00
    0.00000E+00         0.00000E+00        -0.58556E+08
 
   -0.57794E+08         0.98165E+06         0.00000E+00
    0.98165E+06        -0.60262E+08         0.00000E+00
    0.00000E+00         0.00000E+00        -0.58674E+08
 
   -0.58148E+08         0.10650E+07         0.00000E+00
    0.10650E+07        -0.60207E+08         0.00000E+00
    0.00000E+00         0.00000E+00        -0.58770E+08
 
   -0.58476E+08         0.11074E+07         0.00000E+00
    0.11074E+07        -0.60128E+08         0.00000E+00
    0.00000E+00         0.00000E+00        -0.58844E+08
 
   -0.58774E+08         0.10865E+07         0.00000E+00
    0.10865E+07        -0.60028E+08         0.00000E+00
    0.00000E+00         0.00000E+00        -0.58895E+08
 
   -0.52313E+08         0.11696E+06         0.00000E+00
    0.11696E+06        -0.60005E+08         0.00000E+00
    0.00000E+00         0.00000E+00        -0.56934E+08
 
   -0.52992E+08         0.27262E+06         0.00000E+00
    0.27262E+06        -0.60030E+08         0.00000E+00
    0.00000E+00         0.00000E+00        -0.57090E+08
 
   -0.53621E+08         0.35178E+06         0.00000E+00
    0.35178E+06        -0.60080E+08         0.00000E+00
    0.00000E+00         0.00000E+00        -0.57256E+08
 
   -0.54201E+08         0.38630E+06         0.00000E+00
    0.38630E+06        -0.60154E+08         0.00000E+00
    0.00000E+00         0.00000E+00        -0.57430E+08
 
   -0.54733E+08         0.40340E+06         0.00000E+00
    0.40340E+06        -0.60245E+08         0.00000E+00
    0.00000E+00         0.00000E+00        -0.57610E+08
 
   -0.55223E+08         0.42441E+06         0.00000E+00
    0.42441E+06        -0.60347E+08         0.00000E+00
    0.00000E+00         0.00000E+00        -0.57791E+08
 
   -0.55677E+08         0.46417E+06         0.00000E+00
    0.46417E+06        -0.60451E+08         0.00000E+00
    0.00000E+00         0.00000E+00        -0.57971E+08
 
   -0.56105E+08         0.53096E+06         0.00000E+00
    0.53096E+06        -0.60548E+08         0.00000E+00
    0.00000E+00         0.00000E+00        -0.58146E+08
 
   -0.56512E+08         0.62668E+06         0.00000E+00
    0.62668E+06        -0.60629E+08         0.00000E+00
    0.00000E+00         0.00000E+00        -0.58313E+08
 
   -0.56907E+08         0.74716E+06         0.00000E+00
    0.74716E+06        -0.60685E+08         0.00000E+00
    0.00000E+00         0.00000E+00        -0.58468E+08
 
   -0.57296E+08         0.88257E+06         0.00000E+00
    0.88257E+06        -0.60711E+08         0.00000E+00
    0.00000E+00         0.00000E+00        -0.58609E+08
 
   -0.57682E+08         0.10179E+07         0.00000E+00
    0.10179E+07        -0.60701E+08         0.00000E+00
    0.00000E+00         0.00000E+00        -0.58732E+08
 
   -0.58067E+08         0.11336E+07         0.00000E+00
    0.11336E+07        -0.60651E+08         0.00000E+00
    0.00000E+00         0.00000E+00        -0.58837E+08
 
   -0.58448E+08         0.12069E+07         0.00000E+00
    0.12069E+07        -0.60561E+08         0.00000E+00
    0.00000E+00         0.00000E+00        -0.58920E+08
 
   -0.58823E+08         0.12135E+07         0.00000E+00
    0.12135E+07        -0.60434E+08         0.00000E+00
    0.00000E+00         0.00000E+00        -0.58982E+08
 
   -0.52122E+08         0.10090E+06         0.00000E+00
    0.10090E+06        -0.60009E+08         0.00000E+00
    0.00000E+00         0.00000E+00        -0.56883E+08
 
   -0.52895E+08         0.22267E+06         0.00000E+00
    0.22267E+06        -0.60051E+08         0.00000E+00
    0.00000E+00         0.00000E+00        -0.57062E+08
 
   -0.53583E+08         0.26995E+06         0.00000E+00
    0.26995E+06        -0.60133E+08         0.00000E+00
    0.00000E+00         0.00000E+00        -0.57246E+08
 
   -0.54189E+08         0.27843E+06         0.00000E+00
    0.27843E+06        -0.60251E+08         0.00000E+00
    0.00000E+00         0.00000E+00        -0.57434E+08
 
   -0.54722E+08         0.27779E+06         0.00000E+00
    0.27779E+06        -0.60394E+08         0.00000E+00
    0.00000E+00         0.00000E+00        -0.57623E+08
 
   -0.55195E+08         0.29085E+06         0.00000E+00
    0.29085E+06        -0.60553E+08         0.00000E+00
    0.00000E+00         0.00000E+00        -0.57810E+08
 
   -0.55621E+08         0.33320E+06         0.00000E+00
    0.33320E+06        -0.60716E+08         0.00000E+00
    0.00000E+00         0.00000E+00        -0.57993E+08
 
   -0.56014E+08         0.41322E+06         0.00000E+00
    0.41322E+06        -0.60869E+08         0.00000E+00
    0.00000E+00         0.00000E+00        -0.58169E+08
 
   -0.56389E+08         0.53228E+06         0.00000E+00
    0.53228E+06        -0.61002E+08         0.00000E+00
    0.00000E+00         0.00000E+00        -0.58337E+08
 
   -0.56760E+08         0.68515E+06         0.00000E+00
    0.68515E+06        -0.61103E+08         0.00000E+00
    0.00000E+00         0.00000E+00        -0.58493E+08
 
   -0.57137E+08         0.86041E+06         0.00000E+00
    0.86041E+06        -0.61162E+08         0.00000E+00
    0.00000E+00         0.00000E+00        -0.58635E+08
 
   -0.57531E+08         0.10410E+07         0.00000E+00
    0.10410E+07        -0.61172E+08         0.00000E+00
    0.00000E+00         0.00000E+00        -0.58763E+08
 
   -0.57945E+08         0.12048E+07         0.00000E+00
    0.12048E+07        -0.61127E+08         0.00000E+00
    0.00000E+00         0.00000E+00        -0.58874E+08
 
   -0.58382E+08         0.13262E+07         0.00000E+00
    0.13262E+07        -0.61026E+08         0.00000E+00
    0.00000E+00         0.00000E+00        -0.58966E+08
 
   -0.58838E+08         0.13773E+07         0.00000E+00
    0.13773E+07        -0.60869E+08         0.00000E+00
    0.00000E+00         0.00000E+00        -0.59039E+08
 
   -0.51974E+08         0.75489E+05         0.00000E+00
    0.75489E+05        -0.60014E+08         0.00000E+00
    0.00000E+00         0.00000E+00        -0.56826E+08
 
   -0.52840E+08         0.14642E+06         0.00000E+00
    0.14642E+06        -0.60074E+08         0.00000E+00
    0.00000E+00         0.00000E+00        -0.57026E+08
 
   -0.53579E+08         0.14785E+06         0.00000E+00
    0.14785E+06        -0.60191E+08         0.00000E+00
    0.00000E+00         0.00000E+00        -0.57227E+08
 
   -0.54203E+08         0.11981E+06         0.00000E+00
    0.11981E+06        -0.60356E+08         0.00000E+00
    0.00000E+00         0.00000E+00        -0.57425E+08
 
   -0.54727E+08         0.94700E+05         0.00000E+00
    0.94700E+05        -0.60556E+08         0.00000E+00
    0.00000E+00         0.00000E+00        -0.57620E+08
 
   -0.55171E+08         0.96813E+05         0.00000E+00
    0.96813E+05        -0.60776E+08         0.00000E+00
    0.00000E+00         0.00000E+00        -0.57809E+08
 
   -0.55555E+08         0.14225E+06         0.00000E+00
    0.14225E+06        -0.61000E+08         0.00000E+00
    0.00000E+00         0.00000E+00        -0.57991E+08
 
   -0.55903E+08         0.23918E+06         0.00000E+00
    0.23918E+06        -0.61213E+08         0.00000E+00
    0.00000E+00         0.00000E+00        -0.58164E+08
 
   -0.56235E+08         0.38822E+06         0.00000E+00
    0.38822E+06        -0.61400E+08         0.00000E+00
    0.00000E+00         0.00000E+00        -0.58328E+08
 
   -0.56571E+08         0.58294E+06         0.00000E+00
    0.58294E+06        -0.61546E+08         0.00000E+00
    0.00000E+00         0.00000E+00        -0.58481E+08
 
   -0.56929E+08         0.81022E+06         0.00000E+00
    0.81022E+06        -0.61640E+08         0.00000E+00
    0.00000E+00         0.00000E+00        -0.58622E+08
 
   -0.57324E+08         0.10508E+07         0.00000E+00
    0.10508E+07        -0.61671E+08         0.00000E+00
    0.00000E+00         0.00000E+00        -0.58751E+08
 
   -0.57767E+08         0.12797E+07         0.00000E+00
    0.12797E+07        -0.61632E+08         0.00000E+00
    0.00000E+00         0.00000E+00        -0.58866E+08
 
   -0.58261E+08         0.14675E+07         0.00000E+00
    0.14675E+07        -0.61517E+08         0.00000E+00
    0.00000E+00         0.00000E+00        -0.58966E+08
 
   -0.58803E+08         0.15816E+07         0.00000E+00
    0.15816E+07        -0.61327E+08         0.00000E+00
    0.00000E+00         0.00000E+00        -0.59049E+08
 
   -0.51886E+08         0.39597E+05         0.00000E+00
    0.39597E+05        -0.60019E+08         0.00000E+00
    0.00000E+00         0.00000E+00        -0.56759E+08
 
   -0.52841E+08         0.41255E+05         0.00000E+00
    0.41255E+05        -0.60100E+08         0.00000E+00
    0.00000E+00         0.00000E+00        -0.56980E+08
 
   -0.53624E+08        -0.17869E+05         0.00000E+00
   -0.17869E+05        -0.60255E+08         0.00000E+00
    0.00000E+00         0.00000E+00        -0.57194E+08
 
   -0.54253E+08        -0.93074E+05         0.00000E+00
   -0.93074E+05        -0.60471E+08         0.00000E+00
    0.00000E+00         0.00000E+00        -0.57399E+08
 
   -0.54752E+08        -0.14918E+06         0.00000E+00
   -0.14918E+06        -0.60730E+08         0.00000E+00
    0.00000E+00         0.00000E+00        -0.57594E+08
 
   -0.55151E+08        -0.16062E+06         0.00000E+00
   -0.16062E+06        -0.61013E+08         0.00000E+00
    0.00000E+00         0.00000E+00        -0.57779E+08
 
   -0.55478E+08        -0.11114E+06         0.00000E+00
   -0.11114E+06        -0.61301E+08         0.00000E+00
    0.00000E+00         0.00000E+00        -0.57954E+08
 
   -0.55765E+08         0.68342E+04         0.00000E+00
    0.68342E+04        -0.61575E+08         0.00000E+00
    0.00000E+00         0.00000E+00        -0.58118E+08
 
   -0.56039E+08         0.19291E+06         0.00000E+00
    0.19291E+06        -0.61817E+08         0.00000E+00
    0.00000E+00         0.00000E+00        -0.58273E+08
 
   -0.56329E+08         0.43930E+06         0.00000E+00
    0.43930E+06        -0.62010E+08         0.00000E+00
    0.00000E+00         0.00000E+00        -0.58418E+08
 
   -0.56658E+08         0.73121E+06         0.00000E+00
    0.73121E+06        -0.62140E+08         0.00000E+00
    0.00000E+00         0.00000E+00        -0.58553E+08
 
   -0.57047E+08         0.10471E+07         0.00000E+00
    0.10471E+07        -0.62192E+08         0.00000E+00
    0.00000E+00         0.00000E+00        -0.58679E+08
 
   -0.57512E+08         0.13590E+07         0.00000E+00
    0.13590E+07        -0.62157E+08         0.00000E+00
    0.00000E+00         0.00000E+00        -0.58796E+08
 
   -0.58063E+08         0.16330E+07         0.00000E+00
    0.16330E+07        -0.62027E+08         0.00000E+00
    0.00000E+00         0.00000E+00        -0.58902E+08
 
   -0.58699E+08         0.18308E+07         0.00000E+00
    0.18308E+07        -0.61800E+08         0.00000E+00
    0.00000E+00         0.00000E+00        -0.58995E+08
 
   -0.51880E+08        -0.78825E+04         0.00000E+00
   -0.78825E+04        -0.60024E+08         0.00000E+00
    0.00000E+00         0.00000E+00        -0.56679E+08
 
   -0.52917E+08        -0.95435E+05         0.00000E+00
   -0.95435E+05        -0.60128E+08         0.00000E+00
    0.00000E+00         0.00000E+00        -0.56919E+08
 
   -0.53730E+08        -0.23040E+06         0.00000E+00
   -0.23040E+06        -0.60324E+08         0.00000E+00
    0.00000E+00         0.00000E+00        -0.57141E+08
 
   -0.54346E+08        -0.36327E+06         0.00000E+00
   -0.36327E+06        -0.60593E+08         0.00000E+00
    0.00000E+00         0.00000E+00        -0.57347E+08
 
   -0.54802E+08        -0.45627E+06         0.00000E+00
   -0.45627E+06        -0.60913E+08         0.00000E+00
    0.00000E+00         0.00000E+00        -0.57536E+08
 
   -0.55136E+08        -0.48308E+06         0.00000E+00
   -0.48308E+06        -0.61261E+08         0.00000E+00
    0.00000E+00         0.00000E+00        -0.57710E+08
 
   -0.55387E+08        -0.42788E+06         0.00000E+00
   -0.42788E+06        -0.61613E+08         0.00000E+00
    0.00000E+00         0.00000E+00        -0.57870E+08
 
   -0.55595E+08        -0.28421E+06         0.00000E+00
   -0.28421E+06        -0.61948E+08         0.00000E+00
    0.00000E+00         0.00000E+00        -0.58018E+08
 
   -0.55795E+08        -0.53830E+05         0.00000E+00
   -0.53830E+05        -0.62245E+08         0.00000E+00
    0.00000E+00         0.00000E+00        -0.58156E+08
 
   -0.56023E+08         0.25406E+06         0.00000E+00
    0.25406E+06        -0.62484E+08         0.00000E+00
    0.00000E+00         0.00000E+00        -0.58286E+08
 
   -0.56309E+08         0.62316E+06         0.00000E+00
    0.62316E+06        -0.62649E+08         0.00000E+00
    0.00000E+00         0.00000E+00        -0.58410E+08
 
   -0.56681E+08         0.10299E+07         0.00000E+00
    0.10299E+07        -0.62722E+08         0.00000E+00
    0.00000E+00         0.00000E+00        -0.58528E+08
 
   -0.57163E+08         0.14434E+07         0.00000E+00
    0.14434E+07        -0.62691E+08         0.00000E+00
    0.00000E+00         0.00000E+00        -0.58642E+08
 
   -0.57769E+08         0.18251E+07         0.00000E+00
    0.18251E+07        -0.62545E+08         0.00000E+00
    0.00000E+00         0.00000E+00        -0.58751E+08
 
   -0.58504E+08         0.21297E+07         0.00000E+00
    0.21297E+07        -0.62279E+08         0.00000E+00
    0.00000E+00         0.00000E+00        -0.58855E+08
 
   -0.51980E+08        -0.68022E+05         0.00000E+00
   -0.68022E+05        -0.60030E+08         0.00000E+00
    0.00000E+00         0.00000E+00        -0.56581E+08
 
   -0.53086E+08        -0.26609E+06         0.00000E+00
   -0.26609E+06        -0.60158E+08         0.00000E+00
    0.00000E+00         0.00000E+00        -0.56835E+08
 
   -0.53909E+08        -0.49248E+06         0.00000E+00
   -0.49248E+06        -0.60397E+08         0.00000E+00
    0.00000E+00         0.00000E+00        -0.57061E+08
 
   -0.54490E+08        -0.69292E+06         0.00000E+00
   -0.69292E+06        -0.60722E+08         0.00000E+00
    0.00000E+00         0.00000E+00        -0.57259E+08
 
   -0.54879E+08        -0.82757E+06         0.00000E+00
   -0.82757E+06        -0.61104E+08         0.00000E+00
    0.00000E+00         0.00000E+00        -0.57433E+08
 
   -0.55125E+08        -0.87021E+06         0.00000E+00
   -0.87021E+06        -0.61516E+08         0.00000E+00
    0.00000E+00         0.00000E+00        -0.57586E+08
 
   -0.55278E+08        -0.80650E+06         0.00000E+00
   -0.80650E+06        -0.61930E+08         0.00000E+00
    0.00000E+00         0.00000E+00        -0.57722E+08
 
   -0.55387E+08        -0.63194E+06         0.00000E+00
   -0.63194E+06        -0.62322E+08         0.00000E+00
    0.00000E+00         0.00000E+00        -0.57845E+08
 
   -0.55494E+08        -0.35007E+06         0.00000E+00
   -0.35007E+06        -0.62670E+08         0.00000E+00
    0.00000E+00         0.00000E+00        -0.57958E+08
 
   -0.55642E+08         0.28579E+05         0.00000E+00
    0.28579E+05        -0.62952E+08         0.00000E+00
    0.00000E+00         0.00000E+00        -0.58065E+08
 
   -0.55869E+08         0.48665E+06         0.00000E+00
    0.48665E+06        -0.63150E+08         0.00000E+00
    0.00000E+00         0.00000E+00        -0.58169E+08
 
   -0.56210E+08         0.99933E+06         0.00000E+00
    0.99933E+06        -0.63245E+08         0.00000E+00
    0.00000E+00         0.00000E+00        -0.58274E+08
 
   -0.56697E+08         0.15332E+07         0.00000E+00
    0.15332E+07        -0.63217E+08         0.00000E+00
    0.00000E+00         0.00000E+00        -0.58380E+08
 
   -0.57354E+08         0.20454E+07         0.00000E+00
    0.20454E+07        -0.63054E+08         0.00000E+00
    0.00000E+00         0.00000E+00        -0.58490E+08
 
   -0.58193E+08         0.24830E+07         0.00000E+00
    0.24830E+07        -0.62746E+08         0.00000E+00
    0.00000E+00         0.00000E+00        -0.58602E+08
 
   -0.52210E+08        -0.14186E+06         0.00000E+00
   -0.14186E+06        -0.60037E+08         0.00000E+00
    0.00000E+00         0.00000E+00        -0.56457E+08
 
   -0.53366E+08        -0.47293E+06         0.00000E+00
   -0.47293E+06        -0.60191E+08         0.00000E+00
    0.00000E+00         0.00000E+00        -0.56720E+08
 
   -0.54174E+08        -0.80623E+06         0.00000E+00
   -0.80623E+06        -0.60475E+08         0.00000E+00
    0.00000E+00         0.00000E+00        -0.56941E+08
 
   -0.54692E+08        -0.10828E+07         0.00000E+00
   -0.10828E+07        -0.60856E+08         0.00000E+00
    0.00000E+00         0.00000E+00        -0.57123E+08
 
   -0.54985E+08        -0.12618E+07         0.00000E+00
   -0.12618E+07        -0.61299E+08         0.00000E+00
    0.00000E+00         0.00000E+00        -0.57271E+08
 
   -0.55116E+08        -0.13186E+07         0.00000E+00
   -0.13186E+07        -0.61771E+08         0.00000E+00
    0.00000E+00         0.00000E+00        -0.57392E+08
 
   -0.55147E+08        -0.12421E+07         0.00000E+00
   -0.12421E+07        -0.62240E+08         0.00000E+00
    0.00000E+00         0.00000E+00        -0.57492E+08
 
   -0.55134E+08        -0.10308E+07         0.00000E+00
   -0.10308E+07        -0.62682E+08         0.00000E+00
    0.00000E+00         0.00000E+00        -0.57578E+08
 
   -0.55128E+08        -0.69079E+06         0.00000E+00
   -0.69079E+06        -0.63073E+08         0.00000E+00
    0.00000E+00         0.00000E+00        -0.57655E+08
 
   -0.55177E+08        -0.23354E+06         0.00000E+00
   -0.23354E+06        -0.63393E+08         0.00000E+00
    0.00000E+00         0.00000E+00        -0.57729E+08
 
   -0.55326E+08         0.32343E+06         0.00000E+00
    0.32343E+06        -0.63620E+08         0.00000E+00
    0.00000E+00         0.00000E+00        -0.57805E+08
 
   -0.55618E+08         0.95541E+06         0.00000E+00
    0.95541E+06        -0.63734E+08         0.00000E+00
    0.00000E+00         0.00000E+00        -0.57888E+08
 
   -0.56095E+08         0.16280E+07         0.00000E+00
    0.16280E+07        -0.63712E+08         0.00000E+00
    0.00000E+00         0.00000E+00        -0.57981E+08
 
   -0.56792E+08         0.22946E+07         0.00000E+00
    0.22946E+07        -0.63532E+08         0.00000E+00
    0.00000E+00         0.00000E+00        -0.58087E+08
 
   -0.57735E+08         0.28948E+07         0.00000E+00
    0.28948E+07        -0.63180E+08         0.00000E+00
    0.00000E+00         0.00000E+00        -0.58206E+08
 
   -0.52598E+08        -0.23043E+06         0.00000E+00
   -0.23043E+06        -0.60044E+08         0.00000E+00
    0.00000E+00         0.00000E+00        -0.56296E+08
 
   -0.53776E+08        -0.71804E+06         0.00000E+00
   -0.71804E+06        -0.60226E+08         0.00000E+00
    0.00000E+00         0.00000E+00        -0.56562E+08
 
   -0.54536E+08        -0.11729E+07         0.00000E+00
   -0.11729E+07        -0.60556E+08         0.00000E+00
    0.00000E+00         0.00000E+00        -0.56767E+08
 
   -0.54955E+08        -0.15318E+07         0.00000E+00
   -0.15318E+07        -0.60993E+08         0.00000E+00
    0.00000E+00         0.00000E+00        -0.56920E+08
 
   -0.55118E+08        -0.17545E+07         0.00000E+00
   -0.17545E+07        -0.61492E+08         0.00000E+00
    0.00000E+00         0.00000E+00        -0.57029E+08
 
   -0.55104E+08        -0.18207E+07         0.00000E+00
   -0.18207E+07        -0.62015E+08         0.00000E+00
    0.00000E+00         0.00000E+00        -0.57104E+08
 
   -0.54987E+08        -0.17247E+07         0.00000E+00
   -0.17247E+07        -0.62528E+08         0.00000E+00
    0.00000E+00         0.00000E+00        -0.57155E+08
 
   -0.54830E+08        -0.14704E+07         0.00000E+00
   -0.14704E+07        -0.63006E+08         0.00000E+00
    0.00000E+00         0.00000E+00        -0.57190E+08
 
   -0.54691E+08        -0.10666E+07         0.00000E+00
   -0.10666E+07        -0.63427E+08         0.00000E+00
    0.00000E+00         0.00000E+00        -0.57219E+08
 
   -0.54620E+08        -0.52552E+06         0.00000E+00
   -0.52552E+06        -0.63774E+08         0.00000E+00
    0.00000E+00         0.00000E+00        -0.57249E+08
 
   -0.54669E+08         0.13687E+06         0.00000E+00
    0.13687E+06        -0.64024E+08         0.00000E+00
    0.00000E+00         0.00000E+00        -0.57286E+08
 
   -0.54890E+08         0.89830E+06         0.00000E+00
    0.89830E+06        -0.64155E+08         0.00000E+00
    0.00000E+00         0.00000E+00        -0.57338E+08
 
   -0.55335E+08         0.17259E+07         0.00000E+00
    0.17259E+07        -0.64139E+08         0.00000E+00
    0.00000E+00         0.00000E+00        -0.57409E+08
 
   -0.56057E+08         0.25714E+07         0.00000E+00
    0.25714E+07        -0.63946E+08         0.00000E+00
    0.00000E+00         0.00000E+00        -0.57506E+08
 
   -0.57096E+08         0.33673E+07         0.00000E+00
    0.33673E+07        -0.63551E+08         0.00000E+00
    0.00000E+00         0.00000E+00        -0.57630E+08
 
   -0.53170E+08        -0.33494E+06         0.00000E+00
   -0.33494E+06        -0.60051E+08         0.00000E+00
    0.00000E+00         0.00000E+00        -0.56085E+08
 
   -0.54336E+08        -0.10035E+07         0.00000E+00
   -0.10035E+07        -0.60263E+08         0.00000E+00
    0.00000E+00         0.00000E+00        -0.56344E+08
 
   -0.55004E+08        -0.15928E+07         0.00000E+00
   -0.15928E+07        -0.60641E+08         0.00000E+00
    0.00000E+00         0.00000E+00        -0.56521E+08
 
   -0.55280E+08        -0.20360E+07         0.00000E+00
   -0.20360E+07        -0.61130E+08         0.00000E+00
    0.00000E+00         0.00000E+00        -0.56629E+08
 
   -0.55273E+08        -0.22964E+07         0.00000E+00
   -0.22964E+07        -0.61677E+08         0.00000E+00
    0.00000E+00         0.00000E+00        -0.56681E+08
 
   -0.55082E+08        -0.23622E+07         0.00000E+00
   -0.23622E+07        -0.62235E+08         0.00000E+00
    0.00000E+00         0.00000E+00        -0.56694E+08
 
   -0.54791E+08        -0.22373E+07         0.00000E+00
   -0.22373E+07        -0.62772E+08         0.00000E+00
    0.00000E+00         0.00000E+00        -0.56679E+08
 
   -0.54471E+08        -0.19330E+07         0.00000E+00
   -0.19330E+07        -0.63264E+08         0.00000E+00
    0.00000E+00         0.00000E+00        -0.56649E+08
 
   -0.54179E+08        -0.14620E+07         0.00000E+00
   -0.14620E+07        -0.63696E+08         0.00000E+00
    0.00000E+00         0.00000E+00        -0.56616E+08
 
   -0.53968E+08        -0.83620E+06         0.00000E+00
   -0.83620E+06        -0.64052E+08         0.00000E+00
    0.00000E+00         0.00000E+00        -0.56588E+08
 
   -0.53894E+08        -0.67488E+05         0.00000E+00
   -0.67488E+05        -0.64315E+08         0.00000E+00
    0.00000E+00         0.00000E+00        -0.56574E+08
 
   -0.54015E+08         0.82793E+06         0.00000E+00
    0.82793E+06        -0.64460E+08         0.00000E+00
    0.00000E+00         0.00000E+00        -0.56583E+08
 
   -0.54399E+08         0.18228E+07         0.00000E+00
    0.18228E+07        -0.64453E+08         0.00000E+00
    0.00000E+00         0.00000E+00        -0.56624E+08
 
   -0.55118E+08         0.28708E+07         0.00000E+00
    0.28708E+07        -0.64254E+08         0.00000E+00
    0.00000E+00         0.00000E+00        -0.56704E+08
 
   -0.56236E+08         0.38992E+07         0.00000E+00
    0.38992E+07        -0.63821E+08         0.00000E+00
    0.00000E+00         0.00000E+00        -0.56829E+08
 
   -0.53959E+08        -0.45698E+06         0.00000E+00
   -0.45698E+06        -0.60060E+08         0.00000E+00
    0.00000E+00         0.00000E+00        -0.55807E+08
 
   -0.55063E+08        -0.13316E+07         0.00000E+00
   -0.13316E+07        -0.60303E+08         0.00000E+00
    0.00000E+00         0.00000E+00        -0.56046E+08
 
   -0.55583E+08        -0.20648E+07         0.00000E+00
   -0.20648E+07        -0.60730E+08         0.00000E+00
    0.00000E+00         0.00000E+00        -0.56177E+08
 
   -0.55661E+08        -0.25872E+07         0.00000E+00
   -0.25872E+07        -0.61266E+08         0.00000E+00
    0.00000E+00         0.00000E+00        -0.56219E+08
 
   -0.55438E+08        -0.28714E+07         0.00000E+00
   -0.28714E+07        -0.61844E+08         0.00000E+00
    0.00000E+00         0.00000E+00        -0.56195E+08
 
   -0.55036E+08        -0.29204E+07         0.00000E+00
   -0.29204E+07        -0.62413E+08         0.00000E+00
    0.00000E+00         0.00000E+00        -0.56125E+08
 
   -0.54550E+08        -0.27531E+07         0.00000E+00
   -0.27531E+07        -0.62943E+08         0.00000E+00
    0.00000E+00         0.00000E+00        -0.56026E+08
 
   -0.54050E+08        -0.23918E+07         0.00000E+00
   -0.23918E+07        -0.63416E+08         0.00000E+00
    0.00000E+00         0.00000E+00        -0.55914E+08
 
   -0.53592E+08        -0.18537E+07         0.00000E+00
   -0.18537E+07        -0.63828E+08         0.00000E+00
    0.00000E+00         0.00000E+00        -0.55803E+08
 
   -0.53225E+08        -0.11488E+07         0.00000E+00
   -0.11488E+07        -0.64170E+08         0.00000E+00
    0.00000E+00         0.00000E+00        -0.55703E+08
 
   -0.53002E+08        -0.28130E+06         0.00000E+00
   -0.28130E+06        -0.64430E+08         0.00000E+00
    0.00000E+00         0.00000E+00        -0.55624E+08
 
   -0.52990E+08         0.74379E+06         0.00000E+00
    0.74379E+06        -0.64585E+08         0.00000E+00
    0.00000E+00         0.00000E+00        -0.55579E+08
 
   -0.53272E+08         0.19112E+07         0.00000E+00
    0.19112E+07        -0.64592E+08         0.00000E+00
    0.00000E+00         0.00000E+00        -0.55577E+08
 
   -0.53944E+08         0.31825E+07         0.00000E+00
    0.31825E+07        -0.64398E+08         0.00000E+00
    0.00000E+00         0.00000E+00        -0.55631E+08
 
   -0.55109E+08         0.44835E+07         0.00000E+00
    0.44835E+07        -0.63942E+08         0.00000E+00
    0.00000E+00         0.00000E+00        -0.55750E+08
 
   -0.54998E+08        -0.59903E+06         0.00000E+00
   -0.59903E+06        -0.60070E+08         0.00000E+00
    0.00000E+00         0.00000E+00        -0.55439E+08
 
   -0.55974E+08        -0.17058E+07         0.00000E+00
   -0.17058E+07        -0.60349E+08         0.00000E+00
    0.00000E+00         0.00000E+00        -0.55640E+08
 
   -0.56269E+08        -0.25860E+07         0.00000E+00
   -0.25860E+07        -0.60824E+08         0.00000E+00
    0.00000E+00         0.00000E+00        -0.55701E+08
 
   -0.56080E+08        -0.31713E+07         0.00000E+00
   -0.31713E+07        -0.61395E+08         0.00000E+00
    0.00000E+00         0.00000E+00        -0.55653E+08
 
   -0.55591E+08        -0.34530E+07         0.00000E+00
   -0.34530E+07        -0.61978E+08         0.00000E+00
    0.00000E+00         0.00000E+00        -0.55526E+08
 
   -0.54948E+08        -0.34596E+07         0.00000E+00
   -0.34596E+07        -0.62520E+08         0.00000E+00
    0.00000E+00         0.00000E+00        -0.55349E+08
 
   -0.54252E+08        -0.32327E+07         0.00000E+00
   -0.32327E+07        -0.62997E+08         0.00000E+00
    0.00000E+00         0.00000E+00        -0.55145E+08
 
   -0.53568E+08        -0.28084E+07         0.00000E+00
   -0.28084E+07        -0.63406E+08         0.00000E+00
    0.00000E+00         0.00000E+00        -0.54934E+08
 
   -0.52939E+08        -0.22088E+07         0.00000E+00
   -0.22088E+07        -0.63755E+08         0.00000E+00
    0.00000E+00         0.00000E+00        -0.54728E+08
 
   -0.52403E+08        -0.14394E+07         0.00000E+00
   -0.14394E+07        -0.64050E+08         0.00000E+00
    0.00000E+00         0.00000E+00        -0.54541E+08
 
   -0.52007E+08        -0.49266E+06         0.00000E+00
   -0.49266E+06        -0.64287E+08         0.00000E+00
    0.00000E+00         0.00000E+00        -0.54383E+08
 
   -0.51822E+08         0.64472E+06         0.00000E+00
    0.64472E+06        -0.64444E+08         0.00000E+00
    0.00000E+00         0.00000E+00        -0.54268E+08
 
   -0.51945E+08         0.19784E+07         0.00000E+00
    0.19784E+07        -0.64475E+08         0.00000E+00
    0.00000E+00         0.00000E+00        -0.54209E+08
 
   -0.52508E+08         0.34878E+07         0.00000E+00
    0.34878E+07        -0.64307E+08         0.00000E+00
    0.00000E+00         0.00000E+00        -0.54223E+08
 
   -0.53661E+08         0.51045E+07         0.00000E+00
    0.51045E+07        -0.63849E+08         0.00000E+00
    0.00000E+00         0.00000E+00        -0.54328E+08
 
   -0.56325E+08        -0.76530E+06         0.00000E+00
   -0.76530E+06        -0.60083E+08         0.00000E+00
    0.00000E+00         0.00000E+00        -0.54950E+08
 
   -0.57081E+08        -0.21308E+07         0.00000E+00
   -0.21308E+07        -0.60404E+08         0.00000E+00
    0.00000E+00         0.00000E+00        -0.55090E+08
 
   -0.57048E+08        -0.31496E+07         0.00000E+00
   -0.31496E+07        -0.60926E+08         0.00000E+00
    0.00000E+00         0.00000E+00        -0.55048E+08
 
   -0.56506E+08        -0.37630E+07         0.00000E+00
   -0.37630E+07        -0.61509E+08         0.00000E+00
    0.00000E+00         0.00000E+00        -0.54873E+08
 
   -0.55698E+08        -0.39988E+07         0.00000E+00
   -0.39988E+07        -0.62054E+08         0.00000E+00
    0.00000E+00         0.00000E+00        -0.54611E+08
 
   -0.54793E+08        -0.39272E+07         0.00000E+00
   -0.39272E+07        -0.62509E+08         0.00000E+00
    0.00000E+00         0.00000E+00        -0.54300E+08
 
   -0.53886E+08        -0.36206E+07         0.00000E+00
   -0.36206E+07        -0.62870E+08         0.00000E+00
    0.00000E+00         0.00000E+00        -0.53970E+08
 
   -0.53026E+08        -0.31311E+07         0.00000E+00
   -0.31311E+07        -0.63153E+08         0.00000E+00
    0.00000E+00         0.00000E+00        -0.53642E+08
 
   -0.52233E+08        -0.24835E+07         0.00000E+00
   -0.24835E+07        -0.63387E+08         0.00000E+00
    0.00000E+00         0.00000E+00        -0.53328E+08
 
   -0.51526E+08        -0.16762E+07         0.00000E+00
   -0.16762E+07        -0.63592E+08         0.00000E+00
    0.00000E+00         0.00000E+00        -0.53040E+08
 
   -0.50937E+08        -0.68513E+06         0.00000E+00
   -0.68513E+06        -0.63778E+08         0.00000E+00
    0.00000E+00         0.00000E+00        -0.52787E+08
 
   -0.50531E+08         0.52905E+06         0.00000E+00
    0.52905E+06        -0.63929E+08         0.00000E+00
    0.00000E+00         0.00000E+00        -0.52585E+08
 
   -0.50423E+08         0.20053E+07         0.00000E+00
    0.20053E+07        -0.63996E+08         0.00000E+00
    0.00000E+00         0.00000E+00        -0.52451E+08
 
   -0.50783E+08         0.37561E+07         0.00000E+00
    0.37561E+07        -0.63885E+08         0.00000E+00
    0.00000E+00         0.00000E+00        -0.52408E+08
 
   -0.51829E+08         0.57322E+07         0.00000E+00
    0.57322E+07        -0.63466E+08         0.00000E+00
    0.00000E+00         0.00000E+00        -0.52483E+08
 
   -0.57988E+08        -0.96321E+06         0.00000E+00
   -0.96321E+06        -0.60101E+08         0.00000E+00
    0.00000E+00         0.00000E+00        -0.54300E+08
 
   -0.58387E+08        -0.26137E+07         0.00000E+00
   -0.26137E+07        -0.60474E+08         0.00000E+00
    0.00000E+00         0.00000E+00        -0.54341E+08
 
   -0.57882E+08        -0.37404E+07         0.00000E+00
   -0.37404E+07        -0.61035E+08         0.00000E+00
    0.00000E+00         0.00000E+00        -0.54149E+08
 
   -0.56885E+08        -0.43166E+07         0.00000E+00
   -0.43166E+07        -0.61589E+08         0.00000E+00
    0.00000E+00         0.00000E+00        -0.53799E+08
 
   -0.55711E+08        -0.44413E+07         0.00000E+00
   -0.44413E+07        -0.62021E+08         0.00000E+00
    0.00000E+00         0.00000E+00        -0.53360E+08
 
   -0.54540E+08        -0.42479E+07         0.00000E+00
   -0.42479E+07        -0.62303E+08         0.00000E+00
    0.00000E+00         0.00000E+00        -0.52887E+08
 
   -0.53444E+08        -0.38447E+07         0.00000E+00
   -0.38447E+07        -0.62462E+08         0.00000E+00
    0.00000E+00         0.00000E+00        -0.52411E+08
 
   -0.52435E+08        -0.32962E+07         0.00000E+00
   -0.32962E+07        -0.62546E+08         0.00000E+00
    0.00000E+00         0.00000E+00        -0.51951E+08
 
   -0.51501E+08        -0.26252E+07         0.00000E+00
   -0.26252E+07        -0.62602E+08         0.00000E+00
    0.00000E+00         0.00000E+00        -0.51518E+08
 
   -0.50633E+08        -0.18197E+07         0.00000E+00
   -0.18197E+07        -0.62669E+08         0.00000E+00
    0.00000E+00         0.00000E+00        -0.51118E+08
 
   -0.49838E+08        -0.83645E+06         0.00000E+00
   -0.83645E+06        -0.62769E+08         0.00000E+00
    0.00000E+00         0.00000E+00        -0.50758E+08
 
   -0.49164E+08         0.39589E+06         0.00000E+00
    0.39589E+06        -0.62901E+08         0.00000E+00
    0.00000E+00         0.00000E+00        -0.50451E+08
 
   -0.48730E+08         0.19645E+07         0.00000E+00
    0.19645E+07        -0.63018E+08         0.00000E+00
    0.00000E+00         0.00000E+00        -0.50220E+08
 
   -0.48753E+08         0.39394E+07         0.00000E+00
    0.39394E+07        -0.63010E+08         0.00000E+00
    0.00000E+00         0.00000E+00        -0.50096E+08
 
   -0.49543E+08         0.63159E+07         0.00000E+00
    0.63159E+07        -0.62692E+08         0.00000E+00
    0.00000E+00         0.00000E+00        -0.50120E+08
 
   -0.60046E+08        -0.12064E+07         0.00000E+00
   -0.12064E+07        -0.60128E+08         0.00000E+00
    0.00000E+00         0.00000E+00        -0.53427E+08
 
   -0.59875E+08        -0.31624E+07         0.00000E+00
   -0.31624E+07        -0.60568E+08         0.00000E+00
    0.00000E+00         0.00000E+00        -0.53310E+08
 
   -0.58694E+08        -0.43203E+07         0.00000E+00
   -0.43203E+07        -0.61142E+08         0.00000E+00
    0.00000E+00         0.00000E+00        -0.52892E+08
 
   -0.57129E+08        -0.47468E+07         0.00000E+00
   -0.47468E+07        -0.61576E+08         0.00000E+00
    0.00000E+00         0.00000E+00        -0.52299E+08
 
   -0.55570E+08        -0.46742E+07         0.00000E+00
   -0.46742E+07        -0.61768E+08         0.00000E+00
    0.00000E+00         0.00000E+00        -0.51638E+08
 
   -0.54166E+08        -0.43203E+07         0.00000E+00
   -0.43203E+07        -0.61754E+08         0.00000E+00
    0.00000E+00         0.00000E+00        -0.50973E+08
 
   -0.52929E+08        -0.38201E+07         0.00000E+00
   -0.38201E+07        -0.61613E+08         0.00000E+00
    0.00000E+00         0.00000E+00        -0.50337E+08
 
   -0.51818E+08        -0.32350E+07         0.00000E+00
   -0.32350E+07        -0.61422E+08         0.00000E+00
    0.00000E+00         0.00000E+00        -0.49741E+08
 
   -0.50783E+08        -0.25781E+07         0.00000E+00
   -0.25781E+07        -0.61241E+08         0.00000E+00
    0.00000E+00         0.00000E+00        -0.49186E+08
 
   -0.49778E+08        -0.18252E+07         0.00000E+00
   -0.18252E+07        -0.61120E+08         0.00000E+00
    0.00000E+00         0.00000E+00        -0.48670E+08
 
   -0.48776E+08        -0.91691E+06         0.00000E+00
   -0.91691E+06        -0.61095E+08         0.00000E+00
    0.00000E+00         0.00000E+00        -0.48194E+08
 
   -0.47791E+08         0.24941E+06         0.00000E+00
    0.24941E+06        -0.61185E+08         0.00000E+00
    0.00000E+00         0.00000E+00        -0.47767E+08
 
   -0.46924E+08         0.18220E+07         0.00000E+00
    0.18220E+07        -0.61366E+08         0.00000E+00
    0.00000E+00         0.00000E+00        -0.47414E+08
 
   -0.46422E+08         0.39658E+07         0.00000E+00
    0.39658E+07        -0.61521E+08         0.00000E+00
    0.00000E+00         0.00000E+00        -0.47176E+08
 
   -0.46722E+08         0.67712E+07         0.00000E+00
    0.67712E+07        -0.61403E+08         0.00000E+00
    0.00000E+00         0.00000E+00        -0.47116E+08
 
   -0.62580E+08        -0.15221E+07         0.00000E+00
   -0.15221E+07        -0.60177E+08         0.00000E+00
    0.00000E+00         0.00000E+00        -0.52235E+08
 
   -0.61480E+08        -0.37759E+07         0.00000E+00
   -0.37759E+07        -0.60698E+08         0.00000E+00
    0.00000E+00         0.00000E+00        -0.51852E+08
 
   -0.59336E+08        -0.47892E+07         0.00000E+00
   -0.47892E+07        -0.61195E+08         0.00000E+00
    0.00000E+00         0.00000E+00        -0.51083E+08
 
   -0.57118E+08        -0.48883E+07         0.00000E+00
   -0.48883E+07        -0.61308E+08         0.00000E+00
    0.00000E+00         0.00000E+00        -0.50155E+08
 
   -0.55223E+08        -0.45395E+07         0.00000E+00
   -0.45395E+07        -0.61054E+08         0.00000E+00
    0.00000E+00         0.00000E+00        -0.49222E+08
 
   -0.53671E+08        -0.40263E+07         0.00000E+00
   -0.40263E+07        -0.60595E+08         0.00000E+00
    0.00000E+00         0.00000E+00        -0.48352E+08
 
   -0.52368E+08        -0.34646E+07         0.00000E+00
   -0.34646E+07        -0.60061E+08         0.00000E+00
    0.00000E+00         0.00000E+00        -0.47557E+08
 
   -0.51215E+08        -0.28900E+07         0.00000E+00
   -0.28900E+07        -0.59539E+08         0.00000E+00
    0.00000E+00         0.00000E+00        -0.46833E+08
 
   -0.50125E+08        -0.22969E+07         0.00000E+00
   -0.22969E+07        -0.59085E+08         0.00000E+00
    0.00000E+00         0.00000E+00        -0.46167E+08
 
   -0.49019E+08        -0.16518E+07         0.00000E+00
   -0.16518E+07        -0.58744E+08         0.00000E+00
    0.00000E+00         0.00000E+00        -0.45546E+08
 
   -0.47833E+08        -0.88911E+06         0.00000E+00
   -0.88911E+06        -0.58558E+08         0.00000E+00
    0.00000E+00         0.00000E+00        -0.44959E+08
 
   -0.46521E+08         0.10800E+06         0.00000E+00
    0.10800E+06        -0.58570E+08         0.00000E+00
    0.00000E+00         0.00000E+00        -0.44405E+08
 
   -0.45112E+08         0.15466E+07         0.00000E+00
    0.15466E+07        -0.58808E+08         0.00000E+00
    0.00000E+00         0.00000E+00        -0.43904E+08
 
   -0.43839E+08         0.37333E+07         0.00000E+00
    0.37333E+07        -0.59195E+08         0.00000E+00
    0.00000E+00         0.00000E+00        -0.43509E+08
 
   -0.43283E+08         0.69577E+07         0.00000E+00
    0.69577E+07        -0.59431E+08         0.00000E+00
    0.00000E+00         0.00000E+00        -0.43315E+08
 
   -0.65701E+08        -0.19707E+07         0.00000E+00
   -0.19707E+07        -0.60264E+08         0.00000E+00
    0.00000E+00         0.00000E+00        -0.50535E+08
 
   -0.62998E+08        -0.43956E+07         0.00000E+00
   -0.43956E+07        -0.60870E+08         0.00000E+00
    0.00000E+00         0.00000E+00        -0.49667E+08
 
   -0.59543E+08        -0.48590E+07         0.00000E+00
   -0.48590E+07        -0.60960E+08         0.00000E+00
    0.00000E+00         0.00000E+00        -0.48323E+08
 
   -0.56747E+08        -0.44439E+07         0.00000E+00
   -0.44439E+07        -0.60311E+08         0.00000E+00
    0.00000E+00         0.00000E+00        -0.46951E+08
 
   -0.54691E+08        -0.38506E+07         0.00000E+00
   -0.38506E+07        -0.59356E+08         0.00000E+00
    0.00000E+00         0.00000E+00        -0.45735E+08
 
   -0.53114E+08        -0.32674E+07         0.00000E+00
   -0.32674E+07        -0.58341E+08         0.00000E+00
    0.00000E+00         0.00000E+00        -0.44679E+08
 
   -0.51825E+08        -0.27330E+07         0.00000E+00
   -0.27330E+07        -0.57381E+08         0.00000E+00
    0.00000E+00         0.00000E+00        -0.43759E+08
 
   -0.50683E+08        -0.22413E+07         0.00000E+00
   -0.22413E+07        -0.56530E+08         0.00000E+00
    0.00000E+00         0.00000E+00        -0.42943E+08
 
   -0.49579E+08        -0.17691E+07         0.00000E+00
   -0.17691E+07        -0.55816E+08         0.00000E+00
    0.00000E+00         0.00000E+00        -0.42201E+08
 
   -0.48414E+08        -0.12806E+07         0.00000E+00
   -0.12806E+07        -0.55264E+08         0.00000E+00
    0.00000E+00         0.00000E+00        -0.41507E+08
 
   -0.47086E+08        -0.71895E+06         0.00000E+00
   -0.71895E+06        -0.54908E+08         0.00000E+00
    0.00000E+00         0.00000E+00        -0.40836E+08
 
   -0.45483E+08         0.17839E+05         0.00000E+00
    0.17839E+05        -0.54804E+08         0.00000E+00
    0.00000E+00         0.00000E+00        -0.40173E+08
 
   -0.43484E+08         0.11373E+07         0.00000E+00
    0.11373E+07        -0.55040E+08         0.00000E+00
    0.00000E+00         0.00000E+00        -0.39512E+08
 
   -0.41151E+08         0.31107E+07         0.00000E+00
    0.31107E+07        -0.55713E+08         0.00000E+00
    0.00000E+00         0.00000E+00        -0.38910E+08
 
   -0.39151E+08         0.66359E+07         0.00000E+00
    0.66359E+07        -0.56531E+08         0.00000E+00
    0.00000E+00         0.00000E+00        -0.38504E+08
 
   -0.69507E+08        -0.27711E+07         0.00000E+00
   -0.27711E+07        -0.60691E+08         0.00000E+00
    0.00000E+00         0.00000E+00        -0.47884E+08
 
   -0.63797E+08        -0.44628E+07         0.00000E+00
   -0.44628E+07        -0.60790E+08         0.00000E+00
    0.00000E+00         0.00000E+00        -0.45882E+08
 
   -0.59044E+08        -0.38180E+07         0.00000E+00
   -0.38180E+07        -0.59221E+08         0.00000E+00
    0.00000E+00         0.00000E+00        -0.43618E+08
 
   -0.56132E+08        -0.30903E+07         0.00000E+00
   -0.30903E+07        -0.57355E+08         0.00000E+00
    0.00000E+00         0.00000E+00        -0.41850E+08
 
   -0.54123E+08        -0.25084E+07         0.00000E+00
   -0.25084E+07        -0.55624E+08         0.00000E+00
    0.00000E+00         0.00000E+00        -0.40446E+08
 
   -0.52620E+08        -0.20463E+07         0.00000E+00
   -0.20463E+07        -0.54116E+08         0.00000E+00
    0.00000E+00         0.00000E+00        -0.39307E+08
 
   -0.51392E+08        -0.16681E+07         0.00000E+00
   -0.16681E+07        -0.52834E+08         0.00000E+00
    0.00000E+00         0.00000E+00        -0.38353E+08
 
   -0.50288E+08        -0.13431E+07         0.00000E+00
   -0.13431E+07        -0.51762E+08         0.00000E+00
    0.00000E+00         0.00000E+00        -0.37529E+08
 
   -0.49194E+08        -0.10450E+07         0.00000E+00
   -0.10450E+07        -0.50889E+08         0.00000E+00
    0.00000E+00         0.00000E+00        -0.36789E+08
 
   -0.48000E+08        -0.74665E+06         0.00000E+00
   -0.74665E+06        -0.50213E+08         0.00000E+00
    0.00000E+00         0.00000E+00        -0.36096E+08
 
   -0.46584E+08        -0.41147E+06         0.00000E+00
   -0.41147E+06        -0.49749E+08         0.00000E+00
    0.00000E+00         0.00000E+00        -0.35416E+08
 
   -0.44773E+08         0.24018E+05         0.00000E+00
    0.24018E+05        -0.49549E+08         0.00000E+00
    0.00000E+00         0.00000E+00        -0.34714E+08
 
   -0.42313E+08         0.69605E+06         0.00000E+00
    0.69605E+06        -0.49726E+08         0.00000E+00
    0.00000E+00         0.00000E+00        -0.33957E+08
 
   -0.38736E+08         0.19942E+07         0.00000E+00
    0.19942E+07        -0.50529E+08         0.00000E+00
    0.00000E+00         0.00000E+00        -0.33108E+08
 
   -0.34345E+08         0.53443E+07         0.00000E+00
    0.53443E+07        -0.52313E+08         0.00000E+00
    0.00000E+00         0.00000E+00        -0.32377E+08
 
   -0.73248E+08        -0.29605E+07         0.00000E+00
   -0.29605E+07        -0.58246E+08         0.00000E+00
    0.00000E+00         0.00000E+00        -0.39266E+08
 
   -0.62959E+08        -0.19856E+07         0.00000E+00
   -0.19856E+07        -0.54584E+08         0.00000E+00
    0.00000E+00         0.00000E+00        -0.35882E+08
 
   -0.58427E+08        -0.12992E+07         0.00000E+00
   -0.12992E+07        -0.51513E+08         0.00000E+00
    0.00000E+00         0.00000E+00        -0.33769E+08
 
   -0.55664E+08        -0.97681E+06         0.00000E+00
   -0.97681E+06        -0.49166E+08         0.00000E+00
    0.00000E+00         0.00000E+00        -0.32323E+08
 
   -0.53772E+08        -0.76359E+06         0.00000E+00
   -0.76359E+06        -0.47325E+08         0.00000E+00
    0.00000E+00         0.00000E+00        -0.31253E+08
 
   -0.52344E+08        -0.60917E+06         0.00000E+00
   -0.60917E+06        -0.45854E+08         0.00000E+00
    0.00000E+00         0.00000E+00        -0.30417E+08
 
   -0.51162E+08        -0.48740E+06         0.00000E+00
   -0.48740E+06        -0.44669E+08         0.00000E+00
    0.00000E+00         0.00000E+00        -0.29735E+08
 
   -0.50085E+08        -0.38404E+06         0.00000E+00
   -0.38404E+06        -0.43717E+08         0.00000E+00
    0.00000E+00         0.00000E+00        -0.29151E+08
 
   -0.49000E+08        -0.28898E+06         0.00000E+00
   -0.28898E+06        -0.42971E+08         0.00000E+00
    0.00000E+00         0.00000E+00        -0.28629E+08
 
   -0.47795E+08        -0.19292E+06         0.00000E+00
   -0.19292E+06        -0.42421E+08         0.00000E+00
    0.00000E+00         0.00000E+00        -0.28135E+08
 
   -0.46336E+08        -0.83996E+05         0.00000E+00
   -0.83996E+05        -0.42078E+08         0.00000E+00
    0.00000E+00         0.00000E+00        -0.27639E+08
 
   -0.44425E+08         0.57618E+05         0.00000E+00
    0.57618E+05        -0.41988E+08         0.00000E+00
    0.00000E+00         0.00000E+00        -0.27103E+08
 
   -0.41715E+08         0.27847E+06         0.00000E+00
    0.27847E+06        -0.42259E+08         0.00000E+00
    0.00000E+00         0.00000E+00        -0.26477E+08
 
   -0.37480E+08         0.68634E+06         0.00000E+00
    0.68634E+06        -0.43168E+08         0.00000E+00
    0.00000E+00         0.00000E+00        -0.25666E+08
 
   -0.29242E+08         0.22052E+07         0.00000E+00
    0.22052E+07        -0.45706E+08         0.00000E+00
    0.00000E+00         0.00000E+00        -0.24412E+08
 
SCALARS stresss double 
LOOKUP_TABLE default
  -57051081.9816151     
  -57691723.7999612     
  -58130839.2157243     
  -58493665.8474650     
  -58812922.7175768     
  -59103537.7792944     
  -59373589.1543140     
  -59628297.3008983     
  -59871606.1061406     
  -60107143.9267179     
  -60339079.8611984     
  -60573279.7747827     
  -60820024.7464389     
  -61100550.7857968     
  -61502166.8145462     
  -56860910.1567961     
  -57186209.1255504     
  -57533378.7047722     
  -57850344.2212232     
  -58144305.1047795     
  -58419425.7389487     
  -58679122.7303158     
  -58925990.6330900     
  -59162203.2286030     
  -59389843.3602002     
  -59611231.2909789     
  -59829329.1809670     
  -60047658.0450941     
  -60273097.8770196     
  -60460342.2247482     
  -56841354.3245791     
  -56970580.0646356     
  -57194019.4387876     
  -57446095.0379490     
  -57701102.8070358     
  -57951589.0525845     
  -58194475.7969911     
  -58428482.6958022     
  -58653002.8433601     
  -58867665.4221443     
  -59072018.9799703     
  -59264859.7512046     
  -59442977.9416206     
  -59591183.9368872     
  -59679394.4964887     
  -56858258.5831469     
  -56898783.1854082     
  -57038128.8627020     
  -57229533.7459903     
  -57444572.8856934     
  -57668004.9318515     
  -57891691.4502210     
  -58110631.6219957     
  -58321315.7821464     
  -58520761.3693522     
  -58705721.1878871     
  -58871669.9306157     
  -59010292.0290978     
  -59107169.8297185     
  -59138591.4304679     
  -56874816.1982017     
  -56890297.5211181     
  -56987112.0280448     
  -57138426.2916503     
  -57322096.6629150     
  -57522407.6872775     
  -57728693.4639199     
  -57933459.2779645     
  -58130908.4529657     
  -58315928.8129430     
  -58483220.8135633     
  -58626267.0001948     
  -58736287.7631322     
  -58801217.3674684     
  -58805895.6298189     
  -56874701.7702786     
  -56899824.8875213     
  -56985125.1801626     
  -57117985.1668944     
  -57283574.0753515     
  -57468641.4348437     
  -57662462.2306851     
  -57856488.1836561     
  -58043617.0698156     
  -58217440.8631290     
  -58371551.0086508     
  -58498945.7159825     
  -58591635.1722901     
  -58640796.8850845     
  -58637797.2738355     
  -56852627.4452472     
  -56904124.6268669     
  -56998237.1068202     
  -57130219.4827964     
  -57290827.5587819     
  -57469832.1309607     
  -57657667.9858500     
  -57845897.4255214     
  -58027064.9886003     
  -58194317.8942960     
  -58341010.4738766     
  -58460446.4151885     
  -58545942.7465352     
  -58591416.4037014     
  -58592710.2437526     
  -56809256.8126768     
  -56894417.5190544     
  -57009539.9065687     
  -57153198.2916439     
  -57319586.8824708     
  -57501015.9678342     
  -57689450.1119317     
  -57877231.8517442     
  -58057266.7483385     
  -58222936.3290892     
  -58367954.9796691     
  -58486352.3796100     
  -58572745.6185364     
  -58623047.1186518     
  -58635689.2419857     
  -56748041.8334011     
  -56870042.3074668     
  -57013172.2844482     
  -57176776.5674729     
  -57356845.6878102     
  -57547523.0656850     
  -57742250.1627369     
  -57934448.8483233     
  -58117823.8508403     
  -58286439.2496824     
  -58434733.9288405     
  -58557628.9049805     
  -58650858.1502654     
  -58711612.9855800     
  -58739516.3359957     
  -56673450.8941210     
  -56834134.6909536     
  -57009309.5076734     
  -57198001.6721186     
  -57397037.1615602     
  -57601832.6352151     
  -57807135.3139773     
  -58007543.6989540     
  -58197796.1460434     
  -58372901.0375234     
  -58528216.9563728     
  -58659594.3082567     
  -58763671.3368944     
  -58838376.4855995     
  -58883620.2969717     
  -56590240.8971625     
  -56791244.5894765     
  -57000885.8562511     
  -57217636.7885008     
  -57438753.4418431     
  -57660616.8063665     
  -57879150.7990116     
  -58090160.5798334     
  -58289543.8011792     
  -58473401.8491618     
  -58638115.6907764     
  -58780459.8473989     
  -58897814.9712563     
  -58988505.8172341     
  -59052237.2868743     
  -56503278.3817857     
  -56746267.1750420     
  -56991801.3380743     
  -57237991.6225689     
  -57482489.7276331     
  -57722564.8458789     
  -57955291.5786560     
  -58177726.1541962     
  -58387019.2604045     
  -58580469.5551943     
  -58755553.4606330     
  -58909976.3982043     
  -59041782.1276792     
  -59149532.4345089     
  -59232531.1439097     
  -56417567.7417287     
  -56704061.4837762     
  -56986070.7099861     
  -57261730.2380782     
  -57529277.4019785     
  -57786972.6565255     
  -58033127.1919545     
  -58266146.6114409     
  -58484545.8386271     
  -58686929.7062245     
  -58871957.1710730     
  -59038314.9312572     
  -59184721.0674751     
  -59309963.4054635     
  -59412953.1169461     
  -56338312.8649176     
  -56669350.9328186     
  -56987457.4654171     
  -57291259.9336592     
  -57579904.7319897     
  -57852876.7185815     
  -58109910.4507267     
  -58350926.8301132     
  -58575959.4205884     
  -58785061.4658039     
  -58978200.6487769     
  -59155154.0659850     
  -59315413.1249480     
  -59458099.2866068     
  -59581878.9482713     
  -56270945.8619600     
  -56646698.6117062     
  -56999308.2142827     
  -57328406.5255983     
  -57634459.3839428     
  -57918506.7023610     
  -58181979.9181380     
  -58426549.3177914     
  -58653973.8335257     
  -58865942.7704995     
  -59063908.2561335     
  -59248910.1292290     
  -59421394.1003227     
  -59581021.3478855     
  -59726464.7371234     
  -56221107.0059778     
  -56640470.9214697     
  -57024439.2601382     
  -57374197.1253803     
  -57692010.9343255     
  -57980888.3497679     
  -58244307.5034220     
  -58485984.8764017     
  -58709661.6260758     
  -58918895.3605108     
  -59116846.8914887     
  -59306051.7835006     
  -59488167.4594606     
  -59663689.9100130     
  -59831640.1075820     
  -56194578.4721377     
  -56654761.0834828     
  -57065006.0623809     
  -57428650.7667971     
  -57750319.8214222     
  -58035483.3291627     
  -58290087.4040580     
  -58520245.4826909     
  -58731976.4495108     
  -58930970.6354083     
  -59122358.9851972     
  -59310457.9853062     
  -59498466.2824272     
  -59688099.2172691     
  -59879163.6958472     
  -56197179.5019660     
  -56693265.2972062     
  -57122320.4606235     
  -57490515.7456796     
  -57805495.4662171     
  -58075784.3974652     
  -58310290.1458776     
  -58517914.8168050     
  -58707266.6123334     
  -58886439.0212294     
  -59062808.2777660     
  -59242793.7652439     
  -59431533.3210871     
  -59632445.4027633     
  -59846679.7124123     
  -56234632.2599226     
  -56759106.7185912     
  -57196585.0110004     
  -57556897.5772316     
  -57851530.8293124     
  -58092788.5834445     
  -58293110.9128760     
  -58464599.5005822     
  -58618739.5870322     
  -58766257.8213772     
  -58917023.4008845     
  -59079891.2580568     
  -59262400.4660272     
  -59470275.3980953     
  -59706726.3208851     
  -56312410.1688646     
  -56854593.8257030     
  -57286495.5600534     
  -57622696.7730884     
  -57879614.0460830     
  -58074247.2637138     
  -58223223.7313168     
  -58342234.2894601     
  -58445835.1837447     
  -58547497.0110778     
  -58659733.3346523     
  -58794134.5971809     
  -58961159.8213135     
  -59169593.6085448     
  -59425653.2802519     
  -56435584.8583563     
  -56980879.2437417     
  -57388618.2262363     
  -57679714.5452541     
  -57877052.9969007     
  -58003534.4340880     
  -58080709.0162482     
  -58128145.5410353     
  -58163450.2077662     
  -58202699.3181193     
  -58260994.5646367     
  -58352857.7815235     
  -58492228.8411092     
  -58691908.5438057     
  -58962404.8344122     
  -56608692.0201028     
  -57137441.8853338     
  -57496354.4958616     
  -57715162.8138439     
  -57825524.4228459     
  -57857868.5918939     
  -57839442.6416107     
  -57793723.1381153     
  -57740924.1787268     
  -57699135.5071542     
  -57685609.1954129     
  -57717773.9146212     
  -57813621.6078697     
  -57991201.6617582     
  -58267108.5273544     
  -56835636.5922007     
  -57321217.2016877     
  -57598115.3567570     
  -57709072.5776310     
  -57698128.8105109     
  -57605440.8999005     
  -57464603.1651751     
  -57302457.1969820     
  -57140627.1883448     
  -56997869.9933554     
  -56892514.0086797     
  -56844456.1788691     
  -56876247.5909681     
  -57012792.0821043     
  -57279370.4639519     
  -57119629.9442127     
  -57524975.5905550     
  -57673889.4739942     
  -57629595.1733162     
  -57454299.1617936     
  -57200692.1163840     
  -56908743.2995598     
  -56606928.2431196     
  -56315839.0966234     
  -56052425.9785066     
  -55834038.2824575     
  -55681871.0348753     
  -55623262.5497673     
  -55692055.4549155     
  -55926089.2458318     
  -57463120.8019535     
  -57733917.1489723     
  -57688369.3474692     
  -57424083.5847699     
  -57030775.8894865     
  -56576476.6099866     
  -56105517.4607754     
  -55644012.3921838     
  -55207247.3631845     
  -54806476.0875025     
  -54454684.2737566     
  -54171837.2075035     
  -53989515.1064583     
  -53952918.2475461     
  -54118442.1387056     
  -57867154.4449440     
  -57917967.2828906     
  -57575901.8221607     
  -57001268.0843330     
  -56325314.0752877     
  -55630935.1501355     
  -54959553.6208273     
  -54326760.4617068     
  -53736431.5724067     
  -53189061.4353010     
  -52688219.2925077     
  -52247982.5320005     
  -51900985.0387719     
  -51706167.1837198     
  -51747324.4806643     
  -58330727.8403003     
  -58010160.8717393     
  -57204532.2792265     
  -56193683.3574760     
  -55166274.4279877     
  -54205801.4054825     
  -53328843.9919408     
  -52529132.3554447     
  -51792270.6880871     
  -51102966.6672705     
  -50449827.5644817     
  -49831689.0856158     
  -49274533.3189036     
  -48847194.4078211     
  -48676381.1997074     
  -58833432.5465735     
  -57844870.2515228     
  -56275025.9619848     
  -54669841.4262080     
  -53260669.6426612     
  -52044665.2169854     
  -50988313.2044716     
  -50052030.7752208     
  -49198780.7634052     
  -48394928.7304407     
  -47610151.0386856     
  -46819772.2357014     
  -46012172.2340596     
  -45257828.1999034     
  -44728335.8963960     
  -59360663.2553711     
  -56822954.1276030     
  -53961232.5545431     
  -51778912.4212114     
  -50064340.3762334     
  -48680922.3470588     
  -47526282.2325479     
  -46526502.6930283     
  -45624007.1973747     
  -44769615.2066947     
  -43916180.6648814     
  -43012209.8896854     
  -41998536.5469708     
  -40790971.1278258     
  -39678192.2219417     
  -56919882.5721589     
  -51141805.4403009     
  -47903324.0770089     
  -45717790.5646208     
  -44116579.0033613     
  -42871706.1935859     
  -41855167.8439620     
  -40984573.5449244     
  -40199838.4004971     
  -39450189.3838763     
  -38684339.4478643     
  -37839015.8799552     
  -36817168.3914788     
  -35438121.3648568     
  -33120075.5953111     
SCALARS 2waySource double 
LOOKUP_TABLE default
 -4.941442856854111E-003
  1.486726806741270E-003
  5.889539095078297E-003
  9.394072007077939E-003
  1.245005205771182E-002
  1.519845646285231E-002
  1.769076839471482E-002
  1.996452495823905E-002
  2.206013377132091E-002
  2.401704324245802E-002
  2.586609322723278E-002
  2.762720556716559E-002
  2.932404494931486E-002
  3.103696736351413E-002
  3.298438956695234E-002
 -5.806046750358082E-003
 -2.798564672990024E-004
  3.638032910123394E-003
  6.864947373337977E-003
  9.697379578157438E-003
  1.224831546846928E-002
  1.456616622031802E-002
  1.668755125713538E-002
  1.865050120759220E-002
  2.049262647173750E-002
  2.224610434354992E-002
  2.393689860720501E-002
  2.559749310272614E-002
  2.730476595728263E-002
  2.927771954148466E-002
 -6.314117917305212E-003
 -2.848568397630959E-003
  2.084668024173232E-004
  2.918445108290662E-003
  5.359770355729376E-003
  7.578884625700924E-003
  9.608593065827467E-003
  1.147853986820770E-002
  1.322012578009839E-002
  1.486560935904693E-002
  1.644577953219651E-002
  1.799000200056355E-002
  1.953196904678801E-002
  2.112626240122208E-002
  2.288112934869273E-002
 -5.928387891571472E-003
 -4.712262820163265E-003
 -2.807749630388516E-003
 -8.263886751780909E-004
  1.068310895336120E-003
  2.840692882314329E-003
  4.491266647538610E-003
  6.032470962700487E-003
  7.482191560170875E-003
  8.861610865327784E-003
  1.019391511517885E-002
  1.150339541737265E-002
  1.281321452319945E-002
  1.413582848808081E-002
  1.544786773434974E-002
 -4.852858051239251E-003
 -5.275587828102787E-003
 -4.515516319992351E-003
 -3.353851769718352E-003
 -2.089336375084325E-003
 -8.288816923936385E-004
  3.906870975098449E-004
  1.557938044273186E-003
  2.672162656233685E-003
  3.738759726716381E-003
  4.767404894242863E-003
  5.769406482919780E-003
  6.748915066316958E-003
  7.677663114799551E-003
  8.437348593857726E-003
 -3.549846419177341E-003
 -4.793696984790374E-003
 -4.903924086520147E-003
 -4.483014170506096E-003
 -3.829023503941003E-003
 -3.078193089199653E-003
 -2.293953941691897E-003
 -1.509171428079879E-003
 -7.428922574506870E-004
 -6.257118848504353E-006
  6.949210695637385E-004
  1.356270082723267E-003
  1.963484318927796E-003
  2.463053802046433E-003
  2.701367367149165E-003
 -2.365568696237393E-003
 -3.806368762274751E-003
 -4.424910988417594E-003
 -4.552846797158702E-003
 -4.404656242117120E-003
 -4.102170599135907E-003
 -3.715279795962589E-003
 -3.288513279018174E-003
 -2.853661960913331E-003
 -2.434765162905652E-003
 -2.050494274637383E-003
 -1.717909558446571E-003
 -1.462838998848551E-003
 -1.344739980120956E-003
 -1.504537427124497E-003
 -1.442295186896225E-003
 -2.742707048232430E-003
 -3.565896679832255E-003
 -4.029114927102177E-003
 -4.245448522813680E-003
 -4.297306188565215E-003
 -4.243062489848473E-003
 -4.127172705779883E-003
 -3.986043310468883E-003
 -3.850348764802629E-003
 -3.746104154366775E-003
 -3.697043252102389E-003
 -3.731879456131867E-003
 -3.901334774992664E-003
 -4.308677692528554E-003
 -7.882323929508506E-004
 -1.824712831643581E-003
 -2.659161033110384E-003
 -3.284158417823190E-003
 -3.731239592578112E-003
 -4.038679519523251E-003
 -4.243577943712911E-003
 -4.381254071374486E-003
 -4.485153196977202E-003
 -4.586068938242940E-003
 -4.711316426844898E-003
 -4.885107773217339E-003
 -5.132131065565937E-003
 -5.486856314111939E-003
 -6.009424811681473E-003
 -3.585240062461255E-004
 -1.121683887908959E-003
 -1.871430705899807E-003
 -2.544200219010211E-003
 -3.119090377203087E-003
 -3.597416461807915E-003
 -3.993107960119986E-003
 -4.327639736093061E-003
 -4.626283066884894E-003
 -4.914857920687868E-003
 -5.217078118221338E-003
 -5.552953386984464E-003
 -5.939144878884028E-003
 -6.392321214086949E-003
 -6.935139463631328E-003
 -1.008783336721598E-004
 -6.263707782976247E-004
 -1.259484286334550E-003
 -1.918537364291138E-003
 -2.553794967541950E-003
 -3.140166391442678E-003
 -3.671178976766510E-003
 -4.153490279355186E-003
 -4.601683956300831E-003
 -5.033566166275911E-003
 -5.466169040198015E-003
 -5.912619970727917E-003
 -6.380170544144825E-003
 -6.869684368381581E-003
 -7.375950677562488E-003
  2.792097466910986E-005
 -3.060312672760783E-004
 -8.253714116090720E-004
 -1.446137714847822E-003
 -2.104365826871255E-003
 -2.757741975610326E-003
 -3.383778524768978E-003
 -3.975623911052215E-003
 -4.536810084902587E-003
 -5.075992641126412E-003
 -5.602204090282501E-003
 -6.120764778983800E-003
 -6.629905927389581E-003
 -7.118112843815284E-003
 -7.561698364822485E-003
  5.973751574603409E-005
 -1.269004643513624E-004
 -5.516632937480665E-004
 -1.132192035330276E-003
 -1.797663514838737E-003
 -2.494940725458920E-003
 -3.189745546609804E-003
 -3.864013237050370E-003
 -4.511212709216231E-003
 -5.131112934058647E-003
 -5.724778197940490E-003
 -6.290034505081539E-003
 -6.817421599682167E-003
 -7.286573789228288E-003
 -7.662758837108368E-003
  1.743130089152566E-005
 -6.243679378434810E-005
 -4.187305369579595E-004
 -9.697463892468290E-004
 -1.640851981388906E-003
 -2.372047973512336E-003
 -3.120685404940646E-003
 -3.859976505097879E-003
 -4.574997385233964E-003
 -5.257756995850349E-003
 -5.902252597940716E-003
 -6.499857553320056E-003
 -7.035094126504920E-003
 -7.481752098459359E-003
 -7.799248435246651E-003
 -8.233877728597248E-005
 -9.413466268162147E-005
 -4.110007187969942E-004
 -9.499453215993205E-004
 -1.633600098727715E-003
 -2.397501182482270E-003
 -3.193253826570672E-003
 -3.987686114121867E-003
 -4.759402822178418E-003
 -5.494223233993244E-003
 -6.180452775128593E-003
 -6.804402202100866E-003
 -7.346257075141875E-003
 -7.776288684553339E-003
 -8.051391325610356E-003
 -2.270746728189885E-004
 -2.098194994952019E-004
 -5.178323568319171E-004
 -1.065548336775734E-003
 -1.773400365744800E-003
 -2.574096706400682E-003
 -3.415582892852701E-003
 -4.260421572241102E-003
 -5.082701820207125E-003
 -5.863801504555809E-003
 -6.587916381399480E-003
 -7.237797976119511E-003
 -7.790838764568549E-003
 -8.215515181230232E-003
 -8.468205117809153E-003
 -4.072138875083360E-004
 -4.015722517325647E-004
 -7.323106702245626E-004
 -1.311147294266804E-003
 -2.057035725438736E-003
 -2.901277435350089E-003
 -3.789981133585815E-003
 -4.683399689405568E-003
 -5.553019657019405E-003
 -6.377564180844982E-003
 -7.138757460131728E-003
 -7.817291192379089E-003
 -8.389148205448308E-003
 -8.822300100884143E-003
 -9.073795562615911E-003
 -6.154725861532661E-004
 -6.640092874800647E-004
 -1.049568488175842E-003
 -1.682090558728538E-003
 -2.480216856328005E-003
 -3.375353660835109E-003
 -4.313544822660397E-003
 -5.254617439601976E-003
 -6.169322079578496E-003
 -7.035493795864468E-003
 -7.834008735731854E-003
 -8.544954151541263E-003
 -9.144166522752861E-003
 -9.600152343263779E-003
 -9.871397014412706E-003
 -8.465228944867333E-004
 -9.930631623513457E-004
 -1.465288901808192E-003
 -2.173117542813807E-003
 -3.036525276649697E-003
 -3.988774283503877E-003
 -4.977707941637892E-003
 -5.964623163294018E-003
 -6.921373088681192E-003
 -7.826628639642353E-003
 -8.661997077683021E-003
 -9.408372197347557E-003
 -1.004265335998900E-002
 -1.053484112588677E-002
 -1.084550514830824E-002
 -1.096854338607357E-003
 -1.385224878218025E-003
 -1.974590387456181E-003
 -2.777111427348470E-003
 -3.716181729166862E-003
 -4.728995281129408E-003
 -5.767255639651468E-003
 -6.795696854457323E-003
 -7.789089819390271E-003
 -8.728593651038914E-003
 -9.598054222571983E-003
 -1.038054704112535E-002
 -1.105526179412595E-002
 -1.159472857347791E-002
 -1.196238017765551E-002
 -1.364748703756303E-003
 -1.837169268447642E-003
 -2.571280511573542E-003
 -3.484024498861974E-003
 -4.504737230506099E-003
 -5.577064369306415E-003
 -6.658932837442368E-003
 -7.720580208384797E-003
 -8.741437785168909E-003
 -9.706651092329401E-003
 -1.060367574781286E-002
 -1.141909997350130E-002
 -1.213572039447896E-002
 -1.272986950632980E-002
 -1.316900782246726E-002
 -1.650362069447617E-003
 -2.345686082563057E-003
 -3.247332135612852E-003
 -4.279758734736764E-003
 -5.381418703354054E-003
 -6.505649813789434E-003
 -7.619417264467749E-003
 -8.700589595842211E-003
 -9.734760325861796E-003
 -1.071220530256607E-002
 -1.162507488242494E-002
 -1.246470712000538E-002
 -1.321897854990693E-002
 -1.386972860516815E-002
 -1.439032485236314E-002
 -1.955977915067298E-003
 -2.907849876472835E-003
 -3.992283518430378E-003
 -5.144423081344816E-003
 -6.316367623380703E-003
 -7.475727306698189E-003
 -8.601967282008504E-003
 -9.682562483186517E-003
 -1.071012036357642E-002
 -1.168043202955413E-002
 -1.259085196645852E-002
 -1.343848178111937E-002
 -1.421797163583723E-002
 -1.491905460413047E-002
 -1.552409822288326E-002
 -2.286591870345565E-003
 -3.521417515717165E-003
 -4.791909425333757E-003
 -6.048613708747215E-003
 -7.265032248799098E-003
 -8.430217326416701E-003
 -9.540284702045427E-003
 -1.059342018014699E-002
 -1.158862528103979E-002
 -1.252615609791431E-002
 -1.340800970189895E-002
 -1.423758798366001E-002
 -1.501821034243307E-002
 -1.575093605422374E-002
 -1.643216345674641E-002
 -2.651382447367666E-003
 -4.185383596873711E-003
 -5.624380568787288E-003
 -6.944133359276433E-003
 -8.155630841786884E-003
 -9.280987383928720E-003
 -1.033657439054847E-002
 -1.132967678596223E-002
 -1.226221424037866E-002
 -1.313563999915519E-002
 -1.395430561044336E-002
 -1.472725811297968E-002
 -1.546850571308319E-002
 -1.619508307064602E-002
 -1.692564257349665E-002
 -3.066534324184439E-003
 -4.900247086452762E-003
 -6.446880017899554E-003
 -7.738695790873497E-003
 -8.859954991798312E-003
 -9.881483535017853E-003
 -1.083752451889744E-002
 -1.173551676709105E-002
 -1.257340381028315E-002
 -1.334815762194598E-002
 -1.406138332422642E-002
 -1.472493929745312E-002
 -1.536381972426903E-002
 -1.601804414089017E-002
 -1.674006730240049E-002
 -3.565216787839015E-003
 -5.656925105282143E-003
 -7.147242835066723E-003
 -8.224319752206166E-003
 -9.124778325049005E-003
 -9.971247179087437E-003
 -1.078357167695848E-002
 -1.155420850240775E-002
 -1.226821541968024E-002
 -1.291156867276407E-002
 -1.347580066687255E-002
 -1.396511428187154E-002
 -1.441421283741679E-002
 -1.488855600815961E-002
 -1.549654898951536E-002
 -4.191856804809423E-003
 -6.389099679210796E-003
 -7.350749914351939E-003
 -7.873071811606531E-003
 -8.438871691996716E-003
 -9.057103477763730E-003
 -9.695334069391555E-003
 -1.031551394002106E-002
 -1.088481923473369E-002
 -1.137484457601470E-002
 -1.176083422017009E-002
 -1.202571893972246E-002
 -1.217688765086359E-002
 -1.233047892540957E-002
 -1.264113680110109E-002
 -5.352181919172592E-003
 -6.374806252901910E-003
 -5.571929759671867E-003
 -5.460209579347584E-003
 -5.686507336783899E-003
 -6.084999482887299E-003
 -6.550251988202287E-003
 -7.017983084129228E-003
 -7.442916291231423E-003
 -7.787485987338331E-003
 -8.014151323268307E-003
 -8.080086125719409E-003
 -7.939259599403729E-003
 -7.567874320053574E-003
 -7.402215516211613E-003
 -1.323798809660230E-004
  3.460296577298829E-003
  3.981771537674264E-003
  3.756750914334357E-003
  3.292542896517143E-003
  2.755266232900428E-003
  2.213794266058988E-003
  1.701740200289747E-003
  1.239390162267503E-003
  8.440743794270547E-004
  5.377040329861305E-004
  3.563231702858455E-004
  3.671884905985703E-004
  7.175532939569061E-004
  1.651719477267318E-003
SCALARS elementIsPlast double 
LOOKUP_TABLE default
  0.000000000000000E+000
  0.000000000000000E+000
  0.000000000000000E+000
  0.000000000000000E+000
  0.000000000000000E+000
  0.000000000000000E+000
  0.000000000000000E+000
  0.000000000000000E+000
  0.000000000000000E+000
  0.000000000000000E+000
  0.000000000000000E+000
  0.000000000000000E+000
  0.000000000000000E+000
  0.000000000000000E+000
  0.000000000000000E+000
  0.000000000000000E+000
  0.000000000000000E+000
  0.000000000000000E+000
  0.000000000000000E+000
  0.000000000000000E+000
  0.000000000000000E+000
  0.000000000000000E+000
  0.000000000000000E+000
  0.000000000000000E+000
  0.000000000000000E+000
  0.000000000000000E+000
  0.000000000000000E+000
  0.000000000000000E+000
  0.000000000000000E+000
  0.000000000000000E+000
  0.000000000000000E+000
  0.000000000000000E+000
  0.000000000000000E+000
  0.000000000000000E+000
  0.000000000000000E+000
  0.000000000000000E+000
  0.000000000000000E+000
  0.000000000000000E+000
  0.000000000000000E+000
  0.000000000000000E+000
  0.000000000000000E+000
  0.000000000000000E+000
  0.000000000000000E+000
  0.000000000000000E+000
  0.000000000000000E+000
  0.000000000000000E+000
  0.000000000000000E+000
  0.000000000000000E+000
  0.000000000000000E+000
  0.000000000000000E+000
  0.000000000000000E+000
  0.000000000000000E+000
  0.000000000000000E+000
  0.000000000000000E+000
  0.000000000000000E+000
  0.000000000000000E+000
  0.000000000000000E+000
  0.000000000000000E+000
  0.000000000000000E+000
  0.000000000000000E+000
  0.000000000000000E+000
  0.000000000000000E+000
  0.000000000000000E+000
  0.000000000000000E+000
  0.000000000000000E+000
  0.000000000000000E+000
  0.000000000000000E+000
  0.000000000000000E+000
  0.000000000000000E+000
  0.000000000000000E+000
  0.000000000000000E+000
  0.000000000000000E+000
  0.000000000000000E+000
  0.000000000000000E+000
  0.000000000000000E+000
  0.000000000000000E+000
  0.000000000000000E+000
  0.000000000000000E+000
  0.000000000000000E+000
  0.000000000000000E+000
  0.000000000000000E+000
  0.000000000000000E+000
  0.000000000000000E+000
  0.000000000000000E+000
  0.000000000000000E+000
  0.000000000000000E+000
  0.000000000000000E+000
  0.000000000000000E+000
  0.000000000000000E+000
  0.000000000000000E+000
  0.000000000000000E+000
  0.000000000000000E+000
  0.000000000000000E+000
  0.000000000000000E+000
  0.000000000000000E+000
  0.000000000000000E+000
  0.000000000000000E+000
  0.000000000000000E+000
  0.000000000000000E+000
  0.000000000000000E+000
  0.000000000000000E+000
  0.000000000000000E+000
  0.000000000000000E+000
  0.000000000000000E+000
  0.000000000000000E+000
  0.000000000000000E+000
  0.000000000000000E+000
  0.000000000000000E+000
  0.000000000000000E+000
  0.000000000000000E+000
  0.000000000000000E+000
  0.000000000000000E+000
  0.000000000000000E+000
  0.000000000000000E+000
  0.000000000000000E+000
  0.000000000000000E+000
  0.000000000000000E+000
  0.000000000000000E+000
  0.000000000000000E+000
  0.000000000000000E+000
  0.000000000000000E+000
  0.000000000000000E+000
  0.000000000000000E+000
  0.000000000000000E+000
  0.000000000000000E+000
  0.000000000000000E+000
  0.000000000000000E+000
  0.000000000000000E+000
  0.000000000000000E+000
  0.000000000000000E+000
  0.000000000000000E+000
  0.000000000000000E+000
  0.000000000000000E+000
  0.000000000000000E+000
  0.000000000000000E+000
  0.000000000000000E+000
  0.000000000000000E+000
  0.000000000000000E+000
  0.000000000000000E+000
  0.000000000000000E+000
  0.000000000000000E+000
  0.000000000000000E+000
  0.000000000000000E+000
  0.000000000000000E+000
  0.000000000000000E+000
  0.000000000000000E+000
  0.000000000000000E+000
  0.000000000000000E+000
  0.000000000000000E+000
  0.000000000000000E+000
  0.000000000000000E+000
  0.000000000000000E+000
  0.000000000000000E+000
  0.000000000000000E+000
  0.000000000000000E+000
  0.000000000000000E+000
  0.000000000000000E+000
  0.000000000000000E+000
  0.000000000000000E+000
  0.000000000000000E+000
  0.000000000000000E+000
  0.000000000000000E+000
  0.000000000000000E+000
  0.000000000000000E+000
  0.000000000000000E+000
  0.000000000000000E+000
  0.000000000000000E+000
  0.000000000000000E+000
  0.000000000000000E+000
  0.000000000000000E+000
  0.000000000000000E+000
  0.000000000000000E+000
  0.000000000000000E+000
  0.000000000000000E+000
  0.000000000000000E+000
  0.000000000000000E+000
  0.000000000000000E+000
  0.000000000000000E+000
  0.000000000000000E+000
  0.000000000000000E+000
  0.000000000000000E+000
  0.000000000000000E+000
  0.000000000000000E+000
  0.000000000000000E+000
  0.000000000000000E+000
  0.000000000000000E+000
  0.000000000000000E+000
  0.000000000000000E+000
  0.000000000000000E+000
  0.000000000000000E+000
  0.000000000000000E+000
  0.000000000000000E+000
  0.000000000000000E+000
  0.000000000000000E+000
  0.000000000000000E+000
  0.000000000000000E+000
  0.000000000000000E+000
  0.000000000000000E+000
  0.000000000000000E+000
  0.000000000000000E+000
  0.000000000000000E+000
  0.000000000000000E+000
  0.000000000000000E+000
  0.000000000000000E+000
  0.000000000000000E+000
  0.000000000000000E+000
  0.000000000000000E+000
  0.000000000000000E+000
  0.000000000000000E+000
  0.000000000000000E+000
  0.000000000000000E+000
  0.000000000000000E+000
  0.000000000000000E+000
  0.000000000000000E+000
  0.000000000000000E+000
  0.000000000000000E+000
  0.000000000000000E+000
  0.000000000000000E+000
  0.000000000000000E+000
  0.000000000000000E+000
  0.000000000000000E+000
  0.000000000000000E+000
  0.000000000000000E+000
  0.000000000000000E+000
  0.000000000000000E+000
  0.000000000000000E+000
  0.000000000000000E+000
  0.000000000000000E+000
  0.000000000000000E+000
  0.000000000000000E+000
  0.000000000000000E+000
  0.000000000000000E+000
  0.000000000000000E+000
  0.000000000000000E+000
  0.000000000000000E+000
  0.000000000000000E+000
  0.000000000000000E+000
  0.000000000000000E+000
  0.000000000000000E+000
  0.000000000000000E+000
  0.000000000000000E+000
  0.000000000000000E+000
  0.000000000000000E+000
  0.000000000000000E+000
  0.000000000000000E+000
  0.000000000000000E+000
  0.000000000000000E+000
  0.000000000000000E+000
  0.000000000000000E+000
  0.000000000000000E+000
  0.000000000000000E+000
  0.000000000000000E+000
  0.000000000000000E+000
  0.000000000000000E+000
  0.000000000000000E+000
  0.000000000000000E+000
  0.000000000000000E+000
  0.000000000000000E+000
  0.000000000000000E+000
  0.000000000000000E+000
  0.000000000000000E+000
  0.000000000000000E+000
  0.000000000000000E+000
  0.000000000000000E+000
  0.000000000000000E+000
  0.000000000000000E+000
  0.000000000000000E+000
  0.000000000000000E+000
  0.000000000000000E+000
  0.000000000000000E+000
  0.000000000000000E+000
  0.000000000000000E+000
  0.000000000000000E+000
  0.000000000000000E+000
  0.000000000000000E+000
  0.000000000000000E+000
  0.000000000000000E+000
  0.000000000000000E+000
  0.000000000000000E+000
  0.000000000000000E+000
  0.000000000000000E+000
  0.000000000000000E+000
  0.000000000000000E+000
  0.000000000000000E+000
  0.000000000000000E+000
  0.000000000000000E+000
  0.000000000000000E+000
  0.000000000000000E+000
  0.000000000000000E+000
  0.000000000000000E+000
  0.000000000000000E+000
  0.000000000000000E+000
  0.000000000000000E+000
  0.000000000000000E+000
  0.000000000000000E+000
  0.000000000000000E+000
  0.000000000000000E+000
  0.000000000000000E+000
  0.000000000000000E+000
  0.000000000000000E+000
  0.000000000000000E+000
  0.000000000000000E+000
  0.000000000000000E+000
  0.000000000000000E+000
  0.000000000000000E+000
  0.000000000000000E+000
  0.000000000000000E+000
  0.000000000000000E+000
  0.000000000000000E+000
  0.000000000000000E+000
  0.000000000000000E+000
  0.000000000000000E+000
  0.000000000000000E+000
  0.000000000000000E+000
  0.000000000000000E+000
  0.000000000000000E+000
  0.000000000000000E+000
  0.000000000000000E+000
  0.000000000000000E+000
  0.000000000000000E+000
  0.000000000000000E+000
  0.000000000000000E+000
  0.000000000000000E+000
  0.000000000000000E+000
  0.000000000000000E+000
  0.000000000000000E+000
  0.000000000000000E+000
  0.000000000000000E+000
  0.000000000000000E+000
  0.000000000000000E+000
  0.000000000000000E+000
  0.000000000000000E+000
  0.000000000000000E+000
  0.000000000000000E+000
  0.000000000000000E+000
  0.000000000000000E+000
  0.000000000000000E+000
  0.000000000000000E+000
  0.000000000000000E+000
  0.000000000000000E+000
  0.000000000000000E+000
  0.000000000000000E+000
  0.000000000000000E+000
  0.000000000000000E+000
  0.000000000000000E+000
  0.000000000000000E+000
  0.000000000000000E+000
  0.000000000000000E+000
  0.000000000000000E+000
  0.000000000000000E+000
  0.000000000000000E+000
  0.000000000000000E+000
  0.000000000000000E+000
  0.000000000000000E+000
  0.000000000000000E+000
  0.000000000000000E+000
  0.000000000000000E+000
  0.000000000000000E+000
  0.000000000000000E+000
  0.000000000000000E+000
  0.000000000000000E+000
  0.000000000000000E+000
  0.000000000000000E+000
  0.000000000000000E+000
  0.000000000000000E+000
  0.000000000000000E+000
  0.000000000000000E+000
  0.000000000000000E+000
  0.000000000000000E+000
  0.000000000000000E+000
  0.000000000000000E+000
  0.000000000000000E+000
  0.000000000000000E+000
  0.000000000000000E+000
  0.000000000000000E+000
  0.000000000000000E+000
  0.000000000000000E+000
  0.000000000000000E+000
  0.000000000000000E+000
  0.000000000000000E+000
  0.000000000000000E+000
  0.000000000000000E+000
  0.000000000000000E+000
  0.000000000000000E+000
  0.000000000000000E+000
  0.000000000000000E+000
  0.000000000000000E+000
  0.000000000000000E+000
  0.000000000000000E+000
  0.000000000000000E+000
  0.000000000000000E+000
  0.000000000000000E+000
  0.000000000000000E+000
  0.000000000000000E+000
  0.000000000000000E+000
  0.000000000000000E+000
  0.000000000000000E+000
  0.000000000000000E+000
  0.000000000000000E+000
  0.000000000000000E+000
  0.000000000000000E+000
  0.000000000000000E+000
  0.000000000000000E+000
  0.000000000000000E+000
  0.000000000000000E+000
  0.000000000000000E+000
  0.000000000000000E+000
  0.000000000000000E+000
  0.000000000000000E+000
  0.000000000000000E+000
  0.000000000000000E+000
  0.000000000000000E+000
  0.000000000000000E+000
  0.000000000000000E+000
  0.000000000000000E+000
  0.000000000000000E+000
  0.000000000000000E+000
  0.000000000000000E+000
  0.000000000000000E+000
  0.000000000000000E+000
  0.000000000000000E+000
  0.000000000000000E+000
  0.000000000000000E+000
  0.000000000000000E+000
  0.000000000000000E+000
  0.000000000000000E+000
  0.000000000000000E+000
  0.000000000000000E+000
  0.000000000000000E+000
  0.000000000000000E+000
  0.000000000000000E+000
  0.000000000000000E+000
  0.000000000000000E+000
  0.000000000000000E+000
  0.000000000000000E+000
  0.000000000000000E+000
  0.000000000000000E+000
  0.000000000000000E+000
  0.000000000000000E+000
  0.000000000000000E+000
  0.000000000000000E+000
  0.000000000000000E+000
  0.000000000000000E+000
  0.000000000000000E+000
  0.000000000000000E+000
  0.000000000000000E+000
  0.000000000000000E+000
  0.000000000000000E+000
  0.000000000000000E+000
  0.000000000000000E+000
SCALARS poroL double 
LOOKUP_TABLE default
  0.264496948669648     
  0.262225853723480     
  0.261193633420588     
  0.260631036804259     
  0.260290994091412     
  0.260061313723728     
  0.259888498799956     
  0.259744683320652     
  0.259612602278130     
  0.259476989565367     
  0.259317398379524     
  0.259098427746327     
  0.258749698639548     
  0.258123437697944     
  0.256720500732125     
  0.259548131455586     
  0.258590865913443     
  0.257842815219979     
  0.257377987684025     
  0.257067900713121     
  0.256844784033154     
  0.256670152318948     
  0.256522176758588     
  0.256386418229815     
  0.256249942018843     
  0.256096320502232     
  0.255899309560629     
  0.255616152996949     
  0.255163891972558     
  0.254663321557058     
  0.255822860183368     
  0.255634375574092     
  0.255285125343095     
  0.254960284456993     
  0.254700144964835     
  0.254489996566120     
  0.254314539301077     
  0.254161611692656     
  0.254021666361685     
  0.253885863488122     
  0.253744282090313     
  0.253585369526788     
  0.253396982216805     
  0.253206864218400     
  0.253091238623314     
  0.253588087642651     
  0.253675204223827     
  0.253535687694876     
  0.253318760031545     
  0.253097198603761     
  0.252894984874083     
  0.252714849312442     
  0.252553679270112     
  0.252406814144513     
  0.252269557196077     
  0.252138273152985     
  0.252012736024039     
  0.251905707207701     
  0.251852299735437     
  0.251923324504858     
  0.252499291484359     
  0.252594445938422     
  0.252499208027536     
  0.252314287694888     
  0.252102273287266     
  0.251894142507843     
  0.251701506722607     
  0.251526572826384     
  0.251368030567455     
  0.251224092586604     
  0.251094958763148     
  0.250986632570726     
  0.250915976425575     
  0.250917220196510     
  0.251044392047793     
  0.252151512828006     
  0.252135101005609     
  0.251988617111190     
  0.251775851727970     
  0.251541269369680     
  0.251310545077659     
  0.251095529236031     
  0.250899904038103     
  0.250723606923273     
  0.250565993215920     
  0.250428562734621     
  0.250317979065312     
  0.250249739027815     
  0.250251436193020     
  0.250364253265263     
  0.252228246838702     
  0.252060748104683     
  0.251818341488688     
  0.251541750775307     
  0.251260248844744     
  0.250991549158047     
  0.250744109696863     
  0.250520346264148     
  0.250319668027047     
  0.250141034282010     
  0.249985254835551     
  0.249857378384332     
  0.249769198102865     
  0.249741505917430     
  0.249805137225382     
  0.252528021340177     
  0.252202210535073     
  0.251845668542616     
  0.251485642658764     
  0.251140801808296     
  0.250821761576903     
  0.250532699600116     
  0.250273490932966     
  0.250041849171177     
  0.249835270478069     
  0.249652844656984     
  0.249497073959897     
  0.249375741077172     
  0.249303604006337     
  0.249303446012282     
  0.252936617039607     
  0.252452676807799     
  0.251973680601223     
  0.251518705938375     
  0.251099177785735     
  0.250720030128790     
  0.250381291618841     
  0.250079828018997     
  0.249811015639313     
  0.249570264983546     
  0.249354442437711     
  0.249163285485263     
  0.249000849722884     
  0.248876886062054     
  0.248807863626237     
  0.253390799878464     
  0.252746614054455     
  0.252138618861596     
  0.251580129014575     
  0.251077145954515     
  0.250629894524471     
  0.250234509662487     
  0.249884665545654     
  0.249573034646484     
  0.249292567878493     
  0.249037661531451     
  0.248805299053561     
  0.248596218615505     
  0.248416060409848     
  0.248276314224981     
  0.253850627012159     
  0.253039812603645     
  0.252295324643336     
  0.251625494804108     
  0.251031589463160     
  0.250509514518356     
  0.250051574693285     
  0.249648077777918     
  0.249288703374174     
  0.248963656695221     
  0.248664684842716     
  0.248386045219198     
  0.248125484699966     
  0.247885214804293     
  0.247672761158266     
  0.254282326605265     
  0.253295334471492     
  0.252405874936730     
  0.251617250684269     
  0.250925995934358     
  0.250323635441462     
  0.249798468403538     
  0.249337163565167     
  0.248926089627292     
  0.248552407710900     
  0.248205005647829     
  0.247875363275213     
  0.247558411269412     
  0.247253386552717     
  0.246964601091910     
  0.254648741260775     
  0.253474821213887     
  0.252431978027211     
  0.251518041133748     
  0.250724438086126     
  0.250037956661370     
  0.249442521320840     
  0.248920774595051     
  0.248455386583033     
  0.248030117277363     
  0.247630709082020     
  0.247245696899870     
  0.246867200489729     
  0.246491714518973     
  0.246120842164473     
  0.254904122184214     
  0.253533347210017     
  0.252330178489562     
  0.251286337014343     
  0.250387570329546     
  0.249615398745722     
  0.248948869061946     
  0.248366115041653     
  0.247845647822970     
  0.247367398456937     
  0.246913588106280     
  0.246469513387508     
  0.246024315359281     
  0.245571758951937     
  0.245110992640054     
  0.254991119163253     
  0.253416279138342     
  0.252048800019909     
  0.250873565273867     
  0.249869964854029     
  0.249013621985103     
  0.248278120211179     
  0.247636537012398     
  0.247062708330672     
  0.246532246690329     
  0.246023391248885     
  0.245517782963747     
  0.245001242168503     
  0.244464588898857     
  0.243904497001491     
  0.254838781335203     
  0.253057159615704     
  0.251525844299952     
  0.250222102988434     
  0.249118232076673     
  0.248183272425437     
  0.247384714805996     
  0.246690001725623     
  0.246067751141651     
  0.245488730284273     
  0.244926668978255     
  0.244359020883289     
  0.243767767333519     
  0.243140322816757     
  0.242470553791622     
  0.254360971149518     
  0.252376051603229     
  0.250687350555793     
  0.249263705978621     
  0.248069539928225     
  0.247066590060105     
  0.246215610182070     
  0.245477835570839     
  0.244816139224169     
  0.244195920611513     
  0.243585840184902     
  0.242958537818338     
  0.242291460301732     
  0.241567884260851     
  0.240778168651285     
  0.253454852571075     
  0.251277994918287     
  0.249445891047275     
  0.247918080482138     
  0.246650266450981     
  0.245596125436184     
  0.244709038603784     
  0.243943514774492     
  0.243256232946923     
  0.242606772583768     
  0.241958188767535     
  0.241277621739842     
  0.240537115556402     
  0.239714772698622     
  0.238796305623659     
  0.251999148153666     
  0.249651274622322     
  0.247698931568086     
  0.246091361011608     
  0.244774573532058     
  0.243693361403491     
  0.242793126953289     
  0.242021252006377     
  0.241327945794525     
  0.240666690571067     
  0.239994517312656     
  0.239272384085187     
  0.238465908871368     
  0.237546643801788     
  0.236493986071565     
  0.249851735278199     
  0.247365123866055     
  0.245326745313457     
  0.243674240354371     
  0.242342683349072     
  0.241267030865300     
  0.240384156161785     
  0.239634135235923     
  0.238960756474368     
  0.238311469699228     
  0.237637131291593     
  0.236891944967598     
  0.236033965435417     
  0.235026441203840     
  0.233840140404257     
  0.246845882667071     
  0.244266292866756     
  0.242189442983165     
  0.240539416115198     
  0.239238576453185     
  0.238210857667081     
  0.237384161427380     
  0.236691475414822     
  0.236070784844323     
  0.235464177048459     
  0.234816691235840     
  0.234075493707002     
  0.233189907490603     
  0.232112712231770     
  0.230802935694003     
  0.242783961768077     
  0.240173574860836     
  0.238122452586389     
  0.236537857150463     
  0.235326692695918     
  0.234400298291958     
  0.233677398600236     
  0.233084817853647     
  0.232556315852184     
  0.232030295060237     
  0.231447214007929     
  0.230747500530629     
  0.229870708121253     
  0.228756543306029     
  0.227348168457189     
  0.237426625906041     
  0.234868776762587     
  0.232929368003304     
  0.231493095444130     
  0.230446932252247     
  0.229687535866663     
  0.229124825938870     
  0.228681662908300     
  0.228290729778486     
  0.227890008552793     
  0.227418037226093     
  0.226809880844254     
  0.225994728132057     
  0.224896196504077     
  0.223436092844581     
  0.230473837339028     
  0.228081407522557     
  0.226370313557944     
  0.225192138182265     
  0.224406624434199     
  0.223893230770113     
  0.223554900976383     
  0.223315086862011     
  0.223110970977319     
  0.222885688118977     
  0.222580712201207     
  0.222128993619663     
  0.221449954450334     
  0.220447822984120     
  0.219015681872247     
  0.221530261285155     
  0.219461940382117     
  0.218142190827796     
  0.217370273633317     
  0.216966610060017     
  0.216791608473768     
  0.216747021607270     
  0.216765544937834     
  0.216797976484181     
  0.216801062569757     
  0.216727054634303     
  0.216513616051293     
  0.216073541333355     
  0.215289222056958     
  0.214014518907909     
  0.210039586890054     
  0.208531096972942     
  0.207843698917681     
  0.207683622746271     
  0.207814019027187     
  0.208080704756552     
  0.208398627009706     
  0.208726764475775     
  0.209041793385328     
  0.209324940882527     
  0.209551417513954     
  0.209675642238397     
  0.209615110835753     
  0.209229638693607     
  0.208321086478194     
  0.195135244942718     
  0.194580594833850     
  0.194905354376602     
  0.195651626622073     
  0.196503294033590     
  0.197312074636901     
  0.198054294824451     
  0.198736232192386     
  0.199374041956395     
  0.199984661898355     
  0.200580236879279     
  0.201158627131200     
  0.201662583251029     
  0.201952269297660     
  0.201749723776907     
  0.175314895484443     
  0.176400193218153     
  0.178430025269866     
  0.180533647928178     
  0.182271025480461     
  0.183711836584433     
  0.184934931426202     
  0.186015758363785     
  0.187019058080661     
  0.188005146774021     
  0.189036531204054     
  0.190179079276341     
  0.191499601463035     
  0.192867406130869     
  0.193977219217347     
  0.146707681297446     
  0.151533168407675     
  0.156915148821187     
  0.160639714604198     
  0.163437501645912     
  0.165631208280950     
  0.167443003611844     
  0.169022192567008     
  0.170484625143390     
  0.171936333825147     
  0.173494952104487     
  0.175317499277378     
  0.177626981305362     
  0.180851907051025     
  0.184291171546522     
  9.111583149304242E-002
  0.112660322383361     
  0.122794370404556     
  0.129449083928725     
  0.134227302100751     
  0.137911758652939     
  0.140915823224024     
  0.143501616976343     
  0.145861081877373     
  0.148162451960113     
  0.150587546138556     
  0.153379192092909     
  0.156942226931235     
  0.162049188827378     
  0.171629957030686     
