# vtk DataFile Version 3.0
vtk output
ASCII
DATASET UNSTRUCTURED_GRID
POINTS       496 double 
  0.00000000E+00  3.00000000E+02  0.00000000E+00
  0.00000000E+00  2.80000000E+02  0.00000000E+00
  0.00000000E+00  2.60000000E+02  0.00000000E+00
  0.00000000E+00  2.40000000E+02  0.00000000E+00
  0.00000000E+00  2.20000000E+02  0.00000000E+00
  0.00000000E+00  2.00000000E+02  0.00000000E+00
  0.00000000E+00  1.80000000E+02  0.00000000E+00
  0.00000000E+00  1.60000000E+02  0.00000000E+00
  0.00000000E+00  1.40000000E+02  0.00000000E+00
  0.00000000E+00  1.20000000E+02  0.00000000E+00
  0.00000000E+00  1.00000000E+02  0.00000000E+00
  0.00000000E+00  8.00000000E+01  0.00000000E+00
  0.00000000E+00  6.00000000E+01  0.00000000E+00
  0.00000000E+00  4.00000000E+01  0.00000000E+00
  0.00000000E+00  2.00000000E+01  0.00000000E+00
  0.00000000E+00  4.99600361E-14  0.00000000E+00
  2.00000000E+01  3.00000000E+02  0.00000000E+00
  2.00000000E+01  2.80000000E+02  0.00000000E+00
  2.00000000E+01  2.60000000E+02  0.00000000E+00
  2.00000000E+01  2.40000000E+02  0.00000000E+00
  2.00000000E+01  2.20000000E+02  0.00000000E+00
  2.00000000E+01  2.00000000E+02  0.00000000E+00
  2.00000000E+01  1.80000000E+02  0.00000000E+00
  2.00000000E+01  1.60000000E+02  0.00000000E+00
  2.00000000E+01  1.40000000E+02  0.00000000E+00
  2.00000000E+01  1.20000000E+02  0.00000000E+00
  2.00000000E+01  1.00000000E+02  0.00000000E+00
  2.00000000E+01  8.00000000E+01  0.00000000E+00
  2.00000000E+01  6.00000000E+01  0.00000000E+00
  2.00000000E+01  4.00000000E+01  0.00000000E+00
  2.00000000E+01  2.00000000E+01  0.00000000E+00
  2.00000000E+01  4.99600361E-14  0.00000000E+00
  4.00000000E+01  3.00000000E+02  0.00000000E+00
  4.00000000E+01  2.80000000E+02  0.00000000E+00
  4.00000000E+01  2.60000000E+02  0.00000000E+00
  4.00000000E+01  2.40000000E+02  0.00000000E+00
  4.00000000E+01  2.20000000E+02  0.00000000E+00
  4.00000000E+01  2.00000000E+02  0.00000000E+00
  4.00000000E+01  1.80000000E+02  0.00000000E+00
  4.00000000E+01  1.60000000E+02  0.00000000E+00
  4.00000000E+01  1.40000000E+02  0.00000000E+00
  4.00000000E+01  1.20000000E+02  0.00000000E+00
  4.00000000E+01  1.00000000E+02  0.00000000E+00
  4.00000000E+01  8.00000000E+01  0.00000000E+00
  4.00000000E+01  6.00000000E+01  0.00000000E+00
  4.00000000E+01  4.00000000E+01  0.00000000E+00
  4.00000000E+01  2.00000000E+01  0.00000000E+00
  4.00000000E+01  4.99600361E-14  0.00000000E+00
  6.00000000E+01  3.00000000E+02  0.00000000E+00
  6.00000000E+01  2.80000000E+02  0.00000000E+00
  6.00000000E+01  2.60000000E+02  0.00000000E+00
  6.00000000E+01  2.40000000E+02  0.00000000E+00
  6.00000000E+01  2.20000000E+02  0.00000000E+00
  6.00000000E+01  2.00000000E+02  0.00000000E+00
  6.00000000E+01  1.80000000E+02  0.00000000E+00
  6.00000000E+01  1.60000000E+02  0.00000000E+00
  6.00000000E+01  1.40000000E+02  0.00000000E+00
  6.00000000E+01  1.20000000E+02  0.00000000E+00
  6.00000000E+01  1.00000000E+02  0.00000000E+00
  6.00000000E+01  8.00000000E+01  0.00000000E+00
  6.00000000E+01  6.00000000E+01  0.00000000E+00
  6.00000000E+01  4.00000000E+01  0.00000000E+00
  6.00000000E+01  2.00000000E+01  0.00000000E+00
  6.00000000E+01  4.99600361E-14  0.00000000E+00
  8.00000000E+01  3.00000000E+02  0.00000000E+00
  8.00000000E+01  2.80000000E+02  0.00000000E+00
  8.00000000E+01  2.60000000E+02  0.00000000E+00
  8.00000000E+01  2.40000000E+02  0.00000000E+00
  8.00000000E+01  2.20000000E+02  0.00000000E+00
  8.00000000E+01  2.00000000E+02  0.00000000E+00
  8.00000000E+01  1.80000000E+02  0.00000000E+00
  8.00000000E+01  1.60000000E+02  0.00000000E+00
  8.00000000E+01  1.40000000E+02  0.00000000E+00
  8.00000000E+01  1.20000000E+02  0.00000000E+00
  8.00000000E+01  1.00000000E+02  0.00000000E+00
  8.00000000E+01  8.00000000E+01  0.00000000E+00
  8.00000000E+01  6.00000000E+01  0.00000000E+00
  8.00000000E+01  4.00000000E+01  0.00000000E+00
  8.00000000E+01  2.00000000E+01  0.00000000E+00
  8.00000000E+01  4.99600361E-14  0.00000000E+00
  1.00000000E+02  3.00000000E+02  0.00000000E+00
  1.00000000E+02  2.80000000E+02  0.00000000E+00
  1.00000000E+02  2.60000000E+02  0.00000000E+00
  1.00000000E+02  2.40000000E+02  0.00000000E+00
  1.00000000E+02  2.20000000E+02  0.00000000E+00
  1.00000000E+02  2.00000000E+02  0.00000000E+00
  1.00000000E+02  1.80000000E+02  0.00000000E+00
  1.00000000E+02  1.60000000E+02  0.00000000E+00
  1.00000000E+02  1.40000000E+02  0.00000000E+00
  1.00000000E+02  1.20000000E+02  0.00000000E+00
  1.00000000E+02  1.00000000E+02  0.00000000E+00
  1.00000000E+02  8.00000000E+01  0.00000000E+00
  1.00000000E+02  6.00000000E+01  0.00000000E+00
  1.00000000E+02  4.00000000E+01  0.00000000E+00
  1.00000000E+02  2.00000000E+01  0.00000000E+00
  1.00000000E+02  4.99600361E-14  0.00000000E+00
  1.20000000E+02  3.00000000E+02  0.00000000E+00
  1.20000000E+02  2.80000000E+02  0.00000000E+00
  1.20000000E+02  2.60000000E+02  0.00000000E+00
  1.20000000E+02  2.40000000E+02  0.00000000E+00
  1.20000000E+02  2.20000000E+02  0.00000000E+00
  1.20000000E+02  2.00000000E+02  0.00000000E+00
  1.20000000E+02  1.80000000E+02  0.00000000E+00
  1.20000000E+02  1.60000000E+02  0.00000000E+00
  1.20000000E+02  1.40000000E+02  0.00000000E+00
  1.20000000E+02  1.20000000E+02  0.00000000E+00
  1.20000000E+02  1.00000000E+02  0.00000000E+00
  1.20000000E+02  8.00000000E+01  0.00000000E+00
  1.20000000E+02  6.00000000E+01  0.00000000E+00
  1.20000000E+02  4.00000000E+01  0.00000000E+00
  1.20000000E+02  2.00000000E+01  0.00000000E+00
  1.20000000E+02  4.99600361E-14  0.00000000E+00
  1.40000000E+02  3.00000000E+02  0.00000000E+00
  1.40000000E+02  2.80000000E+02  0.00000000E+00
  1.40000000E+02  2.60000000E+02  0.00000000E+00
  1.40000000E+02  2.40000000E+02  0.00000000E+00
  1.40000000E+02  2.20000000E+02  0.00000000E+00
  1.40000000E+02  2.00000000E+02  0.00000000E+00
  1.40000000E+02  1.80000000E+02  0.00000000E+00
  1.40000000E+02  1.60000000E+02  0.00000000E+00
  1.40000000E+02  1.40000000E+02  0.00000000E+00
  1.40000000E+02  1.20000000E+02  0.00000000E+00
  1.40000000E+02  1.00000000E+02  0.00000000E+00
  1.40000000E+02  8.00000000E+01  0.00000000E+00
  1.40000000E+02  6.00000000E+01  0.00000000E+00
  1.40000000E+02  4.00000000E+01  0.00000000E+00
  1.40000000E+02  2.00000000E+01  0.00000000E+00
  1.40000000E+02  4.99600361E-14  0.00000000E+00
  1.60000000E+02  3.00000000E+02  0.00000000E+00
  1.60000000E+02  2.80000000E+02  0.00000000E+00
  1.60000000E+02  2.60000000E+02  0.00000000E+00
  1.60000000E+02  2.40000000E+02  0.00000000E+00
  1.60000000E+02  2.20000000E+02  0.00000000E+00
  1.60000000E+02  2.00000000E+02  0.00000000E+00
  1.60000000E+02  1.80000000E+02  0.00000000E+00
  1.60000000E+02  1.60000000E+02  0.00000000E+00
  1.60000000E+02  1.40000000E+02  0.00000000E+00
  1.60000000E+02  1.20000000E+02  0.00000000E+00
  1.60000000E+02  1.00000000E+02  0.00000000E+00
  1.60000000E+02  8.00000000E+01  0.00000000E+00
  1.60000000E+02  6.00000000E+01  0.00000000E+00
  1.60000000E+02  4.00000000E+01  0.00000000E+00
  1.60000000E+02  2.00000000E+01  0.00000000E+00
  1.60000000E+02  4.99600361E-14  0.00000000E+00
  1.80000000E+02  3.00000000E+02  0.00000000E+00
  1.80000000E+02  2.80000000E+02  0.00000000E+00
  1.80000000E+02  2.60000000E+02  0.00000000E+00
  1.80000000E+02  2.40000000E+02  0.00000000E+00
  1.80000000E+02  2.20000000E+02  0.00000000E+00
  1.80000000E+02  2.00000000E+02  0.00000000E+00
  1.80000000E+02  1.80000000E+02  0.00000000E+00
  1.80000000E+02  1.60000000E+02  0.00000000E+00
  1.80000000E+02  1.40000000E+02  0.00000000E+00
  1.80000000E+02  1.20000000E+02  0.00000000E+00
  1.80000000E+02  1.00000000E+02  0.00000000E+00
  1.80000000E+02  8.00000000E+01  0.00000000E+00
  1.80000000E+02  6.00000000E+01  0.00000000E+00
  1.80000000E+02  4.00000000E+01  0.00000000E+00
  1.80000000E+02  2.00000000E+01  0.00000000E+00
  1.80000000E+02  4.99600361E-14  0.00000000E+00
  2.00000000E+02  3.00000000E+02  0.00000000E+00
  2.00000000E+02  2.80000000E+02  0.00000000E+00
  2.00000000E+02  2.60000000E+02  0.00000000E+00
  2.00000000E+02  2.40000000E+02  0.00000000E+00
  2.00000000E+02  2.20000000E+02  0.00000000E+00
  2.00000000E+02  2.00000000E+02  0.00000000E+00
  2.00000000E+02  1.80000000E+02  0.00000000E+00
  2.00000000E+02  1.60000000E+02  0.00000000E+00
  2.00000000E+02  1.40000000E+02  0.00000000E+00
  2.00000000E+02  1.20000000E+02  0.00000000E+00
  2.00000000E+02  1.00000000E+02  0.00000000E+00
  2.00000000E+02  8.00000000E+01  0.00000000E+00
  2.00000000E+02  6.00000000E+01  0.00000000E+00
  2.00000000E+02  4.00000000E+01  0.00000000E+00
  2.00000000E+02  2.00000000E+01  0.00000000E+00
  2.00000000E+02  4.99600361E-14  0.00000000E+00
  2.20000000E+02  3.00000000E+02  0.00000000E+00
  2.20000000E+02  2.80000000E+02  0.00000000E+00
  2.20000000E+02  2.60000000E+02  0.00000000E+00
  2.20000000E+02  2.40000000E+02  0.00000000E+00
  2.20000000E+02  2.20000000E+02  0.00000000E+00
  2.20000000E+02  2.00000000E+02  0.00000000E+00
  2.20000000E+02  1.80000000E+02  0.00000000E+00
  2.20000000E+02  1.60000000E+02  0.00000000E+00
  2.20000000E+02  1.40000000E+02  0.00000000E+00
  2.20000000E+02  1.20000000E+02  0.00000000E+00
  2.20000000E+02  1.00000000E+02  0.00000000E+00
  2.20000000E+02  8.00000000E+01  0.00000000E+00
  2.20000000E+02  6.00000000E+01  0.00000000E+00
  2.20000000E+02  4.00000000E+01  0.00000000E+00
  2.20000000E+02  2.00000000E+01  0.00000000E+00
  2.20000000E+02  4.99600361E-14  0.00000000E+00
  2.40000000E+02  3.00000000E+02  0.00000000E+00
  2.40000000E+02  2.80000000E+02  0.00000000E+00
  2.40000000E+02  2.60000000E+02  0.00000000E+00
  2.40000000E+02  2.40000000E+02  0.00000000E+00
  2.40000000E+02  2.20000000E+02  0.00000000E+00
  2.40000000E+02  2.00000000E+02  0.00000000E+00
  2.40000000E+02  1.80000000E+02  0.00000000E+00
  2.40000000E+02  1.60000000E+02  0.00000000E+00
  2.40000000E+02  1.40000000E+02  0.00000000E+00
  2.40000000E+02  1.20000000E+02  0.00000000E+00
  2.40000000E+02  1.00000000E+02  0.00000000E+00
  2.40000000E+02  8.00000000E+01  0.00000000E+00
  2.40000000E+02  6.00000000E+01  0.00000000E+00
  2.40000000E+02  4.00000000E+01  0.00000000E+00
  2.40000000E+02  2.00000000E+01  0.00000000E+00
  2.40000000E+02  4.99600361E-14  0.00000000E+00
  2.60000000E+02  3.00000000E+02  0.00000000E+00
  2.60000000E+02  2.80000000E+02  0.00000000E+00
  2.60000000E+02  2.60000000E+02  0.00000000E+00
  2.60000000E+02  2.40000000E+02  0.00000000E+00
  2.60000000E+02  2.20000000E+02  0.00000000E+00
  2.60000000E+02  2.00000000E+02  0.00000000E+00
  2.60000000E+02  1.80000000E+02  0.00000000E+00
  2.60000000E+02  1.60000000E+02  0.00000000E+00
  2.60000000E+02  1.40000000E+02  0.00000000E+00
  2.60000000E+02  1.20000000E+02  0.00000000E+00
  2.60000000E+02  1.00000000E+02  0.00000000E+00
  2.60000000E+02  8.00000000E+01  0.00000000E+00
  2.60000000E+02  6.00000000E+01  0.00000000E+00
  2.60000000E+02  4.00000000E+01  0.00000000E+00
  2.60000000E+02  2.00000000E+01  0.00000000E+00
  2.60000000E+02  4.99600361E-14  0.00000000E+00
  2.80000000E+02  3.00000000E+02  0.00000000E+00
  2.80000000E+02  2.80000000E+02  0.00000000E+00
  2.80000000E+02  2.60000000E+02  0.00000000E+00
  2.80000000E+02  2.40000000E+02  0.00000000E+00
  2.80000000E+02  2.20000000E+02  0.00000000E+00
  2.80000000E+02  2.00000000E+02  0.00000000E+00
  2.80000000E+02  1.80000000E+02  0.00000000E+00
  2.80000000E+02  1.60000000E+02  0.00000000E+00
  2.80000000E+02  1.40000000E+02  0.00000000E+00
  2.80000000E+02  1.20000000E+02  0.00000000E+00
  2.80000000E+02  1.00000000E+02  0.00000000E+00
  2.80000000E+02  8.00000000E+01  0.00000000E+00
  2.80000000E+02  6.00000000E+01  0.00000000E+00
  2.80000000E+02  4.00000000E+01  0.00000000E+00
  2.80000000E+02  2.00000000E+01  0.00000000E+00
  2.80000000E+02  4.99600361E-14  0.00000000E+00
  3.00000000E+02  3.00000000E+02  0.00000000E+00
  3.00000000E+02  2.80000000E+02  0.00000000E+00
  3.00000000E+02  2.60000000E+02  0.00000000E+00
  3.00000000E+02  2.40000000E+02  0.00000000E+00
  3.00000000E+02  2.20000000E+02  0.00000000E+00
  3.00000000E+02  2.00000000E+02  0.00000000E+00
  3.00000000E+02  1.80000000E+02  0.00000000E+00
  3.00000000E+02  1.60000000E+02  0.00000000E+00
  3.00000000E+02  1.40000000E+02  0.00000000E+00
  3.00000000E+02  1.20000000E+02  0.00000000E+00
  3.00000000E+02  1.00000000E+02  0.00000000E+00
  3.00000000E+02  8.00000000E+01  0.00000000E+00
  3.00000000E+02  6.00000000E+01  0.00000000E+00
  3.00000000E+02  4.00000000E+01  0.00000000E+00
  3.00000000E+02  2.00000000E+01  0.00000000E+00
  3.00000000E+02  4.99600361E-14  0.00000000E+00
  3.20000000E+02  3.00000000E+02  0.00000000E+00
  3.20000000E+02  2.80000000E+02  0.00000000E+00
  3.20000000E+02  2.60000000E+02  0.00000000E+00
  3.20000000E+02  2.40000000E+02  0.00000000E+00
  3.20000000E+02  2.20000000E+02  0.00000000E+00
  3.20000000E+02  2.00000000E+02  0.00000000E+00
  3.20000000E+02  1.80000000E+02  0.00000000E+00
  3.20000000E+02  1.60000000E+02  0.00000000E+00
  3.20000000E+02  1.40000000E+02  0.00000000E+00
  3.20000000E+02  1.20000000E+02  0.00000000E+00
  3.20000000E+02  1.00000000E+02  0.00000000E+00
  3.20000000E+02  8.00000000E+01  0.00000000E+00
  3.20000000E+02  6.00000000E+01  0.00000000E+00
  3.20000000E+02  4.00000000E+01  0.00000000E+00
  3.20000000E+02  2.00000000E+01  0.00000000E+00
  3.20000000E+02  4.99600361E-14  0.00000000E+00
  3.40000000E+02  3.00000000E+02  0.00000000E+00
  3.40000000E+02  2.80000000E+02  0.00000000E+00
  3.40000000E+02  2.60000000E+02  0.00000000E+00
  3.40000000E+02  2.40000000E+02  0.00000000E+00
  3.40000000E+02  2.20000000E+02  0.00000000E+00
  3.40000000E+02  2.00000000E+02  0.00000000E+00
  3.40000000E+02  1.80000000E+02  0.00000000E+00
  3.40000000E+02  1.60000000E+02  0.00000000E+00
  3.40000000E+02  1.40000000E+02  0.00000000E+00
  3.40000000E+02  1.20000000E+02  0.00000000E+00
  3.40000000E+02  1.00000000E+02  0.00000000E+00
  3.40000000E+02  8.00000000E+01  0.00000000E+00
  3.40000000E+02  6.00000000E+01  0.00000000E+00
  3.40000000E+02  4.00000000E+01  0.00000000E+00
  3.40000000E+02  2.00000000E+01  0.00000000E+00
  3.40000000E+02  4.99600361E-14  0.00000000E+00
  3.60000000E+02  3.00000000E+02  0.00000000E+00
  3.60000000E+02  2.80000000E+02  0.00000000E+00
  3.60000000E+02  2.60000000E+02  0.00000000E+00
  3.60000000E+02  2.40000000E+02  0.00000000E+00
  3.60000000E+02  2.20000000E+02  0.00000000E+00
  3.60000000E+02  2.00000000E+02  0.00000000E+00
  3.60000000E+02  1.80000000E+02  0.00000000E+00
  3.60000000E+02  1.60000000E+02  0.00000000E+00
  3.60000000E+02  1.40000000E+02  0.00000000E+00
  3.60000000E+02  1.20000000E+02  0.00000000E+00
  3.60000000E+02  1.00000000E+02  0.00000000E+00
  3.60000000E+02  8.00000000E+01  0.00000000E+00
  3.60000000E+02  6.00000000E+01  0.00000000E+00
  3.60000000E+02  4.00000000E+01  0.00000000E+00
  3.60000000E+02  2.00000000E+01  0.00000000E+00
  3.60000000E+02  4.99600361E-14  0.00000000E+00
  3.80000000E+02  3.00000000E+02  0.00000000E+00
  3.80000000E+02  2.80000000E+02  0.00000000E+00
  3.80000000E+02  2.60000000E+02  0.00000000E+00
  3.80000000E+02  2.40000000E+02  0.00000000E+00
  3.80000000E+02  2.20000000E+02  0.00000000E+00
  3.80000000E+02  2.00000000E+02  0.00000000E+00
  3.80000000E+02  1.80000000E+02  0.00000000E+00
  3.80000000E+02  1.60000000E+02  0.00000000E+00
  3.80000000E+02  1.40000000E+02  0.00000000E+00
  3.80000000E+02  1.20000000E+02  0.00000000E+00
  3.80000000E+02  1.00000000E+02  0.00000000E+00
  3.80000000E+02  8.00000000E+01  0.00000000E+00
  3.80000000E+02  6.00000000E+01  0.00000000E+00
  3.80000000E+02  4.00000000E+01  0.00000000E+00
  3.80000000E+02  2.00000000E+01  0.00000000E+00
  3.80000000E+02  4.99600361E-14  0.00000000E+00
  4.00000000E+02  3.00000000E+02  0.00000000E+00
  4.00000000E+02  2.80000000E+02  0.00000000E+00
  4.00000000E+02  2.60000000E+02  0.00000000E+00
  4.00000000E+02  2.40000000E+02  0.00000000E+00
  4.00000000E+02  2.20000000E+02  0.00000000E+00
  4.00000000E+02  2.00000000E+02  0.00000000E+00
  4.00000000E+02  1.80000000E+02  0.00000000E+00
  4.00000000E+02  1.60000000E+02  0.00000000E+00
  4.00000000E+02  1.40000000E+02  0.00000000E+00
  4.00000000E+02  1.20000000E+02  0.00000000E+00
  4.00000000E+02  1.00000000E+02  0.00000000E+00
  4.00000000E+02  8.00000000E+01  0.00000000E+00
  4.00000000E+02  6.00000000E+01  0.00000000E+00
  4.00000000E+02  4.00000000E+01  0.00000000E+00
  4.00000000E+02  2.00000000E+01  0.00000000E+00
  4.00000000E+02  4.99600361E-14  0.00000000E+00
  4.20000000E+02  3.00000000E+02  0.00000000E+00
  4.20000000E+02  2.80000000E+02  0.00000000E+00
  4.20000000E+02  2.60000000E+02  0.00000000E+00
  4.20000000E+02  2.40000000E+02  0.00000000E+00
  4.20000000E+02  2.20000000E+02  0.00000000E+00
  4.20000000E+02  2.00000000E+02  0.00000000E+00
  4.20000000E+02  1.80000000E+02  0.00000000E+00
  4.20000000E+02  1.60000000E+02  0.00000000E+00
  4.20000000E+02  1.40000000E+02  0.00000000E+00
  4.20000000E+02  1.20000000E+02  0.00000000E+00
  4.20000000E+02  1.00000000E+02  0.00000000E+00
  4.20000000E+02  8.00000000E+01  0.00000000E+00
  4.20000000E+02  6.00000000E+01  0.00000000E+00
  4.20000000E+02  4.00000000E+01  0.00000000E+00
  4.20000000E+02  2.00000000E+01  0.00000000E+00
  4.20000000E+02  4.99600361E-14  0.00000000E+00
  4.40000000E+02  3.00000000E+02  0.00000000E+00
  4.40000000E+02  2.80000000E+02  0.00000000E+00
  4.40000000E+02  2.60000000E+02  0.00000000E+00
  4.40000000E+02  2.40000000E+02  0.00000000E+00
  4.40000000E+02  2.20000000E+02  0.00000000E+00
  4.40000000E+02  2.00000000E+02  0.00000000E+00
  4.40000000E+02  1.80000000E+02  0.00000000E+00
  4.40000000E+02  1.60000000E+02  0.00000000E+00
  4.40000000E+02  1.40000000E+02  0.00000000E+00
  4.40000000E+02  1.20000000E+02  0.00000000E+00
  4.40000000E+02  1.00000000E+02  0.00000000E+00
  4.40000000E+02  8.00000000E+01  0.00000000E+00
  4.40000000E+02  6.00000000E+01  0.00000000E+00
  4.40000000E+02  4.00000000E+01  0.00000000E+00
  4.40000000E+02  2.00000000E+01  0.00000000E+00
  4.40000000E+02  4.99600361E-14  0.00000000E+00
  4.60000000E+02  3.00000000E+02  0.00000000E+00
  4.60000000E+02  2.80000000E+02  0.00000000E+00
  4.60000000E+02  2.60000000E+02  0.00000000E+00
  4.60000000E+02  2.40000000E+02  0.00000000E+00
  4.60000000E+02  2.20000000E+02  0.00000000E+00
  4.60000000E+02  2.00000000E+02  0.00000000E+00
  4.60000000E+02  1.80000000E+02  0.00000000E+00
  4.60000000E+02  1.60000000E+02  0.00000000E+00
  4.60000000E+02  1.40000000E+02  0.00000000E+00
  4.60000000E+02  1.20000000E+02  0.00000000E+00
  4.60000000E+02  1.00000000E+02  0.00000000E+00
  4.60000000E+02  8.00000000E+01  0.00000000E+00
  4.60000000E+02  6.00000000E+01  0.00000000E+00
  4.60000000E+02  4.00000000E+01  0.00000000E+00
  4.60000000E+02  2.00000000E+01  0.00000000E+00
  4.60000000E+02  4.99600361E-14  0.00000000E+00
  4.80000000E+02  3.00000000E+02  0.00000000E+00
  4.80000000E+02  2.80000000E+02  0.00000000E+00
  4.80000000E+02  2.60000000E+02  0.00000000E+00
  4.80000000E+02  2.40000000E+02  0.00000000E+00
  4.80000000E+02  2.20000000E+02  0.00000000E+00
  4.80000000E+02  2.00000000E+02  0.00000000E+00
  4.80000000E+02  1.80000000E+02  0.00000000E+00
  4.80000000E+02  1.60000000E+02  0.00000000E+00
  4.80000000E+02  1.40000000E+02  0.00000000E+00
  4.80000000E+02  1.20000000E+02  0.00000000E+00
  4.80000000E+02  1.00000000E+02  0.00000000E+00
  4.80000000E+02  8.00000000E+01  0.00000000E+00
  4.80000000E+02  6.00000000E+01  0.00000000E+00
  4.80000000E+02  4.00000000E+01  0.00000000E+00
  4.80000000E+02  2.00000000E+01  0.00000000E+00
  4.80000000E+02  4.99600361E-14  0.00000000E+00
  5.00000000E+02  3.00000000E+02  0.00000000E+00
  5.00000000E+02  2.80000000E+02  0.00000000E+00
  5.00000000E+02  2.60000000E+02  0.00000000E+00
  5.00000000E+02  2.40000000E+02  0.00000000E+00
  5.00000000E+02  2.20000000E+02  0.00000000E+00
  5.00000000E+02  2.00000000E+02  0.00000000E+00
  5.00000000E+02  1.80000000E+02  0.00000000E+00
  5.00000000E+02  1.60000000E+02  0.00000000E+00
  5.00000000E+02  1.40000000E+02  0.00000000E+00
  5.00000000E+02  1.20000000E+02  0.00000000E+00
  5.00000000E+02  1.00000000E+02  0.00000000E+00
  5.00000000E+02  8.00000000E+01  0.00000000E+00
  5.00000000E+02  6.00000000E+01  0.00000000E+00
  5.00000000E+02  4.00000000E+01  0.00000000E+00
  5.00000000E+02  2.00000000E+01  0.00000000E+00
  5.00000000E+02  4.99600361E-14  0.00000000E+00
  5.20000000E+02  3.00000000E+02  0.00000000E+00
  5.20000000E+02  2.80000000E+02  0.00000000E+00
  5.20000000E+02  2.60000000E+02  0.00000000E+00
  5.20000000E+02  2.40000000E+02  0.00000000E+00
  5.20000000E+02  2.20000000E+02  0.00000000E+00
  5.20000000E+02  2.00000000E+02  0.00000000E+00
  5.20000000E+02  1.80000000E+02  0.00000000E+00
  5.20000000E+02  1.60000000E+02  0.00000000E+00
  5.20000000E+02  1.40000000E+02  0.00000000E+00
  5.20000000E+02  1.20000000E+02  0.00000000E+00
  5.20000000E+02  1.00000000E+02  0.00000000E+00
  5.20000000E+02  8.00000000E+01  0.00000000E+00
  5.20000000E+02  6.00000000E+01  0.00000000E+00
  5.20000000E+02  4.00000000E+01  0.00000000E+00
  5.20000000E+02  2.00000000E+01  0.00000000E+00
  5.20000000E+02  4.99600361E-14  0.00000000E+00
  5.40000000E+02  3.00000000E+02  0.00000000E+00
  5.40000000E+02  2.80000000E+02  0.00000000E+00
  5.40000000E+02  2.60000000E+02  0.00000000E+00
  5.40000000E+02  2.40000000E+02  0.00000000E+00
  5.40000000E+02  2.20000000E+02  0.00000000E+00
  5.40000000E+02  2.00000000E+02  0.00000000E+00
  5.40000000E+02  1.80000000E+02  0.00000000E+00
  5.40000000E+02  1.60000000E+02  0.00000000E+00
  5.40000000E+02  1.40000000E+02  0.00000000E+00
  5.40000000E+02  1.20000000E+02  0.00000000E+00
  5.40000000E+02  1.00000000E+02  0.00000000E+00
  5.40000000E+02  8.00000000E+01  0.00000000E+00
  5.40000000E+02  6.00000000E+01  0.00000000E+00
  5.40000000E+02  4.00000000E+01  0.00000000E+00
  5.40000000E+02  2.00000000E+01  0.00000000E+00
  5.40000000E+02  4.99600361E-14  0.00000000E+00
  5.60000000E+02  3.00000000E+02  0.00000000E+00
  5.60000000E+02  2.80000000E+02  0.00000000E+00
  5.60000000E+02  2.60000000E+02  0.00000000E+00
  5.60000000E+02  2.40000000E+02  0.00000000E+00
  5.60000000E+02  2.20000000E+02  0.00000000E+00
  5.60000000E+02  2.00000000E+02  0.00000000E+00
  5.60000000E+02  1.80000000E+02  0.00000000E+00
  5.60000000E+02  1.60000000E+02  0.00000000E+00
  5.60000000E+02  1.40000000E+02  0.00000000E+00
  5.60000000E+02  1.20000000E+02  0.00000000E+00
  5.60000000E+02  1.00000000E+02  0.00000000E+00
  5.60000000E+02  8.00000000E+01  0.00000000E+00
  5.60000000E+02  6.00000000E+01  0.00000000E+00
  5.60000000E+02  4.00000000E+01  0.00000000E+00
  5.60000000E+02  2.00000000E+01  0.00000000E+00
  5.60000000E+02  4.99600361E-14  0.00000000E+00
  5.80000000E+02  3.00000000E+02  0.00000000E+00
  5.80000000E+02  2.80000000E+02  0.00000000E+00
  5.80000000E+02  2.60000000E+02  0.00000000E+00
  5.80000000E+02  2.40000000E+02  0.00000000E+00
  5.80000000E+02  2.20000000E+02  0.00000000E+00
  5.80000000E+02  2.00000000E+02  0.00000000E+00
  5.80000000E+02  1.80000000E+02  0.00000000E+00
  5.80000000E+02  1.60000000E+02  0.00000000E+00
  5.80000000E+02  1.40000000E+02  0.00000000E+00
  5.80000000E+02  1.20000000E+02  0.00000000E+00
  5.80000000E+02  1.00000000E+02  0.00000000E+00
  5.80000000E+02  8.00000000E+01  0.00000000E+00
  5.80000000E+02  6.00000000E+01  0.00000000E+00
  5.80000000E+02  4.00000000E+01  0.00000000E+00
  5.80000000E+02  2.00000000E+01  0.00000000E+00
  5.80000000E+02  4.99600361E-14  0.00000000E+00
  6.00000000E+02  3.00000000E+02  0.00000000E+00
  6.00000000E+02  2.80000000E+02  0.00000000E+00
  6.00000000E+02  2.60000000E+02  0.00000000E+00
  6.00000000E+02  2.40000000E+02  0.00000000E+00
  6.00000000E+02  2.20000000E+02  0.00000000E+00
  6.00000000E+02  2.00000000E+02  0.00000000E+00
  6.00000000E+02  1.80000000E+02  0.00000000E+00
  6.00000000E+02  1.60000000E+02  0.00000000E+00
  6.00000000E+02  1.40000000E+02  0.00000000E+00
  6.00000000E+02  1.20000000E+02  0.00000000E+00
  6.00000000E+02  1.00000000E+02  0.00000000E+00
  6.00000000E+02  8.00000000E+01  0.00000000E+00
  6.00000000E+02  6.00000000E+01  0.00000000E+00
  6.00000000E+02  4.00000000E+01  0.00000000E+00
  6.00000000E+02  2.00000000E+01  0.00000000E+00
  6.00000000E+02  4.99600361E-14  0.00000000E+00
CELLS       450      2250
         4           0           1          17          16
         4           1           2          18          17
         4           2           3          19          18
         4           3           4          20          19
         4           4           5          21          20
         4           5           6          22          21
         4           6           7          23          22
         4           7           8          24          23
         4           8           9          25          24
         4           9          10          26          25
         4          10          11          27          26
         4          11          12          28          27
         4          12          13          29          28
         4          13          14          30          29
         4          14          15          31          30
         4          16          17          33          32
         4          17          18          34          33
         4          18          19          35          34
         4          19          20          36          35
         4          20          21          37          36
         4          21          22          38          37
         4          22          23          39          38
         4          23          24          40          39
         4          24          25          41          40
         4          25          26          42          41
         4          26          27          43          42
         4          27          28          44          43
         4          28          29          45          44
         4          29          30          46          45
         4          30          31          47          46
         4          32          33          49          48
         4          33          34          50          49
         4          34          35          51          50
         4          35          36          52          51
         4          36          37          53          52
         4          37          38          54          53
         4          38          39          55          54
         4          39          40          56          55
         4          40          41          57          56
         4          41          42          58          57
         4          42          43          59          58
         4          43          44          60          59
         4          44          45          61          60
         4          45          46          62          61
         4          46          47          63          62
         4          48          49          65          64
         4          49          50          66          65
         4          50          51          67          66
         4          51          52          68          67
         4          52          53          69          68
         4          53          54          70          69
         4          54          55          71          70
         4          55          56          72          71
         4          56          57          73          72
         4          57          58          74          73
         4          58          59          75          74
         4          59          60          76          75
         4          60          61          77          76
         4          61          62          78          77
         4          62          63          79          78
         4          64          65          81          80
         4          65          66          82          81
         4          66          67          83          82
         4          67          68          84          83
         4          68          69          85          84
         4          69          70          86          85
         4          70          71          87          86
         4          71          72          88          87
         4          72          73          89          88
         4          73          74          90          89
         4          74          75          91          90
         4          75          76          92          91
         4          76          77          93          92
         4          77          78          94          93
         4          78          79          95          94
         4          80          81          97          96
         4          81          82          98          97
         4          82          83          99          98
         4          83          84         100          99
         4          84          85         101         100
         4          85          86         102         101
         4          86          87         103         102
         4          87          88         104         103
         4          88          89         105         104
         4          89          90         106         105
         4          90          91         107         106
         4          91          92         108         107
         4          92          93         109         108
         4          93          94         110         109
         4          94          95         111         110
         4          96          97         113         112
         4          97          98         114         113
         4          98          99         115         114
         4          99         100         116         115
         4         100         101         117         116
         4         101         102         118         117
         4         102         103         119         118
         4         103         104         120         119
         4         104         105         121         120
         4         105         106         122         121
         4         106         107         123         122
         4         107         108         124         123
         4         108         109         125         124
         4         109         110         126         125
         4         110         111         127         126
         4         112         113         129         128
         4         113         114         130         129
         4         114         115         131         130
         4         115         116         132         131
         4         116         117         133         132
         4         117         118         134         133
         4         118         119         135         134
         4         119         120         136         135
         4         120         121         137         136
         4         121         122         138         137
         4         122         123         139         138
         4         123         124         140         139
         4         124         125         141         140
         4         125         126         142         141
         4         126         127         143         142
         4         128         129         145         144
         4         129         130         146         145
         4         130         131         147         146
         4         131         132         148         147
         4         132         133         149         148
         4         133         134         150         149
         4         134         135         151         150
         4         135         136         152         151
         4         136         137         153         152
         4         137         138         154         153
         4         138         139         155         154
         4         139         140         156         155
         4         140         141         157         156
         4         141         142         158         157
         4         142         143         159         158
         4         144         145         161         160
         4         145         146         162         161
         4         146         147         163         162
         4         147         148         164         163
         4         148         149         165         164
         4         149         150         166         165
         4         150         151         167         166
         4         151         152         168         167
         4         152         153         169         168
         4         153         154         170         169
         4         154         155         171         170
         4         155         156         172         171
         4         156         157         173         172
         4         157         158         174         173
         4         158         159         175         174
         4         160         161         177         176
         4         161         162         178         177
         4         162         163         179         178
         4         163         164         180         179
         4         164         165         181         180
         4         165         166         182         181
         4         166         167         183         182
         4         167         168         184         183
         4         168         169         185         184
         4         169         170         186         185
         4         170         171         187         186
         4         171         172         188         187
         4         172         173         189         188
         4         173         174         190         189
         4         174         175         191         190
         4         176         177         193         192
         4         177         178         194         193
         4         178         179         195         194
         4         179         180         196         195
         4         180         181         197         196
         4         181         182         198         197
         4         182         183         199         198
         4         183         184         200         199
         4         184         185         201         200
         4         185         186         202         201
         4         186         187         203         202
         4         187         188         204         203
         4         188         189         205         204
         4         189         190         206         205
         4         190         191         207         206
         4         192         193         209         208
         4         193         194         210         209
         4         194         195         211         210
         4         195         196         212         211
         4         196         197         213         212
         4         197         198         214         213
         4         198         199         215         214
         4         199         200         216         215
         4         200         201         217         216
         4         201         202         218         217
         4         202         203         219         218
         4         203         204         220         219
         4         204         205         221         220
         4         205         206         222         221
         4         206         207         223         222
         4         208         209         225         224
         4         209         210         226         225
         4         210         211         227         226
         4         211         212         228         227
         4         212         213         229         228
         4         213         214         230         229
         4         214         215         231         230
         4         215         216         232         231
         4         216         217         233         232
         4         217         218         234         233
         4         218         219         235         234
         4         219         220         236         235
         4         220         221         237         236
         4         221         222         238         237
         4         222         223         239         238
         4         224         225         241         240
         4         225         226         242         241
         4         226         227         243         242
         4         227         228         244         243
         4         228         229         245         244
         4         229         230         246         245
         4         230         231         247         246
         4         231         232         248         247
         4         232         233         249         248
         4         233         234         250         249
         4         234         235         251         250
         4         235         236         252         251
         4         236         237         253         252
         4         237         238         254         253
         4         238         239         255         254
         4         240         241         257         256
         4         241         242         258         257
         4         242         243         259         258
         4         243         244         260         259
         4         244         245         261         260
         4         245         246         262         261
         4         246         247         263         262
         4         247         248         264         263
         4         248         249         265         264
         4         249         250         266         265
         4         250         251         267         266
         4         251         252         268         267
         4         252         253         269         268
         4         253         254         270         269
         4         254         255         271         270
         4         256         257         273         272
         4         257         258         274         273
         4         258         259         275         274
         4         259         260         276         275
         4         260         261         277         276
         4         261         262         278         277
         4         262         263         279         278
         4         263         264         280         279
         4         264         265         281         280
         4         265         266         282         281
         4         266         267         283         282
         4         267         268         284         283
         4         268         269         285         284
         4         269         270         286         285
         4         270         271         287         286
         4         272         273         289         288
         4         273         274         290         289
         4         274         275         291         290
         4         275         276         292         291
         4         276         277         293         292
         4         277         278         294         293
         4         278         279         295         294
         4         279         280         296         295
         4         280         281         297         296
         4         281         282         298         297
         4         282         283         299         298
         4         283         284         300         299
         4         284         285         301         300
         4         285         286         302         301
         4         286         287         303         302
         4         288         289         305         304
         4         289         290         306         305
         4         290         291         307         306
         4         291         292         308         307
         4         292         293         309         308
         4         293         294         310         309
         4         294         295         311         310
         4         295         296         312         311
         4         296         297         313         312
         4         297         298         314         313
         4         298         299         315         314
         4         299         300         316         315
         4         300         301         317         316
         4         301         302         318         317
         4         302         303         319         318
         4         304         305         321         320
         4         305         306         322         321
         4         306         307         323         322
         4         307         308         324         323
         4         308         309         325         324
         4         309         310         326         325
         4         310         311         327         326
         4         311         312         328         327
         4         312         313         329         328
         4         313         314         330         329
         4         314         315         331         330
         4         315         316         332         331
         4         316         317         333         332
         4         317         318         334         333
         4         318         319         335         334
         4         320         321         337         336
         4         321         322         338         337
         4         322         323         339         338
         4         323         324         340         339
         4         324         325         341         340
         4         325         326         342         341
         4         326         327         343         342
         4         327         328         344         343
         4         328         329         345         344
         4         329         330         346         345
         4         330         331         347         346
         4         331         332         348         347
         4         332         333         349         348
         4         333         334         350         349
         4         334         335         351         350
         4         336         337         353         352
         4         337         338         354         353
         4         338         339         355         354
         4         339         340         356         355
         4         340         341         357         356
         4         341         342         358         357
         4         342         343         359         358
         4         343         344         360         359
         4         344         345         361         360
         4         345         346         362         361
         4         346         347         363         362
         4         347         348         364         363
         4         348         349         365         364
         4         349         350         366         365
         4         350         351         367         366
         4         352         353         369         368
         4         353         354         370         369
         4         354         355         371         370
         4         355         356         372         371
         4         356         357         373         372
         4         357         358         374         373
         4         358         359         375         374
         4         359         360         376         375
         4         360         361         377         376
         4         361         362         378         377
         4         362         363         379         378
         4         363         364         380         379
         4         364         365         381         380
         4         365         366         382         381
         4         366         367         383         382
         4         368         369         385         384
         4         369         370         386         385
         4         370         371         387         386
         4         371         372         388         387
         4         372         373         389         388
         4         373         374         390         389
         4         374         375         391         390
         4         375         376         392         391
         4         376         377         393         392
         4         377         378         394         393
         4         378         379         395         394
         4         379         380         396         395
         4         380         381         397         396
         4         381         382         398         397
         4         382         383         399         398
         4         384         385         401         400
         4         385         386         402         401
         4         386         387         403         402
         4         387         388         404         403
         4         388         389         405         404
         4         389         390         406         405
         4         390         391         407         406
         4         391         392         408         407
         4         392         393         409         408
         4         393         394         410         409
         4         394         395         411         410
         4         395         396         412         411
         4         396         397         413         412
         4         397         398         414         413
         4         398         399         415         414
         4         400         401         417         416
         4         401         402         418         417
         4         402         403         419         418
         4         403         404         420         419
         4         404         405         421         420
         4         405         406         422         421
         4         406         407         423         422
         4         407         408         424         423
         4         408         409         425         424
         4         409         410         426         425
         4         410         411         427         426
         4         411         412         428         427
         4         412         413         429         428
         4         413         414         430         429
         4         414         415         431         430
         4         416         417         433         432
         4         417         418         434         433
         4         418         419         435         434
         4         419         420         436         435
         4         420         421         437         436
         4         421         422         438         437
         4         422         423         439         438
         4         423         424         440         439
         4         424         425         441         440
         4         425         426         442         441
         4         426         427         443         442
         4         427         428         444         443
         4         428         429         445         444
         4         429         430         446         445
         4         430         431         447         446
         4         432         433         449         448
         4         433         434         450         449
         4         434         435         451         450
         4         435         436         452         451
         4         436         437         453         452
         4         437         438         454         453
         4         438         439         455         454
         4         439         440         456         455
         4         440         441         457         456
         4         441         442         458         457
         4         442         443         459         458
         4         443         444         460         459
         4         444         445         461         460
         4         445         446         462         461
         4         446         447         463         462
         4         448         449         465         464
         4         449         450         466         465
         4         450         451         467         466
         4         451         452         468         467
         4         452         453         469         468
         4         453         454         470         469
         4         454         455         471         470
         4         455         456         472         471
         4         456         457         473         472
         4         457         458         474         473
         4         458         459         475         474
         4         459         460         476         475
         4         460         461         477         476
         4         461         462         478         477
         4         462         463         479         478
         4         464         465         481         480
         4         465         466         482         481
         4         466         467         483         482
         4         467         468         484         483
         4         468         469         485         484
         4         469         470         486         485
         4         470         471         487         486
         4         471         472         488         487
         4         472         473         489         488
         4         473         474         490         489
         4         474         475         491         490
         4         475         476         492         491
         4         476         477         493         492
         4         477         478         494         493
         4         478         479         495         494
CELL_TYPES        450
9
9
9
9
9
9
9
9
9
9
9
9
9
9
9
9
9
9
9
9
9
9
9
9
9
9
9
9
9
9
9
9
9
9
9
9
9
9
9
9
9
9
9
9
9
9
9
9
9
9
9
9
9
9
9
9
9
9
9
9
9
9
9
9
9
9
9
9
9
9
9
9
9
9
9
9
9
9
9
9
9
9
9
9
9
9
9
9
9
9
9
9
9
9
9
9
9
9
9
9
9
9
9
9
9
9
9
9
9
9
9
9
9
9
9
9
9
9
9
9
9
9
9
9
9
9
9
9
9
9
9
9
9
9
9
9
9
9
9
9
9
9
9
9
9
9
9
9
9
9
9
9
9
9
9
9
9
9
9
9
9
9
9
9
9
9
9
9
9
9
9
9
9
9
9
9
9
9
9
9
9
9
9
9
9
9
9
9
9
9
9
9
9
9
9
9
9
9
9
9
9
9
9
9
9
9
9
9
9
9
9
9
9
9
9
9
9
9
9
9
9
9
9
9
9
9
9
9
9
9
9
9
9
9
9
9
9
9
9
9
9
9
9
9
9
9
9
9
9
9
9
9
9
9
9
9
9
9
9
9
9
9
9
9
9
9
9
9
9
9
9
9
9
9
9
9
9
9
9
9
9
9
9
9
9
9
9
9
9
9
9
9
9
9
9
9
9
9
9
9
9
9
9
9
9
9
9
9
9
9
9
9
9
9
9
9
9
9
9
9
9
9
9
9
9
9
9
9
9
9
9
9
9
9
9
9
9
9
9
9
9
9
9
9
9
9
9
9
9
9
9
9
9
9
9
9
9
9
9
9
9
9
9
9
9
9
9
9
9
9
9
9
9
9
9
9
9
9
9
9
9
9
9
9
9
9
9
9
9
9
9
9
9
9
9
9
9
9
9
9
9
9
9
9
9
9
9
9
9
9
9
9
9
9
9
9
9
9
9
9
9
9
9
9
9
9
9
9
9
9
9
9
9
9
9
9
9
9
9
9
9
9
9
9
9
9
9
9
9
9
POINT_DATA       496
SCALARS p double 
LOOKUP_TABLE default
   77154767.3168254     
   77185423.7957003     
   77258902.6003022     
   77350325.3821620     
   77452753.3480220     
   77561415.1258417     
   77672909.7235744     
   77784557.0400786     
   77894125.5816432     
   77999661.1974763     
   78099358.0371743     
   78191427.9417725     
   78273933.0080895     
   78344362.9757665     
   78399489.5250076     
   78423017.5973345     
   76073281.1669345     
   76087419.8636563     
   76129181.3457049     
   76192208.8787379     
   76268482.1160903     
   76353045.2820965     
   76442164.4131972     
   76532870.4294688     
   76622660.2675103     
   76709308.4742225     
   76790713.0627046     
   76864734.0109394     
   76928953.3662989     
   76980341.1709662     
   77013526.8625823     
   77024705.5700611     
   74946275.9412810     
   74954409.1594509     
   74979739.7728326     
   75021583.7271561     
   75076243.7830606     
   75139668.4324307     
   75208462.6292928     
   75279731.5596201     
   75350944.9798028     
   75419802.7396600     
   75484109.5575273     
   75541641.6203512     
   75590006.5512290     
   75626417.2826035     
   75648503.4745863     
   75655798.5484912     
   73786100.7239315     
   73790989.3374148     
   73806729.1861524     
   73834165.2589187     
   73871963.3057779     
   73917696.6554186     
   73968727.0426524     
   74022558.5619202     
   74076879.0641373     
   74129527.4925086     
   74178435.5301379     
   74221573.7144839     
   74256930.1506080     
   74282731.7415287     
   74297940.6295502     
   74302874.0850131     
   72598405.7078289     
   72601266.5233072     
   72610757.6185034     
   72628106.8335814     
   72653078.5665406     
   72684412.0990348     
   72720336.3100711     
   72758925.8236377     
   72798267.9778188     
   72836517.0923842     
   72871909.6446364     
   72902784.3554073     
   72927670.5034740     
   72945483.4061723     
   72955814.0201607     
   72959155.2572752     
   71386506.2670863     
   71387980.0143718     
   71393091.5331575     
   71403062.9893948     
   71418160.9296383     
   71437856.6683859     
   71461097.9687637     
   71486561.3503301     
   71512824.9427238     
   71538468.9045211     
   71562138.9362773     
   71582612.8192218     
   71598899.3351608     
   71610378.7779047     
   71616945.5919310     
   71619070.6689978     
   70152482.7922578     
   70152939.3281272     
   70154786.4056434     
   70159106.8850506     
   70166387.4127040     
   70176556.3982555     
   70189113.4713074     
   70203284.7668683     
   70218158.2202164     
   70232785.8109038     
   70246263.3730835     
   70257806.0975411     
   70266832.2873371     
   70273050.0540036     
   70276519.3121096     
   70277646.2240792     
   68897597.4462111     
   68897253.1878302     
   68896504.8731783     
   68896257.3974833     
   68897088.0437676     
   68899225.4234518     
   68902596.2838396     
   68906907.8668218     
   68911736.9205500     
   68916610.2117363     
   68921074.6304584     
   68924761.0908630     
   68927443.7153090     
   68929086.8892164     
   68929862.7215968     
   68930118.0406568     
   67622473.3021173     
   67621441.9740001     
   67618463.7469037     
   67614268.3033500     
   67609471.4219275     
   67604521.0585073     
   67599692.7546022     
   67595118.6637158     
   67590832.9538187     
   67586821.0995098     
   67583066.7752451     
   67579593.5852134     
   67576498.2417692     
   67573968.2111374     
   67572273.5745237     
   67571723.5975575     
   66327164.7265519     
   66325481.0962181     
   66320404.2844230     
   66312513.6986001     
   66302455.0727149     
   66290863.9502925     
   66278325.3150341     
   66265361.8267441     
   66252440.5586254     
   66239989.0098256     
   66228413.5011222     
   66218114.8069513     
   66209496.0930039     
   66202957.4741989     
   66198871.3870078     
   66197535.1908693     
   65011171.9549910     
   65008802.7538752     
   65001557.8848495     
   64989907.0211237     
   64974545.8472331     
   64956300.1501740     
   64936056.8897503     
   64914718.8436875     
   64893177.0151735     
   64872294.3429239     
   64852894.7051604     
   64835751.9001559     
   64821573.7799742     
   64810977.2404056     
   64804451.0319545     
   64802306.0034592     
   63673421.7100946     
   63670269.7329716     
   63660600.0204743     
   63644827.2403789     
   63623739.4615761     
   63598382.6461387     
   63569965.7468436     
   63539785.3578496     
   63509166.8225029     
   63479417.4803049     
   63451787.2800660     
   63427432.0783211     
   63407375.4649085     
   63392466.0205076     
   63383328.7541164     
   63380312.2159194     
   62312223.4605016     
   62308127.3501737     
   62295589.4730249     
   62275039.4836842     
   62247421.3033797     
   62214055.7408054     
   62176519.3386281     
   62136540.1358058     
   62095909.1907992     
   62056405.1555008     
   62019728.1835423     
   61987439.1373768     
   61960900.5163601     
   61941216.8367129     
   61929174.3634579     
   61925182.9675763     
   60925204.4706202     
   60919935.0767230     
   60903889.9906546     
   60877601.8809648     
   60842256.5740119     
   60799529.6706694     
   60751436.6211042     
   60700198.7671319     
   60648125.8540887     
   60597513.4636927     
   60550552.2262240     
   60509244.9284831     
   60475327.9875646     
   60450195.2796128     
   60434824.8690770     
   60429712.4297895     
   59509222.5989389     
   59502475.8697552     
   59482069.8594844     
   59448750.8973220     
   59404059.4326981     
   59350134.1377360     
   59289528.3452470     
   59225043.7499601     
   59159583.5698436     
   59096024.3385215     
   59037102.9872357     
   58985314.5383882     
   58942815.9628920     
   58911333.6159089     
   58892074.9017888     
   58885648.8851813     
   58060252.0823172     
   58051637.7434748     
   58025772.0492611     
   57983755.4280176     
   57927629.3939178     
   57860138.0603536     
   57784503.0402524     
   57704220.2485815     
   57622882.7746394     
   57544029.1275351     
   57471012.0889139     
   57406881.1570078     
   57354271.6812260     
   57315296.2908053     
   57291438.6691824     
   57283455.3047872     
   56573233.2782257     
   56562257.7908427     
   56529543.2142140     
   56476725.5872575     
   56406538.9823730     
   56322518.6980340     
   56228722.3383824     
   56129482.8515388     
   56029200.1113740     
   55932169.4758232     
   55842439.1068708     
   55763684.2211878     
   55699086.5325401     
   55651210.8253919     
   55621877.1071926     
   55612034.9128224     
   55041871.5618811     
   55027912.7705459     
   54986603.0306339     
   54920354.6481747     
   54832848.8245852     
   54728655.5735844     
   54612882.0741612     
   54490872.2687129     
   54367967.1572621     
   54249321.3928819     
   54139761.0446373     
   54043661.9033216     
   53964828.0911115     
   53906356.4886122     
   53870482.3517801     
   53858413.6853656     
   53458361.9783114     
   53440631.0743054     
   53388524.4732561     
   53305560.1535910     
   53196713.0812428     
   53067911.5311001     
   52925583.6437406     
   52776290.7303378     
   52626459.5391163     
   52482202.2128754     
   52349195.8317344     
   52232585.8042535     
   52136878.8937705     
   52065800.9429651     
   52022109.4293808     
   52007369.4381351     
   51813002.6331908     
   51790485.8877659     
   51724777.5617279     
   51620969.2244663     
   51485815.7222551     
   51327041.4594491     
   51152740.5887664     
   50970928.5943702     
   50789257.8882987     
   50614870.6896221     
   50454337.5358358     
   50313620.8971843     
   50198007.9822359     
   50111971.7237621     
   50058941.5806059     
   50040993.5406581     
   50093637.1092680     
   50065003.9224721     
   49982057.7934496     
   49852156.5536239     
   49684539.6176067     
   49489332.5026132     
   49276733.2642272     
   49056468.3670651     
   48837521.5358790     
   48628074.9769377     
   48435569.6343060     
   48266785.5109080     
   48127854.8412642     
   48024143.6700776     
   47959969.6900904     
   47938165.1430265     
   48284826.3987545     
   48248278.6987163     
   48143263.5520651     
   47980477.4166351     
   47772702.2188872     
   47533316.6196911     
   47275170.9343941     
   47009949.0045898     
   46747981.4599386     
   46498376.2569569     
   46269301.9034658     
   46068270.4270631     
   45902293.1547834     
   45777812.7516261     
   45700355.5549342     
   45673906.7835715     
   46366577.1824157     
   46319591.5592051     
   46185877.4452774     
   45981212.5652355     
   45723566.6377225     
   45430785.9132887     
   45119029.9296855     
   44802100.2075795     
   44491498.8220454     
   44196925.5194201     
   43926935.3702215     
   43689543.9822165     
   43492617.0099703     
   43343906.0337923     
   43250628.7222777     
   43218570.0140507     
   44312307.9640649     
   44251170.3820812     
   44079282.6026608     
   43820490.6205935     
   43500598.7960256     
   43143642.4037046     
   42769779.4901087     
   42394828.5430986     
   42030923.8916285     
   41687670.9269772     
   41373373.1473245     
   41096100.7376375     
   40864439.8309064     
   40687736.3832053     
   40575629.0032637     
   40536762.1257455     
   42085427.4513486     
   42004336.9019312     
   41780049.5033381     
   41449918.4128497     
   41051966.7202578     
   40618746.4029006     
   40174826.0891550     
   39737300.3789691     
   39317768.4331585     
   38924560.6335057     
   38564703.8699842     
   38245555.4784047     
   37976081.8821424     
   37767526.9068712     
   37633035.0789360     
   37585855.8973792     
   39633178.7636566     
   39522378.6997504     
   39223028.9112341     
   38796618.8591045     
   38300792.1427032     
   37779221.5077838     
   37260071.7355817     
   36759584.4938126     
   36286723.0346060     
   35846833.2652717     
   35444243.4964377     
   35084421.5038113     
   34775958.1000419     
   34532152.1491762     
   34371183.4638850     
   34313791.8500735     
   36874567.8765408     
   36715973.9124958     
   36302778.0652899     
   35743354.1001705     
   35126990.3784575     
   34509252.3739687     
   33917216.0373516     
   33361662.6130367     
   32845929.0203954     
   32370376.8186588     
   31935083.2927350     
   31542001.0558021     
   31197831.1285116     
   30917336.8384655     
   30725594.1049285     
   30655658.2883379     
   33673310.3308393     
   33428550.1714301     
   32829797.3509630     
   32084830.9988670     
   31331810.6894275     
   30626140.7904169     
   29980028.8805861     
   29392472.5249443     
   28858014.5064616     
   28370473.5053388     
   27924597.4264310     
   27517504.5382370     
   27150922.3524634     
   26838484.5320354     
   26613101.4772261     
   26527906.7662198     
   29764538.1822928     
   29337396.0790036     
   28401454.6052270     
   27424574.4162626     
   26565416.4977634     
   25820302.2591664     
   25172516.5696033     
   24603719.1392947     
   24098365.5010230     
   23643783.0540975     
   23229846.4419192     
   22848847.8670608     
   22496656.6483669     
   22174832.3912371     
   21920354.5914796     
   21819339.2359938     
   24512230.4390682     
   23435059.1658048     
   21969193.5406528     
   20926036.3106003     
   20124158.3452662     
   19487564.6971537     
   18965289.3287539     
   18525289.5530040     
   18145877.2599991     
   17811619.9732597     
   17510919.1214106     
   17234637.0783061     
   16975150.9778263     
   16728006.0944412     
   16483284.7955105     
   16365708.2952131     
   10000000.0000000     
   10000000.0000000     
   10000000.0000000     
   10000000.0000000     
   10000000.0000000     
   10000000.0000000     
   10000000.0000000     
   10000000.0000000     
   10000000.0000000     
   10000000.0000000     
   10000000.0000000     
   10000000.0000000     
   10000000.0000000     
  10000000.00000000     
   10000000.0000000     
   10000000.0000000     
VECTORS u double 
    0.00000E+00         0.83192E+01         0.00000E+00
    0.00000E+00         0.78523E+01         0.00000E+00
    0.00000E+00         0.73717E+01         0.00000E+00
    0.00000E+00         0.68842E+01         0.00000E+00
    0.00000E+00         0.63910E+01         0.00000E+00
    0.00000E+00         0.58921E+01         0.00000E+00
    0.00000E+00         0.53866E+01         0.00000E+00
    0.00000E+00         0.48728E+01         0.00000E+00
    0.00000E+00         0.43486E+01         0.00000E+00
    0.00000E+00         0.38110E+01         0.00000E+00
    0.00000E+00         0.32566E+01         0.00000E+00
    0.00000E+00         0.26809E+01         0.00000E+00
    0.00000E+00         0.20782E+01         0.00000E+00
    0.00000E+00         0.14407E+01         0.00000E+00
    0.00000E+00         0.75688E+00         0.00000E+00
    0.00000E+00         0.00000E+00         0.00000E+00
    0.12302E+01         0.82055E+01         0.00000E+00
    0.10735E+01         0.77643E+01         0.00000E+00
    0.96556E+00         0.72985E+01         0.00000E+00
    0.87886E+00         0.68209E+01         0.00000E+00
    0.80493E+00         0.63354E+01         0.00000E+00
    0.73922E+00         0.58428E+01         0.00000E+00
    0.67886E+00         0.53427E+01         0.00000E+00
    0.62177E+00         0.48338E+01         0.00000E+00
    0.56619E+00         0.43141E+01         0.00000E+00
    0.51052E+00         0.37807E+01         0.00000E+00
    0.45305E+00         0.32302E+01         0.00000E+00
    0.39176E+00         0.26583E+01         0.00000E+00
    0.32392E+00         0.20593E+01         0.00000E+00
    0.24509E+00         0.14254E+01         0.00000E+00
    0.14678E+00         0.74523E+00         0.00000E+00
    0.00000E+00         0.00000E+00         0.00000E+00
    0.23893E+01         0.79298E+01         0.00000E+00
    0.21008E+01         0.75224E+01         0.00000E+00
    0.18850E+01         0.70889E+01         0.00000E+00
    0.17107E+01         0.66370E+01         0.00000E+00
    0.15616E+01         0.61725E+01         0.00000E+00
    0.14290E+01         0.56978E+01         0.00000E+00
    0.13073E+01         0.52136E+01         0.00000E+00
    0.11923E+01         0.47189E+01         0.00000E+00
    0.10805E+01         0.42124E+01         0.00000E+00
    0.96868E+00         0.36914E+01         0.00000E+00
    0.85347E+00         0.31528E+01         0.00000E+00
    0.73096E+00         0.25924E+01         0.00000E+00
    0.59598E+00         0.20048E+01         0.00000E+00
    0.44066E+00         0.13829E+01         0.00000E+00
    0.25059E+00         0.71733E+00         0.00000E+00
    0.00000E+00         0.00000E+00         0.00000E+00
    0.34718E+01         0.75316E+01         0.00000E+00
    0.30739E+01         0.71594E+01         0.00000E+00
    0.27584E+01         0.67626E+01         0.00000E+00
    0.24977E+01         0.63450E+01         0.00000E+00
    0.22733E+01         0.59110E+01         0.00000E+00
    0.20733E+01         0.54636E+01         0.00000E+00
    0.18897E+01         0.50039E+01         0.00000E+00
    0.17164E+01         0.45321E+01         0.00000E+00
    0.15481E+01         0.40469E+01         0.00000E+00
    0.13801E+01         0.35464E+01         0.00000E+00
    0.12075E+01         0.30276E+01         0.00000E+00
    0.10249E+01         0.24868E+01         0.00000E+00
    0.82513E+00         0.19193E+01         0.00000E+00
    0.59844E+00         0.13192E+01         0.00000E+00
    0.33020E+00         0.68073E+00         0.00000E+00
    0.00000E+00         0.00000E+00         0.00000E+00
    0.44785E+01         0.70329E+01         0.00000E+00
    0.39874E+01         0.66970E+01         0.00000E+00
    0.35823E+01         0.63386E+01         0.00000E+00
    0.32396E+01         0.59592E+01         0.00000E+00
    0.29415E+01         0.55616E+01         0.00000E+00
    0.26747E+01         0.51482E+01         0.00000E+00
    0.24294E+01         0.47205E+01         0.00000E+00
    0.21979E+01         0.42787E+01         0.00000E+00
    0.19734E+01         0.38224E+01         0.00000E+00
    0.17499E+01         0.33499E+01         0.00000E+00
    0.15212E+01         0.28588E+01         0.00000E+00
    0.12805E+01         0.23458E+01         0.00000E+00
    0.10198E+01         0.18073E+01         0.00000E+00
    0.72870E+00         0.12388E+01         0.00000E+00
    0.39411E+00         0.63696E+00         0.00000E+00
    0.00000E+00         0.00000E+00         0.00000E+00
    0.54108E+01         0.64490E+01         0.00000E+00
    0.48390E+01         0.61506E+01         0.00000E+00
    0.43537E+01         0.58318E+01         0.00000E+00
    0.39350E+01         0.54929E+01         0.00000E+00
    0.35665E+01         0.51352E+01         0.00000E+00
    0.32347E+01         0.47606E+01         0.00000E+00
    0.29288E+01         0.43703E+01         0.00000E+00
    0.26401E+01         0.39650E+01         0.00000E+00
    0.23605E+01         0.35441E+01         0.00000E+00
    0.20829E+01         0.31067E+01         0.00000E+00
    0.18001E+01         0.26506E+01         0.00000E+00
    0.15043E+01         0.21735E+01         0.00000E+00
    0.11871E+01         0.16724E+01         0.00000E+00
    0.83851E+00         0.11442E+01         0.00000E+00
    0.44704E+00         0.58696E+00         0.00000E+00
    0.00000E+00         0.00000E+00         0.00000E+00
    0.62706E+01         0.57913E+01         0.00000E+00
    0.56279E+01         0.55316E+01         0.00000E+00
    0.50707E+01         0.52536E+01         0.00000E+00
    0.45822E+01         0.49566E+01         0.00000E+00
    0.41475E+01         0.46414E+01         0.00000E+00
    0.37536E+01         0.43091E+01         0.00000E+00
    0.33895E+01         0.39607E+01         0.00000E+00
    0.30455E+01         0.35969E+01         0.00000E+00
    0.27128E+01         0.32174E+01         0.00000E+00
    0.23832E+01         0.28214E+01         0.00000E+00
    0.20489E+01         0.24074E+01         0.00000E+00
    0.17016E+01         0.19734E+01         0.00000E+00
    0.13327E+01         0.15173E+01         0.00000E+00
    0.93278E+00         0.10371E+01         0.00000E+00
    0.49196E+00         0.53129E+00         0.00000E+00
    0.00000E+00         0.00000E+00         0.00000E+00
    0.70597E+01         0.50687E+01         0.00000E+00
    0.63541E+01         0.48491E+01         0.00000E+00
    0.57322E+01         0.46128E+01         0.00000E+00
    0.51799E+01         0.43591E+01         0.00000E+00
    0.46839E+01         0.40882E+01         0.00000E+00
    0.42318E+01         0.38010E+01         0.00000E+00
    0.38125E+01         0.34982E+01         0.00000E+00
    0.34160E+01         0.31803E+01         0.00000E+00
    0.30328E+01         0.28472E+01         0.00000E+00
    0.26542E+01         0.24984E+01         0.00000E+00
    0.22717E+01         0.21327E+01         0.00000E+00
    0.18767E+01         0.17485E+01         0.00000E+00
    0.14607E+01         0.13443E+01         0.00000E+00
    0.10150E+01         0.91858E+00         0.00000E+00
    0.53088E+00         0.47042E+00         0.00000E+00
    0.00000E+00         0.00000E+00         0.00000E+00
    0.77800E+01         0.42884E+01         0.00000E+00
    0.70178E+01         0.41099E+01         0.00000E+00
    0.63376E+01         0.39164E+01         0.00000E+00
    0.57274E+01         0.37072E+01         0.00000E+00
    0.51750E+01         0.34824E+01         0.00000E+00
    0.46691E+01         0.32426E+01         0.00000E+00
    0.41985E+01         0.29884E+01         0.00000E+00
    0.37530E+01         0.27202E+01         0.00000E+00
    0.33228E+01         0.24381E+01         0.00000E+00
    0.28986E+01         0.21416E+01         0.00000E+00
    0.24715E+01         0.18297E+01         0.00000E+00
    0.20329E+01         0.15013E+01         0.00000E+00
    0.15744E+01         0.11551E+01         0.00000E+00
    0.10877E+01         0.78976E+00         0.00000E+00
    0.56523E+00         0.40472E+00         0.00000E+00
    0.00000E+00         0.00000E+00         0.00000E+00
    0.84329E+01         0.34558E+01         0.00000E+00
    0.76194E+01         0.33196E+01         0.00000E+00
    0.68865E+01         0.31700E+01         0.00000E+00
    0.62237E+01         0.30065E+01         0.00000E+00
    0.56203E+01         0.28293E+01         0.00000E+00
    0.50652E+01         0.26389E+01         0.00000E+00
    0.45478E+01         0.24360E+01         0.00000E+00
    0.40575E+01         0.22209E+01         0.00000E+00
    0.35843E+01         0.19937E+01         0.00000E+00
    0.31185E+01         0.17540E+01         0.00000E+00
    0.26510E+01         0.15011E+01         0.00000E+00
    0.21730E+01         0.12338E+01         0.00000E+00
    0.16762E+01         0.95092E+00         0.00000E+00
    0.11528E+01         0.65141E+00         0.00000E+00
    0.59606E+00         0.33449E+00         0.00000E+00
    0.00000E+00         0.00000E+00         0.00000E+00
    0.90196E+01         0.25755E+01         0.00000E+00
    0.81592E+01         0.24826E+01         0.00000E+00
    0.73784E+01         0.23779E+01         0.00000E+00
    0.66682E+01         0.22612E+01         0.00000E+00
    0.60189E+01         0.21330E+01         0.00000E+00
    0.54198E+01         0.19940E+01         0.00000E+00
    0.48604E+01         0.18448E+01         0.00000E+00
    0.43300E+01         0.16858E+01         0.00000E+00
    0.38184E+01         0.15172E+01         0.00000E+00
    0.33156E+01         0.13385E+01         0.00000E+00
    0.28120E+01         0.11489E+01         0.00000E+00
    0.22989E+01         0.94754E+00         0.00000E+00
    0.17679E+01         0.73301E+00         0.00000E+00
    0.12117E+01         0.50416E+00         0.00000E+00
    0.62413E+00         0.26000E+00         0.00000E+00
    0.00000E+00         0.00000E+00         0.00000E+00
    0.95408E+01         0.16507E+01         0.00000E+00
    0.86369E+01         0.16023E+01         0.00000E+00
    0.78127E+01         0.15434E+01         0.00000E+00
    0.70603E+01         0.14746E+01         0.00000E+00
    0.63702E+01         0.13968E+01         0.00000E+00
    0.57325E+01         0.13109E+01         0.00000E+00
    0.51363E+01         0.12177E+01         0.00000E+00
    0.45711E+01         0.11177E+01         0.00000E+00
    0.40260E+01         0.10109E+01         0.00000E+00
    0.34909E+01         0.89690E+00         0.00000E+00
    0.29559E+01         0.77498E+00         0.00000E+00
    0.24120E+01         0.64388E+00         0.00000E+00
    0.18510E+01         0.50222E+00         0.00000E+00
    0.12656E+01         0.34853E+00         0.00000E+00
    0.65006E+00         0.18146E+00         0.00000E+00
    0.00000E+00         0.00000E+00         0.00000E+00
    0.99967E+01         0.68409E+00         0.00000E+00
    0.90523E+01         0.68105E+00         0.00000E+00
    0.81888E+01         0.66903E+00         0.00000E+00
    0.73988E+01         0.64929E+00         0.00000E+00
    0.66734E+01         0.62324E+00         0.00000E+00
    0.60025E+01         0.59217E+00         0.00000E+00
    0.53753E+01         0.55708E+00         0.00000E+00
    0.47807E+01         0.51857E+00         0.00000E+00
    0.42077E+01         0.47669E+00         0.00000E+00
    0.36455E+01         0.43098E+00         0.00000E+00
    0.30839E+01         0.38048E+00         0.00000E+00
    0.25137E+01         0.32380E+00         0.00000E+00
    0.19265E+01         0.25923E+00         0.00000E+00
    0.13152E+01         0.18492E+00         0.00000E+00
    0.67436E+00         0.99045E-01         0.00000E+00
    0.00000E+00         0.00000E+00         0.00000E+00
    0.10387E+02        -0.32229E+00         0.00000E+00
    0.94043E+01        -0.27905E+00         0.00000E+00
    0.85053E+01        -0.24332E+00         0.00000E+00
    0.76825E+01        -0.21295E+00         0.00000E+00
    0.69272E+01        -0.18591E+00         0.00000E+00
    0.62290E+01        -0.16045E+00         0.00000E+00
    0.55766E+01        -0.13531E+00         0.00000E+00
    0.49587E+01        -0.10980E+00         0.00000E+00
    0.43635E+01        -0.83850E-01         0.00000E+00
    0.37797E+01        -0.58021E-01         0.00000E+00
    0.31968E+01        -0.33483E-01         0.00000E+00
    0.26048E+01        -0.11921E-01         0.00000E+00
    0.19954E+01         0.45751E-02         0.00000E+00
    0.13614E+01         0.13657E-01         0.00000E+00
    0.69745E+00         0.12899E-01         0.00000E+00
    0.00000E+00         0.00000E+00         0.00000E+00
    0.10709E+02        -0.13669E+01         0.00000E+00
    0.96912E+01        -0.12766E+01         0.00000E+00
    0.87604E+01        -0.11922E+01         0.00000E+00
    0.79099E+01        -0.11106E+01         0.00000E+00
    0.71302E+01        -0.10291E+01         0.00000E+00
    0.64108E+01        -0.94545E+00         0.00000E+00
    0.57397E+01        -0.85805E+00         0.00000E+00
    0.51047E+01        -0.76609E+00         0.00000E+00
    0.44935E+01        -0.66952E+00         0.00000E+00
    0.38940E+01        -0.56904E+00         0.00000E+00
    0.32950E+01        -0.46606E+00         0.00000E+00
    0.26861E+01        -0.36262E+00         0.00000E+00
    0.20585E+01        -0.26129E+00         0.00000E+00
    0.14048E+01        -0.16499E+00         0.00000E+00
    0.71972E+00        -0.76856E-01         0.00000E+00
    0.00000E+00         0.00000E+00         0.00000E+00
    0.10962E+02        -0.24486E+01         0.00000E+00
    0.99107E+01        -0.23102E+01         0.00000E+00
    0.89520E+01        -0.21763E+01         0.00000E+00
    0.80786E+01        -0.20424E+01         0.00000E+00
    0.72807E+01        -0.19051E+01         0.00000E+00
    0.65465E+01        -0.17615E+01         0.00000E+00
    0.58634E+01        -0.16098E+01         0.00000E+00
    0.52181E+01        -0.14490E+01         0.00000E+00
    0.45974E+01        -0.12792E+01         0.00000E+00
    0.39884E+01        -0.11011E+01         0.00000E+00
    0.33789E+01        -0.91641E+00         0.00000E+00
    0.27580E+01        -0.72768E+00         0.00000E+00
    0.21162E+01        -0.53793E+00         0.00000E+00
    0.14459E+01        -0.35076E+00         0.00000E+00
    0.74151E+00        -0.17011E+00         0.00000E+00
    0.00000E+00         0.00000E+00         0.00000E+00
    0.11142E+02        -0.35659E+01         0.00000E+00
    0.10059E+02        -0.33789E+01         0.00000E+00
    0.90770E+01        -0.31944E+01         0.00000E+00
    0.81862E+01        -0.30070E+01         0.00000E+00
    0.73763E+01        -0.28124E+01         0.00000E+00
    0.66343E+01        -0.26072E+01         0.00000E+00
    0.59463E+01        -0.23891E+01         0.00000E+00
    0.52979E+01        -0.21572E+01         0.00000E+00
    0.46746E+01        -0.19115E+01         0.00000E+00
    0.40626E+01        -0.16529E+01         0.00000E+00
    0.34486E+01        -0.13836E+01         0.00000E+00
    0.28208E+01        -0.11064E+01         0.00000E+00
    0.21691E+01        -0.82487E+00         0.00000E+00
    0.14851E+01        -0.54338E+00         0.00000E+00
    0.76313E+00        -0.26674E+00         0.00000E+00
    0.00000E+00         0.00000E+00         0.00000E+00
    0.11245E+02        -0.47177E+01         0.00000E+00
    0.10134E+02        -0.44811E+01         0.00000E+00
    0.91317E+01        -0.42451E+01         0.00000E+00
    0.82295E+01        -0.40030E+01         0.00000E+00
    0.74143E+01        -0.37495E+01         0.00000E+00
    0.66719E+01        -0.34807E+01         0.00000E+00
    0.59866E+01        -0.31942E+01         0.00000E+00
    0.53427E+01        -0.28889E+01         0.00000E+00
    0.47242E+01        -0.25648E+01         0.00000E+00
    0.41159E+01        -0.22232E+01         0.00000E+00
    0.35037E+01        -0.18665E+01         0.00000E+00
    0.28745E+01        -0.14979E+01         0.00000E+00
    0.22172E+01        -0.11215E+01         0.00000E+00
    0.15228E+01        -0.74250E+00         0.00000E+00
    0.78483E+00        -0.36659E+00         0.00000E+00
    0.00000E+00         0.00000E+00         0.00000E+00
    0.11264E+02        -0.59023E+01         0.00000E+00
    0.10128E+02        -0.56152E+01         0.00000E+00
    0.91116E+01        -0.53265E+01         0.00000E+00
    0.82044E+01        -0.50282E+01         0.00000E+00
    0.73916E+01        -0.47141E+01         0.00000E+00
    0.66567E+01        -0.43798E+01         0.00000E+00
    0.59823E+01        -0.40227E+01         0.00000E+00
    0.53507E+01        -0.36416E+01         0.00000E+00
    0.47445E+01        -0.32369E+01         0.00000E+00
    0.41473E+01        -0.28099E+01         0.00000E+00
    0.35433E+01        -0.23634E+01         0.00000E+00
    0.29185E+01        -0.19008E+01         0.00000E+00
    0.22604E+01        -0.14270E+01         0.00000E+00
    0.15590E+01        -0.94765E+00         0.00000E+00
    0.80677E+00        -0.46948E+00         0.00000E+00
    0.00000E+00         0.00000E+00         0.00000E+00
    0.11194E+02        -0.71173E+01         0.00000E+00
    0.10036E+02        -0.67788E+01         0.00000E+00
    0.90114E+01        -0.64361E+01         0.00000E+00
    0.81066E+01        -0.60799E+01         0.00000E+00
    0.73043E+01        -0.57031E+01         0.00000E+00
    0.65855E+01        -0.53011E+01         0.00000E+00
    0.59305E+01        -0.48710E+01         0.00000E+00
    0.53196E+01        -0.44120E+01         0.00000E+00
    0.47337E+01        -0.39244E+01         0.00000E+00
    0.41549E+01        -0.34101E+01         0.00000E+00
    0.35661E+01        -0.28719E+01         0.00000E+00
    0.29517E+01        -0.23135E+01         0.00000E+00
    0.22980E+01        -0.17402E+01         0.00000E+00
    0.15933E+01        -0.11582E+01         0.00000E+00
    0.82892E+00        -0.57513E+00         0.00000E+00
    0.00000E+00         0.00000E+00         0.00000E+00
    0.11026E+02        -0.83598E+01         0.00000E+00
    0.98506E+01        -0.79686E+01         0.00000E+00
    0.88248E+01        -0.75702E+01         0.00000E+00
    0.79309E+01        -0.71540E+01         0.00000E+00
    0.71482E+01        -0.67121E+01         0.00000E+00
    0.64547E+01        -0.62397E+01         0.00000E+00
    0.58280E+01        -0.57342E+01         0.00000E+00
    0.52463E+01        -0.51950E+01         0.00000E+00
    0.46889E+01        -0.46229E+01         0.00000E+00
    0.41361E+01        -0.40198E+01         0.00000E+00
    0.35695E+01        -0.33887E+01         0.00000E+00
    0.29721E+01        -0.27335E+01         0.00000E+00
    0.23284E+01        -0.20594E+01         0.00000E+00
    0.16249E+01        -0.13731E+01         0.00000E+00
    0.85098E+00        -0.68321E+00         0.00000E+00
    0.00000E+00         0.00000E+00         0.00000E+00
    0.10749E+02        -0.96256E+01         0.00000E+00
    0.95634E+01        -0.91801E+01         0.00000E+00
    0.85448E+01        -0.87239E+01         0.00000E+00
    0.76714E+01        -0.82449E+01         0.00000E+00
    0.69185E+01        -0.77349E+01         0.00000E+00
    0.62601E+01        -0.71891E+01         0.00000E+00
    0.56709E+01        -0.66055E+01         0.00000E+00
    0.51270E+01        -0.59840E+01         0.00000E+00
    0.46059E+01        -0.53259E+01         0.00000E+00
    0.40867E+01        -0.46334E+01         0.00000E+00
    0.35497E+01        -0.39093E+01         0.00000E+00
    0.29763E+01        -0.31572E+01         0.00000E+00
    0.23491E+01        -0.23823E+01         0.00000E+00
    0.16522E+01        -0.15913E+01         0.00000E+00
    0.87224E+00        -0.79324E+00         0.00000E+00
    0.00000E+00         0.00000E+00         0.00000E+00
    0.10353E+02        -0.10909E+02         0.00000E+00
    0.91645E+01        -0.10407E+02         0.00000E+00
    0.81632E+01        -0.98904E+01         0.00000E+00
    0.73217E+01        -0.93452E+01         0.00000E+00
    0.66097E+01        -0.87631E+01         0.00000E+00
    0.59968E+01        -0.81402E+01         0.00000E+00
    0.54545E+01        -0.74753E+01         0.00000E+00
    0.49567E+01        -0.67696E+01         0.00000E+00
    0.44795E+01        -0.60248E+01         0.00000E+00
    0.40011E+01        -0.52432E+01         0.00000E+00
    0.35009E+01        -0.44273E+01         0.00000E+00
    0.29589E+01        -0.35802E+01         0.00000E+00
    0.23556E+01        -0.27059E+01         0.00000E+00
    0.16721E+01        -0.18110E+01         0.00000E+00
    0.89133E+00        -0.90464E+00         0.00000E+00
    0.00000E+00         0.00000E+00         0.00000E+00
    0.98234E+01        -0.12203E+02         0.00000E+00
    0.86423E+01        -0.11642E+02         0.00000E+00
    0.76711E+01        -0.11061E+02         0.00000E+00
    0.68748E+01        -0.10444E+02         0.00000E+00
    0.62161E+01        -0.97852E+01         0.00000E+00
    0.56595E+01        -0.90805E+01         0.00000E+00
    0.51729E+01        -0.83311E+01         0.00000E+00
    0.47286E+01        -0.75395E+01         0.00000E+00
    0.43020E+01        -0.67082E+01         0.00000E+00
    0.38711E+01        -0.58394E+01         0.00000E+00
    0.34149E+01        -0.49348E+01         0.00000E+00
    0.29122E+01        -0.39962E+01         0.00000E+00
    0.23414E+01        -0.30263E+01         0.00000E+00
    0.16800E+01        -0.20302E+01         0.00000E+00
    0.90595E+00        -0.10167E+01         0.00000E+00
    0.00000E+00         0.00000E+00         0.00000E+00
    0.91443E+01        -0.13499E+02         0.00000E+00
    0.79836E+01        -0.12874E+02         0.00000E+00
    0.70584E+01        -0.12223E+02         0.00000E+00
    0.63231E+01        -0.11529E+02         0.00000E+00
    0.57314E+01        -0.10786E+02         0.00000E+00
    0.52416E+01        -0.99936E+01         0.00000E+00
    0.48186E+01        -0.91563E+01         0.00000E+00
    0.44338E+01        -0.82779E+01         0.00000E+00
    0.40632E+01        -0.73616E+01         0.00000E+00
    0.36854E+01        -0.64092E+01         0.00000E+00
    0.32797E+01        -0.54212E+01         0.00000E+00
    0.28247E+01        -0.43975E+01         0.00000E+00
    0.22965E+01        -0.33382E+01         0.00000E+00
    0.16687E+01        -0.22461E+01         0.00000E+00
    0.91240E+00        -0.11286E+01         0.00000E+00
    0.00000E+00         0.00000E+00         0.00000E+00
    0.82960E+01        -0.14783E+02         0.00000E+00
    0.71730E+01        -0.14090E+02         0.00000E+00
    0.63143E+01        -0.13360E+02         0.00000E+00
    0.56590E+01        -0.12579E+02         0.00000E+00
    0.51486E+01        -0.11743E+02         0.00000E+00
    0.47350E+01        -0.10857E+02         0.00000E+00
    0.43815E+01        -0.99293E+01         0.00000E+00
    0.40602E+01        -0.89647E+01         0.00000E+00
    0.37489E+01        -0.79670E+01         0.00000E+00
    0.34283E+01        -0.69371E+01         0.00000E+00
    0.30790E+01        -0.58738E+01         0.00000E+00
    0.26802E+01        -0.47742E+01         0.00000E+00
    0.22065E+01        -0.36352E+01         0.00000E+00
    0.16271E+01        -0.24555E+01         0.00000E+00
    0.90489E+00        -0.12392E+01         0.00000E+00
    0.00000E+00         0.00000E+00         0.00000E+00
    0.72538E+01        -0.16041E+02         0.00000E+00
    0.61923E+01        -0.15270E+02         0.00000E+00
    0.54274E+01        -0.14450E+02         0.00000E+00
    0.48742E+01        -0.13568E+02         0.00000E+00
    0.44588E+01        -0.12629E+02         0.00000E+00
    0.41282E+01        -0.11644E+02         0.00000E+00
    0.38469E+01        -0.10624E+02         0.00000E+00
    0.35903E+01        -0.95763E+01         0.00000E+00
    0.33397E+01        -0.85035E+01         0.00000E+00
    0.30786E+01        -0.74049E+01         0.00000E+00
    0.27906E+01        -0.62770E+01         0.00000E+00
    0.24563E+01        -0.51141E+01         0.00000E+00
    0.20506E+01        -0.39086E+01         0.00000E+00
    0.15389E+01        -0.26537E+01         0.00000E+00
    0.87444E+00        -0.13473E+01         0.00000E+00
    0.00000E+00         0.00000E+00         0.00000E+00
    0.59847E+01        -0.17249E+02         0.00000E+00
    0.50195E+01        -0.16387E+02         0.00000E+00
    0.43858E+01        -0.15458E+02         0.00000E+00
    0.39586E+01        -0.14457E+02         0.00000E+00
    0.36478E+01        -0.13403E+02         0.00000E+00
    0.34021E+01        -0.12316E+02         0.00000E+00
    0.31921E+01        -0.11209E+02         0.00000E+00
    0.29989E+01        -0.10086E+02         0.00000E+00
    0.28083E+01        -0.89486E+01         0.00000E+00
    0.26080E+01        -0.77930E+01         0.00000E+00
    0.23849E+01        -0.66138E+01         0.00000E+00
    0.21229E+01        -0.54026E+01         0.00000E+00
    0.17996E+01        -0.41476E+01         0.00000E+00
    0.13796E+01        -0.28345E+01         0.00000E+00
    0.80678E+00        -0.14513E+01         0.00000E+00
    0.00000E+00         0.00000E+00         0.00000E+00
    0.44396E+01        -0.18376E+02         0.00000E+00
    0.36289E+01        -0.17399E+02         0.00000E+00
    0.31772E+01        -0.16327E+02         0.00000E+00
    0.28936E+01        -0.15184E+02         0.00000E+00
    0.26877E+01        -0.14013E+02         0.00000E+00
    0.25232E+01        -0.12834E+02         0.00000E+00
    0.23808E+01        -0.11652E+02         0.00000E+00
    0.22485E+01        -0.10468E+02         0.00000E+00
    0.21170E+01        -0.92803E+01         0.00000E+00
    0.19783E+01        -0.80823E+01         0.00000E+00
    0.18233E+01        -0.68666E+01         0.00000E+00
    0.16406E+01        -0.56230E+01         0.00000E+00
    0.14131E+01        -0.43370E+01         0.00000E+00
    0.11118E+01        -0.29882E+01         0.00000E+00
    0.67792E+00        -0.15481E+01         0.00000E+00
    0.00000E+00         0.00000E+00         0.00000E+00
    0.25309E+01        -0.19375E+02         0.00000E+00
    0.19954E+01        -0.18214E+02         0.00000E+00
    0.17718E+01        -0.16945E+02         0.00000E+00
    0.16256E+01        -0.15667E+02         0.00000E+00
    0.15174E+01        -0.14403E+02         0.00000E+00
    0.14295E+01        -0.13157E+02         0.00000E+00
    0.13528E+01        -0.11924E+02         0.00000E+00
    0.12813E+01        -0.10701E+02         0.00000E+00
    0.12106E+01        -0.94815E+01         0.00000E+00
    0.11363E+01        -0.82576E+01         0.00000E+00
    0.10540E+01        -0.70208E+01         0.00000E+00
    0.95747E+00        -0.57595E+01         0.00000E+00
    0.83759E+00        -0.44586E+01         0.00000E+00
    0.67769E+00        -0.30955E+01         0.00000E+00
    0.44279E+00        -0.16319E+01         0.00000E+00
    0.00000E+00         0.00000E+00         0.00000E+00
    0.00000E+00        -0.20026E+02         0.00000E+00
    0.00000E+00        -0.18551E+02         0.00000E+00
    0.00000E+00        -0.17160E+02         0.00000E+00
    0.00000E+00        -0.15827E+02         0.00000E+00
    0.00000E+00        -0.14530E+02         0.00000E+00
    0.00000E+00        -0.13260E+02         0.00000E+00
    0.00000E+00        -0.12011E+02         0.00000E+00
    0.00000E+00        -0.10775E+02         0.00000E+00
    0.00000E+00        -0.95451E+01         0.00000E+00
    0.00000E+00        -0.83130E+01         0.00000E+00
    0.00000E+00        -0.70695E+01         0.00000E+00
    0.00000E+00        -0.58031E+01         0.00000E+00
    0.00000E+00        -0.44982E+01         0.00000E+00
    0.00000E+00        -0.31324E+01         0.00000E+00
    0.00000E+00        -0.16680E+01         0.00000E+00
    0.00000E+00         0.00000E+00         0.00000E+00
CELL_DATA        450
VECTORS vDarcy double 
    0.11780E-05         0.24211E-07         0.00000E+00
    0.11585E-05         0.59931E-07         0.00000E+00
    0.11541E-05         0.77910E-07         0.00000E+00
    0.11514E-05         0.87838E-07         0.00000E+00
    0.11497E-05         0.92850E-07         0.00000E+00
    0.11486E-05         0.94473E-07         0.00000E+00
    0.11478E-05         0.93564E-07         0.00000E+00
    0.11472E-05         0.90643E-07         0.00000E+00
    0.11467E-05         0.86024E-07         0.00000E+00
    0.11462E-05         0.79870E-07         0.00000E+00
    0.11457E-05         0.72208E-07         0.00000E+00
    0.11451E-05         0.62886E-07         0.00000E+00
    0.11441E-05         0.51446E-07         0.00000E+00
    0.11426E-05         0.36693E-07         0.00000E+00
    0.11330E-05         0.14123E-07         0.00000E+00
    0.11854E-05         0.11681E-07         0.00000E+00
    0.11587E-05         0.34060E-07         0.00000E+00
    0.11441E-05         0.51715E-07         0.00000E+00
    0.11360E-05         0.62950E-07         0.00000E+00
    0.11308E-05         0.69564E-07         0.00000E+00
    0.11272E-05         0.72740E-07         0.00000E+00
    0.11246E-05         0.73246E-07         0.00000E+00
    0.11225E-05         0.71579E-07         0.00000E+00
    0.11208E-05         0.68047E-07         0.00000E+00
    0.11191E-05         0.62812E-07         0.00000E+00
    0.11173E-05         0.55895E-07         0.00000E+00
    0.11151E-05         0.47160E-07         0.00000E+00
    0.11118E-05         0.36250E-07         0.00000E+00
    0.11056E-05         0.22474E-07         0.00000E+00
    0.10946E-05         0.73961E-08         0.00000E+00
    0.11773E-05         0.65980E-08         0.00000E+00
    0.11514E-05         0.20239E-07         0.00000E+00
    0.11331E-05         0.33257E-07         0.00000E+00
    0.11209E-05         0.43332E-07         0.00000E+00
    0.11126E-05         0.50055E-07         0.00000E+00
    0.11066E-05         0.53865E-07         0.00000E+00
    0.11021E-05         0.55219E-07         0.00000E+00
    0.10986E-05         0.54482E-07         0.00000E+00
    0.10955E-05         0.51909E-07         0.00000E+00
    0.10926E-05         0.47652E-07         0.00000E+00
    0.10895E-05         0.41773E-07         0.00000E+00
    0.10858E-05         0.34264E-07         0.00000E+00
    0.10807E-05         0.25117E-07         0.00000E+00
    0.10734E-05         0.14858E-07         0.00000E+00
    0.10635E-05         0.48103E-08         0.00000E+00
    0.11615E-05         0.37860E-08         0.00000E+00
    0.11376E-05         0.12031E-07         0.00000E+00
    0.11187E-05         0.20858E-07         0.00000E+00
    0.11046E-05         0.28592E-07         0.00000E+00
    0.10941E-05         0.34386E-07         0.00000E+00
    0.10863E-05         0.38062E-07         0.00000E+00
    0.10802E-05         0.39743E-07         0.00000E+00
    0.10753E-05         0.39617E-07         0.00000E+00
    0.10710E-05         0.37858E-07         0.00000E+00
    0.10670E-05         0.34603E-07         0.00000E+00
    0.10629E-05         0.29965E-07         0.00000E+00
    0.10581E-05         0.24071E-07         0.00000E+00
    0.10522E-05         0.17210E-07         0.00000E+00
    0.10449E-05         0.99602E-08         0.00000E+00
    0.10364E-05         0.31929E-08         0.00000E+00
    0.11409E-05         0.20392E-08         0.00000E+00
    0.11193E-05         0.67233E-08         0.00000E+00
    0.11010E-05         0.12315E-07         0.00000E+00
    0.10864E-05         0.17696E-07         0.00000E+00
    0.10748E-05         0.22103E-07         0.00000E+00
    0.10658E-05         0.25165E-07         0.00000E+00
    0.10586E-05         0.26783E-07         0.00000E+00
    0.10526E-05         0.26998E-07         0.00000E+00
    0.10474E-05         0.25903E-07         0.00000E+00
    0.10425E-05         0.23612E-07         0.00000E+00
    0.10376E-05         0.20259E-07         0.00000E+00
    0.10323E-05         0.16045E-07         0.00000E+00
    0.10263E-05         0.11285E-07         0.00000E+00
    0.10194E-05         0.64419E-08         0.00000E+00
    0.10120E-05         0.20650E-08         0.00000E+00
    0.11174E-05         0.87356E-09         0.00000E+00
    0.10979E-05         0.30887E-08         0.00000E+00
    0.10807E-05         0.62225E-08         0.00000E+00
    0.10663E-05         0.95616E-08         0.00000E+00
    0.10545E-05         0.12532E-07         0.00000E+00
    0.10449E-05         0.14766E-07         0.00000E+00
    0.10370E-05         0.16085E-07         0.00000E+00
    0.10304E-05         0.16442E-07         0.00000E+00
    0.10246E-05         0.15868E-07         0.00000E+00
    0.10192E-05         0.14443E-07         0.00000E+00
    0.10139E-05         0.12293E-07         0.00000E+00
    0.10084E-05         0.96075E-08         0.00000E+00
    0.10025E-05         0.66464E-08         0.00000E+00
    0.99623E-06         0.37338E-08         0.00000E+00
    0.98976E-06         0.12002E-08         0.00000E+00
    0.10919E-05         0.48833E-10         0.00000E+00
    0.10743E-05         0.46955E-09         0.00000E+00
    0.10585E-05         0.17101E-08         0.00000E+00
    0.10448E-05         0.33469E-08         0.00000E+00
    0.10333E-05         0.49932E-08         0.00000E+00
    0.10236E-05         0.63592E-08         0.00000E+00
    0.10155E-05         0.72671E-08         0.00000E+00
    0.10087E-05         0.76355E-08         0.00000E+00
    0.10027E-05         0.74555E-08         0.00000E+00
    0.99711E-06         0.67731E-08         0.00000E+00
    0.99175E-06         0.56818E-08         0.00000E+00
    0.98634E-06         0.43215E-08         0.00000E+00
    0.98076E-06         0.28732E-08         0.00000E+00
    0.97503E-06         0.15383E-08         0.00000E+00
    0.96934E-06         0.49731E-09         0.00000E+00
    0.10653E-05        -0.57446E-09         0.00000E+00
    0.10494E-05        -0.15313E-08         0.00000E+00
    0.10349E-05        -0.17961E-08         0.00000E+00
    0.10222E-05        -0.15778E-08         0.00000E+00
    0.10113E-05        -0.11016E-08         0.00000E+00
    0.10020E-05        -0.56222E-09         0.00000E+00
    0.99421E-06        -0.99816E-10         0.00000E+00
    0.98751E-06         0.20380E-09         0.00000E+00
    0.98160E-06         0.31901E-09         0.00000E+00
    0.97620E-06         0.25984E-09         0.00000E+00
    0.97105E-06         0.77183E-10         0.00000E+00
    0.96594E-06        -0.14787E-09         0.00000E+00
    0.96080E-06        -0.31488E-09         0.00000E+00
    0.95564E-06        -0.32368E-09         0.00000E+00
    0.95058E-06        -0.10313E-09         0.00000E+00
    0.10380E-05        -0.10876E-08         0.00000E+00
    0.10236E-05        -0.31786E-08         0.00000E+00
    0.10105E-05        -0.46977E-08         0.00000E+00
    0.99893E-06        -0.56883E-08         0.00000E+00
    0.98891E-06        -0.62419E-08         0.00000E+00
    0.98038E-06        -0.64615E-08         0.00000E+00
    0.97314E-06        -0.64374E-08         0.00000E+00
    0.96693E-06        -0.62357E-08         0.00000E+00
    0.96147E-06        -0.58949E-08         0.00000E+00
    0.95650E-06        -0.54278E-08         0.00000E+00
    0.95179E-06        -0.48260E-08         0.00000E+00
    0.94717E-06        -0.40665E-08         0.00000E+00
    0.94256E-06        -0.31219E-08         0.00000E+00
    0.93794E-06        -0.19756E-08         0.00000E+00
    0.93342E-06        -0.64078E-09         0.00000E+00
    0.10105E-05        -0.15556E-08         0.00000E+00
    0.99744E-06        -0.46633E-08         0.00000E+00
    0.98563E-06        -0.72917E-08         0.00000E+00
    0.97527E-06        -0.93533E-08         0.00000E+00
    0.96636E-06        -0.10829E-07         0.00000E+00
    0.95883E-06        -0.11742E-07         0.00000E+00
    0.95247E-06        -0.12132E-07         0.00000E+00
    0.94706E-06        -0.12044E-07         0.00000E+00
    0.94234E-06        -0.11519E-07         0.00000E+00
    0.93806E-06        -0.10592E-07         0.00000E+00
    0.93400E-06        -0.92935E-08         0.00000E+00
    0.93001E-06        -0.76531E-08         0.00000E+00
    0.92599E-06        -0.57077E-08         0.00000E+00
    0.92192E-06        -0.35112E-08         0.00000E+00
    0.91787E-06        -0.11454E-08         0.00000E+00
    0.98304E-06        -0.20280E-08         0.00000E+00
    0.97114E-06        -0.61304E-08         0.00000E+00
    0.96061E-06        -0.98075E-08         0.00000E+00
    0.95154E-06        -0.12865E-07         0.00000E+00
    0.94391E-06        -0.15194E-07         0.00000E+00
    0.93759E-06        -0.16749E-07         0.00000E+00
    0.93238E-06        -0.17524E-07         0.00000E+00
    0.92804E-06        -0.17545E-07         0.00000E+00
    0.92431E-06        -0.16853E-07         0.00000E+00
    0.92094E-06        -0.15502E-07         0.00000E+00
    0.91772E-06        -0.13556E-07         0.00000E+00
    0.91449E-06        -0.11092E-07         0.00000E+00
    0.91113E-06        -0.82039E-08         0.00000E+00
    0.90761E-06        -0.50064E-08         0.00000E+00
    0.90397E-06        -0.16411E-08         0.00000E+00
    0.95583E-06        -0.25439E-08         0.00000E+00
    0.94497E-06        -0.76950E-08         0.00000E+00
    0.93569E-06        -0.12428E-07         0.00000E+00
    0.92800E-06        -0.16459E-07         0.00000E+00
    0.92180E-06        -0.19608E-07         0.00000E+00
    0.91689E-06        -0.21770E-07         0.00000E+00
    0.91306E-06        -0.22906E-07         0.00000E+00
    0.91002E-06        -0.23021E-07         0.00000E+00
    0.90750E-06        -0.22159E-07         0.00000E+00
    0.90525E-06        -0.20390E-07         0.00000E+00
    0.90304E-06        -0.17810E-07         0.00000E+00
    0.90068E-06        -0.14539E-07         0.00000E+00
    0.89805E-06        -0.10721E-07         0.00000E+00
    0.89510E-06        -0.65251E-08         0.00000E+00
    0.89182E-06        -0.21482E-08         0.00000E+00
    0.92899E-06        -0.31351E-08         0.00000E+00
    0.91910E-06        -0.94502E-08         0.00000E+00
    0.91109E-06        -0.15300E-07         0.00000E+00
    0.90486E-06        -0.20329E-07         0.00000E+00
    0.90022E-06        -0.24293E-07         0.00000E+00
    0.89692E-06        -0.27047E-07         0.00000E+00
    0.89466E-06        -0.28520E-07         0.00000E+00
    0.89315E-06        -0.28708E-07         0.00000E+00
    0.89207E-06        -0.27657E-07         0.00000E+00
    0.89113E-06        -0.25454E-07         0.00000E+00
    0.89008E-06        -0.22225E-07         0.00000E+00
    0.88871E-06        -0.18128E-07         0.00000E+00
    0.88688E-06        -0.13353E-07         0.00000E+00
    0.88450E-06        -0.81218E-08         0.00000E+00
    0.88156E-06        -0.26843E-08         0.00000E+00
    0.90259E-06        -0.38277E-08         0.00000E+00
    0.89364E-06        -0.11473E-07         0.00000E+00
    0.88693E-06        -0.18546E-07         0.00000E+00
    0.88227E-06        -0.24629E-07         0.00000E+00
    0.87935E-06        -0.29433E-07         0.00000E+00
    0.87784E-06        -0.32776E-07         0.00000E+00
    0.87738E-06        -0.34569E-07         0.00000E+00
    0.87760E-06        -0.34803E-07         0.00000E+00
    0.87815E-06        -0.33531E-07         0.00000E+00
    0.87870E-06        -0.30859E-07         0.00000E+00
    0.87897E-06        -0.26941E-07         0.00000E+00
    0.87872E-06        -0.21969E-07         0.00000E+00
    0.87775E-06        -0.16180E-07         0.00000E+00
    0.87597E-06        -0.98436E-08         0.00000E+00
    0.87333E-06        -0.32645E-08         0.00000E+00
    0.87665E-06        -0.46438E-08         0.00000E+00
    0.86864E-06        -0.13826E-07         0.00000E+00
    0.86332E-06        -0.22264E-07         0.00000E+00
    0.86035E-06        -0.29489E-07         0.00000E+00
    0.85933E-06        -0.35172E-07         0.00000E+00
    0.85981E-06        -0.39112E-07         0.00000E+00
    0.86135E-06        -0.41210E-07         0.00000E+00
    0.86352E-06        -0.41459E-07         0.00000E+00
    0.86591E-06        -0.39925E-07         0.00000E+00
    0.86814E-06        -0.36734E-07         0.00000E+00
    0.86988E-06        -0.32067E-07         0.00000E+00
    0.87085E-06        -0.26153E-07         0.00000E+00
    0.87083E-06        -0.19267E-07         0.00000E+00
    0.86967E-06        -0.11730E-07         0.00000E+00
    0.86731E-06        -0.39020E-08         0.00000E+00
    0.85109E-06        -0.56017E-08         0.00000E+00
    0.84410E-06        -0.16562E-07         0.00000E+00
    0.84030E-06        -0.26534E-07         0.00000E+00
    0.83920E-06        -0.35006E-07         0.00000E+00
    0.84027E-06        -0.41622E-07         0.00000E+00
    0.84296E-06        -0.46171E-07         0.00000E+00
    0.84674E-06        -0.48557E-07         0.00000E+00
    0.85107E-06        -0.48785E-07         0.00000E+00
    0.85550E-06        -0.46940E-07         0.00000E+00
    0.85959E-06        -0.43172E-07         0.00000E+00
    0.86296E-06        -0.37687E-07         0.00000E+00
    0.86528E-06        -0.30748E-07         0.00000E+00
    0.86629E-06        -0.22667E-07         0.00000E+00
    0.86580E-06        -0.13815E-07         0.00000E+00
    0.86369E-06        -0.46081E-08         0.00000E+00
    0.82582E-06        -0.67166E-08         0.00000E+00
    0.81996E-06        -0.19724E-07         0.00000E+00
    0.81786E-06        -0.31420E-07         0.00000E+00
    0.81886E-06        -0.41254E-07         0.00000E+00
    0.82228E-06        -0.48859E-07         0.00000E+00
    0.82743E-06        -0.54025E-07         0.00000E+00
    0.83367E-06        -0.56676E-07         0.00000E+00
    0.84039E-06        -0.56841E-07         0.00000E+00
    0.84707E-06        -0.54632E-07         0.00000E+00
    0.85320E-06        -0.50224E-07         0.00000E+00
    0.85836E-06        -0.43851E-07         0.00000E+00
    0.86217E-06        -0.35800E-07         0.00000E+00
    0.86431E-06        -0.26420E-07         0.00000E+00
    0.86453E-06        -0.16124E-07         0.00000E+00
    0.86267E-06        -0.53928E-08         0.00000E+00
    0.80065E-06        -0.80019E-08         0.00000E+00
    0.79614E-06        -0.23348E-07         0.00000E+00
    0.79599E-06        -0.36968E-07         0.00000E+00
    0.79937E-06        -0.48281E-07         0.00000E+00
    0.80542E-06        -0.56920E-07         0.00000E+00
    0.81330E-06        -0.62698E-07         0.00000E+00
    0.82226E-06        -0.65576E-07         0.00000E+00
    0.83161E-06        -0.65626E-07         0.00000E+00
    0.84073E-06        -0.62996E-07         0.00000E+00
    0.84910E-06        -0.57892E-07         0.00000E+00
    0.85622E-06        -0.50567E-07         0.00000E+00
    0.86167E-06        -0.41329E-07         0.00000E+00
    0.86505E-06        -0.30548E-07         0.00000E+00
    0.86605E-06        -0.18680E-07         0.00000E+00
    0.86444E-06        -0.62644E-08         0.00000E+00
    0.77536E-06        -0.94694E-08         0.00000E+00
    0.77247E-06        -0.27463E-07         0.00000E+00
    0.77462E-06        -0.43209E-07         0.00000E+00
    0.78074E-06        -0.56104E-07         0.00000E+00
    0.78977E-06        -0.65797E-07         0.00000E+00
    0.80070E-06        -0.72153E-07         0.00000E+00
    0.81264E-06        -0.75197E-07         0.00000E+00
    0.82483E-06        -0.75066E-07         0.00000E+00
    0.83660E-06        -0.71960E-07         0.00000E+00
    0.84737E-06        -0.66115E-07         0.00000E+00
    0.85663E-06        -0.57798E-07         0.00000E+00
    0.86388E-06        -0.47320E-07         0.00000E+00
    0.86866E-06        -0.35060E-07         0.00000E+00
    0.87055E-06        -0.21496E-07         0.00000E+00
    0.86921E-06        -0.72306E-08         0.00000E+00
    0.74966E-06        -0.11131E-07         0.00000E+00
    0.74877E-06        -0.32094E-07         0.00000E+00
    0.75366E-06        -0.50160E-07         0.00000E+00
    0.76298E-06        -0.64706E-07         0.00000E+00
    0.77539E-06        -0.75426E-07         0.00000E+00
    0.78971E-06        -0.82273E-07         0.00000E+00
    0.80491E-06        -0.85382E-07         0.00000E+00
    0.82015E-06        -0.84984E-07         0.00000E+00
    0.83473E-06        -0.81349E-07         0.00000E+00
    0.84807E-06        -0.74746E-07         0.00000E+00
    0.85962E-06        -0.65440E-07         0.00000E+00
    0.86885E-06        -0.53719E-07         0.00000E+00
    0.87522E-06        -0.39940E-07         0.00000E+00
    0.87816E-06        -0.24583E-07         0.00000E+00
    0.87719E-06        -0.82990E-08         0.00000E+00
    0.72319E-06        -0.13002E-07         0.00000E+00
    0.72481E-06        -0.37269E-07         0.00000E+00
    0.73303E-06        -0.57822E-07         0.00000E+00
    0.74611E-06        -0.74027E-07         0.00000E+00
    0.76241E-06        -0.85664E-07         0.00000E+00
    0.78049E-06        -0.92838E-07         0.00000E+00
    0.79920E-06        -0.95848E-07         0.00000E+00
    0.81764E-06        -0.95070E-07         0.00000E+00
    0.83514E-06        -0.90863E-07         0.00000E+00
    0.85116E-06        -0.83527E-07         0.00000E+00
    0.86516E-06        -0.73302E-07         0.00000E+00
    0.87658E-06        -0.60414E-07         0.00000E+00
    0.88476E-06        -0.45148E-07         0.00000E+00
    0.88900E-06        -0.27943E-07         0.00000E+00
    0.88856E-06        -0.94778E-08         0.00000E+00
    0.69550E-06        -0.15102E-07         0.00000E+00
    0.70032E-06        -0.43022E-07         0.00000E+00
    0.71264E-06        -0.66182E-07         0.00000E+00
    0.73022E-06        -0.83950E-07         0.00000E+00
    0.75099E-06        -0.96263E-07         0.00000E+00
    0.77322E-06        -0.10347E-06         0.00000E+00
    0.79563E-06        -0.10614E-06         0.00000E+00
    0.81735E-06        -0.10483E-06         0.00000E+00
    0.83780E-06        -0.10003E-06         0.00000E+00
    0.85652E-06        -0.92049E-07         0.00000E+00
    0.87307E-06        -0.81078E-07         0.00000E+00
    0.88690E-06        -0.67216E-07         0.00000E+00
    0.89723E-06        -0.50606E-07         0.00000E+00
    0.90312E-06        -0.31574E-07         0.00000E+00
    0.90354E-06        -0.10777E-07         0.00000E+00
    0.66606E-06        -0.17468E-07         0.00000E+00
    0.67500E-06        -0.49409E-07         0.00000E+00
    0.69249E-06        -0.75208E-07         0.00000E+00
    0.71552E-06        -0.94268E-07         0.00000E+00
    0.74144E-06        -0.10681E-06         0.00000E+00
    0.76819E-06        -0.11360E-06         0.00000E+00
    0.79440E-06        -0.11555E-06         0.00000E+00
    0.81932E-06        -0.11353E-06         0.00000E+00
    0.84256E-06        -0.10813E-06         0.00000E+00
    0.86389E-06        -0.99700E-07         0.00000E+00
    0.88304E-06        -0.88298E-07         0.00000E+00
    0.89949E-06        -0.73830E-07         0.00000E+00
    0.91240E-06        -0.56186E-07         0.00000E+00
    0.92051E-06        -0.35463E-07         0.00000E+00
    0.92231E-06        -0.12212E-07         0.00000E+00
    0.63417E-06        -0.20162E-07         0.00000E+00
    0.64855E-06        -0.56519E-07         0.00000E+00
    0.67268E-06        -0.84833E-07         0.00000E+00
    0.70241E-06        -0.10463E-06         0.00000E+00
    0.73425E-06        -0.11666E-06         0.00000E+00
    0.76579E-06        -0.12232E-06         0.00000E+00
    0.79571E-06        -0.12308E-06         0.00000E+00
    0.82352E-06        -0.12013E-06         0.00000E+00
    0.84920E-06        -0.11420E-06         0.00000E+00
    0.87286E-06        -0.10561E-06         0.00000E+00
    0.89450E-06        -0.94271E-07         0.00000E+00
    0.91380E-06        -0.79796E-07         0.00000E+00
    0.92984E-06        -0.61673E-07         0.00000E+00
    0.94101E-06        -0.39580E-07         0.00000E+00
    0.94510E-06        -0.13799E-07         0.00000E+00
    0.59894E-06        -0.23293E-07         0.00000E+00
    0.62069E-06        -0.64501E-07         0.00000E+00
    0.65359E-06        -0.94901E-07         0.00000E+00
    0.69163E-06        -0.11438E-06         0.00000E+00
    0.73018E-06        -0.12470E-06         0.00000E+00
    0.76656E-06        -0.12830E-06         0.00000E+00
    0.79978E-06        -0.12732E-06         0.00000E+00
    0.82988E-06        -0.12325E-06         0.00000E+00
    0.85735E-06        -0.11692E-06         0.00000E+00
    0.88280E-06        -0.10859E-06         0.00000E+00
    0.90667E-06        -0.98001E-07         0.00000E+00
    0.92895E-06        -0.84398E-07         0.00000E+00
    0.94881E-06        -0.66694E-07         0.00000E+00
    0.96427E-06        -0.43850E-07         0.00000E+00
    0.97214E-06        -0.15558E-07         0.00000E+00
    0.55911E-06        -0.27066E-07         0.00000E+00
    0.59129E-06        -0.73572E-07         0.00000E+00
    0.63613E-06        -0.10498E-06         0.00000E+00
    0.68449E-06        -0.12225E-06         0.00000E+00
    0.73030E-06        -0.12912E-06         0.00000E+00
    0.77108E-06        -0.12957E-06         0.00000E+00
    0.80673E-06        -0.12639E-06         0.00000E+00
    0.83816E-06        -0.12116E-06         0.00000E+00
    0.86652E-06        -0.11468E-06         0.00000E+00
    0.89296E-06        -0.10710E-06         0.00000E+00
    0.91848E-06        -0.98067E-07         0.00000E+00
    0.94367E-06        -0.86492E-07         0.00000E+00
    0.96812E-06        -0.70567E-07         0.00000E+00
    0.98960E-06        -0.48075E-07         0.00000E+00
    0.10037E-05        -0.17497E-07         0.00000E+00
    0.51287E-06        -0.31881E-07         0.00000E+00
    0.56069E-06        -0.83928E-07         0.00000E+00
    0.62234E-06        -0.11383E-06         0.00000E+00
    0.68314E-06        -0.12551E-06         0.00000E+00
    0.73580E-06        -0.12682E-06         0.00000E+00
    0.77963E-06        -0.12343E-06         0.00000E+00
    0.81637E-06        -0.11803E-06         0.00000E+00
    0.84794E-06        -0.11191E-06         0.00000E+00
    0.87612E-06        -0.10563E-06         0.00000E+00
    0.90253E-06        -0.99281E-07         0.00000E+00
    0.92875E-06        -0.92491E-07         0.00000E+00
    0.95631E-06        -0.84211E-07         0.00000E+00
    0.98586E-06        -0.71938E-07         0.00000E+00
    0.10157E-05        -0.51723E-07         0.00000E+00
    0.10399E-05        -0.19577E-07         0.00000E+00
    0.45739E-06        -0.38416E-07         0.00000E+00
    0.53082E-06        -0.95622E-07         0.00000E+00
    0.61684E-06        -0.11686E-06         0.00000E+00
    0.69028E-06        -0.11805E-06         0.00000E+00
    0.74695E-06        -0.11321E-06         0.00000E+00
    0.79169E-06        -0.10656E-06         0.00000E+00
    0.82795E-06        -0.99769E-07         0.00000E+00
    0.85849E-06        -0.93488E-07         0.00000E+00
    0.88548E-06        -0.87940E-07         0.00000E+00
    0.91087E-06        -0.83127E-07         0.00000E+00
    0.93664E-06        -0.78835E-07         0.00000E+00
    0.96505E-06        -0.74403E-07         0.00000E+00
    0.99933E-06        -0.68023E-07         0.00000E+00
    0.10401E-05        -0.53341E-07         0.00000E+00
    0.10808E-05        -0.21407E-07         0.00000E+00
    0.38738E-06        -0.52242E-07         0.00000E+00
    0.51178E-06        -0.99655E-07         0.00000E+00
    0.62767E-06        -0.98054E-07         0.00000E+00
    0.70496E-06        -0.90493E-07         0.00000E+00
    0.76194E-06        -0.82415E-07         0.00000E+00
    0.80535E-06        -0.75145E-07         0.00000E+00
    0.83989E-06        -0.68965E-07         0.00000E+00
    0.86863E-06        -0.63880E-07         0.00000E+00
    0.89387E-06        -0.59834E-07         0.00000E+00
    0.91765E-06        -0.56772E-07         0.00000E+00
    0.94203E-06        -0.54634E-07         0.00000E+00
    0.96974E-06        -0.53267E-07         0.00000E+00
    0.10048E-05        -0.52121E-07         0.00000E+00
    0.10577E-05        -0.48513E-07         0.00000E+00
    0.11251E-05        -0.22582E-07         0.00000E+00
    0.31161E-06        -0.12010E-07         0.00000E+00
    0.53109E-06        -0.30644E-07         0.00000E+00
    0.64413E-06        -0.29348E-07         0.00000E+00
    0.72080E-06        -0.27458E-07         0.00000E+00
    0.77555E-06        -0.25174E-07         0.00000E+00
    0.81693E-06        -0.23122E-07         0.00000E+00
    0.84959E-06        -0.21373E-07         0.00000E+00
    0.87664E-06        -0.19951E-07         0.00000E+00
    0.90033E-06        -0.18859E-07         0.00000E+00
    0.92262E-06        -0.18106E-07         0.00000E+00
    0.94557E-06        -0.17717E-07         0.00000E+00
    0.97184E-06        -0.17747E-07         0.00000E+00
    0.10060E-05        -0.18143E-07         0.00000E+00
    0.10564E-05        -0.19569E-07         0.00000E+00
    0.11670E-05        -0.10679E-07         0.00000E+00
POINT_DATA        496
VECTORS vDarcyNodal double 
    0.11691E-05         0.33139E-07         0.00000E+00
    0.11645E-05         0.54783E-07         0.00000E+00
    0.11574E-05         0.84330E-07         0.00000E+00
    0.11534E-05         0.96464E-07         0.00000E+00
    0.11512E-05         0.10256E-06         0.00000E+00
    0.11497E-05         0.10472E-06         0.00000E+00
    0.11487E-05         0.10413E-06         0.00000E+00
    0.11479E-05         0.10144E-06         0.00000E+00
    0.11472E-05         0.97057E-07         0.00000E+00
    0.11467E-05         0.91208E-07         0.00000E+00
    0.11461E-05         0.83996E-07         0.00000E+00
    0.11454E-05         0.75389E-07         0.00000E+00
    0.11445E-05         0.65105E-07         0.00000E+00
    0.11428E-05         0.52648E-07         0.00000E+00
    0.11398E-05         0.32479E-07         0.00000E+00
    0.11380E-05         0.19148E-07         0.00000E+00
    0.11756E-05         0.15057E-07         0.00000E+00
    0.11670E-05         0.28988E-07         0.00000E+00
    0.11539E-05         0.52896E-07         0.00000E+00
    0.11468E-05         0.68518E-07         0.00000E+00
    0.11424E-05         0.77273E-07         0.00000E+00
    0.11395E-05         0.81702E-07         0.00000E+00
    0.11374E-05         0.82989E-07         0.00000E+00
    0.11358E-05         0.81851E-07         0.00000E+00
    0.11345E-05         0.78722E-07         0.00000E+00
    0.11334E-05         0.73847E-07         0.00000E+00
    0.11322E-05         0.67312E-07         0.00000E+00
    0.11309E-05         0.59028E-07         0.00000E+00
    0.11291E-05         0.48672E-07         0.00000E+00
    0.11262E-05         0.35100E-07         0.00000E+00
    0.11207E-05         0.18153E-07         0.00000E+00
    0.11170E-05         0.90243E-08         0.00000E+00
    0.11790E-05         0.83868E-08         0.00000E+00
    0.11661E-05         0.16864E-07         0.00000E+00
    0.11457E-05         0.33031E-07         0.00000E+00
    0.11333E-05         0.46309E-07         0.00000E+00
    0.11251E-05         0.55397E-07         0.00000E+00
    0.11195E-05         0.60756E-07         0.00000E+00
    0.11153E-05         0.63150E-07         0.00000E+00
    0.11122E-05         0.63126E-07         0.00000E+00
    0.11096E-05         0.61057E-07         0.00000E+00
    0.11072E-05         0.57168E-07         0.00000E+00
    0.11049E-05         0.51552E-07         0.00000E+00
    0.11022E-05         0.44185E-07         0.00000E+00
    0.10987E-05         0.34893E-07         0.00000E+00
    0.10937E-05         0.23756E-07         0.00000E+00
    0.10854E-05         0.11785E-07         0.00000E+00
    0.10803E-05         0.57903E-08         0.00000E+00
    0.11681E-05         0.48654E-08         0.00000E+00
    0.11557E-05         0.10063E-07         0.00000E+00
    0.11342E-05         0.20605E-07         0.00000E+00
    0.11188E-05         0.30440E-07         0.00000E+00
    0.11078E-05         0.38154E-07         0.00000E+00
    0.10999E-05         0.43327E-07         0.00000E+00
    0.10939E-05         0.46093E-07         0.00000E+00
    0.10892E-05         0.46730E-07         0.00000E+00
    0.10853E-05         0.45485E-07         0.00000E+00
    0.10818E-05         0.42540E-07         0.00000E+00
    0.10783E-05         0.38013E-07         0.00000E+00
    0.10744E-05         0.31981E-07         0.00000E+00
    0.10697E-05         0.24598E-07         0.00000E+00
    0.10635E-05         0.16294E-07         0.00000E+00
    0.10553E-05         0.79173E-08         0.00000E+00
    0.10507E-05         0.38443E-08         0.00000E+00
    0.11504E-05         0.27435E-08         0.00000E+00
    0.11390E-05         0.58195E-08         0.00000E+00
    0.11184E-05         0.12398E-07         0.00000E+00
    0.11021E-05         0.19151E-07         0.00000E+00
    0.10897E-05         0.24978E-07         0.00000E+00
    0.10801E-05         0.29278E-07         0.00000E+00
    0.10727E-05         0.31867E-07         0.00000E+00
    0.10667E-05         0.32780E-07         0.00000E+00
    0.10617E-05         0.32134E-07         0.00000E+00
    0.10572E-05         0.30057E-07         0.00000E+00
    0.10528E-05         0.26679E-07         0.00000E+00
    0.10481E-05         0.22162E-07         0.00000E+00
    0.10427E-05         0.16767E-07         0.00000E+00
    0.10363E-05         0.10929E-07         0.00000E+00
    0.10287E-05         0.52593E-08         0.00000E+00
    0.10247E-05         0.25514E-08         0.00000E+00
    0.11286E-05         0.13603E-08         0.00000E+00
    0.11183E-05         0.29913E-08         0.00000E+00
    0.10991E-05         0.67292E-08         0.00000E+00
    0.10831E-05         0.10977E-07         0.00000E+00
    0.10702E-05         0.14957E-07         0.00000E+00
    0.10598E-05         0.18133E-07         0.00000E+00
    0.10515E-05         0.20226E-07         0.00000E+00
    0.10447E-05         0.21143E-07         0.00000E+00
    0.10389E-05         0.20903E-07         0.00000E+00
    0.10336E-05         0.19583E-07         0.00000E+00
    0.10286E-05         0.17302E-07         0.00000E+00
    0.10234E-05         0.14234E-07         0.00000E+00
    0.10178E-05         0.10631E-07         0.00000E+00
    0.10116E-05         0.68401E-08         0.00000E+00
    0.10048E-05         0.32668E-08         0.00000E+00
    0.10013E-05         0.15870E-08         0.00000E+00
    0.11043E-05         0.40517E-09         0.00000E+00
    0.10949E-05         0.10072E-08         0.00000E+00
    0.10774E-05         0.26521E-08         0.00000E+00
    0.10622E-05         0.49050E-08         0.00000E+00
    0.10494E-05         0.72539E-08         0.00000E+00
    0.10389E-05         0.92929E-08         0.00000E+00
    0.10302E-05         0.10758E-07         0.00000E+00
    0.10229E-05         0.11516E-07         0.00000E+00
    0.10167E-05         0.11532E-07         0.00000E+00
    0.10111E-05         0.10842E-07         0.00000E+00
    0.10058E-05         0.95331E-08         0.00000E+00
    0.10004E-05         0.77478E-08         0.00000E+00
    0.99487E-06         0.56825E-08         0.00000E+00
    0.98901E-06         0.35778E-08         0.00000E+00
    0.98295E-06         0.16846E-08         0.00000E+00
    0.97989E-06         0.82135E-09         0.00000E+00
    0.10783E-05        -0.29349E-09         0.00000E+00
    0.10699E-05        -0.46038E-09         0.00000E+00
    0.10539E-05        -0.41561E-09         0.00000E+00
    0.10398E-05         0.23462E-09         0.00000E+00
    0.10276E-05         0.11887E-08         0.00000E+00
    0.10174E-05         0.21752E-08         0.00000E+00
    0.10087E-05         0.29904E-08         0.00000E+00
    0.10015E-05         0.35087E-08         0.00000E+00
    0.99519E-06         0.36753E-08         0.00000E+00
    0.98955E-06         0.34934E-08         0.00000E+00
    0.98425E-06         0.30142E-08         0.00000E+00
    0.97905E-06         0.23304E-08         0.00000E+00
    0.97378E-06         0.15676E-08         0.00000E+00
    0.96839E-06         0.86923E-09         0.00000E+00
    0.96296E-06         0.36784E-09         0.00000E+00
    0.96026E-06         0.18122E-09         0.00000E+00
    0.10514E-05        -0.84383E-09         0.00000E+00
    0.10438E-05        -0.16214E-08         0.00000E+00
    0.10293E-05        -0.28629E-08         0.00000E+00
    0.10164E-05        -0.35359E-08         0.00000E+00
    0.10051E-05        -0.37759E-08         0.00000E+00
    0.99547E-06        -0.37328E-08         0.00000E+00
    0.98734E-06        -0.35386E-08         0.00000E+00
    0.98042E-06        -0.32895E-08         0.00000E+00
    0.97444E-06        -0.30414E-08         0.00000E+00
    0.96908E-06        -0.28126E-08         0.00000E+00
    0.96408E-06        -0.25885E-08         0.00000E+00
    0.95924E-06        -0.23288E-08         0.00000E+00
    0.95440E-06        -0.19764E-08         0.00000E+00
    0.94953E-06        -0.14727E-08         0.00000E+00
    0.94468E-06        -0.77774E-09         0.00000E+00
    0.94228E-06        -0.37933E-09         0.00000E+00
    0.10240E-05        -0.13207E-08         0.00000E+00
    0.10171E-05        -0.26227E-08         0.00000E+00
    0.10040E-05        -0.49680E-08         0.00000E+00
    0.99231E-06        -0.67820E-08         0.00000E+00
    0.98213E-06        -0.80668E-08         0.00000E+00
    0.97344E-06        -0.88687E-08         0.00000E+00
    0.96610E-06        -0.92500E-08         0.00000E+00
    0.95987E-06        -0.92710E-08         0.00000E+00
    0.95450E-06        -0.89798E-08         0.00000E+00
    0.94972E-06        -0.84090E-08         0.00000E+00
    0.94527E-06        -0.75768E-08         0.00000E+00
    0.94098E-06        -0.64910E-08         0.00000E+00
    0.93669E-06        -0.51571E-08         0.00000E+00
    0.93238E-06        -0.35887E-08         0.00000E+00
    0.92806E-06        -0.18210E-08         0.00000E+00
    0.92591E-06        -0.89358E-09         0.00000E+00
    0.99650E-06        -0.17796E-08         0.00000E+00
    0.99025E-06        -0.35737E-08         0.00000E+00
    0.97841E-06        -0.69409E-08         0.00000E+00
    0.96799E-06        -0.97941E-08         0.00000E+00
    0.95904E-06        -0.12027E-07         0.00000E+00
    0.95150E-06        -0.13600E-07         0.00000E+00
    0.94522E-06        -0.14512E-07         0.00000E+00
    0.93996E-06        -0.14790E-07         0.00000E+00
    0.93549E-06        -0.14471E-07         0.00000E+00
    0.93153E-06        -0.13598E-07         0.00000E+00
    0.92786E-06        -0.12217E-07         0.00000E+00
    0.92428E-06        -0.10379E-07         0.00000E+00
    0.92066E-06        -0.81457E-08         0.00000E+00
    0.91694E-06        -0.55916E-08         0.00000E+00
    0.91312E-06        -0.28165E-08         0.00000E+00
    0.91119E-06        -0.13878E-08         0.00000E+00
    0.96913E-06        -0.22640E-08         0.00000E+00
    0.96343E-06        -0.45596E-08         0.00000E+00
    0.95279E-06        -0.89463E-08         0.00000E+00
    0.94368E-06        -0.12803E-07         0.00000E+00
    0.93608E-06        -0.15936E-07         0.00000E+00
    0.92988E-06        -0.18232E-07         0.00000E+00
    0.92489E-06        -0.19640E-07         0.00000E+00
    0.92085E-06        -0.20156E-07         0.00000E+00
    0.91752E-06        -0.19807E-07         0.00000E+00
    0.91462E-06        -0.18644E-07         0.00000E+00
    0.91192E-06        -0.16741E-07         0.00000E+00
    0.90921E-06        -0.14185E-07         0.00000E+00
    0.90635E-06        -0.11086E-07         0.00000E+00
    0.90326E-06        -0.75759E-08         0.00000E+00
    0.89991E-06        -0.38096E-08         0.00000E+00
    0.89818E-06        -0.18838E-08         0.00000E+00
    0.94204E-06        -0.28088E-08         0.00000E+00
    0.93686E-06        -0.56493E-08         0.00000E+00
    0.92737E-06        -0.11117E-07         0.00000E+00
    0.91961E-06        -0.15997E-07         0.00000E+00
    0.91348E-06        -0.20022E-07         0.00000E+00
    0.90879E-06        -0.23020E-07         0.00000E+00
    0.90529E-06        -0.24899E-07         0.00000E+00
    0.90271E-06        -0.25631E-07         0.00000E+00
    0.90075E-06        -0.25237E-07         0.00000E+00
    0.89912E-06        -0.23778E-07         0.00000E+00
    0.89757E-06        -0.21347E-07         0.00000E+00
    0.89587E-06        -0.18071E-07         0.00000E+00
    0.89387E-06        -0.14102E-07         0.00000E+00
    0.89144E-06        -0.96215E-08         0.00000E+00
    0.88856E-06        -0.48392E-08         0.00000E+00
    0.88700E-06        -0.24004E-08         0.00000E+00
    0.91536E-06        -0.34425E-08         0.00000E+00
    0.91066E-06        -0.68987E-08         0.00000E+00
    0.90231E-06        -0.13561E-07         0.00000E+00
    0.89596E-06        -0.19527E-07         0.00000E+00
    0.89142E-06        -0.24470E-07         0.00000E+00
    0.88840E-06        -0.28172E-07         0.00000E+00
    0.88661E-06        -0.30509E-07         0.00000E+00
    0.88569E-06        -0.31436E-07         0.00000E+00
    0.88531E-06        -0.30971E-07         0.00000E+00
    0.88516E-06        -0.29188E-07         0.00000E+00
    0.88493E-06        -0.26204E-07         0.00000E+00
    0.88439E-06        -0.22175E-07         0.00000E+00
    0.88333E-06        -0.17296E-07         0.00000E+00
    0.88161E-06        -0.11797E-07         0.00000E+00
    0.87919E-06        -0.59385E-08         0.00000E+00
    0.87779E-06        -0.29538E-08         0.00000E+00
    0.88910E-06        -0.41888E-08         0.00000E+00
    0.88489E-06        -0.83543E-08         0.00000E+00
    0.87769E-06        -0.16367E-07         0.00000E+00
    0.87285E-06        -0.23519E-07         0.00000E+00
    0.87004E-06        -0.29434E-07         0.00000E+00
    0.86889E-06        -0.33858E-07         0.00000E+00
    0.86900E-06        -0.36646E-07         0.00000E+00
    0.86996E-06        -0.37746E-07         0.00000E+00
    0.87138E-06        -0.37178E-07         0.00000E+00
    0.87290E-06        -0.35032E-07         0.00000E+00
    0.87417E-06        -0.31445E-07         0.00000E+00
    0.87490E-06        -0.26609E-07         0.00000E+00
    0.87488E-06        -0.20755E-07         0.00000E+00
    0.87393E-06        -0.14160E-07         0.00000E+00
    0.87196E-06        -0.71360E-08         0.00000E+00
    0.87071E-06        -0.35582E-08         0.00000E+00
    0.86325E-06        -0.50675E-08         0.00000E+00
    0.85954E-06        -0.10054E-07         0.00000E+00
    0.85358E-06        -0.19607E-07         0.00000E+00
    0.85038E-06        -0.28072E-07         0.00000E+00
    0.84948E-06        -0.35032E-07         0.00000E+00
    0.85039E-06        -0.40208E-07         0.00000E+00
    0.85262E-06        -0.43446E-07         0.00000E+00
    0.85568E-06        -0.44694E-07         0.00000E+00
    0.85911E-06        -0.43986E-07         0.00000E+00
    0.86248E-06        -0.41425E-07         0.00000E+00
    0.86541E-06        -0.37177E-07         0.00000E+00
    0.86758E-06        -0.31462E-07         0.00000E+00
    0.86870E-06        -0.24549E-07         0.00000E+00
    0.86857E-06        -0.16758E-07         0.00000E+00
    0.86706E-06        -0.84562E-08         0.00000E+00
    0.86595E-06        -0.42257E-08         0.00000E+00
    0.83772E-06        -0.60949E-08         0.00000E+00
    0.83456E-06        -0.12031E-07         0.00000E+00
    0.82997E-06        -0.23341E-07         0.00000E+00
    0.82859E-06        -0.33264E-07         0.00000E+00
    0.82982E-06        -0.41353E-07         0.00000E+00
    0.83303E-06        -0.47316E-07         0.00000E+00
    0.83761E-06        -0.51002E-07         0.00000E+00
    0.84299E-06        -0.52370E-07         0.00000E+00
    0.84864E-06        -0.51475E-07         0.00000E+00
    0.85406E-06        -0.48445E-07         0.00000E+00
    0.85883E-06        -0.43470E-07         0.00000E+00
    0.86257E-06        -0.36796E-07         0.00000E+00
    0.86495E-06        -0.28729E-07         0.00000E+00
    0.86571E-06        -0.19630E-07         0.00000E+00
    0.86467E-06        -0.99193E-08         0.00000E+00
    0.86369E-06        -0.49667E-08         0.00000E+00
    0.81236E-06        -0.72848E-08         0.00000E+00
    0.80983E-06        -0.14308E-07         0.00000E+00
    0.80681E-06        -0.27614E-07         0.00000E+00
    0.80750E-06        -0.39152E-07         0.00000E+00
    0.81112E-06        -0.48456E-07         0.00000E+00
    0.81689E-06        -0.55235E-07         0.00000E+00
    0.82409E-06        -0.59357E-07         0.00000E+00
    0.83203E-06        -0.60810E-07         0.00000E+00
    0.84011E-06        -0.59679E-07         0.00000E+00
    0.84778E-06        -0.56121E-07         0.00000E+00
    0.85456E-06        -0.50352E-07         0.00000E+00
    0.86003E-06        -0.42645E-07         0.00000E+00
    0.86379E-06        -0.33329E-07         0.00000E+00
    0.86553E-06        -0.22803E-07         0.00000E+00
    0.86499E-06        -0.11542E-07         0.00000E+00
    0.86414E-06        -0.57905E-08         0.00000E+00
    0.78697E-06        -0.86489E-08         0.00000E+00
    0.78521E-06        -0.16909E-07         0.00000E+00
    0.78403E-06        -0.32459E-07         0.00000E+00
    0.78710E-06        -0.45770E-07         0.00000E+00
    0.79343E-06        -0.56364E-07         0.00000E+00
    0.80208E-06        -0.63972E-07         0.00000E+00
    0.81217E-06        -0.68499E-07         0.00000E+00
    0.82291E-06        -0.69986E-07         0.00000E+00
    0.83363E-06        -0.68562E-07         0.00000E+00
    0.84373E-06        -0.64423E-07         0.00000E+00
    0.85270E-06        -0.57808E-07         0.00000E+00
    0.86006E-06        -0.49004E-07         0.00000E+00
    0.86535E-06        -0.38357E-07         0.00000E+00
    0.86818E-06        -0.26295E-07         0.00000E+00
    0.86821E-06        -0.13336E-07         0.00000E+00
    0.86749E-06        -0.67048E-08         0.00000E+00
    0.76128E-06        -0.10198E-07         0.00000E+00
    0.76046E-06        -0.19850E-07         0.00000E+00
    0.76150E-06        -0.37899E-07         0.00000E+00
    0.76736E-06        -0.53128E-07         0.00000E+00
    0.77681E-06        -0.65060E-07         0.00000E+00
    0.78869E-06        -0.73472E-07         0.00000E+00
    0.80196E-06        -0.78342E-07         0.00000E+00
    0.81574E-06        -0.79788E-07         0.00000E+00
    0.82930E-06        -0.78009E-07         0.00000E+00
    0.84201E-06        -0.73244E-07         0.00000E+00
    0.85333E-06        -0.65753E-07         0.00000E+00
    0.86274E-06        -0.55824E-07         0.00000E+00
    0.86973E-06        -0.43798E-07         0.00000E+00
    0.87380E-06        -0.30109E-07         0.00000E+00
    0.87450E-06        -0.15313E-07         0.00000E+00
    0.87396E-06        -0.77170E-08         0.00000E+00
    0.73497E-06        -0.11943E-07         0.00000E+00
    0.73531E-06        -0.23148E-07         0.00000E+00
    0.73907E-06        -0.43948E-07         0.00000E+00
    0.74825E-06        -0.61209E-07         0.00000E+00
    0.76132E-06        -0.74474E-07         0.00000E+00
    0.77684E-06        -0.83604E-07         0.00000E+00
    0.79360E-06        -0.88698E-07         0.00000E+00
    0.81063E-06        -0.89994E-07         0.00000E+00
    0.82717E-06        -0.87788E-07         0.00000E+00
    0.84261E-06        -0.82373E-07         0.00000E+00
    0.85642E-06        -0.74021E-07         0.00000E+00
    0.86806E-06        -0.62995E-07         0.00000E+00
    0.87697E-06        -0.49599E-07         0.00000E+00
    0.88250E-06        -0.34235E-07         0.00000E+00
    0.88404E-06        -0.17478E-07         0.00000E+00
    0.88374E-06        -0.88348E-08         0.00000E+00
    0.70761E-06        -0.13898E-07         0.00000E+00
    0.70943E-06        -0.26822E-07         0.00000E+00
    0.71658E-06        -0.50613E-07         0.00000E+00
    0.72978E-06        -0.69965E-07         0.00000E+00
    0.74707E-06        -0.84469E-07         0.00000E+00
    0.76669E-06        -0.94134E-07         0.00000E+00
    0.78724E-06        -0.99248E-07         0.00000E+00
    0.80768E-06        -0.10023E-06         0.00000E+00
    0.82728E-06        -0.97518E-07         0.00000E+00
    0.84551E-06        -0.91462E-07         0.00000E+00
    0.86190E-06        -0.82331E-07         0.00000E+00
    0.87593E-06        -0.70326E-07         0.00000E+00
    0.88699E-06        -0.55658E-07         0.00000E+00
    0.89429E-06        -0.38647E-07         0.00000E+00
    0.89696E-06        -0.19836E-07         0.00000E+00
    0.89702E-06        -0.10067E-07         0.00000E+00
    0.67869E-06        -0.16086E-07         0.00000E+00
    0.68243E-06        -0.30901E-07         0.00000E+00
    0.69387E-06        -0.57895E-07         0.00000E+00
    0.71201E-06        -0.79301E-07         0.00000E+00
    0.73428E-06        -0.94810E-07         0.00000E+00
    0.75851E-06        -0.10467E-06         0.00000E+00
    0.78309E-06        -0.10949E-06         0.00000E+00
    0.80699E-06        -0.10993E-06         0.00000E+00
    0.82960E-06        -0.10662E-06         0.00000E+00
    0.85055E-06        -0.99977E-07         0.00000E+00
    0.86952E-06        -0.90248E-07         0.00000E+00
    0.88609E-06        -0.77513E-07         0.00000E+00
    0.89960E-06        -0.61811E-07         0.00000E+00
    0.90910E-06        -0.43290E-07         0.00000E+00
    0.91336E-06        -0.22390E-07         0.00000E+00
    0.91403E-06        -0.11425E-07         0.00000E+00
    0.64756E-06        -0.18544E-07         0.00000E+00
    0.65381E-06        -0.35428E-07         0.00000E+00
    0.67083E-06        -0.65793E-07         0.00000E+00
    0.69515E-06        -0.89057E-07         0.00000E+00
    0.72334E-06        -0.10511E-06         0.00000E+00
    0.75268E-06        -0.11462E-06         0.00000E+00
    0.78142E-06        -0.11864E-06         0.00000E+00
    0.80866E-06        -0.11824E-06         0.00000E+00
    0.83403E-06        -0.11424E-06         0.00000E+00
    0.85745E-06        -0.10714E-06         0.00000E+00
    0.87888E-06        -0.97131E-07         0.00000E+00
    0.89807E-06        -0.84095E-07         0.00000E+00
    0.91440E-06        -0.67795E-07         0.00000E+00
    0.92671E-06        -0.48074E-07         0.00000E+00
    0.93332E-06        -0.25138E-07         0.00000E+00
    0.93496E-06        -0.12925E-07         0.00000E+00
    0.61334E-06        -0.21338E-07         0.00000E+00
    0.62302E-06        -0.40482E-07         0.00000E+00
    0.64747E-06        -0.74296E-07         0.00000E+00
    0.67969E-06        -0.98948E-07         0.00000E+00
    0.71489E-06        -0.11473E-06         0.00000E+00
    0.74977E-06        -0.12304E-06         0.00000E+00
    0.78258E-06        -0.12560E-06         0.00000E+00
    0.81275E-06        -0.12397E-06         0.00000E+00
    0.84039E-06        -0.11922E-06         0.00000E+00
    0.86582E-06        -0.11189E-06         0.00000E+00
    0.88939E-06        -0.10207E-06         0.00000E+00
    0.91118E-06        -0.89385E-07         0.00000E+00
    0.93071E-06        -0.73197E-07         0.00000E+00
    0.94668E-06        -0.52840E-07         0.00000E+00
    0.95679E-06        -0.28066E-07         0.00000E+00
    0.96004E-06        -0.14585E-07         0.00000E+00
    0.57482E-06        -0.24582E-07         0.00000E+00
    0.58936E-06        -0.46182E-07         0.00000E+00
    0.62411E-06        -0.83340E-07         0.00000E+00
    0.66658E-06        -0.10843E-06         0.00000E+00
    0.70998E-06        -0.12259E-06         0.00000E+00
    0.75051E-06        -0.12846E-06         0.00000E+00
    0.78688E-06        -0.12876E-06         0.00000E+00
    0.81926E-06        -0.12555E-06         0.00000E+00
    0.84838E-06        -0.12005E-06         0.00000E+00
    0.87509E-06        -0.11282E-06         0.00000E+00
    0.90024E-06        -0.10380E-06         0.00000E+00
    0.92439E-06        -0.92365E-07         0.00000E+00
    0.94746E-06        -0.77343E-07         0.00000E+00
    0.96820E-06        -0.57295E-07         0.00000E+00
    0.98364E-06        -0.31128E-07         0.00000E+00
    0.98953E-06        -0.16426E-07         0.00000E+00
    0.53018E-06        -0.28469E-07         0.00000E+00
    0.55211E-06        -0.52701E-07         0.00000E+00
    0.60181E-06        -0.92662E-07         0.00000E+00
    0.65767E-06        -0.11632E-06         0.00000E+00
    0.71005E-06        -0.12673E-06         0.00000E+00
    0.75556E-06        -0.12863E-06         0.00000E+00
    0.79445E-06        -0.12595E-06         0.00000E+00
    0.82796E-06        -0.12101E-06         0.00000E+00
    0.85755E-06        -0.11495E-06         0.00000E+00
    0.88463E-06        -0.10821E-06         0.00000E+00
    0.91054E-06        -0.10066E-06         0.00000E+00
    0.93644E-06        -0.91513E-07         0.00000E+00
    0.96313E-06        -0.79087E-07         0.00000E+00
    0.98993E-06        -0.60847E-07         0.00000E+00
    0.10134E-05        -0.34173E-07         0.00000E+00
    0.10236E-05        -0.18436E-07         0.00000E+00
    0.47651E-06        -0.33340E-07         0.00000E+00
    0.51065E-06        -0.60153E-07         0.00000E+00
    0.58379E-06        -0.10127E-06         0.00000E+00
    0.65606E-06        -0.11986E-06         0.00000E+00
    0.71624E-06        -0.12342E-06         0.00000E+00
    0.76501E-06        -0.12016E-06         0.00000E+00
    0.80487E-06        -0.11449E-06         0.00000E+00
    0.83827E-06        -0.10818E-06         0.00000E+00
    0.86729E-06        -0.10199E-06         0.00000E+00
    0.89378E-06        -0.96163E-07         0.00000E+00
    0.91947E-06        -0.90561E-07         0.00000E+00
    0.94615E-06        -0.84579E-07         0.00000E+00
    0.97571E-06        -0.76397E-07         0.00000E+00
    0.10096E-05        -0.62208E-07         0.00000E+00
    0.10450E-05        -0.36773E-07         0.00000E+00
    0.10622E-05        -0.20546E-07         0.00000E+00
    0.40589E-06        -0.39256E-07         0.00000E+00
    0.46935E-06        -0.68203E-07         0.00000E+00
    0.57779E-06        -0.10543E-06         0.00000E+00
    0.66351E-06        -0.11172E-06         0.00000E+00
    0.72804E-06        -0.10615E-06         0.00000E+00
    0.77761E-06        -0.98769E-07         0.00000E+00
    0.81685E-06        -0.91455E-07         0.00000E+00
    0.84906E-06        -0.84941E-07         0.00000E+00
    0.87674E-06        -0.79417E-07         0.00000E+00
    0.90194E-06        -0.74908E-07         0.00000E+00
    0.92660E-06        -0.71343E-07         0.00000E+00
    0.95293E-06        -0.68454E-07         0.00000E+00
    0.98379E-06        -0.65561E-07         0.00000E+00
    0.10234E-05        -0.58507E-07         0.00000E+00
    0.10756E-05        -0.37533E-07         0.00000E+00
    0.11047E-05        -0.22048E-07         0.00000E+00
    0.34421E-06        -0.49419E-07         0.00000E+00
    0.44027E-06        -0.70442E-07         0.00000E+00
    0.58304E-06        -0.85725E-07         0.00000E+00
    0.67550E-06        -0.75564E-07         0.00000E+00
    0.74108E-06        -0.67145E-07         0.00000E+00
    0.78983E-06        -0.59905E-07         0.00000E+00
    0.82769E-06        -0.54058E-07         0.00000E+00
    0.85840E-06        -0.49399E-07         0.00000E+00
    0.88460E-06        -0.45778E-07         0.00000E+00
    0.90840E-06        -0.43104E-07         0.00000E+00
    0.93180E-06        -0.41338E-07         0.00000E+00
    0.95715E-06        -0.40513E-07         0.00000E+00
    0.98787E-06        -0.40564E-07         0.00000E+00
    0.10301E-05        -0.42067E-07         0.00000E+00
    0.10987E-05        -0.33088E-07         0.00000E+00
    0.11415E-05        -0.22825E-07         0.00000E+00
    0.32362E-06         0.00000E+00         0.00000E+00
    0.43066E-06         0.00000E+00         0.00000E+00
    0.58696E-06        -0.18996E-20         0.00000E+00
    0.68152E-06         0.37686E-21         0.00000E+00
    0.74703E-06         0.19931E-20         0.00000E+00
    0.79521E-06         0.00000E+00         0.00000E+00
    0.83239E-06         0.00000E+00         0.00000E+00
    0.86240E-06        -0.25098E-20         0.00000E+00
    0.88794E-06        -0.24486E-20         0.00000E+00
    0.91110E-06         0.26637E-20         0.00000E+00
    0.93390E-06         0.26637E-20         0.00000E+00
    0.95872E-06        -0.28663E-20         0.00000E+00
    0.98910E-06         0.11320E-21         0.00000E+00
    0.10319E-05         0.29210E-20         0.00000E+00
    0.11072E-05         0.18618E-21         0.00000E+00
    0.11563E-05         0.00000E+00         0.00000E+00
CELL_DATA        450
TENSORS stressef double 
    0.28120E+08        -0.18720E+06         0.00000E+00
   -0.18720E+06         0.16489E+08         0.00000E+00
    0.00000E+00         0.00000E+00         0.89218E+07
 
    0.25285E+08        -0.22175E+06         0.00000E+00
   -0.22175E+06         0.16179E+08         0.00000E+00
    0.00000E+00         0.00000E+00         0.82929E+07
 
    0.23175E+08        -0.20733E+06         0.00000E+00
   -0.20733E+06         0.15848E+08         0.00000E+00
    0.00000E+00         0.00000E+00         0.78044E+07
 
    0.21428E+08        -0.18733E+06         0.00000E+00
   -0.18733E+06         0.15552E+08         0.00000E+00
    0.00000E+00         0.00000E+00         0.73960E+07
 
    0.19911E+08        -0.16339E+06         0.00000E+00
   -0.16339E+06         0.15306E+08         0.00000E+00
    0.00000E+00         0.00000E+00         0.70433E+07
 
    0.18550E+08        -0.13664E+06         0.00000E+00
   -0.13664E+06         0.15112E+08         0.00000E+00
    0.00000E+00         0.00000E+00         0.67324E+07
 
    0.17292E+08        -0.10713E+06         0.00000E+00
   -0.10713E+06         0.14976E+08         0.00000E+00
    0.00000E+00         0.00000E+00         0.64536E+07
 
    0.16100E+08        -0.74500E+05         0.00000E+00
   -0.74500E+05         0.14900E+08         0.00000E+00
    0.00000E+00         0.00000E+00         0.61999E+07
 
    0.14938E+08        -0.38072E+05         0.00000E+00
   -0.38072E+05         0.14890E+08         0.00000E+00
    0.00000E+00         0.00000E+00         0.59657E+07
 
    0.13775E+08         0.32482E+04         0.00000E+00
    0.32482E+04         0.14953E+08         0.00000E+00
    0.00000E+00         0.00000E+00         0.57456E+07
 
    0.12575E+08         0.51313E+05         0.00000E+00
    0.51313E+05         0.15098E+08         0.00000E+00
    0.00000E+00         0.00000E+00         0.55345E+07
 
    0.11290E+08         0.10954E+06         0.00000E+00
    0.10954E+06         0.15341E+08         0.00000E+00
    0.00000E+00         0.00000E+00         0.53262E+07
 
    0.98537E+07         0.18555E+06         0.00000E+00
    0.18555E+06         0.15706E+08         0.00000E+00
    0.00000E+00         0.00000E+00         0.51120E+07
 
    0.81431E+07         0.29717E+06         0.00000E+00
    0.29717E+06         0.16245E+08         0.00000E+00
    0.00000E+00         0.00000E+00         0.48775E+07
 
    0.58034E+07         0.56302E+06         0.00000E+00
    0.56302E+06         0.17098E+08         0.00000E+00
    0.00000E+00         0.00000E+00         0.45802E+07
 
    0.26650E+08        -0.30160E+06         0.00000E+00
   -0.30160E+06         0.15502E+08         0.00000E+00
    0.00000E+00         0.00000E+00         0.84303E+07
 
    0.24129E+08        -0.53250E+06         0.00000E+00
   -0.53250E+06         0.15400E+08         0.00000E+00
    0.00000E+00         0.00000E+00         0.79058E+07
 
    0.22041E+08        -0.55215E+06         0.00000E+00
   -0.55215E+06         0.15193E+08         0.00000E+00
    0.00000E+00         0.00000E+00         0.74467E+07
 
    0.20288E+08        -0.51578E+06         0.00000E+00
   -0.51578E+06         0.14968E+08         0.00000E+00
    0.00000E+00         0.00000E+00         0.70513E+07
 
    0.18758E+08        -0.45655E+06         0.00000E+00
   -0.45655E+06         0.14765E+08         0.00000E+00
    0.00000E+00         0.00000E+00         0.67046E+07
 
    0.17382E+08        -0.38371E+06         0.00000E+00
   -0.38371E+06         0.14599E+08         0.00000E+00
    0.00000E+00         0.00000E+00         0.63961E+07
 
    0.16110E+08        -0.29989E+06         0.00000E+00
   -0.29989E+06         0.14481E+08         0.00000E+00
    0.00000E+00         0.00000E+00         0.61182E+07
 
    0.14905E+08        -0.20511E+06         0.00000E+00
   -0.20511E+06         0.14417E+08         0.00000E+00
    0.00000E+00         0.00000E+00         0.58646E+07
 
    0.13734E+08        -0.97856E+05         0.00000E+00
   -0.97856E+05         0.14416E+08         0.00000E+00
    0.00000E+00         0.00000E+00         0.56301E+07
 
    0.12565E+08         0.24905E+05         0.00000E+00
    0.24905E+05         0.14485E+08         0.00000E+00
    0.00000E+00         0.00000E+00         0.54101E+07
 
    0.11363E+08         0.16862E+06         0.00000E+00
    0.16862E+06         0.14636E+08         0.00000E+00
    0.00000E+00         0.00000E+00         0.51999E+07
 
    0.10088E+08         0.34362E+06         0.00000E+00
    0.34362E+06         0.14883E+08         0.00000E+00
    0.00000E+00         0.00000E+00         0.49943E+07
 
    0.86841E+07         0.57156E+06         0.00000E+00
    0.57156E+06         0.15252E+08         0.00000E+00
    0.00000E+00         0.00000E+00         0.47872E+07
 
    0.70646E+07         0.90818E+06         0.00000E+00
    0.90818E+06         0.15784E+08         0.00000E+00
    0.00000E+00         0.00000E+00         0.45698E+07
 
    0.52161E+07         0.15394E+07         0.00000E+00
    0.15394E+07         0.16539E+08         0.00000E+00
    0.00000E+00         0.00000E+00         0.43510E+07
 
    0.25005E+08        -0.31166E+06         0.00000E+00
   -0.31166E+06         0.14372E+08         0.00000E+00
    0.00000E+00         0.00000E+00         0.78755E+07
 
    0.22823E+08        -0.65901E+06         0.00000E+00
   -0.65901E+06         0.14355E+08         0.00000E+00
    0.00000E+00         0.00000E+00         0.74356E+07
 
    0.20864E+08        -0.76355E+06         0.00000E+00
   -0.76355E+06         0.14273E+08         0.00000E+00
    0.00000E+00         0.00000E+00         0.70275E+07
 
    0.19148E+08        -0.75011E+06         0.00000E+00
   -0.75011E+06         0.14146E+08         0.00000E+00
    0.00000E+00         0.00000E+00         0.66589E+07
 
    0.17628E+08        -0.68044E+06         0.00000E+00
   -0.68044E+06         0.14012E+08         0.00000E+00
    0.00000E+00         0.00000E+00         0.63280E+07
 
    0.16252E+08        -0.57761E+06         0.00000E+00
   -0.57761E+06         0.13895E+08         0.00000E+00
    0.00000E+00         0.00000E+00         0.60294E+07
 
    0.14978E+08        -0.45025E+06         0.00000E+00
   -0.45025E+06         0.13812E+08         0.00000E+00
    0.00000E+00         0.00000E+00         0.57581E+07
 
    0.13772E+08        -0.30067E+06         0.00000E+00
   -0.30067E+06         0.13774E+08         0.00000E+00
    0.00000E+00         0.00000E+00         0.55093E+07
 
    0.12603E+08        -0.12764E+06         0.00000E+00
   -0.12764E+06         0.13791E+08         0.00000E+00
    0.00000E+00         0.00000E+00         0.52789E+07
 
    0.11442E+08         0.73082E+05         0.00000E+00
    0.73082E+05         0.13875E+08         0.00000E+00
    0.00000E+00         0.00000E+00         0.50633E+07
 
    0.10258E+08         0.30986E+06         0.00000E+00
    0.30986E+06         0.14035E+08         0.00000E+00
    0.00000E+00         0.00000E+00         0.48587E+07
 
    0.90206E+07         0.59847E+06         0.00000E+00
    0.59847E+06         0.14288E+08         0.00000E+00
    0.00000E+00         0.00000E+00         0.46617E+07
 
    0.76937E+07         0.97009E+06         0.00000E+00
    0.97009E+06         0.14652E+08         0.00000E+00
    0.00000E+00         0.00000E+00         0.44692E+07
 
    0.62601E+07         0.14917E+07         0.00000E+00
    0.14917E+07         0.15149E+08         0.00000E+00
    0.00000E+00         0.00000E+00         0.42818E+07
 
    0.47681E+07         0.22675E+07         0.00000E+00
    0.22675E+07         0.15755E+08         0.00000E+00
    0.00000E+00         0.00000E+00         0.41046E+07
 
    0.23302E+08        -0.30021E+06         0.00000E+00
   -0.30021E+06         0.13202E+08         0.00000E+00
    0.00000E+00         0.00000E+00         0.73007E+07
 
    0.21402E+08        -0.69038E+06         0.00000E+00
   -0.69038E+06         0.13217E+08         0.00000E+00
    0.00000E+00         0.00000E+00         0.69238E+07
 
    0.19612E+08        -0.85954E+06         0.00000E+00
   -0.85954E+06         0.13205E+08         0.00000E+00
    0.00000E+00         0.00000E+00         0.65634E+07
 
    0.17979E+08        -0.88558E+06         0.00000E+00
   -0.88558E+06         0.13157E+08         0.00000E+00
    0.00000E+00         0.00000E+00         0.62273E+07
 
    0.16499E+08        -0.82488E+06         0.00000E+00
   -0.82488E+06         0.13092E+08         0.00000E+00
    0.00000E+00         0.00000E+00         0.59181E+07
 
    0.15144E+08        -0.70816E+06         0.00000E+00
   -0.70816E+06         0.13029E+08         0.00000E+00
    0.00000E+00         0.00000E+00         0.56346E+07
 
    0.13884E+08        -0.54960E+06         0.00000E+00
   -0.54960E+06         0.12987E+08         0.00000E+00
    0.00000E+00         0.00000E+00         0.53743E+07
 
    0.12691E+08        -0.35455E+06         0.00000E+00
   -0.35455E+06         0.12980E+08         0.00000E+00
    0.00000E+00         0.00000E+00         0.51343E+07
 
    0.11538E+08        -0.12296E+06         0.00000E+00
   -0.12296E+06         0.13021E+08         0.00000E+00
    0.00000E+00         0.00000E+00         0.49118E+07
 
    0.10400E+08         0.14961E+06         0.00000E+00
    0.14961E+06         0.13120E+08         0.00000E+00
    0.00000E+00         0.00000E+00         0.47039E+07
 
    0.92531E+07         0.47285E+06         0.00000E+00
    0.47285E+06         0.13289E+08         0.00000E+00
    0.00000E+00         0.00000E+00         0.45085E+07
 
    0.80761E+07         0.86448E+06         0.00000E+00
    0.86448E+06         0.13541E+08         0.00000E+00
    0.00000E+00         0.00000E+00         0.43235E+07
 
    0.68560E+07         0.13558E+07         0.00000E+00
    0.13558E+07         0.13886E+08         0.00000E+00
    0.00000E+00         0.00000E+00         0.41484E+07
 
    0.56030E+07         0.19945E+07         0.00000E+00
    0.19945E+07         0.14321E+08         0.00000E+00
    0.00000E+00         0.00000E+00         0.39848E+07
 
    0.43704E+07         0.28356E+07         0.00000E+00
    0.28356E+07         0.14819E+08         0.00000E+00
    0.00000E+00         0.00000E+00         0.38378E+07
 
    0.21583E+08        -0.28126E+06         0.00000E+00
   -0.28126E+06         0.12003E+08         0.00000E+00
    0.00000E+00         0.00000E+00         0.67172E+07
 
    0.19914E+08        -0.67787E+06         0.00000E+00
   -0.67787E+06         0.12032E+08         0.00000E+00
    0.00000E+00         0.00000E+00         0.63893E+07
 
    0.18293E+08        -0.88271E+06         0.00000E+00
   -0.88271E+06         0.12056E+08         0.00000E+00
    0.00000E+00         0.00000E+00         0.60697E+07
 
    0.16768E+08        -0.94215E+06         0.00000E+00
   -0.94215E+06         0.12060E+08         0.00000E+00
    0.00000E+00         0.00000E+00         0.57655E+07
 
    0.15354E+08        -0.89763E+06         0.00000E+00
   -0.89763E+06         0.12047E+08         0.00000E+00
    0.00000E+00         0.00000E+00         0.54802E+07
 
    0.14042E+08        -0.77757E+06         0.00000E+00
   -0.77757E+06         0.12031E+08         0.00000E+00
    0.00000E+00         0.00000E+00         0.52147E+07
 
    0.12815E+08        -0.59819E+06         0.00000E+00
   -0.59819E+06         0.12028E+08         0.00000E+00
    0.00000E+00         0.00000E+00         0.49686E+07
 
    0.11651E+08        -0.36692E+06         0.00000E+00
   -0.36692E+06         0.12050E+08         0.00000E+00
    0.00000E+00         0.00000E+00         0.47402E+07
 
    0.10529E+08        -0.85146E+05         0.00000E+00
   -0.85146E+05         0.12111E+08         0.00000E+00
    0.00000E+00         0.00000E+00         0.45281E+07
 
    0.94296E+07         0.25081E+06         0.00000E+00
    0.25081E+06         0.12223E+08         0.00000E+00
    0.00000E+00         0.00000E+00         0.43306E+07
 
    0.83350E+07         0.64996E+06         0.00000E+00
    0.64996E+06         0.12397E+08         0.00000E+00
    0.00000E+00         0.00000E+00         0.41463E+07
 
    0.72337E+07         0.11281E+07         0.00000E+00
    0.11281E+07         0.12639E+08         0.00000E+00
    0.00000E+00         0.00000E+00         0.39746E+07
 
    0.61252E+07         0.17090E+07         0.00000E+00
    0.17090E+07         0.12954E+08         0.00000E+00
    0.00000E+00         0.00000E+00         0.38158E+07
 
    0.50281E+07         0.24227E+07         0.00000E+00
    0.24227E+07         0.13332E+08         0.00000E+00
    0.00000E+00         0.00000E+00         0.36719E+07
 
    0.39879E+07         0.32965E+07         0.00000E+00
    0.32965E+07         0.13746E+08         0.00000E+00
    0.00000E+00         0.00000E+00         0.35468E+07
 
    0.19869E+08        -0.25937E+06         0.00000E+00
   -0.25937E+06         0.10780E+08         0.00000E+00
    0.00000E+00         0.00000E+00         0.61298E+07
 
    0.18390E+08        -0.64414E+06         0.00000E+00
   -0.64414E+06         0.10814E+08         0.00000E+00
    0.00000E+00         0.00000E+00         0.58409E+07
 
    0.16924E+08        -0.86400E+06         0.00000E+00
   -0.86400E+06         0.10856E+08         0.00000E+00
    0.00000E+00         0.00000E+00         0.55560E+07
 
    0.15516E+08        -0.94529E+06         0.00000E+00
   -0.94529E+06         0.10888E+08         0.00000E+00
    0.00000E+00         0.00000E+00         0.52809E+07
 
    0.14186E+08        -0.91549E+06         0.00000E+00
   -0.91549E+06         0.10910E+08         0.00000E+00
    0.00000E+00         0.00000E+00         0.50192E+07
 
    0.12937E+08        -0.79666E+06         0.00000E+00
   -0.79666E+06         0.10928E+08         0.00000E+00
    0.00000E+00         0.00000E+00         0.47730E+07
 
    0.11760E+08        -0.60346E+06         0.00000E+00
   -0.60346E+06         0.10953E+08         0.00000E+00
    0.00000E+00         0.00000E+00         0.45426E+07
 
    0.10641E+08        -0.34386E+06         0.00000E+00
   -0.34386E+06         0.10997E+08         0.00000E+00
    0.00000E+00         0.00000E+00         0.43278E+07
 
    0.95657E+07        -0.20309E+05         0.00000E+00
   -0.20309E+05         0.11073E+08         0.00000E+00
    0.00000E+00         0.00000E+00         0.41278E+07
 
    0.85181E+07         0.36942E+06         0.00000E+00
    0.36942E+06         0.11192E+08         0.00000E+00
    0.00000E+00         0.00000E+00         0.39420E+07
 
    0.74874E+07         0.83211E+06         0.00000E+00
    0.83211E+06         0.11362E+08         0.00000E+00
    0.00000E+00         0.00000E+00         0.37699E+07
 
    0.64683E+07         0.13792E+07         0.00000E+00
    0.13792E+07         0.11589E+08         0.00000E+00
    0.00000E+00         0.00000E+00         0.36114E+07
 
    0.54658E+07         0.20261E+07         0.00000E+00
    0.20261E+07         0.11871E+08         0.00000E+00
    0.00000E+00         0.00000E+00         0.34673E+07
 
    0.44994E+07         0.27894E+07         0.00000E+00
    0.27894E+07         0.12198E+08         0.00000E+00
    0.00000E+00         0.00000E+00         0.33395E+07
 
    0.36053E+07         0.36806E+07         0.00000E+00
    0.36806E+07         0.12550E+08         0.00000E+00
    0.00000E+00         0.00000E+00         0.32310E+07
 
    0.18168E+08        -0.23689E+06         0.00000E+00
   -0.23689E+06         0.95348E+07         0.00000E+00
    0.00000E+00         0.00000E+00         0.55407E+07
 
    0.16848E+08        -0.60108E+06         0.00000E+00
   -0.60108E+06         0.95694E+07         0.00000E+00
    0.00000E+00         0.00000E+00         0.52834E+07
 
    0.15522E+08        -0.82323E+06         0.00000E+00
   -0.82323E+06         0.96169E+07         0.00000E+00
    0.00000E+00         0.00000E+00         0.50277E+07
 
    0.14230E+08        -0.91643E+06         0.00000E+00
   -0.91643E+06         0.96626E+07         0.00000E+00
    0.00000E+00         0.00000E+00         0.47785E+07
 
    0.12994E+08        -0.89703E+06         0.00000E+00
   -0.89703E+06         0.97019E+07         0.00000E+00
    0.00000E+00         0.00000E+00         0.45392E+07
 
    0.11822E+08        -0.78013E+06         0.00000E+00
   -0.78013E+06         0.97381E+07         0.00000E+00
    0.00000E+00         0.00000E+00         0.43120E+07
 
    0.10711E+08        -0.57715E+06         0.00000E+00
   -0.57715E+06         0.97792E+07         0.00000E+00
    0.00000E+00         0.00000E+00         0.40980E+07
 
    0.96523E+07        -0.29523E+06         0.00000E+00
   -0.29523E+06         0.98356E+07         0.00000E+00
    0.00000E+00         0.00000E+00         0.38976E+07
 
    0.86361E+07         0.62557E+05         0.00000E+00
    0.62557E+05         0.99177E+07         0.00000E+00
    0.00000E+00         0.00000E+00         0.37108E+07
 
    0.76520E+07         0.49677E+06         0.00000E+00
    0.49677E+06         0.10035E+08         0.00000E+00
    0.00000E+00         0.00000E+00         0.35374E+07
 
    0.66931E+07         0.10112E+07         0.00000E+00
    0.10112E+07         0.10195E+08         0.00000E+00
    0.00000E+00         0.00000E+00         0.33776E+07
 
    0.57577E+07         0.16125E+07         0.00000E+00
    0.16125E+07         0.10401E+08         0.00000E+00
    0.00000E+00         0.00000E+00         0.32317E+07
 
    0.48529E+07         0.23087E+07         0.00000E+00
    0.23087E+07         0.10651E+08         0.00000E+00
    0.00000E+00         0.00000E+00         0.31008E+07
 
    0.39958E+07         0.31066E+07         0.00000E+00
    0.31066E+07         0.10936E+08         0.00000E+00
    0.00000E+00         0.00000E+00         0.29863E+07
 
    0.32150E+07         0.40082E+07         0.00000E+00
    0.40082E+07         0.11238E+08         0.00000E+00
    0.00000E+00         0.00000E+00         0.28907E+07
 
    0.16484E+08        -0.21543E+06         0.00000E+00
   -0.21543E+06         0.82687E+07         0.00000E+00
    0.00000E+00         0.00000E+00         0.49505E+07
 
    0.15295E+08        -0.55608E+06         0.00000E+00
   -0.55608E+06         0.83002E+07         0.00000E+00
    0.00000E+00         0.00000E+00         0.47190E+07
 
    0.14095E+08        -0.77376E+06         0.00000E+00
   -0.77376E+06         0.83455E+07         0.00000E+00
    0.00000E+00         0.00000E+00         0.44881E+07
 
    0.12916E+08        -0.87216E+06         0.00000E+00
   -0.87216E+06         0.83921E+07         0.00000E+00
    0.00000E+00         0.00000E+00         0.42617E+07
 
    0.11780E+08        -0.85907E+06         0.00000E+00
   -0.85907E+06         0.84350E+07         0.00000E+00
    0.00000E+00         0.00000E+00         0.40429E+07
 
    0.10694E+08        -0.74329E+06         0.00000E+00
   -0.74329E+06         0.84757E+07         0.00000E+00
    0.00000E+00         0.00000E+00         0.38340E+07
 
    0.96609E+07        -0.53259E+06         0.00000E+00
   -0.53259E+06         0.85201E+07         0.00000E+00
    0.00000E+00         0.00000E+00         0.36362E+07
 
    0.86752E+07        -0.23263E+06         0.00000E+00
   -0.23263E+06         0.85769E+07         0.00000E+00
    0.00000E+00         0.00000E+00         0.34504E+07
 
    0.77300E+07         0.15328E+06         0.00000E+00
    0.15328E+06         0.86550E+07         0.00000E+00
    0.00000E+00         0.00000E+00         0.32770E+07
 
    0.68186E+07         0.62413E+06         0.00000E+00
    0.62413E+06         0.87628E+07         0.00000E+00
    0.00000E+00         0.00000E+00         0.31163E+07
 
    0.59366E+07         0.11807E+07         0.00000E+00
    0.11807E+07         0.89064E+07         0.00000E+00
    0.00000E+00         0.00000E+00         0.29686E+07
 
    0.50843E+07         0.18252E+07         0.00000E+00
    0.18252E+07         0.90885E+07         0.00000E+00
    0.00000E+00         0.00000E+00         0.28346E+07
 
    0.42687E+07         0.25595E+07         0.00000E+00
    0.25595E+07         0.93073E+07         0.00000E+00
    0.00000E+00         0.00000E+00         0.27152E+07
 
    0.35041E+07         0.33837E+07         0.00000E+00
    0.33837E+07         0.95552E+07         0.00000E+00
    0.00000E+00         0.00000E+00         0.26119E+07
 
    0.28126E+07         0.42934E+07         0.00000E+00
    0.42934E+07         0.98192E+07         0.00000E+00
    0.00000E+00         0.00000E+00         0.25264E+07
 
    0.14813E+08        -0.19634E+06         0.00000E+00
   -0.19634E+06         0.69818E+07         0.00000E+00
    0.00000E+00         0.00000E+00         0.43590E+07
 
    0.13736E+08        -0.51449E+06         0.00000E+00
   -0.51449E+06         0.70075E+07         0.00000E+00
    0.00000E+00         0.00000E+00         0.41486E+07
 
    0.12648E+08        -0.72532E+06         0.00000E+00
   -0.72532E+06         0.70444E+07         0.00000E+00
    0.00000E+00         0.00000E+00         0.39386E+07
 
    0.11578E+08        -0.82543E+06         0.00000E+00
   -0.82543E+06         0.70823E+07         0.00000E+00
    0.00000E+00         0.00000E+00         0.37321E+07
 
    0.10543E+08        -0.81591E+06         0.00000E+00
   -0.81591E+06         0.71171E+07         0.00000E+00
    0.00000E+00         0.00000E+00         0.35320E+07
 
    0.95516E+07        -0.70030E+06         0.00000E+00
   -0.70030E+06         0.71497E+07         0.00000E+00
    0.00000E+00         0.00000E+00         0.33403E+07
 
    0.86058E+07        -0.48293E+06         0.00000E+00
   -0.48293E+06         0.71852E+07         0.00000E+00
    0.00000E+00         0.00000E+00         0.31582E+07
 
    0.77030E+07        -0.16782E+06         0.00000E+00
   -0.16782E+06         0.72310E+07         0.00000E+00
    0.00000E+00         0.00000E+00         0.29868E+07
 
    0.68383E+07         0.24175E+06         0.00000E+00
    0.24175E+06         0.72951E+07         0.00000E+00
    0.00000E+00         0.00000E+00         0.28267E+07
 
    0.60067E+07         0.74337E+06         0.00000E+00
    0.74337E+06         0.73851E+07         0.00000E+00
    0.00000E+00         0.00000E+00         0.26783E+07
 
    0.52052E+07         0.13352E+07         0.00000E+00
    0.13352E+07         0.75065E+07         0.00000E+00
    0.00000E+00         0.00000E+00         0.25423E+07
 
    0.44347E+07         0.20155E+07         0.00000E+00
    0.20155E+07         0.76620E+07         0.00000E+00
    0.00000E+00         0.00000E+00         0.24193E+07
 
    0.37010E+07         0.27813E+07         0.00000E+00
    0.27813E+07         0.78504E+07         0.00000E+00
    0.00000E+00         0.00000E+00         0.23103E+07
 
    0.30157E+07         0.36278E+07         0.00000E+00
    0.36278E+07         0.80660E+07         0.00000E+00
    0.00000E+00         0.00000E+00         0.22163E+07
 
    0.23958E+07         0.45461E+07         0.00000E+00
    0.45461E+07         0.82990E+07         0.00000E+00
    0.00000E+00         0.00000E+00         0.21390E+07
 
    0.13152E+08        -0.18079E+06         0.00000E+00
   -0.18079E+06         0.56740E+07         0.00000E+00
    0.00000E+00         0.00000E+00         0.37652E+07
 
    0.12169E+08        -0.48053E+06         0.00000E+00
   -0.48053E+06         0.56914E+07         0.00000E+00
    0.00000E+00         0.00000E+00         0.35720E+07
 
    0.11183E+08        -0.68547E+06         0.00000E+00
   -0.68547E+06         0.57146E+07         0.00000E+00
    0.00000E+00         0.00000E+00         0.33796E+07
 
    0.10217E+08        -0.78654E+06         0.00000E+00
   -0.78654E+06         0.57359E+07         0.00000E+00
    0.00000E+00         0.00000E+00         0.31907E+07
 
    0.92846E+07        -0.77952E+06         0.00000E+00
   -0.77952E+06         0.57525E+07         0.00000E+00
    0.00000E+00         0.00000E+00         0.30074E+07
 
    0.83921E+07        -0.66363E+06         0.00000E+00
   -0.66363E+06         0.57661E+07         0.00000E+00
    0.00000E+00         0.00000E+00         0.28316E+07
 
    0.75413E+07        -0.44021E+06         0.00000E+00
   -0.44021E+06         0.57814E+07         0.00000E+00
    0.00000E+00         0.00000E+00         0.26646E+07
 
    0.67298E+07        -0.11176E+06         0.00000E+00
   -0.11176E+06         0.58056E+07         0.00000E+00
    0.00000E+00         0.00000E+00         0.25071E+07
 
    0.59532E+07         0.31856E+06         0.00000E+00
    0.31856E+06         0.58464E+07         0.00000E+00
    0.00000E+00         0.00000E+00         0.23599E+07
 
    0.52072E+07         0.84718E+06         0.00000E+00
    0.84718E+06         0.59109E+07         0.00000E+00
    0.00000E+00         0.00000E+00         0.22236E+07
 
    0.44890E+07         0.14700E+07         0.00000E+00
    0.14700E+07         0.60047E+07         0.00000E+00
    0.00000E+00         0.00000E+00         0.20987E+07
 
    0.37990E+07         0.21819E+07         0.00000E+00
    0.21819E+07         0.61309E+07         0.00000E+00
    0.00000E+00         0.00000E+00         0.19860E+07
 
    0.31414E+07         0.29764E+07         0.00000E+00
    0.29764E+07         0.62892E+07         0.00000E+00
    0.00000E+00         0.00000E+00         0.18861E+07
 
    0.25251E+07         0.38444E+07         0.00000E+00
    0.38444E+07         0.64758E+07         0.00000E+00
    0.00000E+00         0.00000E+00         0.18002E+07
 
    0.19633E+07         0.47737E+07         0.00000E+00
    0.47737E+07         0.66834E+07         0.00000E+00
    0.00000E+00         0.00000E+00         0.17293E+07
 
    0.11492E+08        -0.16987E+06         0.00000E+00
   -0.16987E+06         0.43444E+07         0.00000E+00
    0.00000E+00         0.00000E+00         0.31674E+07
 
    0.10590E+08        -0.45778E+06         0.00000E+00
   -0.45778E+06         0.43512E+07         0.00000E+00
    0.00000E+00         0.00000E+00         0.29882E+07
 
    0.96975E+07        -0.66039E+06         0.00000E+00
   -0.66039E+06         0.43562E+07         0.00000E+00
    0.00000E+00         0.00000E+00         0.28107E+07
 
    0.88319E+07        -0.76393E+06         0.00000E+00
   -0.76393E+06         0.43540E+07         0.00000E+00
    0.00000E+00         0.00000E+00         0.26372E+07
 
    0.80024E+07        -0.75988E+06         0.00000E+00
   -0.75988E+06         0.43439E+07         0.00000E+00
    0.00000E+00         0.00000E+00         0.24693E+07
 
    0.72131E+07        -0.64393E+06         0.00000E+00
   -0.64393E+06         0.43286E+07         0.00000E+00
    0.00000E+00         0.00000E+00         0.23083E+07
 
    0.64636E+07        -0.41495E+06         0.00000E+00
   -0.41495E+06         0.43138E+07         0.00000E+00
    0.00000E+00         0.00000E+00         0.21555E+07
 
    0.57503E+07        -0.74165E+05         0.00000E+00
   -0.74165E+05         0.43068E+07         0.00000E+00
    0.00000E+00         0.00000E+00         0.20114E+07
 
    0.50684E+07         0.37538E+06         0.00000E+00
    0.37538E+06         0.43155E+07         0.00000E+00
    0.00000E+00         0.00000E+00         0.18768E+07
 
    0.44129E+07         0.92913E+06         0.00000E+00
    0.92913E+06         0.43475E+07         0.00000E+00
    0.00000E+00         0.00000E+00         0.17521E+07
 
    0.37804E+07         0.15810E+07         0.00000E+00
    0.15810E+07         0.44086E+07         0.00000E+00
    0.00000E+00         0.00000E+00         0.16378E+07
 
    0.31699E+07         0.23233E+07         0.00000E+00
    0.23233E+07         0.45028E+07         0.00000E+00
    0.00000E+00         0.00000E+00         0.15345E+07
 
    0.25838E+07         0.31462E+07         0.00000E+00
    0.31462E+07         0.46309E+07         0.00000E+00
    0.00000E+00         0.00000E+00         0.14430E+07
 
    0.20287E+07         0.40374E+07         0.00000E+00
    0.40374E+07         0.47908E+07         0.00000E+00
    0.00000E+00         0.00000E+00         0.13639E+07
 
    0.15144E+07         0.49819E+07         0.00000E+00
    0.49819E+07         0.49771E+07         0.00000E+00
    0.00000E+00         0.00000E+00         0.12983E+07
 
    0.98234E+07        -0.16457E+06         0.00000E+00
   -0.16457E+06         0.29918E+07         0.00000E+00
    0.00000E+00         0.00000E+00         0.25630E+07
 
    0.89905E+07        -0.44932E+06         0.00000E+00
   -0.44932E+06         0.29859E+07         0.00000E+00
    0.00000E+00         0.00000E+00         0.23953E+07
 
    0.81854E+07        -0.65526E+06         0.00000E+00
   -0.65526E+06         0.29682E+07         0.00000E+00
    0.00000E+00         0.00000E+00         0.22307E+07
 
    0.74181E+07        -0.76460E+06         0.00000E+00
   -0.76460E+06         0.29364E+07         0.00000E+00
    0.00000E+00         0.00000E+00         0.20709E+07
 
    0.66932E+07        -0.76528E+06         0.00000E+00
   -0.76528E+06         0.28919E+07         0.00000E+00
    0.00000E+00         0.00000E+00         0.19170E+07
 
    0.60112E+07        -0.65013E+06         0.00000E+00
   -0.65013E+06         0.28393E+07         0.00000E+00
    0.00000E+00         0.00000E+00         0.17701E+07
 
    0.53686E+07        -0.41607E+06         0.00000E+00
   -0.41607E+06         0.27855E+07         0.00000E+00
    0.00000E+00         0.00000E+00         0.16308E+07
 
    0.47599E+07        -0.63337E+05         0.00000E+00
   -0.63337E+05         0.27387E+07         0.00000E+00
    0.00000E+00         0.00000E+00         0.14997E+07
 
    0.41785E+07         0.40507E+06         0.00000E+00
    0.40507E+06         0.27077E+07         0.00000E+00
    0.00000E+00         0.00000E+00         0.13772E+07
 
    0.36180E+07         0.98371E+06         0.00000E+00
    0.98371E+06         0.27006E+07         0.00000E+00
    0.00000E+00         0.00000E+00         0.12637E+07
 
    0.30735E+07         0.16648E+07         0.00000E+00
    0.16648E+07         0.27244E+07         0.00000E+00
    0.00000E+00         0.00000E+00         0.11596E+07
 
    0.25422E+07         0.24384E+07         0.00000E+00
    0.24384E+07         0.27838E+07         0.00000E+00
    0.00000E+00         0.00000E+00         0.10652E+07
 
    0.20245E+07         0.32918E+07         0.00000E+00
    0.32918E+07         0.28812E+07         0.00000E+00
    0.00000E+00         0.00000E+00         0.98113E+06
 
    0.15243E+07         0.42099E+07         0.00000E+00
    0.42099E+07         0.30159E+07         0.00000E+00
    0.00000E+00         0.00000E+00         0.90803E+06
 
    0.10492E+07         0.51750E+07         0.00000E+00
    0.51750E+07         0.31842E+07         0.00000E+00
    0.00000E+00         0.00000E+00         0.84667E+06
 
    0.81314E+07        -0.16578E+06         0.00000E+00
   -0.16578E+06         0.16141E+07         0.00000E+00
    0.00000E+00         0.00000E+00         0.19491E+07
 
    0.73613E+07        -0.45784E+06         0.00000E+00
   -0.45784E+06         0.15934E+07         0.00000E+00
    0.00000E+00         0.00000E+00         0.17909E+07
 
    0.66396E+07        -0.67445E+06         0.00000E+00
   -0.67445E+06         0.15492E+07         0.00000E+00
    0.00000E+00         0.00000E+00         0.16377E+07
 
    0.59701E+07        -0.79435E+06         0.00000E+00
   -0.79435E+06         0.14822E+07         0.00000E+00
    0.00000E+00         0.00000E+00         0.14905E+07
 
    0.53523E+07        -0.80253E+06         0.00000E+00
   -0.80253E+06         0.13965E+07         0.00000E+00
    0.00000E+00         0.00000E+00         0.13498E+07
 
    0.47818E+07        -0.68959E+06         0.00000E+00
   -0.68959E+06         0.12991E+07         0.00000E+00
    0.00000E+00         0.00000E+00         0.12162E+07
 
    0.42518E+07        -0.45095E+06         0.00000E+00
   -0.45095E+06         0.11984E+07         0.00000E+00
    0.00000E+00         0.00000E+00         0.10900E+07
 
    0.37537E+07        -0.86140E+05         0.00000E+00
   -0.86140E+05         0.11043E+07         0.00000E+00
    0.00000E+00         0.00000E+00         0.97161E+06
 
    0.32785E+07         0.40172E+06         0.00000E+00
    0.40172E+06         0.10267E+07         0.00000E+00
    0.00000E+00         0.00000E+00         0.86104E+06
 
    0.28176E+07         0.10063E+07         0.00000E+00
    0.10063E+07         0.97480E+06         0.00000E+00
    0.00000E+00         0.00000E+00         0.75847E+06
 
    0.23637E+07         0.17185E+07         0.00000E+00
    0.17185E+07         0.95678E+06         0.00000E+00
    0.00000E+00         0.00000E+00         0.66410E+06
 
    0.19120E+07         0.25260E+07         0.00000E+00
    0.25260E+07         0.97879E+06         0.00000E+00
    0.00000E+00         0.00000E+00         0.57816E+06
 
    0.14605E+07         0.34139E+07         0.00000E+00
    0.34139E+07         0.10446E+07         0.00000E+00
    0.00000E+00         0.00000E+00         0.50101E+06
 
    0.10105E+07         0.43644E+07         0.00000E+00
    0.43644E+07         0.11550E+07         0.00000E+00
    0.00000E+00         0.00000E+00         0.43312E+06
 
    0.56752E+06         0.53569E+07         0.00000E+00
    0.53569E+07         0.13080E+07         0.00000E+00
    0.00000E+00         0.00000E+00         0.37510E+06
 
    0.64009E+07        -0.17433E+06         0.00000E+00
   -0.17433E+06         0.20849E+06         0.00000E+00
    0.00000E+00         0.00000E+00         0.13219E+07
 
    0.56894E+07        -0.48567E+06         0.00000E+00
   -0.48567E+06         0.17101E+06         0.00000E+00
    0.00000E+00         0.00000E+00         0.11721E+07
 
    0.50501E+07        -0.72163E+06         0.00000E+00
   -0.72163E+06         0.96611E+05         0.00000E+00
    0.00000E+00         0.00000E+00         0.10294E+07
 
    0.44802E+07        -0.85790E+06         0.00000E+00
   -0.85790E+06        -0.10597E+05         0.00000E+00
    0.00000E+00         0.00000E+00         0.89393E+06
 
    0.39732E+07        -0.87712E+06         0.00000E+00
   -0.87712E+06        -0.14341E+06         0.00000E+00
    0.00000E+00         0.00000E+00         0.76595E+06
 
    0.35196E+07        -0.76814E+06         0.00000E+00
   -0.76814E+06        -0.29236E+06         0.00000E+00
    0.00000E+00         0.00000E+00         0.64544E+06
 
    0.31082E+07        -0.52535E+06         0.00000E+00
   -0.52535E+06        -0.44657E+06         0.00000E+00
    0.00000E+00         0.00000E+00         0.53233E+06
 
    0.27270E+07        -0.14796E+06         0.00000E+00
   -0.14796E+06        -0.59453E+06         0.00000E+00
    0.00000E+00         0.00000E+00         0.42650E+06
 
    0.23638E+07         0.36067E+06         0.00000E+00
    0.36067E+06        -0.72477E+06         0.00000E+00
    0.00000E+00         0.00000E+00         0.32781E+06
 
    0.20071E+07         0.99339E+06         0.00000E+00
    0.99339E+06        -0.82652E+06         0.00000E+00
    0.00000E+00         0.00000E+00         0.23612E+06
 
    0.16472E+07         0.17396E+07         0.00000E+00
    0.17396E+07        -0.89028E+06         0.00000E+00
    0.00000E+00         0.00000E+00         0.15138E+06
 
    0.12763E+07         0.25853E+07         0.00000E+00
    0.25853E+07        -0.90832E+06         0.00000E+00
    0.00000E+00         0.00000E+00         0.73604E+05
 
    0.88988E+06         0.35132E+07         0.00000E+00
    0.35132E+07        -0.87524E+06         0.00000E+00
    0.00000E+00         0.00000E+00         0.29272E+04
 
    0.48667E+06         0.45028E+07         0.00000E+00
    0.45028E+07        -0.78847E+06         0.00000E+00
    0.00000E+00         0.00000E+00        -0.60361E+05
 
    0.69738E+05         0.55309E+07         0.00000E+00
    0.55309E+07        -0.64878E+06         0.00000E+00
    0.00000E+00         0.00000E+00        -0.11581E+06
 
    0.46138E+07        -0.19090E+06         0.00000E+00
   -0.19090E+06        -0.12286E+07         0.00000E+00
    0.00000E+00         0.00000E+00         0.67705E+06
 
    0.39604E+07        -0.53476E+06         0.00000E+00
   -0.53476E+06        -0.12847E+07         0.00000E+00
    0.00000E+00         0.00000E+00         0.53514E+06
 
    0.34055E+07        -0.79975E+06         0.00000E+00
   -0.79975E+06        -0.13927E+07         0.00000E+00
    0.00000E+00         0.00000E+00         0.40256E+06
 
    0.29391E+07        -0.95898E+06         0.00000E+00
   -0.95898E+06        -0.15447E+07         0.00000E+00
    0.00000E+00         0.00000E+00         0.27888E+06
 
    0.25483E+07        -0.99318E+06         0.00000E+00
   -0.99318E+06        -0.17300E+07         0.00000E+00
    0.00000E+00         0.00000E+00         0.16366E+06
 
    0.22180E+07        -0.89006E+06         0.00000E+00
   -0.89006E+06        -0.19361E+07         0.00000E+00
    0.00000E+00         0.00000E+00         0.56375E+05
 
    0.19321E+07        -0.64347E+06         0.00000E+00
   -0.64347E+06        -0.21496E+07         0.00000E+00
    0.00000E+00         0.00000E+00        -0.43493E+05
 
    0.16744E+07        -0.25263E+06         0.00000E+00
   -0.25263E+06        -0.23568E+07         0.00000E+00
    0.00000E+00         0.00000E+00        -0.13647E+06
 
    0.14293E+07         0.27861E+06         0.00000E+00
    0.27861E+06        -0.25445E+07         0.00000E+00
    0.00000E+00         0.00000E+00        -0.22305E+06
 
    0.11821E+07         0.94225E+06         0.00000E+00
    0.94225E+06        -0.27005E+07         0.00000E+00
    0.00000E+00         0.00000E+00        -0.30367E+06
 
    0.91999E+06         0.17264E+07         0.00000E+00
    0.17264E+07        -0.28135E+07         0.00000E+00
    0.00000E+00         0.00000E+00        -0.37870E+06
 
    0.63218E+06         0.26155E+07         0.00000E+00
    0.26155E+07        -0.28741E+07         0.00000E+00
    0.00000E+00         0.00000E+00        -0.44838E+06
 
    0.31091E+06         0.35900E+07         0.00000E+00
    0.35900E+07        -0.28750E+07         0.00000E+00
    0.00000E+00         0.00000E+00        -0.51282E+06
 
   -0.47938E+05         0.46270E+07         0.00000E+00
    0.46270E+07        -0.28118E+07         0.00000E+00
    0.00000E+00         0.00000E+00        -0.57195E+06
 
   -0.44392E+06         0.56999E+07         0.00000E+00
    0.56999E+07        -0.26835E+07         0.00000E+00
    0.00000E+00         0.00000E+00        -0.62549E+06
 
    0.27498E+07        -0.21610E+06         0.00000E+00
   -0.21610E+06        -0.27016E+07         0.00000E+00
    0.00000E+00         0.00000E+00         0.96378E+04
 
    0.21575E+07        -0.60670E+06         0.00000E+00
   -0.60670E+06        -0.27781E+07         0.00000E+00
    0.00000E+00         0.00000E+00        -0.12413E+06
 
    0.16921E+07        -0.91110E+06         0.00000E+00
   -0.91110E+06        -0.29230E+07         0.00000E+00
    0.00000E+00         0.00000E+00        -0.24619E+06
 
    0.13359E+07        -0.11002E+07         0.00000E+00
   -0.11002E+07        -0.31240E+07         0.00000E+00
    0.00000E+00         0.00000E+00        -0.35762E+06
 
    0.10687E+07        -0.11535E+07         0.00000E+00
   -0.11535E+07        -0.33663E+07         0.00000E+00
    0.00000E+00         0.00000E+00        -0.45953E+06
 
    0.86934E+06        -0.10580E+07         0.00000E+00
   -0.10580E+07        -0.36342E+07         0.00000E+00
    0.00000E+00         0.00000E+00        -0.55296E+06
 
    0.71651E+06        -0.80771E+06         0.00000E+00
   -0.80771E+06        -0.39113E+07         0.00000E+00
    0.00000E+00         0.00000E+00        -0.63895E+06
 
    0.58960E+06        -0.40225E+06         0.00000E+00
   -0.40225E+06        -0.41819E+07         0.00000E+00
    0.00000E+00         0.00000E+00        -0.71845E+06
 
    0.46916E+06         0.15378E+06         0.00000E+00
    0.15378E+06        -0.44309E+07         0.00000E+00
    0.00000E+00         0.00000E+00        -0.79235E+06
 
    0.33722E+06         0.85149E+06         0.00000E+00
    0.85149E+06        -0.46444E+07         0.00000E+00
    0.00000E+00         0.00000E+00        -0.86143E+06
 
    0.17757E+06         0.16779E+07         0.00000E+00
    0.16779E+07        -0.48095E+07         0.00000E+00
    0.00000E+00         0.00000E+00        -0.92639E+06
 
   -0.23889E+05         0.26161E+07         0.00000E+00
    0.26161E+07        -0.49150E+07         0.00000E+00
    0.00000E+00         0.00000E+00        -0.98778E+06
 
   -0.27853E+06         0.36447E+07         0.00000E+00
    0.36447E+07        -0.49514E+07         0.00000E+00
    0.00000E+00         0.00000E+00        -0.10460E+07
 
   -0.59405E+06         0.47382E+07         0.00000E+00
    0.47382E+07        -0.49120E+07         0.00000E+00
    0.00000E+00         0.00000E+00        -0.11012E+07
 
   -0.97322E+06         0.58667E+07         0.00000E+00
    0.58667E+07        -0.47938E+07         0.00000E+00
    0.00000E+00         0.00000E+00        -0.11534E+07
 
    0.78638E+06        -0.25040E+06         0.00000E+00
   -0.25040E+06        -0.42163E+07         0.00000E+00
    0.00000E+00         0.00000E+00        -0.68598E+06
 
    0.26222E+06        -0.70266E+06         0.00000E+00
   -0.70266E+06        -0.43150E+07         0.00000E+00
    0.00000E+00         0.00000E+00        -0.81057E+06
 
   -0.10507E+06        -0.10572E+07         0.00000E+00
   -0.10572E+07        -0.44998E+07         0.00000E+00
    0.00000E+00         0.00000E+00        -0.92098E+06
 
   -0.34179E+06        -0.12832E+07         0.00000E+00
   -0.12832E+07        -0.47534E+07         0.00000E+00
    0.00000E+00         0.00000E+00        -0.10190E+07
 
   -0.47584E+06        -0.13592E+07         0.00000E+00
   -0.13592E+07        -0.50565E+07         0.00000E+00
    0.00000E+00         0.00000E+00        -0.11065E+07
 
   -0.53513E+06        -0.12728E+07         0.00000E+00
   -0.12728E+07        -0.53894E+07         0.00000E+00
    0.00000E+00         0.00000E+00        -0.11849E+07
 
   -0.54651E+06        -0.10184E+07         0.00000E+00
   -0.10184E+07        -0.57331E+07         0.00000E+00
    0.00000E+00         0.00000E+00        -0.12559E+07
 
   -0.53506E+06        -0.59690E+06         0.00000E+00
   -0.59690E+06        -0.60695E+07         0.00000E+00
    0.00000E+00         0.00000E+00        -0.13209E+07
 
   -0.52393E+06        -0.13814E+05         0.00000E+00
   -0.13814E+05        -0.63819E+07         0.00000E+00
    0.00000E+00         0.00000E+00        -0.13812E+07
 
   -0.53439E+06         0.72107E+06         0.00000E+00
    0.72107E+06        -0.66550E+07         0.00000E+00
    0.00000E+00         0.00000E+00        -0.14379E+07
 
   -0.58600E+06         0.15940E+07         0.00000E+00
    0.15940E+07        -0.68744E+07         0.00000E+00
    0.00000E+00         0.00000E+00        -0.14921E+07
 
   -0.69654E+06         0.25871E+07         0.00000E+00
    0.25871E+07        -0.70269E+07         0.00000E+00
    0.00000E+00         0.00000E+00        -0.15447E+07
 
   -0.88149E+06         0.36776E+07         0.00000E+00
    0.36776E+07        -0.71005E+07         0.00000E+00
    0.00000E+00         0.00000E+00        -0.15964E+07
 
   -0.11530E+07         0.48376E+07         0.00000E+00
    0.48376E+07        -0.70857E+07         0.00000E+00
    0.00000E+00         0.00000E+00        -0.16477E+07
 
   -0.15181E+07         0.60338E+07         0.00000E+00
    0.60338E+07        -0.69767E+07         0.00000E+00
    0.00000E+00         0.00000E+00        -0.16990E+07
 
   -0.13009E+07        -0.29415E+06         0.00000E+00
   -0.29415E+06        -0.57797E+07         0.00000E+00
    0.00000E+00         0.00000E+00        -0.14161E+07
 
   -0.17456E+07        -0.82341E+06         0.00000E+00
   -0.82341E+06        -0.59025E+07         0.00000E+00
    0.00000E+00         0.00000E+00        -0.15296E+07
 
   -0.20025E+07        -0.12387E+07         0.00000E+00
   -0.12387E+07        -0.61301E+07         0.00000E+00
    0.00000E+00         0.00000E+00        -0.16265E+07
 
   -0.21073E+07        -0.15079E+07         0.00000E+00
   -0.15079E+07        -0.64393E+07         0.00000E+00
    0.00000E+00         0.00000E+00        -0.17093E+07
 
   -0.20966E+07        -0.16097E+07         0.00000E+00
   -0.16097E+07        -0.68059E+07         0.00000E+00
    0.00000E+00         0.00000E+00        -0.17805E+07
 
   -0.20055E+07        -0.15328E+07         0.00000E+00
   -0.15328E+07        -0.72058E+07         0.00000E+00
    0.00000E+00         0.00000E+00        -0.18423E+07
 
   -0.18665E+07        -0.12734E+07         0.00000E+00
   -0.12734E+07        -0.76169E+07         0.00000E+00
    0.00000E+00         0.00000E+00        -0.18967E+07
 
   -0.17090E+07        -0.83412E+06         0.00000E+00
   -0.83412E+06        -0.80193E+07         0.00000E+00
    0.00000E+00         0.00000E+00        -0.19457E+07
 
   -0.15594E+07        -0.22189E+06         0.00000E+00
   -0.22189E+06        -0.83952E+07         0.00000E+00
    0.00000E+00         0.00000E+00        -0.19909E+07
 
   -0.14419E+07         0.55270E+06         0.00000E+00
    0.55270E+06        -0.87283E+07         0.00000E+00
    0.00000E+00         0.00000E+00        -0.20340E+07
 
   -0.13791E+07         0.14756E+07         0.00000E+00
    0.14756E+07        -0.90029E+07         0.00000E+00
    0.00000E+00         0.00000E+00        -0.20764E+07
 
   -0.13926E+07         0.25286E+07         0.00000E+00
    0.25286E+07        -0.92041E+07         0.00000E+00
    0.00000E+00         0.00000E+00        -0.21193E+07
 
   -0.15027E+07         0.36885E+07         0.00000E+00
    0.36885E+07        -0.93169E+07         0.00000E+00
    0.00000E+00         0.00000E+00        -0.21639E+07
 
   -0.17270E+07         0.49256E+07         0.00000E+00
    0.49256E+07        -0.93284E+07         0.00000E+00
    0.00000E+00         0.00000E+00        -0.22111E+07
 
   -0.20787E+07         0.62030E+07         0.00000E+00
    0.62030E+07        -0.92287E+07         0.00000E+00
    0.00000E+00         0.00000E+00        -0.22615E+07
 
   -0.35389E+07        -0.34761E+06         0.00000E+00
   -0.34761E+06        -0.74007E+07         0.00000E+00
    0.00000E+00         0.00000E+00        -0.21879E+07
 
   -0.38882E+07        -0.96934E+06         0.00000E+00
   -0.96934E+06        -0.75495E+07         0.00000E+00
    0.00000E+00         0.00000E+00        -0.22875E+07
 
   -0.40181E+07        -0.14555E+07         0.00000E+00
   -0.14555E+07        -0.78227E+07         0.00000E+00
    0.00000E+00         0.00000E+00        -0.23682E+07
 
   -0.39752E+07        -0.17731E+07         0.00000E+00
   -0.17731E+07        -0.81903E+07         0.00000E+00
    0.00000E+00         0.00000E+00        -0.24331E+07
 
   -0.38059E+07        -0.19021E+07         0.00000E+00
   -0.19021E+07        -0.86217E+07         0.00000E+00
    0.00000E+00         0.00000E+00        -0.24855E+07
 
   -0.35530E+07        -0.18336E+07         0.00000E+00
   -0.18336E+07        -0.90882E+07         0.00000E+00
    0.00000E+00         0.00000E+00        -0.25283E+07
 
   -0.32548E+07        -0.15672E+07         0.00000E+00
   -0.15672E+07        -0.95649E+07         0.00000E+00
    0.00000E+00         0.00000E+00        -0.25639E+07
 
   -0.29442E+07        -0.11082E+07         0.00000E+00
   -0.11082E+07        -0.10030E+08         0.00000E+00
    0.00000E+00         0.00000E+00        -0.25949E+07
 
   -0.26498E+07        -0.46533E+06         0.00000E+00
   -0.46533E+06        -0.10467E+08         0.00000E+00
    0.00000E+00         0.00000E+00        -0.26234E+07
 
   -0.23979E+07         0.35024E+06         0.00000E+00
    0.35024E+06        -0.10858E+08         0.00000E+00
    0.00000E+00         0.00000E+00        -0.26512E+07
 
   -0.22136E+07         0.13249E+07         0.00000E+00
    0.13249E+07        -0.11188E+08         0.00000E+00
    0.00000E+00         0.00000E+00        -0.26803E+07
 
   -0.21222E+07         0.24414E+07         0.00000E+00
    0.24414E+07        -0.11439E+08         0.00000E+00
    0.00000E+00         0.00000E+00        -0.27122E+07
 
   -0.21495E+07         0.36771E+07         0.00000E+00
    0.36771E+07        -0.11593E+08         0.00000E+00
    0.00000E+00         0.00000E+00        -0.27486E+07
 
   -0.23203E+07         0.50016E+07         0.00000E+00
    0.50016E+07        -0.11634E+08         0.00000E+00
    0.00000E+00         0.00000E+00        -0.27909E+07
 
   -0.26556E+07         0.63751E+07         0.00000E+00
    0.63751E+07        -0.11545E+08         0.00000E+00
    0.00000E+00         0.00000E+00        -0.28402E+07
 
   -0.59569E+07        -0.41100E+06         0.00000E+00
   -0.41100E+06        -0.90904E+07         0.00000E+00
    0.00000E+00         0.00000E+00        -0.30095E+07
 
   -0.61895E+07        -0.11405E+07         0.00000E+00
   -0.11405E+07        -0.92673E+07         0.00000E+00
    0.00000E+00         0.00000E+00        -0.30914E+07
 
   -0.61709E+07        -0.17063E+07         0.00000E+00
   -0.17063E+07        -0.95893E+07         0.00000E+00
    0.00000E+00         0.00000E+00        -0.31520E+07
 
   -0.59609E+07        -0.20753E+07         0.00000E+00
   -0.20753E+07        -0.10017E+08         0.00000E+00
    0.00000E+00         0.00000E+00        -0.31956E+07
 
   -0.56170E+07        -0.22303E+07         0.00000E+00
   -0.22303E+07        -0.10513E+08         0.00000E+00
    0.00000E+00         0.00000E+00        -0.32260E+07
 
   -0.51907E+07        -0.21671E+07         0.00000E+00
   -0.21671E+07        -0.11043E+08         0.00000E+00
    0.00000E+00         0.00000E+00        -0.32468E+07
 
   -0.47252E+07        -0.18903E+07         0.00000E+00
   -0.18903E+07        -0.11580E+08         0.00000E+00
    0.00000E+00         0.00000E+00        -0.32610E+07
 
   -0.42558E+07        -0.14094E+07         0.00000E+00
   -0.14094E+07        -0.12102E+08         0.00000E+00
    0.00000E+00         0.00000E+00        -0.32715E+07
 
   -0.38120E+07        -0.73539E+06         0.00000E+00
   -0.73539E+06        -0.12592E+08         0.00000E+00
    0.00000E+00         0.00000E+00        -0.32808E+07
 
   -0.34201E+07         0.12029E+06         0.00000E+00
    0.12029E+06        -0.13036E+08         0.00000E+00
    0.00000E+00         0.00000E+00        -0.32913E+07
 
   -0.31067E+07         0.11457E+07         0.00000E+00
    0.11457E+07        -0.13418E+08         0.00000E+00
    0.00000E+00         0.00000E+00        -0.33050E+07
 
   -0.29006E+07         0.23263E+07         0.00000E+00
    0.23263E+07        -0.13720E+08         0.00000E+00
    0.00000E+00         0.00000E+00        -0.33241E+07
 
   -0.28334E+07         0.36420E+07         0.00000E+00
    0.36420E+07        -0.13920E+08         0.00000E+00
    0.00000E+00         0.00000E+00        -0.33506E+07
 
   -0.29392E+07         0.50636E+07         0.00000E+00
    0.50636E+07        -0.13994E+08         0.00000E+00
    0.00000E+00         0.00000E+00        -0.33867E+07
 
   -0.32502E+07         0.65493E+07         0.00000E+00
    0.65493E+07        -0.13920E+08         0.00000E+00
    0.00000E+00         0.00000E+00        -0.34341E+07
 
   -0.85873E+07        -0.48455E+06         0.00000E+00
   -0.48455E+06        -0.10863E+08         0.00000E+00
    0.00000E+00         0.00000E+00        -0.38900E+07
 
   -0.86755E+07        -0.13366E+07         0.00000E+00
   -0.13366E+07        -0.11071E+08         0.00000E+00
    0.00000E+00         0.00000E+00        -0.39493E+07
 
   -0.84812E+07        -0.19888E+07         0.00000E+00
   -0.19888E+07        -0.11445E+08         0.00000E+00
    0.00000E+00         0.00000E+00        -0.39853E+07
 
   -0.80803E+07        -0.24088E+07         0.00000E+00
   -0.24088E+07        -0.11935E+08         0.00000E+00
    0.00000E+00         0.00000E+00        -0.40031E+07
 
   -0.75442E+07        -0.25847E+07         0.00000E+00
   -0.25847E+07        -0.12493E+08         0.00000E+00
    0.00000E+00         0.00000E+00        -0.40073E+07
 
   -0.69331E+07        -0.25201E+07         0.00000E+00
   -0.25201E+07        -0.13079E+08         0.00000E+00
    0.00000E+00         0.00000E+00        -0.40023E+07
 
   -0.62945E+07        -0.22276E+07         0.00000E+00
   -0.22276E+07        -0.13664E+08         0.00000E+00
    0.00000E+00         0.00000E+00        -0.39918E+07
 
   -0.56639E+07        -0.17225E+07         0.00000E+00
   -0.17225E+07        -0.14230E+08         0.00000E+00
    0.00000E+00         0.00000E+00        -0.39788E+07
 
   -0.50686E+07        -0.10187E+07         0.00000E+00
   -0.10187E+07        -0.14763E+08         0.00000E+00
    0.00000E+00         0.00000E+00        -0.39663E+07
 
   -0.45330E+07        -0.12713E+06         0.00000E+00
   -0.12713E+06        -0.15250E+08         0.00000E+00
    0.00000E+00         0.00000E+00        -0.39567E+07
 
   -0.40829E+07         0.94360E+06         0.00000E+00
    0.94360E+06        -0.15680E+08         0.00000E+00
    0.00000E+00         0.00000E+00        -0.39525E+07
 
   -0.37495E+07         0.21843E+07         0.00000E+00
    0.21843E+07        -0.16032E+08         0.00000E+00
    0.00000E+00         0.00000E+00        -0.39563E+07
 
   -0.35715E+07         0.35805E+07         0.00000E+00
    0.35805E+07        -0.16282E+08         0.00000E+00
    0.00000E+00         0.00000E+00        -0.39706E+07
 
   -0.35941E+07         0.51069E+07         0.00000E+00
    0.51069E+07        -0.16398E+08         0.00000E+00
    0.00000E+00         0.00000E+00        -0.39983E+07
 
   -0.38650E+07         0.67216E+07         0.00000E+00
    0.67216E+07        -0.16346E+08         0.00000E+00
    0.00000E+00         0.00000E+00        -0.40422E+07
 
   -0.11467E+08        -0.56875E+06         0.00000E+00
   -0.56875E+06        -0.12736E+08         0.00000E+00
    0.00000E+00         0.00000E+00        -0.48406E+07
 
   -0.11375E+08        -0.15575E+07         0.00000E+00
   -0.15575E+07        -0.12980E+08         0.00000E+00
    0.00000E+00         0.00000E+00        -0.48710E+07
 
   -0.10970E+08        -0.22994E+07         0.00000E+00
   -0.22994E+07        -0.13411E+08         0.00000E+00
    0.00000E+00         0.00000E+00        -0.48763E+07
 
   -0.10350E+08        -0.27644E+07         0.00000E+00
   -0.27644E+07        -0.13963E+08         0.00000E+00
    0.00000E+00         0.00000E+00        -0.48626E+07
 
   -0.96025E+07        -0.29501E+07         0.00000E+00
   -0.29501E+07        -0.14576E+08         0.00000E+00
    0.00000E+00         0.00000E+00        -0.48356E+07
 
   -0.87975E+07        -0.28730E+07         0.00000E+00
   -0.28730E+07        -0.15205E+08         0.00000E+00
    0.00000E+00         0.00000E+00        -0.48004E+07
 
   -0.79842E+07        -0.25571E+07         0.00000E+00
   -0.25571E+07        -0.15822E+08         0.00000E+00
    0.00000E+00         0.00000E+00        -0.47612E+07
 
   -0.71948E+07        -0.20259E+07         0.00000E+00
   -0.20259E+07        -0.16412E+08         0.00000E+00
    0.00000E+00         0.00000E+00        -0.47213E+07
 
   -0.64508E+07        -0.12964E+07         0.00000E+00
   -0.12964E+07        -0.16968E+08         0.00000E+00
    0.00000E+00         0.00000E+00        -0.46837E+07
 
   -0.57706E+07        -0.37792E+06         0.00000E+00
   -0.37792E+06        -0.17484E+08         0.00000E+00
    0.00000E+00         0.00000E+00        -0.46510E+07
 
   -0.51766E+07         0.72652E+06         0.00000E+00
    0.72652E+06        -0.17952E+08         0.00000E+00
    0.00000E+00         0.00000E+00        -0.46258E+07
 
   -0.47009E+07         0.20166E+07         0.00000E+00
    0.20166E+07        -0.18354E+08         0.00000E+00
    0.00000E+00         0.00000E+00        -0.46110E+07
 
   -0.43891E+07         0.34877E+07         0.00000E+00
    0.34877E+07        -0.18660E+08         0.00000E+00
    0.00000E+00         0.00000E+00        -0.46098E+07
 
   -0.43007E+07         0.51231E+07         0.00000E+00
    0.51231E+07        -0.18829E+08         0.00000E+00
    0.00000E+00         0.00000E+00        -0.46259E+07
 
   -0.45042E+07         0.68841E+07         0.00000E+00
    0.68841E+07        -0.18812E+08         0.00000E+00
    0.00000E+00         0.00000E+00        -0.46633E+07
 
   -0.14639E+08        -0.66459E+06         0.00000E+00
   -0.66459E+06        -0.14734E+08         0.00000E+00
    0.00000E+00         0.00000E+00        -0.58747E+07
 
   -0.14321E+08        -0.18031E+07         0.00000E+00
   -0.18031E+07        -0.15020E+08         0.00000E+00
    0.00000E+00         0.00000E+00        -0.58682E+07
 
   -0.13661E+08        -0.26322E+07         0.00000E+00
   -0.26322E+07        -0.15514E+08         0.00000E+00
    0.00000E+00         0.00000E+00        -0.58350E+07
 
   -0.12787E+08        -0.31277E+07         0.00000E+00
   -0.31277E+07        -0.16127E+08         0.00000E+00
    0.00000E+00         0.00000E+00        -0.57827E+07
 
   -0.11809E+08        -0.33039E+07         0.00000E+00
   -0.33039E+07        -0.16782E+08         0.00000E+00
    0.00000E+00         0.00000E+00        -0.57183E+07
 
   -0.10806E+08        -0.31972E+07         0.00000E+00
   -0.31972E+07        -0.17433E+08         0.00000E+00
    0.00000E+00         0.00000E+00        -0.56476E+07
 
   -0.98229E+07        -0.28482E+07         0.00000E+00
   -0.28482E+07        -0.18053E+08         0.00000E+00
    0.00000E+00         0.00000E+00        -0.55753E+07
 
   -0.88845E+07        -0.22900E+07         0.00000E+00
   -0.22900E+07        -0.18639E+08         0.00000E+00
    0.00000E+00         0.00000E+00        -0.55046E+07
 
   -0.80007E+07        -0.15430E+07         0.00000E+00
   -0.15430E+07        -0.19192E+08         0.00000E+00
    0.00000E+00         0.00000E+00        -0.54385E+07
 
   -0.71794E+07        -0.61331E+06         0.00000E+00
   -0.61331E+06        -0.19717E+08         0.00000E+00
    0.00000E+00         0.00000E+00        -0.53792E+07
 
   -0.64356E+07         0.50478E+06         0.00000E+00
    0.50478E+06        -0.20211E+08         0.00000E+00
    0.00000E+00         0.00000E+00        -0.53293E+07
 
   -0.57993E+07         0.18240E+07         0.00000E+00
    0.18240E+07        -0.20659E+08         0.00000E+00
    0.00000E+00         0.00000E+00        -0.52917E+07
 
   -0.53228E+07         0.33557E+07         0.00000E+00
    0.33557E+07        -0.21030E+08         0.00000E+00
    0.00000E+00         0.00000E+00        -0.52705E+07
 
   -0.50824E+07         0.50982E+07         0.00000E+00
    0.50982E+07        -0.21269E+08         0.00000E+00
    0.00000E+00         0.00000E+00        -0.52702E+07
 
   -0.51746E+07         0.70218E+07         0.00000E+00
    0.70218E+07        -0.21308E+08         0.00000E+00
    0.00000E+00         0.00000E+00        -0.52965E+07
 
   -0.18158E+08        -0.77410E+06         0.00000E+00
   -0.77410E+06        -0.16891E+08         0.00000E+00
    0.00000E+00         0.00000E+00        -0.70097E+07
 
   -0.17551E+08        -0.20739E+07         0.00000E+00
   -0.20739E+07        -0.17229E+08         0.00000E+00
    0.00000E+00         0.00000E+00        -0.69560E+07
 
   -0.16577E+08        -0.29783E+07         0.00000E+00
   -0.29783E+07        -0.17794E+08         0.00000E+00
    0.00000E+00         0.00000E+00        -0.68742E+07
 
   -0.15410E+08        -0.34764E+07         0.00000E+00
   -0.34764E+07        -0.18461E+08         0.00000E+00
    0.00000E+00         0.00000E+00        -0.67742E+07
 
   -0.14186E+08        -0.36123E+07         0.00000E+00
   -0.36123E+07        -0.19137E+08         0.00000E+00
    0.00000E+00         0.00000E+00        -0.66646E+07
 
   -0.12987E+08        -0.34527E+07         0.00000E+00
   -0.34527E+07        -0.19774E+08         0.00000E+00
    0.00000E+00         0.00000E+00        -0.65523E+07
 
   -0.11851E+08        -0.30598E+07         0.00000E+00
   -0.30598E+07        -0.20359E+08         0.00000E+00
    0.00000E+00         0.00000E+00        -0.64419E+07
 
   -0.10783E+08        -0.24773E+07         0.00000E+00
   -0.24773E+07        -0.20900E+08         0.00000E+00
    0.00000E+00         0.00000E+00        -0.63365E+07
 
   -0.97760E+07        -0.17269E+07         0.00000E+00
   -0.17269E+07        -0.21415E+08         0.00000E+00
    0.00000E+00         0.00000E+00        -0.62382E+07
 
   -0.88227E+07        -0.80972E+06         0.00000E+00
   -0.80972E+06        -0.21920E+08         0.00000E+00
    0.00000E+00         0.00000E+00        -0.61485E+07
 
   -0.79254E+07         0.29150E+06         0.00000E+00
    0.29150E+06        -0.22423E+08         0.00000E+00
    0.00000E+00         0.00000E+00        -0.60696E+07
 
   -0.71077E+07         0.16072E+07         0.00000E+00
    0.16072E+07        -0.22914E+08         0.00000E+00
    0.00000E+00         0.00000E+00        -0.60043E+07
 
   -0.64254E+07         0.31724E+07         0.00000E+00
    0.31724E+07        -0.23359E+08         0.00000E+00
    0.00000E+00         0.00000E+00        -0.59568E+07
 
   -0.59741E+07         0.50104E+07         0.00000E+00
    0.50104E+07        -0.23692E+08         0.00000E+00
    0.00000E+00         0.00000E+00        -0.59332E+07
 
   -0.58874E+07         0.71104E+07         0.00000E+00
    0.71104E+07        -0.23818E+08         0.00000E+00
    0.00000E+00         0.00000E+00        -0.59411E+07
 
   -0.22093E+08        -0.90121E+06         0.00000E+00
   -0.90121E+06        -0.19253E+08         0.00000E+00
    0.00000E+00         0.00000E+00        -0.82692E+07
 
   -0.21109E+08        -0.23706E+07         0.00000E+00
   -0.23706E+07        -0.19660E+08         0.00000E+00
    0.00000E+00         0.00000E+00        -0.81540E+07
 
   -0.19745E+08        -0.33211E+07         0.00000E+00
   -0.33211E+07        -0.20305E+08         0.00000E+00
    0.00000E+00         0.00000E+00        -0.80099E+07
 
   -0.18241E+08        -0.37733E+07         0.00000E+00
   -0.37733E+07        -0.21010E+08         0.00000E+00
    0.00000E+00         0.00000E+00        -0.78502E+07
 
   -0.16764E+08        -0.38244E+07         0.00000E+00
   -0.38244E+07        -0.21666E+08         0.00000E+00
    0.00000E+00         0.00000E+00        -0.76861E+07
 
   -0.15389E+08        -0.35850E+07         0.00000E+00
   -0.35850E+07        -0.22236E+08         0.00000E+00
    0.00000E+00         0.00000E+00        -0.75251E+07
 
   -0.14128E+08        -0.31410E+07         0.00000E+00
   -0.31410E+07        -0.22730E+08         0.00000E+00
    0.00000E+00         0.00000E+00        -0.73716E+07
 
   -0.12960E+08        -0.25433E+07         0.00000E+00
   -0.25433E+07        -0.23178E+08         0.00000E+00
    0.00000E+00         0.00000E+00        -0.72276E+07
 
   -0.11855E+08        -0.18117E+07         0.00000E+00
   -0.18117E+07        -0.23613E+08         0.00000E+00
    0.00000E+00         0.00000E+00        -0.70935E+07
 
   -0.10785E+08        -0.93963E+06         0.00000E+00
   -0.93963E+06        -0.24064E+08         0.00000E+00
    0.00000E+00         0.00000E+00        -0.69698E+07
 
   -0.97341E+07         0.10284E+06         0.00000E+00
    0.10284E+06        -0.24552E+08         0.00000E+00
    0.00000E+00         0.00000E+00        -0.68572E+07
 
   -0.87126E+07         0.13674E+07         0.00000E+00
    0.13674E+07        -0.25076E+08         0.00000E+00
    0.00000E+00         0.00000E+00        -0.67578E+07
 
   -0.77728E+07         0.29210E+07         0.00000E+00
    0.29210E+07        -0.25608E+08         0.00000E+00
    0.00000E+00         0.00000E+00        -0.66761E+07
 
   -0.70284E+07         0.48271E+07         0.00000E+00
    0.48271E+07        -0.26068E+08         0.00000E+00
    0.00000E+00         0.00000E+00        -0.66194E+07
 
   -0.66604E+07         0.71111E+07         0.00000E+00
    0.71111E+07        -0.26329E+08         0.00000E+00
    0.00000E+00         0.00000E+00        -0.65979E+07
 
   -0.26546E+08        -0.10535E+07         0.00000E+00
   -0.10535E+07        -0.21893E+08         0.00000E+00
    0.00000E+00         0.00000E+00        -0.96876E+07
 
   -0.25054E+08        -0.26924E+07         0.00000E+00
   -0.26924E+07        -0.22397E+08         0.00000E+00
    0.00000E+00         0.00000E+00        -0.94902E+07
 
   -0.23195E+08        -0.36268E+07         0.00000E+00
   -0.36268E+07        -0.23125E+08         0.00000E+00
    0.00000E+00         0.00000E+00        -0.92640E+07
 
   -0.21318E+08        -0.39539E+07         0.00000E+00
   -0.39539E+07        -0.23825E+08         0.00000E+00
    0.00000E+00         0.00000E+00        -0.90285E+07
 
   -0.19604E+08        -0.38645E+07         0.00000E+00
   -0.38645E+07        -0.24387E+08         0.00000E+00
    0.00000E+00         0.00000E+00        -0.87982E+07
 
   -0.18093E+08        -0.35243E+07         0.00000E+00
   -0.35243E+07        -0.24812E+08         0.00000E+00
    0.00000E+00         0.00000E+00        -0.85810E+07
 
   -0.16751E+08        -0.30344E+07         0.00000E+00
   -0.30344E+07        -0.25148E+08         0.00000E+00
    0.00000E+00         0.00000E+00        -0.83797E+07
 
   -0.15520E+08        -0.24427E+07         0.00000E+00
   -0.24427E+07        -0.25448E+08         0.00000E+00
    0.00000E+00         0.00000E+00        -0.81935E+07
 
   -0.14345E+08        -0.17610E+07         0.00000E+00
   -0.17610E+07        -0.25758E+08         0.00000E+00
    0.00000E+00         0.00000E+00        -0.80208E+07
 
   -0.13177E+08        -0.97434E+06         0.00000E+00
   -0.97434E+06        -0.26120E+08         0.00000E+00
    0.00000E+00         0.00000E+00        -0.78594E+07
 
   -0.11978E+08        -0.41837E+05         0.00000E+00
   -0.41837E+05        -0.26563E+08         0.00000E+00
    0.00000E+00         0.00000E+00        -0.77081E+07
 
   -0.10732E+08         0.11080E+07         0.00000E+00
    0.11080E+07        -0.27104E+08         0.00000E+00
    0.00000E+00         0.00000E+00        -0.75673E+07
 
   -0.94748E+07         0.25807E+07         0.00000E+00
    0.25807E+07        -0.27729E+08         0.00000E+00
    0.00000E+00         0.00000E+00        -0.74408E+07
 
   -0.83252E+07         0.45013E+07         0.00000E+00
    0.45013E+07        -0.28359E+08         0.00000E+00
    0.00000E+00         0.00000E+00        -0.73369E+07
 
   -0.75230E+07         0.69632E+07         0.00000E+00
    0.69632E+07        -0.28823E+08         0.00000E+00
    0.00000E+00         0.00000E+00        -0.72693E+07
 
   -0.31670E+08        -0.12463E+07         0.00000E+00
   -0.12463E+07        -0.24934E+08         0.00000E+00
    0.00000E+00         0.00000E+00        -0.11321E+08
 
   -0.29460E+08        -0.30275E+07         0.00000E+00
   -0.30275E+07        -0.25575E+08         0.00000E+00
    0.00000E+00         0.00000E+00        -0.11007E+08
 
   -0.26978E+08        -0.38164E+07         0.00000E+00
   -0.38164E+07        -0.26362E+08         0.00000E+00
    0.00000E+00         0.00000E+00        -0.10668E+08
 
   -0.24722E+08        -0.39020E+07         0.00000E+00
   -0.39020E+07        -0.26948E+08         0.00000E+00
    0.00000E+00         0.00000E+00        -0.10334E+08
 
   -0.22832E+08        -0.36265E+07         0.00000E+00
   -0.36265E+07        -0.27286E+08         0.00000E+00
    0.00000E+00         0.00000E+00        -0.10024E+08
 
   -0.21250E+08        -0.31934E+07         0.00000E+00
   -0.31934E+07        -0.27466E+08         0.00000E+00
    0.00000E+00         0.00000E+00        -0.97433E+07
 
   -0.19875E+08        -0.26886E+07         0.00000E+00
   -0.26886E+07        -0.27575E+08         0.00000E+00
    0.00000E+00         0.00000E+00        -0.94900E+07
 
   -0.18615E+08        -0.21409E+07         0.00000E+00
   -0.21409E+07        -0.27680E+08         0.00000E+00
    0.00000E+00         0.00000E+00        -0.92590E+07
 
   -0.17395E+08        -0.15489E+07         0.00000E+00
   -0.15489E+07        -0.27830E+08         0.00000E+00
    0.00000E+00         0.00000E+00        -0.90449E+07
 
   -0.16145E+08        -0.89058E+06         0.00000E+00
   -0.89058E+06        -0.28068E+08         0.00000E+00
    0.00000E+00         0.00000E+00        -0.88427E+07
 
   -0.14807E+08        -0.12104E+06         0.00000E+00
   -0.12104E+06        -0.28433E+08         0.00000E+00
    0.00000E+00         0.00000E+00        -0.86481E+07
 
   -0.13328E+08         0.83984E+06         0.00000E+00
    0.83984E+06        -0.28961E+08         0.00000E+00
    0.00000E+00         0.00000E+00        -0.84578E+07
 
   -0.11692E+08         0.21326E+07         0.00000E+00
    0.21326E+07        -0.29673E+08         0.00000E+00
    0.00000E+00         0.00000E+00        -0.82730E+07
 
   -0.99929E+07         0.39690E+07         0.00000E+00
    0.39690E+07        -0.30515E+08         0.00000E+00
    0.00000E+00         0.00000E+00        -0.81016E+07
 
   -0.85258E+07         0.65718E+07         0.00000E+00
    0.65718E+07        -0.31284E+08         0.00000E+00
    0.00000E+00         0.00000E+00        -0.79619E+07
 
   -0.37732E+08        -0.15120E+07         0.00000E+00
   -0.15120E+07        -0.28604E+08         0.00000E+00
    0.00000E+00         0.00000E+00        -0.13267E+08
 
   -0.34438E+08        -0.33134E+07         0.00000E+00
   -0.33134E+07        -0.29448E+08         0.00000E+00
    0.00000E+00         0.00000E+00        -0.12777E+08
 
   -0.31217E+08        -0.36892E+07         0.00000E+00
   -0.36892E+07        -0.30137E+08         0.00000E+00
    0.00000E+00         0.00000E+00        -0.12271E+08
 
   -0.28681E+08        -0.34235E+07         0.00000E+00
   -0.34235E+07        -0.30345E+08         0.00000E+00
    0.00000E+00         0.00000E+00        -0.11805E+08
 
   -0.26729E+08        -0.29935E+07         0.00000E+00
   -0.29935E+07        -0.30287E+08         0.00000E+00
    0.00000E+00         0.00000E+00        -0.11403E+08
 
   -0.25139E+08        -0.25351E+07         0.00000E+00
   -0.25351E+07        -0.30129E+08         0.00000E+00
    0.00000E+00         0.00000E+00        -0.11053E+08
 
   -0.23759E+08        -0.20815E+07         0.00000E+00
   -0.20815E+07        -0.29963E+08         0.00000E+00
    0.00000E+00         0.00000E+00        -0.10744E+08
 
   -0.22480E+08        -0.16325E+07         0.00000E+00
   -0.16325E+07        -0.29848E+08         0.00000E+00
    0.00000E+00         0.00000E+00        -0.10466E+08
 
   -0.21216E+08        -0.11744E+07         0.00000E+00
   -0.11744E+07        -0.29821E+08         0.00000E+00
    0.00000E+00         0.00000E+00        -0.10207E+08
 
   -0.19889E+08        -0.68304E+06         0.00000E+00
   -0.68304E+06        -0.29918E+08         0.00000E+00
    0.00000E+00         0.00000E+00        -0.99613E+07
 
   -0.18418E+08        -0.11909E+06         0.00000E+00
   -0.11909E+06        -0.30177E+08         0.00000E+00
    0.00000E+00         0.00000E+00        -0.97189E+07
 
   -0.16712E+08         0.58751E+06         0.00000E+00
    0.58751E+06        -0.30647E+08         0.00000E+00
    0.00000E+00         0.00000E+00        -0.94718E+07
 
   -0.14665E+08         0.15756E+07         0.00000E+00
    0.15756E+07        -0.31394E+08         0.00000E+00
    0.00000E+00         0.00000E+00        -0.92117E+07
 
   -0.12250E+08         0.31512E+07         0.00000E+00
    0.31512E+07        -0.32472E+08         0.00000E+00
    0.00000E+00         0.00000E+00        -0.89445E+07
 
   -0.97634E+07         0.57830E+07         0.00000E+00
    0.57830E+07        -0.33685E+08         0.00000E+00
    0.00000E+00         0.00000E+00        -0.86896E+07
 
   -0.45297E+08        -0.19487E+07         0.00000E+00
   -0.19487E+07        -0.33600E+08         0.00000E+00
    0.00000E+00         0.00000E+00        -0.15779E+08
 
   -0.40267E+08        -0.31616E+07         0.00000E+00
   -0.31616E+07        -0.34448E+08         0.00000E+00
    0.00000E+00         0.00000E+00        -0.14943E+08
 
   -0.36431E+08        -0.27974E+07         0.00000E+00
   -0.27974E+07        -0.34327E+08         0.00000E+00
    0.00000E+00         0.00000E+00        -0.14152E+08
 
   -0.33853E+08        -0.23270E+07         0.00000E+00
   -0.23270E+07        -0.33819E+08         0.00000E+00
    0.00000E+00         0.00000E+00        -0.13534E+08
 
   -0.31894E+08        -0.19187E+07         0.00000E+00
   -0.19187E+07        -0.33246E+08         0.00000E+00
    0.00000E+00         0.00000E+00        -0.13028E+08
 
   -0.30280E+08        -0.15675E+07         0.00000E+00
   -0.15675E+07        -0.32719E+08         0.00000E+00
    0.00000E+00         0.00000E+00        -0.12600E+08
 
   -0.28853E+08        -0.12557E+07         0.00000E+00
   -0.12557E+07        -0.32283E+08         0.00000E+00
    0.00000E+00         0.00000E+00        -0.12227E+08
 
   -0.27506E+08        -0.96590E+06         0.00000E+00
   -0.96590E+06        -0.31959E+08         0.00000E+00
    0.00000E+00         0.00000E+00        -0.11893E+08
 
   -0.26153E+08        -0.68145E+06         0.00000E+00
   -0.68145E+06        -0.31766E+08         0.00000E+00
    0.00000E+00         0.00000E+00        -0.11584E+08
 
   -0.24715E+08        -0.38393E+06         0.00000E+00
   -0.38393E+06        -0.31725E+08         0.00000E+00
    0.00000E+00         0.00000E+00        -0.11288E+08
 
   -0.23096E+08        -0.47591E+05         0.00000E+00
   -0.47591E+05        -0.31866E+08         0.00000E+00
    0.00000E+00         0.00000E+00        -0.10992E+08
 
   -0.21170E+08         0.37206E+06         0.00000E+00
    0.37206E+06        -0.32240E+08         0.00000E+00
    0.00000E+00         0.00000E+00        -0.10682E+08
 
   -0.18750E+08         0.96764E+06         0.00000E+00
    0.96764E+06        -0.32936E+08         0.00000E+00
    0.00000E+00         0.00000E+00        -0.10337E+08
 
   -0.15502E+08         0.19900E+07         0.00000E+00
    0.19900E+07        -0.34122E+08         0.00000E+00
    0.00000E+00         0.00000E+00        -0.99248E+07
 
   -0.11446E+08         0.43204E+07         0.00000E+00
    0.43204E+07        -0.35987E+08         0.00000E+00
    0.00000E+00         0.00000E+00        -0.94865E+07
 
   -0.57614E+08        -0.18831E+07         0.00000E+00
   -0.18831E+07        -0.41858E+08         0.00000E+00
    0.00000E+00         0.00000E+00        -0.19894E+08
 
   -0.49245E+08        -0.13649E+07         0.00000E+00
   -0.13649E+07        -0.40015E+08         0.00000E+00
    0.00000E+00         0.00000E+00        -0.17852E+08
 
   -0.45003E+08        -0.95171E+06         0.00000E+00
   -0.95171E+06        -0.38457E+08         0.00000E+00
    0.00000E+00         0.00000E+00        -0.16692E+08
 
   -0.42035E+08        -0.74132E+06         0.00000E+00
   -0.74132E+06        -0.37180E+08         0.00000E+00
    0.00000E+00         0.00000E+00        -0.15843E+08
 
   -0.39733E+08        -0.59084E+06         0.00000E+00
   -0.59084E+06        -0.36142E+08         0.00000E+00
    0.00000E+00         0.00000E+00        -0.15175E+08
 
   -0.37809E+08        -0.47230E+06         0.00000E+00
   -0.47230E+06        -0.35303E+08         0.00000E+00
    0.00000E+00         0.00000E+00        -0.14622E+08
 
   -0.36099E+08        -0.37072E+06         0.00000E+00
   -0.37072E+06        -0.34640E+08         0.00000E+00
    0.00000E+00         0.00000E+00        -0.14148E+08
 
   -0.34493E+08        -0.27760E+06         0.00000E+00
   -0.27760E+06        -0.34142E+08         0.00000E+00
    0.00000E+00         0.00000E+00        -0.13727E+08
 
   -0.32899E+08        -0.18648E+06         0.00000E+00
   -0.18648E+06        -0.33807E+08         0.00000E+00
    0.00000E+00         0.00000E+00        -0.13341E+08
 
   -0.31227E+08        -0.90965E+05         0.00000E+00
   -0.90965E+05        -0.33643E+08         0.00000E+00
    0.00000E+00         0.00000E+00        -0.12974E+08
 
   -0.29371E+08         0.17444E+05         0.00000E+00
    0.17444E+05        -0.33673E+08         0.00000E+00
    0.00000E+00         0.00000E+00        -0.12609E+08
 
   -0.27183E+08         0.15300E+06         0.00000E+00
    0.15300E+06        -0.33940E+08         0.00000E+00
    0.00000E+00         0.00000E+00        -0.12225E+08
 
   -0.24417E+08         0.34767E+06         0.00000E+00
    0.34767E+06        -0.34530E+08         0.00000E+00
    0.00000E+00         0.00000E+00        -0.11789E+08
 
   -0.20583E+08         0.67501E+06         0.00000E+00
    0.67501E+06        -0.35645E+08         0.00000E+00
    0.00000E+00         0.00000E+00        -0.11246E+08
 
   -0.14086E+08         0.16946E+07         0.00000E+00
    0.16946E+07        -0.37896E+08         0.00000E+00
    0.00000E+00         0.00000E+00        -0.10396E+08
 
TENSORS stresstot double 
   -0.48505E+08        -0.18720E+06         0.00000E+00
   -0.18720E+06        -0.60136E+08         0.00000E+00
    0.00000E+00         0.00000E+00        -0.67703E+08
 
   -0.51380E+08        -0.22175E+06         0.00000E+00
   -0.22175E+06        -0.60486E+08         0.00000E+00
    0.00000E+00         0.00000E+00        -0.68372E+08
 
   -0.53558E+08        -0.20733E+06         0.00000E+00
   -0.20733E+06        -0.60885E+08         0.00000E+00
    0.00000E+00         0.00000E+00        -0.68928E+08
 
   -0.55388E+08        -0.18733E+06         0.00000E+00
   -0.18733E+06        -0.61264E+08         0.00000E+00
    0.00000E+00         0.00000E+00        -0.69420E+08
 
   -0.56998E+08        -0.16339E+06         0.00000E+00
   -0.16339E+06        -0.61603E+08         0.00000E+00
    0.00000E+00         0.00000E+00        -0.69866E+08
 
   -0.58458E+08        -0.13664E+06         0.00000E+00
   -0.13664E+06        -0.61895E+08         0.00000E+00
    0.00000E+00         0.00000E+00        -0.70275E+08
 
   -0.59816E+08        -0.10713E+06         0.00000E+00
   -0.10713E+06        -0.62132E+08         0.00000E+00
    0.00000E+00         0.00000E+00        -0.70655E+08
 
   -0.61109E+08        -0.74500E+05         0.00000E+00
   -0.74500E+05        -0.62309E+08         0.00000E+00
    0.00000E+00         0.00000E+00        -0.71009E+08
 
   -0.62368E+08        -0.38072E+05         0.00000E+00
   -0.38072E+05        -0.62416E+08         0.00000E+00
    0.00000E+00         0.00000E+00        -0.71341E+08
 
   -0.63624E+08         0.32482E+04         0.00000E+00
    0.32482E+04        -0.62447E+08         0.00000E+00
    0.00000E+00         0.00000E+00        -0.71654E+08
 
   -0.64912E+08         0.51313E+05         0.00000E+00
    0.51313E+05        -0.62389E+08         0.00000E+00
    0.00000E+00         0.00000E+00        -0.71952E+08
 
   -0.66275E+08         0.10954E+06         0.00000E+00
    0.10954E+06        -0.62224E+08         0.00000E+00
    0.00000E+00         0.00000E+00        -0.72239E+08
 
   -0.67778E+08         0.18555E+06         0.00000E+00
    0.18555E+06        -0.61926E+08         0.00000E+00
    0.00000E+00         0.00000E+00        -0.72520E+08
 
   -0.69541E+08         0.29717E+06         0.00000E+00
    0.29717E+06        -0.61440E+08         0.00000E+00
    0.00000E+00         0.00000E+00        -0.72807E+08
 
   -0.71912E+08         0.56302E+06         0.00000E+00
    0.56302E+06        -0.60617E+08         0.00000E+00
    0.00000E+00         0.00000E+00        -0.73135E+08
 
   -0.48865E+08        -0.30160E+06         0.00000E+00
   -0.30160E+06        -0.60014E+08         0.00000E+00
    0.00000E+00         0.00000E+00        -0.67085E+08
 
   -0.51409E+08        -0.53250E+06         0.00000E+00
   -0.53250E+06        -0.60138E+08         0.00000E+00
    0.00000E+00         0.00000E+00        -0.67632E+08
 
   -0.53540E+08        -0.55215E+06         0.00000E+00
   -0.55215E+06        -0.60388E+08         0.00000E+00
    0.00000E+00         0.00000E+00        -0.68134E+08
 
   -0.55351E+08        -0.51578E+06         0.00000E+00
   -0.51578E+06        -0.60671E+08         0.00000E+00
    0.00000E+00         0.00000E+00        -0.68588E+08
 
   -0.56951E+08        -0.45655E+06         0.00000E+00
   -0.45655E+06        -0.60945E+08         0.00000E+00
    0.00000E+00         0.00000E+00        -0.69005E+08
 
   -0.58404E+08        -0.38371E+06         0.00000E+00
   -0.38371E+06        -0.61187E+08         0.00000E+00
    0.00000E+00         0.00000E+00        -0.69390E+08
 
   -0.59756E+08        -0.29989E+06         0.00000E+00
   -0.29989E+06        -0.61385E+08         0.00000E+00
    0.00000E+00         0.00000E+00        -0.69748E+08
 
   -0.61041E+08        -0.20511E+06         0.00000E+00
   -0.20511E+06        -0.61529E+08         0.00000E+00
    0.00000E+00         0.00000E+00        -0.70082E+08
 
   -0.62291E+08        -0.97856E+05         0.00000E+00
   -0.97856E+05        -0.61609E+08         0.00000E+00
    0.00000E+00         0.00000E+00        -0.70396E+08
 
   -0.63536E+08         0.24905E+05         0.00000E+00
    0.24905E+05        -0.61616E+08         0.00000E+00
    0.00000E+00         0.00000E+00        -0.70691E+08
 
   -0.64807E+08         0.16862E+06         0.00000E+00
    0.16862E+06        -0.61534E+08         0.00000E+00
    0.00000E+00         0.00000E+00        -0.70970E+08
 
   -0.66143E+08         0.34362E+06         0.00000E+00
    0.34362E+06        -0.61348E+08         0.00000E+00
    0.00000E+00         0.00000E+00        -0.71237E+08
 
   -0.67597E+08         0.57156E+06         0.00000E+00
    0.57156E+06        -0.61030E+08         0.00000E+00
    0.00000E+00         0.00000E+00        -0.71494E+08
 
   -0.69253E+08         0.90818E+06         0.00000E+00
    0.90818E+06        -0.60533E+08         0.00000E+00
    0.00000E+00         0.00000E+00        -0.71747E+08
 
   -0.71119E+08         0.15394E+07         0.00000E+00
    0.15394E+07        -0.59797E+08         0.00000E+00
    0.00000E+00         0.00000E+00        -0.71985E+08
 
   -0.49364E+08        -0.31166E+06         0.00000E+00
   -0.31166E+06        -0.59998E+08         0.00000E+00
    0.00000E+00         0.00000E+00        -0.66494E+08
 
   -0.51560E+08        -0.65901E+06         0.00000E+00
   -0.65901E+06        -0.60028E+08         0.00000E+00
    0.00000E+00         0.00000E+00        -0.66947E+08
 
   -0.53546E+08        -0.76355E+06         0.00000E+00
   -0.76355E+06        -0.60137E+08         0.00000E+00
    0.00000E+00         0.00000E+00        -0.67383E+08
 
   -0.55303E+08        -0.75011E+06         0.00000E+00
   -0.75011E+06        -0.60305E+08         0.00000E+00
    0.00000E+00         0.00000E+00        -0.67792E+08
 
   -0.56873E+08        -0.68044E+06         0.00000E+00
   -0.68044E+06        -0.60490E+08         0.00000E+00
    0.00000E+00         0.00000E+00        -0.68173E+08
 
   -0.58307E+08        -0.57761E+06         0.00000E+00
   -0.57761E+06        -0.60664E+08         0.00000E+00
    0.00000E+00         0.00000E+00        -0.68529E+08
 
   -0.59641E+08        -0.45025E+06         0.00000E+00
   -0.45025E+06        -0.60808E+08         0.00000E+00
    0.00000E+00         0.00000E+00        -0.68862E+08
 
   -0.60910E+08        -0.30067E+06         0.00000E+00
   -0.30067E+06        -0.60909E+08         0.00000E+00
    0.00000E+00         0.00000E+00        -0.69173E+08
 
   -0.62141E+08        -0.12764E+06         0.00000E+00
   -0.12764E+06        -0.60953E+08         0.00000E+00
    0.00000E+00         0.00000E+00        -0.69465E+08
 
   -0.63361E+08         0.73082E+05         0.00000E+00
    0.73082E+05        -0.60928E+08         0.00000E+00
    0.00000E+00         0.00000E+00        -0.69740E+08
 
   -0.64598E+08         0.30986E+06         0.00000E+00
    0.30986E+06        -0.60821E+08         0.00000E+00
    0.00000E+00         0.00000E+00        -0.69998E+08
 
   -0.65882E+08         0.59847E+06         0.00000E+00
    0.59847E+06        -0.60614E+08         0.00000E+00
    0.00000E+00         0.00000E+00        -0.70241E+08
 
   -0.67245E+08         0.97009E+06         0.00000E+00
    0.97009E+06        -0.60287E+08         0.00000E+00
    0.00000E+00         0.00000E+00        -0.70470E+08
 
   -0.68704E+08         0.14917E+07         0.00000E+00
    0.14917E+07        -0.59815E+08         0.00000E+00
    0.00000E+00         0.00000E+00        -0.70682E+08
 
   -0.70208E+08         0.22675E+07         0.00000E+00
    0.22675E+07        -0.59221E+08         0.00000E+00
    0.00000E+00         0.00000E+00        -0.70872E+08
 
   -0.49892E+08        -0.30021E+06         0.00000E+00
   -0.30021E+06        -0.59993E+08         0.00000E+00
    0.00000E+00         0.00000E+00        -0.65893E+08
 
   -0.51800E+08        -0.69038E+06         0.00000E+00
   -0.69038E+06        -0.59985E+08         0.00000E+00
    0.00000E+00         0.00000E+00        -0.66279E+08
 
   -0.53608E+08        -0.85954E+06         0.00000E+00
   -0.85954E+06        -0.60015E+08         0.00000E+00
    0.00000E+00         0.00000E+00        -0.66657E+08
 
   -0.55268E+08        -0.88558E+06         0.00000E+00
   -0.88558E+06        -0.60089E+08         0.00000E+00
    0.00000E+00         0.00000E+00        -0.67020E+08
 
   -0.56783E+08        -0.82488E+06         0.00000E+00
   -0.82488E+06        -0.60190E+08         0.00000E+00
    0.00000E+00         0.00000E+00        -0.67364E+08
 
   -0.58179E+08        -0.70816E+06         0.00000E+00
   -0.70816E+06        -0.60294E+08         0.00000E+00
    0.00000E+00         0.00000E+00        -0.67688E+08
 
   -0.59483E+08        -0.54960E+06         0.00000E+00
   -0.54960E+06        -0.60380E+08         0.00000E+00
    0.00000E+00         0.00000E+00        -0.67993E+08
 
   -0.60723E+08        -0.35455E+06         0.00000E+00
   -0.35455E+06        -0.60434E+08         0.00000E+00
    0.00000E+00         0.00000E+00        -0.68280E+08
 
   -0.61922E+08        -0.12296E+06         0.00000E+00
   -0.12296E+06        -0.60440E+08         0.00000E+00
    0.00000E+00         0.00000E+00        -0.68549E+08
 
   -0.63104E+08         0.14961E+06         0.00000E+00
    0.14961E+06        -0.60384E+08         0.00000E+00
    0.00000E+00         0.00000E+00        -0.68800E+08
 
   -0.64291E+08         0.47285E+06         0.00000E+00
    0.47285E+06        -0.60254E+08         0.00000E+00
    0.00000E+00         0.00000E+00        -0.69035E+08
 
   -0.65501E+08         0.86448E+06         0.00000E+00
    0.86448E+06        -0.60036E+08         0.00000E+00
    0.00000E+00         0.00000E+00        -0.69254E+08
 
   -0.66747E+08         0.13558E+07         0.00000E+00
    0.13558E+07        -0.59717E+08         0.00000E+00
    0.00000E+00         0.00000E+00        -0.69455E+08
 
   -0.68018E+08         0.19945E+07         0.00000E+00
    0.19945E+07        -0.59299E+08         0.00000E+00
    0.00000E+00         0.00000E+00        -0.69636E+08
 
   -0.69259E+08         0.28356E+07         0.00000E+00
    0.28356E+07        -0.58810E+08         0.00000E+00
    0.00000E+00         0.00000E+00        -0.69791E+08
 
   -0.50410E+08        -0.28126E+06         0.00000E+00
   -0.28126E+06        -0.59991E+08         0.00000E+00
    0.00000E+00         0.00000E+00        -0.65276E+08
 
   -0.52084E+08        -0.67787E+06         0.00000E+00
   -0.67787E+06        -0.59966E+08         0.00000E+00
    0.00000E+00         0.00000E+00        -0.65609E+08
 
   -0.53716E+08        -0.88271E+06         0.00000E+00
   -0.88271E+06        -0.59953E+08         0.00000E+00
    0.00000E+00         0.00000E+00        -0.65939E+08
 
   -0.55258E+08        -0.94215E+06         0.00000E+00
   -0.94215E+06        -0.59966E+08         0.00000E+00
    0.00000E+00         0.00000E+00        -0.66260E+08
 
   -0.56695E+08        -0.89763E+06         0.00000E+00
   -0.89763E+06        -0.60001E+08         0.00000E+00
    0.00000E+00         0.00000E+00        -0.66568E+08
 
   -0.58034E+08        -0.77757E+06         0.00000E+00
   -0.77757E+06        -0.60044E+08         0.00000E+00
    0.00000E+00         0.00000E+00        -0.66861E+08
 
   -0.59292E+08        -0.59819E+06         0.00000E+00
   -0.59819E+06        -0.60079E+08         0.00000E+00
    0.00000E+00         0.00000E+00        -0.67138E+08
 
   -0.60488E+08        -0.36692E+06         0.00000E+00
   -0.36692E+06        -0.60089E+08         0.00000E+00
    0.00000E+00         0.00000E+00        -0.67399E+08
 
   -0.61642E+08        -0.85146E+05         0.00000E+00
   -0.85146E+05        -0.60060E+08         0.00000E+00
    0.00000E+00         0.00000E+00        -0.67643E+08
 
   -0.62773E+08         0.25081E+06         0.00000E+00
    0.25081E+06        -0.59979E+08         0.00000E+00
    0.00000E+00         0.00000E+00        -0.67872E+08
 
   -0.63895E+08         0.64996E+06         0.00000E+00
    0.64996E+06        -0.59833E+08         0.00000E+00
    0.00000E+00         0.00000E+00        -0.68084E+08
 
   -0.65019E+08         0.11281E+07         0.00000E+00
    0.11281E+07        -0.59614E+08         0.00000E+00
    0.00000E+00         0.00000E+00        -0.68278E+08
 
   -0.66145E+08         0.17090E+07         0.00000E+00
    0.17090E+07        -0.59317E+08         0.00000E+00
    0.00000E+00         0.00000E+00        -0.68455E+08
 
   -0.67254E+08         0.24227E+07         0.00000E+00
    0.24227E+07        -0.58951E+08         0.00000E+00
    0.00000E+00         0.00000E+00        -0.68610E+08
 
   -0.68300E+08         0.32965E+07         0.00000E+00
    0.32965E+07        -0.58542E+08         0.00000E+00
    0.00000E+00         0.00000E+00        -0.68741E+08
 
   -0.50901E+08        -0.25937E+06         0.00000E+00
   -0.25937E+06        -0.59990E+08         0.00000E+00
    0.00000E+00         0.00000E+00        -0.64640E+08
 
   -0.52382E+08        -0.64414E+06         0.00000E+00
   -0.64414E+06        -0.59958E+08         0.00000E+00
    0.00000E+00         0.00000E+00        -0.64931E+08
 
   -0.53853E+08        -0.86400E+06         0.00000E+00
   -0.86400E+06        -0.59922E+08         0.00000E+00
    0.00000E+00         0.00000E+00        -0.65222E+08
 
   -0.55271E+08        -0.94529E+06         0.00000E+00
   -0.94529E+06        -0.59898E+08         0.00000E+00
    0.00000E+00         0.00000E+00        -0.65506E+08
 
   -0.56614E+08        -0.91549E+06         0.00000E+00
   -0.91549E+06        -0.59890E+08         0.00000E+00
    0.00000E+00         0.00000E+00        -0.65781E+08
 
   -0.57879E+08        -0.79666E+06         0.00000E+00
   -0.79666E+06        -0.59888E+08         0.00000E+00
    0.00000E+00         0.00000E+00        -0.66043E+08
 
   -0.59075E+08        -0.60346E+06         0.00000E+00
   -0.60346E+06        -0.59882E+08         0.00000E+00
    0.00000E+00         0.00000E+00        -0.66292E+08
 
   -0.60214E+08        -0.34386E+06         0.00000E+00
   -0.34386E+06        -0.59858E+08         0.00000E+00
    0.00000E+00         0.00000E+00        -0.66527E+08
 
   -0.61310E+08        -0.20309E+05         0.00000E+00
   -0.20309E+05        -0.59802E+08         0.00000E+00
    0.00000E+00         0.00000E+00        -0.66748E+08
 
   -0.62377E+08         0.36942E+06         0.00000E+00
    0.36942E+06        -0.59703E+08         0.00000E+00
    0.00000E+00         0.00000E+00        -0.66953E+08
 
   -0.63425E+08         0.83211E+06         0.00000E+00
    0.83211E+06        -0.59550E+08         0.00000E+00
    0.00000E+00         0.00000E+00        -0.67142E+08
 
   -0.64458E+08         0.13792E+07         0.00000E+00
    0.13792E+07        -0.59338E+08         0.00000E+00
    0.00000E+00         0.00000E+00        -0.67315E+08
 
   -0.65471E+08         0.20261E+07         0.00000E+00
    0.20261E+07        -0.59067E+08         0.00000E+00
    0.00000E+00         0.00000E+00        -0.67470E+08
 
   -0.66445E+08         0.27894E+07         0.00000E+00
    0.27894E+07        -0.58746E+08         0.00000E+00
    0.00000E+00         0.00000E+00        -0.67605E+08
 
   -0.67342E+08         0.36806E+07         0.00000E+00
    0.36806E+07        -0.58398E+08         0.00000E+00
    0.00000E+00         0.00000E+00        -0.67717E+08
 
   -0.51357E+08        -0.23689E+06         0.00000E+00
   -0.23689E+06        -0.59990E+08         0.00000E+00
    0.00000E+00         0.00000E+00        -0.63984E+08
 
   -0.52678E+08        -0.60108E+06         0.00000E+00
   -0.60108E+06        -0.59956E+08         0.00000E+00
    0.00000E+00         0.00000E+00        -0.64242E+08
 
   -0.54005E+08        -0.82323E+06         0.00000E+00
   -0.82323E+06        -0.59910E+08         0.00000E+00
    0.00000E+00         0.00000E+00        -0.64499E+08
 
   -0.55300E+08        -0.91643E+06         0.00000E+00
   -0.91643E+06        -0.59867E+08         0.00000E+00
    0.00000E+00         0.00000E+00        -0.64751E+08
 
   -0.56541E+08        -0.89703E+06         0.00000E+00
   -0.89703E+06        -0.59833E+08         0.00000E+00
    0.00000E+00         0.00000E+00        -0.64996E+08
 
   -0.57720E+08        -0.78013E+06         0.00000E+00
   -0.78013E+06        -0.59804E+08         0.00000E+00
    0.00000E+00         0.00000E+00        -0.65230E+08
 
   -0.58840E+08        -0.57715E+06         0.00000E+00
   -0.57715E+06        -0.59771E+08         0.00000E+00
    0.00000E+00         0.00000E+00        -0.65452E+08
 
   -0.59908E+08        -0.29523E+06         0.00000E+00
   -0.29523E+06        -0.59724E+08         0.00000E+00
    0.00000E+00         0.00000E+00        -0.65662E+08
 
   -0.60934E+08         0.62557E+05         0.00000E+00
    0.62557E+05        -0.59652E+08         0.00000E+00
    0.00000E+00         0.00000E+00        -0.65859E+08
 
   -0.61927E+08         0.49677E+06         0.00000E+00
    0.49677E+06        -0.59544E+08         0.00000E+00
    0.00000E+00         0.00000E+00        -0.66042E+08
 
   -0.62894E+08         0.10112E+07         0.00000E+00
    0.10112E+07        -0.59392E+08         0.00000E+00
    0.00000E+00         0.00000E+00        -0.66210E+08
 
   -0.63836E+08         0.16125E+07         0.00000E+00
    0.16125E+07        -0.59193E+08         0.00000E+00
    0.00000E+00         0.00000E+00        -0.66362E+08
 
   -0.64746E+08         0.23087E+07         0.00000E+00
    0.23087E+07        -0.58948E+08         0.00000E+00
    0.00000E+00         0.00000E+00        -0.66498E+08
 
   -0.65606E+08         0.31066E+07         0.00000E+00
    0.31066E+07        -0.58666E+08         0.00000E+00
    0.00000E+00         0.00000E+00        -0.66616E+08
 
   -0.66389E+08         0.40082E+07         0.00000E+00
    0.40082E+07        -0.58365E+08         0.00000E+00
    0.00000E+00         0.00000E+00        -0.66713E+08
 
   -0.51776E+08        -0.21543E+06         0.00000E+00
   -0.21543E+06        -0.59991E+08         0.00000E+00
    0.00000E+00         0.00000E+00        -0.63309E+08
 
   -0.52963E+08        -0.55608E+06         0.00000E+00
   -0.55608E+06        -0.59958E+08         0.00000E+00
    0.00000E+00         0.00000E+00        -0.63539E+08
 
   -0.54162E+08        -0.77376E+06         0.00000E+00
   -0.77376E+06        -0.59911E+08         0.00000E+00
    0.00000E+00         0.00000E+00        -0.63768E+08
 
   -0.55338E+08        -0.87216E+06         0.00000E+00
   -0.87216E+06        -0.59862E+08         0.00000E+00
    0.00000E+00         0.00000E+00        -0.63993E+08
 
   -0.56473E+08        -0.85907E+06         0.00000E+00
   -0.85907E+06        -0.59818E+08         0.00000E+00
    0.00000E+00         0.00000E+00        -0.64210E+08
 
   -0.57557E+08        -0.74329E+06         0.00000E+00
   -0.74329E+06        -0.59776E+08         0.00000E+00
    0.00000E+00         0.00000E+00        -0.64418E+08
 
   -0.58590E+08        -0.53259E+06         0.00000E+00
   -0.53259E+06        -0.59731E+08         0.00000E+00
    0.00000E+00         0.00000E+00        -0.64615E+08
 
   -0.59576E+08        -0.23263E+06         0.00000E+00
   -0.23263E+06        -0.59674E+08         0.00000E+00
    0.00000E+00         0.00000E+00        -0.64801E+08
 
   -0.60522E+08         0.15328E+06         0.00000E+00
    0.15328E+06        -0.59597E+08         0.00000E+00
    0.00000E+00         0.00000E+00        -0.64975E+08
 
   -0.61433E+08         0.62413E+06         0.00000E+00
    0.62413E+06        -0.59489E+08         0.00000E+00
    0.00000E+00         0.00000E+00        -0.65136E+08
 
   -0.62316E+08         0.11807E+07         0.00000E+00
    0.11807E+07        -0.59346E+08         0.00000E+00
    0.00000E+00         0.00000E+00        -0.65284E+08
 
   -0.63168E+08         0.18252E+07         0.00000E+00
    0.18252E+07        -0.59164E+08         0.00000E+00
    0.00000E+00         0.00000E+00        -0.65418E+08
 
   -0.63983E+08         0.25595E+07         0.00000E+00
    0.25595E+07        -0.58944E+08         0.00000E+00
    0.00000E+00         0.00000E+00        -0.65537E+08
 
   -0.64747E+08         0.33837E+07         0.00000E+00
    0.33837E+07        -0.58696E+08         0.00000E+00
    0.00000E+00         0.00000E+00        -0.65639E+08
 
   -0.65438E+08         0.42934E+07         0.00000E+00
    0.42934E+07        -0.58432E+08         0.00000E+00
    0.00000E+00         0.00000E+00        -0.65725E+08
 
   -0.52161E+08        -0.19634E+06         0.00000E+00
   -0.19634E+06        -0.59992E+08         0.00000E+00
    0.00000E+00         0.00000E+00        -0.62615E+08
 
   -0.53236E+08        -0.51449E+06         0.00000E+00
   -0.51449E+06        -0.59964E+08         0.00000E+00
    0.00000E+00         0.00000E+00        -0.62823E+08
 
   -0.54318E+08        -0.72532E+06         0.00000E+00
   -0.72532E+06        -0.59922E+08         0.00000E+00
    0.00000E+00         0.00000E+00        -0.63028E+08
 
   -0.55381E+08        -0.82543E+06         0.00000E+00
   -0.82543E+06        -0.59877E+08         0.00000E+00
    0.00000E+00         0.00000E+00        -0.63228E+08
 
   -0.56409E+08        -0.81591E+06         0.00000E+00
   -0.81591E+06        -0.59835E+08         0.00000E+00
    0.00000E+00         0.00000E+00        -0.63420E+08
 
   -0.57392E+08        -0.70030E+06         0.00000E+00
   -0.70030E+06        -0.59794E+08         0.00000E+00
    0.00000E+00         0.00000E+00        -0.63603E+08
 
   -0.58329E+08        -0.48293E+06         0.00000E+00
   -0.48293E+06        -0.59749E+08         0.00000E+00
    0.00000E+00         0.00000E+00        -0.63776E+08
 
   -0.59223E+08        -0.16782E+06         0.00000E+00
   -0.16782E+06        -0.59695E+08         0.00000E+00
    0.00000E+00         0.00000E+00        -0.63939E+08
 
   -0.60079E+08         0.24175E+06         0.00000E+00
    0.24175E+06        -0.59622E+08         0.00000E+00
    0.00000E+00         0.00000E+00        -0.64091E+08
 
   -0.60903E+08         0.74337E+06         0.00000E+00
    0.74337E+06        -0.59525E+08         0.00000E+00
    0.00000E+00         0.00000E+00        -0.64231E+08
 
   -0.61697E+08         0.13352E+07         0.00000E+00
    0.13352E+07        -0.59396E+08         0.00000E+00
    0.00000E+00         0.00000E+00        -0.64360E+08
 
   -0.62461E+08         0.20155E+07         0.00000E+00
    0.20155E+07        -0.59234E+08         0.00000E+00
    0.00000E+00         0.00000E+00        -0.64477E+08
 
   -0.63190E+08         0.27813E+07         0.00000E+00
    0.27813E+07        -0.59040E+08         0.00000E+00
    0.00000E+00         0.00000E+00        -0.64580E+08
 
   -0.63871E+08         0.36278E+07         0.00000E+00
    0.36278E+07        -0.58821E+08         0.00000E+00
    0.00000E+00         0.00000E+00        -0.64671E+08
 
   -0.64489E+08         0.45461E+07         0.00000E+00
    0.45461E+07        -0.58586E+08         0.00000E+00
    0.00000E+00         0.00000E+00        -0.64746E+08
 
   -0.52516E+08        -0.18079E+06         0.00000E+00
   -0.18079E+06        -0.59994E+08         0.00000E+00
    0.00000E+00         0.00000E+00        -0.61903E+08
 
   -0.53495E+08        -0.48053E+06         0.00000E+00
   -0.48053E+06        -0.59973E+08         0.00000E+00
    0.00000E+00         0.00000E+00        -0.62092E+08
 
   -0.54473E+08        -0.68547E+06         0.00000E+00
   -0.68547E+06        -0.59941E+08         0.00000E+00
    0.00000E+00         0.00000E+00        -0.62276E+08
 
   -0.55427E+08        -0.78654E+06         0.00000E+00
   -0.78654E+06        -0.59909E+08         0.00000E+00
    0.00000E+00         0.00000E+00        -0.62454E+08
 
   -0.56346E+08        -0.77952E+06         0.00000E+00
   -0.77952E+06        -0.59878E+08         0.00000E+00
    0.00000E+00         0.00000E+00        -0.62624E+08
 
   -0.57223E+08        -0.66363E+06         0.00000E+00
   -0.66363E+06        -0.59849E+08         0.00000E+00
    0.00000E+00         0.00000E+00        -0.62784E+08
 
   -0.58057E+08        -0.44021E+06         0.00000E+00
   -0.44021E+06        -0.59817E+08         0.00000E+00
    0.00000E+00         0.00000E+00        -0.62934E+08
 
   -0.58852E+08        -0.11176E+06         0.00000E+00
   -0.11176E+06        -0.59776E+08         0.00000E+00
    0.00000E+00         0.00000E+00        -0.63074E+08
 
   -0.59611E+08         0.31856E+06         0.00000E+00
    0.31856E+06        -0.59718E+08         0.00000E+00
    0.00000E+00         0.00000E+00        -0.63205E+08
 
   -0.60341E+08         0.84718E+06         0.00000E+00
    0.84718E+06        -0.59638E+08         0.00000E+00
    0.00000E+00         0.00000E+00        -0.63325E+08
 
   -0.61045E+08         0.14700E+07         0.00000E+00
    0.14700E+07        -0.59529E+08         0.00000E+00
    0.00000E+00         0.00000E+00        -0.63435E+08
 
   -0.61722E+08         0.21819E+07         0.00000E+00
    0.21819E+07        -0.59390E+08         0.00000E+00
    0.00000E+00         0.00000E+00        -0.63535E+08
 
   -0.62370E+08         0.29764E+07         0.00000E+00
    0.29764E+07        -0.59222E+08         0.00000E+00
    0.00000E+00         0.00000E+00        -0.63625E+08
 
   -0.62979E+08         0.38444E+07         0.00000E+00
    0.38444E+07        -0.59029E+08         0.00000E+00
    0.00000E+00         0.00000E+00        -0.63704E+08
 
   -0.63538E+08         0.47737E+07         0.00000E+00
    0.47737E+07        -0.58817E+08         0.00000E+00
    0.00000E+00         0.00000E+00        -0.63771E+08
 
   -0.52848E+08        -0.16987E+06         0.00000E+00
   -0.16987E+06        -0.59996E+08         0.00000E+00
    0.00000E+00         0.00000E+00        -0.61174E+08
 
   -0.53746E+08        -0.45778E+06         0.00000E+00
   -0.45778E+06        -0.59984E+08         0.00000E+00
    0.00000E+00         0.00000E+00        -0.61347E+08
 
   -0.54627E+08        -0.66039E+06         0.00000E+00
   -0.66039E+06        -0.59968E+08         0.00000E+00
    0.00000E+00         0.00000E+00        -0.61513E+08
 
   -0.55476E+08        -0.76393E+06         0.00000E+00
   -0.76393E+06        -0.59954E+08         0.00000E+00
    0.00000E+00         0.00000E+00        -0.61671E+08
 
   -0.56286E+08        -0.75988E+06         0.00000E+00
   -0.75988E+06        -0.59944E+08         0.00000E+00
    0.00000E+00         0.00000E+00        -0.61819E+08
 
   -0.57052E+08        -0.64393E+06         0.00000E+00
   -0.64393E+06        -0.59937E+08         0.00000E+00
    0.00000E+00         0.00000E+00        -0.61957E+08
 
   -0.57777E+08        -0.41495E+06         0.00000E+00
   -0.41495E+06        -0.59926E+08         0.00000E+00
    0.00000E+00         0.00000E+00        -0.62085E+08
 
   -0.58464E+08        -0.74165E+05         0.00000E+00
   -0.74165E+05        -0.59907E+08         0.00000E+00
    0.00000E+00         0.00000E+00        -0.62203E+08
 
   -0.59120E+08         0.37538E+06         0.00000E+00
    0.37538E+06        -0.59873E+08         0.00000E+00
    0.00000E+00         0.00000E+00        -0.62312E+08
 
   -0.59751E+08         0.92913E+06         0.00000E+00
    0.92913E+06        -0.59817E+08         0.00000E+00
    0.00000E+00         0.00000E+00        -0.62412E+08
 
   -0.60362E+08         0.15810E+07         0.00000E+00
    0.15810E+07        -0.59733E+08         0.00000E+00
    0.00000E+00         0.00000E+00        -0.62504E+08
 
   -0.60953E+08         0.23233E+07         0.00000E+00
    0.23233E+07        -0.59620E+08         0.00000E+00
    0.00000E+00         0.00000E+00        -0.62589E+08
 
   -0.61524E+08         0.31462E+07         0.00000E+00
    0.31462E+07        -0.59477E+08         0.00000E+00
    0.00000E+00         0.00000E+00        -0.62665E+08
 
   -0.62069E+08         0.40374E+07         0.00000E+00
    0.40374E+07        -0.59307E+08         0.00000E+00
    0.00000E+00         0.00000E+00        -0.62734E+08
 
   -0.62578E+08         0.49819E+07         0.00000E+00
    0.49819E+07        -0.59115E+08         0.00000E+00
    0.00000E+00         0.00000E+00        -0.62794E+08
 
   -0.53168E+08        -0.16457E+06         0.00000E+00
   -0.16457E+06        -0.59999E+08         0.00000E+00
    0.00000E+00         0.00000E+00        -0.60428E+08
 
   -0.53993E+08        -0.44932E+06         0.00000E+00
   -0.44932E+06        -0.59998E+08         0.00000E+00
    0.00000E+00         0.00000E+00        -0.60588E+08
 
   -0.54784E+08        -0.65526E+06         0.00000E+00
   -0.65526E+06        -0.60001E+08         0.00000E+00
    0.00000E+00         0.00000E+00        -0.60738E+08
 
   -0.55530E+08        -0.76460E+06         0.00000E+00
   -0.76460E+06        -0.60011E+08         0.00000E+00
    0.00000E+00         0.00000E+00        -0.60877E+08
 
   -0.56228E+08        -0.76528E+06         0.00000E+00
   -0.76528E+06        -0.60029E+08         0.00000E+00
    0.00000E+00         0.00000E+00        -0.61004E+08
 
   -0.56879E+08        -0.65013E+06         0.00000E+00
   -0.65013E+06        -0.60050E+08         0.00000E+00
    0.00000E+00         0.00000E+00        -0.61120E+08
 
   -0.57487E+08        -0.41607E+06         0.00000E+00
   -0.41607E+06        -0.60070E+08         0.00000E+00
    0.00000E+00         0.00000E+00        -0.61225E+08
 
   -0.58060E+08        -0.63337E+05         0.00000E+00
   -0.63337E+05        -0.60082E+08         0.00000E+00
    0.00000E+00         0.00000E+00        -0.61321E+08
 
   -0.58607E+08         0.40507E+06         0.00000E+00
    0.40507E+06        -0.60078E+08         0.00000E+00
    0.00000E+00         0.00000E+00        -0.61408E+08
 
   -0.59134E+08         0.98371E+06         0.00000E+00
    0.98371E+06        -0.60051E+08         0.00000E+00
    0.00000E+00         0.00000E+00        -0.61488E+08
 
   -0.59648E+08         0.16648E+07         0.00000E+00
    0.16648E+07        -0.59997E+08         0.00000E+00
    0.00000E+00         0.00000E+00        -0.61562E+08
 
   -0.60154E+08         0.24384E+07         0.00000E+00
    0.24384E+07        -0.59912E+08         0.00000E+00
    0.00000E+00         0.00000E+00        -0.61631E+08
 
   -0.60651E+08         0.32918E+07         0.00000E+00
    0.32918E+07        -0.59794E+08         0.00000E+00
    0.00000E+00         0.00000E+00        -0.61694E+08
 
   -0.61137E+08         0.42099E+07         0.00000E+00
    0.42099E+07        -0.59646E+08         0.00000E+00
    0.00000E+00         0.00000E+00        -0.61754E+08
 
   -0.61605E+08         0.51750E+07         0.00000E+00
    0.51750E+07        -0.59470E+08         0.00000E+00
    0.00000E+00         0.00000E+00        -0.61808E+08
 
   -0.53485E+08        -0.16578E+06         0.00000E+00
   -0.16578E+06        -0.60002E+08         0.00000E+00
    0.00000E+00         0.00000E+00        -0.59667E+08
 
   -0.54246E+08        -0.45784E+06         0.00000E+00
   -0.45784E+06        -0.60014E+08         0.00000E+00
    0.00000E+00         0.00000E+00        -0.59816E+08
 
   -0.54948E+08        -0.67445E+06         0.00000E+00
   -0.67445E+06        -0.60039E+08         0.00000E+00
    0.00000E+00         0.00000E+00        -0.59950E+08
 
   -0.55590E+08        -0.79435E+06         0.00000E+00
   -0.79435E+06        -0.60078E+08         0.00000E+00
    0.00000E+00         0.00000E+00        -0.60070E+08
 
   -0.56174E+08        -0.80253E+06         0.00000E+00
   -0.80253E+06        -0.60129E+08         0.00000E+00
    0.00000E+00         0.00000E+00        -0.60176E+08
 
   -0.56704E+08        -0.68959E+06         0.00000E+00
   -0.68959E+06        -0.60186E+08         0.00000E+00
    0.00000E+00         0.00000E+00        -0.60269E+08
 
   -0.57189E+08        -0.45095E+06         0.00000E+00
   -0.45095E+06        -0.60243E+08         0.00000E+00
    0.00000E+00         0.00000E+00        -0.60351E+08
 
   -0.57641E+08        -0.86140E+05         0.00000E+00
   -0.86140E+05        -0.60291E+08         0.00000E+00
    0.00000E+00         0.00000E+00        -0.60424E+08
 
   -0.58071E+08         0.40172E+06         0.00000E+00
    0.40172E+06        -0.60323E+08         0.00000E+00
    0.00000E+00         0.00000E+00        -0.60488E+08
 
   -0.58488E+08         0.10063E+07         0.00000E+00
    0.10063E+07        -0.60331E+08         0.00000E+00
    0.00000E+00         0.00000E+00        -0.60548E+08
 
   -0.58903E+08         0.17185E+07         0.00000E+00
    0.17185E+07        -0.60310E+08         0.00000E+00
    0.00000E+00         0.00000E+00        -0.60603E+08
 
   -0.59321E+08         0.25260E+07         0.00000E+00
    0.25260E+07        -0.60254E+08         0.00000E+00
    0.00000E+00         0.00000E+00        -0.60655E+08
 
   -0.59746E+08         0.34139E+07         0.00000E+00
    0.34139E+07        -0.60162E+08         0.00000E+00
    0.00000E+00         0.00000E+00        -0.60706E+08
 
   -0.60178E+08         0.43644E+07         0.00000E+00
    0.43644E+07        -0.60034E+08         0.00000E+00
    0.00000E+00         0.00000E+00        -0.60756E+08
 
   -0.60612E+08         0.53569E+07         0.00000E+00
    0.53569E+07        -0.59872E+08         0.00000E+00
    0.00000E+00         0.00000E+00        -0.60805E+08
 
   -0.53813E+08        -0.17433E+06         0.00000E+00
   -0.17433E+06        -0.60006E+08         0.00000E+00
    0.00000E+00         0.00000E+00        -0.58892E+08
 
   -0.54513E+08        -0.48567E+06         0.00000E+00
   -0.48567E+06        -0.60031E+08         0.00000E+00
    0.00000E+00         0.00000E+00        -0.59030E+08
 
   -0.55128E+08        -0.72163E+06         0.00000E+00
   -0.72163E+06        -0.60081E+08         0.00000E+00
    0.00000E+00         0.00000E+00        -0.59149E+08
 
   -0.55663E+08        -0.85790E+06         0.00000E+00
   -0.85790E+06        -0.60154E+08         0.00000E+00
    0.00000E+00         0.00000E+00        -0.59249E+08
 
   -0.56126E+08        -0.87712E+06         0.00000E+00
   -0.87712E+06        -0.60242E+08         0.00000E+00
    0.00000E+00         0.00000E+00        -0.59333E+08
 
   -0.56528E+08        -0.76814E+06         0.00000E+00
   -0.76814E+06        -0.60340E+08         0.00000E+00
    0.00000E+00         0.00000E+00        -0.59402E+08
 
   -0.56883E+08        -0.52535E+06         0.00000E+00
   -0.52535E+06        -0.60438E+08         0.00000E+00
    0.00000E+00         0.00000E+00        -0.59459E+08
 
   -0.57206E+08        -0.14796E+06         0.00000E+00
   -0.14796E+06        -0.60528E+08         0.00000E+00
    0.00000E+00         0.00000E+00        -0.59507E+08
 
   -0.57512E+08         0.36067E+06         0.00000E+00
    0.36067E+06        -0.60600E+08         0.00000E+00
    0.00000E+00         0.00000E+00        -0.59548E+08
 
   -0.57813E+08         0.99339E+06         0.00000E+00
    0.99339E+06        -0.60647E+08         0.00000E+00
    0.00000E+00         0.00000E+00        -0.59584E+08
 
   -0.58123E+08         0.17396E+07         0.00000E+00
    0.17396E+07        -0.60661E+08         0.00000E+00
    0.00000E+00         0.00000E+00        -0.59619E+08
 
   -0.58452E+08         0.25853E+07         0.00000E+00
    0.25853E+07        -0.60636E+08         0.00000E+00
    0.00000E+00         0.00000E+00        -0.59655E+08
 
   -0.58805E+08         0.35132E+07         0.00000E+00
    0.35132E+07        -0.60570E+08         0.00000E+00
    0.00000E+00         0.00000E+00        -0.59692E+08
 
   -0.59185E+08         0.45028E+07         0.00000E+00
    0.45028E+07        -0.60461E+08         0.00000E+00
    0.00000E+00         0.00000E+00        -0.59732E+08
 
   -0.59591E+08         0.55309E+07         0.00000E+00
    0.55309E+07        -0.60309E+08         0.00000E+00
    0.00000E+00         0.00000E+00        -0.59776E+08
 
   -0.54167E+08        -0.19090E+06         0.00000E+00
   -0.19090E+06        -0.60009E+08         0.00000E+00
    0.00000E+00         0.00000E+00        -0.58104E+08
 
   -0.54805E+08        -0.53476E+06         0.00000E+00
   -0.53476E+06        -0.60050E+08         0.00000E+00
    0.00000E+00         0.00000E+00        -0.58230E+08
 
   -0.55330E+08        -0.79975E+06         0.00000E+00
   -0.79975E+06        -0.60128E+08         0.00000E+00
    0.00000E+00         0.00000E+00        -0.58333E+08
 
   -0.55752E+08        -0.95898E+06         0.00000E+00
   -0.95898E+06        -0.60236E+08         0.00000E+00
    0.00000E+00         0.00000E+00        -0.58412E+08
 
   -0.56087E+08        -0.99318E+06         0.00000E+00
   -0.99318E+06        -0.60366E+08         0.00000E+00
    0.00000E+00         0.00000E+00        -0.58472E+08
 
   -0.56353E+08        -0.89006E+06         0.00000E+00
   -0.89006E+06        -0.60507E+08         0.00000E+00
    0.00000E+00         0.00000E+00        -0.58515E+08
 
   -0.56569E+08        -0.64347E+06         0.00000E+00
   -0.64347E+06        -0.60650E+08         0.00000E+00
    0.00000E+00         0.00000E+00        -0.58544E+08
 
   -0.56754E+08        -0.25263E+06         0.00000E+00
   -0.25263E+06        -0.60785E+08         0.00000E+00
    0.00000E+00         0.00000E+00        -0.58564E+08
 
   -0.56926E+08         0.27861E+06         0.00000E+00
    0.27861E+06        -0.60900E+08         0.00000E+00
    0.00000E+00         0.00000E+00        -0.58579E+08
 
   -0.57105E+08         0.94225E+06         0.00000E+00
    0.94225E+06        -0.60988E+08         0.00000E+00
    0.00000E+00         0.00000E+00        -0.58591E+08
 
   -0.57305E+08         0.17264E+07         0.00000E+00
    0.17264E+07        -0.61039E+08         0.00000E+00
    0.00000E+00         0.00000E+00        -0.58604E+08
 
   -0.57540E+08         0.26155E+07         0.00000E+00
    0.26155E+07        -0.61046E+08         0.00000E+00
    0.00000E+00         0.00000E+00        -0.58621E+08
 
   -0.57820E+08         0.35900E+07         0.00000E+00
    0.35900E+07        -0.61006E+08         0.00000E+00
    0.00000E+00         0.00000E+00        -0.58644E+08
 
   -0.58150E+08         0.46270E+07         0.00000E+00
    0.46270E+07        -0.60914E+08         0.00000E+00
    0.00000E+00         0.00000E+00        -0.58674E+08
 
   -0.58532E+08         0.56999E+07         0.00000E+00
    0.56999E+07        -0.60772E+08         0.00000E+00
    0.00000E+00         0.00000E+00        -0.58714E+08
 
   -0.54562E+08        -0.21610E+06         0.00000E+00
   -0.21610E+06        -0.60013E+08         0.00000E+00
    0.00000E+00         0.00000E+00        -0.57302E+08
 
   -0.55135E+08        -0.60670E+06         0.00000E+00
   -0.60670E+06        -0.60070E+08         0.00000E+00
    0.00000E+00         0.00000E+00        -0.57416E+08
 
   -0.55562E+08        -0.91110E+06         0.00000E+00
   -0.91110E+06        -0.60177E+08         0.00000E+00
    0.00000E+00         0.00000E+00        -0.57500E+08
 
   -0.55863E+08        -0.11002E+07         0.00000E+00
   -0.11002E+07        -0.60323E+08         0.00000E+00
    0.00000E+00         0.00000E+00        -0.57556E+08
 
   -0.56061E+08        -0.11535E+07         0.00000E+00
   -0.11535E+07        -0.60496E+08         0.00000E+00
    0.00000E+00         0.00000E+00        -0.57589E+08
 
   -0.56180E+08        -0.10580E+07         0.00000E+00
   -0.10580E+07        -0.60683E+08         0.00000E+00
    0.00000E+00         0.00000E+00        -0.57602E+08
 
   -0.56245E+08        -0.80771E+06         0.00000E+00
   -0.80771E+06        -0.60873E+08         0.00000E+00
    0.00000E+00         0.00000E+00        -0.57601E+08
 
   -0.56282E+08        -0.40225E+06         0.00000E+00
   -0.40225E+06        -0.61053E+08         0.00000E+00
    0.00000E+00         0.00000E+00        -0.57590E+08
 
   -0.56313E+08         0.15378E+06         0.00000E+00
    0.15378E+06        -0.61213E+08         0.00000E+00
    0.00000E+00         0.00000E+00        -0.57574E+08
 
   -0.56360E+08         0.85149E+06         0.00000E+00
    0.85149E+06        -0.61342E+08         0.00000E+00
    0.00000E+00         0.00000E+00        -0.57559E+08
 
   -0.56443E+08         0.16779E+07         0.00000E+00
    0.16779E+07        -0.61431E+08         0.00000E+00
    0.00000E+00         0.00000E+00        -0.57547E+08
 
   -0.56580E+08         0.26161E+07         0.00000E+00
    0.26161E+07        -0.61471E+08         0.00000E+00
    0.00000E+00         0.00000E+00        -0.57544E+08
 
   -0.56783E+08         0.36447E+07         0.00000E+00
    0.36447E+07        -0.61456E+08         0.00000E+00
    0.00000E+00         0.00000E+00        -0.57551E+08
 
   -0.57064E+08         0.47382E+07         0.00000E+00
    0.47382E+07        -0.61382E+08         0.00000E+00
    0.00000E+00         0.00000E+00        -0.57571E+08
 
   -0.57425E+08         0.58667E+07         0.00000E+00
    0.58667E+07        -0.61246E+08         0.00000E+00
    0.00000E+00         0.00000E+00        -0.57606E+08
 
   -0.55015E+08        -0.25040E+06         0.00000E+00
   -0.25040E+06        -0.60018E+08         0.00000E+00
    0.00000E+00         0.00000E+00        -0.56487E+08
 
   -0.55514E+08        -0.70266E+06         0.00000E+00
   -0.70266E+06        -0.60092E+08         0.00000E+00
    0.00000E+00         0.00000E+00        -0.56587E+08
 
   -0.55833E+08        -0.10572E+07         0.00000E+00
   -0.10572E+07        -0.60228E+08         0.00000E+00
    0.00000E+00         0.00000E+00        -0.56649E+08
 
   -0.56001E+08        -0.12832E+07         0.00000E+00
   -0.12832E+07        -0.60412E+08         0.00000E+00
    0.00000E+00         0.00000E+00        -0.56678E+08
 
   -0.56048E+08        -0.13592E+07         0.00000E+00
   -0.13592E+07        -0.60629E+08         0.00000E+00
    0.00000E+00         0.00000E+00        -0.56679E+08
 
   -0.56008E+08        -0.12728E+07         0.00000E+00
   -0.12728E+07        -0.60863E+08         0.00000E+00
    0.00000E+00         0.00000E+00        -0.56658E+08
 
   -0.55912E+08        -0.10184E+07         0.00000E+00
   -0.10184E+07        -0.61099E+08         0.00000E+00
    0.00000E+00         0.00000E+00        -0.56621E+08
 
   -0.55789E+08        -0.59690E+06         0.00000E+00
   -0.59690E+06        -0.61324E+08         0.00000E+00
    0.00000E+00         0.00000E+00        -0.56575E+08
 
   -0.55669E+08        -0.13814E+05         0.00000E+00
   -0.13814E+05        -0.61527E+08         0.00000E+00
    0.00000E+00         0.00000E+00        -0.56526E+08
 
   -0.55575E+08         0.72107E+06         0.00000E+00
    0.72107E+06        -0.61696E+08         0.00000E+00
    0.00000E+00         0.00000E+00        -0.56479E+08
 
   -0.55533E+08         0.15940E+07         0.00000E+00
    0.15940E+07        -0.61822E+08         0.00000E+00
    0.00000E+00         0.00000E+00        -0.56439E+08
 
   -0.55564E+08         0.25871E+07         0.00000E+00
    0.25871E+07        -0.61895E+08         0.00000E+00
    0.00000E+00         0.00000E+00        -0.56412E+08
 
   -0.55687E+08         0.36776E+07         0.00000E+00
    0.36776E+07        -0.61906E+08         0.00000E+00
    0.00000E+00         0.00000E+00        -0.56402E+08
 
   -0.55915E+08         0.48376E+07         0.00000E+00
    0.48376E+07        -0.61848E+08         0.00000E+00
    0.00000E+00         0.00000E+00        -0.56410E+08
 
   -0.56259E+08         0.60338E+07         0.00000E+00
    0.60338E+07        -0.61717E+08         0.00000E+00
    0.00000E+00         0.00000E+00        -0.56440E+08
 
   -0.55543E+08        -0.29415E+06         0.00000E+00
   -0.29415E+06        -0.60022E+08         0.00000E+00
    0.00000E+00         0.00000E+00        -0.55658E+08
 
   -0.55957E+08        -0.82341E+06         0.00000E+00
   -0.82341E+06        -0.60113E+08         0.00000E+00
    0.00000E+00         0.00000E+00        -0.55741E+08
 
   -0.56153E+08        -0.12387E+07         0.00000E+00
   -0.12387E+07        -0.60280E+08         0.00000E+00
    0.00000E+00         0.00000E+00        -0.55777E+08
 
   -0.56171E+08        -0.15079E+07         0.00000E+00
   -0.15079E+07        -0.60503E+08         0.00000E+00
    0.00000E+00         0.00000E+00        -0.55773E+08
 
   -0.56053E+08        -0.16097E+07         0.00000E+00
   -0.16097E+07        -0.60762E+08         0.00000E+00
    0.00000E+00         0.00000E+00        -0.55737E+08
 
   -0.55839E+08        -0.15328E+07         0.00000E+00
   -0.15328E+07        -0.61040E+08         0.00000E+00
    0.00000E+00         0.00000E+00        -0.55676E+08
 
   -0.55568E+08        -0.12734E+07         0.00000E+00
   -0.12734E+07        -0.61318E+08         0.00000E+00
    0.00000E+00         0.00000E+00        -0.55598E+08
 
   -0.55274E+08        -0.83412E+06         0.00000E+00
   -0.83412E+06        -0.61585E+08         0.00000E+00
    0.00000E+00         0.00000E+00        -0.55511E+08
 
   -0.54991E+08        -0.22189E+06         0.00000E+00
   -0.22189E+06        -0.61827E+08         0.00000E+00
    0.00000E+00         0.00000E+00        -0.55422E+08
 
   -0.54747E+08         0.55270E+06         0.00000E+00
    0.55270E+06        -0.62033E+08         0.00000E+00
    0.00000E+00         0.00000E+00        -0.55339E+08
 
   -0.54570E+08         0.14756E+07         0.00000E+00
    0.14756E+07        -0.62194E+08         0.00000E+00
    0.00000E+00         0.00000E+00        -0.55268E+08
 
   -0.54487E+08         0.25286E+07         0.00000E+00
    0.25286E+07        -0.62299E+08         0.00000E+00
    0.00000E+00         0.00000E+00        -0.55214E+08
 
   -0.54521E+08         0.36885E+07         0.00000E+00
    0.36885E+07        -0.62335E+08         0.00000E+00
    0.00000E+00         0.00000E+00        -0.55182E+08
 
   -0.54693E+08         0.49256E+07         0.00000E+00
    0.49256E+07        -0.62295E+08         0.00000E+00
    0.00000E+00         0.00000E+00        -0.55177E+08
 
   -0.55018E+08         0.62030E+07         0.00000E+00
    0.62030E+07        -0.62168E+08         0.00000E+00
    0.00000E+00         0.00000E+00        -0.55201E+08
 
   -0.56164E+08        -0.34761E+06         0.00000E+00
   -0.34761E+06        -0.60026E+08         0.00000E+00
    0.00000E+00         0.00000E+00        -0.54814E+08
 
   -0.56474E+08        -0.96934E+06         0.00000E+00
   -0.96934E+06        -0.60136E+08         0.00000E+00
    0.00000E+00         0.00000E+00        -0.54874E+08
 
   -0.56528E+08        -0.14555E+07         0.00000E+00
   -0.14555E+07        -0.60333E+08         0.00000E+00
    0.00000E+00         0.00000E+00        -0.54878E+08
 
   -0.56377E+08        -0.17731E+07         0.00000E+00
   -0.17731E+07        -0.60593E+08         0.00000E+00
    0.00000E+00         0.00000E+00        -0.54835E+08
 
   -0.56075E+08        -0.19021E+07         0.00000E+00
   -0.19021E+07        -0.60891E+08         0.00000E+00
    0.00000E+00         0.00000E+00        -0.54755E+08
 
   -0.55671E+08        -0.18336E+07         0.00000E+00
   -0.18336E+07        -0.61207E+08         0.00000E+00
    0.00000E+00         0.00000E+00        -0.54647E+08
 
   -0.55211E+08        -0.15672E+07         0.00000E+00
   -0.15672E+07        -0.61521E+08         0.00000E+00
    0.00000E+00         0.00000E+00        -0.54520E+08
 
   -0.54735E+08        -0.11082E+07         0.00000E+00
   -0.11082E+07        -0.61821E+08         0.00000E+00
    0.00000E+00         0.00000E+00        -0.54386E+08
 
   -0.54278E+08        -0.46533E+06         0.00000E+00
   -0.46533E+06        -0.62095E+08         0.00000E+00
    0.00000E+00         0.00000E+00        -0.54252E+08
 
   -0.53873E+08         0.35024E+06         0.00000E+00
    0.35024E+06        -0.62333E+08         0.00000E+00
    0.00000E+00         0.00000E+00        -0.54126E+08
 
   -0.53551E+08         0.13249E+07         0.00000E+00
    0.13249E+07        -0.62525E+08         0.00000E+00
    0.00000E+00         0.00000E+00        -0.54018E+08
 
   -0.53343E+08         0.24414E+07         0.00000E+00
    0.24414E+07        -0.62659E+08         0.00000E+00
    0.00000E+00         0.00000E+00        -0.53932E+08
 
   -0.53278E+08         0.36771E+07         0.00000E+00
    0.36771E+07        -0.62722E+08         0.00000E+00
    0.00000E+00         0.00000E+00        -0.53877E+08
 
   -0.53385E+08         0.50016E+07         0.00000E+00
    0.50016E+07        -0.62699E+08         0.00000E+00
    0.00000E+00         0.00000E+00        -0.53856E+08
 
   -0.53688E+08         0.63751E+07         0.00000E+00
    0.63751E+07        -0.62578E+08         0.00000E+00
    0.00000E+00         0.00000E+00        -0.53873E+08
 
   -0.56897E+08        -0.41100E+06         0.00000E+00
   -0.41100E+06        -0.60031E+08         0.00000E+00
    0.00000E+00         0.00000E+00        -0.53950E+08
 
   -0.57080E+08        -0.11405E+07         0.00000E+00
   -0.11405E+07        -0.60158E+08         0.00000E+00
    0.00000E+00         0.00000E+00        -0.53982E+08
 
   -0.56966E+08        -0.17063E+07         0.00000E+00
   -0.17063E+07        -0.60384E+08         0.00000E+00
    0.00000E+00         0.00000E+00        -0.53947E+08
 
   -0.56622E+08        -0.20753E+07         0.00000E+00
   -0.20753E+07        -0.60678E+08         0.00000E+00
    0.00000E+00         0.00000E+00        -0.53857E+08
 
   -0.56114E+08        -0.22303E+07         0.00000E+00
   -0.22303E+07        -0.61010E+08         0.00000E+00
    0.00000E+00         0.00000E+00        -0.53723E+08
 
   -0.55502E+08        -0.21671E+07         0.00000E+00
   -0.21671E+07        -0.61355E+08         0.00000E+00
    0.00000E+00         0.00000E+00        -0.53558E+08
 
   -0.54839E+08        -0.18903E+07         0.00000E+00
   -0.18903E+07        -0.61694E+08         0.00000E+00
    0.00000E+00         0.00000E+00        -0.53375E+08
 
   -0.54169E+08        -0.14094E+07         0.00000E+00
   -0.14094E+07        -0.62015E+08         0.00000E+00
    0.00000E+00         0.00000E+00        -0.53185E+08
 
   -0.53529E+08        -0.73539E+06         0.00000E+00
   -0.73539E+06        -0.62310E+08         0.00000E+00
    0.00000E+00         0.00000E+00        -0.52998E+08
 
   -0.52953E+08         0.12029E+06         0.00000E+00
    0.12029E+06        -0.62569E+08         0.00000E+00
    0.00000E+00         0.00000E+00        -0.52824E+08
 
   -0.52474E+08         0.11457E+07         0.00000E+00
    0.11457E+07        -0.62786E+08         0.00000E+00
    0.00000E+00         0.00000E+00        -0.52673E+08
 
   -0.52127E+08         0.23263E+07         0.00000E+00
    0.23263E+07        -0.62946E+08         0.00000E+00
    0.00000E+00         0.00000E+00        -0.52551E+08
 
   -0.51949E+08         0.36420E+07         0.00000E+00
    0.36420E+07        -0.63035E+08         0.00000E+00
    0.00000E+00         0.00000E+00        -0.52466E+08
 
   -0.51978E+08         0.50636E+07         0.00000E+00
    0.50636E+07        -0.63033E+08         0.00000E+00
    0.00000E+00         0.00000E+00        -0.52425E+08
 
   -0.52250E+08         0.65493E+07         0.00000E+00
    0.65493E+07        -0.62920E+08         0.00000E+00
    0.00000E+00         0.00000E+00        -0.52434E+08
 
   -0.57760E+08        -0.48455E+06         0.00000E+00
   -0.48455E+06        -0.60036E+08         0.00000E+00
    0.00000E+00         0.00000E+00        -0.53063E+08
 
   -0.57785E+08        -0.13366E+07         0.00000E+00
   -0.13366E+07        -0.60181E+08         0.00000E+00
    0.00000E+00         0.00000E+00        -0.53059E+08
 
   -0.57471E+08        -0.19888E+07         0.00000E+00
   -0.19888E+07        -0.60435E+08         0.00000E+00
    0.00000E+00         0.00000E+00        -0.52975E+08
 
   -0.56903E+08        -0.24088E+07         0.00000E+00
   -0.24088E+07        -0.60757E+08         0.00000E+00
    0.00000E+00         0.00000E+00        -0.52826E+08
 
   -0.56164E+08        -0.25847E+07         0.00000E+00
   -0.25847E+07        -0.61112E+08         0.00000E+00
    0.00000E+00         0.00000E+00        -0.52627E+08
 
   -0.55327E+08        -0.25201E+07         0.00000E+00
   -0.25201E+07        -0.61472E+08         0.00000E+00
    0.00000E+00         0.00000E+00        -0.52396E+08
 
   -0.54449E+08        -0.22276E+07         0.00000E+00
   -0.22276E+07        -0.61819E+08         0.00000E+00
    0.00000E+00         0.00000E+00        -0.52146E+08
 
   -0.53577E+08        -0.17225E+07         0.00000E+00
   -0.17225E+07        -0.62143E+08         0.00000E+00
    0.00000E+00         0.00000E+00        -0.51892E+08
 
   -0.52747E+08        -0.10187E+07         0.00000E+00
   -0.10187E+07        -0.62441E+08         0.00000E+00
    0.00000E+00         0.00000E+00        -0.51644E+08
 
   -0.51991E+08        -0.12713E+06         0.00000E+00
   -0.12713E+06        -0.62708E+08         0.00000E+00
    0.00000E+00         0.00000E+00        -0.51415E+08
 
   -0.51343E+08         0.94360E+06         0.00000E+00
    0.94360E+06        -0.62940E+08         0.00000E+00
    0.00000E+00         0.00000E+00        -0.51212E+08
 
   -0.50841E+08         0.21843E+07         0.00000E+00
    0.21843E+07        -0.63123E+08         0.00000E+00
    0.00000E+00         0.00000E+00        -0.51048E+08
 
   -0.50530E+08         0.35805E+07         0.00000E+00
    0.35805E+07        -0.63240E+08         0.00000E+00
    0.00000E+00         0.00000E+00        -0.50929E+08
 
   -0.50460E+08         0.51069E+07         0.00000E+00
    0.51069E+07        -0.63263E+08         0.00000E+00
    0.00000E+00         0.00000E+00        -0.50864E+08
 
   -0.50683E+08         0.67216E+07         0.00000E+00
    0.67216E+07        -0.63164E+08         0.00000E+00
    0.00000E+00         0.00000E+00        -0.50860E+08
 
   -0.58772E+08        -0.56875E+06         0.00000E+00
   -0.56875E+06        -0.60041E+08         0.00000E+00
    0.00000E+00         0.00000E+00        -0.52145E+08
 
   -0.58600E+08        -0.15575E+07         0.00000E+00
   -0.15575E+07        -0.60204E+08         0.00000E+00
    0.00000E+00         0.00000E+00        -0.52095E+08
 
   -0.58043E+08        -0.22994E+07         0.00000E+00
   -0.22994E+07        -0.60484E+08         0.00000E+00
    0.00000E+00         0.00000E+00        -0.51949E+08
 
   -0.57215E+08        -0.27644E+07         0.00000E+00
   -0.27644E+07        -0.60827E+08         0.00000E+00
    0.00000E+00         0.00000E+00        -0.51727E+08
 
   -0.56218E+08        -0.29501E+07         0.00000E+00
   -0.29501E+07        -0.61191E+08         0.00000E+00
    0.00000E+00         0.00000E+00        -0.51451E+08
 
   -0.55137E+08        -0.28730E+07         0.00000E+00
   -0.28730E+07        -0.61544E+08         0.00000E+00
    0.00000E+00         0.00000E+00        -0.51140E+08
 
   -0.54036E+08        -0.25571E+07         0.00000E+00
   -0.25571E+07        -0.61873E+08         0.00000E+00
    0.00000E+00         0.00000E+00        -0.50813E+08
 
   -0.52958E+08        -0.20259E+07         0.00000E+00
   -0.20259E+07        -0.62175E+08         0.00000E+00
    0.00000E+00         0.00000E+00        -0.50484E+08
 
   -0.51934E+08        -0.12964E+07         0.00000E+00
   -0.12964E+07        -0.62451E+08         0.00000E+00
    0.00000E+00         0.00000E+00        -0.50167E+08
 
   -0.50993E+08        -0.37792E+06         0.00000E+00
   -0.37792E+06        -0.62707E+08         0.00000E+00
    0.00000E+00         0.00000E+00        -0.49874E+08
 
   -0.50165E+08         0.72652E+06         0.00000E+00
    0.72652E+06        -0.62941E+08         0.00000E+00
    0.00000E+00         0.00000E+00        -0.49614E+08
 
   -0.49489E+08         0.20166E+07         0.00000E+00
    0.20166E+07        -0.63142E+08         0.00000E+00
    0.00000E+00         0.00000E+00        -0.49399E+08
 
   -0.49018E+08         0.34877E+07         0.00000E+00
    0.34877E+07        -0.63289E+08         0.00000E+00
    0.00000E+00         0.00000E+00        -0.49239E+08
 
   -0.48819E+08         0.51231E+07         0.00000E+00
    0.51231E+07        -0.63347E+08         0.00000E+00
    0.00000E+00         0.00000E+00        -0.49144E+08
 
   -0.48965E+08         0.68841E+07         0.00000E+00
    0.68841E+07        -0.63273E+08         0.00000E+00
    0.00000E+00         0.00000E+00        -0.49124E+08
 
   -0.59952E+08        -0.66459E+06         0.00000E+00
   -0.66459E+06        -0.60047E+08         0.00000E+00
    0.00000E+00         0.00000E+00        -0.51187E+08
 
   -0.59530E+08        -0.18031E+07         0.00000E+00
   -0.18031E+07        -0.60229E+08         0.00000E+00
    0.00000E+00         0.00000E+00        -0.51077E+08
 
   -0.58678E+08        -0.26322E+07         0.00000E+00
   -0.26322E+07        -0.60531E+08         0.00000E+00
    0.00000E+00         0.00000E+00        -0.50852E+08
 
   -0.57544E+08        -0.31277E+07         0.00000E+00
   -0.31277E+07        -0.60883E+08         0.00000E+00
    0.00000E+00         0.00000E+00        -0.50539E+08
 
   -0.56259E+08        -0.33039E+07         0.00000E+00
   -0.33039E+07        -0.61232E+08         0.00000E+00
    0.00000E+00         0.00000E+00        -0.50168E+08
 
   -0.54921E+08        -0.31972E+07         0.00000E+00
   -0.31972E+07        -0.61548E+08         0.00000E+00
    0.00000E+00         0.00000E+00        -0.49763E+08
 
   -0.53594E+08        -0.28482E+07         0.00000E+00
   -0.28482E+07        -0.61825E+08         0.00000E+00
    0.00000E+00         0.00000E+00        -0.49347E+08
 
   -0.52314E+08        -0.22900E+07         0.00000E+00
   -0.22900E+07        -0.62069E+08         0.00000E+00
    0.00000E+00         0.00000E+00        -0.48934E+08
 
   -0.51102E+08        -0.15430E+07         0.00000E+00
   -0.15430E+07        -0.62293E+08         0.00000E+00
    0.00000E+00         0.00000E+00        -0.48540E+08
 
   -0.49976E+08        -0.61331E+06         0.00000E+00
   -0.61331E+06        -0.62513E+08         0.00000E+00
    0.00000E+00         0.00000E+00        -0.48175E+08
 
   -0.48957E+08         0.50478E+06         0.00000E+00
    0.50478E+06        -0.62732E+08         0.00000E+00
    0.00000E+00         0.00000E+00        -0.47851E+08
 
   -0.48085E+08         0.18240E+07         0.00000E+00
    0.18240E+07        -0.62945E+08         0.00000E+00
    0.00000E+00         0.00000E+00        -0.47577E+08
 
   -0.47420E+08         0.33557E+07         0.00000E+00
    0.33557E+07        -0.63127E+08         0.00000E+00
    0.00000E+00         0.00000E+00        -0.47368E+08
 
   -0.47047E+08         0.50982E+07         0.00000E+00
    0.50982E+07        -0.63233E+08         0.00000E+00
    0.00000E+00         0.00000E+00        -0.47235E+08
 
   -0.47070E+08         0.70218E+07         0.00000E+00
    0.70218E+07        -0.63203E+08         0.00000E+00
    0.00000E+00         0.00000E+00        -0.47192E+08
 
   -0.61321E+08        -0.77410E+06         0.00000E+00
   -0.77410E+06        -0.60054E+08         0.00000E+00
    0.00000E+00         0.00000E+00        -0.50173E+08
 
   -0.60579E+08        -0.20739E+07         0.00000E+00
   -0.20739E+07        -0.60258E+08         0.00000E+00
    0.00000E+00         0.00000E+00        -0.49985E+08
 
   -0.59359E+08        -0.29783E+07         0.00000E+00
   -0.29783E+07        -0.60576E+08         0.00000E+00
    0.00000E+00         0.00000E+00        -0.49657E+08
 
   -0.57866E+08        -0.34764E+07         0.00000E+00
   -0.34764E+07        -0.60917E+08         0.00000E+00
    0.00000E+00         0.00000E+00        -0.49230E+08
 
   -0.56265E+08        -0.36123E+07         0.00000E+00
   -0.36123E+07        -0.61216E+08         0.00000E+00
    0.00000E+00         0.00000E+00        -0.48743E+08
 
   -0.54664E+08        -0.34527E+07         0.00000E+00
   -0.34527E+07        -0.61451E+08         0.00000E+00
    0.00000E+00         0.00000E+00        -0.48229E+08
 
   -0.53120E+08        -0.30598E+07         0.00000E+00
   -0.30598E+07        -0.61628E+08         0.00000E+00
    0.00000E+00         0.00000E+00        -0.47711E+08
 
   -0.51653E+08        -0.24773E+07         0.00000E+00
   -0.24773E+07        -0.61770E+08         0.00000E+00
    0.00000E+00         0.00000E+00        -0.47207E+08
 
   -0.50266E+08        -0.17269E+07         0.00000E+00
   -0.17269E+07        -0.61905E+08         0.00000E+00
    0.00000E+00         0.00000E+00        -0.46728E+08
 
   -0.48960E+08        -0.80972E+06         0.00000E+00
   -0.80972E+06        -0.62058E+08         0.00000E+00
    0.00000E+00         0.00000E+00        -0.46286E+08
 
   -0.47745E+08         0.29150E+06         0.00000E+00
    0.29150E+06        -0.62243E+08         0.00000E+00
    0.00000E+00         0.00000E+00        -0.45890E+08
 
   -0.46653E+08         0.16072E+07         0.00000E+00
    0.16072E+07        -0.62459E+08         0.00000E+00
    0.00000E+00         0.00000E+00        -0.45550E+08
 
   -0.45749E+08         0.31724E+07         0.00000E+00
    0.31724E+07        -0.62683E+08         0.00000E+00
    0.00000E+00         0.00000E+00        -0.45281E+08
 
   -0.45140E+08         0.50104E+07         0.00000E+00
    0.50104E+07        -0.62858E+08         0.00000E+00
    0.00000E+00         0.00000E+00        -0.45099E+08
 
   -0.44970E+08         0.71104E+07         0.00000E+00
    0.71104E+07        -0.62901E+08         0.00000E+00
    0.00000E+00         0.00000E+00        -0.45024E+08
 
   -0.62905E+08        -0.90121E+06         0.00000E+00
   -0.90121E+06        -0.60064E+08         0.00000E+00
    0.00000E+00         0.00000E+00        -0.49081E+08
 
   -0.61742E+08        -0.23706E+07         0.00000E+00
   -0.23706E+07        -0.60293E+08         0.00000E+00
    0.00000E+00         0.00000E+00        -0.48786E+08
 
   -0.60057E+08        -0.33211E+07         0.00000E+00
   -0.33211E+07        -0.60617E+08         0.00000E+00
    0.00000E+00         0.00000E+00        -0.48322E+08
 
   -0.58141E+08        -0.37733E+07         0.00000E+00
   -0.37733E+07        -0.60910E+08         0.00000E+00
    0.00000E+00         0.00000E+00        -0.47750E+08
 
   -0.56202E+08        -0.38244E+07         0.00000E+00
   -0.38244E+07        -0.61104E+08         0.00000E+00
    0.00000E+00         0.00000E+00        -0.47124E+08
 
   -0.54347E+08        -0.35850E+07         0.00000E+00
   -0.35850E+07        -0.61194E+08         0.00000E+00
    0.00000E+00         0.00000E+00        -0.46483E+08
 
   -0.52611E+08        -0.31410E+07         0.00000E+00
   -0.31410E+07        -0.61213E+08         0.00000E+00
    0.00000E+00         0.00000E+00        -0.45855E+08
 
   -0.50986E+08        -0.25433E+07         0.00000E+00
   -0.25433E+07        -0.61203E+08         0.00000E+00
    0.00000E+00         0.00000E+00        -0.45253E+08
 
   -0.49449E+08        -0.18117E+07         0.00000E+00
   -0.18117E+07        -0.61207E+08         0.00000E+00
    0.00000E+00         0.00000E+00        -0.44688E+08
 
   -0.47980E+08        -0.93963E+06         0.00000E+00
   -0.93963E+06        -0.61259E+08         0.00000E+00
    0.00000E+00         0.00000E+00        -0.44165E+08
 
   -0.46569E+08         0.10284E+06         0.00000E+00
    0.10284E+06        -0.61386E+08         0.00000E+00
    0.00000E+00         0.00000E+00        -0.43692E+08
 
   -0.45233E+08         0.13674E+07         0.00000E+00
    0.13674E+07        -0.61597E+08         0.00000E+00
    0.00000E+00         0.00000E+00        -0.43278E+08
 
   -0.44036E+08         0.29210E+07         0.00000E+00
    0.29210E+07        -0.61871E+08         0.00000E+00
    0.00000E+00         0.00000E+00        -0.42939E+08
 
   -0.43104E+08         0.48271E+07         0.00000E+00
    0.48271E+07        -0.62144E+08         0.00000E+00
    0.00000E+00         0.00000E+00        -0.42695E+08
 
   -0.42636E+08         0.71111E+07         0.00000E+00
    0.71111E+07        -0.62305E+08         0.00000E+00
    0.00000E+00         0.00000E+00        -0.42574E+08
 
   -0.64732E+08        -0.10535E+07         0.00000E+00
   -0.10535E+07        -0.60079E+08         0.00000E+00
    0.00000E+00         0.00000E+00        -0.47874E+08
 
   -0.62995E+08        -0.26924E+07         0.00000E+00
   -0.26924E+07        -0.60338E+08         0.00000E+00
    0.00000E+00         0.00000E+00        -0.47431E+08
 
   -0.60712E+08        -0.36268E+07         0.00000E+00
   -0.36268E+07        -0.60641E+08         0.00000E+00
    0.00000E+00         0.00000E+00        -0.46780E+08
 
   -0.58310E+08        -0.39539E+07         0.00000E+00
   -0.39539E+07        -0.60817E+08         0.00000E+00
    0.00000E+00         0.00000E+00        -0.46020E+08
 
   -0.56033E+08        -0.38645E+07         0.00000E+00
   -0.38645E+07        -0.60816E+08         0.00000E+00
    0.00000E+00         0.00000E+00        -0.45227E+08
 
   -0.53960E+08        -0.35243E+07         0.00000E+00
   -0.35243E+07        -0.60678E+08         0.00000E+00
    0.00000E+00         0.00000E+00        -0.44447E+08
 
   -0.52075E+08        -0.30344E+07         0.00000E+00
   -0.30344E+07        -0.60472E+08         0.00000E+00
    0.00000E+00         0.00000E+00        -0.43704E+08
 
   -0.50334E+08        -0.24427E+07         0.00000E+00
   -0.24427E+07        -0.60261E+08         0.00000E+00
    0.00000E+00         0.00000E+00        -0.43007E+08
 
   -0.48683E+08        -0.17610E+07         0.00000E+00
   -0.17610E+07        -0.60096E+08         0.00000E+00
    0.00000E+00         0.00000E+00        -0.42358E+08
 
   -0.47076E+08        -0.97434E+06         0.00000E+00
   -0.97434E+06        -0.60019E+08         0.00000E+00
    0.00000E+00         0.00000E+00        -0.41758E+08
 
   -0.45479E+08        -0.41837E+05         0.00000E+00
   -0.41837E+05        -0.60064E+08         0.00000E+00
    0.00000E+00         0.00000E+00        -0.41209E+08
 
   -0.43883E+08         0.11080E+07         0.00000E+00
    0.11080E+07        -0.60254E+08         0.00000E+00
    0.00000E+00         0.00000E+00        -0.40717E+08
 
   -0.42331E+08         0.25807E+07         0.00000E+00
    0.25807E+07        -0.60585E+08         0.00000E+00
    0.00000E+00         0.00000E+00        -0.40297E+08
 
   -0.40962E+08         0.45013E+07         0.00000E+00
    0.45013E+07        -0.60996E+08         0.00000E+00
    0.00000E+00         0.00000E+00        -0.39973E+08
 
   -0.40040E+08         0.69632E+07         0.00000E+00
    0.69632E+07        -0.61340E+08         0.00000E+00
    0.00000E+00         0.00000E+00        -0.39786E+08
 
   -0.66843E+08        -0.12463E+07         0.00000E+00
   -0.12463E+07        -0.60107E+08         0.00000E+00
    0.00000E+00         0.00000E+00        -0.46494E+08
 
   -0.64279E+08        -0.30275E+07         0.00000E+00
   -0.30275E+07        -0.60395E+08         0.00000E+00
    0.00000E+00         0.00000E+00        -0.45826E+08
 
   -0.61218E+08        -0.38164E+07         0.00000E+00
   -0.38164E+07        -0.60602E+08         0.00000E+00
    0.00000E+00         0.00000E+00        -0.44908E+08
 
   -0.58293E+08        -0.39020E+07         0.00000E+00
   -0.39020E+07        -0.60520E+08         0.00000E+00
    0.00000E+00         0.00000E+00        -0.43906E+08
 
   -0.55730E+08        -0.36265E+07         0.00000E+00
   -0.36265E+07        -0.60185E+08         0.00000E+00
    0.00000E+00         0.00000E+00        -0.42922E+08
 
   -0.53508E+08        -0.31934E+07         0.00000E+00
   -0.31934E+07        -0.59725E+08         0.00000E+00
    0.00000E+00         0.00000E+00        -0.42001E+08
 
   -0.51538E+08        -0.26886E+07         0.00000E+00
   -0.26886E+07        -0.59238E+08         0.00000E+00
    0.00000E+00         0.00000E+00        -0.41153E+08
 
   -0.49730E+08        -0.21409E+07         0.00000E+00
   -0.21409E+07        -0.58794E+08         0.00000E+00
    0.00000E+00         0.00000E+00        -0.40373E+08
 
   -0.48006E+08        -0.15489E+07         0.00000E+00
   -0.15489E+07        -0.58441E+08         0.00000E+00
    0.00000E+00         0.00000E+00        -0.39656E+08
 
   -0.46296E+08        -0.89058E+06         0.00000E+00
   -0.89058E+06        -0.58218E+08         0.00000E+00
    0.00000E+00         0.00000E+00        -0.38993E+08
 
   -0.44537E+08        -0.12104E+06         0.00000E+00
   -0.12104E+06        -0.58163E+08         0.00000E+00
    0.00000E+00         0.00000E+00        -0.38378E+08
 
   -0.42680E+08         0.83984E+06         0.00000E+00
    0.83984E+06        -0.58313E+08         0.00000E+00
    0.00000E+00         0.00000E+00        -0.37810E+08
 
   -0.40718E+08         0.21326E+07         0.00000E+00
    0.21326E+07        -0.58699E+08         0.00000E+00
    0.00000E+00         0.00000E+00        -0.37299E+08
 
   -0.38767E+08         0.39690E+07         0.00000E+00
    0.39690E+07        -0.59289E+08         0.00000E+00
    0.00000E+00         0.00000E+00        -0.36875E+08
 
   -0.37156E+08         0.65718E+07         0.00000E+00
    0.65718E+07        -0.59914E+08         0.00000E+00
    0.00000E+00         0.00000E+00        -0.36592E+08
 
   -0.69283E+08        -0.15120E+07         0.00000E+00
   -0.15120E+07        -0.60155E+08         0.00000E+00
    0.00000E+00         0.00000E+00        -0.44818E+08
 
   -0.65437E+08        -0.33134E+07         0.00000E+00
   -0.33134E+07        -0.60447E+08         0.00000E+00
    0.00000E+00         0.00000E+00        -0.43776E+08
 
   -0.61402E+08        -0.36892E+07         0.00000E+00
   -0.36892E+07        -0.60322E+08         0.00000E+00
    0.00000E+00         0.00000E+00        -0.42456E+08
 
   -0.58033E+08        -0.34235E+07         0.00000E+00
   -0.34235E+07        -0.59697E+08         0.00000E+00
    0.00000E+00         0.00000E+00        -0.41157E+08
 
   -0.55315E+08        -0.29935E+07         0.00000E+00
   -0.29935E+07        -0.58873E+08         0.00000E+00
    0.00000E+00         0.00000E+00        -0.39989E+08
 
   -0.53039E+08        -0.25351E+07         0.00000E+00
   -0.25351E+07        -0.58028E+08         0.00000E+00
    0.00000E+00         0.00000E+00        -0.38953E+08
 
   -0.51046E+08        -0.20815E+07         0.00000E+00
   -0.20815E+07        -0.57250E+08         0.00000E+00
    0.00000E+00         0.00000E+00        -0.38032E+08
 
   -0.49218E+08        -0.16325E+07         0.00000E+00
   -0.16325E+07        -0.56586E+08         0.00000E+00
    0.00000E+00         0.00000E+00        -0.37204E+08
 
   -0.47459E+08        -0.11744E+07         0.00000E+00
   -0.11744E+07        -0.56064E+08         0.00000E+00
    0.00000E+00         0.00000E+00        -0.36450E+08
 
   -0.45681E+08        -0.68304E+06         0.00000E+00
   -0.68304E+06        -0.55710E+08         0.00000E+00
    0.00000E+00         0.00000E+00        -0.35753E+08
 
   -0.43798E+08        -0.11909E+06         0.00000E+00
   -0.11909E+06        -0.55557E+08         0.00000E+00
    0.00000E+00         0.00000E+00        -0.35099E+08
 
   -0.41716E+08         0.58751E+06         0.00000E+00
    0.58751E+06        -0.55650E+08         0.00000E+00
    0.00000E+00         0.00000E+00        -0.34475E+08
 
   -0.39330E+08         0.15756E+07         0.00000E+00
    0.15756E+07        -0.56059E+08         0.00000E+00
    0.00000E+00         0.00000E+00        -0.33877E+08
 
   -0.36637E+08         0.31512E+07         0.00000E+00
    0.31512E+07        -0.56859E+08         0.00000E+00
    0.00000E+00         0.00000E+00        -0.33331E+08
 
   -0.33984E+08         0.57830E+07         0.00000E+00
    0.57830E+07        -0.57905E+08         0.00000E+00
    0.00000E+00         0.00000E+00        -0.32910E+08
 
   -0.72059E+08        -0.19487E+07         0.00000E+00
   -0.19487E+07        -0.60362E+08         0.00000E+00
    0.00000E+00         0.00000E+00        -0.42542E+08
 
   -0.66053E+08        -0.31616E+07         0.00000E+00
   -0.31616E+07        -0.60233E+08         0.00000E+00
    0.00000E+00         0.00000E+00        -0.40729E+08
 
   -0.61111E+08        -0.27974E+07         0.00000E+00
   -0.27974E+07        -0.59007E+08         0.00000E+00
    0.00000E+00         0.00000E+00        -0.38832E+08
 
   -0.57613E+08        -0.23270E+07         0.00000E+00
   -0.23270E+07        -0.57579E+08         0.00000E+00
    0.00000E+00         0.00000E+00        -0.37294E+08
 
   -0.54893E+08        -0.19187E+07         0.00000E+00
   -0.19187E+07        -0.56246E+08         0.00000E+00
    0.00000E+00         0.00000E+00        -0.36027E+08
 
   -0.52642E+08        -0.15675E+07         0.00000E+00
   -0.15675E+07        -0.55081E+08         0.00000E+00
    0.00000E+00         0.00000E+00        -0.34961E+08
 
   -0.50670E+08        -0.12557E+07         0.00000E+00
   -0.12557E+07        -0.54099E+08         0.00000E+00
    0.00000E+00         0.00000E+00        -0.34044E+08
 
   -0.48849E+08        -0.96590E+06         0.00000E+00
   -0.96590E+06        -0.53302E+08         0.00000E+00
    0.00000E+00         0.00000E+00        -0.33236E+08
 
   -0.47078E+08        -0.68145E+06         0.00000E+00
   -0.68145E+06        -0.52691E+08         0.00000E+00
    0.00000E+00         0.00000E+00        -0.32509E+08
 
   -0.45264E+08        -0.38393E+06         0.00000E+00
   -0.38393E+06        -0.52274E+08         0.00000E+00
    0.00000E+00         0.00000E+00        -0.31837E+08
 
   -0.43302E+08        -0.47591E+05         0.00000E+00
   -0.47591E+05        -0.52072E+08         0.00000E+00
    0.00000E+00         0.00000E+00        -0.31198E+08
 
   -0.41059E+08         0.37206E+06         0.00000E+00
    0.37206E+06        -0.52129E+08         0.00000E+00
    0.00000E+00         0.00000E+00        -0.30571E+08
 
   -0.38344E+08         0.96764E+06         0.00000E+00
    0.96764E+06        -0.52530E+08         0.00000E+00
    0.00000E+00         0.00000E+00        -0.29931E+08
 
   -0.34828E+08         0.19900E+07         0.00000E+00
    0.19900E+07        -0.53449E+08         0.00000E+00
    0.00000E+00         0.00000E+00        -0.29251E+08
 
   -0.30593E+08         0.43204E+07         0.00000E+00
    0.43204E+07        -0.55134E+08         0.00000E+00
    0.00000E+00         0.00000E+00        -0.28634E+08
 
   -0.74601E+08        -0.18831E+07         0.00000E+00
   -0.18831E+07        -0.58844E+08         0.00000E+00
    0.00000E+00         0.00000E+00        -0.36881E+08
 
   -0.65596E+08        -0.13649E+07         0.00000E+00
   -0.13649E+07        -0.56366E+08         0.00000E+00
    0.00000E+00         0.00000E+00        -0.34203E+08
 
   -0.60727E+08        -0.95171E+06         0.00000E+00
   -0.95171E+06        -0.54180E+08         0.00000E+00
    0.00000E+00         0.00000E+00        -0.32416E+08
 
   -0.57298E+08        -0.74132E+06         0.00000E+00
   -0.74132E+06        -0.52442E+08         0.00000E+00
    0.00000E+00         0.00000E+00        -0.31106E+08
 
   -0.54636E+08        -0.59084E+06         0.00000E+00
   -0.59084E+06        -0.51045E+08         0.00000E+00
    0.00000E+00         0.00000E+00        -0.30078E+08
 
   -0.52422E+08        -0.47230E+06         0.00000E+00
   -0.47230E+06        -0.49916E+08         0.00000E+00
    0.00000E+00         0.00000E+00        -0.29236E+08
 
   -0.50472E+08        -0.37072E+06         0.00000E+00
   -0.37072E+06        -0.49013E+08         0.00000E+00
    0.00000E+00         0.00000E+00        -0.28521E+08
 
   -0.48661E+08        -0.27760E+06         0.00000E+00
   -0.27760E+06        -0.48310E+08         0.00000E+00
    0.00000E+00         0.00000E+00        -0.27895E+08
 
   -0.46888E+08        -0.18648E+06         0.00000E+00
   -0.18648E+06        -0.47796E+08         0.00000E+00
    0.00000E+00         0.00000E+00        -0.27331E+08
 
   -0.45057E+08        -0.90965E+05         0.00000E+00
   -0.90965E+05        -0.47474E+08         0.00000E+00
    0.00000E+00         0.00000E+00        -0.26805E+08
 
   -0.43057E+08         0.17444E+05         0.00000E+00
    0.17444E+05        -0.47359E+08         0.00000E+00
    0.00000E+00         0.00000E+00        -0.26295E+08
 
   -0.40736E+08         0.15300E+06         0.00000E+00
    0.15300E+06        -0.47492E+08         0.00000E+00
    0.00000E+00         0.00000E+00        -0.25777E+08
 
   -0.37843E+08         0.34767E+06         0.00000E+00
    0.34767E+06        -0.47956E+08         0.00000E+00
    0.00000E+00         0.00000E+00        -0.25215E+08
 
   -0.33886E+08         0.67501E+06         0.00000E+00
    0.67501E+06        -0.48948E+08         0.00000E+00
    0.00000E+00         0.00000E+00        -0.24549E+08
 
   -0.27299E+08         0.16946E+07         0.00000E+00
    0.16946E+07        -0.51108E+08         0.00000E+00
    0.00000E+00         0.00000E+00        -0.23609E+08
 
SCALARS stresss double 
LOOKUP_TABLE default
  -58781620.0296234     
  -60079420.1712147     
  -61123795.7337952     
  -62024022.5684941     
  -62822228.0767431     
  -63542630.1333998     
  -64200970.1715914     
  -64808714.3335090     
  -65375112.0736104     
  -65908512.4775324     
  -66417506.8901258     
  -66912373.4366311     
  -67407907.5958139     
  -67929367.3239179     
  -68554705.8027897     
  -58654674.5583541     
  -59726180.8552980     
  -60687274.0406393     
  -61537003.2036469     
  -62300197.0183754     
  -62993549.3432911     
  -63629445.9533929     
  -64217449.5709793     
  -64765512.0200035     
  -65280830.2155278     
  -65770588.5956269     
  -66242815.0996122     
  -66707071.4300655     
  -67177625.7391899     
  -67633564.1227465     
  -58618509.8181843     
  -59511743.3019633     
  -60355552.7417406     
  -61133153.9310744     
  -61845352.5260018     
  -62499745.1978080     
  -63103739.4538059     
  -63663990.2138195     
  -64186408.4674991     
  -64676390.8166006     
  -65139029.8583093     
  -65579076.1355859     
  -66000591.7113565     
  -66400336.5574543     
  -66766992.3255660     
  -58592753.4249459     
  -59354823.2092620     
  -60093230.9916348     
  -60792191.7758332     
  -61445590.4408400     
  -62053555.8676134     
  -62618991.5611283     
  -63145513.2279568     
  -63636786.3236478     
  -64096226.8465696     
  -64526749.7716432     
  -64930328.7897499     
  -65306455.6298002     
  -65650814.1887914     
  -65953376.4850601     
  -58559059.6557071     
  -59219764.9069057     
  -59869330.7514874     
  -60494612.7907444     
  -61088018.6069591     
  -61646441.7453320     
  -62169601.1478758     
  -62658647.4828062     
  -63115255.3013854     
  -63541074.6570350     
  -63937265.6057161     
  -64303862.9383896     
  -64639046.2877087     
  -64938284.9968924     
  -65194152.3918290     
  -58510309.9937893     
  -59090387.5349907     
  -59665524.2818306     
  -60224937.7751337     
  -60761260.8678161     
  -61270224.7792346     
  -61749875.1382486     
  -62199703.2835805     
  -62619912.1816723     
  -63010836.2841140     
  -63372435.5659568     
  -63703805.4137817     
  -64002685.7717257     
  -64265135.3551588     
  -64485490.9575447     
  -58443753.0454217     
  -58958580.2372310     
  -59471190.1539431     
  -59972655.7870176     
  -60456350.7282639     
  -60917840.9448955     
  -61354479.2343791     
  -61764866.7814254     
  -62148310.6017624     
  -62504332.9128424     
  -62832236.9602737     
  -63130722.0097316     
  -63397577.9352572     
  -63629512.6639979     
  -63822195.7940842     
  -58358769.6620147     
  -58820359.8364432     
  -59280217.7213045     
  -59730918.8106679     
  -60166731.5249349     
  -60583550.9465949     
  -60978651.5865744     
  -61350330.6012622     
  -61697512.7556413     
  -62019365.8039267     
  -62314952.1053843     
  -62582935.4971750     
  -62821366.8586782     
  -63027583.1017633     
  -63198247.7720801     
  -58256138.1380409     
  -58674151.7795247     
  -59089282.3728681     
  -59495407.1420123     
  -59887754.7232225     
  -60262828.1283847     
  -60618220.2228775     
  -60952352.9977106     
  -61264179.9057842     
  -61552885.9456881     
  -61817612.1929227     
  -62057226.2051373     
  -62270159.1203660     
  -62454329.0342359     
  -62607165.4698150     
  -58137694.1719907     
  -58519966.7092218     
  -58896881.7028821     
  -59263534.5867429     
  -59616174.3400310     
  -59952102.0949528     
  -60269507.0538901     
  -60567253.9624099     
  -60844644.1259846     
  -61101173.1711718     
  -61336306.4942775     
  -61549290.6614778     
  -61739016.7204750     
  -61903948.8351593     
  -62042127.0603743     
  -58006144.9154839     
  -58358947.5193321     
  -58702764.9525339     
  -59033910.4291090     
  -59349732.7392515     
  -59648488.6488836     
  -59929179.8902441     
  -60191361.7564756     
  -60434936.0709802     
  -60659943.5341072     
  -60866370.2683098     
  -61053982.0566341     
  -61222198.0594845     
  -61370013.6573920     
  -61495979.3210310     
  -57864940.5321029     
  -58193087.9301288     
  -58507565.9204969     
  -58805964.2974707     
  -59086835.8613024     
  -59349543.3857410     
  -59594087.8973501     
  -59820922.5038978     
  -60030759.5943053     
  -60224380.8545002     
  -60402459.6840890     
  -60565404.9575499     
  -60713234.1612452     
  -60845482.9773934     
  -60961157.3848006     
  -57718166.2666915     
  -58025032.4223402     
  -58312543.0355579     
  -58579667.4253907     
  -58826291.8217571     
  -59053040.9239901     
  -59261091.3740559     
  -59451980.8848494     
  -59627418.2597131     
  -59789099.8460689     
  -59938537.5766921     
  -60076903.2405570     
  -60204893.4255883     
  -60322619.8728010     
  -60429530.7403441     
  -57570438.0160864     
  -57857913.8381362     
  -58119374.1197627     
  -58355306.7209432     
  -58567086.5361719     
  -58756769.3474965     
  -58926885.1268877     
  -59080235.6177127     
  -59219700.2260648     
  -59348052.6581577     
  -59467789.1732798     
  -59580968.5029372     
  -59689063.8530937     
  -59792829.0453269     
  -59892183.5298649     
  -57426792.8528395     
  -57695205.1379450     
  -57929975.1034347     
  -58133282.1734954     
  -58308173.9263279     
  -58458326.1516118     
  -58587809.4092567     
  -58700869.6451818     
  -58801726.5511516     
  -58894388.9552442     
  -58982483.0311844     
  -59069087.5635470     
  -59156571.3923208     
  -59246431.4089942     
  -59339134.5408747     
  -57292569.5444556     
  -57540571.1312849     
  -57746322.3014720     
  -57913905.4215466     
  -58048260.7440711     
  -58154900.5065116     
  -58239639.0961450     
  -58308351.7179257     
  -58366765.3814113     
  -58420277.2740378     
  -58473789.0953337     
  -58531543.1996105     
  -58596947.9475735     
  -58672385.1353056     
  -58759000.7240561     
  -57173276.1124152     
  -57397710.1116992     
  -57570261.7488055     
  -57697179.1324976     
  -57785565.1844925     
  -57843023.6703125     
  -57877337.9041782     
  -57896202.4582686     
  -57907011.6925090     
  -57916693.2862049     
  -57931563.9808447     
  -57957180.4419602     
  -57998160.8621824     
  -58057961.7473070     
  -58138607.4975873     
  -57074443.3385621     
  -57270176.4569858     
  -57403288.1204809     
  -57482533.3019311     
  -57517522.8202798     
  -57518262.7756124     
  -57494758.1762629     
  -57456713.0120617     
  -57413329.0400996     
  -57373179.0818683     
  -57344113.3313005     
  -57333151.2277432     
  -57346316.4406264     
  -57388386.5698133     
  -57462549.5391852     
  -57001465.5541055     
  -57161173.7219235     
  -57246269.3493770     
  -57268484.0579897     
  -57240400.6860992     
  -57174820.5915257     
  -57084256.0943159     
  -56980596.8301598     
  -56874945.6300874     
  -56777576.5435766     
  -56697942.4237603     
  -56644652.9166476     
  -56625353.1454218     
  -56646455.4124251     
  -56712707.3010650     
  -56959433.1576203     
  -57073302.1668690     
  -57099078.1287604     
  -57052158.9085166     
  -56948756.2849883     
  -56804981.5918374     
  -56636174.5289534     
  -56456543.2949434     
  -56279090.9904680     
  -56115736.8914032     
  -55977509.0201937     
  -55874681.2537436     
  -55816745.6431689     
  -55812143.7695519     
  -55867726.8695303     
  -56952964.5118232     
  -57008230.9660939     
  -56960060.7662777     
  -56828590.8513704     
  -56634634.9017810     
  -56398306.7825583     
  -56138117.2203126     
  -55870623.3805788     
  -55610549.9613945     
  -55371206.4134737     
  -55164996.2983953     
  -55003825.8802639     
  -54899249.2099230     
  -54862230.9896570     
  -54902473.1328872     
  -56986046.0187861     
  -56966234.1323140     
  -56825211.0568017     
  -56589604.4965658     
  -56286321.0456512     
  -55940416.6267541     
  -55573893.0712713     
  -55205468.5514206     
  -54851094.0851380     
  -54524882.0260444     
  -54240126.3200916     
  -54010146.0305146     
  -53848725.6080731     
  -53769969.8460958     
  -53787466.4732532     
  -57061884.2472731     
  -56945456.9108378     
  -56686785.6182503     
  -56321961.9512454     
  -55886320.5229318     
  -55411098.1690664     
  -54921940.5937490     
  -54439098.3178000     
  -53978718.3562394     
  -53554609.9544899     
  -53180029.1958698     
  -52869172.7233574     
  -52638108.0048960     
  -52504842.2757400     
  -52488308.0942439     
  -57182745.0588098     
  -56940612.9249450     
  -56530803.8614893     
  -56004121.8433130     
  -55407996.5321256     
  -54781307.4262229     
  -54152942.0226532     
  -53543195.7783960     
  -52966540.7844855     
  -52434641.4988120     
  -51959147.1506264     
  -51554085.6580390     
  -51237584.2069025     
  -51032461.5651547     
  -50965082.6924560     
  -57349702.3535884     
  -56940358.9256536     
  -56332198.4012599     
  -55600288.4418722     
  -54809818.7624483     
  -54008394.6549959     
  -53226185.5152024     
  -52480490.2059091     
  -51781054.8149889     
  -51134684.3752140     
  -50549039.8871283     
  -50036067.3812632     
  -49615125.5490818     
  -49314714.8207846     
  -49171704.3129114     
  -57561820.3207694     
  -56921496.0157497     
  -56044522.3894391     
  -55048925.2617140     
  -54025396.4985116     
  -53028491.1717157     
  -52084016.8193743     
  -51200562.5381111     
  -50378984.9886084     
  -49617859.6402431     
  -48917545.5307859     
  -48284735.4776598     
  -47737484.0433376     
  -47310420.9860665     
  -47055104.9153626     
  -57814525.1393348     
  -56833322.1173742     
  -55576166.3742612     
  -54239558.6888253     
  -52945867.8048389     
  -51744756.0276489     
  -50642852.9505909     
  -49632433.9474175     
  -48700962.3640413     
  -47835578.0923694     
  -47025897.1600629     
  -46267605.9086313     
  -45572233.9102419     
  -44976805.2957325     
  -44554432.0664862     
  -58085148.7309602     
  -56553357.7246452     
  -54726964.1792930     
  -52962088.5245379     
  -51392376.2242246     
  -50006723.0443790     
  -48776126.7935870     
  -47669239.1699097     
  -46657397.7883599     
  -45714801.5787301     
  -44818056.6708130     
  -43947066.9269281     
  -43088713.7079493     
  -42275706.8648645     
  -41599392.9006322     
  -58320878.0891946     
  -55671732.0445346     
  -52983336.2756528     
  -50828884.8140814     
  -49055345.9116664     
  -47561281.7122262     
  -46270980.3816415     
  -45129224.7164962     
  -44092822.2294821     
  -43124986.4065451     
  -42190842.4108660     
  -41252935.5233843     
  -40268259.1158969     
  -39176278.4655060     
  -38120210.9922383     
  -56775434.5123970     
  -52054946.4891376     
  -49107832.6736341     
  -46948499.0051918     
  -45252972.5036786     
  -43857872.2610028     
  -42668400.5300557     
  -41621862.6687241     
  -40671743.9605744     
  -39778740.1499891     
  -38904030.1354421     
  -38001664.5377766     
  -37004634.9213263     
  -35794221.8447387     
  -34004996.6999489     
SCALARS 2waySource double 
LOOKUP_TABLE default
  2.764864718357601E-002
  2.788359383316352E-002
  2.843270687957054E-002
  2.906974506707127E-002
  2.972442483671858E-002
  3.036166557898639E-002
  3.096457144054495E-002
  3.152561015192200E-002
  3.204228312152033E-002
  3.251438620073908E-002
  3.294189828272227E-002
  3.332285517400425E-002
  3.365005266979432E-002
  3.390630163613317E-002
  3.401696748374089E-002
  2.764826772187176E-002
  2.829779703448188E-002
  2.899094503329099E-002
  2.971436856428676E-002
  3.042298958629658E-002
  3.109614325478219E-002
  3.172388277330794E-002
  3.230300841425918E-002
  3.283409450712421E-002
  3.331952854727032E-002
  3.376196601079737E-002
  3.416282128484713E-002
  3.452073723794452E-002
  3.482625434441693E-002
  3.506932041353145E-002
  2.745127272575418E-002
  2.843695298416550E-002
  2.932942188163420E-002
  3.016557204108741E-002
  3.094674528251790E-002
  3.166816399026391E-002
  3.232929307554688E-002
  3.293274902615202E-002
  3.348330261581232E-002
  3.398683999928959E-002
  3.444949581005215E-002
  3.487695979914608E-002
  3.527362263729272E-002
  3.564376817457826E-002
  3.599537661439337E-002
  2.717624925857719E-002
  2.841160871011013E-002
  2.948676741993236E-002
  3.044337158621437E-002
  3.130313552196290E-002
  3.207748653297646E-002
  3.277515071944404E-002
  3.340502037750157E-002
  3.397645307746650E-002
  3.449912250612477E-002
  3.498277055911057E-002
  3.543702760406480E-002
  3.587173352112100E-002
  3.629813565010803E-002
  3.673325417768206E-002
  2.684873783971988E-002
  2.827633218571948E-002
  2.950172035342773E-002
  3.056641993751472E-002
  3.150041881725826E-002
  3.232513422891591E-002
  3.305731707153414E-002
  3.371163714707955E-002
  3.430186855782830E-002
  3.484131759706830E-002
  3.534302948010005E-002
  3.582005086826404E-002
  3.628598329500402E-002
  3.675632975502651E-002
  3.725051593087878E-002
  2.648069765155306E-002
  2.805601118924267E-002
  2.939856597164968E-002
  3.055047186929219E-002
  3.154599815144224E-002
  3.241257133488991E-002
  3.317274068342419E-002
  3.384598241993900E-002
  3.444991804790366E-002
  3.500104716648351E-002
  3.551523988378208E-002
  3.600821074952205E-002
  3.649617742560909E-002
  3.699679673218297E-002
  3.753027294149014E-002
  2.608039351092913E-002
  2.776402575126592E-002
  2.919140832240245E-002
  3.040624385297242E-002
  3.144574026732325E-002
  3.234121377361908E-002
  3.311925423707675E-002
  3.380298393682125E-002
  3.441311419635378E-002
  3.496874379977299E-002
  3.548798300359996E-002
  3.598852631155008E-002
  3.648827122557131E-002
  3.700601041252977E-002
  3.756207206803767E-002
  2.565486040209798E-002
  2.740879805628725E-002
  2.888884047327002E-002
  3.014068888791686E-002
  3.120386354914269E-002
  3.211235739524643E-002
  3.289553928390997E-002
  3.357913637350619E-002
  3.418614416735614E-002
  3.473760241691871E-002
  3.525325390334486E-002
  3.575213756109791E-002
  3.625315917008055E-002
  3.677563536742562E-002
  3.733974221753109E-002
  2.521060689752048E-002
  2.699656458665064E-002
  2.849672131478549E-002
  2.975863955851560E-002
  3.082360119819348E-002
  3.172741286899526E-002
  3.250126330817096E-002
  3.317259244325516E-002
  3.376591170088894E-002
  3.430353984623145E-002
  3.480625276776751E-002
  3.529386527035409E-002
  3.578575962615872E-002
  3.630135343259744E-002
  3.686046986808537E-002
  2.475387828024936E-002
  2.653266955664842E-002
  2.801978254209292E-002
  2.926409613644056E-002
  3.030800276699223E-002
  3.118835370753211E-002
  3.193734069954828E-002
  3.258332880955290E-002
  3.315162936832930E-002
  3.366520112213518E-002
  3.414527793698520E-002
  3.461192906592499E-002
  3.508455654156294E-002
  3.558232419881169E-002
  3.612450109615242E-002
  2.429075629183209E-002
  2.602224149219249E-002
  2.746257931647866E-002
  2.866113592474312E-002
  2.966063593679708E-002
  3.049820008393583E-002
  3.120625678438129E-002
  3.181336471169399E-002
  3.234495930844060E-002
  3.282402669357319E-002
  3.327170762457780E-002
  3.370783529015424E-002
  3.415140941217736E-002
  3.462100498646295E-002
  3.513510971427151E-002
  2.382718848506660E-002
  2.547056733687770E-002
  2.683006761723136E-002
  2.795453060080344E-002
  2.888613087454473E-002
  2.966144873152367E-002
  3.031239056179932E-002
  3.086700051160270E-002
  3.135018587071031E-002
  3.178436711402600E-002
  3.219005871353414E-002
  3.258638523011102E-002
  3.299153614381104E-002
  3.342316152788943E-002
  3.389870981332431E-002
  2.336897749643887E-002
  2.488329368586980E-002
  2.612794785037361E-002
  2.715014746408011E-002
  2.799057003913137E-002
  2.868441371505169E-002
  2.926229669614283E-002
  2.975104605168440E-002
  3.017439883916471E-002
  3.055362780050976E-002
  3.090809864226408E-002
  3.125576407979920E-002
  3.161359959143284E-002
  3.199798624022070E-002
  3.242504690032090E-002
  2.292174134661470E-002
  2.426651184270165E-002
  2.536284552183486E-002
  2.625518516763947E-002
  2.698174095995179E-002
  2.757547030935076E-002
  2.806492816586020E-002
  2.847501933211110E-002
  2.882766991663963E-002
  2.914242661420341E-002
  2.943698890535099E-002
  2.972767889446858E-002
  3.002985482011454E-002
  3.035827628126436E-002
  3.072743154895559E-002
  2.249085037183480E-002
  2.362675527534194E-002
  2.454236825131712E-002
  2.527827828366941E-002
  2.586927220943638E-002
  2.634520793174436E-002
  2.673179613678751E-002
  2.705130768330679E-002
  2.732321270275280E-002
  2.756475241757675E-002
  2.779144435836261E-002
  2.801752413624134E-002
  2.825633052865672E-002
  2.852064434740582E-002
  2.882299503496023E-002
  2.208134639471792E-002
  2.297092829815521E-002
  2.367506614055117E-002
  2.422949844836130E-002
  2.466467526615602E-002
  2.500650752828670E-002
  2.527707572930207E-002
  2.549529490554141E-002
  2.567752555859671E-002
  2.583812016940910E-002
  2.598989983565336E-002
  2.614456236194126E-002
  2.631302967802693E-002
  2.650574783085748E-002
  2.673295706469227E-002
  2.169785141059900E-002
  2.230618305124581E-002
  2.277032012177918E-002
  2.312028054847591E-002
  2.338132068012965E-002
  2.357456878791775E-002
  2.371767824797709E-002
  2.382546935127617E-002
  2.391052654625336E-002
  2.398372613664020E-002
  2.405468261252423E-002
  2.413211470709112E-002
  2.422414208531211E-002
  2.433852995004748E-002
  2.448290297241801E-002
  2.134447454786888E-002
  2.163976332557833E-002
  2.183818595999368E-002
  2.196330888678609E-002
  2.203438741797747E-002
  2.206692588292170E-002
  2.207332450485345E-002
  2.206354069638519E-002
  2.204569993613548E-002
  2.202661449411400E-002
  2.201219493280351E-002
  2.200776037168700E-002
  2.201826584117806E-002
  2.204847039078439E-002
  2.210307159414127E-002
  2.102472639815784E-002
  2.097883644725163E-002
  2.088922869084847E-002
  2.077241102426738E-002
  2.064084180569161E-002
  2.050351011051280E-002
  2.036667254417247E-002
  2.023460845699560E-002
  2.011028470593201E-002
  1.999587334215869E-002
  1.989311431865863E-002
  1.980354562832815E-002
  1.972863446148303E-002
  1.966984247289287E-002
  1.962865451383040E-002
  2.074144862009819E-002
  2.033033816396693E-002
  1.993439518180116E-002
  1.956253007476131E-002
  1.921953238058515E-002
  1.890684869537549E-002
  1.862357960096370E-002
  1.836744452751714E-002
  1.813554700971873E-002
  1.792488331872447E-002
  1.773261987234842E-002
  1.755620025246191E-002
  1.739334208219245E-002
  1.724196812768622E-002
  1.710010133504444E-002
  2.049676415703903E-002
  1.970086258902395E-002
  1.898499808142324E-002
  1.834989033708596E-002
  1.779154046443703E-002
  1.730253951651597E-002
  1.687361676111773E-002
  1.649497609651483E-002
  1.615719007490498E-002
  1.585164450691734E-002
  1.557064951922368E-002
  1.530735226008995E-002
  1.505554931548011E-002
  1.480945032240849E-002
  1.456341285275149E-002
  2.029205034566051E-002
  1.909664710401195E-002
  1.805294073328379E-002
  1.715256136498109E-002
  1.638102603631252E-002
  1.572022518153673E-002
  1.515100975101310E-002
  1.465508315147084E-002
  1.421596422156765E-002
  1.381920593367824E-002
  1.345218592821808E-002
  1.310372069673592E-002
  1.276363778990235E-002
  1.242234459814289E-002
  1.207038343137748E-002
  2.012793642363185E-002
  1.852375048112046E-002
  1.715144700702598E-002
  1.599181980446064E-002
  1.501699826047417E-002
  1.419542468724630E-002
  1.349624965561434E-002
  1.289185020778640E-002
  1.235854277345925E-002
  1.187621657916460E-002
  1.142755934441900E-002
  1.099725295046907E-002
  1.057126292580760E-002
  1.013620717320753E-002
  9.678724387828505E-003
  2.000433281771784E-002
  1.798866372147727E-002
  1.629690024009768E-002
  1.489514458615990E-002
  1.373679687449923E-002
  1.277277582139455E-002
  1.195868460281448E-002
  1.125741990349425E-002
  1.063872594531682E-002
  1.007761331168914E-002
  9.552750989733613E-003
  9.045161672698036E-003
  8.537234780054210E-003
  8.011925643321066E-003
  7.451959924393309E-003
  1.992054240499187E-002
  1.750001630694373E-002
  1.551334039716244E-002
  1.390267887633267E-002
  1.259268739755373E-002
  1.151144795786948E-002
  1.060040330879762E-002
  9.814579573511423E-003
  9.119043906605602E-003
  8.485485033433455E-003
  7.889695260575697E-003
  7.309817961639303E-003
  6.725133294100002E-003
  6.115199913268136E-003
  5.458927606585017E-003
  1.987556682264246E-002
  1.707367980590938E-002
  1.484391921562013E-002
  1.308121555546795E-002
  1.166379208370194E-002
  1.049339558033868E-002
  9.501610500723505E-003
  8.640240612356829E-003
  7.872935266168904E-003
  7.170256749745547E-003
  6.506659797530803E-003
  5.858461939837309E-003
  5.202552840213161E-003
  4.515460946028045E-003
  3.772631073797245E-003
  1.987018231161143E-002
  1.674984405194507E-002
  1.438252468605498E-002
  1.255388935369454E-002
  1.107489289040401E-002
  9.834502879364762E-003
  8.767800611737762E-003
  7.830323388123936E-003
  6.988061075027610E-003
  6.212678721293002E-003
  5.478923467623798E-003
  4.762801501978079E-003
  4.039701604853948E-003
  3.283984148592280E-003
  2.467949943461441E-003
  1.991712198364674E-002
  1.667036966932851E-002
  1.436338997256223E-002
  1.254904312797430E-002
  1.101985355123345E-002
  9.699408648709443E-003
  8.540524199825778E-003
  7.507960870502771E-003
  6.572317543790489E-003
  5.707742607484877E-003
  4.890574337057513E-003
  4.098159209937601E-003
  3.307363556751709E-003
  2.489954425546410E-003
  1.617725616995215E-003
  2.030734576577404E-002
  1.742365210192380E-002
  1.531012599711318E-002
  1.344334604348368E-002
  1.179271720397661E-002
  1.032760637691457E-002
  9.019374166683313E-003
  7.840615013757426E-003
  6.766006122124111E-003
  5.772292272145491E-003
  4.838034816051910E-003
  3.943295258093820E-003
  3.069128453106483E-003
  2.196306040678331E-003
  1.282890127838329E-003
  2.125652745279414E-002
  1.982075202233359E-002
  1.776461812786375E-002
  1.572324409675437E-002
  1.382223966127408E-002
  1.208613867620807E-002
  1.050840361774712E-002
  9.072662061289748E-003
  7.759751606639407E-003
  6.550428646765606E-003
  5.426496413482100E-003
  4.371487512532253E-003
  3.371589861256864E-003
  2.418297350745418E-003
  1.509106803071565E-003
SCALARS elementIsPlast double 
LOOKUP_TABLE default
  0.000000000000000E+000
  0.000000000000000E+000
  0.000000000000000E+000
  0.000000000000000E+000
  0.000000000000000E+000
  0.000000000000000E+000
  0.000000000000000E+000
  0.000000000000000E+000
  0.000000000000000E+000
  0.000000000000000E+000
  0.000000000000000E+000
  0.000000000000000E+000
  0.000000000000000E+000
  0.000000000000000E+000
  0.000000000000000E+000
  0.000000000000000E+000
  0.000000000000000E+000
  0.000000000000000E+000
  0.000000000000000E+000
  0.000000000000000E+000
  0.000000000000000E+000
  0.000000000000000E+000
  0.000000000000000E+000
  0.000000000000000E+000
  0.000000000000000E+000
  0.000000000000000E+000
  0.000000000000000E+000
  0.000000000000000E+000
  0.000000000000000E+000
  0.000000000000000E+000
  0.000000000000000E+000
  0.000000000000000E+000
  0.000000000000000E+000
  0.000000000000000E+000
  0.000000000000000E+000
  0.000000000000000E+000
  0.000000000000000E+000
  0.000000000000000E+000
  0.000000000000000E+000
  0.000000000000000E+000
  0.000000000000000E+000
  0.000000000000000E+000
  0.000000000000000E+000
  0.000000000000000E+000
  0.000000000000000E+000
  0.000000000000000E+000
  0.000000000000000E+000
  0.000000000000000E+000
  0.000000000000000E+000
  0.000000000000000E+000
  0.000000000000000E+000
  0.000000000000000E+000
  0.000000000000000E+000
  0.000000000000000E+000
  0.000000000000000E+000
  0.000000000000000E+000
  0.000000000000000E+000
  0.000000000000000E+000
  0.000000000000000E+000
  0.000000000000000E+000
  0.000000000000000E+000
  0.000000000000000E+000
  0.000000000000000E+000
  0.000000000000000E+000
  0.000000000000000E+000
  0.000000000000000E+000
  0.000000000000000E+000
  0.000000000000000E+000
  0.000000000000000E+000
  0.000000000000000E+000
  0.000000000000000E+000
  0.000000000000000E+000
  0.000000000000000E+000
  0.000000000000000E+000
  0.000000000000000E+000
  0.000000000000000E+000
  0.000000000000000E+000
  0.000000000000000E+000
  0.000000000000000E+000
  0.000000000000000E+000
  0.000000000000000E+000
  0.000000000000000E+000
  0.000000000000000E+000
  0.000000000000000E+000
  0.000000000000000E+000
  0.000000000000000E+000
  0.000000000000000E+000
  0.000000000000000E+000
  0.000000000000000E+000
  0.000000000000000E+000
  0.000000000000000E+000
  0.000000000000000E+000
  0.000000000000000E+000
  0.000000000000000E+000
  0.000000000000000E+000
  0.000000000000000E+000
  0.000000000000000E+000
  0.000000000000000E+000
  0.000000000000000E+000
  0.000000000000000E+000
  0.000000000000000E+000
  0.000000000000000E+000
  0.000000000000000E+000
  0.000000000000000E+000
  0.000000000000000E+000
  0.000000000000000E+000
  0.000000000000000E+000
  0.000000000000000E+000
  0.000000000000000E+000
  0.000000000000000E+000
  0.000000000000000E+000
  0.000000000000000E+000
  0.000000000000000E+000
  0.000000000000000E+000
  0.000000000000000E+000
  0.000000000000000E+000
  0.000000000000000E+000
  0.000000000000000E+000
  0.000000000000000E+000
  0.000000000000000E+000
  0.000000000000000E+000
  0.000000000000000E+000
  0.000000000000000E+000
  0.000000000000000E+000
  0.000000000000000E+000
  0.000000000000000E+000
  0.000000000000000E+000
  0.000000000000000E+000
  0.000000000000000E+000
  0.000000000000000E+000
  0.000000000000000E+000
  0.000000000000000E+000
  0.000000000000000E+000
  0.000000000000000E+000
  0.000000000000000E+000
  0.000000000000000E+000
  0.000000000000000E+000
  0.000000000000000E+000
  0.000000000000000E+000
  0.000000000000000E+000
  0.000000000000000E+000
  0.000000000000000E+000
  0.000000000000000E+000
  0.000000000000000E+000
  0.000000000000000E+000
  0.000000000000000E+000
  0.000000000000000E+000
  0.000000000000000E+000
  0.000000000000000E+000
  0.000000000000000E+000
  0.000000000000000E+000
  0.000000000000000E+000
  0.000000000000000E+000
  0.000000000000000E+000
  0.000000000000000E+000
  0.000000000000000E+000
  0.000000000000000E+000
  0.000000000000000E+000
  0.000000000000000E+000
  0.000000000000000E+000
  0.000000000000000E+000
  0.000000000000000E+000
  0.000000000000000E+000
  0.000000000000000E+000
  0.000000000000000E+000
  0.000000000000000E+000
  0.000000000000000E+000
  0.000000000000000E+000
  0.000000000000000E+000
  0.000000000000000E+000
  0.000000000000000E+000
  0.000000000000000E+000
  0.000000000000000E+000
  0.000000000000000E+000
  0.000000000000000E+000
  0.000000000000000E+000
  0.000000000000000E+000
  0.000000000000000E+000
  0.000000000000000E+000
  0.000000000000000E+000
  0.000000000000000E+000
  0.000000000000000E+000
  0.000000000000000E+000
  0.000000000000000E+000
  0.000000000000000E+000
  0.000000000000000E+000
  0.000000000000000E+000
  0.000000000000000E+000
  0.000000000000000E+000
  0.000000000000000E+000
  0.000000000000000E+000
  0.000000000000000E+000
  0.000000000000000E+000
  0.000000000000000E+000
  0.000000000000000E+000
  0.000000000000000E+000
  0.000000000000000E+000
  0.000000000000000E+000
  0.000000000000000E+000
  0.000000000000000E+000
  0.000000000000000E+000
  0.000000000000000E+000
  0.000000000000000E+000
  0.000000000000000E+000
  0.000000000000000E+000
  0.000000000000000E+000
  0.000000000000000E+000
  0.000000000000000E+000
  0.000000000000000E+000
  0.000000000000000E+000
  0.000000000000000E+000
  0.000000000000000E+000
  0.000000000000000E+000
  0.000000000000000E+000
  0.000000000000000E+000
  0.000000000000000E+000
  0.000000000000000E+000
  0.000000000000000E+000
  0.000000000000000E+000
  0.000000000000000E+000
  0.000000000000000E+000
  0.000000000000000E+000
  0.000000000000000E+000
  0.000000000000000E+000
  0.000000000000000E+000
  0.000000000000000E+000
  0.000000000000000E+000
  0.000000000000000E+000
  0.000000000000000E+000
  0.000000000000000E+000
  0.000000000000000E+000
  0.000000000000000E+000
  0.000000000000000E+000
  0.000000000000000E+000
  0.000000000000000E+000
  0.000000000000000E+000
  0.000000000000000E+000
  0.000000000000000E+000
  0.000000000000000E+000
  0.000000000000000E+000
  0.000000000000000E+000
  0.000000000000000E+000
  0.000000000000000E+000
  0.000000000000000E+000
  0.000000000000000E+000
  0.000000000000000E+000
  0.000000000000000E+000
  0.000000000000000E+000
  0.000000000000000E+000
  0.000000000000000E+000
  0.000000000000000E+000
  0.000000000000000E+000
  0.000000000000000E+000
  0.000000000000000E+000
  0.000000000000000E+000
  0.000000000000000E+000
  0.000000000000000E+000
  0.000000000000000E+000
  0.000000000000000E+000
  0.000000000000000E+000
  0.000000000000000E+000
  0.000000000000000E+000
  0.000000000000000E+000
  0.000000000000000E+000
  0.000000000000000E+000
  0.000000000000000E+000
  0.000000000000000E+000
  0.000000000000000E+000
  0.000000000000000E+000
  0.000000000000000E+000
  0.000000000000000E+000
  0.000000000000000E+000
  0.000000000000000E+000
  0.000000000000000E+000
  0.000000000000000E+000
  0.000000000000000E+000
  0.000000000000000E+000
  0.000000000000000E+000
  0.000000000000000E+000
  0.000000000000000E+000
  0.000000000000000E+000
  0.000000000000000E+000
  0.000000000000000E+000
  0.000000000000000E+000
  0.000000000000000E+000
  0.000000000000000E+000
  0.000000000000000E+000
  0.000000000000000E+000
  0.000000000000000E+000
  0.000000000000000E+000
  0.000000000000000E+000
  0.000000000000000E+000
  0.000000000000000E+000
  0.000000000000000E+000
  0.000000000000000E+000
  0.000000000000000E+000
  0.000000000000000E+000
  0.000000000000000E+000
  0.000000000000000E+000
  0.000000000000000E+000
  0.000000000000000E+000
  0.000000000000000E+000
  0.000000000000000E+000
  0.000000000000000E+000
  0.000000000000000E+000
  0.000000000000000E+000
  0.000000000000000E+000
  0.000000000000000E+000
  0.000000000000000E+000
  0.000000000000000E+000
  0.000000000000000E+000
  0.000000000000000E+000
  0.000000000000000E+000
  0.000000000000000E+000
  0.000000000000000E+000
  0.000000000000000E+000
  0.000000000000000E+000
  0.000000000000000E+000
  0.000000000000000E+000
  0.000000000000000E+000
  0.000000000000000E+000
  0.000000000000000E+000
  0.000000000000000E+000
  0.000000000000000E+000
  0.000000000000000E+000
  0.000000000000000E+000
  0.000000000000000E+000
  0.000000000000000E+000
  0.000000000000000E+000
  0.000000000000000E+000
  0.000000000000000E+000
  0.000000000000000E+000
  0.000000000000000E+000
  0.000000000000000E+000
  0.000000000000000E+000
  0.000000000000000E+000
  0.000000000000000E+000
  0.000000000000000E+000
  0.000000000000000E+000
  0.000000000000000E+000
  0.000000000000000E+000
  0.000000000000000E+000
  0.000000000000000E+000
  0.000000000000000E+000
  0.000000000000000E+000
  0.000000000000000E+000
  0.000000000000000E+000
  0.000000000000000E+000
  0.000000000000000E+000
  0.000000000000000E+000
  0.000000000000000E+000
  0.000000000000000E+000
  0.000000000000000E+000
  0.000000000000000E+000
  0.000000000000000E+000
  0.000000000000000E+000
  0.000000000000000E+000
  0.000000000000000E+000
  0.000000000000000E+000
  0.000000000000000E+000
  0.000000000000000E+000
  0.000000000000000E+000
  0.000000000000000E+000
  0.000000000000000E+000
  0.000000000000000E+000
  0.000000000000000E+000
  0.000000000000000E+000
  0.000000000000000E+000
  0.000000000000000E+000
  0.000000000000000E+000
  0.000000000000000E+000
  0.000000000000000E+000
  0.000000000000000E+000
  0.000000000000000E+000
  0.000000000000000E+000
  0.000000000000000E+000
  0.000000000000000E+000
  0.000000000000000E+000
  0.000000000000000E+000
  0.000000000000000E+000
  0.000000000000000E+000
  0.000000000000000E+000
  0.000000000000000E+000
  0.000000000000000E+000
  0.000000000000000E+000
  0.000000000000000E+000
  0.000000000000000E+000
  0.000000000000000E+000
  0.000000000000000E+000
  0.000000000000000E+000
  0.000000000000000E+000
  0.000000000000000E+000
  0.000000000000000E+000
  0.000000000000000E+000
  0.000000000000000E+000
  0.000000000000000E+000
  0.000000000000000E+000
  0.000000000000000E+000
  0.000000000000000E+000
  0.000000000000000E+000
  0.000000000000000E+000
  0.000000000000000E+000
  0.000000000000000E+000
  0.000000000000000E+000
  0.000000000000000E+000
  0.000000000000000E+000
  0.000000000000000E+000
  0.000000000000000E+000
  0.000000000000000E+000
  0.000000000000000E+000
  0.000000000000000E+000
  0.000000000000000E+000
  0.000000000000000E+000
  0.000000000000000E+000
  0.000000000000000E+000
  0.000000000000000E+000
  0.000000000000000E+000
  0.000000000000000E+000
  0.000000000000000E+000
  0.000000000000000E+000
  0.000000000000000E+000
  0.000000000000000E+000
  0.000000000000000E+000
  0.000000000000000E+000
  0.000000000000000E+000
  0.000000000000000E+000
  0.000000000000000E+000
  0.000000000000000E+000
  0.000000000000000E+000
  0.000000000000000E+000
  0.000000000000000E+000
  0.000000000000000E+000
  0.000000000000000E+000
  0.000000000000000E+000
  0.000000000000000E+000
  0.000000000000000E+000
  0.000000000000000E+000
  0.000000000000000E+000
  0.000000000000000E+000
  0.000000000000000E+000
  0.000000000000000E+000
  0.000000000000000E+000
  0.000000000000000E+000
  0.000000000000000E+000
  0.000000000000000E+000
  0.000000000000000E+000
  0.000000000000000E+000
  0.000000000000000E+000
  0.000000000000000E+000
  0.000000000000000E+000
SCALARS poroL double 
LOOKUP_TABLE default
  0.330296213527701     
  0.324636152785568     
  0.320239864680692     
  0.316563639382415     
  0.313390131510713     
  0.310591390762500     
  0.308082198534948     
  0.305799275482748     
  0.303690970629712     
  0.301710614719129     
  0.299810731178599     
  0.297935748903148     
  0.296007955155099     
  0.293897782643482     
  0.291222155886805     
  0.325873023885144     
  0.321151780060509     
  0.317020319757108     
  0.313461818901764     
  0.310341232982698     
  0.307565286306834     
  0.305063625870258     
  0.302780960071546     
  0.300670751928829     
  0.298690689593503     
  0.296798699352642     
  0.294948334544166     
  0.293084611732190     
  0.291128071563226     
  0.289159312710327     
  0.320879202875509     
  0.316920506028997     
  0.313247507850360     
  0.309930257894443     
  0.306952182331766     
  0.304265020714633     
  0.301822587225545     
  0.299583422473978     
  0.297510460456876     
  0.295569601060111     
  0.293728346112921     
  0.291955578431119     
  0.290222933740611     
  0.288536027760758     
  0.286941790864799     
  0.315706467166786     
  0.312314256056871     
  0.309070189296944     
  0.306045865219171     
  0.303262887471338     
  0.300711567216314     
  0.298368904180489     
  0.296208900830148     
  0.294205802123790     
  0.292335417670063     
  0.290576167177854     
  0.288911099010595     
  0.287335367442905     
  0.285863552172527     
  0.284540062808229     
  0.310455159875986     
  0.307503290569431     
  0.304627407964773     
  0.301889452925699     
  0.299321613065234     
  0.296932678073044     
  0.294717081468962     
  0.292662238933696     
  0.290753189925895     
  0.288975327943389     
  0.287316681249263     
  0.285771079667169     
  0.284342027730861     
  0.283047417034674     
  0.281921172967430     
  0.305168501980022     
  0.302568153034004     
  0.300003944521664     
  0.297527838005784     
  0.295173157679934     
  0.292956691063496     
  0.290883126629810     
  0.288949768164044     
  0.287150412795635     
  0.285478350874371     
  0.283928963832583     
  0.282502294994651     
  0.281205719538441     
  0.280055896354728     
  0.279079245212806     
  0.299865918144332     
  0.297550558201587     
  0.295249631813781     
  0.293006743664802     
  0.290853086160764     
  0.288808143771931     
  0.286881983632736     
  0.285078198229849     
  0.283396804850901     
  0.281836827671664     
  0.280398577019708     
  0.279085699546139     
  0.277906863855442     
  0.276876776861052     
  0.276016033512369     
  0.294554148169862     
  0.292471252490657     
  0.290392701365159     
  0.288355086164339     
  0.286386302328904     
  0.284505810700774     
  0.282725922875517     
  0.281053683249840     
  0.279492943933431     
  0.278046373188898     
  0.276717273617773     
  0.275511123975011     
  0.274436720825559     
  0.273506716363099     
  0.272737360201766     
  0.289231009615064     
  0.287337831981377     
  0.285447085609530     
  0.283589214919611     
  0.281788329186871     
  0.280062351885510     
  0.278423819877159     
  0.276881134763569     
  0.275440034498473     
  0.274105089928319     
  0.272881082383946     
  0.271774147644687     
  0.270792568980976     
  0.269947098823665     
  0.269250709604536     
  0.283887074324132     
  0.282148426580288     
  0.280416463087151     
  0.278715943704288     
  0.277066901117827     
  0.275484780166120     
  0.273980988992112     
  0.272563767693915     
  0.271239239975436     
  0.270012511233638     
  0.268888692553315     
  0.267873745675946     
  0.266975054918893     
  0.266201644517046     
  0.265563987293268     
  0.278506472301246     
  0.276893620354198     
  0.275296561401278     
  0.273734550085610     
  0.272223291791630     
  0.270775094692044     
  0.269399283186799     
  0.268102826139975     
  0.266891100299108     
  0.265768697131030     
  0.264740183001772     
  0.263810730621426     
  0.262986550301340     
  0.262275064469593     
  0.261684790811491     
  0.273067315140996     
  0.271557514213146     
  0.270076516602522     
  0.268638066586528     
  0.267253287670026     
  0.265930843670633     
  0.264677266363442     
  0.263497425427787     
  0.262395092805873     
  0.261373541516590     
  0.260436116435819     
  0.259586718287613     
  0.258830149967697     
  0.258172285823374     
  0.257620039857101     
  0.267541928452659     
  0.266118338726367     
  0.264739692271859     
  0.263414105733037     
  0.262147858002068     
  0.260945549884653     
  0.259810370537252     
  0.258744456709482     
  0.257749315703382     
  0.256826274600270     
  0.255976915939965     
  0.255203462058501     
  0.254509075282634     
  0.253898048339864     
  0.253375868127090     
  0.261896971695653     
  0.260548804874581     
  0.259264168168047     
  0.258045372138877     
  0.256893587879231     
  0.255808995307867     
  0.254791000347879     
  0.253838510653945     
  0.252950252112123     
  0.252125105180924     
  0.251362440235613     
  0.250662433081276     
  0.250026344612804     
  0.249456751545715     
  0.248957717837174     
  0.256093468993519     
  0.254816276841470     
  0.253623003797889     
  0.252509949765221     
  0.251472923484318     
  0.250507373849284     
  0.249608564965391     
  0.248771783232585     
  0.247992565306675     
  0.247266939311383     
  0.246591675977659     
  0.245964549720991     
  0.245384610979243     
  0.244852470071922     
  0.244370589547121     
  0.250086740556668     
  0.248882792056735     
  0.247784320456970     
  0.246781406168552     
  0.245864254928193     
  0.245023315124848     
  0.244249418605947     
  0.243533926503735     
  0.242868872459192     
  0.242247108290866     
  0.241662467716726     
  0.241109969642710     
  0.240586082732128     
  0.240089067645268     
  0.239619403484980     
  0.243826192320814     
  0.242704910904369     
  0.241711201920690     
  0.240828720451450     
  0.240041839008182     
  0.239335769503276     
  0.238696683905593     
  0.238111801625290     
  0.237569437788218     
  0.237059032609818     
  0.236571201646719     
  0.236097856352860     
  0.235632443300042     
  0.235170339756717     
  0.234709425325163     
  0.237254879534645     
  0.236233336210898     
  0.235361376051699     
  0.234616011437353     
  0.233975542445567     
  0.233419729435154     
  0.232929920513389     
  0.232489079853080     
  0.232081713409454     
  0.231693734673988     
  0.231312345166088     
  0.230926018504170     
  0.230524673485698     
  0.230100103300171     
  0.229646698841411     
  0.230308696776796     
  0.229412189623031     
  0.228686598267475     
  0.228102012193296     
  0.227630363930857     
  0.227245744214072     
  0.226924584077445     
  0.226645618110419     
  0.226389633785758     
  0.226139087607731     
  0.225877716670713     
  0.225590292149711     
  0.225262652831177     
  0.224882127280390     
  0.224438407882585     
  0.222914946537492     
  0.222177756060182     
  0.221631604695504     
  0.221239201169371     
  0.220965667182217     
  0.220779161628670     
  0.220651194285942     
  0.220556503606569     
  0.220472531269974     
  0.220378643429975     
  0.220255312184642     
  0.220083487243695     
  0.219844370100247     
  0.219519758034619     
  0.219093057785792     
  0.214989874092158     
  0.214456390115118     
  0.214132426281996     
  0.213972451451430     
  0.213934020270633     
  0.213978991964529     
  0.214074084275154     
  0.214190605200802     
  0.214303473682151     
  0.214389809257493     
  0.214427435067432     
  0.214393637964584     
  0.214264496025317     
  0.214015027421613     
  0.213620317720083     
  0.206434475984441     
  0.206161084066759     
  0.206113735096007     
  0.206236983458744     
  0.206479473107858     
  0.206796216501298     
  0.207149512515059     
  0.207508362199530     
  0.207846706432535     
  0.208141012314123     
  0.208367739702925     
  0.208501158008472     
  0.208511942332615     
  0.208366926638028     
  0.208030294579549     
  0.197127373861009     
  0.197185856139107     
  0.197484685855862     
  0.197955273416420     
  0.198534975616391     
  0.199171200693087     
  0.199822722769911     
  0.200458327967296     
  0.201053663952003     
  0.201587273289231     
  0.202036566010661     
  0.202374262000714     
  0.202565800643077     
  0.202568347419526     
  0.202331902174407     
  0.186912545272210     
  0.187396436151510     
  0.188132341405171     
  0.189032298073534     
  0.190018339218684     
  0.191029485266099     
  0.192023087212058     
  0.192971542899929     
  0.193856605840744     
  0.194663210405361     
  0.195373537709701     
  0.195961564709052     
  0.196388629197455     
  0.196600841250615     
  0.196529820252438     
  0.175577326452625     
  0.176614403102844     
  0.177910924841673     
  0.179347910163355     
  0.180825383189334     
  0.182274198004867     
  0.183655420716297     
  0.184951842456523     
  0.186158124369910     
  0.187271804234886     
  0.188285610400140     
  0.189179965869266     
  0.189915118947143     
  0.190425668105196     
  0.190619180168456     
  0.162811170215536     
  0.164587947466493     
  0.166623651675298     
  0.168743561237777     
  0.170816504209975     
  0.172770771588801     
  0.174582776052571     
  0.176258105135582     
  0.177813162457560     
  0.179265735601147     
  0.180627513128848     
  0.181893928612218     
  0.183032509798200     
  0.183967655438713     
  0.184576534051496     
  0.148113589450713     
  0.150936787409517     
  0.153988106895526     
  0.156994845338074     
  0.159787063389529     
  0.162310315718194     
  0.164589964285250     
  0.166669385734564     
  0.168596062444026     
  0.170415496007897     
  0.172167547382073     
  0.173880064870550     
  0.175542594111822     
  0.177085707740941     
  0.178342598917114     
  0.130596099819691     
  0.135006738221548     
  0.139561900735916     
  0.143753063317190     
  0.147370936007360     
  0.150518608362539     
  0.153299758682591     
  0.155810066866096     
  0.158133676090167     
  0.160348180876974     
  0.162529640789195     
  0.164753871660718     
  0.167094296228844     
  0.169499438724085     
  0.171793521776939     
  0.107986425448065     
  0.115513197114118     
  0.122636402991398     
  0.128190227102763     
  0.132748065421770     
  0.136600614256494     
  0.139955754697101     
  0.142963396660753     
  0.145744401479257     
  0.148408250835070     
  0.151068490973387     
  0.153861494287776     
  0.156964310854319     
  0.160676534511975     
  0.164621323317899     
  7.095124549969556E-002
  8.933252509364573E-002
  9.977188655130625E-002
  0.107413223464487     
  0.113424812156169     
  0.118399035604634     
  0.122669098856727     
  0.126456680655370     
  0.129929336564831     
  0.133233525806553     
  0.136520615115192     
  0.139978521143154     
  0.143895194560333     
  0.148788703949872     
  0.156432632077294     
