# vtk DataFile Version 3.0
vtk output
ASCII
DATASET UNSTRUCTURED_GRID
POINTS       496 double 
  0.00000000E+00  3.00000000E+02  0.00000000E+00
  0.00000000E+00  2.80000000E+02  0.00000000E+00
  0.00000000E+00  2.60000000E+02  0.00000000E+00
  0.00000000E+00  2.40000000E+02  0.00000000E+00
  0.00000000E+00  2.20000000E+02  0.00000000E+00
  0.00000000E+00  2.00000000E+02  0.00000000E+00
  0.00000000E+00  1.80000000E+02  0.00000000E+00
  0.00000000E+00  1.60000000E+02  0.00000000E+00
  0.00000000E+00  1.40000000E+02  0.00000000E+00
  0.00000000E+00  1.20000000E+02  0.00000000E+00
  0.00000000E+00  1.00000000E+02  0.00000000E+00
  0.00000000E+00  8.00000000E+01  0.00000000E+00
  0.00000000E+00  6.00000000E+01  0.00000000E+00
  0.00000000E+00  4.00000000E+01  0.00000000E+00
  0.00000000E+00  2.00000000E+01  0.00000000E+00
  0.00000000E+00  4.99600361E-14  0.00000000E+00
  2.00000000E+01  3.00000000E+02  0.00000000E+00
  2.00000000E+01  2.80000000E+02  0.00000000E+00
  2.00000000E+01  2.60000000E+02  0.00000000E+00
  2.00000000E+01  2.40000000E+02  0.00000000E+00
  2.00000000E+01  2.20000000E+02  0.00000000E+00
  2.00000000E+01  2.00000000E+02  0.00000000E+00
  2.00000000E+01  1.80000000E+02  0.00000000E+00
  2.00000000E+01  1.60000000E+02  0.00000000E+00
  2.00000000E+01  1.40000000E+02  0.00000000E+00
  2.00000000E+01  1.20000000E+02  0.00000000E+00
  2.00000000E+01  1.00000000E+02  0.00000000E+00
  2.00000000E+01  8.00000000E+01  0.00000000E+00
  2.00000000E+01  6.00000000E+01  0.00000000E+00
  2.00000000E+01  4.00000000E+01  0.00000000E+00
  2.00000000E+01  2.00000000E+01  0.00000000E+00
  2.00000000E+01  4.99600361E-14  0.00000000E+00
  4.00000000E+01  3.00000000E+02  0.00000000E+00
  4.00000000E+01  2.80000000E+02  0.00000000E+00
  4.00000000E+01  2.60000000E+02  0.00000000E+00
  4.00000000E+01  2.40000000E+02  0.00000000E+00
  4.00000000E+01  2.20000000E+02  0.00000000E+00
  4.00000000E+01  2.00000000E+02  0.00000000E+00
  4.00000000E+01  1.80000000E+02  0.00000000E+00
  4.00000000E+01  1.60000000E+02  0.00000000E+00
  4.00000000E+01  1.40000000E+02  0.00000000E+00
  4.00000000E+01  1.20000000E+02  0.00000000E+00
  4.00000000E+01  1.00000000E+02  0.00000000E+00
  4.00000000E+01  8.00000000E+01  0.00000000E+00
  4.00000000E+01  6.00000000E+01  0.00000000E+00
  4.00000000E+01  4.00000000E+01  0.00000000E+00
  4.00000000E+01  2.00000000E+01  0.00000000E+00
  4.00000000E+01  4.99600361E-14  0.00000000E+00
  6.00000000E+01  3.00000000E+02  0.00000000E+00
  6.00000000E+01  2.80000000E+02  0.00000000E+00
  6.00000000E+01  2.60000000E+02  0.00000000E+00
  6.00000000E+01  2.40000000E+02  0.00000000E+00
  6.00000000E+01  2.20000000E+02  0.00000000E+00
  6.00000000E+01  2.00000000E+02  0.00000000E+00
  6.00000000E+01  1.80000000E+02  0.00000000E+00
  6.00000000E+01  1.60000000E+02  0.00000000E+00
  6.00000000E+01  1.40000000E+02  0.00000000E+00
  6.00000000E+01  1.20000000E+02  0.00000000E+00
  6.00000000E+01  1.00000000E+02  0.00000000E+00
  6.00000000E+01  8.00000000E+01  0.00000000E+00
  6.00000000E+01  6.00000000E+01  0.00000000E+00
  6.00000000E+01  4.00000000E+01  0.00000000E+00
  6.00000000E+01  2.00000000E+01  0.00000000E+00
  6.00000000E+01  4.99600361E-14  0.00000000E+00
  8.00000000E+01  3.00000000E+02  0.00000000E+00
  8.00000000E+01  2.80000000E+02  0.00000000E+00
  8.00000000E+01  2.60000000E+02  0.00000000E+00
  8.00000000E+01  2.40000000E+02  0.00000000E+00
  8.00000000E+01  2.20000000E+02  0.00000000E+00
  8.00000000E+01  2.00000000E+02  0.00000000E+00
  8.00000000E+01  1.80000000E+02  0.00000000E+00
  8.00000000E+01  1.60000000E+02  0.00000000E+00
  8.00000000E+01  1.40000000E+02  0.00000000E+00
  8.00000000E+01  1.20000000E+02  0.00000000E+00
  8.00000000E+01  1.00000000E+02  0.00000000E+00
  8.00000000E+01  8.00000000E+01  0.00000000E+00
  8.00000000E+01  6.00000000E+01  0.00000000E+00
  8.00000000E+01  4.00000000E+01  0.00000000E+00
  8.00000000E+01  2.00000000E+01  0.00000000E+00
  8.00000000E+01  4.99600361E-14  0.00000000E+00
  1.00000000E+02  3.00000000E+02  0.00000000E+00
  1.00000000E+02  2.80000000E+02  0.00000000E+00
  1.00000000E+02  2.60000000E+02  0.00000000E+00
  1.00000000E+02  2.40000000E+02  0.00000000E+00
  1.00000000E+02  2.20000000E+02  0.00000000E+00
  1.00000000E+02  2.00000000E+02  0.00000000E+00
  1.00000000E+02  1.80000000E+02  0.00000000E+00
  1.00000000E+02  1.60000000E+02  0.00000000E+00
  1.00000000E+02  1.40000000E+02  0.00000000E+00
  1.00000000E+02  1.20000000E+02  0.00000000E+00
  1.00000000E+02  1.00000000E+02  0.00000000E+00
  1.00000000E+02  8.00000000E+01  0.00000000E+00
  1.00000000E+02  6.00000000E+01  0.00000000E+00
  1.00000000E+02  4.00000000E+01  0.00000000E+00
  1.00000000E+02  2.00000000E+01  0.00000000E+00
  1.00000000E+02  4.99600361E-14  0.00000000E+00
  1.20000000E+02  3.00000000E+02  0.00000000E+00
  1.20000000E+02  2.80000000E+02  0.00000000E+00
  1.20000000E+02  2.60000000E+02  0.00000000E+00
  1.20000000E+02  2.40000000E+02  0.00000000E+00
  1.20000000E+02  2.20000000E+02  0.00000000E+00
  1.20000000E+02  2.00000000E+02  0.00000000E+00
  1.20000000E+02  1.80000000E+02  0.00000000E+00
  1.20000000E+02  1.60000000E+02  0.00000000E+00
  1.20000000E+02  1.40000000E+02  0.00000000E+00
  1.20000000E+02  1.20000000E+02  0.00000000E+00
  1.20000000E+02  1.00000000E+02  0.00000000E+00
  1.20000000E+02  8.00000000E+01  0.00000000E+00
  1.20000000E+02  6.00000000E+01  0.00000000E+00
  1.20000000E+02  4.00000000E+01  0.00000000E+00
  1.20000000E+02  2.00000000E+01  0.00000000E+00
  1.20000000E+02  4.99600361E-14  0.00000000E+00
  1.40000000E+02  3.00000000E+02  0.00000000E+00
  1.40000000E+02  2.80000000E+02  0.00000000E+00
  1.40000000E+02  2.60000000E+02  0.00000000E+00
  1.40000000E+02  2.40000000E+02  0.00000000E+00
  1.40000000E+02  2.20000000E+02  0.00000000E+00
  1.40000000E+02  2.00000000E+02  0.00000000E+00
  1.40000000E+02  1.80000000E+02  0.00000000E+00
  1.40000000E+02  1.60000000E+02  0.00000000E+00
  1.40000000E+02  1.40000000E+02  0.00000000E+00
  1.40000000E+02  1.20000000E+02  0.00000000E+00
  1.40000000E+02  1.00000000E+02  0.00000000E+00
  1.40000000E+02  8.00000000E+01  0.00000000E+00
  1.40000000E+02  6.00000000E+01  0.00000000E+00
  1.40000000E+02  4.00000000E+01  0.00000000E+00
  1.40000000E+02  2.00000000E+01  0.00000000E+00
  1.40000000E+02  4.99600361E-14  0.00000000E+00
  1.60000000E+02  3.00000000E+02  0.00000000E+00
  1.60000000E+02  2.80000000E+02  0.00000000E+00
  1.60000000E+02  2.60000000E+02  0.00000000E+00
  1.60000000E+02  2.40000000E+02  0.00000000E+00
  1.60000000E+02  2.20000000E+02  0.00000000E+00
  1.60000000E+02  2.00000000E+02  0.00000000E+00
  1.60000000E+02  1.80000000E+02  0.00000000E+00
  1.60000000E+02  1.60000000E+02  0.00000000E+00
  1.60000000E+02  1.40000000E+02  0.00000000E+00
  1.60000000E+02  1.20000000E+02  0.00000000E+00
  1.60000000E+02  1.00000000E+02  0.00000000E+00
  1.60000000E+02  8.00000000E+01  0.00000000E+00
  1.60000000E+02  6.00000000E+01  0.00000000E+00
  1.60000000E+02  4.00000000E+01  0.00000000E+00
  1.60000000E+02  2.00000000E+01  0.00000000E+00
  1.60000000E+02  4.99600361E-14  0.00000000E+00
  1.80000000E+02  3.00000000E+02  0.00000000E+00
  1.80000000E+02  2.80000000E+02  0.00000000E+00
  1.80000000E+02  2.60000000E+02  0.00000000E+00
  1.80000000E+02  2.40000000E+02  0.00000000E+00
  1.80000000E+02  2.20000000E+02  0.00000000E+00
  1.80000000E+02  2.00000000E+02  0.00000000E+00
  1.80000000E+02  1.80000000E+02  0.00000000E+00
  1.80000000E+02  1.60000000E+02  0.00000000E+00
  1.80000000E+02  1.40000000E+02  0.00000000E+00
  1.80000000E+02  1.20000000E+02  0.00000000E+00
  1.80000000E+02  1.00000000E+02  0.00000000E+00
  1.80000000E+02  8.00000000E+01  0.00000000E+00
  1.80000000E+02  6.00000000E+01  0.00000000E+00
  1.80000000E+02  4.00000000E+01  0.00000000E+00
  1.80000000E+02  2.00000000E+01  0.00000000E+00
  1.80000000E+02  4.99600361E-14  0.00000000E+00
  2.00000000E+02  3.00000000E+02  0.00000000E+00
  2.00000000E+02  2.80000000E+02  0.00000000E+00
  2.00000000E+02  2.60000000E+02  0.00000000E+00
  2.00000000E+02  2.40000000E+02  0.00000000E+00
  2.00000000E+02  2.20000000E+02  0.00000000E+00
  2.00000000E+02  2.00000000E+02  0.00000000E+00
  2.00000000E+02  1.80000000E+02  0.00000000E+00
  2.00000000E+02  1.60000000E+02  0.00000000E+00
  2.00000000E+02  1.40000000E+02  0.00000000E+00
  2.00000000E+02  1.20000000E+02  0.00000000E+00
  2.00000000E+02  1.00000000E+02  0.00000000E+00
  2.00000000E+02  8.00000000E+01  0.00000000E+00
  2.00000000E+02  6.00000000E+01  0.00000000E+00
  2.00000000E+02  4.00000000E+01  0.00000000E+00
  2.00000000E+02  2.00000000E+01  0.00000000E+00
  2.00000000E+02  4.99600361E-14  0.00000000E+00
  2.20000000E+02  3.00000000E+02  0.00000000E+00
  2.20000000E+02  2.80000000E+02  0.00000000E+00
  2.20000000E+02  2.60000000E+02  0.00000000E+00
  2.20000000E+02  2.40000000E+02  0.00000000E+00
  2.20000000E+02  2.20000000E+02  0.00000000E+00
  2.20000000E+02  2.00000000E+02  0.00000000E+00
  2.20000000E+02  1.80000000E+02  0.00000000E+00
  2.20000000E+02  1.60000000E+02  0.00000000E+00
  2.20000000E+02  1.40000000E+02  0.00000000E+00
  2.20000000E+02  1.20000000E+02  0.00000000E+00
  2.20000000E+02  1.00000000E+02  0.00000000E+00
  2.20000000E+02  8.00000000E+01  0.00000000E+00
  2.20000000E+02  6.00000000E+01  0.00000000E+00
  2.20000000E+02  4.00000000E+01  0.00000000E+00
  2.20000000E+02  2.00000000E+01  0.00000000E+00
  2.20000000E+02  4.99600361E-14  0.00000000E+00
  2.40000000E+02  3.00000000E+02  0.00000000E+00
  2.40000000E+02  2.80000000E+02  0.00000000E+00
  2.40000000E+02  2.60000000E+02  0.00000000E+00
  2.40000000E+02  2.40000000E+02  0.00000000E+00
  2.40000000E+02  2.20000000E+02  0.00000000E+00
  2.40000000E+02  2.00000000E+02  0.00000000E+00
  2.40000000E+02  1.80000000E+02  0.00000000E+00
  2.40000000E+02  1.60000000E+02  0.00000000E+00
  2.40000000E+02  1.40000000E+02  0.00000000E+00
  2.40000000E+02  1.20000000E+02  0.00000000E+00
  2.40000000E+02  1.00000000E+02  0.00000000E+00
  2.40000000E+02  8.00000000E+01  0.00000000E+00
  2.40000000E+02  6.00000000E+01  0.00000000E+00
  2.40000000E+02  4.00000000E+01  0.00000000E+00
  2.40000000E+02  2.00000000E+01  0.00000000E+00
  2.40000000E+02  4.99600361E-14  0.00000000E+00
  2.60000000E+02  3.00000000E+02  0.00000000E+00
  2.60000000E+02  2.80000000E+02  0.00000000E+00
  2.60000000E+02  2.60000000E+02  0.00000000E+00
  2.60000000E+02  2.40000000E+02  0.00000000E+00
  2.60000000E+02  2.20000000E+02  0.00000000E+00
  2.60000000E+02  2.00000000E+02  0.00000000E+00
  2.60000000E+02  1.80000000E+02  0.00000000E+00
  2.60000000E+02  1.60000000E+02  0.00000000E+00
  2.60000000E+02  1.40000000E+02  0.00000000E+00
  2.60000000E+02  1.20000000E+02  0.00000000E+00
  2.60000000E+02  1.00000000E+02  0.00000000E+00
  2.60000000E+02  8.00000000E+01  0.00000000E+00
  2.60000000E+02  6.00000000E+01  0.00000000E+00
  2.60000000E+02  4.00000000E+01  0.00000000E+00
  2.60000000E+02  2.00000000E+01  0.00000000E+00
  2.60000000E+02  4.99600361E-14  0.00000000E+00
  2.80000000E+02  3.00000000E+02  0.00000000E+00
  2.80000000E+02  2.80000000E+02  0.00000000E+00
  2.80000000E+02  2.60000000E+02  0.00000000E+00
  2.80000000E+02  2.40000000E+02  0.00000000E+00
  2.80000000E+02  2.20000000E+02  0.00000000E+00
  2.80000000E+02  2.00000000E+02  0.00000000E+00
  2.80000000E+02  1.80000000E+02  0.00000000E+00
  2.80000000E+02  1.60000000E+02  0.00000000E+00
  2.80000000E+02  1.40000000E+02  0.00000000E+00
  2.80000000E+02  1.20000000E+02  0.00000000E+00
  2.80000000E+02  1.00000000E+02  0.00000000E+00
  2.80000000E+02  8.00000000E+01  0.00000000E+00
  2.80000000E+02  6.00000000E+01  0.00000000E+00
  2.80000000E+02  4.00000000E+01  0.00000000E+00
  2.80000000E+02  2.00000000E+01  0.00000000E+00
  2.80000000E+02  4.99600361E-14  0.00000000E+00
  3.00000000E+02  3.00000000E+02  0.00000000E+00
  3.00000000E+02  2.80000000E+02  0.00000000E+00
  3.00000000E+02  2.60000000E+02  0.00000000E+00
  3.00000000E+02  2.40000000E+02  0.00000000E+00
  3.00000000E+02  2.20000000E+02  0.00000000E+00
  3.00000000E+02  2.00000000E+02  0.00000000E+00
  3.00000000E+02  1.80000000E+02  0.00000000E+00
  3.00000000E+02  1.60000000E+02  0.00000000E+00
  3.00000000E+02  1.40000000E+02  0.00000000E+00
  3.00000000E+02  1.20000000E+02  0.00000000E+00
  3.00000000E+02  1.00000000E+02  0.00000000E+00
  3.00000000E+02  8.00000000E+01  0.00000000E+00
  3.00000000E+02  6.00000000E+01  0.00000000E+00
  3.00000000E+02  4.00000000E+01  0.00000000E+00
  3.00000000E+02  2.00000000E+01  0.00000000E+00
  3.00000000E+02  4.99600361E-14  0.00000000E+00
  3.20000000E+02  3.00000000E+02  0.00000000E+00
  3.20000000E+02  2.80000000E+02  0.00000000E+00
  3.20000000E+02  2.60000000E+02  0.00000000E+00
  3.20000000E+02  2.40000000E+02  0.00000000E+00
  3.20000000E+02  2.20000000E+02  0.00000000E+00
  3.20000000E+02  2.00000000E+02  0.00000000E+00
  3.20000000E+02  1.80000000E+02  0.00000000E+00
  3.20000000E+02  1.60000000E+02  0.00000000E+00
  3.20000000E+02  1.40000000E+02  0.00000000E+00
  3.20000000E+02  1.20000000E+02  0.00000000E+00
  3.20000000E+02  1.00000000E+02  0.00000000E+00
  3.20000000E+02  8.00000000E+01  0.00000000E+00
  3.20000000E+02  6.00000000E+01  0.00000000E+00
  3.20000000E+02  4.00000000E+01  0.00000000E+00
  3.20000000E+02  2.00000000E+01  0.00000000E+00
  3.20000000E+02  4.99600361E-14  0.00000000E+00
  3.40000000E+02  3.00000000E+02  0.00000000E+00
  3.40000000E+02  2.80000000E+02  0.00000000E+00
  3.40000000E+02  2.60000000E+02  0.00000000E+00
  3.40000000E+02  2.40000000E+02  0.00000000E+00
  3.40000000E+02  2.20000000E+02  0.00000000E+00
  3.40000000E+02  2.00000000E+02  0.00000000E+00
  3.40000000E+02  1.80000000E+02  0.00000000E+00
  3.40000000E+02  1.60000000E+02  0.00000000E+00
  3.40000000E+02  1.40000000E+02  0.00000000E+00
  3.40000000E+02  1.20000000E+02  0.00000000E+00
  3.40000000E+02  1.00000000E+02  0.00000000E+00
  3.40000000E+02  8.00000000E+01  0.00000000E+00
  3.40000000E+02  6.00000000E+01  0.00000000E+00
  3.40000000E+02  4.00000000E+01  0.00000000E+00
  3.40000000E+02  2.00000000E+01  0.00000000E+00
  3.40000000E+02  4.99600361E-14  0.00000000E+00
  3.60000000E+02  3.00000000E+02  0.00000000E+00
  3.60000000E+02  2.80000000E+02  0.00000000E+00
  3.60000000E+02  2.60000000E+02  0.00000000E+00
  3.60000000E+02  2.40000000E+02  0.00000000E+00
  3.60000000E+02  2.20000000E+02  0.00000000E+00
  3.60000000E+02  2.00000000E+02  0.00000000E+00
  3.60000000E+02  1.80000000E+02  0.00000000E+00
  3.60000000E+02  1.60000000E+02  0.00000000E+00
  3.60000000E+02  1.40000000E+02  0.00000000E+00
  3.60000000E+02  1.20000000E+02  0.00000000E+00
  3.60000000E+02  1.00000000E+02  0.00000000E+00
  3.60000000E+02  8.00000000E+01  0.00000000E+00
  3.60000000E+02  6.00000000E+01  0.00000000E+00
  3.60000000E+02  4.00000000E+01  0.00000000E+00
  3.60000000E+02  2.00000000E+01  0.00000000E+00
  3.60000000E+02  4.99600361E-14  0.00000000E+00
  3.80000000E+02  3.00000000E+02  0.00000000E+00
  3.80000000E+02  2.80000000E+02  0.00000000E+00
  3.80000000E+02  2.60000000E+02  0.00000000E+00
  3.80000000E+02  2.40000000E+02  0.00000000E+00
  3.80000000E+02  2.20000000E+02  0.00000000E+00
  3.80000000E+02  2.00000000E+02  0.00000000E+00
  3.80000000E+02  1.80000000E+02  0.00000000E+00
  3.80000000E+02  1.60000000E+02  0.00000000E+00
  3.80000000E+02  1.40000000E+02  0.00000000E+00
  3.80000000E+02  1.20000000E+02  0.00000000E+00
  3.80000000E+02  1.00000000E+02  0.00000000E+00
  3.80000000E+02  8.00000000E+01  0.00000000E+00
  3.80000000E+02  6.00000000E+01  0.00000000E+00
  3.80000000E+02  4.00000000E+01  0.00000000E+00
  3.80000000E+02  2.00000000E+01  0.00000000E+00
  3.80000000E+02  4.99600361E-14  0.00000000E+00
  4.00000000E+02  3.00000000E+02  0.00000000E+00
  4.00000000E+02  2.80000000E+02  0.00000000E+00
  4.00000000E+02  2.60000000E+02  0.00000000E+00
  4.00000000E+02  2.40000000E+02  0.00000000E+00
  4.00000000E+02  2.20000000E+02  0.00000000E+00
  4.00000000E+02  2.00000000E+02  0.00000000E+00
  4.00000000E+02  1.80000000E+02  0.00000000E+00
  4.00000000E+02  1.60000000E+02  0.00000000E+00
  4.00000000E+02  1.40000000E+02  0.00000000E+00
  4.00000000E+02  1.20000000E+02  0.00000000E+00
  4.00000000E+02  1.00000000E+02  0.00000000E+00
  4.00000000E+02  8.00000000E+01  0.00000000E+00
  4.00000000E+02  6.00000000E+01  0.00000000E+00
  4.00000000E+02  4.00000000E+01  0.00000000E+00
  4.00000000E+02  2.00000000E+01  0.00000000E+00
  4.00000000E+02  4.99600361E-14  0.00000000E+00
  4.20000000E+02  3.00000000E+02  0.00000000E+00
  4.20000000E+02  2.80000000E+02  0.00000000E+00
  4.20000000E+02  2.60000000E+02  0.00000000E+00
  4.20000000E+02  2.40000000E+02  0.00000000E+00
  4.20000000E+02  2.20000000E+02  0.00000000E+00
  4.20000000E+02  2.00000000E+02  0.00000000E+00
  4.20000000E+02  1.80000000E+02  0.00000000E+00
  4.20000000E+02  1.60000000E+02  0.00000000E+00
  4.20000000E+02  1.40000000E+02  0.00000000E+00
  4.20000000E+02  1.20000000E+02  0.00000000E+00
  4.20000000E+02  1.00000000E+02  0.00000000E+00
  4.20000000E+02  8.00000000E+01  0.00000000E+00
  4.20000000E+02  6.00000000E+01  0.00000000E+00
  4.20000000E+02  4.00000000E+01  0.00000000E+00
  4.20000000E+02  2.00000000E+01  0.00000000E+00
  4.20000000E+02  4.99600361E-14  0.00000000E+00
  4.40000000E+02  3.00000000E+02  0.00000000E+00
  4.40000000E+02  2.80000000E+02  0.00000000E+00
  4.40000000E+02  2.60000000E+02  0.00000000E+00
  4.40000000E+02  2.40000000E+02  0.00000000E+00
  4.40000000E+02  2.20000000E+02  0.00000000E+00
  4.40000000E+02  2.00000000E+02  0.00000000E+00
  4.40000000E+02  1.80000000E+02  0.00000000E+00
  4.40000000E+02  1.60000000E+02  0.00000000E+00
  4.40000000E+02  1.40000000E+02  0.00000000E+00
  4.40000000E+02  1.20000000E+02  0.00000000E+00
  4.40000000E+02  1.00000000E+02  0.00000000E+00
  4.40000000E+02  8.00000000E+01  0.00000000E+00
  4.40000000E+02  6.00000000E+01  0.00000000E+00
  4.40000000E+02  4.00000000E+01  0.00000000E+00
  4.40000000E+02  2.00000000E+01  0.00000000E+00
  4.40000000E+02  4.99600361E-14  0.00000000E+00
  4.60000000E+02  3.00000000E+02  0.00000000E+00
  4.60000000E+02  2.80000000E+02  0.00000000E+00
  4.60000000E+02  2.60000000E+02  0.00000000E+00
  4.60000000E+02  2.40000000E+02  0.00000000E+00
  4.60000000E+02  2.20000000E+02  0.00000000E+00
  4.60000000E+02  2.00000000E+02  0.00000000E+00
  4.60000000E+02  1.80000000E+02  0.00000000E+00
  4.60000000E+02  1.60000000E+02  0.00000000E+00
  4.60000000E+02  1.40000000E+02  0.00000000E+00
  4.60000000E+02  1.20000000E+02  0.00000000E+00
  4.60000000E+02  1.00000000E+02  0.00000000E+00
  4.60000000E+02  8.00000000E+01  0.00000000E+00
  4.60000000E+02  6.00000000E+01  0.00000000E+00
  4.60000000E+02  4.00000000E+01  0.00000000E+00
  4.60000000E+02  2.00000000E+01  0.00000000E+00
  4.60000000E+02  4.99600361E-14  0.00000000E+00
  4.80000000E+02  3.00000000E+02  0.00000000E+00
  4.80000000E+02  2.80000000E+02  0.00000000E+00
  4.80000000E+02  2.60000000E+02  0.00000000E+00
  4.80000000E+02  2.40000000E+02  0.00000000E+00
  4.80000000E+02  2.20000000E+02  0.00000000E+00
  4.80000000E+02  2.00000000E+02  0.00000000E+00
  4.80000000E+02  1.80000000E+02  0.00000000E+00
  4.80000000E+02  1.60000000E+02  0.00000000E+00
  4.80000000E+02  1.40000000E+02  0.00000000E+00
  4.80000000E+02  1.20000000E+02  0.00000000E+00
  4.80000000E+02  1.00000000E+02  0.00000000E+00
  4.80000000E+02  8.00000000E+01  0.00000000E+00
  4.80000000E+02  6.00000000E+01  0.00000000E+00
  4.80000000E+02  4.00000000E+01  0.00000000E+00
  4.80000000E+02  2.00000000E+01  0.00000000E+00
  4.80000000E+02  4.99600361E-14  0.00000000E+00
  5.00000000E+02  3.00000000E+02  0.00000000E+00
  5.00000000E+02  2.80000000E+02  0.00000000E+00
  5.00000000E+02  2.60000000E+02  0.00000000E+00
  5.00000000E+02  2.40000000E+02  0.00000000E+00
  5.00000000E+02  2.20000000E+02  0.00000000E+00
  5.00000000E+02  2.00000000E+02  0.00000000E+00
  5.00000000E+02  1.80000000E+02  0.00000000E+00
  5.00000000E+02  1.60000000E+02  0.00000000E+00
  5.00000000E+02  1.40000000E+02  0.00000000E+00
  5.00000000E+02  1.20000000E+02  0.00000000E+00
  5.00000000E+02  1.00000000E+02  0.00000000E+00
  5.00000000E+02  8.00000000E+01  0.00000000E+00
  5.00000000E+02  6.00000000E+01  0.00000000E+00
  5.00000000E+02  4.00000000E+01  0.00000000E+00
  5.00000000E+02  2.00000000E+01  0.00000000E+00
  5.00000000E+02  4.99600361E-14  0.00000000E+00
  5.20000000E+02  3.00000000E+02  0.00000000E+00
  5.20000000E+02  2.80000000E+02  0.00000000E+00
  5.20000000E+02  2.60000000E+02  0.00000000E+00
  5.20000000E+02  2.40000000E+02  0.00000000E+00
  5.20000000E+02  2.20000000E+02  0.00000000E+00
  5.20000000E+02  2.00000000E+02  0.00000000E+00
  5.20000000E+02  1.80000000E+02  0.00000000E+00
  5.20000000E+02  1.60000000E+02  0.00000000E+00
  5.20000000E+02  1.40000000E+02  0.00000000E+00
  5.20000000E+02  1.20000000E+02  0.00000000E+00
  5.20000000E+02  1.00000000E+02  0.00000000E+00
  5.20000000E+02  8.00000000E+01  0.00000000E+00
  5.20000000E+02  6.00000000E+01  0.00000000E+00
  5.20000000E+02  4.00000000E+01  0.00000000E+00
  5.20000000E+02  2.00000000E+01  0.00000000E+00
  5.20000000E+02  4.99600361E-14  0.00000000E+00
  5.40000000E+02  3.00000000E+02  0.00000000E+00
  5.40000000E+02  2.80000000E+02  0.00000000E+00
  5.40000000E+02  2.60000000E+02  0.00000000E+00
  5.40000000E+02  2.40000000E+02  0.00000000E+00
  5.40000000E+02  2.20000000E+02  0.00000000E+00
  5.40000000E+02  2.00000000E+02  0.00000000E+00
  5.40000000E+02  1.80000000E+02  0.00000000E+00
  5.40000000E+02  1.60000000E+02  0.00000000E+00
  5.40000000E+02  1.40000000E+02  0.00000000E+00
  5.40000000E+02  1.20000000E+02  0.00000000E+00
  5.40000000E+02  1.00000000E+02  0.00000000E+00
  5.40000000E+02  8.00000000E+01  0.00000000E+00
  5.40000000E+02  6.00000000E+01  0.00000000E+00
  5.40000000E+02  4.00000000E+01  0.00000000E+00
  5.40000000E+02  2.00000000E+01  0.00000000E+00
  5.40000000E+02  4.99600361E-14  0.00000000E+00
  5.60000000E+02  3.00000000E+02  0.00000000E+00
  5.60000000E+02  2.80000000E+02  0.00000000E+00
  5.60000000E+02  2.60000000E+02  0.00000000E+00
  5.60000000E+02  2.40000000E+02  0.00000000E+00
  5.60000000E+02  2.20000000E+02  0.00000000E+00
  5.60000000E+02  2.00000000E+02  0.00000000E+00
  5.60000000E+02  1.80000000E+02  0.00000000E+00
  5.60000000E+02  1.60000000E+02  0.00000000E+00
  5.60000000E+02  1.40000000E+02  0.00000000E+00
  5.60000000E+02  1.20000000E+02  0.00000000E+00
  5.60000000E+02  1.00000000E+02  0.00000000E+00
  5.60000000E+02  8.00000000E+01  0.00000000E+00
  5.60000000E+02  6.00000000E+01  0.00000000E+00
  5.60000000E+02  4.00000000E+01  0.00000000E+00
  5.60000000E+02  2.00000000E+01  0.00000000E+00
  5.60000000E+02  4.99600361E-14  0.00000000E+00
  5.80000000E+02  3.00000000E+02  0.00000000E+00
  5.80000000E+02  2.80000000E+02  0.00000000E+00
  5.80000000E+02  2.60000000E+02  0.00000000E+00
  5.80000000E+02  2.40000000E+02  0.00000000E+00
  5.80000000E+02  2.20000000E+02  0.00000000E+00
  5.80000000E+02  2.00000000E+02  0.00000000E+00
  5.80000000E+02  1.80000000E+02  0.00000000E+00
  5.80000000E+02  1.60000000E+02  0.00000000E+00
  5.80000000E+02  1.40000000E+02  0.00000000E+00
  5.80000000E+02  1.20000000E+02  0.00000000E+00
  5.80000000E+02  1.00000000E+02  0.00000000E+00
  5.80000000E+02  8.00000000E+01  0.00000000E+00
  5.80000000E+02  6.00000000E+01  0.00000000E+00
  5.80000000E+02  4.00000000E+01  0.00000000E+00
  5.80000000E+02  2.00000000E+01  0.00000000E+00
  5.80000000E+02  4.99600361E-14  0.00000000E+00
  6.00000000E+02  3.00000000E+02  0.00000000E+00
  6.00000000E+02  2.80000000E+02  0.00000000E+00
  6.00000000E+02  2.60000000E+02  0.00000000E+00
  6.00000000E+02  2.40000000E+02  0.00000000E+00
  6.00000000E+02  2.20000000E+02  0.00000000E+00
  6.00000000E+02  2.00000000E+02  0.00000000E+00
  6.00000000E+02  1.80000000E+02  0.00000000E+00
  6.00000000E+02  1.60000000E+02  0.00000000E+00
  6.00000000E+02  1.40000000E+02  0.00000000E+00
  6.00000000E+02  1.20000000E+02  0.00000000E+00
  6.00000000E+02  1.00000000E+02  0.00000000E+00
  6.00000000E+02  8.00000000E+01  0.00000000E+00
  6.00000000E+02  6.00000000E+01  0.00000000E+00
  6.00000000E+02  4.00000000E+01  0.00000000E+00
  6.00000000E+02  2.00000000E+01  0.00000000E+00
  6.00000000E+02  4.99600361E-14  0.00000000E+00
CELLS       450      2250
         4           0           1          17          16
         4           1           2          18          17
         4           2           3          19          18
         4           3           4          20          19
         4           4           5          21          20
         4           5           6          22          21
         4           6           7          23          22
         4           7           8          24          23
         4           8           9          25          24
         4           9          10          26          25
         4          10          11          27          26
         4          11          12          28          27
         4          12          13          29          28
         4          13          14          30          29
         4          14          15          31          30
         4          16          17          33          32
         4          17          18          34          33
         4          18          19          35          34
         4          19          20          36          35
         4          20          21          37          36
         4          21          22          38          37
         4          22          23          39          38
         4          23          24          40          39
         4          24          25          41          40
         4          25          26          42          41
         4          26          27          43          42
         4          27          28          44          43
         4          28          29          45          44
         4          29          30          46          45
         4          30          31          47          46
         4          32          33          49          48
         4          33          34          50          49
         4          34          35          51          50
         4          35          36          52          51
         4          36          37          53          52
         4          37          38          54          53
         4          38          39          55          54
         4          39          40          56          55
         4          40          41          57          56
         4          41          42          58          57
         4          42          43          59          58
         4          43          44          60          59
         4          44          45          61          60
         4          45          46          62          61
         4          46          47          63          62
         4          48          49          65          64
         4          49          50          66          65
         4          50          51          67          66
         4          51          52          68          67
         4          52          53          69          68
         4          53          54          70          69
         4          54          55          71          70
         4          55          56          72          71
         4          56          57          73          72
         4          57          58          74          73
         4          58          59          75          74
         4          59          60          76          75
         4          60          61          77          76
         4          61          62          78          77
         4          62          63          79          78
         4          64          65          81          80
         4          65          66          82          81
         4          66          67          83          82
         4          67          68          84          83
         4          68          69          85          84
         4          69          70          86          85
         4          70          71          87          86
         4          71          72          88          87
         4          72          73          89          88
         4          73          74          90          89
         4          74          75          91          90
         4          75          76          92          91
         4          76          77          93          92
         4          77          78          94          93
         4          78          79          95          94
         4          80          81          97          96
         4          81          82          98          97
         4          82          83          99          98
         4          83          84         100          99
         4          84          85         101         100
         4          85          86         102         101
         4          86          87         103         102
         4          87          88         104         103
         4          88          89         105         104
         4          89          90         106         105
         4          90          91         107         106
         4          91          92         108         107
         4          92          93         109         108
         4          93          94         110         109
         4          94          95         111         110
         4          96          97         113         112
         4          97          98         114         113
         4          98          99         115         114
         4          99         100         116         115
         4         100         101         117         116
         4         101         102         118         117
         4         102         103         119         118
         4         103         104         120         119
         4         104         105         121         120
         4         105         106         122         121
         4         106         107         123         122
         4         107         108         124         123
         4         108         109         125         124
         4         109         110         126         125
         4         110         111         127         126
         4         112         113         129         128
         4         113         114         130         129
         4         114         115         131         130
         4         115         116         132         131
         4         116         117         133         132
         4         117         118         134         133
         4         118         119         135         134
         4         119         120         136         135
         4         120         121         137         136
         4         121         122         138         137
         4         122         123         139         138
         4         123         124         140         139
         4         124         125         141         140
         4         125         126         142         141
         4         126         127         143         142
         4         128         129         145         144
         4         129         130         146         145
         4         130         131         147         146
         4         131         132         148         147
         4         132         133         149         148
         4         133         134         150         149
         4         134         135         151         150
         4         135         136         152         151
         4         136         137         153         152
         4         137         138         154         153
         4         138         139         155         154
         4         139         140         156         155
         4         140         141         157         156
         4         141         142         158         157
         4         142         143         159         158
         4         144         145         161         160
         4         145         146         162         161
         4         146         147         163         162
         4         147         148         164         163
         4         148         149         165         164
         4         149         150         166         165
         4         150         151         167         166
         4         151         152         168         167
         4         152         153         169         168
         4         153         154         170         169
         4         154         155         171         170
         4         155         156         172         171
         4         156         157         173         172
         4         157         158         174         173
         4         158         159         175         174
         4         160         161         177         176
         4         161         162         178         177
         4         162         163         179         178
         4         163         164         180         179
         4         164         165         181         180
         4         165         166         182         181
         4         166         167         183         182
         4         167         168         184         183
         4         168         169         185         184
         4         169         170         186         185
         4         170         171         187         186
         4         171         172         188         187
         4         172         173         189         188
         4         173         174         190         189
         4         174         175         191         190
         4         176         177         193         192
         4         177         178         194         193
         4         178         179         195         194
         4         179         180         196         195
         4         180         181         197         196
         4         181         182         198         197
         4         182         183         199         198
         4         183         184         200         199
         4         184         185         201         200
         4         185         186         202         201
         4         186         187         203         202
         4         187         188         204         203
         4         188         189         205         204
         4         189         190         206         205
         4         190         191         207         206
         4         192         193         209         208
         4         193         194         210         209
         4         194         195         211         210
         4         195         196         212         211
         4         196         197         213         212
         4         197         198         214         213
         4         198         199         215         214
         4         199         200         216         215
         4         200         201         217         216
         4         201         202         218         217
         4         202         203         219         218
         4         203         204         220         219
         4         204         205         221         220
         4         205         206         222         221
         4         206         207         223         222
         4         208         209         225         224
         4         209         210         226         225
         4         210         211         227         226
         4         211         212         228         227
         4         212         213         229         228
         4         213         214         230         229
         4         214         215         231         230
         4         215         216         232         231
         4         216         217         233         232
         4         217         218         234         233
         4         218         219         235         234
         4         219         220         236         235
         4         220         221         237         236
         4         221         222         238         237
         4         222         223         239         238
         4         224         225         241         240
         4         225         226         242         241
         4         226         227         243         242
         4         227         228         244         243
         4         228         229         245         244
         4         229         230         246         245
         4         230         231         247         246
         4         231         232         248         247
         4         232         233         249         248
         4         233         234         250         249
         4         234         235         251         250
         4         235         236         252         251
         4         236         237         253         252
         4         237         238         254         253
         4         238         239         255         254
         4         240         241         257         256
         4         241         242         258         257
         4         242         243         259         258
         4         243         244         260         259
         4         244         245         261         260
         4         245         246         262         261
         4         246         247         263         262
         4         247         248         264         263
         4         248         249         265         264
         4         249         250         266         265
         4         250         251         267         266
         4         251         252         268         267
         4         252         253         269         268
         4         253         254         270         269
         4         254         255         271         270
         4         256         257         273         272
         4         257         258         274         273
         4         258         259         275         274
         4         259         260         276         275
         4         260         261         277         276
         4         261         262         278         277
         4         262         263         279         278
         4         263         264         280         279
         4         264         265         281         280
         4         265         266         282         281
         4         266         267         283         282
         4         267         268         284         283
         4         268         269         285         284
         4         269         270         286         285
         4         270         271         287         286
         4         272         273         289         288
         4         273         274         290         289
         4         274         275         291         290
         4         275         276         292         291
         4         276         277         293         292
         4         277         278         294         293
         4         278         279         295         294
         4         279         280         296         295
         4         280         281         297         296
         4         281         282         298         297
         4         282         283         299         298
         4         283         284         300         299
         4         284         285         301         300
         4         285         286         302         301
         4         286         287         303         302
         4         288         289         305         304
         4         289         290         306         305
         4         290         291         307         306
         4         291         292         308         307
         4         292         293         309         308
         4         293         294         310         309
         4         294         295         311         310
         4         295         296         312         311
         4         296         297         313         312
         4         297         298         314         313
         4         298         299         315         314
         4         299         300         316         315
         4         300         301         317         316
         4         301         302         318         317
         4         302         303         319         318
         4         304         305         321         320
         4         305         306         322         321
         4         306         307         323         322
         4         307         308         324         323
         4         308         309         325         324
         4         309         310         326         325
         4         310         311         327         326
         4         311         312         328         327
         4         312         313         329         328
         4         313         314         330         329
         4         314         315         331         330
         4         315         316         332         331
         4         316         317         333         332
         4         317         318         334         333
         4         318         319         335         334
         4         320         321         337         336
         4         321         322         338         337
         4         322         323         339         338
         4         323         324         340         339
         4         324         325         341         340
         4         325         326         342         341
         4         326         327         343         342
         4         327         328         344         343
         4         328         329         345         344
         4         329         330         346         345
         4         330         331         347         346
         4         331         332         348         347
         4         332         333         349         348
         4         333         334         350         349
         4         334         335         351         350
         4         336         337         353         352
         4         337         338         354         353
         4         338         339         355         354
         4         339         340         356         355
         4         340         341         357         356
         4         341         342         358         357
         4         342         343         359         358
         4         343         344         360         359
         4         344         345         361         360
         4         345         346         362         361
         4         346         347         363         362
         4         347         348         364         363
         4         348         349         365         364
         4         349         350         366         365
         4         350         351         367         366
         4         352         353         369         368
         4         353         354         370         369
         4         354         355         371         370
         4         355         356         372         371
         4         356         357         373         372
         4         357         358         374         373
         4         358         359         375         374
         4         359         360         376         375
         4         360         361         377         376
         4         361         362         378         377
         4         362         363         379         378
         4         363         364         380         379
         4         364         365         381         380
         4         365         366         382         381
         4         366         367         383         382
         4         368         369         385         384
         4         369         370         386         385
         4         370         371         387         386
         4         371         372         388         387
         4         372         373         389         388
         4         373         374         390         389
         4         374         375         391         390
         4         375         376         392         391
         4         376         377         393         392
         4         377         378         394         393
         4         378         379         395         394
         4         379         380         396         395
         4         380         381         397         396
         4         381         382         398         397
         4         382         383         399         398
         4         384         385         401         400
         4         385         386         402         401
         4         386         387         403         402
         4         387         388         404         403
         4         388         389         405         404
         4         389         390         406         405
         4         390         391         407         406
         4         391         392         408         407
         4         392         393         409         408
         4         393         394         410         409
         4         394         395         411         410
         4         395         396         412         411
         4         396         397         413         412
         4         397         398         414         413
         4         398         399         415         414
         4         400         401         417         416
         4         401         402         418         417
         4         402         403         419         418
         4         403         404         420         419
         4         404         405         421         420
         4         405         406         422         421
         4         406         407         423         422
         4         407         408         424         423
         4         408         409         425         424
         4         409         410         426         425
         4         410         411         427         426
         4         411         412         428         427
         4         412         413         429         428
         4         413         414         430         429
         4         414         415         431         430
         4         416         417         433         432
         4         417         418         434         433
         4         418         419         435         434
         4         419         420         436         435
         4         420         421         437         436
         4         421         422         438         437
         4         422         423         439         438
         4         423         424         440         439
         4         424         425         441         440
         4         425         426         442         441
         4         426         427         443         442
         4         427         428         444         443
         4         428         429         445         444
         4         429         430         446         445
         4         430         431         447         446
         4         432         433         449         448
         4         433         434         450         449
         4         434         435         451         450
         4         435         436         452         451
         4         436         437         453         452
         4         437         438         454         453
         4         438         439         455         454
         4         439         440         456         455
         4         440         441         457         456
         4         441         442         458         457
         4         442         443         459         458
         4         443         444         460         459
         4         444         445         461         460
         4         445         446         462         461
         4         446         447         463         462
         4         448         449         465         464
         4         449         450         466         465
         4         450         451         467         466
         4         451         452         468         467
         4         452         453         469         468
         4         453         454         470         469
         4         454         455         471         470
         4         455         456         472         471
         4         456         457         473         472
         4         457         458         474         473
         4         458         459         475         474
         4         459         460         476         475
         4         460         461         477         476
         4         461         462         478         477
         4         462         463         479         478
         4         464         465         481         480
         4         465         466         482         481
         4         466         467         483         482
         4         467         468         484         483
         4         468         469         485         484
         4         469         470         486         485
         4         470         471         487         486
         4         471         472         488         487
         4         472         473         489         488
         4         473         474         490         489
         4         474         475         491         490
         4         475         476         492         491
         4         476         477         493         492
         4         477         478         494         493
         4         478         479         495         494
CELL_TYPES        450
9
9
9
9
9
9
9
9
9
9
9
9
9
9
9
9
9
9
9
9
9
9
9
9
9
9
9
9
9
9
9
9
9
9
9
9
9
9
9
9
9
9
9
9
9
9
9
9
9
9
9
9
9
9
9
9
9
9
9
9
9
9
9
9
9
9
9
9
9
9
9
9
9
9
9
9
9
9
9
9
9
9
9
9
9
9
9
9
9
9
9
9
9
9
9
9
9
9
9
9
9
9
9
9
9
9
9
9
9
9
9
9
9
9
9
9
9
9
9
9
9
9
9
9
9
9
9
9
9
9
9
9
9
9
9
9
9
9
9
9
9
9
9
9
9
9
9
9
9
9
9
9
9
9
9
9
9
9
9
9
9
9
9
9
9
9
9
9
9
9
9
9
9
9
9
9
9
9
9
9
9
9
9
9
9
9
9
9
9
9
9
9
9
9
9
9
9
9
9
9
9
9
9
9
9
9
9
9
9
9
9
9
9
9
9
9
9
9
9
9
9
9
9
9
9
9
9
9
9
9
9
9
9
9
9
9
9
9
9
9
9
9
9
9
9
9
9
9
9
9
9
9
9
9
9
9
9
9
9
9
9
9
9
9
9
9
9
9
9
9
9
9
9
9
9
9
9
9
9
9
9
9
9
9
9
9
9
9
9
9
9
9
9
9
9
9
9
9
9
9
9
9
9
9
9
9
9
9
9
9
9
9
9
9
9
9
9
9
9
9
9
9
9
9
9
9
9
9
9
9
9
9
9
9
9
9
9
9
9
9
9
9
9
9
9
9
9
9
9
9
9
9
9
9
9
9
9
9
9
9
9
9
9
9
9
9
9
9
9
9
9
9
9
9
9
9
9
9
9
9
9
9
9
9
9
9
9
9
9
9
9
9
9
9
9
9
9
9
9
9
9
9
9
9
9
9
9
9
9
9
9
9
9
9
9
9
9
9
9
9
9
9
9
9
9
9
9
9
9
9
9
9
9
9
9
9
9
9
9
9
9
9
9
9
9
9
9
9
9
9
POINT_DATA       496
SCALARS p double 
LOOKUP_TABLE default
   59938196.3899446     
   59938618.5136310     
   59939681.2661819     
   59941195.8282802     
   59943033.6539119     
   59945093.4639078     
   59947288.5068353     
   59949542.2071651     
   59951787.1703513     
   59953965.4279751     
   59956028.8848768     
   59957938.9557246     
   59959663.1782953     
   59961162.5878243     
   59962351.7712945     
   59962978.8356457     
   59937957.8174043     
   59938397.1356209     
   59939494.5576923     
   59941049.4712847     
   59942928.4228487     
   59945027.8220780     
   59947259.6099983     
   59949546.3005560     
   59951819.7424681     
   59954021.2605162     
   59956102.0637118     
   59958022.8982690     
   59959750.7765350     
   59961246.7145010     
   59962426.8262833     
   59963045.2369563     
   59937241.1084130     
   59937732.5416221     
   59938934.9181836     
   59940611.8541293     
   59942615.0676070     
   59944834.0279463     
   59947176.7789138     
   59949563.1364304     
   59951922.7109968     
   59954194.7323725     
   59956328.3370108     
   59958282.2662856     
   59960021.9370442     
   59961508.2592243     
   59962661.8303896     
   59963254.6323361     
   59936043.5497753     
   59936623.5948223     
   59938004.0119408     
   59939887.5013466     
   59942100.7204169     
   59944521.5508288     
   59947051.6274932     
   59949606.3834404     
   59952111.8076855     
   59954503.7252751     
   59956727.8705182     
   59958739.6470164     
   59960501.7491541     
   59961974.7473169     
   59963086.3777819     
   59963637.7042661     
   59934361.4920729     
   59935069.2126964     
   59936705.3011047     
   59938884.4962172     
   59941397.6605488     
   59944106.4198464     
   59946903.6253406     
   59949698.8199922     
   59952413.1592480     
   59954977.8928691     
   59957334.1101381     
   59959432.5563158     
   59961231.9842682     
   59962692.1412440     
   59963750.0316460     
   59964245.9354196     
   59932191.6673075     
   59933069.5906907     
   59935045.0786403     
   59937615.2903627     
   59940523.8943350     
   59943611.5810084     
   59946760.2478089     
   59949872.3030172     
   59952863.1122394     
   59955658.3922053     
   59958193.4837807     
   59960413.1856074     
   59962270.9677698     
   59963724.9094426     
   59964722.6252783     
   59965152.0717436     
   59929533.0467164     
   59930627.9225316     
   59933033.9131547     
   59936097.8284526     
   59939503.9510748     
   59943067.3717110     
   59946657.1482651     
   59950167.6707941     
   59953507.9164030     
   59956597.4176419     
   59959364.8765773     
   59961747.9269783     
   59963693.2717856     
   59965155.9947513     
   59966094.5620324     
   59966450.6563292     
   59926389.2412708     
   59927752.6155294     
   59930688.4991303     
   59934356.9780276     
   59938369.8803980     
   59942512.0906040     
   59946638.3183868     
   59950634.5290002     
   59954403.1956686     
   59957857.4450097     
   59960918.7672247     
   59963516.5480563     
   59965589.0908057     
   59967086.5427878     
   59967976.9801356     
   59968258.5073449     
   59922771.4324282     
   59924459.9861797     
   59928033.8976962     
   59932426.2510402     
   59937162.4365628     
   59941992.6408906     
   59946756.1991491     
   59951330.8595233     
   59955613.1174208     
   59959510.0650798     
   59962935.8740901     
   59965810.8401300     
   59968063.1073975     
   59969635.1926978     
   59970501.5908315     
   59970714.9578283     
   59918701.7934351     
   59920777.3990857     
   59925106.1412527     
   59930349.8025449     
   59935932.4411660     
   59941565.2330954     
   59947071.7095462     
   59952322.3875347     
   59957209.1546241     
   59961634.2552670     
   59965505.1151046     
   59968732.5052024     
   59971232.5873231     
   59972936.6589401     
   59973819.9234557     
   59973981.6021464     
   59914217.3191612     
   59916746.7797616     
   59921955.1620710     
   59928184.6973576     
   59934742.3334043     
   59941296.1547152     
   59947654.1768367     
   59953681.6474738     
   59959268.3239137     
   59964313.9074305     
   59968720.6339742     
   59972389.9771125     
   59975224.3574008     
   59977139.2369465     
   59978101.6117807     
   59978241.1959170     
   59909373.9236290     
   59912428.3903458     
   59918647.9955606     
   59926003.4555633     
   59933667.9554469     
   59941262.6574964     
   59948581.1881041     
   59955486.7078278     
   59961870.7786933     
   59967634.3983281     
   59972677.5852575     
   59976893.7845524     
   59980170.2091895     
   59982400.7394739     
   59983531.2228790     
   59983695.2232534     
   59904250.5908033     
   59907904.7120659     
   59915272.2142269     
   59923896.9367750     
   59932800.6941639     
   59941554.0906960     
   59949938.4474847     
   59957819.5541941     
   59965096.6432266     
   59971677.9587793     
   59977466.3006264     
   59982349.9547285     
   59986200.1287519     
   59988882.2033189     
   59990302.9503165     
   59990559.4642085     
   59898953.2841350     
   59903284.2432345     
   59911939.5895715     
   59921977.7252849     
   59932250.2315708     
   59942273.5375830     
   59951819.8278719     
   59960764.1970212     
   59969021.9955611     
   59976517.5691489     
   59983164.3760231     
   59988850.8189953     
   59993432.5658894     
   59996738.4823389     
   59998612.2501815     
   59999056.6483178     
   59893618.2550141     
   59898705.0258330     
   59908790.0951578     
   59920384.3737613     
   59932148.3774697     
   59943540.4138281     
   59954327.9614707     
   59964404.6697863     
   59973713.9464379     
   59982209.0832359     
   59989826.1218223     
   59996462.4069180     
   60001960.7080412     
   60006104.5383451     
   60008643.1643814     
   60009404.9405614     
   59888414.3845879     
   59894337.8145910     
   59905996.6239701     
   59919287.2163356     
   59932654.8137237     
   59945494.7816831     
   59957575.9242945     
   59968823.2119388     
   59979224.8150720     
   59988781.2587889     
   59997468.7016075     
   60005207.3890814     
   60011833.3857562     
   60017075.8143120     
   60020549.6034520     
   60021800.5284236     
   59883544.3350825     
   59890389.1074834     
   59903771.3179289     
   59918897.0725668     
   59933966.1239244     
   59948304.5296777     
   59961690.8134629     
   59974099.0601214     
   59985585.4508605     
   59996223.3416792     
   60006054.1418764     
   60015042.2280226     
   60023028.7554699     
   60029680.4425366     
   60034428.1558717     
   60036391.8722854     
   59879244.7400294     
   59887104.9637628     
   59902375.4036546     
   59919479.1747173     
   59936330.2533134     
   59952177.0114411     
   59966820.1952029     
   59980308.3045545     
   59992797.7256477     
   60004469.7776644     
   60015466.2021892     
   60025826.7740240     
   60035418.1762279     
   60043840.0325122     
   60050278.8445591     
   60053242.0434530     
   59875786.7277067     
   59884778.0041471     
   59902136.2342548     
   59921376.2255785     
   59940069.4748696     
   59957376.9922958     
   59973142.2163539     
   59987524.9334801     
   60000825.9279706     
   60013381.3929937     
   60025480.7755106     
   60037283.8884643     
   60048716.4976972     
   60059314.0271052     
   60067948.1896665     
   60072273.5274096     
   59873480.2832979     
   59883762.8501749     
   59903478.3412944     
   59925046.6621738     
   59945615.5621388     
   59964252.0550383     
   59980878.8003932     
   59995821.7651805     
   60009585.6765442     
   60022721.6120375     
   60035727.7710467     
   60048945.4978428     
   60062412.8104388     
   60075619.2869322     
   60087044.8655827     
   60093185.7731734     
   59872690.2084253     
   59884510.5335767     
   59906980.1434710     
   59931126.2181901     
   59953559.4241031     
   59973262.7562324     
   59990306.6202111     
   60005265.5629282     
   60018925.4925196     
   60032123.7713556     
   60045640.3948783     
   60060078.9150732     
   60075671.3994375     
   60091909.8099667     
   60106809.6301655     
   60115326.8963933     
   59873878.9375602     
   59887641.2589283     
   59913473.6930491     
   59940518.9698360     
   59964708.2535261     
   59985001.6966402     
   60001746.8017565     
   60015888.2696081     
   60028586.0164069     
   60041037.6808107     
   60054381.3625420     
   60069580.6688790     
   60087183.2212395     
   60106787.0739310     
   60125902.2056647     
   60137480.7958700     
   59877702.4076834     
   59894086.3259195     
   59924204.0842521     
   59954504.0267304     
   59980109.2646144     
   60000146.8412029     
   60015476.8472339     
   60027582.7690824     
   60038092.9220979     
   60048619.2925968     
   60060715.2278552     
   60075806.2236071     
   60094925.7118116     
   60117979.3973122     
   60142024.7948090     
   60157484.0400043     
   59885190.8999846     
   59905329.2740841     
   59941024.2370507     
   59974758.7176559     
   60000891.8402136     
   60019186.4560899     
   60031408.5114609     
   60039781.2040840     
   60046457.9221770     
   60053454.1989952     
   60062731.9934408     
   60076247.0176579     
   60095730.4812295     
   60121754.3537999     
   60151202.9481325     
   60171475.9779511     
   59897995.7235577     
   59923685.1814760     
   59966392.5229392     
   60002902.4289504     
   60027467.2631272     
   60041462.2713307     
   60048110.9262131     
   60050529.3414871     
   60051331.8534678     
   60052789.6453932     
   60057128.9134228     
   60066791.2087872     
   60084396.6953807     
   60111748.5768037     
   60146312.7229697     
   60172320.8810336     
   59918332.8668760     
   59952046.6332845     
   60002123.8769128     
   60038237.9142814     
   60056759.6347905     
   60062307.5483458     
   60060053.3507679     
   60053899.9076625     
   60046605.0397778     
   60040316.2749667     
   60037158.0352766     
   60039760.0600323     
   60051617.6527468     
   60076438.7289095     
   60113894.0443407     
   60146095.6816855     
   59946646.6638353     
   59990298.1857834     
   60043034.0804382     
   60069674.5943073     
   60073843.2561940     
   60065022.4608837     
   60050024.1743522     
   60032828.8551458     
   60015600.2914757     
   59999709.6165871     
   59986540.3446966     
   59978249.7793366     
   59978527.5696220     
   59993253.6500807     
   60026928.2605660     
   60063981.0516265     
   59968174.2592456     
   60017047.8480977     
   60052713.7505065     
   60050583.0004915     
   60028382.8197176     
   59998872.1172072     
   59968361.5242494     
   59939134.5492609     
   59911662.7426720     
   59885777.3781894     
   59861365.3753285     
   59839041.1510187     
   59821215.3610204     
   59813515.7846020     
   59828087.2942325     
   59862686.6612757     
   59892772.2658797     
   59913966.1737523     
   59883000.5088013     
   59827115.8146044     
   59769616.0163400     
   59718555.7539820     
   59674670.4282112     
   59636462.7719121     
   59601932.5465248     
   59569053.2807307     
   59535874.0462942     
   59500624.0178593     
   59462208.6217019     
   59421914.3375060     
   59387254.9672748     
   59398286.1473440     
   59295436.2327509     
   59171958.6294026     
   59038192.8794884     
   58936571.1970523     
   58862310.4989107     
   58806966.4862156     
   58763887.9093147     
   58728424.9065323     
   58697145.2701477     
   58667204.0379724     
   58635813.7828037     
   58599722.6989423     
   58554564.2445804     
   58494310.6429661     
   58410569.3464294     
   58309589.9164602     
   55966666.6666667     
   55966666.6666667     
   55966666.6666667     
   55966666.6666667     
   55966666.6666667     
   55966666.6666667     
   55966666.6666667     
   55966666.6666667     
   55966666.6666667     
   55966666.6666667     
   55966666.6666667     
   55966666.6666667     
   55966666.6666667     
   55966666.6666667     
   55966666.6666667     
   55966666.6666667     
VECTORS u double 
    0.00000E+00        -0.28350E-01         0.00000E+00
    0.00000E+00        -0.24666E-01         0.00000E+00
    0.00000E+00        -0.21087E-01         0.00000E+00
    0.00000E+00        -0.17694E-01         0.00000E+00
    0.00000E+00        -0.14549E-01         0.00000E+00
    0.00000E+00        -0.11698E-01         0.00000E+00
    0.00000E+00        -0.91684E-02         0.00000E+00
    0.00000E+00        -0.69767E-02         0.00000E+00
    0.00000E+00        -0.51249E-02         0.00000E+00
    0.00000E+00        -0.36040E-02         0.00000E+00
    0.00000E+00        -0.23954E-02         0.00000E+00
    0.00000E+00        -0.14737E-02         0.00000E+00
    0.00000E+00        -0.80783E-03         0.00000E+00
    0.00000E+00        -0.36431E-03         0.00000E+00
    0.00000E+00        -0.10791E-03         0.00000E+00
    0.00000E+00         0.00000E+00         0.00000E+00
    0.37317E-02        -0.28362E-01         0.00000E+00
    0.36598E-02        -0.24664E-01         0.00000E+00
    0.35048E-02        -0.21073E-01         0.00000E+00
    0.32818E-02        -0.17671E-01         0.00000E+00
    0.30067E-02        -0.14519E-01         0.00000E+00
    0.26952E-02        -0.11663E-01         0.00000E+00
    0.23620E-02        -0.91322E-02         0.00000E+00
    0.20205E-02        -0.69410E-02         0.00000E+00
    0.16827E-02        -0.50916E-02         0.00000E+00
    0.13591E-02        -0.35746E-02         0.00000E+00
    0.10580E-02        -0.23712E-02         0.00000E+00
    0.78537E-03        -0.14553E-02         0.00000E+00
    0.54467E-03        -0.79557E-03         0.00000E+00
    0.33626E-03        -0.35762E-03         0.00000E+00
    0.15700E-03        -0.10555E-03         0.00000E+00
    0.00000E+00         0.00000E+00         0.00000E+00
    0.74968E-02        -0.28402E-01         0.00000E+00
    0.73478E-02        -0.24661E-01         0.00000E+00
    0.70319E-02        -0.21034E-01         0.00000E+00
    0.65801E-02        -0.17603E-01         0.00000E+00
    0.60245E-02        -0.14431E-01         0.00000E+00
    0.53964E-02        -0.11562E-01         0.00000E+00
    0.47252E-02        -0.90257E-02         0.00000E+00
    0.40380E-02        -0.68357E-02         0.00000E+00
    0.33591E-02        -0.49932E-02         0.00000E+00
    0.27091E-02        -0.34877E-02         0.00000E+00
    0.21049E-02        -0.22995E-02         0.00000E+00
    0.15587E-02        -0.14010E-02         0.00000E+00
    0.10776E-02        -0.75918E-03         0.00000E+00
    0.66270E-03        -0.33775E-03         0.00000E+00
    0.30798E-03        -0.98531E-04         0.00000E+00
    0.00000E+00         0.00000E+00         0.00000E+00
    0.11329E-01        -0.28477E-01         0.00000E+00
    0.11092E-01        -0.24665E-01         0.00000E+00
    0.10604E-01        -0.20977E-01         0.00000E+00
    0.99118E-02        -0.17498E-01         0.00000E+00
    0.90646E-02        -0.14291E-01         0.00000E+00
    0.81096E-02        -0.11401E-01         0.00000E+00
    0.70913E-02        -0.88551E-02         0.00000E+00
    0.60504E-02        -0.66664E-02         0.00000E+00
    0.50233E-02        -0.48344E-02         0.00000E+00
    0.40414E-02        -0.33472E-02         0.00000E+00
    0.31302E-02        -0.21832E-02         0.00000E+00
    0.23085E-02        -0.13126E-02         0.00000E+00
    0.15877E-02        -0.69984E-03         0.00000E+00
    0.96985E-03        -0.30526E-03         0.00000E+00
    0.44707E-03        -0.87021E-04         0.00000E+00
    0.00000E+00         0.00000E+00         0.00000E+00
    0.15263E-01        -0.28600E-01         0.00000E+00
    0.14921E-01        -0.24688E-01         0.00000E+00
    0.14243E-01        -0.20914E-01         0.00000E+00
    0.13294E-01        -0.17368E-01         0.00000E+00
    0.12139E-01        -0.14112E-01         0.00000E+00
    0.10842E-01        -0.11191E-01         0.00000E+00
    0.94626E-02        -0.86311E-02         0.00000E+00
    0.80561E-02        -0.64426E-02         0.00000E+00
    0.66708E-02        -0.46235E-02         0.00000E+00
    0.53489E-02        -0.31598E-02         0.00000E+00
    0.41248E-02        -0.20274E-02         0.00000E+00
    0.30246E-02        -0.11938E-02         0.00000E+00
    0.20645E-02        -0.61965E-03         0.00000E+00
    0.12489E-02        -0.26117E-03         0.00000E+00
    0.56875E-03        -0.71337E-04         0.00000E+00
    0.00000E+00         0.00000E+00         0.00000E+00
    0.19334E-01        -0.28790E-01         0.00000E+00
    0.18864E-01        -0.24749E-01         0.00000E+00
    0.17973E-01        -0.20865E-01         0.00000E+00
    0.16743E-01        -0.17231E-01         0.00000E+00
    0.15258E-01        -0.13912E-01         0.00000E+00
    0.13600E-01        -0.10951E-01         0.00000E+00
    0.11843E-01        -0.83700E-02         0.00000E+00
    0.10055E-01        -0.61790E-02         0.00000E+00
    0.82987E-02        -0.43731E-02         0.00000E+00
    0.66261E-02        -0.29357E-02         0.00000E+00
    0.50815E-02        -0.18398E-02         0.00000E+00
    0.36986E-02        -0.10497E-02         0.00000E+00
    0.24995E-02        -0.52182E-03         0.00000E+00
    0.14921E-02        -0.20703E-03         0.00000E+00
    0.66804E-03        -0.51970E-04         0.00000E+00
    0.00000E+00         0.00000E+00         0.00000E+00
    0.23577E-01        -0.29072E-01         0.00000E+00
    0.22950E-01        -0.24873E-01         0.00000E+00
    0.21815E-01        -0.20854E-01         0.00000E+00
    0.20277E-01        -0.17113E-01         0.00000E+00
    0.18437E-01        -0.13716E-01         0.00000E+00
    0.16393E-01        -0.10703E-01         0.00000E+00
    0.14237E-01        -0.80940E-02         0.00000E+00
    0.12050E-01        -0.58959E-02         0.00000E+00
    0.99069E-02        -0.41007E-02         0.00000E+00
    0.78709E-02        -0.26892E-02         0.00000E+00
    0.59960E-02        -0.16315E-02         0.00000E+00
    0.43247E-02        -0.88805E-03         0.00000E+00
    0.28861E-02        -0.41100E-03         0.00000E+00
    0.16935E-02        -0.14512E-03         0.00000E+00
    0.74080E-03        -0.29637E-04         0.00000E+00
    0.00000E+00         0.00000E+00         0.00000E+00
    0.28030E-01        -0.29480E-01         0.00000E+00
    0.27208E-01        -0.25094E-01         0.00000E+00
    0.25794E-01        -0.20914E-01         0.00000E+00
    0.23913E-01        -0.17047E-01         0.00000E+00
    0.21687E-01        -0.13557E-01         0.00000E+00
    0.19231E-01        -0.10480E-01         0.00000E+00
    0.16652E-01        -0.78335E-02         0.00000E+00
    0.14046E-01        -0.56206E-02         0.00000E+00
    0.11499E-01        -0.38301E-02         0.00000E+00
    0.90846E-02        -0.24399E-02         0.00000E+00
    0.68682E-02        -0.14173E-02         0.00000E+00
    0.49012E-02        -0.71934E-03         0.00000E+00
    0.32213E-02        -0.29361E-03         0.00000E+00
    0.18491E-02        -0.78610E-04         0.00000E+00
    0.78404E-03        -0.53539E-05         0.00000E+00
    0.00000E+00         0.00000E+00         0.00000E+00
    0.32730E-01        -0.30054E-01         0.00000E+00
    0.31668E-01        -0.25452E-01         0.00000E+00
    0.29932E-01        -0.21089E-01         0.00000E+00
    0.27669E-01        -0.17076E-01         0.00000E+00
    0.25022E-01        -0.13477E-01         0.00000E+00
    0.22125E-01        -0.10323E-01         0.00000E+00
    0.19098E-01        -0.76276E-02         0.00000E+00
    0.16052E-01        -0.53889E-02         0.00000E+00
    0.13082E-01        -0.35926E-02         0.00000E+00
    0.10274E-01        -0.22138E-02         0.00000E+00
    0.77031E-02        -0.12174E-02         0.00000E+00
    0.54311E-02        -0.55773E-03         0.00000E+00
    0.35061E-02        -0.17839E-03         0.00000E+00
    0.19585E-02        -0.11869E-04         0.00000E+00
    0.79645E-03         0.19474E-04         0.00000E+00
    0.00000E+00         0.00000E+00         0.00000E+00
    0.37714E-01        -0.30846E-01         0.00000E+00
    0.36358E-01        -0.26001E-01         0.00000E+00
    0.34250E-01        -0.21431E-01         0.00000E+00
    0.31562E-01        -0.17255E-01         0.00000E+00
    0.28458E-01        -0.13531E-01         0.00000E+00
    0.25088E-01        -0.10286E-01         0.00000E+00
    0.21589E-01        -0.75269E-02         0.00000E+00
    0.18080E-01        -0.52472E-02         0.00000E+00
    0.14669E-01        -0.34289E-02         0.00000E+00
    0.11452E-01        -0.20448E-02         0.00000E+00
    0.85125E-02        -0.10582E-02         0.00000E+00
    0.59242E-02        -0.42196E-03         0.00000E+00
    0.37472E-02        -0.77033E-04         0.00000E+00
    0.20251E-02         0.49227E-04         0.00000E+00
    0.77891E-03         0.42932E-04         0.00000E+00
    0.00000E+00         0.00000E+00         0.00000E+00
    0.43020E-01        -0.31918E-01         0.00000E+00
    0.41305E-01        -0.26804E-01         0.00000E+00
    0.38769E-01        -0.22007E-01         0.00000E+00
    0.35609E-01        -0.17649E-01         0.00000E+00
    0.32009E-01        -0.13786E-01         0.00000E+00
    0.28136E-01        -0.10434E-01         0.00000E+00
    0.24139E-01        -0.75950E-02         0.00000E+00
    0.20149E-01        -0.52544E-02         0.00000E+00
    0.16282E-01        -0.33912E-02         0.00000E+00
    0.12640E-01        -0.19766E-02         0.00000E+00
    0.93170E-02        -0.97388E-03         0.00000E+00
    0.63986E-02        -0.33655E-03         0.00000E+00
    0.39588E-02        -0.49321E-05         0.00000E+00
    0.20579E-02         0.96856E-04         0.00000E+00
    0.73532E-03         0.62450E-04         0.00000E+00
    0.00000E+00         0.00000E+00         0.00000E+00
    0.48682E-01        -0.33341E-01         0.00000E+00
    0.46535E-01        -0.27936E-01         0.00000E+00
    0.43508E-01        -0.22895E-01         0.00000E+00
    0.39824E-01        -0.18342E-01         0.00000E+00
    0.35689E-01        -0.14325E-01         0.00000E+00
    0.31285E-01        -0.10851E-01         0.00000E+00
    0.26771E-01        -0.79112E-02         0.00000E+00
    0.22285E-01        -0.54843E-02         0.00000E+00
    0.17947E-01        -0.35452E-02         0.00000E+00
    0.13868E-01        -0.20648E-02         0.00000E+00
    0.10148E-01        -0.10085E-02         0.00000E+00
    0.68835E-02        -0.33323E-03         0.00000E+00
    0.41649E-02         0.17835E-04         0.00000E+00
    0.20735E-02         0.12073E-03         0.00000E+00
    0.67351E-03         0.74620E-04         0.00000E+00
    0.00000E+00         0.00000E+00         0.00000E+00
    0.54733E-01        -0.35203E-01         0.00000E+00
    0.52068E-01        -0.29490E-01         0.00000E+00
    0.48481E-01        -0.24190E-01         0.00000E+00
    0.44221E-01        -0.19431E-01         0.00000E+00
    0.39514E-01        -0.15249E-01         0.00000E+00
    0.34554E-01        -0.11637E-01         0.00000E+00
    0.29509E-01        -0.85732E-02         0.00000E+00
    0.24519E-01        -0.60284E-02         0.00000E+00
    0.19706E-01        -0.39732E-02         0.00000E+00
    0.15181E-01        -0.23795E-02         0.00000E+00
    0.11051E-01        -0.12178E-02         0.00000E+00
    0.74213E-02        -0.45254E-03         0.00000E+00
    0.44014E-02        -0.34631E-04         0.00000E+00
    0.20976E-02         0.10746E-03         0.00000E+00
    0.60656E-03         0.74967E-04         0.00000E+00
    0.00000E+00         0.00000E+00         0.00000E+00
    0.61200E-01        -0.37603E-01         0.00000E+00
    0.57921E-01        -0.31570E-01         0.00000E+00
    0.53699E-01        -0.26005E-01         0.00000E+00
    0.48808E-01        -0.21034E-01         0.00000E+00
    0.43495E-01        -0.16678E-01         0.00000E+00
    0.37963E-01        -0.12913E-01         0.00000E+00
    0.32382E-01        -0.96997E-02         0.00000E+00
    0.26891E-01        -0.69988E-02         0.00000E+00
    0.21606E-01        -0.47768E-02         0.00000E+00
    0.16636E-01        -0.30079E-02         0.00000E+00
    0.12086E-01        -0.16717E-02         0.00000E+00
    0.80718E-02        -0.74584E-03         0.00000E+00
    0.47199E-02        -0.19541E-03         0.00000E+00
    0.21680E-02         0.39803E-04         0.00000E+00
    0.55427E-03         0.57674E-04         0.00000E+00
    0.00000E+00         0.00000E+00         0.00000E+00
    0.68104E-01        -0.40655E-01         0.00000E+00
    0.64103E-01        -0.34298E-01         0.00000E+00
    0.59164E-01        -0.28469E-01         0.00000E+00
    0.53590E-01        -0.23288E-01         0.00000E+00
    0.47641E-01        -0.18755E-01         0.00000E+00
    0.41531E-01        -0.14823E-01         0.00000E+00
    0.35424E-01        -0.11433E-01         0.00000E+00
    0.29451E-01        -0.85316E-02         0.00000E+00
    0.23714E-01        -0.60799E-02         0.00000E+00
    0.18309E-01        -0.40574E-02         0.00000E+00
    0.13336E-01        -0.24573E-02         0.00000E+00
    0.89150E-02        -0.12775E-02         0.00000E+00
    0.51913E-02        -0.50637E-03         0.00000E+00
    0.23378E-02        -0.10429E-03         0.00000E+00
    0.54514E-03         0.15244E-04         0.00000E+00
    0.00000E+00         0.00000E+00         0.00000E+00
    0.75456E-01        -0.44487E-01         0.00000E+00
    0.70614E-01        -0.37814E-01         0.00000E+00
    0.64873E-01        -0.31731E-01         0.00000E+00
    0.58562E-01        -0.26351E-01         0.00000E+00
    0.51959E-01        -0.21646E-01         0.00000E+00
    0.45277E-01        -0.17539E-01         0.00000E+00
    0.38673E-01        -0.13943E-01         0.00000E+00
    0.32257E-01        -0.10789E-01         0.00000E+00
    0.26107E-01        -0.80323E-02         0.00000E+00
    0.20295E-01        -0.56587E-02         0.00000E+00
    0.14906E-01        -0.36813E-02         0.00000E+00
    0.10057E-01        -0.21274E-02         0.00000E+00
    0.59101E-02        -0.10200E-02         0.00000E+00
    0.26792E-02        -0.35271E-03         0.00000E+00
    0.61873E-03        -0.61908E-04         0.00000E+00
    0.00000E+00         0.00000E+00         0.00000E+00
    0.83258E-01        -0.49244E-01         0.00000E+00
    0.77443E-01        -0.42272E-01         0.00000E+00
    0.70808E-01        -0.35959E-01         0.00000E+00
    0.63711E-01        -0.30403E-01         0.00000E+00
    0.56443E-01        -0.25541E-01         0.00000E+00
    0.49217E-01        -0.21257E-01         0.00000E+00
    0.42170E-01        -0.17429E-01         0.00000E+00
    0.35378E-01        -0.13964E-01         0.00000E+00
    0.28881E-01        -0.10812E-01         0.00000E+00
    0.22713E-01        -0.79686E-02         0.00000E+00
    0.16929E-01        -0.54732E-02         0.00000E+00
    0.11633E-01        -0.33933E-02         0.00000E+00
    0.70002E-02        -0.18012E-02         0.00000E+00
    0.32883E-02        -0.74052E-03         0.00000E+00
    0.82859E-03        -0.18596E-03         0.00000E+00
    0.00000E+00         0.00000E+00         0.00000E+00
    0.91499E-01        -0.55082E-01         0.00000E+00
    0.84565E-01        -0.47847E-01         0.00000E+00
    0.76938E-01        -0.41343E-01         0.00000E+00
    0.69007E-01        -0.35651E-01         0.00000E+00
    0.61081E-01        -0.30661E-01         0.00000E+00
    0.53363E-01        -0.26205E-01         0.00000E+00
    0.45958E-01        -0.22119E-01         0.00000E+00
    0.38893E-01        -0.18279E-01         0.00000E+00
    0.32151E-01        -0.14627E-01         0.00000E+00
    0.25708E-01        -0.11172E-01         0.00000E+00
    0.19569E-01        -0.79876E-02         0.00000E+00
    0.13813E-01        -0.51939E-02         0.00000E+00
    0.86202E-02        -0.29303E-02         0.00000E+00
    0.42902E-02        -0.13114E-02         0.00000E+00
    0.12458E-02        -0.37232E-03         0.00000E+00
    0.00000E+00         0.00000E+00         0.00000E+00
    0.10015E+00        -0.62177E-01         0.00000E+00
    0.91942E-01        -0.54728E-01         0.00000E+00
    0.83215E-01        -0.48092E-01         0.00000E+00
    0.74407E-01        -0.42323E-01         0.00000E+00
    0.65846E-01        -0.37252E-01         0.00000E+00
    0.57718E-01        -0.32643E-01         0.00000E+00
    0.50082E-01        -0.28274E-01         0.00000E+00
    0.42893E-01        -0.23988E-01         0.00000E+00
    0.36052E-01        -0.19716E-01         0.00000E+00
    0.29451E-01        -0.15483E-01         0.00000E+00
    0.23027E-01        -0.11405E-01         0.00000E+00
    0.16810E-01        -0.76704E-02         0.00000E+00
    0.10970E-01        -0.45044E-02         0.00000E+00
    0.58458E-02        -0.21199E-02         0.00000E+00
    0.19633E-02        -0.64058E-03         0.00000E+00
    0.00000E+00         0.00000E+00         0.00000E+00
    0.10919E+00        -0.70721E-01         0.00000E+00
    0.99514E-01        -0.63128E-01         0.00000E+00
    0.89566E-01        -0.56442E-01         0.00000E+00
    0.79843E-01        -0.50681E-01         0.00000E+00
    0.70694E-01        -0.45594E-01         0.00000E+00
    0.62282E-01        -0.40858E-01         0.00000E+00
    0.54591E-01        -0.36183E-01         0.00000E+00
    0.47479E-01        -0.31370E-01         0.00000E+00
    0.40736E-01        -0.26339E-01         0.00000E+00
    0.34143E-01        -0.21138E-01         0.00000E+00
    0.27538E-01        -0.15932E-01         0.00000E+00
    0.20877E-01        -0.10988E-01         0.00000E+00
    0.14294E-01        -0.66416E-02         0.00000E+00
    0.81580E-02        -0.32339E-02         0.00000E+00
    0.31012E-02        -0.10158E-02         0.00000E+00
    0.00000E+00         0.00000E+00         0.00000E+00
    0.11855E+00        -0.80931E-01         0.00000E+00
    0.10721E+00        -0.73285E-01         0.00000E+00
    0.95896E-01        -0.66660E-01         0.00000E+00
    0.85223E-01        -0.61020E-01         0.00000E+00
    0.75570E-01        -0.56003E-01         0.00000E+00
    0.67049E-01        -0.51172E-01         0.00000E+00
    0.59542E-01        -0.46156E-01         0.00000E+00
    0.52770E-01        -0.40717E-01         0.00000E+00
    0.46378E-01        -0.34771E-01         0.00000E+00
    0.40008E-01        -0.28390E-01         0.00000E+00
    0.33370E-01        -0.21793E-01         0.00000E+00
    0.26310E-01        -0.15337E-01         0.00000E+00
    0.18891E-01        -0.94835E-02         0.00000E+00
    0.11480E-01        -0.47389E-02         0.00000E+00
    0.48134E-02        -0.15311E-02         0.00000E+00
    0.00000E+00         0.00000E+00         0.00000E+00
    0.12820E+00        -0.93062E-01         0.00000E+00
    0.11491E+00        -0.85481E-01         0.00000E+00
    0.10207E+00        -0.79065E-01         0.00000E+00
    0.90431E-01        -0.73690E-01         0.00000E+00
    0.80408E-01        -0.68835E-01         0.00000E+00
    0.72028E-01        -0.63924E-01         0.00000E+00
    0.65012E-01        -0.58504E-01         0.00000E+00
    0.58902E-01        -0.52310E-01         0.00000E+00
    0.53168E-01        -0.45267E-01         0.00000E+00
    0.47288E-01        -0.37480E-01         0.00000E+00
    0.40813E-01        -0.29220E-01         0.00000E+00
    0.33439E-01        -0.20928E-01         0.00000E+00
    0.25104E-01        -0.13201E-01         0.00000E+00
    0.16120E-01        -0.67463E-02         0.00000E+00
    0.72967E-02        -0.22321E-02         0.00000E+00
    0.00000E+00         0.00000E+00         0.00000E+00
    0.13810E+00        -0.10744E+00         0.00000E+00
    0.12251E+00        -0.10008E+00         0.00000E+00
    0.10792E+00        -0.94063E-01         0.00000E+00
    0.95329E-01        -0.89118E-01         0.00000E+00
    0.85159E-01        -0.84497E-01         0.00000E+00
    0.77263E-01        -0.79463E-01         0.00000E+00
    0.71120E-01        -0.73505E-01         0.00000E+00
    0.66042E-01        -0.66370E-01         0.00000E+00
    0.61304E-01        -0.58022E-01         0.00000E+00
    0.56213E-01        -0.48605E-01         0.00000E+00
    0.50145E-01        -0.38427E-01         0.00000E+00
    0.42601E-01        -0.27986E-01         0.00000E+00
    0.33318E-01        -0.18003E-01         0.00000E+00
    0.22450E-01        -0.94058E-02         0.00000E+00
    0.10802E-01        -0.31856E-02         0.00000E+00
    0.00000E+00         0.00000E+00         0.00000E+00
    0.14824E+00        -0.12451E+00         0.00000E+00
    0.12982E+00        -0.11758E+00         0.00000E+00
    0.11322E+00        -0.11222E+00         0.00000E+00
    0.99783E-01        -0.10786E+00         0.00000E+00
    0.89834E-01        -0.10345E+00         0.00000E+00
    0.82884E-01        -0.98104E-01         0.00000E+00
    0.78055E-01        -0.91333E-01         0.00000E+00
    0.74386E-01        -0.82977E-01         0.00000E+00
    0.70969E-01        -0.73086E-01         0.00000E+00
    0.66962E-01        -0.61845E-01         0.00000E+00
    0.61577E-01        -0.49562E-01         0.00000E+00
    0.54085E-01        -0.36734E-01         0.00000E+00
    0.43915E-01        -0.24143E-01         0.00000E+00
    0.30895E-01        -0.12930E-01         0.00000E+00
    0.15650E-01        -0.44971E-02         0.00000E+00
    0.00000E+00         0.00000E+00         0.00000E+00
    0.15865E+00        -0.14499E+00         0.00000E+00
    0.13657E+00        -0.13879E+00         0.00000E+00
    0.11768E+00        -0.13437E+00         0.00000E+00
    0.10371E+00        -0.13065E+00         0.00000E+00
    0.94584E-01        -0.12617E+00         0.00000E+00
    0.89167E-01        -0.12003E+00         0.00000E+00
    0.86095E-01        -0.11194E+00         0.00000E+00
    0.84140E-01        -0.10195E+00         0.00000E+00
    0.82268E-01        -0.90255E-01         0.00000E+00
    0.79568E-01        -0.77067E-01         0.00000E+00
    0.75138E-01        -0.62637E-01         0.00000E+00
    0.68010E-01        -0.47353E-01         0.00000E+00
    0.57185E-01        -0.31927E-01         0.00000E+00
    0.41901E-01        -0.17630E-01         0.00000E+00
    0.22245E-01        -0.63433E-02         0.00000E+00
    0.00000E+00         0.00000E+00         0.00000E+00
    0.16939E+00        -0.17016E+00         0.00000E+00
    0.14227E+00        -0.16509E+00         0.00000E+00
    0.12094E+00        -0.16184E+00         0.00000E+00
    0.10719E+00        -0.15840E+00         0.00000E+00
    0.99794E-01        -0.15301E+00         0.00000E+00
    0.96553E-01        -0.14510E+00         0.00000E+00
    0.95551E-01        -0.13486E+00         0.00000E+00
    0.95400E-01        -0.12269E+00         0.00000E+00
    0.95087E-01        -0.10893E+00         0.00000E+00
    0.93749E-01        -0.93794E-01         0.00000E+00
    0.90471E-01        -0.77403E-01         0.00000E+00
    0.84095E-01        -0.59895E-01         0.00000E+00
    0.73109E-01        -0.41698E-01         0.00000E+00
    0.55805E-01        -0.23969E-01         0.00000E+00
    0.31068E-01        -0.90336E-02         0.00000E+00
    0.00000E+00         0.00000E+00         0.00000E+00
    0.18034E+00        -0.20249E+00         0.00000E+00
    0.14593E+00        -0.19897E+00         0.00000E+00
    0.12257E+00        -0.19660E+00         0.00000E+00
    0.11056E+00        -0.19201E+00         0.00000E+00
    0.10604E+00        -0.18380E+00         0.00000E+00
    0.10540E+00        -0.17247E+00         0.00000E+00
    0.10641E+00        -0.15896E+00         0.00000E+00
    0.10779E+00        -0.14400E+00         0.00000E+00
    0.10872E+00        -0.12799E+00         0.00000E+00
    0.10854E+00        -0.11107E+00         0.00000E+00
    0.10643E+00        -0.93173E-01         0.00000E+00
    0.10119E+00        -0.74096E-01         0.00000E+00
    0.90855E-01        -0.53712E-01         0.00000E+00
    0.72448E-01        -0.32595E-01         0.00000E+00
    0.42555E-01        -0.13114E-01         0.00000E+00
    0.00000E+00         0.00000E+00         0.00000E+00
    0.19010E+00        -0.24703E+00         0.00000E+00
    0.14521E+00        -0.24475E+00         0.00000E+00
    0.12200E+00        -0.24093E+00         0.00000E+00
    0.11414E+00        -0.23132E+00         0.00000E+00
    0.11326E+00        -0.21693E+00         0.00000E+00
    0.11491E+00        -0.20010E+00         0.00000E+00
    0.11724E+00        -0.18222E+00         0.00000E+00
    0.11940E+00        -0.16402E+00         0.00000E+00
    0.12092E+00        -0.14575E+00         0.00000E+00
    0.12138E+00        -0.12738E+00         0.00000E+00
    0.12018E+00        -0.10863E+00         0.00000E+00
    0.11627E+00        -0.89017E-01         0.00000E+00
    0.10761E+00        -0.67791E-01         0.00000E+00
    0.90047E-01        -0.44207E-01         0.00000E+00
    0.56546E-01        -0.19531E-01         0.00000E+00
    0.00000E+00         0.00000E+00         0.00000E+00
    0.19172E+00        -0.31364E+00         0.00000E+00
    0.13475E+00        -0.30848E+00         0.00000E+00
    0.11758E+00        -0.29458E+00         0.00000E+00
    0.11561E+00        -0.27236E+00         0.00000E+00
    0.11728E+00        -0.24818E+00         0.00000E+00
    0.11975E+00        -0.22441E+00         0.00000E+00
    0.12208E+00        -0.20179E+00         0.00000E+00
    0.12396E+00        -0.18042E+00         0.00000E+00
    0.12521E+00        -0.16018E+00         0.00000E+00
    0.12565E+00        -0.14077E+00         0.00000E+00
    0.12489E+00        -0.12181E+00         0.00000E+00
    0.12217E+00        -0.10266E+00         0.00000E+00
    0.11584E+00        -0.82301E-01         0.00000E+00
    0.10210E+00        -0.58921E-01         0.00000E+00
    0.70152E-01        -0.29646E-01         0.00000E+00
    0.00000E+00         0.00000E+00         0.00000E+00
    0.15764E+00        -0.41844E+00         0.00000E+00
    0.10260E+00        -0.38830E+00         0.00000E+00
    0.98195E-01        -0.34468E+00         0.00000E+00
    0.98482E-01        -0.30495E+00         0.00000E+00
    0.99782E-01        -0.27072E+00         0.00000E+00
    0.10106E+00        -0.24092E+00         0.00000E+00
    0.10209E+00        -0.21457E+00         0.00000E+00
    0.10283E+00        -0.19090E+00         0.00000E+00
    0.10323E+00        -0.16930E+00         0.00000E+00
    0.10319E+00        -0.14931E+00         0.00000E+00
    0.10251E+00        -0.13043E+00         0.00000E+00
    0.10078E+00        -0.11211E+00         0.00000E+00
    0.97064E-01        -0.93441E-01         0.00000E+00
    0.88968E-01        -0.72671E-01         0.00000E+00
    0.69933E-01        -0.45036E-01         0.00000E+00
    0.00000E+00         0.00000E+00         0.00000E+00
    0.00000E+00        -0.53132E+00         0.00000E+00
    0.00000E+00        -0.43137E+00         0.00000E+00
    0.00000E+00        -0.36460E+00         0.00000E+00
    0.00000E+00        -0.31649E+00         0.00000E+00
    0.00000E+00        -0.27820E+00         0.00000E+00
    0.00000E+00        -0.24620E+00         0.00000E+00
    0.00000E+00        -0.21855E+00         0.00000E+00
    0.00000E+00        -0.19411E+00         0.00000E+00
    0.00000E+00        -0.17207E+00         0.00000E+00
    0.00000E+00        -0.15188E+00         0.00000E+00
    0.00000E+00        -0.13304E+00         0.00000E+00
    0.00000E+00        -0.11501E+00         0.00000E+00
    0.00000E+00        -0.97030E-01         0.00000E+00
    0.00000E+00        -0.77523E-01         0.00000E+00
    0.00000E+00        -0.52899E-01         0.00000E+00
    0.00000E+00         0.00000E+00         0.00000E+00
CELL_DATA        450
VECTORS vDarcy double 
    0.13141E-09         0.24613E-09         0.00000E+00
    0.11660E-09         0.61719E-09         0.00000E+00
    0.95161E-10         0.87699E-09         0.00000E+00
    0.71882E-10         0.10619E-08         0.00000E+00
    0.48821E-10         0.11883E-08         0.00000E+00
    0.27011E-10         0.12648E-08         0.00000E+00
    0.70867E-11         0.12973E-08         0.00000E+00
   -0.10476E-10         0.12910E-08         0.00000E+00
   -0.25258E-10         0.12514E-08         0.00000E+00
   -0.36860E-10         0.11841E-08         0.00000E+00
   -0.44892E-10         0.10945E-08         0.00000E+00
   -0.49012E-10         0.98632E-09         0.00000E+00
   -0.49064E-10         0.85581E-09         0.00000E+00
   -0.45480E-10         0.67694E-09         0.00000E+00
   -0.40416E-10         0.35585E-09         0.00000E+00
    0.39466E-09         0.26593E-09         0.00000E+00
    0.34978E-09         0.65708E-09         0.00000E+00
    0.28493E-09         0.92338E-09         0.00000E+00
    0.21456E-09         0.11092E-08         0.00000E+00
    0.14490E-09         0.12338E-08         0.00000E+00
    0.79036E-10         0.13070E-08         0.00000E+00
    0.18856E-10         0.13352E-08         0.00000E+00
   -0.34230E-10         0.13237E-08         0.00000E+00
   -0.78983E-10         0.12782E-08         0.00000E+00
   -0.11421E-09         0.12041E-08         0.00000E+00
   -0.13875E-09         0.11071E-08         0.00000E+00
   -0.15158E-09         0.99073E-09         0.00000E+00
   -0.15220E-09         0.85207E-09         0.00000E+00
   -0.14187E-09         0.66676E-09         0.00000E+00
   -0.12697E-09         0.34606E-09         0.00000E+00
    0.65901E-09         0.30614E-09         0.00000E+00
    0.58282E-09         0.73794E-09         0.00000E+00
    0.47293E-09         0.10173E-08         0.00000E+00
    0.35391E-09         0.12047E-08         0.00000E+00
    0.23624E-09         0.13257E-08         0.00000E+00
    0.12504E-09         0.13922E-08         0.00000E+00
    0.23401E-10         0.14117E-08         0.00000E+00
   -0.66384E-10         0.13900E-08         0.00000E+00
   -0.14231E-09         0.13326E-08         0.00000E+00
   -0.20244E-09         0.12451E-08         0.00000E+00
   -0.24483E-09         0.11331E-08         0.00000E+00
   -0.26777E-09         0.10005E-08         0.00000E+00
   -0.27037E-09         0.84552E-09         0.00000E+00
   -0.25458E-09         0.64720E-09         0.00000E+00
   -0.23075E-09         0.32689E-09         0.00000E+00
    0.92471E-09         0.36794E-09         0.00000E+00
    0.81517E-09         0.86186E-09         0.00000E+00
    0.65763E-09         0.11608E-08         0.00000E+00
    0.48745E-09         0.13504E-08         0.00000E+00
    0.31948E-09         0.14656E-08         0.00000E+00
    0.16090E-09         0.15221E-08         0.00000E+00
    0.15876E-10         0.15286E-08         0.00000E+00
   -0.11251E-09         0.14914E-08         0.00000E+00
   -0.22158E-09         0.14162E-08         0.00000E+00
   -0.30869E-09         0.13087E-08         0.00000E+00
   -0.37119E-09         0.11744E-08         0.00000E+00
   -0.40661E-09         0.10176E-08         0.00000E+00
   -0.41361E-09         0.83804E-09         0.00000E+00
   -0.39458E-09         0.61986E-09         0.00000E+00
   -0.36339E-09         0.29921E-09         0.00000E+00
    0.11913E-08         0.45305E-09         0.00000E+00
    0.10457E-08         0.10319E-08         0.00000E+00
    0.83698E-09         0.13570E-08         0.00000E+00
    0.61228E-09         0.15491E-08         0.00000E+00
    0.39103E-09         0.16561E-08         0.00000E+00
    0.18235E-09         0.16988E-08         0.00000E+00
   -0.86016E-11         0.16878E-08         0.00000E+00
   -0.17812E-09         0.16300E-08         0.00000E+00
   -0.32299E-09         0.15314E-08         0.00000E+00
   -0.43996E-09         0.13975E-08         0.00000E+00
   -0.52572E-09         0.12338E-08         0.00000E+00
   -0.57703E-09         0.10449E-08         0.00000E+00
   -0.59193E-09         0.83260E-09         0.00000E+00
   -0.57296E-09         0.58732E-09         0.00000E+00
   -0.53678E-09         0.26438E-09         0.00000E+00
    0.14573E-08         0.56367E-09         0.00000E+00
    0.12722E-08         0.12519E-08         0.00000E+00
    0.10082E-08         0.16098E-08         0.00000E+00
    0.72497E-09         0.18042E-08         0.00000E+00
    0.44690E-09         0.19003E-08         0.00000E+00
    0.18495E-09         0.19253E-08         0.00000E+00
   -0.54934E-10         0.18922E-08         0.00000E+00
   -0.26862E-09         0.18089E-08         0.00000E+00
   -0.45252E-09         0.16814E-08         0.00000E+00
   -0.60298E-09         0.15150E-08         0.00000E+00
   -0.71604E-09         0.13151E-08         0.00000E+00
   -0.78773E-09         0.10866E-08         0.00000E+00
   -0.81526E-09         0.83333E-09         0.00000E+00
   -0.80086E-09         0.55322E-09         0.00000E+00
   -0.76300E-09         0.22444E-09         0.00000E+00
    0.17198E-08         0.70238E-09         0.00000E+00
    0.14916E-08         0.15263E-08         0.00000E+00
    0.11675E-08         0.19235E-08         0.00000E+00
    0.82141E-09         0.21197E-08         0.00000E+00
    0.48267E-09         0.22016E-08         0.00000E+00
    0.16403E-09         0.22046E-08         0.00000E+00
   -0.12801E-09         0.21448E-08         0.00000E+00
   -0.38918E-09         0.20311E-08         0.00000E+00
   -0.61580E-09         0.18696E-08         0.00000E+00
   -0.80398E-09         0.16654E-08         0.00000E+00
   -0.94929E-09         0.14231E-08         0.00000E+00
   -0.10470E-08         0.11480E-08         0.00000E+00
   -0.10933E-08         0.84577E-09         0.00000E+00
   -0.10894E-08         0.52257E-09         0.00000E+00
   -0.10544E-08         0.18218E-09         0.00000E+00
    0.19745E-08         0.87201E-09         0.00000E+00
    0.16992E-08         0.18600E-08         0.00000E+00
    0.13101E-08         0.23031E-08         0.00000E+00
    0.89662E-09         0.24997E-08         0.00000E+00
    0.49340E-09         0.25635E-08         0.00000E+00
    0.11473E-09         0.25399E-08         0.00000E+00
   -0.23263E-09         0.24488E-08         0.00000E+00
   -0.54464E-09         0.23003E-08         0.00000E+00
   -0.81787E-09         0.21003E-08         0.00000E+00
   -0.10485E-08         0.18535E-08         0.00000E+00
   -0.12318E-08         0.15636E-08         0.00000E+00
   -0.13624E-08         0.12357E-08         0.00000E+00
   -0.14351E-08         0.87701E-09         0.00000E+00
   -0.14495E-08         0.50196E-09         0.00000E+00
   -0.14232E-08         0.14140E-09         0.00000E+00
    0.22150E-08         0.10755E-08         0.00000E+00
    0.18887E-08         0.22579E-08         0.00000E+00
    0.14298E-08         0.27532E-08         0.00000E+00
    0.94470E-09         0.29482E-08         0.00000E+00
    0.47354E-09         0.29894E-08         0.00000E+00
    0.31971E-10         0.29343E-08         0.00000E+00
   -0.37344E-09         0.28072E-08         0.00000E+00
   -0.73930E-09         0.26197E-08         0.00000E+00
   -0.10629E-08         0.23777E-08         0.00000E+00
   -0.13410E-08         0.20848E-08         0.00000E+00
   -0.15688E-08         0.17435E-08         0.00000E+00
   -0.17403E-08         0.13578E-08         0.00000E+00
   -0.18488E-08         0.93605E-09         0.00000E+00
   -0.18914E-08         0.49991E-09         0.00000E+00
   -0.18814E-08         0.10716E-09         0.00000E+00
    0.24331E-08         0.13158E-08         0.00000E+00
    0.20519E-08         0.27250E-08         0.00000E+00
    0.15189E-08         0.32781E-08         0.00000E+00
    0.95863E-09         0.34687E-08         0.00000E+00
    0.41691E-09         0.34819E-08         0.00000E+00
   -0.89540E-10         0.33899E-08         0.00000E+00
   -0.55478E-09         0.32223E-08         0.00000E+00
   -0.97669E-09         0.29924E-08         0.00000E+00
   -0.13539E-08         0.27059E-08         0.00000E+00
   -0.16843E-08         0.23650E-08         0.00000E+00
   -0.19637E-08         0.19705E-08         0.00000E+00
   -0.21855E-08         0.15241E-08         0.00000E+00
   -0.23413E-08         0.10340E-08         0.00000E+00
   -0.24241E-08         0.52733E-09         0.00000E+00
   -0.24404E-08         0.86076E-10         0.00000E+00
    0.26179E-08         0.15955E-08         0.00000E+00
    0.21788E-08         0.32652E-08         0.00000E+00
    0.15681E-08         0.38815E-08         0.00000E+00
    0.93018E-09         0.40635E-08         0.00000E+00
    0.31654E-09         0.40424E-08         0.00000E+00
   -0.25529E-09         0.39076E-08         0.00000E+00
   -0.78059E-09         0.36951E-08         0.00000E+00
   -0.12593E-08         0.34202E-08         0.00000E+00
   -0.16923E-08         0.30883E-08         0.00000E+00
   -0.20793E-08         0.27000E-08         0.00000E+00
   -0.24174E-08         0.22530E-08         0.00000E+00
   -0.26999E-08         0.17459E-08         0.00000E+00
   -0.29164E-08         0.11844E-08         0.00000E+00
   -0.30546E-08         0.59796E-09         0.00000E+00
   -0.31097E-08         0.86740E-10         0.00000E+00
    0.27566E-08         0.19169E-08         0.00000E+00
    0.22571E-08         0.38822E-08         0.00000E+00
    0.15664E-08         0.45658E-08         0.00000E+00
    0.84966E-09         0.47338E-08         0.00000E+00
    0.16452E-09         0.46709E-08         0.00000E+00
   -0.47106E-09         0.44865E-08         0.00000E+00
   -0.10543E-08         0.42248E-08         0.00000E+00
   -0.15882E-08         0.39032E-08         0.00000E+00
   -0.20770E-08         0.35271E-08         0.00000E+00
   -0.25235E-08         0.30947E-08         0.00000E+00
   -0.29271E-08         0.26000E-08         0.00000E+00
   -0.32817E-08         0.20362E-08         0.00000E+00
   -0.35747E-08         0.14036E-08         0.00000E+00
   -0.37867E-08         0.72893E-09         0.00000E+00
   -0.38961E-08         0.12015E-09         0.00000E+00
    0.28340E-08         0.22818E-08         0.00000E+00
    0.22724E-08         0.45782E-08         0.00000E+00
    0.15006E-08         0.53323E-08         0.00000E+00
    0.70563E-09         0.54790E-08         0.00000E+00
   -0.48281E-10         0.53648E-08         0.00000E+00
   -0.74309E-09         0.51230E-08         0.00000E+00
   -0.13789E-08         0.48073E-08         0.00000E+00
   -0.19629E-08         0.44385E-08         0.00000E+00
   -0.25043E-08         0.40220E-08         0.00000E+00
   -0.30108E-08         0.35529E-08         0.00000E+00
   -0.34854E-08         0.30200E-08         0.00000E+00
   -0.39238E-08         0.24091E-08         0.00000E+00
   -0.43111E-08         0.17109E-08         0.00000E+00
   -0.46188E-08         0.94130E-09         0.00000E+00
   -0.48019E-08         0.20026E-09         0.00000E+00
    0.28331E-08         0.26912E-08         0.00000E+00
    0.22083E-08         0.53547E-08         0.00000E+00
    0.13551E-08         0.61808E-08         0.00000E+00
    0.48435E-09         0.62962E-08         0.00000E+00
   -0.33286E-09         0.61187E-08         0.00000E+00
   -0.10786E-08         0.58097E-08         0.00000E+00
   -0.17567E-08         0.54346E-08         0.00000E+00
   -0.23807E-08         0.50192E-08         0.00000E+00
   -0.29667E-08         0.45688E-08         0.00000E+00
   -0.35295E-08         0.40754E-08         0.00000E+00
   -0.40781E-08         0.35208E-08         0.00000E+00
   -0.46113E-08         0.28800E-08         0.00000E+00
   -0.51126E-08         0.21285E-08         0.00000E+00
   -0.55420E-08         0.12607E-08         0.00000E+00
   -0.58227E-08         0.34463E-09         0.00000E+00
    0.27351E-08         0.31464E-08         0.00000E+00
    0.20461E-08         0.62130E-08         0.00000E+00
    0.11116E-08         0.71102E-08         0.00000E+00
    0.16878E-09         0.71805E-08         0.00000E+00
   -0.70309E-09         0.69235E-08         0.00000E+00
   -0.14864E-08         0.65339E-08         0.00000E+00
   -0.21904E-08         0.60926E-08         0.00000E+00
   -0.28370E-08         0.56317E-08         0.00000E+00
   -0.34523E-08         0.51576E-08         0.00000E+00
   -0.40613E-08         0.46584E-08         0.00000E+00
   -0.46821E-08         0.41071E-08         0.00000E+00
   -0.53193E-08         0.34641E-08         0.00000E+00
   -0.59554E-08         0.26818E-08         0.00000E+00
   -0.65365E-08         0.17178E-08         0.00000E+00
   -0.69435E-08         0.57506E-09         0.00000E+00
    0.25202E-08         0.36489E-08         0.00000E+00
    0.17642E-08         0.71552E-08         0.00000E+00
    0.74730E-09         0.81192E-08         0.00000E+00
   -0.26319E-09         0.81249E-08         0.00000E+00
   -0.11775E-08         0.77653E-08         0.00000E+00
   -0.19785E-08         0.72764E-08         0.00000E+00
   -0.26831E-08         0.67587E-08         0.00000E+00
   -0.33247E-08         0.62537E-08         0.00000E+00
   -0.39436E-08         0.57698E-08         0.00000E+00
   -0.45793E-08         0.52909E-08         0.00000E+00
   -0.52629E-08         0.47790E-08         0.00000E+00
   -0.60086E-08         0.41750E-08         0.00000E+00
   -0.68000E-08         0.33983E-08         0.00000E+00
   -0.75666E-08         0.23490E-08         0.00000E+00
   -0.81342E-08         0.91846E-09         0.00000E+00
    0.21674E-08         0.42026E-08         0.00000E+00
    0.13373E-08         0.81873E-08         0.00000E+00
    0.23253E-09         0.92088E-08         0.00000E+00
   -0.84180E-09         0.91202E-08         0.00000E+00
   -0.17819E-08         0.86244E-08         0.00000E+00
   -0.25720E-08         0.80085E-08         0.00000E+00
   -0.32396E-08         0.73990E-08         0.00000E+00
   -0.38347E-08         0.68502E-08         0.00000E+00
   -0.44167E-08         0.63742E-08         0.00000E+00
   -0.50452E-08         0.59506E-08         0.00000E+00
   -0.57704E-08         0.55281E-08         0.00000E+00
   -0.66210E-08         0.50222E-08         0.00000E+00
   -0.75853E-08         0.43067E-08         0.00000E+00
   -0.85742E-08         0.31961E-08         0.00000E+00
   -0.93428E-08         0.14076E-08         0.00000E+00
    0.16534E-08         0.48162E-08         0.00000E+00
    0.73327E-09         0.93236E-08         0.00000E+00
   -0.47370E-09         0.10384E-07         0.00000E+00
   -0.16104E-08         0.10156E-07         0.00000E+00
   -0.25541E-08         0.94728E-08         0.00000E+00
   -0.32920E-08         0.86882E-08         0.00000E+00
   -0.38682E-08         0.79631E-08         0.00000E+00
   -0.43556E-08         0.73686E-08         0.00000E+00
   -0.48399E-08         0.69221E-08         0.00000E+00
   -0.54074E-08         0.65987E-08         0.00000E+00
   -0.61347E-08         0.63324E-08         0.00000E+00
   -0.70728E-08         0.60067E-08         0.00000E+00
   -0.82205E-08         0.54340E-08         0.00000E+00
   -0.94692E-08         0.43064E-08         0.00000E+00
   -0.10485E-07         0.20823E-08         0.00000E+00
    0.94938E-09         0.55088E-08         0.00000E+00
   -0.93428E-10         0.10594E-07         0.00000E+00
   -0.14322E-08         0.11660E-07         0.00000E+00
   -0.26334E-08         0.11218E-07         0.00000E+00
   -0.35490E-08         0.10270E-07         0.00000E+00
   -0.41748E-08         0.92549E-08         0.00000E+00
   -0.45810E-08         0.83788E-08         0.00000E+00
   -0.48733E-08         0.77328E-08         0.00000E+00
   -0.51713E-08         0.73403E-08         0.00000E+00
   -0.55962E-08         0.71729E-08         0.00000E+00
   -0.62595E-08         0.71486E-08         0.00000E+00
   -0.72449E-08         0.71141E-08         0.00000E+00
   -0.85716E-08         0.68009E-08         0.00000E+00
   -0.10114E-07         0.57310E-08         0.00000E+00
   -0.11430E-07         0.29900E-08         0.00000E+00
    0.12117E-10         0.63178E-08         0.00000E+00
   -0.12143E-08         0.12055E-07         0.00000E+00
   -0.27377E-08         0.13062E-07         0.00000E+00
   -0.40068E-08         0.12287E-07         0.00000E+00
   -0.48442E-08         0.10954E-07         0.00000E+00
   -0.52682E-08         0.96202E-08         0.00000E+00
   -0.53919E-08         0.85434E-08         0.00000E+00
   -0.53667E-08         0.78353E-08         0.00000E+00
   -0.53548E-08         0.75239E-08         0.00000E+00
   -0.55184E-08         0.75778E-08         0.00000E+00
   -0.60130E-08         0.79015E-08         0.00000E+00
   -0.69689E-08         0.83025E-08         0.00000E+00
   -0.84421E-08         0.84124E-08         0.00000E+00
   -0.10301E-07         0.75208E-08         0.00000E+00
   -0.11971E-07         0.41872E-08         0.00000E+00
   -0.12347E-08         0.73130E-08         0.00000E+00
   -0.27503E-08         0.13803E-07         0.00000E+00
   -0.45393E-08         0.14627E-07         0.00000E+00
   -0.58693E-08         0.13321E-07         0.00000E+00
   -0.65395E-08         0.11428E-07         0.00000E+00
   -0.66226E-08         0.96540E-08         0.00000E+00
   -0.63036E-08         0.83143E-08         0.00000E+00
   -0.57951E-08         0.75306E-08         0.00000E+00
   -0.53069E-08         0.73284E-08         0.00000E+00
   -0.50441E-08         0.76741E-08         0.00000E+00
   -0.52120E-08         0.84676E-08         0.00000E+00
   -0.60035E-08         0.94838E-08         0.00000E+00
   -0.75391E-08         0.10240E-07         0.00000E+00
   -0.97043E-08         0.97172E-08         0.00000E+00
   -0.11781E-07         0.57399E-08         0.00000E+00
   -0.29356E-08         0.86184E-08         0.00000E+00
   -0.49084E-08         0.15990E-07         0.00000E+00
   -0.70623E-08         0.16386E-07         0.00000E+00
   -0.83964E-08         0.14228E-07         0.00000E+00
   -0.87276E-08         0.11523E-07         0.00000E+00
   -0.82500E-08         0.91642E-08         0.00000E+00
   -0.72640E-08         0.74991E-08         0.00000E+00
   -0.60574E-08         0.66307E-08         0.00000E+00
   -0.48823E-08         0.65649E-08         0.00000E+00
   -0.39757E-08         0.72682E-08         0.00000E+00
   -0.35882E-08         0.86539E-08         0.00000E+00
   -0.39906E-08         0.10491E-07         0.00000E+00
   -0.54093E-08         0.12186E-07         0.00000E+00
   -0.78026E-08         0.12329E-07         0.00000E+00
   -0.10317E-07         0.77216E-08         0.00000E+00
   -0.53558E-08         0.10443E-07         0.00000E+00
   -0.80203E-08         0.18809E-07         0.00000E+00
   -0.10594E-07         0.18297E-07         0.00000E+00
   -0.11725E-07         0.14783E-07         0.00000E+00
   -0.11378E-07         0.10952E-07         0.00000E+00
   -0.99914E-08         0.78717E-08         0.00000E+00
   -0.80368E-08         0.58507E-08         0.00000E+00
   -0.58749E-08         0.49103E-08         0.00000E+00
   -0.37712E-08         0.50062E-08         0.00000E+00
   -0.19575E-08         0.61064E-08         0.00000E+00
   -0.70210E-09         0.81725E-08         0.00000E+00
   -0.35583E-09         0.11028E-07         0.00000E+00
   -0.13083E-08         0.14020E-07         0.00000E+00
   -0.36997E-08         0.15279E-07         0.00000E+00
   -0.66156E-08         0.10202E-07         0.00000E+00
   -0.89115E-08         0.13106E-07         0.00000E+00
   -0.12497E-07         0.22408E-07         0.00000E+00
   -0.15290E-07         0.20071E-07         0.00000E+00
   -0.15633E-07         0.14484E-07         0.00000E+00
   -0.13956E-07         0.92246E-08         0.00000E+00
   -0.11135E-07         0.53910E-08         0.00000E+00
   -0.78420E-08         0.30828E-08         0.00000E+00
   -0.44629E-08         0.21367E-08         0.00000E+00
   -0.12025E-08         0.24152E-08         0.00000E+00
    0.17905E-08         0.38901E-08         0.00000E+00
    0.43019E-08         0.66211E-08         0.00000E+00
    0.59387E-08         0.10595E-07         0.00000E+00
    0.60952E-08         0.15246E-07         0.00000E+00
    0.42539E-08         0.18280E-07         0.00000E+00
    0.11547E-08         0.13210E-07         0.00000E+00
   -0.13931E-07         0.16993E-07         0.00000E+00
   -0.18318E-07         0.26518E-07         0.00000E+00
   -0.20303E-07         0.20748E-07         0.00000E+00
   -0.18460E-07         0.12307E-07         0.00000E+00
   -0.14320E-07         0.55818E-08         0.00000E+00
   -0.93646E-08         0.12551E-08         0.00000E+00
   -0.43737E-08        -0.10668E-08         0.00000E+00
    0.38737E-09        -0.18544E-08         0.00000E+00
    0.49128E-08        -0.13798E-08         0.00000E+00
    0.92669E-08         0.33733E-09         0.00000E+00
    0.13425E-07         0.35030E-08         0.00000E+00
    0.17082E-07         0.84148E-08         0.00000E+00
    0.19444E-07         0.14899E-07         0.00000E+00
    0.19335E-07         0.20560E-07         0.00000E+00
    0.16730E-07         0.16606E-07         0.00000E+00
   -0.19046E-07         0.22136E-07         0.00000E+00
   -0.22616E-07         0.29373E-07         0.00000E+00
   -0.20656E-07         0.17917E-07         0.00000E+00
   -0.13850E-07         0.64769E-08         0.00000E+00
   -0.56512E-08        -0.93420E-09         0.00000E+00
    0.20878E-08        -0.49246E-08         0.00000E+00
    0.88777E-08        -0.66650E-08         0.00000E+00
    0.14866E-07        -0.70005E-08         0.00000E+00
    0.20443E-07        -0.63316E-08         0.00000E+00
    0.26042E-07        -0.46611E-08         0.00000E+00
    0.32010E-07        -0.16239E-08         0.00000E+00
    0.38423E-07         0.34642E-08         0.00000E+00
    0.44603E-07         0.11287E-07         0.00000E+00
    0.48543E-07         0.20293E-07         0.00000E+00
    0.48188E-07         0.19737E-07         0.00000E+00
   -0.13804E-07         0.26456E-07         0.00000E+00
   -0.10390E-07         0.25213E-07         0.00000E+00
    0.26820E-08         0.69844E-08         0.00000E+00
    0.18392E-07        -0.51376E-08         0.00000E+00
    0.31803E-07        -0.10922E-07         0.00000E+00
    0.42123E-07        -0.12969E-07         0.00000E+00
    0.49976E-07        -0.13230E-07         0.00000E+00
    0.56327E-07        -0.12740E-07         0.00000E+00
    0.62099E-07        -0.11907E-07         0.00000E+00
    0.68155E-07        -0.10712E-07         0.00000E+00
    0.75363E-07        -0.87268E-08         0.00000E+00
    0.84526E-07        -0.50022E-08         0.00000E+00
    0.96066E-07         0.20027E-08         0.00000E+00
    0.10785E-06         0.13744E-07         0.00000E+00
    0.11382E-06         0.20382E-07         0.00000E+00
    0.50801E-07         0.19943E-07         0.00000E+00
    0.77345E-07         0.13327E-08         0.00000E+00
    0.11142E-06        -0.16441E-07         0.00000E+00
    0.13671E-06        -0.22595E-07         0.00000E+00
    0.15288E-06        -0.22849E-07         0.00000E+00
    0.16282E-06        -0.21102E-07         0.00000E+00
    0.16918E-06        -0.19131E-07         0.00000E+00
    0.17375E-06        -0.17592E-07         0.00000E+00
    0.17776E-06        -0.16675E-07         0.00000E+00
    0.18225E-06        -0.16344E-07         0.00000E+00
    0.18843E-06        -0.16341E-07         0.00000E+00
    0.19798E-06        -0.15965E-07         0.00000E+00
    0.21312E-06        -0.13627E-07         0.00000E+00
    0.23626E-06        -0.57013E-08         0.00000E+00
    0.25648E-06         0.12929E-07         0.00000E+00
    0.37359E-06        -0.28531E-07         0.00000E+00
    0.44183E-06        -0.45868E-07         0.00000E+00
    0.48441E-06        -0.43966E-07         0.00000E+00
    0.50250E-06        -0.36827E-07         0.00000E+00
    0.50878E-06        -0.29763E-07         0.00000E+00
    0.51001E-06        -0.24338E-07         0.00000E+00
    0.50920E-06        -0.20625E-07         0.00000E+00
    0.50766E-06        -0.18429E-07         0.00000E+00
    0.50606E-06        -0.17597E-07         0.00000E+00
    0.50488E-06        -0.18092E-07         0.00000E+00
    0.50478E-06        -0.19996E-07         0.00000E+00
    0.50716E-06        -0.23436E-07         0.00000E+00
    0.51503E-06        -0.28217E-07         0.00000E+00
    0.53514E-06        -0.33272E-07         0.00000E+00
    0.57977E-06        -0.25249E-07         0.00000E+00
    0.16995E-05        -0.32117E-07         0.00000E+00
    0.16646E-05        -0.35475E-07         0.00000E+00
    0.16126E-05        -0.27126E-07         0.00000E+00
    0.15709E-05        -0.19889E-07         0.00000E+00
    0.15392E-05        -0.14852E-07         0.00000E+00
    0.15149E-05        -0.11576E-07         0.00000E+00
    0.14952E-05        -0.95387E-08         0.00000E+00
    0.14785E-05        -0.84203E-08         0.00000E+00
    0.14631E-05        -0.80660E-08         0.00000E+00
    0.14477E-05        -0.84629E-08         0.00000E+00
    0.14308E-05        -0.97392E-08         0.00000E+00
    0.14106E-05        -0.12201E-07         0.00000E+00
    0.13849E-05        -0.16312E-07         0.00000E+00
    0.13508E-05        -0.22753E-07         0.00000E+00
    0.13142E-05        -0.27724E-07         0.00000E+00
POINT_DATA        496
VECTORS vDarcyNodal double 
    0.13633E-09         0.24121E-09         0.00000E+00
    0.12650E-09         0.42425E-09         0.00000E+00
    0.10669E-09         0.73637E-09         0.00000E+00
    0.83632E-10         0.95782E-09         0.00000E+00
    0.60132E-10         0.11136E-08         0.00000E+00
    0.37510E-10         0.12157E-08         0.00000E+00
    0.16512E-10         0.12711E-08         0.00000E+00
   -0.23391E-11         0.12853E-08         0.00000E+00
   -0.18613E-10         0.12638E-08         0.00000E+00
   -0.31904E-10         0.12119E-08         0.00000E+00
   -0.41817E-10         0.11353E-08         0.00000E+00
   -0.47967E-10         0.10384E-08         0.00000E+00
   -0.50056E-10         0.92104E-09         0.00000E+00
   -0.48072E-10         0.76817E-09         0.00000E+00
   -0.42888E-10         0.51892E-09         0.00000E+00
   -0.37943E-10         0.35832E-09         0.00000E+00
    0.27294E-09         0.25104E-09         0.00000E+00
    0.25314E-09         0.43907E-09         0.00000E+00
    0.21324E-09         0.75781E-09         0.00000E+00
    0.16685E-09         0.98110E-09         0.00000E+00
    0.11960E-09         0.11367E-08         0.00000E+00
    0.74124E-10         0.12375E-08         0.00000E+00
    0.31922E-10         0.12910E-08         0.00000E+00
   -0.59798E-11         0.13029E-08         0.00000E+00
   -0.38726E-10         0.12786E-08         0.00000E+00
   -0.65516E-10         0.12235E-08         0.00000E+00
   -0.85558E-10         0.11433E-08         0.00000E+00
   -0.98089E-10         0.10425E-08         0.00000E+00
   -0.10250E-09         0.92109E-09         0.00000E+00
   -0.98763E-10         0.76458E-09         0.00000E+00
   -0.88588E-10         0.51386E-09         0.00000E+00
   -0.78798E-10         0.35337E-09         0.00000E+00
    0.54694E-09         0.28082E-09         0.00000E+00
    0.50673E-09         0.48395E-09         0.00000E+00
    0.42587E-09         0.82266E-09         0.00000E+00
    0.33199E-09         0.10515E-08         0.00000E+00
    0.23649E-09         0.12063E-08         0.00000E+00
    0.14465E-09         0.13033E-08         0.00000E+00
    0.59424E-10         0.13512E-08         0.00000E+00
   -0.17167E-10         0.13560E-08         0.00000E+00
   -0.83447E-10         0.13233E-08         0.00000E+00
   -0.13785E-09         0.12588E-08         0.00000E+00
   -0.17880E-09         0.11679E-08         0.00000E+00
   -0.20479E-09         0.10553E-08         0.00000E+00
   -0.21456E-09         0.92171E-09         0.00000E+00
   -0.20801E-09         0.75425E-09         0.00000E+00
   -0.18844E-09         0.49896E-09         0.00000E+00
   -0.16927E-09         0.33874E-09         0.00000E+00
    0.82275E-09         0.33146E-09         0.00000E+00
    0.76095E-09         0.56013E-09         0.00000E+00
    0.63703E-09         0.93254E-09         0.00000E+00
    0.49353E-09         0.11705E-08         0.00000E+00
    0.34783E-09         0.13240E-08         0.00000E+00
    0.20789E-09         0.14145E-08         0.00000E+00
    0.78044E-10         0.14528E-08         0.00000E+00
   -0.38767E-10         0.14458E-08         0.00000E+00
   -0.14013E-09         0.13992E-08         0.00000E+00
   -0.22376E-09         0.13189E-08         0.00000E+00
   -0.28736E-09         0.12103E-08         0.00000E+00
   -0.32865E-09         0.10783E-08         0.00000E+00
   -0.34573E-09         0.92432E-09         0.00000E+00
   -0.33825E-09         0.73846E-09         0.00000E+00
   -0.31091E-09         0.47513E-09         0.00000E+00
   -0.28323E-09         0.31504E-09         0.00000E+00
    0.11006E-08         0.40442E-09         0.00000E+00
    0.10154E-08         0.66966E-09         0.00000E+00
    0.84541E-09         0.10901E-08         0.00000E+00
    0.64920E-09         0.13407E-08         0.00000E+00
    0.45052E-09         0.14920E-08         0.00000E+00
    0.25999E-09         0.15731E-08         0.00000E+00
    0.83251E-10         0.15978E-08         0.00000E+00
   -0.75977E-10         0.15742E-08         0.00000E+00
   -0.21466E-09         0.15083E-08         0.00000E+00
   -0.32991E-09         0.14060E-08         0.00000E+00
   -0.41875E-09         0.12728E-08         0.00000E+00
   -0.47815E-09         0.11137E-08         0.00000E+00
   -0.50549E-09         0.93131E-09         0.00000E+00
   -0.50005E-09         0.71944E-09         0.00000E+00
   -0.46750E-09         0.44394E-09         0.00000E+00
   -0.43267E-09         0.28337E-09         0.00000E+00
    0.13796E-08         0.50168E-09         0.00000E+00
    0.12690E-08         0.81527E-09         0.00000E+00
    0.10490E-08         0.12988E-08         0.00000E+00
    0.79619E-09         0.15654E-08         0.00000E+00
    0.54106E-09         0.17132E-08         0.00000E+00
    0.29687E-09         0.17818E-08         0.00000E+00
    0.70422E-10         0.17888E-08         0.00000E+00
   -0.13396E-09         0.17437E-08         0.00000E+00
   -0.31279E-09         0.16532E-08         0.00000E+00
   -0.46272E-09         0.15230E-08         0.00000E+00
   -0.58022E-09         0.13585E-08         0.00000E+00
   -0.66154E-09         0.11650E-08         0.00000E+00
   -0.70323E-09         0.94621E-09         0.00000E+00
   -0.70396E-09         0.70047E-09         0.00000E+00
   -0.66986E-09         0.40776E-09         0.00000E+00
   -0.62992E-09         0.24540E-09         0.00000E+00
    0.16579E-08         0.62566E-09         0.00000E+00
    0.15192E-08         0.10003E-08         0.00000E+00
    0.12447E-08         0.15628E-08         0.00000E+00
    0.93095E-09         0.18486E-08         0.00000E+00
    0.61543E-09         0.19913E-08         0.00000E+00
    0.31414E-09         0.20438E-08         0.00000E+00
    0.34837E-10         0.20287E-08         0.00000E+00
   -0.21778E-09         0.19574E-08         0.00000E+00
   -0.44002E-09         0.18371E-08         0.00000E+00
   -0.62830E-09         0.16734E-08         0.00000E+00
   -0.77865E-09         0.14716E-08         0.00000E+00
   -0.88668E-09         0.12367E-08         0.00000E+00
   -0.94804E-09         0.97374E-09         0.00000E+00
   -0.96047E-09         0.68608E-09         0.00000E+00
   -0.92982E-09         0.36990E-09         0.00000E+00
   -0.88755E-09         0.20348E-09         0.00000E+00
    0.19320E-08         0.77910E-09         0.00000E+00
    0.17623E-08         0.12284E-08         0.00000E+00
    0.14286E-08         0.18870E-08         0.00000E+00
    0.10490E-08         0.21947E-08         0.00000E+00
    0.66900E-09         0.23300E-08         0.00000E+00
    0.30707E-09         0.23624E-08         0.00000E+00
   -0.28300E-10         0.23207E-08         0.00000E+00
   -0.33234E-09         0.22185E-08         0.00000E+00
   -0.60149E-09         0.20637E-08         0.00000E+00
   -0.83219E-09         0.18616E-08         0.00000E+00
   -0.10203E-08         0.16169E-08         0.00000E+00
   -0.11608E-08         0.13344E-08         0.00000E+00
   -0.12485E-08         0.10200E-08         0.00000E+00
   -0.12798E-08         0.68226E-09         0.00000E+00
   -0.12592E-08         0.33485E-09         0.00000E+00
   -0.12184E-08         0.16087E-09         0.00000E+00
    0.21965E-08         0.96493E-09         0.00000E+00
    0.19930E-08         0.15036E-08         0.00000E+00
    0.15950E-08         0.22761E-08         0.00000E+00
    0.11449E-08         0.26082E-08         0.00000E+00
    0.69641E-09         0.27333E-08         0.00000E+00
    0.27053E-09         0.27411E-08         0.00000E+00
   -0.12383E-09         0.26681E-08         0.00000E+00
   -0.48225E-09         0.25305E-08         0.00000E+00
   -0.80170E-09         0.23369E-08         0.00000E+00
   -0.10791E-08         0.20922E-08         0.00000E+00
   -0.13104E-08         0.18002E-08         0.00000E+00
   -0.14903E-08         0.14649E-08         0.00000E+00
   -0.16124E-08         0.10927E-08         0.00000E+00
   -0.16715E-08         0.69671E-09         0.00000E+00
   -0.16694E-08         0.30851E-09         0.00000E+00
   -0.16352E-08         0.12193E-09         0.00000E+00
    0.24442E-08         0.11861E-08         0.00000E+00
    0.22039E-08         0.18299E-08         0.00000E+00
    0.17368E-08         0.27350E-08         0.00000E+00
    0.12119E-08         0.30932E-08         0.00000E+00
    0.69146E-09         0.32044E-08         0.00000E+00
    0.19900E-09         0.31826E-08         0.00000E+00
   -0.25657E-09         0.30735E-08         0.00000E+00
   -0.67165E-09         0.28964E-08         0.00000E+00
   -0.10443E-08         0.26605E-08         0.00000E+00
   -0.13725E-08         0.23703E-08         0.00000E+00
   -0.16528E-08         0.20281E-08         0.00000E+00
   -0.18798E-08         0.16364E-08         0.00000E+00
   -0.20461E-08         0.12012E-08         0.00000E+00
   -0.21440E-08         0.73924E-09         0.00000E+00
   -0.21715E-08         0.29856E-09         0.00000E+00
   -0.21504E-08         0.92389E-10         0.00000E+00
    0.26653E-08         0.14455E-08         0.00000E+00
    0.23856E-08         0.22109E-08         0.00000E+00
    0.18452E-08         0.32680E-08         0.00000E+00
    0.12418E-08         0.36535E-08         0.00000E+00
    0.64700E-09         0.37461E-08         0.00000E+00
    0.86450E-10         0.36891E-08         0.00000E+00
   -0.43128E-09         0.35387E-08         0.00000E+00
   -0.90409E-09         0.33183E-08         0.00000E+00
   -0.13319E-08         0.30378E-08         0.00000E+00
   -0.17143E-08         0.27007E-08         0.00000E+00
   -0.20493E-08         0.23075E-08         0.00000E+00
   -0.23318E-08         0.18582E-08         0.00000E+00
   -0.25536E-08         0.13569E-08         0.00000E+00
   -0.27040E-08         0.82208E-09         0.00000E+00
   -0.27747E-08         0.31485E-09         0.00000E+00
   -0.27754E-08         0.79764E-10         0.00000E+00
    0.28479E-08         0.17456E-08         0.00000E+00
    0.25265E-08         0.26499E-08         0.00000E+00
    0.19095E-08         0.38787E-08         0.00000E+00
    0.12251E-08         0.42915E-08         0.00000E+00
    0.55476E-09         0.43598E-08         0.00000E+00
   -0.73696E-10         0.42609E-08         0.00000E+00
   -0.65265E-09         0.40640E-08         0.00000E+00
   -0.11823E-08         0.37970E-08         0.00000E+00
   -0.16652E-08         0.34708E-08         0.00000E+00
   -0.21040E-08         0.30877E-08         0.00000E+00
   -0.24988E-08         0.26455E-08         0.00000E+00
   -0.28457E-08         0.21408E-08         0.00000E+00
   -0.31359E-08         0.15734E-08         0.00000E+00
   -0.33552E-08         0.96029E-09         0.00000E+00
   -0.34861E-08         0.36986E-09         0.00000E+00
   -0.35196E-08         0.93716E-10         0.00000E+00
    0.29777E-08         0.20883E-08         0.00000E+00
    0.26128E-08         0.31493E-08         0.00000E+00
    0.19167E-08         0.45693E-08         0.00000E+00
    0.11502E-08         0.50082E-08         0.00000E+00
    0.40507E-09         0.50449E-08         0.00000E+00
   -0.28882E-09         0.48965E-08         0.00000E+00
   -0.92533E-09         0.46473E-08         0.00000E+00
   -0.15079E-08         0.43309E-08         0.00000E+00
   -0.20432E-08         0.39595E-08         0.00000E+00
   -0.25380E-08         0.35342E-08         0.00000E+00
   -0.29962E-08         0.30491E-08         0.00000E+00
   -0.34163E-08         0.24954E-08         0.00000E+00
   -0.37893E-08         0.18664E-08         0.00000E+00
   -0.40965E-08         0.11722E-08         0.00000E+00
   -0.43089E-08         0.47922E-09         0.00000E+00
   -0.43891E-08         0.14658E-09         0.00000E+00
    0.30383E-08         0.24752E-08         0.00000E+00
    0.26287E-08         0.37107E-08         0.00000E+00
    0.18521E-08         0.53412E-08         0.00000E+00
    0.10036E-08         0.58031E-08         0.00000E+00
    0.18638E-09         0.57988E-08         0.00000E+00
   -0.56752E-09         0.55913E-08         0.00000E+00
   -0.12541E-08         0.52830E-08         0.00000E+00
   -0.18815E-08         0.49149E-08         0.00000E+00
   -0.24621E-08         0.45010E-08         0.00000E+00
   -0.30089E-08         0.40407E-08         0.00000E+00
   -0.35314E-08         0.35238E-08         0.00000E+00
   -0.40321E-08         0.29338E-08         0.00000E+00
   -0.45030E-08         0.22536E-08         0.00000E+00
   -0.49207E-08         0.14799E-08         0.00000E+00
   -0.52401E-08         0.66234E-09         0.00000E+00
   -0.53845E-08         0.25395E-09         0.00000E+00
    0.30117E-08         0.29072E-08         0.00000E+00
    0.25564E-08         0.43353E-08         0.00000E+00
    0.16981E-08         0.61944E-08         0.00000E+00
    0.76873E-09         0.66739E-08         0.00000E+00
   -0.11560E-09         0.66161E-08         0.00000E+00
   -0.92036E-09         0.63370E-08         0.00000E+00
   -0.16446E-08         0.59612E-08         0.00000E+00
   -0.23026E-08         0.55388E-08         0.00000E+00
   -0.29151E-08         0.50870E-08         0.00000E+00
   -0.35039E-08         0.46035E-08         0.00000E+00
   -0.40869E-08         0.40724E-08         0.00000E+00
   -0.46733E-08         0.34670E-08         0.00000E+00
   -0.52574E-08         0.27549E-08         0.00000E+00
   -0.58107E-08         0.19093E-08         0.00000E+00
   -0.62679E-08         0.94298E-09         0.00000E+00
   -0.64983E-08         0.43531E-09         0.00000E+00
    0.28789E-08         0.33855E-08         0.00000E+00
    0.23763E-08         0.50241E-08         0.00000E+00
    0.14340E-08         0.71288E-08         0.00000E+00
    0.42495E-09         0.76168E-08         0.00000E+00
   -0.51936E-09         0.74880E-08         0.00000E+00
   -0.13612E-08         0.71204E-08         0.00000E+00
   -0.21037E-08         0.66653E-08         0.00000E+00
   -0.27698E-08         0.61854E-08         0.00000E+00
   -0.33918E-08         0.57023E-08         0.00000E+00
   -0.40041E-08         0.52125E-08         0.00000E+00
   -0.46365E-08         0.46931E-08         0.00000E+00
   -0.53085E-08         0.41042E-08         0.00000E+00
   -0.60194E-08         0.33910E-08         0.00000E+00
   -0.67359E-08         0.24903E-08         0.00000E+00
   -0.73671E-08         0.13499E-08         0.00000E+00
   -0.77105E-08         0.71481E-09         0.00000E+00
    0.26206E-08         0.39123E-08         0.00000E+00
    0.20669E-08         0.57800E-08         0.00000E+00
    0.10347E-08         0.81457E-08         0.00000E+00
   -0.54848E-10         0.86273E-08         0.00000E+00
   -0.10501E-08         0.84022E-08         0.00000E+00
   -0.19092E-08         0.79214E-08         0.00000E+00
   -0.26412E-08         0.73699E-08         0.00000E+00
   -0.32814E-08         0.68270E-08         0.00000E+00
   -0.38780E-08         0.63212E-08         0.00000E+00
   -0.44824E-08         0.58482E-08         0.00000E+00
   -0.51421E-08         0.53768E-08         0.00000E+00
   -0.58912E-08         0.48498E-08         0.00000E+00
   -0.67384E-08         0.41823E-08         0.00000E+00
   -0.76468E-08         0.32569E-08         0.00000E+00
   -0.84939E-08         0.19175E-08         0.00000E+00
   -0.89831E-08         0.11221E-08         0.00000E+00
    0.22171E-08         0.44929E-08         0.00000E+00
    0.16035E-08         0.66099E-08         0.00000E+00
    0.46720E-09         0.92505E-08         0.00000E+00
   -0.70835E-09         0.97017E-08         0.00000E+00
   -0.17438E-08         0.93424E-08         0.00000E+00
   -0.25922E-08         0.87115E-08         0.00000E+00
   -0.32718E-08         0.80375E-08         0.00000E+00
   -0.38360E-08         0.74221E-08         0.00000E+00
   -0.43544E-08         0.69032E-08         0.00000E+00
   -0.49022E-08         0.64766E-08         0.00000E+00
   -0.55504E-08         0.61019E-08         0.00000E+00
   -0.63547E-08         0.57005E-08         0.00000E+00
   -0.73392E-08         0.51466E-08         0.00000E+00
   -0.84665E-08         0.42458E-08         0.00000E+00
   -0.95768E-08         0.26862E-08         0.00000E+00
   -0.10251E-07         0.16932E-08         0.00000E+00
    0.16475E-08         0.51396E-08         0.00000E+00
    0.95511E-09         0.75300E-08         0.00000E+00
   -0.31516E-09         0.10458E-07         0.00000E+00
   -0.15908E-08         0.10839E-07         0.00000E+00
   -0.26530E-08         0.10286E-07         0.00000E+00
   -0.34500E-08         0.94495E-08         0.00000E+00
   -0.40168E-08         0.86137E-08         0.00000E+00
   -0.44324E-08         0.79096E-08         0.00000E+00
   -0.47965E-08         0.73875E-08         0.00000E+00
   -0.52147E-08         0.70441E-08         0.00000E+00
   -0.57889E-08         0.68292E-08         0.00000E+00
   -0.66052E-08         0.66386E-08         0.00000E+00
   -0.77125E-08         0.62942E-08         0.00000E+00
   -0.90794E-08         0.54946E-08         0.00000E+00
   -0.10504E-07         0.37025E-08         0.00000E+00
   -0.11411E-07         0.24714E-08         0.00000E+00
    0.88506E-09         0.58781E-08         0.00000E+00
    0.76431E-10         0.85729E-08         0.00000E+00
   -0.13841E-08         0.11797E-07         0.00000E+00
   -0.27859E-08         0.12040E-07         0.00000E+00
   -0.38544E-08         0.11202E-07         0.00000E+00
   -0.45388E-08         0.10075E-07         0.00000E+00
   -0.49041E-08         0.90199E-08         0.00000E+00
   -0.50687E-08         0.82019E-08         0.00000E+00
   -0.51712E-08         0.76856E-08         0.00000E+00
   -0.53549E-08         0.74690E-08         0.00000E+00
   -0.57597E-08         0.74924E-08         0.00000E+00
   -0.65127E-08         0.76241E-08         0.00000E+00
   -0.77011E-08         0.76208E-08         0.00000E+00
   -0.93125E-08         0.70373E-08         0.00000E+00
   -0.11102E-07         0.50185E-08         0.00000E+00
   -0.12299E-07         0.35085E-08         0.00000E+00
   -0.11398E-09         0.67576E-08         0.00000E+00
   -0.11085E-08         0.97999E-08         0.00000E+00
   -0.28562E-08         0.13320E-07         0.00000E+00
   -0.44209E-08         0.13309E-07         0.00000E+00
   -0.54552E-08         0.12039E-07         0.00000E+00
   -0.59285E-08         0.10499E-07         0.00000E+00
   -0.59623E-08         0.91437E-08         0.00000E+00
   -0.57332E-08         0.81767E-08         0.00000E+00
   -0.54286E-08         0.76736E-08         0.00000E+00
   -0.52330E-08         0.76326E-08         0.00000E+00
   -0.53294E-08         0.79869E-08         0.00000E+00
   -0.58955E-08         0.85799E-08         0.00000E+00
   -0.70769E-08         0.90940E-08         0.00000E+00
   -0.89043E-08         0.88958E-08         0.00000E+00
   -0.11100E-07         0.66895E-08         0.00000E+00
   -0.12653E-07         0.48658E-08         0.00000E+00
   -0.14329E-08         0.78685E-08         0.00000E+00
   -0.27370E-08         0.11317E-07         0.00000E+00
   -0.49219E-08         0.15110E-07         0.00000E+00
   -0.66798E-08         0.14639E-07         0.00000E+00
   -0.75859E-08         0.12710E-07         0.00000E+00
   -0.76812E-08         0.10583E-07         0.00000E+00
   -0.71914E-08         0.88247E-08         0.00000E+00
   -0.63762E-08         0.76682E-08         0.00000E+00
   -0.54763E-08         0.71854E-08         0.00000E+00
   -0.47129E-08         0.73699E-08         0.00000E+00
   -0.43069E-08         0.81548E-08         0.00000E+00
   -0.44933E-08         0.93714E-08         0.00000E+00
   -0.55008E-08         0.10630E-07         0.00000E+00
   -0.74475E-08         0.11061E-07         0.00000E+00
   -0.10059E-07         0.87674E-08         0.00000E+00
   -0.12040E-07         0.66139E-08         0.00000E+00
   -0.32342E-08         0.93685E-08         0.00000E+00
   -0.50561E-08         0.13292E-07         0.00000E+00
   -0.78731E-08         0.17265E-07         0.00000E+00
   -0.97834E-08         0.15974E-07         0.00000E+00
   -0.10338E-07         0.13041E-07         0.00000E+00
   -0.97669E-08         0.10105E-07         0.00000E+00
   -0.84745E-08         0.78386E-08         0.00000E+00
   -0.68263E-08         0.64615E-08         0.00000E+00
   -0.51060E-08         0.60102E-08         0.00000E+00
   -0.35474E-08         0.64632E-08         0.00000E+00
   -0.23858E-08         0.77672E-08         0.00000E+00
   -0.19045E-08         0.97736E-08         0.00000E+00
   -0.24418E-08         0.12048E-07         0.00000E+00
   -0.42756E-08         0.13454E-07         0.00000E+00
   -0.72260E-08         0.11283E-07         0.00000E+00
   -0.97077E-08         0.88289E-08         0.00000E+00
   -0.58031E-08         0.11517E-07         0.00000E+00
   -0.84618E-08         0.15960E-07         0.00000E+00
   -0.12056E-07         0.19841E-07         0.00000E+00
   -0.13829E-07         0.17106E-07         0.00000E+00
   -0.13530E-07         0.12693E-07         0.00000E+00
   -0.11804E-07         0.87184E-08         0.00000E+00
   -0.93232E-08         0.58837E-08         0.00000E+00
   -0.65556E-08         0.42994E-08         0.00000E+00
   -0.37822E-08         0.39062E-08         0.00000E+00
   -0.11915E-08         0.46493E-08         0.00000E+00
    0.10245E-08         0.65115E-08         0.00000E+00
    0.25753E-08         0.94268E-08         0.00000E+00
    0.30075E-08         0.12999E-07         0.00000E+00
    0.17794E-08         0.15844E-07         0.00000E+00
   -0.12249E-08         0.14198E-07         0.00000E+00
   -0.42362E-08         0.11575E-07         0.00000E+00
   -0.94797E-08         0.14696E-07         0.00000E+00
   -0.13357E-07         0.19554E-07         0.00000E+00
   -0.17460E-07         0.22637E-07         0.00000E+00
   -0.18135E-07         0.17449E-07         0.00000E+00
   -0.15959E-07         0.11015E-07         0.00000E+00
   -0.12318E-07         0.58968E-08         0.00000E+00
   -0.81825E-08         0.25900E-08         0.00000E+00
   -0.40332E-08         0.92005E-09         0.00000E+00
   -0.42289E-10         0.64566E-09         0.00000E+00
    0.37526E-08         0.16559E-08         0.00000E+00
    0.73048E-08         0.39995E-08         0.00000E+00
    0.10422E-07         0.77887E-08         0.00000E+00
    0.12599E-07         0.12840E-07         0.00000E+00
    0.12939E-07         0.17681E-07         0.00000E+00
    0.10648E-07         0.17290E-07         0.00000E+00
    0.72402E-08         0.14843E-07         0.00000E+00
   -0.13919E-07         0.19290E-07         0.00000E+00
   -0.19046E-07         0.23955E-07         0.00000E+00
   -0.21894E-07         0.24624E-07         0.00000E+00
   -0.19068E-07         0.15603E-07         0.00000E+00
   -0.13243E-07         0.68728E-08         0.00000E+00
   -0.67287E-08         0.94044E-09         0.00000E+00
   -0.54813E-09        -0.24007E-08         0.00000E+00
    0.50522E-08        -0.38400E-08         0.00000E+00
    0.10201E-07        -0.38787E-08         0.00000E+00
    0.15155E-07        -0.26976E-08         0.00000E+00
    0.20154E-07        -0.15883E-09         0.00000E+00
    0.25280E-07         0.41288E-08         0.00000E+00
    0.30224E-07         0.10472E-07         0.00000E+00
    0.33819E-07         0.17775E-07         0.00000E+00
    0.34049E-07         0.19871E-07         0.00000E+00
    0.30884E-07         0.18364E-07         0.00000E+00
   -0.14257E-07         0.24971E-07         0.00000E+00
   -0.18575E-07         0.27539E-07         0.00000E+00
   -0.14444E-07         0.22652E-07         0.00000E+00
   -0.35345E-08         0.87877E-08         0.00000E+00
    0.80769E-08        -0.13268E-08         0.00000E+00
    0.18075E-07        -0.67932E-08         0.00000E+00
    0.26135E-07        -0.91821E-08         0.00000E+00
    0.32718E-07        -0.98187E-08         0.00000E+00
    0.38475E-07        -0.94470E-08         0.00000E+00
    0.44067E-07        -0.82894E-08         0.00000E+00
    0.50131E-07        -0.61216E-08         0.00000E+00
    0.57242E-07        -0.22858E-08         0.00000E+00
    0.65703E-07         0.42794E-08         0.00000E+00
    0.74953E-07         0.13800E-07         0.00000E+00
    0.81401E-07         0.20150E-07         0.00000E+00
    0.80663E-07         0.21100E-07         0.00000E+00
    0.15306E-07         0.27885E-07         0.00000E+00
    0.21644E-07         0.24085E-07         0.00000E+00
    0.45347E-07         0.95368E-08         0.00000E+00
    0.68780E-07        -0.69150E-08         0.00000E+00
    0.86325E-07        -0.14698E-07         0.00000E+00
    0.98353E-07        -0.17063E-07         0.00000E+00
    0.10658E-06        -0.16985E-07         0.00000E+00
    0.11257E-06        -0.16123E-07         0.00000E+00
    0.11751E-06        -0.15174E-07         0.00000E+00
    0.12235E-06        -0.14305E-07         0.00000E+00
    0.12806E-06        -0.13293E-07         0.00000E+00
    0.13574E-06        -0.11421E-07         0.00000E+00
    0.14676E-06        -0.72612E-08         0.00000E+00
    0.16238E-06         0.19530E-08         0.00000E+00
    0.18161E-06         0.13966E-07         0.00000E+00
    0.18884E-06         0.19645E-07         0.00000E+00
    0.18808E-06         0.11944E-07         0.00000E+00
    0.23607E-06        -0.27288E-08         0.00000E+00
    0.28363E-06        -0.24419E-07         0.00000E+00
    0.31209E-06        -0.31904E-07         0.00000E+00
    0.32706E-06        -0.30567E-07         0.00000E+00
    0.33456E-06        -0.26746E-07         0.00000E+00
    0.33825E-06        -0.23133E-07         0.00000E+00
    0.34012E-06        -0.20501E-07         0.00000E+00
    0.34129E-06        -0.19003E-07         0.00000E+00
    0.34253E-06        -0.18626E-07         0.00000E+00
    0.34461E-06        -0.19299E-07         0.00000E+00
    0.34863E-06        -0.20781E-07         0.00000E+00
    0.35654E-06        -0.22213E-07         0.00000E+00
    0.37166E-06        -0.21163E-07         0.00000E+00
    0.39932E-06        -0.66774E-08         0.00000E+00
    0.43718E-06         0.62220E-08         0.00000E+00
    0.10325E-05        -0.66560E-07         0.00000E+00
    0.10487E-05        -0.69640E-07         0.00000E+00
    0.10528E-05        -0.64106E-07         0.00000E+00
    0.10428E-05        -0.48069E-07         0.00000E+00
    0.10300E-05        -0.35488E-07         0.00000E+00
    0.10178E-05        -0.26982E-07         0.00000E+00
    0.10069E-05        -0.21549E-07         0.00000E+00
    0.99740E-06        -0.18323E-07         0.00000E+00
    0.98871E-06        -0.16816E-07         0.00000E+00
    0.98045E-06        -0.16856E-07         0.00000E+00
    0.97217E-06        -0.18557E-07         0.00000E+00
    0.96354E-06        -0.22360E-07         0.00000E+00
    0.95452E-06        -0.29043E-07         0.00000E+00
    0.94603E-06        -0.39753E-07         0.00000E+00
    0.94182E-06        -0.51178E-07         0.00000E+00
    0.94886E-06        -0.56070E-07         0.00000E+00
    0.17317E-05         0.00000E+00         0.00000E+00
    0.16838E-05         0.00000E+00         0.00000E+00
    0.16345E-05        -0.24860E-20         0.00000E+00
    0.15882E-05         0.16609E-22         0.00000E+00
    0.15526E-05         0.49885E-20         0.00000E+00
    0.15254E-05         0.00000E+00         0.00000E+00
    0.15040E-05         0.00000E+00         0.00000E+00
    0.14863E-05        -0.25071E-20         0.00000E+00
    0.14706E-05        -0.50141E-20         0.00000E+00
    0.14556E-05         0.50218E-20         0.00000E+00
    0.14399E-05         0.50218E-20         0.00000E+00
    0.14219E-05        -0.50326E-20         0.00000E+00
    0.13998E-05        -0.25113E-20         0.00000E+00
    0.13711E-05         0.50518E-20         0.00000E+00
    0.13350E-05         0.25305E-20         0.00000E+00
    0.12865E-05         0.00000E+00         0.00000E+00
CELL_DATA        450
TENSORS stressef double 
    0.61624E+05         0.25446E+03         0.00000E+00
    0.25446E+03        -0.61487E+05         0.00000E+00
    0.00000E+00         0.00000E+00         0.27340E+02
 
    0.59691E+05         0.71087E+03         0.00000E+00
    0.71087E+03        -0.59760E+05         0.00000E+00
    0.00000E+00         0.00000E+00        -0.13829E+02
 
    0.56530E+05         0.10844E+04         0.00000E+00
    0.10844E+04        -0.56651E+05         0.00000E+00
    0.00000E+00         0.00000E+00        -0.24089E+02
 
    0.52382E+05         0.13695E+04         0.00000E+00
    0.13695E+04        -0.52493E+05         0.00000E+00
    0.00000E+00         0.00000E+00        -0.22236E+02
 
    0.47500E+05         0.15674E+04         0.00000E+00
    0.15674E+04        -0.47580E+05         0.00000E+00
    0.00000E+00         0.00000E+00        -0.15987E+02
 
    0.42135E+05         0.16828E+04         0.00000E+00
    0.16828E+04        -0.42177E+05         0.00000E+00
    0.00000E+00         0.00000E+00        -0.85222E+01
 
    0.36519E+05         0.17225E+04         0.00000E+00
    0.17225E+04        -0.36525E+05         0.00000E+00
    0.00000E+00         0.00000E+00        -0.11880E+01
 
    0.30865E+05         0.16948E+04         0.00000E+00
    0.16948E+04        -0.30838E+05         0.00000E+00
    0.00000E+00         0.00000E+00         0.53848E+01
 
    0.25360E+05         0.16096E+04         0.00000E+00
    0.16096E+04        -0.25306E+05         0.00000E+00
    0.00000E+00         0.00000E+00         0.10790E+02
 
    0.20157E+05         0.14780E+04         0.00000E+00
    0.14780E+04        -0.20084E+05         0.00000E+00
    0.00000E+00         0.00000E+00         0.14561E+02
 
    0.15377E+05         0.13132E+04         0.00000E+00
    0.13132E+04        -0.15298E+05         0.00000E+00
    0.00000E+00         0.00000E+00         0.15807E+02
 
    0.11096E+05         0.11303E+04         0.00000E+00
    0.11303E+04        -0.11034E+05         0.00000E+00
    0.00000E+00         0.00000E+00         0.12373E+02
 
    0.73395E+04         0.94731E+03         0.00000E+00
    0.94731E+03        -0.73472E+04         0.00000E+00
    0.00000E+00         0.00000E+00        -0.15299E+01
 
    0.40683E+04         0.78457E+03         0.00000E+00
    0.78457E+03        -0.42794E+04         0.00000E+00
    0.00000E+00         0.00000E+00        -0.42238E+02
 
    0.11515E+04         0.66401E+03         0.00000E+00
    0.66401E+03        -0.19357E+04         0.00000E+00
    0.00000E+00         0.00000E+00        -0.15684E+03
 
    0.62150E+05         0.76514E+03         0.00000E+00
    0.76514E+03        -0.61946E+05         0.00000E+00
    0.00000E+00         0.00000E+00         0.40837E+02
 
    0.60116E+05         0.21364E+04         0.00000E+00
    0.21364E+04        -0.60161E+05         0.00000E+00
    0.00000E+00         0.00000E+00        -0.89627E+01
 
    0.56857E+05         0.32574E+04         0.00000E+00
    0.32574E+04        -0.56968E+05         0.00000E+00
    0.00000E+00         0.00000E+00        -0.22287E+02
 
    0.52613E+05         0.41124E+04         0.00000E+00
    0.41124E+04        -0.52721E+05         0.00000E+00
    0.00000E+00         0.00000E+00        -0.21517E+02
 
    0.47642E+05         0.47053E+04         0.00000E+00
    0.47053E+04        -0.47721E+05         0.00000E+00
    0.00000E+00         0.00000E+00        -0.15660E+02
 
    0.42195E+05         0.50504E+04         0.00000E+00
    0.50504E+04        -0.42236E+05         0.00000E+00
    0.00000E+00         0.00000E+00        -0.83510E+01
 
    0.36506E+05         0.51686E+04         0.00000E+00
    0.51686E+04        -0.36511E+05         0.00000E+00
    0.00000E+00         0.00000E+00        -0.10853E+01
 
    0.30789E+05         0.50850E+04         0.00000E+00
    0.50850E+04        -0.30761E+05         0.00000E+00
    0.00000E+00         0.00000E+00         0.54650E+01
 
    0.25231E+05         0.48287E+04         0.00000E+00
    0.48287E+04        -0.25176E+05         0.00000E+00
    0.00000E+00         0.00000E+00         0.10894E+02
 
    0.19989E+05         0.44331E+04         0.00000E+00
    0.44331E+04        -0.19915E+05         0.00000E+00
    0.00000E+00         0.00000E+00         0.14750E+02
 
    0.15185E+05         0.39368E+04         0.00000E+00
    0.39368E+04        -0.15104E+05         0.00000E+00
    0.00000E+00         0.00000E+00         0.16183E+02
 
    0.10899E+05         0.33853E+04         0.00000E+00
    0.33853E+04        -0.10833E+05         0.00000E+00
    0.00000E+00         0.00000E+00         0.13134E+02
 
    0.71618E+04         0.28317E+04         0.00000E+00
    0.28317E+04        -0.71614E+04         0.00000E+00
    0.00000E+00         0.00000E+00         0.81568E-01
 
    0.39400E+04         0.23369E+04         0.00000E+00
    0.23369E+04        -0.41326E+04         0.00000E+00
    0.00000E+00         0.00000E+00        -0.38527E+02
 
    0.11106E+04         0.19667E+04         0.00000E+00
    0.19667E+04        -0.18482E+04         0.00000E+00
    0.00000E+00         0.00000E+00        -0.14751E+03
 
    0.63207E+05         0.12809E+04         0.00000E+00
    0.12809E+04        -0.62865E+05         0.00000E+00
    0.00000E+00         0.00000E+00         0.68421E+02
 
    0.60969E+05         0.35727E+04         0.00000E+00
    0.35727E+04        -0.60964E+05         0.00000E+00
    0.00000E+00         0.00000E+00         0.10045E+01
 
    0.57511E+05         0.54422E+04         0.00000E+00
    0.54422E+04        -0.57604E+05         0.00000E+00
    0.00000E+00         0.00000E+00        -0.18579E+02
 
    0.53078E+05         0.68652E+04         0.00000E+00
    0.68652E+04        -0.53178E+05         0.00000E+00
    0.00000E+00         0.00000E+00        -0.20031E+02
 
    0.47929E+05         0.78502E+04         0.00000E+00
    0.78502E+04        -0.48004E+05         0.00000E+00
    0.00000E+00         0.00000E+00        -0.14986E+02
 
    0.42320E+05         0.84223E+04         0.00000E+00
    0.84223E+04        -0.42360E+05         0.00000E+00
    0.00000E+00         0.00000E+00        -0.80058E+01
 
    0.36486E+05         0.86168E+04         0.00000E+00
    0.86168E+04        -0.36490E+05         0.00000E+00
    0.00000E+00         0.00000E+00        -0.89191E+00
 
    0.30644E+05         0.84756E+04         0.00000E+00
    0.84756E+04        -0.30616E+05         0.00000E+00
    0.00000E+00         0.00000E+00         0.56012E+01
 
    0.24982E+05         0.80467E+04         0.00000E+00
    0.80467E+04        -0.24927E+05         0.00000E+00
    0.00000E+00         0.00000E+00         0.11066E+02
 
    0.19662E+05         0.73845E+04         0.00000E+00
    0.73845E+04        -0.19587E+05         0.00000E+00
    0.00000E+00         0.00000E+00         0.15087E+02
 
    0.14810E+05         0.65521E+04         0.00000E+00
    0.65521E+04        -0.14726E+05         0.00000E+00
    0.00000E+00         0.00000E+00         0.16889E+02
 
    0.10514E+05         0.56235E+04         0.00000E+00
    0.56235E+04        -0.10441E+05         0.00000E+00
    0.00000E+00         0.00000E+00         0.14605E+02
 
    0.68130E+04         0.46858E+04         0.00000E+00
    0.46858E+04        -0.67968E+04         0.00000E+00
    0.00000E+00         0.00000E+00         0.32461E+01
 
    0.36874E+04         0.38395E+04         0.00000E+00
    0.38395E+04        -0.38434E+04         0.00000E+00
    0.00000E+00         0.00000E+00        -0.31197E+02
 
    0.10300E+04         0.31940E+04         0.00000E+00
    0.31940E+04        -0.16753E+04         0.00000E+00
    0.00000E+00         0.00000E+00        -0.12905E+03
 
    0.64803E+05         0.18041E+04         0.00000E+00
    0.18041E+04        -0.64247E+05         0.00000E+00
    0.00000E+00         0.00000E+00         0.11126E+03
 
    0.62254E+05         0.50242E+04         0.00000E+00
    0.50242E+04        -0.62171E+05         0.00000E+00
    0.00000E+00         0.00000E+00         0.16536E+02
 
    0.58497E+05         0.76426E+04         0.00000E+00
    0.76426E+04        -0.58561E+05         0.00000E+00
    0.00000E+00         0.00000E+00        -0.12764E+02
 
    0.53781E+05         0.96298E+04         0.00000E+00
    0.96298E+04        -0.53869E+05         0.00000E+00
    0.00000E+00         0.00000E+00        -0.17680E+02
 
    0.48369E+05         0.11001E+05         0.00000E+00
    0.11001E+05        -0.48439E+05         0.00000E+00
    0.00000E+00         0.00000E+00        -0.13922E+02
 
    0.42520E+05         0.11796E+05         0.00000E+00
    0.11796E+05        -0.42558E+05         0.00000E+00
    0.00000E+00         0.00000E+00        -0.74805E+01
 
    0.36475E+05         0.12063E+05         0.00000E+00
    0.12063E+05        -0.36478E+05         0.00000E+00
    0.00000E+00         0.00000E+00        -0.63085E+00
 
    0.30449E+05         0.11862E+05         0.00000E+00
    0.11862E+05        -0.30420E+05         0.00000E+00
    0.00000E+00         0.00000E+00         0.57449E+01
 
    0.24635E+05         0.11259E+05         0.00000E+00
    0.11259E+05        -0.24579E+05         0.00000E+00
    0.00000E+00         0.00000E+00         0.11238E+02
 
    0.19199E+05         0.10327E+05         0.00000E+00
    0.10327E+05        -0.19121E+05         0.00000E+00
    0.00000E+00         0.00000E+00         0.15486E+02
 
    0.14273E+05         0.91521E+04         0.00000E+00
    0.91521E+04        -0.14184E+05         0.00000E+00
    0.00000E+00         0.00000E+00         0.17831E+02
 
    0.99577E+04         0.78337E+04         0.00000E+00
    0.78337E+04        -0.98743E+04         0.00000E+00
    0.00000E+00         0.00000E+00         0.16685E+02
 
    0.63068E+04         0.64906E+04         0.00000E+00
    0.64906E+04        -0.62676E+04         0.00000E+00
    0.00000E+00         0.00000E+00         0.78409E+01
 
    0.33189E+04         0.52612E+04         0.00000E+00
    0.52612E+04        -0.34211E+04         0.00000E+00
    0.00000E+00         0.00000E+00        -0.20441E+02
 
    0.91209E+03         0.42979E+04         0.00000E+00
    0.42979E+04        -0.14215E+04         0.00000E+00
    0.00000E+00         0.00000E+00        -0.10189E+03
 
    0.66950E+05         0.23358E+04         0.00000E+00
    0.23358E+04        -0.66094E+05         0.00000E+00
    0.00000E+00         0.00000E+00         0.17107E+03
 
    0.63976E+05         0.64916E+04         0.00000E+00
    0.64916E+04        -0.63784E+05         0.00000E+00
    0.00000E+00         0.00000E+00         0.38317E+02
 
    0.59819E+05         0.98565E+04         0.00000E+00
    0.98565E+04        -0.59841E+05         0.00000E+00
    0.00000E+00         0.00000E+00        -0.45366E+01
 
    0.54727E+05         0.12401E+05         0.00000E+00
    0.12401E+05        -0.54799E+05         0.00000E+00
    0.00000E+00         0.00000E+00        -0.14320E+02
 
    0.48972E+05         0.14150E+05         0.00000E+00
    0.14150E+05        -0.49034E+05         0.00000E+00
    0.00000E+00         0.00000E+00        -0.12403E+02
 
    0.42813E+05         0.15159E+05         0.00000E+00
    0.15159E+05        -0.42847E+05         0.00000E+00
    0.00000E+00         0.00000E+00        -0.67640E+01
 
    0.36494E+05         0.15495E+05         0.00000E+00
    0.15495E+05        -0.36496E+05         0.00000E+00
    0.00000E+00         0.00000E+00        -0.33579E+00
 
    0.30232E+05         0.15232E+05         0.00000E+00
    0.15232E+05        -0.30203E+05         0.00000E+00
    0.00000E+00         0.00000E+00         0.58233E+01
 
    0.24221E+05         0.14455E+05         0.00000E+00
    0.14455E+05        -0.24165E+05         0.00000E+00
    0.00000E+00         0.00000E+00         0.11303E+02
 
    0.18632E+05         0.13252E+05         0.00000E+00
    0.13252E+05        -0.18553E+05         0.00000E+00
    0.00000E+00         0.00000E+00         0.15817E+02
 
    0.13607E+05         0.11728E+05         0.00000E+00
    0.11728E+05        -0.13513E+05         0.00000E+00
    0.00000E+00         0.00000E+00         0.18859E+02
 
    0.92600E+04         0.10005E+05         0.00000E+00
    0.10005E+05        -0.91639E+04         0.00000E+00
    0.00000E+00         0.00000E+00         0.19209E+02
 
    0.56652E+04         0.82289E+04         0.00000E+00
    0.82289E+04        -0.55969E+04         0.00000E+00
    0.00000E+00         0.00000E+00         0.13667E+02
 
    0.28478E+04         0.65738E+04         0.00000E+00
    0.65738E+04        -0.28807E+04         0.00000E+00
    0.00000E+00         0.00000E+00        -0.65807E+01
 
    0.76070E+03         0.52340E+04         0.00000E+00
    0.52340E+04        -0.10943E+04         0.00000E+00
    0.00000E+00         0.00000E+00        -0.66715E+02
 
    0.69659E+05         0.28750E+04         0.00000E+00
    0.28750E+04        -0.68409E+05         0.00000E+00
    0.00000E+00         0.00000E+00         0.25008E+03
 
    0.66139E+05         0.79700E+04         0.00000E+00
    0.79700E+04        -0.65803E+05         0.00000E+00
    0.00000E+00         0.00000E+00         0.67236E+02
 
    0.61479E+05         0.12074E+05         0.00000E+00
    0.12074E+05        -0.61446E+05         0.00000E+00
    0.00000E+00         0.00000E+00         0.64983E+01
 
    0.55925E+05         0.15161E+05         0.00000E+00
    0.15161E+05        -0.55974E+05         0.00000E+00
    0.00000E+00         0.00000E+00        -0.97563E+01
 
    0.49751E+05         0.17275E+05         0.00000E+00
    0.17275E+05        -0.49803E+05         0.00000E+00
    0.00000E+00         0.00000E+00        -0.10339E+02
 
    0.43221E+05         0.18489E+05         0.00000E+00
    0.18489E+05        -0.43250E+05         0.00000E+00
    0.00000E+00         0.00000E+00        -0.58376E+01
 
    0.36575E+05         0.18888E+05         0.00000E+00
    0.18888E+05        -0.36576E+05         0.00000E+00
    0.00000E+00         0.00000E+00        -0.48947E-01
 
    0.30032E+05         0.18564E+05         0.00000E+00
    0.18564E+05        -0.30003E+05         0.00000E+00
    0.00000E+00         0.00000E+00         0.57393E+01
 
    0.23786E+05         0.17615E+05         0.00000E+00
    0.17615E+05        -0.23730E+05         0.00000E+00
    0.00000E+00         0.00000E+00         0.11118E+02
 
    0.18010E+05         0.16143E+05         0.00000E+00
    0.16143E+05        -0.17931E+05         0.00000E+00
    0.00000E+00         0.00000E+00         0.15896E+02
 
    0.12859E+05         0.14267E+05         0.00000E+00
    0.14267E+05        -0.12760E+05         0.00000E+00
    0.00000E+00         0.00000E+00         0.19765E+02
 
    0.84621E+04         0.12126E+05         0.00000E+00
    0.12126E+05        -0.83524E+04         0.00000E+00
    0.00000E+00         0.00000E+00         0.21942E+02
 
    0.49206E+04         0.98865E+04         0.00000E+00
    0.98865E+04        -0.48185E+04         0.00000E+00
    0.00000E+00         0.00000E+00         0.20428E+02
 
    0.22941E+04         0.77541E+04         0.00000E+00
    0.77541E+04        -0.22446E+04         0.00000E+00
    0.00000E+00         0.00000E+00         0.99018E+01
 
    0.58170E+03         0.59632E+04         0.00000E+00
    0.59632E+04        -0.70465E+03         0.00000E+00
    0.00000E+00         0.00000E+00        -0.24591E+02
 
    0.72943E+05         0.34183E+04         0.00000E+00
    0.34183E+04        -0.71188E+05         0.00000E+00
    0.00000E+00         0.00000E+00         0.35094E+03
 
    0.68746E+05         0.94472E+04         0.00000E+00
    0.94472E+04        -0.68225E+05         0.00000E+00
    0.00000E+00         0.00000E+00         0.10436E+03
 
    0.63479E+05         0.14273E+05         0.00000E+00
    0.14273E+05        -0.63375E+05         0.00000E+00
    0.00000E+00         0.00000E+00         0.20827E+02
 
    0.57380E+05         0.17882E+05         0.00000E+00
    0.17882E+05        -0.57399E+05         0.00000E+00
    0.00000E+00         0.00000E+00        -0.37442E+01
 
    0.50724E+05         0.20340E+05         0.00000E+00
    0.20340E+05        -0.50762E+05         0.00000E+00
    0.00000E+00         0.00000E+00        -0.76100E+01
 
    0.43771E+05         0.21745E+05         0.00000E+00
    0.21745E+05        -0.43795E+05         0.00000E+00
    0.00000E+00         0.00000E+00        -0.46714E+01
 
    0.36760E+05         0.22202E+05         0.00000E+00
    0.22202E+05        -0.36759E+05         0.00000E+00
    0.00000E+00         0.00000E+00         0.18187E+00
 
    0.29902E+05         0.21820E+05         0.00000E+00
    0.21820E+05        -0.29875E+05         0.00000E+00
    0.00000E+00         0.00000E+00         0.53722E+01
 
    0.23389E+05         0.20708E+05         0.00000E+00
    0.20708E+05        -0.23337E+05         0.00000E+00
    0.00000E+00         0.00000E+00         0.10495E+02
 
    0.17398E+05         0.18978E+05         0.00000E+00
    0.18978E+05        -0.17321E+05         0.00000E+00
    0.00000E+00         0.00000E+00         0.15484E+02
 
    0.12092E+05         0.16755E+05         0.00000E+00
    0.16755E+05        -0.11991E+05         0.00000E+00
    0.00000E+00         0.00000E+00         0.20264E+02
 
    0.76215E+04         0.14186E+05         0.00000E+00
    0.14186E+05        -0.74987E+04         0.00000E+00
    0.00000E+00         0.00000E+00         0.24557E+02
 
    0.41181E+04         0.11453E+05         0.00000E+00
    0.11453E+05        -0.39796E+04         0.00000E+00
    0.00000E+00         0.00000E+00         0.27709E+02
 
    0.16860E+04         0.87857E+04         0.00000E+00
    0.87857E+04        -0.15445E+04         0.00000E+00
    0.00000E+00         0.00000E+00         0.28309E+02
 
    0.38335E+03         0.64547E+04         0.00000E+00
    0.64547E+04        -0.26865E+03         0.00000E+00
    0.00000E+00         0.00000E+00         0.22938E+02
 
    0.76807E+05         0.39589E+04         0.00000E+00
    0.39589E+04        -0.74424E+05         0.00000E+00
    0.00000E+00         0.00000E+00         0.47668E+03
 
    0.71795E+05         0.10902E+05         0.00000E+00
    0.10902E+05        -0.71041E+05         0.00000E+00
    0.00000E+00         0.00000E+00         0.15092E+03
 
    0.65818E+05         0.16418E+05         0.00000E+00
    0.16418E+05        -0.65623E+05         0.00000E+00
    0.00000E+00         0.00000E+00         0.39013E+02
 
    0.59100E+05         0.20516E+05         0.00000E+00
    0.20516E+05        -0.59080E+05         0.00000E+00
    0.00000E+00         0.00000E+00         0.40111E+01
 
    0.51909E+05         0.23289E+05         0.00000E+00
    0.23289E+05        -0.51929E+05         0.00000E+00
    0.00000E+00         0.00000E+00        -0.40640E+01
 
    0.44499E+05         0.24866E+05         0.00000E+00
    0.24866E+05        -0.44515E+05         0.00000E+00
    0.00000E+00         0.00000E+00        -0.32174E+01
 
    0.37099E+05         0.25376E+05         0.00000E+00
    0.25376E+05        -0.37097E+05         0.00000E+00
    0.00000E+00         0.00000E+00         0.30802E+00
 
    0.29908E+05         0.24945E+05         0.00000E+00
    0.24945E+05        -0.29885E+05         0.00000E+00
    0.00000E+00         0.00000E+00         0.45800E+01
 
    0.23111E+05         0.23688E+05         0.00000E+00
    0.23688E+05        -0.23065E+05         0.00000E+00
    0.00000E+00         0.00000E+00         0.92049E+01
 
    0.16883E+05         0.21722E+05         0.00000E+00
    0.21722E+05        -0.16811E+05         0.00000E+00
    0.00000E+00         0.00000E+00         0.14277E+02
 
    0.11393E+05         0.19169E+05         0.00000E+00
    0.19169E+05        -0.11293E+05         0.00000E+00
    0.00000E+00         0.00000E+00         0.19991E+02
 
    0.68154E+04         0.16174E+05         0.00000E+00
    0.16174E+05        -0.66823E+04         0.00000E+00
    0.00000E+00         0.00000E+00         0.26621E+02
 
    0.33191E+04         0.12924E+05         0.00000E+00
    0.12924E+05        -0.31444E+04         0.00000E+00
    0.00000E+00         0.00000E+00         0.34935E+02
 
    0.10623E+04         0.96613E+04         0.00000E+00
    0.96613E+04        -0.82399E+03         0.00000E+00
    0.00000E+00         0.00000E+00         0.47660E+02
 
    0.17709E+03         0.66889E+04         0.00000E+00
    0.66889E+04         0.19136E+03         0.00000E+00
    0.00000E+00         0.00000E+00         0.73690E+02
 
    0.81250E+05         0.44862E+04         0.00000E+00
    0.44862E+04        -0.78098E+05         0.00000E+00
    0.00000E+00         0.00000E+00         0.63053E+03
 
    0.75276E+05         0.12304E+05         0.00000E+00
    0.12304E+05        -0.74235E+05         0.00000E+00
    0.00000E+00         0.00000E+00         0.20824E+03
 
    0.68489E+05         0.18460E+05         0.00000E+00
    0.18460E+05        -0.68180E+05         0.00000E+00
    0.00000E+00         0.00000E+00         0.61689E+02
 
    0.61087E+05         0.22995E+05         0.00000E+00
    0.22995E+05        -0.61017E+05         0.00000E+00
    0.00000E+00         0.00000E+00         0.13857E+02
 
    0.53326E+05         0.26043E+05         0.00000E+00
    0.26043E+05        -0.53323E+05         0.00000E+00
    0.00000E+00         0.00000E+00         0.49284E+00
 
    0.45445E+05         0.27767E+05         0.00000E+00
    0.27767E+05        -0.45452E+05         0.00000E+00
    0.00000E+00         0.00000E+00        -0.14016E+01
 
    0.37654E+05         0.28325E+05         0.00000E+00
    0.28325E+05        -0.37653E+05         0.00000E+00
    0.00000E+00         0.00000E+00         0.28705E+00
 
    0.30135E+05         0.27859E+05         0.00000E+00
    0.27859E+05        -0.30119E+05         0.00000E+00
    0.00000E+00         0.00000E+00         0.32017E+01
 
    0.23052E+05         0.26490E+05         0.00000E+00
    0.26490E+05        -0.23018E+05         0.00000E+00
    0.00000E+00         0.00000E+00         0.69728E+01
 
    0.16573E+05         0.24327E+05         0.00000E+00
    0.24327E+05        -0.16513E+05         0.00000E+00
    0.00000E+00         0.00000E+00         0.11893E+02
 
    0.10873E+05         0.21480E+05         0.00000E+00
    0.21480E+05        -0.10780E+05         0.00000E+00
    0.00000E+00         0.00000E+00         0.18474E+02
 
    0.61457E+04         0.18080E+05         0.00000E+00
    0.18080E+05        -0.60079E+04         0.00000E+00
    0.00000E+00         0.00000E+00         0.27558E+02
 
    0.26052E+04         0.14301E+05         0.00000E+00
    0.14301E+05        -0.23985E+04         0.00000E+00
    0.00000E+00         0.00000E+00         0.41327E+02
 
    0.47514E+03         0.10386E+05         0.00000E+00
    0.10386E+05        -0.14212E+03         0.00000E+00
    0.00000E+00         0.00000E+00         0.66604E+02
 
   -0.21517E+02         0.66618E+04         0.00000E+00
    0.66618E+04         0.64468E+03         0.00000E+00
    0.00000E+00         0.00000E+00         0.12463E+03
 
    0.86259E+05         0.49855E+04         0.00000E+00
    0.49855E+04        -0.82180E+05         0.00000E+00
    0.00000E+00         0.00000E+00         0.81580E+03
 
    0.79167E+05         0.13609E+05         0.00000E+00
    0.13609E+05        -0.77778E+05         0.00000E+00
    0.00000E+00         0.00000E+00         0.27770E+03
 
    0.71473E+05         0.20328E+05         0.00000E+00
    0.20328E+05        -0.71025E+05         0.00000E+00
    0.00000E+00         0.00000E+00         0.89541E+02
 
    0.63338E+05         0.25228E+05         0.00000E+00
    0.25228E+05        -0.63207E+05         0.00000E+00
    0.00000E+00         0.00000E+00         0.26196E+02
 
    0.54993E+05         0.28493E+05         0.00000E+00
    0.28493E+05        -0.54962E+05         0.00000E+00
    0.00000E+00         0.00000E+00         0.63053E+01
 
    0.46655E+05         0.30331E+05         0.00000E+00
    0.30331E+05        -0.46651E+05         0.00000E+00
    0.00000E+00         0.00000E+00         0.88792E+00
 
    0.38502E+05         0.30932E+05         0.00000E+00
    0.30932E+05        -0.38502E+05         0.00000E+00
    0.00000E+00         0.00000E+00         0.92082E-01
 
    0.30684E+05         0.30455E+05         0.00000E+00
    0.30455E+05        -0.30678E+05         0.00000E+00
    0.00000E+00         0.00000E+00         0.10625E+01
 
    0.23337E+05         0.29022E+05         0.00000E+00
    0.29022E+05        -0.23320E+05         0.00000E+00
    0.00000E+00         0.00000E+00         0.34745E+01
 
    0.16609E+05         0.26727E+05         0.00000E+00
    0.26727E+05        -0.16570E+05         0.00000E+00
    0.00000E+00         0.00000E+00         0.78703E+01
 
    0.10673E+05         0.23652E+05         0.00000E+00
    0.23652E+05        -0.10598E+05         0.00000E+00
    0.00000E+00         0.00000E+00         0.15118E+02
 
    0.57444E+04         0.19893E+05         0.00000E+00
    0.19893E+05        -0.56112E+04         0.00000E+00
    0.00000E+00         0.00000E+00         0.26624E+02
 
    0.20838E+04         0.15595E+05         0.00000E+00
    0.15595E+05        -0.18546E+04         0.00000E+00
    0.00000E+00         0.00000E+00         0.45845E+02
 
   -0.59848E+01         0.10983E+05         0.00000E+00
    0.10983E+05         0.42248E+03         0.00000E+00
    0.00000E+00         0.00000E+00         0.83298E+02
 
   -0.19169E+03         0.63906E+04         0.00000E+00
    0.63906E+04         0.10498E+04         0.00000E+00
    0.00000E+00         0.00000E+00         0.17162E+03
 
    0.91803E+05         0.54375E+04         0.00000E+00
    0.54375E+04        -0.86625E+05         0.00000E+00
    0.00000E+00         0.00000E+00         0.10357E+04
 
    0.83431E+05         0.14761E+05         0.00000E+00
    0.14761E+05        -0.81628E+05         0.00000E+00
    0.00000E+00         0.00000E+00         0.36068E+03
 
    0.74741E+05         0.21934E+05         0.00000E+00
    0.21934E+05        -0.74125E+05         0.00000E+00
    0.00000E+00         0.00000E+00         0.12329E+03
 
    0.65841E+05         0.27097E+05         0.00000E+00
    0.27097E+05        -0.65634E+05         0.00000E+00
    0.00000E+00         0.00000E+00         0.41492E+02
 
    0.56927E+05         0.30501E+05         0.00000E+00
    0.30501E+05        -0.56859E+05         0.00000E+00
    0.00000E+00         0.00000E+00         0.13682E+02
 
    0.48178E+05         0.32406E+05         0.00000E+00
    0.32406E+05        -0.48159E+05         0.00000E+00
    0.00000E+00         0.00000E+00         0.38151E+01
 
    0.39728E+05         0.33043E+05         0.00000E+00
    0.33043E+05        -0.39729E+05         0.00000E+00
    0.00000E+00         0.00000E+00        -0.27639E+00
 
    0.31677E+05         0.32589E+05         0.00000E+00
    0.32589E+05        -0.31688E+05         0.00000E+00
    0.00000E+00         0.00000E+00        -0.20193E+01
 
    0.24119E+05         0.31163E+05         0.00000E+00
    0.31163E+05        -0.24127E+05         0.00000E+00
    0.00000E+00         0.00000E+00        -0.16620E+01
 
    0.17165E+05         0.28832E+05         0.00000E+00
    0.28832E+05        -0.17157E+05         0.00000E+00
    0.00000E+00         0.00000E+00         0.16502E+01
 
    0.10975E+05         0.25632E+05         0.00000E+00
    0.25632E+05        -0.10929E+05         0.00000E+00
    0.00000E+00         0.00000E+00         0.91850E+01
 
    0.57805E+04         0.21602E+05         0.00000E+00
    0.21602E+05        -0.56662E+04         0.00000E+00
    0.00000E+00         0.00000E+00         0.22860E+02
 
    0.18942E+04         0.16829E+05         0.00000E+00
    0.16829E+05        -0.16586E+04         0.00000E+00
    0.00000E+00         0.00000E+00         0.47114E+02
 
   -0.28987E+03         0.11494E+05         0.00000E+00
    0.11494E+05         0.76624E+03         0.00000E+00
    0.00000E+00         0.00000E+00         0.95274E+02
 
   -0.30595E+03         0.59208E+04         0.00000E+00
    0.59208E+04         0.13513E+04         0.00000E+00
    0.00000E+00         0.00000E+00         0.20908E+03
 
    0.97829E+05         0.58179E+04         0.00000E+00
    0.58179E+04        -0.91363E+05         0.00000E+00
    0.00000E+00         0.00000E+00         0.12931E+04
 
    0.88012E+05         0.15690E+05         0.00000E+00
    0.15690E+05        -0.85719E+05         0.00000E+00
    0.00000E+00         0.00000E+00         0.45847E+03
 
    0.78247E+05         0.23164E+05         0.00000E+00
    0.23164E+05        -0.77429E+05         0.00000E+00
    0.00000E+00         0.00000E+00         0.16370E+03
 
    0.68572E+05         0.28455E+05         0.00000E+00
    0.28455E+05        -0.68271E+05         0.00000E+00
    0.00000E+00         0.00000E+00         0.60276E+02
 
    0.59136E+05         0.31889E+05         0.00000E+00
    0.31889E+05        -0.59021E+05         0.00000E+00
    0.00000E+00         0.00000E+00         0.23011E+02
 
    0.50064E+05         0.33798E+05         0.00000E+00
    0.33798E+05        -0.50026E+05         0.00000E+00
    0.00000E+00         0.00000E+00         0.76115E+01
 
    0.41428E+05         0.34460E+05         0.00000E+00
    0.34460E+05        -0.41432E+05         0.00000E+00
    0.00000E+00         0.00000E+00        -0.77812E+00
 
    0.33260E+05         0.34076E+05         0.00000E+00
    0.34076E+05        -0.33291E+05         0.00000E+00
    0.00000E+00         0.00000E+00        -0.62254E+01
 
    0.25583E+05         0.32756E+05         0.00000E+00
    0.32756E+05        -0.25627E+05         0.00000E+00
    0.00000E+00         0.00000E+00        -0.88568E+01
 
    0.18454E+05         0.30526E+05         0.00000E+00
    0.30526E+05        -0.18491E+05         0.00000E+00
    0.00000E+00         0.00000E+00        -0.74297E+01
 
    0.12003E+05         0.27355E+05         0.00000E+00
    0.27355E+05        -0.12004E+05         0.00000E+00
    0.00000E+00         0.00000E+00        -0.23623E+00
 
    0.64683E+04         0.23195E+05         0.00000E+00
    0.23195E+05        -0.63930E+04         0.00000E+00
    0.00000E+00         0.00000E+00         0.15046E+02
 
    0.22149E+04         0.18039E+05         0.00000E+00
    0.18039E+05        -0.19983E+04         0.00000E+00
    0.00000E+00         0.00000E+00         0.43336E+02
 
   -0.25808E+03         0.11992E+05         0.00000E+00
    0.11992E+05         0.75431E+03         0.00000E+00
    0.00000E+00         0.00000E+00         0.99247E+02
 
   -0.32839E+03         0.53351E+04         0.00000E+00
    0.53351E+04         0.14761E+04         0.00000E+00
    0.00000E+00         0.00000E+00         0.22954E+03
 
    0.10426E+06         0.60983E+04         0.00000E+00
    0.60983E+04        -0.96304E+05         0.00000E+00
    0.00000E+00         0.00000E+00         0.15906E+04
 
    0.92827E+05         0.16313E+05         0.00000E+00
    0.16313E+05        -0.89966E+05         0.00000E+00
    0.00000E+00         0.00000E+00         0.57227E+03
 
    0.81921E+05         0.23886E+05         0.00000E+00
    0.23886E+05        -0.80863E+05         0.00000E+00
    0.00000E+00         0.00000E+00         0.21153E+03
 
    0.71487E+05         0.29121E+05         0.00000E+00
    0.29121E+05        -0.71072E+05         0.00000E+00
    0.00000E+00         0.00000E+00         0.83161E+02
 
    0.61615E+05         0.32441E+05         0.00000E+00
    0.32441E+05        -0.61441E+05         0.00000E+00
    0.00000E+00         0.00000E+00         0.34776E+02
 
    0.52360E+05         0.34265E+05         0.00000E+00
    0.34265E+05        -0.52297E+05         0.00000E+00
    0.00000E+00         0.00000E+00         0.12589E+02
 
    0.43709E+05         0.34935E+05         0.00000E+00
    0.34935E+05        -0.43715E+05         0.00000E+00
    0.00000E+00         0.00000E+00        -0.13241E+01
 
    0.35596E+05         0.34680E+05         0.00000E+00
    0.34680E+05        -0.35655E+05         0.00000E+00
    0.00000E+00         0.00000E+00        -0.11730E+02
 
    0.27948E+05         0.33597E+05         0.00000E+00
    0.33597E+05        -0.28041E+05         0.00000E+00
    0.00000E+00         0.00000E+00        -0.18575E+02
 
    0.20735E+05         0.31658E+05         0.00000E+00
    0.31658E+05        -0.20836E+05         0.00000E+00
    0.00000E+00         0.00000E+00        -0.20141E+02
 
    0.14035E+05         0.28735E+05         0.00000E+00
    0.28735E+05        -0.14107E+05         0.00000E+00
    0.00000E+00         0.00000E+00        -0.14250E+02
 
    0.80760E+04         0.24657E+05         0.00000E+00
    0.24657E+05        -0.80678E+04         0.00000E+00
    0.00000E+00         0.00000E+00         0.16493E+01
 
    0.32730E+04         0.19280E+05         0.00000E+00
    0.19280E+05        -0.31121E+04         0.00000E+00
    0.00000E+00         0.00000E+00         0.32178E+02
 
    0.24170E+03         0.12582E+05         0.00000E+00
    0.12582E+05         0.21278E+03         0.00000E+00
    0.00000E+00         0.00000E+00         0.90896E+02
 
   -0.21254E+03         0.47648E+04         0.00000E+00
    0.47648E+04         0.13285E+04         0.00000E+00
    0.00000E+00         0.00000E+00         0.22320E+03
 
    0.11098E+06         0.62465E+04         0.00000E+00
    0.62465E+04        -0.10133E+06         0.00000E+00
    0.00000E+00         0.00000E+00         0.19298E+04
 
    0.97765E+05         0.16536E+05         0.00000E+00
    0.16536E+05        -0.94250E+05         0.00000E+00
    0.00000E+00         0.00000E+00         0.70311E+03
 
    0.85663E+05         0.23946E+05         0.00000E+00
    0.23946E+05        -0.84325E+05         0.00000E+00
    0.00000E+00         0.00000E+00         0.26760E+03
 
    0.74516E+05         0.28884E+05         0.00000E+00
    0.28884E+05        -0.73962E+05         0.00000E+00
    0.00000E+00         0.00000E+00         0.11086E+03
 
    0.64341E+05         0.31896E+05         0.00000E+00
    0.31896E+05        -0.64093E+05         0.00000E+00
    0.00000E+00         0.00000E+00         0.49561E+02
 
    0.55104E+05         0.33513E+05         0.00000E+00
    0.33513E+05        -0.55009E+05         0.00000E+00
    0.00000E+00         0.00000E+00         0.19137E+02
 
    0.46681E+05         0.34160E+05         0.00000E+00
    0.34160E+05        -0.46690E+05         0.00000E+00
    0.00000E+00         0.00000E+00        -0.17806E+01
 
    0.38873E+05         0.34105E+05         0.00000E+00
    0.34105E+05        -0.38967E+05         0.00000E+00
    0.00000E+00         0.00000E+00        -0.18701E+02
 
    0.31470E+05         0.33429E+05         0.00000E+00
    0.33429E+05        -0.31626E+05         0.00000E+00
    0.00000E+00         0.00000E+00        -0.31320E+02
 
    0.24320E+05         0.32031E+05         0.00000E+00
    0.32031E+05        -0.24507E+05         0.00000E+00
    0.00000E+00         0.00000E+00        -0.37363E+02
 
    0.17410E+05         0.29660E+05         0.00000E+00
    0.29660E+05        -0.17581E+05         0.00000E+00
    0.00000E+00         0.00000E+00        -0.34170E+02
 
    0.10936E+05         0.25971E+05         0.00000E+00
    0.25971E+05        -0.11032E+05         0.00000E+00
    0.00000E+00         0.00000E+00        -0.19238E+02
 
    0.53534E+04         0.20627E+05         0.00000E+00
    0.20627E+05        -0.53002E+04         0.00000E+00
    0.00000E+00         0.00000E+00         0.10643E+02
 
    0.14033E+04         0.13416E+05         0.00000E+00
    0.13416E+05        -0.10805E+04         0.00000E+00
    0.00000E+00         0.00000E+00         0.64579E+02
 
    0.10109E+03         0.44041E+04         0.00000E+00
    0.44041E+04         0.78483E+03         0.00000E+00
    0.00000E+00         0.00000E+00         0.17718E+03
 
    0.11784E+06         0.62287E+04         0.00000E+00
    0.62287E+04        -0.10628E+06         0.00000E+00
    0.00000E+00         0.00000E+00         0.23123E+04
 
    0.10268E+06         0.16257E+05         0.00000E+00
    0.16257E+05        -0.98420E+05         0.00000E+00
    0.00000E+00         0.00000E+00         0.85202E+03
 
    0.89338E+05         0.23168E+05         0.00000E+00
    0.23168E+05        -0.87674E+05         0.00000E+00
    0.00000E+00         0.00000E+00         0.33282E+03
 
    0.77555E+05         0.27497E+05         0.00000E+00
    0.27497E+05        -0.76834E+05         0.00000E+00
    0.00000E+00         0.00000E+00         0.14421E+03
 
    0.67263E+05         0.29944E+05         0.00000E+00
    0.29944E+05        -0.66923E+05         0.00000E+00
    0.00000E+00         0.00000E+00         0.68043E+02
 
    0.58321E+05         0.31187E+05         0.00000E+00
    0.31187E+05        -0.58183E+05         0.00000E+00
    0.00000E+00         0.00000E+00         0.27688E+02
 
    0.50457E+05         0.31760E+05         0.00000E+00
    0.31760E+05        -0.50467E+05         0.00000E+00
    0.00000E+00         0.00000E+00        -0.20055E+01
 
    0.43297E+05         0.31985E+05         0.00000E+00
    0.31985E+05        -0.43434E+05         0.00000E+00
    0.00000E+00         0.00000E+00        -0.27312E+02
 
    0.36444E+05         0.31929E+05         0.00000E+00
    0.31929E+05        -0.36682E+05         0.00000E+00
    0.00000E+00         0.00000E+00        -0.47623E+02
 
    0.29572E+05         0.31401E+05         0.00000E+00
    0.31401E+05        -0.29873E+05         0.00000E+00
    0.00000E+00         0.00000E+00        -0.60058E+02
 
    0.22534E+05         0.29985E+05         0.00000E+00
    0.29985E+05        -0.22842E+05         0.00000E+00
    0.00000E+00         0.00000E+00        -0.61520E+02
 
    0.15455E+05         0.27112E+05         0.00000E+00
    0.27112E+05        -0.15705E+05         0.00000E+00
    0.00000E+00         0.00000E+00        -0.49952E+02
 
    0.88106E+04         0.22177E+05         0.00000E+00
    0.22177E+05        -0.89361E+04         0.00000E+00
    0.00000E+00         0.00000E+00        -0.25094E+02
 
    0.34714E+04         0.14698E+05         0.00000E+00
    0.14698E+05        -0.34065E+04         0.00000E+00
    0.00000E+00         0.00000E+00         0.12974E+02
 
    0.68803E+03         0.45280E+04         0.00000E+00
    0.45280E+04        -0.31407E+03         0.00000E+00
    0.00000E+00         0.00000E+00         0.74792E+02
 
    0.12466E+06         0.60115E+04         0.00000E+00
    0.60115E+04        -0.11097E+06         0.00000E+00
    0.00000E+00         0.00000E+00         0.27395E+04
 
    0.10738E+06         0.15370E+05         0.00000E+00
    0.15370E+05        -0.10228E+06         0.00000E+00
    0.00000E+00         0.00000E+00         0.10202E+04
 
    0.92768E+05         0.21361E+05         0.00000E+00
    0.21361E+05        -0.90726E+05         0.00000E+00
    0.00000E+00         0.00000E+00         0.40833E+03
 
    0.80457E+05         0.24679E+05         0.00000E+00
    0.24679E+05        -0.79536E+05         0.00000E+00
    0.00000E+00         0.00000E+00         0.18419E+03
 
    0.70296E+05         0.26224E+05         0.00000E+00
    0.26224E+05        -0.69842E+05         0.00000E+00
    0.00000E+00         0.00000E+00         0.90906E+02
 
    0.62014E+05         0.26866E+05         0.00000E+00
    0.26866E+05        -0.61821E+05         0.00000E+00
    0.00000E+00         0.00000E+00         0.38591E+02
 
    0.55147E+05         0.27287E+05         0.00000E+00
    0.27287E+05        -0.55157E+05         0.00000E+00
    0.00000E+00         0.00000E+00        -0.19584E+01
 
    0.49092E+05         0.27883E+05         0.00000E+00
    0.27883E+05        -0.49281E+05         0.00000E+00
    0.00000E+00         0.00000E+00        -0.37799E+02
 
    0.43203E+05         0.28709E+05         0.00000E+00
    0.28709E+05        -0.43543E+05         0.00000E+00
    0.00000E+00         0.00000E+00        -0.68032E+02
 
    0.36917E+05         0.29465E+05         0.00000E+00
    0.29465E+05        -0.37363E+05         0.00000E+00
    0.00000E+00         0.00000E+00        -0.89228E+02
 
    0.29889E+05         0.29531E+05         0.00000E+00
    0.29531E+05        -0.30379E+05         0.00000E+00
    0.00000E+00         0.00000E+00        -0.98002E+02
 
    0.22123E+05         0.28048E+05         0.00000E+00
    0.28048E+05        -0.22589E+05         0.00000E+00
    0.00000E+00         0.00000E+00        -0.93316E+02
 
    0.14080E+05         0.24058E+05         0.00000E+00
    0.24058E+05        -0.14480E+05         0.00000E+00
    0.00000E+00         0.00000E+00        -0.79901E+02
 
    0.67511E+04         0.16701E+05         0.00000E+00
    0.16701E+05        -0.71181E+04         0.00000E+00
    0.00000E+00         0.00000E+00        -0.73410E+02
 
    0.16432E+04         0.55136E+04         0.00000E+00
    0.55136E+04        -0.21711E+04         0.00000E+00
    0.00000E+00         0.00000E+00        -0.10558E+03
 
    0.13124E+06         0.55657E+04         0.00000E+00
    0.55657E+04        -0.11517E+06         0.00000E+00
    0.00000E+00         0.00000E+00         0.32143E+04
 
    0.11165E+06         0.13768E+05         0.00000E+00
    0.13768E+05        -0.10560E+06         0.00000E+00
    0.00000E+00         0.00000E+00         0.12098E+04
 
    0.95719E+05         0.18319E+05         0.00000E+00
    0.18319E+05        -0.93241E+05         0.00000E+00
    0.00000E+00         0.00000E+00         0.49573E+03
 
    0.83021E+05         0.20113E+05         0.00000E+00
    0.20113E+05        -0.81861E+05         0.00000E+00
    0.00000E+00         0.00000E+00         0.23184E+03
 
    0.73314E+05         0.20317E+05         0.00000E+00
    0.20317E+05        -0.72721E+05         0.00000E+00
    0.00000E+00         0.00000E+00         0.11862E+03
 
    0.66162E+05         0.20059E+05         0.00000E+00
    0.20059E+05        -0.65903E+05         0.00000E+00
    0.00000E+00         0.00000E+00         0.51811E+02
 
    0.60858E+05         0.20216E+05         0.00000E+00
    0.20216E+05        -0.60868E+05         0.00000E+00
    0.00000E+00         0.00000E+00        -0.19649E+01
 
    0.56498E+05         0.21284E+05         0.00000E+00
    0.21284E+05        -0.56751E+05         0.00000E+00
    0.00000E+00         0.00000E+00        -0.50602E+02
 
    0.52114E+05         0.23305E+05         0.00000E+00
    0.23305E+05        -0.52580E+05         0.00000E+00
    0.00000E+00         0.00000E+00        -0.93112E+02
 
    0.46831E+05         0.25854E+05         0.00000E+00
    0.25854E+05        -0.47460E+05         0.00000E+00
    0.00000E+00         0.00000E+00        -0.12582E+03
 
    0.40031E+05         0.28069E+05         0.00000E+00
    0.28069E+05        -0.40758E+05         0.00000E+00
    0.00000E+00         0.00000E+00        -0.14543E+03
 
    0.31521E+05         0.28733E+05         0.00000E+00
    0.28733E+05        -0.32284E+05         0.00000E+00
    0.00000E+00         0.00000E+00        -0.15270E+03
 
    0.21690E+05         0.26425E+05         0.00000E+00
    0.26425E+05        -0.22490E+05         0.00000E+00
    0.00000E+00         0.00000E+00        -0.16000E+03
 
    0.11620E+05         0.19778E+05         0.00000E+00
    0.19778E+05        -0.12654E+05         0.00000E+00
    0.00000E+00         0.00000E+00        -0.20693E+03
 
    0.30848E+04         0.78667E+04         0.00000E+00
    0.78667E+04        -0.50442E+04         0.00000E+00
    0.00000E+00         0.00000E+00        -0.39189E+03
 
    0.13734E+06         0.48702E+04         0.00000E+00
    0.48702E+04        -0.11862E+06         0.00000E+00
    0.00000E+00         0.00000E+00         0.37436E+04
 
    0.11520E+06         0.11352E+05         0.00000E+00
    0.11352E+05        -0.10808E+06         0.00000E+00
    0.00000E+00         0.00000E+00         0.14250E+04
 
    0.97899E+05         0.13817E+05         0.00000E+00
    0.13817E+05        -0.94913E+05         0.00000E+00
    0.00000E+00         0.00000E+00         0.59739E+03
 
    0.84990E+05         0.13434E+05         0.00000E+00
    0.13434E+05        -0.83550E+05         0.00000E+00
    0.00000E+00         0.00000E+00         0.28810E+03
 
    0.76150E+05         0.11738E+05         0.00000E+00
    0.11738E+05        -0.75396E+05         0.00000E+00
    0.00000E+00         0.00000E+00         0.15084E+03
 
    0.70728E+05         0.10204E+05         0.00000E+00
    0.10204E+05        -0.70397E+05         0.00000E+00
    0.00000E+00         0.00000E+00         0.66217E+02
 
    0.67695E+05         0.99563E+04         0.00000E+00
    0.99563E+04        -0.67712E+05         0.00000E+00
    0.00000E+00         0.00000E+00        -0.33155E+01
 
    0.65766E+05         0.11608E+05         0.00000E+00
    0.11608E+05        -0.66100E+05         0.00000E+00
    0.00000E+00         0.00000E+00        -0.66712E+02
 
    0.63571E+05         0.15191E+05         0.00000E+00
    0.15191E+05        -0.64188E+05         0.00000E+00
    0.00000E+00         0.00000E+00        -0.12353E+03
 
    0.59837E+05         0.20142E+05         0.00000E+00
    0.20142E+05        -0.60690E+05         0.00000E+00
    0.00000E+00         0.00000E+00        -0.17064E+03
 
    0.53583E+05         0.25325E+05         0.00000E+00
    0.25325E+05        -0.54611E+05         0.00000E+00
    0.00000E+00         0.00000E+00        -0.20562E+03
 
    0.44318E+05         0.29097E+05         0.00000E+00
    0.29097E+05        -0.45479E+05         0.00000E+00
    0.00000E+00         0.00000E+00        -0.23217E+03
 
    0.32267E+05         0.29463E+05         0.00000E+00
    0.29463E+05        -0.33635E+05         0.00000E+00
    0.00000E+00         0.00000E+00        -0.27352E+03
 
    0.18538E+05         0.24376E+05         0.00000E+00
    0.24376E+05        -0.20558E+05         0.00000E+00
    0.00000E+00         0.00000E+00        -0.40397E+03
 
    0.51584E+04         0.12253E+05         0.00000E+00
    0.12253E+05        -0.92614E+04         0.00000E+00
    0.00000E+00         0.00000E+00        -0.82060E+03
 
    0.14272E+06         0.39166E+04         0.00000E+00
    0.39166E+04        -0.12100E+06         0.00000E+00
    0.00000E+00         0.00000E+00         0.43434E+04
 
    0.11771E+06         0.80254E+04         0.00000E+00
    0.80254E+04        -0.10934E+06         0.00000E+00
    0.00000E+00         0.00000E+00         0.16736E+04
 
    0.98948E+05         0.75987E+04         0.00000E+00
    0.75987E+04        -0.95364E+05         0.00000E+00
    0.00000E+00         0.00000E+00         0.71674E+03
 
    0.86057E+05         0.42100E+04         0.00000E+00
    0.42100E+04        -0.84293E+05         0.00000E+00
    0.00000E+00         0.00000E+00         0.35289E+03
 
    0.78620E+05        -0.75136E+02         0.00000E+00
   -0.75136E+02        -0.77695E+05         0.00000E+00
    0.00000E+00         0.00000E+00         0.18493E+03
 
    0.75683E+05        -0.33260E+04         0.00000E+00
   -0.33260E+04        -0.75293E+05         0.00000E+00
    0.00000E+00         0.00000E+00         0.77992E+02
 
    0.75786E+05        -0.41281E+04         0.00000E+00
   -0.41281E+04        -0.75834E+05         0.00000E+00
    0.00000E+00         0.00000E+00        -0.95952E+01
 
    0.77166E+05        -0.17511E+04         0.00000E+00
   -0.17511E+04        -0.77609E+05         0.00000E+00
    0.00000E+00         0.00000E+00        -0.88552E+02
 
    0.77973E+05         0.38142E+04         0.00000E+00
    0.38142E+04        -0.78776E+05         0.00000E+00
    0.00000E+00         0.00000E+00        -0.16046E+03
 
    0.76467E+05         0.11861E+05         0.00000E+00
    0.11861E+05        -0.77590E+05         0.00000E+00
    0.00000E+00         0.00000E+00        -0.22447E+03
 
    0.71201E+05         0.20971E+05         0.00000E+00
    0.20971E+05        -0.72604E+05         0.00000E+00
    0.00000E+00         0.00000E+00        -0.28054E+03
 
    0.61258E+05         0.29035E+05         0.00000E+00
    0.29035E+05        -0.62942E+05         0.00000E+00
    0.00000E+00         0.00000E+00        -0.33688E+03
 
    0.46542E+05         0.33370E+05         0.00000E+00
    0.33370E+05        -0.48700E+05         0.00000E+00
    0.00000E+00         0.00000E+00        -0.43158E+03
 
    0.28063E+05         0.31043E+05         0.00000E+00
    0.31043E+05        -0.31499E+05         0.00000E+00
    0.00000E+00         0.00000E+00        -0.68702E+03
 
    0.80420E+04         0.19538E+05         0.00000E+00
    0.19538E+05        -0.15244E+05         0.00000E+00
    0.00000E+00         0.00000E+00        -0.14403E+04
 
    0.14718E+06         0.27108E+04         0.00000E+00
    0.27108E+04        -0.12195E+06         0.00000E+00
    0.00000E+00         0.00000E+00         0.50477E+04
 
    0.11881E+06         0.36791E+04         0.00000E+00
    0.36791E+04        -0.10895E+06         0.00000E+00
    0.00000E+00         0.00000E+00         0.19709E+04
 
    0.98436E+05        -0.67181E+03         0.00000E+00
   -0.67181E+03        -0.94148E+05         0.00000E+00
    0.00000E+00         0.00000E+00         0.85771E+03
 
    0.85888E+05        -0.81069E+04         0.00000E+00
   -0.81069E+04        -0.83776E+05         0.00000E+00
    0.00000E+00         0.00000E+00         0.42246E+03
 
    0.80574E+05        -0.15786E+05         0.00000E+00
   -0.15786E+05        -0.79513E+05         0.00000E+00
    0.00000E+00         0.00000E+00         0.21239E+03
 
    0.81069E+05        -0.21201E+05         0.00000E+00
   -0.21201E+05        -0.80684E+05         0.00000E+00
    0.00000E+00         0.00000E+00         0.77022E+02
 
    0.85318E+05        -0.22652E+05         0.00000E+00
   -0.22652E+05        -0.85466E+05         0.00000E+00
    0.00000E+00         0.00000E+00        -0.29714E+02
 
    0.90981E+05        -0.19346E+05         0.00000E+00
   -0.19346E+05        -0.91592E+05         0.00000E+00
    0.00000E+00         0.00000E+00        -0.12224E+03
 
    0.95690E+05        -0.11335E+05         0.00000E+00
   -0.11335E+05        -0.96726E+05         0.00000E+00
    0.00000E+00         0.00000E+00        -0.20717E+03
 
    0.97198E+05         0.54261E+03         0.00000E+00
    0.54261E+03        -0.98643E+05         0.00000E+00
    0.00000E+00         0.00000E+00        -0.28914E+03
 
    0.93507E+05         0.14632E+05         0.00000E+00
    0.14632E+05        -0.95373E+05         0.00000E+00
    0.00000E+00         0.00000E+00        -0.37318E+03
 
    0.83104E+05         0.28380E+05         0.00000E+00
    0.28380E+05        -0.85477E+05         0.00000E+00
    0.00000E+00         0.00000E+00        -0.47449E+03
 
    0.65332E+05         0.38334E+05         0.00000E+00
    0.38334E+05        -0.68586E+05         0.00000E+00
    0.00000E+00         0.00000E+00        -0.65081E+03
 
    0.40860E+05         0.40428E+05         0.00000E+00
    0.40428E+05        -0.46304E+05         0.00000E+00
    0.00000E+00         0.00000E+00        -0.10889E+04
 
    0.11950E+05         0.30830E+05         0.00000E+00
    0.30830E+05        -0.23543E+05         0.00000E+00
    0.00000E+00         0.00000E+00        -0.23186E+04
 
    0.15058E+06         0.12689E+04         0.00000E+00
    0.12689E+04        -0.12096E+06         0.00000E+00
    0.00000E+00         0.00000E+00         0.59238E+04
 
    0.11804E+06        -0.18645E+04         0.00000E+00
   -0.18645E+04        -0.10634E+06         0.00000E+00
    0.00000E+00         0.00000E+00         0.23416E+04
 
    0.95875E+05        -0.11508E+05         0.00000E+00
   -0.11508E+05        -0.90772E+05         0.00000E+00
    0.00000E+00         0.00000E+00         0.10206E+04
 
    0.84196E+05        -0.24274E+05         0.00000E+00
   -0.24274E+05        -0.81788E+05         0.00000E+00
    0.00000E+00         0.00000E+00         0.48154E+03
 
    0.82020E+05        -0.36183E+05         0.00000E+00
   -0.36183E+05        -0.80971E+05         0.00000E+00
    0.00000E+00         0.00000E+00         0.20972E+03
 
    0.87115E+05        -0.44073E+05         0.00000E+00
   -0.44073E+05        -0.86923E+05         0.00000E+00
    0.00000E+00         0.00000E+00         0.38440E+02
 
    0.96604E+05        -0.46079E+05         0.00000E+00
   -0.46079E+05        -0.97030E+05         0.00000E+00
    0.00000E+00         0.00000E+00        -0.85153E+02
 
    0.10750E+06        -0.41514E+05         0.00000E+00
   -0.41514E+05        -0.10842E+06         0.00000E+00
    0.00000E+00         0.00000E+00        -0.18374E+03
 
    0.11697E+06        -0.30574E+05         0.00000E+00
   -0.30574E+05        -0.11834E+06         0.00000E+00
    0.00000E+00         0.00000E+00        -0.27430E+03
 
    0.12231E+06        -0.14188E+05         0.00000E+00
   -0.14188E+05        -0.12417E+06         0.00000E+00
    0.00000E+00         0.00000E+00        -0.37207E+03
 
    0.12094E+06         0.59023E+04         0.00000E+00
    0.59023E+04        -0.12340E+06         0.00000E+00
    0.00000E+00         0.00000E+00        -0.49176E+03
 
    0.11053E+06         0.26855E+05         0.00000E+00
    0.26855E+05        -0.11383E+06         0.00000E+00
    0.00000E+00         0.00000E+00        -0.65966E+03
 
    0.89493E+05         0.44459E+05         0.00000E+00
    0.44459E+05        -0.94290E+05         0.00000E+00
    0.00000E+00         0.00000E+00        -0.95942E+03
 
    0.57703E+05         0.53255E+05         0.00000E+00
    0.53255E+05        -0.66012E+05         0.00000E+00
    0.00000E+00         0.00000E+00        -0.16618E+04
 
    0.17138E+05         0.47538E+05         0.00000E+00
    0.47538E+05        -0.34916E+05         0.00000E+00
    0.00000E+00         0.00000E+00        -0.35555E+04
 
    0.15288E+06        -0.40412E+03         0.00000E+00
   -0.40412E+03        -0.11741E+06         0.00000E+00
    0.00000E+00         0.00000E+00         0.70952E+04
 
    0.11486E+06        -0.89873E+04         0.00000E+00
   -0.89873E+04        -0.10077E+06         0.00000E+00
    0.00000E+00         0.00000E+00         0.28177E+04
 
    0.90741E+05        -0.25814E+05         0.00000E+00
   -0.25814E+05        -0.84813E+05         0.00000E+00
    0.00000E+00         0.00000E+00         0.11854E+04
 
    0.80890E+05        -0.45413E+05         0.00000E+00
   -0.45413E+05        -0.78489E+05         0.00000E+00
    0.00000E+00         0.00000E+00         0.48034E+03
 
    0.83330E+05        -0.62190E+05         0.00000E+00
   -0.62190E+05        -0.82753E+05         0.00000E+00
    0.00000E+00         0.00000E+00         0.11538E+03
 
    0.94421E+05        -0.72423E+05         0.00000E+00
   -0.72423E+05        -0.94912E+05         0.00000E+00
    0.00000E+00         0.00000E+00        -0.98066E+02
 
    0.11017E+06        -0.74469E+05         0.00000E+00
   -0.74469E+05        -0.11131E+06         0.00000E+00
    0.00000E+00         0.00000E+00        -0.22836E+03
 
    0.12699E+06        -0.68093E+05         0.00000E+00
   -0.68093E+05        -0.12857E+06         0.00000E+00
    0.00000E+00         0.00000E+00        -0.31604E+03
 
    0.14178E+06        -0.53784E+05         0.00000E+00
   -0.53784E+05        -0.14377E+06         0.00000E+00
    0.00000E+00         0.00000E+00        -0.39636E+03
 
    0.15164E+06        -0.32451E+05         0.00000E+00
   -0.32451E+05        -0.15415E+06         0.00000E+00
    0.00000E+00         0.00000E+00        -0.50186E+03
 
    0.15345E+06        -0.56125E+04         0.00000E+00
   -0.56125E+04        -0.15677E+06         0.00000E+00
    0.00000E+00         0.00000E+00        -0.66395E+03
 
    0.14387E+06         0.23991E+05         0.00000E+00
    0.23991E+05        -0.14851E+06         0.00000E+00
    0.00000E+00         0.00000E+00        -0.92779E+03
 
    0.11978E+06         0.51630E+05         0.00000E+00
    0.51630E+05        -0.12685E+06         0.00000E+00
    0.00000E+00         0.00000E+00        -0.14128E+04
 
    0.79462E+05         0.70243E+05         0.00000E+00
    0.70243E+05        -0.91951E+05         0.00000E+00
    0.00000E+00         0.00000E+00        -0.24977E+04
 
    0.23898E+05         0.71438E+05         0.00000E+00
    0.71438E+05        -0.50460E+05         0.00000E+00
    0.00000E+00         0.00000E+00        -0.53124E+04
 
    0.15413E+06        -0.23825E+04         0.00000E+00
   -0.23825E+04        -0.11030E+06         0.00000E+00
    0.00000E+00         0.00000E+00         0.87647E+04
 
    0.10845E+06        -0.18592E+05         0.00000E+00
   -0.18592E+05        -0.91418E+05         0.00000E+00
    0.00000E+00         0.00000E+00         0.34070E+04
 
    0.82523E+05        -0.45285E+05         0.00000E+00
   -0.45285E+05        -0.76257E+05         0.00000E+00
    0.00000E+00         0.00000E+00         0.12533E+04
 
    0.76345E+05        -0.73226E+05         0.00000E+00
   -0.73226E+05        -0.74997E+05         0.00000E+00
    0.00000E+00         0.00000E+00         0.26958E+03
 
    0.85564E+05        -0.94770E+05         0.00000E+00
   -0.94770E+05        -0.86716E+05         0.00000E+00
    0.00000E+00         0.00000E+00        -0.23041E+03
 
    0.10414E+06        -0.10624E+06         0.00000E+00
   -0.10624E+06        -0.10655E+06         0.00000E+00
    0.00000E+00         0.00000E+00        -0.48138E+03
 
    0.12673E+06        -0.10704E+06         0.00000E+00
   -0.10704E+06        -0.12969E+06         0.00000E+00
    0.00000E+00         0.00000E+00        -0.59220E+03
 
    0.14944E+06        -0.97983E+05         0.00000E+00
   -0.97983E+05        -0.15263E+06         0.00000E+00
    0.00000E+00         0.00000E+00        -0.63835E+03
 
    0.16943E+06        -0.80021E+05         0.00000E+00
   -0.80021E+05        -0.17284E+06         0.00000E+00
    0.00000E+00         0.00000E+00        -0.68147E+03
 
    0.18406E+06        -0.53839E+05         0.00000E+00
   -0.53839E+05        -0.18794E+06         0.00000E+00
    0.00000E+00         0.00000E+00        -0.77679E+03
 
    0.18998E+06        -0.20200E+05         0.00000E+00
   -0.20200E+05        -0.19489E+06         0.00000E+00
    0.00000E+00         0.00000E+00        -0.98194E+03
 
    0.18262E+06         0.19023E+05         0.00000E+00
    0.19023E+05        -0.18950E+06         0.00000E+00
    0.00000E+00         0.00000E+00        -0.13762E+04
 
    0.15655E+06         0.59268E+05         0.00000E+00
    0.59268E+05        -0.16722E+06         0.00000E+00
    0.00000E+00         0.00000E+00        -0.21345E+04
 
    0.10700E+06         0.91909E+05         0.00000E+00
    0.91909E+05        -0.12588E+06         0.00000E+00
    0.00000E+00         0.00000E+00        -0.37764E+04
 
    0.32524E+05         0.10475E+06         0.00000E+00
    0.10475E+06        -0.71898E+05         0.00000E+00
    0.00000E+00         0.00000E+00        -0.78747E+04
 
    0.15418E+06        -0.50131E+04         0.00000E+00
   -0.50131E+04        -0.98234E+05         0.00000E+00
    0.00000E+00         0.00000E+00         0.11190E+05
 
    0.97362E+05        -0.32806E+05         0.00000E+00
   -0.32806E+05        -0.77606E+05         0.00000E+00
    0.00000E+00         0.00000E+00         0.39513E+04
 
    0.70788E+05        -0.73083E+05         0.00000E+00
   -0.73083E+05        -0.66479E+05         0.00000E+00
    0.00000E+00         0.00000E+00         0.86165E+03
 
    0.71755E+05        -0.11011E+06         0.00000E+00
   -0.11011E+06        -0.74656E+05         0.00000E+00
    0.00000E+00         0.00000E+00        -0.58022E+03
 
    0.90697E+05        -0.13449E+06         0.00000E+00
   -0.13449E+06        -0.96918E+05         0.00000E+00
    0.00000E+00         0.00000E+00        -0.12443E+04
 
    0.11788E+06        -0.14430E+06         0.00000E+00
   -0.14430E+06        -0.12533E+06         0.00000E+00
    0.00000E+00         0.00000E+00        -0.14917E+04
 
    0.14675E+06        -0.14149E+06         0.00000E+00
   -0.14149E+06        -0.15440E+06         0.00000E+00
    0.00000E+00         0.00000E+00        -0.15288E+04
 
    0.17395E+06        -0.12856E+06         0.00000E+00
   -0.12856E+06        -0.18139E+06         0.00000E+00
    0.00000E+00         0.00000E+00        -0.14877E+04
 
    0.19776E+06        -0.10702E+06         0.00000E+00
   -0.10702E+06        -0.20504E+06         0.00000E+00
    0.00000E+00         0.00000E+00        -0.14559E+04
 
    0.21656E+06        -0.77006E+05         0.00000E+00
   -0.77006E+05        -0.22410E+06         0.00000E+00
    0.00000E+00         0.00000E+00        -0.15081E+04
 
    0.22732E+06        -0.37806E+05         0.00000E+00
   -0.37806E+05        -0.23600E+06         0.00000E+00
    0.00000E+00         0.00000E+00        -0.17370E+04
 
    0.22434E+06         0.10798E+05         0.00000E+00
    0.10798E+05        -0.23577E+06         0.00000E+00
    0.00000E+00         0.00000E+00        -0.22864E+04
 
    0.19887E+06         0.65908E+05         0.00000E+00
    0.65908E+05        -0.21602E+06         0.00000E+00
    0.00000E+00         0.00000E+00        -0.34292E+04
 
    0.14079E+06         0.11815E+06         0.00000E+00
    0.11815E+06        -0.17021E+06         0.00000E+00
    0.00000E+00         0.00000E+00        -0.58829E+04
 
    0.43167E+05         0.15020E+06         0.00000E+00
    0.15020E+06        -0.10213E+06         0.00000E+00
    0.00000E+00         0.00000E+00        -0.11792E+05
 
    0.15150E+06        -0.94791E+04         0.00000E+00
   -0.94791E+04        -0.79570E+05         0.00000E+00
    0.00000E+00         0.00000E+00         0.14387E+05
 
    0.78351E+05        -0.56458E+05         0.00000E+00
   -0.56458E+05        -0.60332E+05         0.00000E+00
    0.00000E+00         0.00000E+00         0.36037E+04
 
    0.55028E+05        -0.11465E+06         0.00000E+00
   -0.11465E+06        -0.60889E+05         0.00000E+00
    0.00000E+00         0.00000E+00        -0.11722E+04
 
    0.69162E+05        -0.15862E+06         0.00000E+00
   -0.15862E+06        -0.85509E+05         0.00000E+00
    0.00000E+00         0.00000E+00        -0.32695E+04
 
    0.10095E+06        -0.18023E+06         0.00000E+00
   -0.18023E+06        -0.12107E+06         0.00000E+00
    0.00000E+00         0.00000E+00        -0.40249E+04
 
    0.13621E+06        -0.18299E+06         0.00000E+00
   -0.18299E+06        -0.15690E+06         0.00000E+00
    0.00000E+00         0.00000E+00        -0.41399E+04
 
    0.16862E+06        -0.17313E+06         0.00000E+00
   -0.17313E+06        -0.18867E+06         0.00000E+00
    0.00000E+00         0.00000E+00        -0.40097E+04
 
    0.19683E+06        -0.15511E+06         0.00000E+00
   -0.15511E+06        -0.21596E+06         0.00000E+00
    0.00000E+00         0.00000E+00        -0.38268E+04
 
    0.22132E+06        -0.13069E+06         0.00000E+00
   -0.13069E+06        -0.23970E+06         0.00000E+00
    0.00000E+00         0.00000E+00        -0.36762E+04
 
    0.24232E+06        -0.99105E+05         0.00000E+00
   -0.99105E+05        -0.26047E+06         0.00000E+00
    0.00000E+00         0.00000E+00        -0.36287E+04
 
    0.25801E+06        -0.57509E+05         0.00000E+00
   -0.57509E+05        -0.27708E+06         0.00000E+00
    0.00000E+00         0.00000E+00        -0.38147E+04
 
    0.26227E+06        -0.20880E+04         0.00000E+00
   -0.20880E+04        -0.28468E+06         0.00000E+00
    0.00000E+00         0.00000E+00        -0.44811E+04
 
    0.24247E+06         0.68658E+05         0.00000E+00
    0.68658E+05        -0.27299E+06         0.00000E+00
    0.00000E+00         0.00000E+00        -0.61026E+04
 
    0.17969E+06         0.14735E+06         0.00000E+00
    0.14735E+06        -0.22822E+06         0.00000E+00
    0.00000E+00         0.00000E+00        -0.97075E+04
 
    0.55319E+05         0.21093E+06         0.00000E+00
    0.21093E+06        -0.14635E+06         0.00000E+00
    0.00000E+00         0.00000E+00        -0.18205E+05
 
    0.13839E+06        -0.19447E+05         0.00000E+00
   -0.19447E+05        -0.54872E+05         0.00000E+00
    0.00000E+00         0.00000E+00         0.16703E+05
 
    0.43091E+05        -0.99812E+05         0.00000E+00
   -0.99812E+05        -0.47761E+05         0.00000E+00
    0.00000E+00         0.00000E+00        -0.93392E+03
 
    0.33227E+05        -0.17755E+06         0.00000E+00
   -0.17755E+06        -0.75373E+05         0.00000E+00
    0.00000E+00         0.00000E+00        -0.84291E+04
 
    0.69018E+05        -0.21868E+06         0.00000E+00
   -0.21868E+06        -0.12439E+06         0.00000E+00
    0.00000E+00         0.00000E+00        -0.11074E+05
 
    0.11429E+06        -0.22620E+06         0.00000E+00
   -0.22620E+06        -0.17187E+06         0.00000E+00
    0.00000E+00         0.00000E+00        -0.11518E+05
 
    0.15306E+06        -0.21449E+06         0.00000E+00
   -0.21449E+06        -0.20914E+06         0.00000E+00
    0.00000E+00         0.00000E+00        -0.11215E+05
 
    0.18295E+06        -0.19431E+06         0.00000E+00
   -0.19431E+06        -0.23692E+06         0.00000E+00
    0.00000E+00         0.00000E+00        -0.10795E+05
 
    0.20644E+06        -0.17077E+06         0.00000E+00
   -0.17077E+06        -0.25849E+06         0.00000E+00
    0.00000E+00         0.00000E+00        -0.10409E+05
 
    0.22675E+06        -0.14504E+06         0.00000E+00
   -0.14504E+06        -0.27718E+06         0.00000E+00
    0.00000E+00         0.00000E+00        -0.10086E+05
 
    0.24632E+06        -0.11524E+06         0.00000E+00
   -0.11524E+06        -0.29559E+06         0.00000E+00
    0.00000E+00         0.00000E+00        -0.98537E+04
 
    0.26558E+06        -0.76488E+05         0.00000E+00
   -0.76488E+05        -0.31469E+06         0.00000E+00
    0.00000E+00         0.00000E+00        -0.98220E+04
 
    0.27994E+06        -0.20404E+05         0.00000E+00
   -0.20404E+05        -0.33191E+06         0.00000E+00
    0.00000E+00         0.00000E+00        -0.10393E+05
 
    0.27419E+06         0.62793E+05         0.00000E+00
    0.62793E+05        -0.33609E+06         0.00000E+00
    0.00000E+00         0.00000E+00        -0.12379E+05
 
    0.21696E+06         0.17468E+06         0.00000E+00
    0.17468E+06        -0.30427E+06         0.00000E+00
    0.00000E+00         0.00000E+00        -0.17463E+05
 
    0.66118E+05         0.28976E+06         0.00000E+00
    0.28976E+06        -0.21417E+06         0.00000E+00
    0.00000E+00         0.00000E+00        -0.29611E+05
 
    0.84352E+05        -0.45851E+05         0.00000E+00
   -0.45851E+05        -0.39230E+05         0.00000E+00
    0.00000E+00         0.00000E+00         0.90244E+04
 
   -0.31584E+05        -0.18147E+06         0.00000E+00
   -0.18147E+06        -0.72370E+05         0.00000E+00
    0.00000E+00         0.00000E+00        -0.20791E+05
 
   -0.61423E+04        -0.26568E+06         0.00000E+00
   -0.26568E+06        -0.14953E+06         0.00000E+00
    0.00000E+00         0.00000E+00        -0.31134E+05
 
    0.57167E+05        -0.27931E+06         0.00000E+00
   -0.27931E+06        -0.22107E+06         0.00000E+00
    0.00000E+00         0.00000E+00        -0.32780E+05
 
    0.10758E+06        -0.25737E+06         0.00000E+00
   -0.25737E+06        -0.26653E+06         0.00000E+00
    0.00000E+00         0.00000E+00        -0.31790E+05
 
    0.13874E+06        -0.22594E+06         0.00000E+00
   -0.22594E+06        -0.29220E+06         0.00000E+00
    0.00000E+00         0.00000E+00        -0.30691E+05
 
    0.15718E+06        -0.19510E+06         0.00000E+00
   -0.19510E+06        -0.30617E+06         0.00000E+00
    0.00000E+00         0.00000E+00        -0.29798E+05
 
    0.16929E+06        -0.16769E+06         0.00000E+00
   -0.16769E+06        -0.31476E+06         0.00000E+00
    0.00000E+00         0.00000E+00        -0.29094E+05
 
    0.18014E+06        -0.14312E+06         0.00000E+00
   -0.14312E+06        -0.32258E+06         0.00000E+00
    0.00000E+00         0.00000E+00        -0.28488E+05
 
    0.19371E+06        -0.11861E+06         0.00000E+00
   -0.11861E+06        -0.33326E+06         0.00000E+00
    0.00000E+00         0.00000E+00        -0.27909E+05
 
    0.21294E+06        -0.88482E+05         0.00000E+00
   -0.88482E+05        -0.34982E+06         0.00000E+00
    0.00000E+00         0.00000E+00        -0.27377E+05
 
    0.23817E+06        -0.41682E+05         0.00000E+00
   -0.41682E+05        -0.37389E+06         0.00000E+00
    0.00000E+00         0.00000E+00        -0.27145E+05
 
    0.25753E+06         0.42830E+05         0.00000E+00
    0.42830E+05        -0.40125E+06         0.00000E+00
    0.00000E+00         0.00000E+00        -0.28743E+05
 
    0.22833E+06         0.18902E+06         0.00000E+00
    0.18902E+06        -0.40289E+06         0.00000E+00
    0.00000E+00         0.00000E+00        -0.34911E+05
 
    0.64769E+05         0.38618E+06         0.00000E+00
    0.38618E+06        -0.32386E+06         0.00000E+00
    0.00000E+00         0.00000E+00        -0.51819E+05
 
   -0.11891E+06        -0.11862E+06         0.00000E+00
   -0.11862E+06        -0.10710E+06         0.00000E+00
    0.00000E+00         0.00000E+00        -0.45204E+05
 
   -0.21455E+06        -0.32083E+06         0.00000E+00
   -0.32083E+06        -0.23825E+06         0.00000E+00
    0.00000E+00         0.00000E+00        -0.90560E+05
 
   -0.12110E+06        -0.35359E+06         0.00000E+00
   -0.35359E+06        -0.36189E+06         0.00000E+00
    0.00000E+00         0.00000E+00        -0.96598E+05
 
   -0.46018E+05        -0.30450E+06         0.00000E+00
   -0.30450E+06        -0.41324E+06         0.00000E+00
    0.00000E+00         0.00000E+00        -0.91853E+05
 
   -0.14349E+05        -0.24870E+06         0.00000E+00
   -0.24870E+06        -0.42653E+06         0.00000E+00
    0.00000E+00         0.00000E+00        -0.88176E+05
 
   -0.49423E+04        -0.20227E+06         0.00000E+00
   -0.20227E+06        -0.42305E+06         0.00000E+00
    0.00000E+00         0.00000E+00        -0.85599E+05
 
   -0.54587E+04        -0.16668E+06         0.00000E+00
   -0.16668E+06        -0.41352E+06         0.00000E+00
    0.00000E+00         0.00000E+00        -0.83795E+05
 
   -0.85930E+04        -0.13999E+06         0.00000E+00
   -0.13999E+06        -0.40339E+06         0.00000E+00
    0.00000E+00         0.00000E+00        -0.82396E+05
 
   -0.97449E+04        -0.11961E+06         0.00000E+00
   -0.11961E+06        -0.39596E+06         0.00000E+00
    0.00000E+00         0.00000E+00        -0.81142E+05
 
   -0.50199E+04        -0.10254E+06         0.00000E+00
   -0.10254E+06        -0.39408E+06         0.00000E+00
    0.00000E+00         0.00000E+00        -0.79820E+05
 
    0.10164E+05        -0.84123E+05         0.00000E+00
   -0.84123E+05        -0.40126E+06         0.00000E+00
    0.00000E+00         0.00000E+00        -0.78219E+05
 
    0.41512E+05        -0.54813E+05         0.00000E+00
   -0.54813E+05        -0.42277E+06         0.00000E+00
    0.00000E+00         0.00000E+00        -0.76251E+05
 
    0.94945E+05         0.86538E+04         0.00000E+00
    0.86538E+04        -0.46547E+06         0.00000E+00
    0.00000E+00         0.00000E+00        -0.74105E+05
 
    0.13526E+06         0.16926E+06         0.00000E+00
    0.16926E+06        -0.52818E+06         0.00000E+00
    0.00000E+00         0.00000E+00        -0.78583E+05
 
    0.14574E+05         0.48576E+06         0.00000E+00
    0.48576E+06        -0.50862E+06         0.00000E+00
    0.00000E+00         0.00000E+00        -0.98809E+05
 
   -0.83388E+06        -0.30254E+06         0.00000E+00
   -0.30254E+06        -0.57615E+06         0.00000E+00
    0.00000E+00         0.00000E+00        -0.28201E+06
 
   -0.73237E+06        -0.45147E+06         0.00000E+00
   -0.45147E+06        -0.78226E+06         0.00000E+00
    0.00000E+00         0.00000E+00        -0.30293E+06
 
   -0.57782E+06        -0.33756E+06         0.00000E+00
   -0.33756E+06        -0.78982E+06         0.00000E+00
    0.00000E+00         0.00000E+00        -0.27353E+06
 
   -0.54703E+06        -0.24203E+06         0.00000E+00
   -0.24203E+06        -0.74521E+06         0.00000E+00
    0.00000E+00         0.00000E+00        -0.25845E+06
 
   -0.55091E+06        -0.17826E+06         0.00000E+00
   -0.17826E+06        -0.69569E+06         0.00000E+00
    0.00000E+00         0.00000E+00        -0.24932E+06
 
   -0.56581E+06        -0.13606E+06         0.00000E+00
   -0.13606E+06        -0.65159E+06         0.00000E+00
    0.00000E+00         0.00000E+00        -0.24348E+06
 
   -0.58190E+06        -0.10778E+06         0.00000E+00
   -0.10778E+06        -0.61464E+06         0.00000E+00
    0.00000E+00         0.00000E+00        -0.23931E+06
 
   -0.59520E+06        -0.88543E+05         0.00000E+00
   -0.88543E+05        -0.58462E+06         0.00000E+00
    0.00000E+00         0.00000E+00        -0.23596E+06
 
   -0.60326E+06        -0.75228E+05         0.00000E+00
   -0.75228E+05        -0.56126E+06         0.00000E+00
    0.00000E+00         0.00000E+00        -0.23290E+06
 
   -0.60328E+06        -0.65517E+05         0.00000E+00
   -0.65517E+05        -0.54502E+06         0.00000E+00
    0.00000E+00         0.00000E+00        -0.22966E+06
 
   -0.59042E+06        -0.56797E+05         0.00000E+00
   -0.56797E+05        -0.53792E+06         0.00000E+00
    0.00000E+00         0.00000E+00        -0.22567E+06
 
   -0.55474E+06        -0.43926E+05         0.00000E+00
   -0.43926E+05        -0.54518E+06         0.00000E+00
    0.00000E+00         0.00000E+00        -0.21998E+06
 
   -0.47720E+06        -0.12735E+05         0.00000E+00
   -0.12735E+05        -0.57919E+06         0.00000E+00
    0.00000E+00         0.00000E+00        -0.21128E+06
 
   -0.30645E+06         0.91018E+05         0.00000E+00
    0.91018E+05        -0.66943E+06         0.00000E+00
    0.00000E+00         0.00000E+00        -0.19517E+06
 
   -0.20988E+06         0.51956E+06         0.00000E+00
    0.51956E+06        -0.83041E+06         0.00000E+00
    0.00000E+00         0.00000E+00        -0.20806E+06
 
   -0.32529E+07        -0.42044E+06         0.00000E+00
   -0.42044E+06        -0.21684E+07         0.00000E+00
    0.00000E+00         0.00000E+00        -0.10843E+07
 
   -0.25377E+07        -0.24412E+06         0.00000E+00
   -0.24412E+06        -0.17843E+07         0.00000E+00
    0.00000E+00         0.00000E+00        -0.86439E+06
 
   -0.24293E+07        -0.13230E+06         0.00000E+00
   -0.13230E+06        -0.15224E+07         0.00000E+00
    0.00000E+00         0.00000E+00        -0.79034E+06
 
   -0.24044E+07        -0.84698E+05         0.00000E+00
   -0.84698E+05        -0.13566E+07         0.00000E+00
    0.00000E+00         0.00000E+00        -0.75220E+06
 
   -0.24032E+07        -0.58464E+05         0.00000E+00
   -0.58464E+05        -0.12445E+07         0.00000E+00
    0.00000E+00         0.00000E+00        -0.72954E+06
 
   -0.24072E+07        -0.42919E+05         0.00000E+00
   -0.42919E+05        -0.11642E+07         0.00000E+00
    0.00000E+00         0.00000E+00        -0.71428E+06
 
   -0.24106E+07        -0.33072E+05         0.00000E+00
   -0.33072E+05        -0.11039E+07         0.00000E+00
    0.00000E+00         0.00000E+00        -0.70291E+06
 
   -0.24108E+07        -0.26561E+05         0.00000E+00
   -0.26561E+05        -0.10571E+07         0.00000E+00
    0.00000E+00         0.00000E+00        -0.69358E+06
 
   -0.24052E+07        -0.22078E+05         0.00000E+00
   -0.22078E+05        -0.10199E+07         0.00000E+00
    0.00000E+00         0.00000E+00        -0.68502E+06
 
   -0.23903E+07        -0.18762E+05         0.00000E+00
   -0.18762E+05        -0.99048E+06         0.00000E+00
    0.00000E+00         0.00000E+00        -0.67616E+06
 
   -0.23597E+07        -0.15745E+05         0.00000E+00
   -0.15745E+05        -0.96857E+06         0.00000E+00
    0.00000E+00         0.00000E+00        -0.66566E+06
 
   -0.23001E+07        -0.11574E+05         0.00000E+00
   -0.11574E+05        -0.95677E+06         0.00000E+00
    0.00000E+00         0.00000E+00        -0.65136E+06
 
   -0.21789E+07        -0.14405E+04         0.00000E+00
   -0.14405E+04        -0.96426E+06         0.00000E+00
    0.00000E+00         0.00000E+00        -0.62863E+06
 
   -0.19107E+07         0.26333E+05         0.00000E+00
    0.26333E+05        -0.10221E+07         0.00000E+00
    0.00000E+00         0.00000E+00        -0.58656E+06
 
   -0.10491E+07         0.25863E+06         0.00000E+00
    0.25863E+06        -0.12824E+07         0.00000E+00
    0.00000E+00         0.00000E+00        -0.46630E+06
 
TENSORS stresstot double 
   -0.59877E+08         0.25446E+03         0.00000E+00
    0.25446E+03        -0.60000E+08         0.00000E+00
    0.00000E+00         0.00000E+00        -0.59938E+08
 
   -0.59879E+08         0.71087E+03         0.00000E+00
    0.71087E+03        -0.59999E+08         0.00000E+00
    0.00000E+00         0.00000E+00        -0.59939E+08
 
   -0.59884E+08         0.10844E+04         0.00000E+00
    0.10844E+04        -0.59997E+08         0.00000E+00
    0.00000E+00         0.00000E+00        -0.59940E+08
 
   -0.59890E+08         0.13695E+04         0.00000E+00
    0.13695E+04        -0.59995E+08         0.00000E+00
    0.00000E+00         0.00000E+00        -0.59942E+08
 
   -0.59897E+08         0.15674E+04         0.00000E+00
    0.15674E+04        -0.59992E+08         0.00000E+00
    0.00000E+00         0.00000E+00        -0.59944E+08
 
   -0.59904E+08         0.16828E+04         0.00000E+00
    0.16828E+04        -0.59988E+08         0.00000E+00
    0.00000E+00         0.00000E+00        -0.59946E+08
 
   -0.59912E+08         0.17225E+04         0.00000E+00
    0.17225E+04        -0.59985E+08         0.00000E+00
    0.00000E+00         0.00000E+00        -0.59948E+08
 
   -0.59920E+08         0.16948E+04         0.00000E+00
    0.16948E+04        -0.59982E+08         0.00000E+00
    0.00000E+00         0.00000E+00        -0.59951E+08
 
   -0.59928E+08         0.16096E+04         0.00000E+00
    0.16096E+04        -0.59978E+08         0.00000E+00
    0.00000E+00         0.00000E+00        -0.59953E+08
 
   -0.59935E+08         0.14780E+04         0.00000E+00
    0.14780E+04        -0.59975E+08         0.00000E+00
    0.00000E+00         0.00000E+00        -0.59955E+08
 
   -0.59942E+08         0.13132E+04         0.00000E+00
    0.13132E+04        -0.59972E+08         0.00000E+00
    0.00000E+00         0.00000E+00        -0.59957E+08
 
   -0.59948E+08         0.11303E+04         0.00000E+00
    0.11303E+04        -0.59970E+08         0.00000E+00
    0.00000E+00         0.00000E+00        -0.59959E+08
 
   -0.59953E+08         0.94731E+03         0.00000E+00
    0.94731E+03        -0.59968E+08         0.00000E+00
    0.00000E+00         0.00000E+00        -0.59960E+08
 
   -0.59958E+08         0.78457E+03         0.00000E+00
    0.78457E+03        -0.59966E+08         0.00000E+00
    0.00000E+00         0.00000E+00        -0.59962E+08
 
   -0.59962E+08         0.66401E+03         0.00000E+00
    0.66401E+03        -0.59965E+08         0.00000E+00
    0.00000E+00         0.00000E+00        -0.59963E+08
 
   -0.59876E+08         0.76514E+03         0.00000E+00
    0.76514E+03        -0.60000E+08         0.00000E+00
    0.00000E+00         0.00000E+00        -0.59938E+08
 
   -0.59879E+08         0.21364E+04         0.00000E+00
    0.21364E+04        -0.59999E+08         0.00000E+00
    0.00000E+00         0.00000E+00        -0.59939E+08
 
   -0.59883E+08         0.32574E+04         0.00000E+00
    0.32574E+04        -0.59997E+08         0.00000E+00
    0.00000E+00         0.00000E+00        -0.59940E+08
 
   -0.59889E+08         0.41124E+04         0.00000E+00
    0.41124E+04        -0.59995E+08         0.00000E+00
    0.00000E+00         0.00000E+00        -0.59942E+08
 
   -0.59896E+08         0.47053E+04         0.00000E+00
    0.47053E+04        -0.59992E+08         0.00000E+00
    0.00000E+00         0.00000E+00        -0.59944E+08
 
   -0.59904E+08         0.50504E+04         0.00000E+00
    0.50504E+04        -0.59988E+08         0.00000E+00
    0.00000E+00         0.00000E+00        -0.59946E+08
 
   -0.59912E+08         0.51686E+04         0.00000E+00
    0.51686E+04        -0.59985E+08         0.00000E+00
    0.00000E+00         0.00000E+00        -0.59948E+08
 
   -0.59920E+08         0.50850E+04         0.00000E+00
    0.50850E+04        -0.59981E+08         0.00000E+00
    0.00000E+00         0.00000E+00        -0.59951E+08
 
   -0.59928E+08         0.48287E+04         0.00000E+00
    0.48287E+04        -0.59978E+08         0.00000E+00
    0.00000E+00         0.00000E+00        -0.59953E+08
 
   -0.59935E+08         0.44331E+04         0.00000E+00
    0.44331E+04        -0.59975E+08         0.00000E+00
    0.00000E+00         0.00000E+00        -0.59955E+08
 
   -0.59942E+08         0.39368E+04         0.00000E+00
    0.39368E+04        -0.59972E+08         0.00000E+00
    0.00000E+00         0.00000E+00        -0.59957E+08
 
   -0.59948E+08         0.33853E+04         0.00000E+00
    0.33853E+04        -0.59970E+08         0.00000E+00
    0.00000E+00         0.00000E+00        -0.59959E+08
 
   -0.59953E+08         0.28317E+04         0.00000E+00
    0.28317E+04        -0.59968E+08         0.00000E+00
    0.00000E+00         0.00000E+00        -0.59961E+08
 
   -0.59958E+08         0.23369E+04         0.00000E+00
    0.23369E+04        -0.59966E+08         0.00000E+00
    0.00000E+00         0.00000E+00        -0.59962E+08
 
   -0.59962E+08         0.19667E+04         0.00000E+00
    0.19667E+04        -0.59965E+08         0.00000E+00
    0.00000E+00         0.00000E+00        -0.59963E+08
 
   -0.59874E+08         0.12809E+04         0.00000E+00
    0.12809E+04        -0.60000E+08         0.00000E+00
    0.00000E+00         0.00000E+00        -0.59937E+08
 
   -0.59877E+08         0.35727E+04         0.00000E+00
    0.35727E+04        -0.59999E+08         0.00000E+00
    0.00000E+00         0.00000E+00        -0.59938E+08
 
   -0.59882E+08         0.54422E+04         0.00000E+00
    0.54422E+04        -0.59997E+08         0.00000E+00
    0.00000E+00         0.00000E+00        -0.59939E+08
 
   -0.59888E+08         0.68652E+04         0.00000E+00
    0.68652E+04        -0.59994E+08         0.00000E+00
    0.00000E+00         0.00000E+00        -0.59941E+08
 
   -0.59896E+08         0.78502E+04         0.00000E+00
    0.78502E+04        -0.59992E+08         0.00000E+00
    0.00000E+00         0.00000E+00        -0.59944E+08
 
   -0.59904E+08         0.84223E+04         0.00000E+00
    0.84223E+04        -0.59988E+08         0.00000E+00
    0.00000E+00         0.00000E+00        -0.59946E+08
 
   -0.59912E+08         0.86168E+04         0.00000E+00
    0.86168E+04        -0.59985E+08         0.00000E+00
    0.00000E+00         0.00000E+00        -0.59948E+08
 
   -0.59920E+08         0.84756E+04         0.00000E+00
    0.84756E+04        -0.59981E+08         0.00000E+00
    0.00000E+00         0.00000E+00        -0.59951E+08
 
   -0.59928E+08         0.80467E+04         0.00000E+00
    0.80467E+04        -0.59978E+08         0.00000E+00
    0.00000E+00         0.00000E+00        -0.59953E+08
 
   -0.59936E+08         0.73845E+04         0.00000E+00
    0.73845E+04        -0.59975E+08         0.00000E+00
    0.00000E+00         0.00000E+00        -0.59955E+08
 
   -0.59943E+08         0.65521E+04         0.00000E+00
    0.65521E+04        -0.59972E+08         0.00000E+00
    0.00000E+00         0.00000E+00        -0.59958E+08
 
   -0.59949E+08         0.56235E+04         0.00000E+00
    0.56235E+04        -0.59970E+08         0.00000E+00
    0.00000E+00         0.00000E+00        -0.59959E+08
 
   -0.59954E+08         0.46858E+04         0.00000E+00
    0.46858E+04        -0.59968E+08         0.00000E+00
    0.00000E+00         0.00000E+00        -0.59961E+08
 
   -0.59959E+08         0.38395E+04         0.00000E+00
    0.38395E+04        -0.59966E+08         0.00000E+00
    0.00000E+00         0.00000E+00        -0.59962E+08
 
   -0.59962E+08         0.31940E+04         0.00000E+00
    0.31940E+04        -0.59965E+08         0.00000E+00
    0.00000E+00         0.00000E+00        -0.59963E+08
 
   -0.59871E+08         0.18041E+04         0.00000E+00
    0.18041E+04        -0.60000E+08         0.00000E+00
    0.00000E+00         0.00000E+00        -0.59935E+08
 
   -0.59874E+08         0.50242E+04         0.00000E+00
    0.50242E+04        -0.59999E+08         0.00000E+00
    0.00000E+00         0.00000E+00        -0.59937E+08
 
   -0.59880E+08         0.76426E+04         0.00000E+00
    0.76426E+04        -0.59997E+08         0.00000E+00
    0.00000E+00         0.00000E+00        -0.59938E+08
 
   -0.59887E+08         0.96298E+04         0.00000E+00
    0.96298E+04        -0.59994E+08         0.00000E+00
    0.00000E+00         0.00000E+00        -0.59941E+08
 
   -0.59895E+08         0.11001E+05         0.00000E+00
    0.11001E+05        -0.59991E+08         0.00000E+00
    0.00000E+00         0.00000E+00        -0.59943E+08
 
   -0.59903E+08         0.11796E+05         0.00000E+00
    0.11796E+05        -0.59988E+08         0.00000E+00
    0.00000E+00         0.00000E+00        -0.59946E+08
 
   -0.59912E+08         0.12063E+05         0.00000E+00
    0.12063E+05        -0.59985E+08         0.00000E+00
    0.00000E+00         0.00000E+00        -0.59948E+08
 
   -0.59921E+08         0.11862E+05         0.00000E+00
    0.11862E+05        -0.59981E+08         0.00000E+00
    0.00000E+00         0.00000E+00        -0.59951E+08
 
   -0.59929E+08         0.11259E+05         0.00000E+00
    0.11259E+05        -0.59978E+08         0.00000E+00
    0.00000E+00         0.00000E+00        -0.59953E+08
 
   -0.59937E+08         0.10327E+05         0.00000E+00
    0.10327E+05        -0.59975E+08         0.00000E+00
    0.00000E+00         0.00000E+00        -0.59956E+08
 
   -0.59944E+08         0.91521E+04         0.00000E+00
    0.91521E+04        -0.59972E+08         0.00000E+00
    0.00000E+00         0.00000E+00        -0.59958E+08
 
   -0.59950E+08         0.78337E+04         0.00000E+00
    0.78337E+04        -0.59970E+08         0.00000E+00
    0.00000E+00         0.00000E+00        -0.59960E+08
 
   -0.59955E+08         0.64906E+04         0.00000E+00
    0.64906E+04        -0.59968E+08         0.00000E+00
    0.00000E+00         0.00000E+00        -0.59962E+08
 
   -0.59960E+08         0.52612E+04         0.00000E+00
    0.52612E+04        -0.59966E+08         0.00000E+00
    0.00000E+00         0.00000E+00        -0.59963E+08
 
   -0.59963E+08         0.42979E+04         0.00000E+00
    0.42979E+04        -0.59965E+08         0.00000E+00
    0.00000E+00         0.00000E+00        -0.59964E+08
 
   -0.59867E+08         0.23358E+04         0.00000E+00
    0.23358E+04        -0.60000E+08         0.00000E+00
    0.00000E+00         0.00000E+00        -0.59934E+08
 
   -0.59871E+08         0.64916E+04         0.00000E+00
    0.64916E+04        -0.59999E+08         0.00000E+00
    0.00000E+00         0.00000E+00        -0.59935E+08
 
   -0.59877E+08         0.98565E+04         0.00000E+00
    0.98565E+04        -0.59997E+08         0.00000E+00
    0.00000E+00         0.00000E+00        -0.59937E+08
 
   -0.59885E+08         0.12401E+05         0.00000E+00
    0.12401E+05        -0.59994E+08         0.00000E+00
    0.00000E+00         0.00000E+00        -0.59940E+08
 
   -0.59893E+08         0.14150E+05         0.00000E+00
    0.14150E+05        -0.59991E+08         0.00000E+00
    0.00000E+00         0.00000E+00        -0.59942E+08
 
   -0.59903E+08         0.15159E+05         0.00000E+00
    0.15159E+05        -0.59988E+08         0.00000E+00
    0.00000E+00         0.00000E+00        -0.59945E+08
 
   -0.59912E+08         0.15495E+05         0.00000E+00
    0.15495E+05        -0.59985E+08         0.00000E+00
    0.00000E+00         0.00000E+00        -0.59948E+08
 
   -0.59921E+08         0.15232E+05         0.00000E+00
    0.15232E+05        -0.59981E+08         0.00000E+00
    0.00000E+00         0.00000E+00        -0.59951E+08
 
   -0.59930E+08         0.14455E+05         0.00000E+00
    0.14455E+05        -0.59978E+08         0.00000E+00
    0.00000E+00         0.00000E+00        -0.59954E+08
 
   -0.59938E+08         0.13252E+05         0.00000E+00
    0.13252E+05        -0.59975E+08         0.00000E+00
    0.00000E+00         0.00000E+00        -0.59957E+08
 
   -0.59945E+08         0.11728E+05         0.00000E+00
    0.11728E+05        -0.59972E+08         0.00000E+00
    0.00000E+00         0.00000E+00        -0.59959E+08
 
   -0.59952E+08         0.10005E+05         0.00000E+00
    0.10005E+05        -0.59970E+08         0.00000E+00
    0.00000E+00         0.00000E+00        -0.59961E+08
 
   -0.59957E+08         0.82289E+04         0.00000E+00
    0.82289E+04        -0.59968E+08         0.00000E+00
    0.00000E+00         0.00000E+00        -0.59962E+08
 
   -0.59961E+08         0.65738E+04         0.00000E+00
    0.65738E+04        -0.59967E+08         0.00000E+00
    0.00000E+00         0.00000E+00        -0.59964E+08
 
   -0.59964E+08         0.52340E+04         0.00000E+00
    0.52340E+04        -0.59966E+08         0.00000E+00
    0.00000E+00         0.00000E+00        -0.59965E+08
 
   -0.59862E+08         0.28750E+04         0.00000E+00
    0.28750E+04        -0.60000E+08         0.00000E+00
    0.00000E+00         0.00000E+00        -0.59931E+08
 
   -0.59867E+08         0.79700E+04         0.00000E+00
    0.79700E+04        -0.59999E+08         0.00000E+00
    0.00000E+00         0.00000E+00        -0.59933E+08
 
   -0.59874E+08         0.12074E+05         0.00000E+00
    0.12074E+05        -0.59997E+08         0.00000E+00
    0.00000E+00         0.00000E+00        -0.59935E+08
 
   -0.59883E+08         0.15161E+05         0.00000E+00
    0.15161E+05        -0.59994E+08         0.00000E+00
    0.00000E+00         0.00000E+00        -0.59938E+08
 
   -0.59892E+08         0.17275E+05         0.00000E+00
    0.17275E+05        -0.59991E+08         0.00000E+00
    0.00000E+00         0.00000E+00        -0.59942E+08
 
   -0.59902E+08         0.18489E+05         0.00000E+00
    0.18489E+05        -0.59988E+08         0.00000E+00
    0.00000E+00         0.00000E+00        -0.59945E+08
 
   -0.59912E+08         0.18888E+05         0.00000E+00
    0.18888E+05        -0.59985E+08         0.00000E+00
    0.00000E+00         0.00000E+00        -0.59948E+08
 
   -0.59922E+08         0.18564E+05         0.00000E+00
    0.18564E+05        -0.59982E+08         0.00000E+00
    0.00000E+00         0.00000E+00        -0.59952E+08
 
   -0.59931E+08         0.17615E+05         0.00000E+00
    0.17615E+05        -0.59978E+08         0.00000E+00
    0.00000E+00         0.00000E+00        -0.59955E+08
 
   -0.59939E+08         0.16143E+05         0.00000E+00
    0.16143E+05        -0.59975E+08         0.00000E+00
    0.00000E+00         0.00000E+00        -0.59957E+08
 
   -0.59947E+08         0.14267E+05         0.00000E+00
    0.14267E+05        -0.59973E+08         0.00000E+00
    0.00000E+00         0.00000E+00        -0.59960E+08
 
   -0.59954E+08         0.12126E+05         0.00000E+00
    0.12126E+05        -0.59970E+08         0.00000E+00
    0.00000E+00         0.00000E+00        -0.59962E+08
 
   -0.59959E+08         0.98865E+04         0.00000E+00
    0.98865E+04        -0.59969E+08         0.00000E+00
    0.00000E+00         0.00000E+00        -0.59964E+08
 
   -0.59963E+08         0.77541E+04         0.00000E+00
    0.77541E+04        -0.59967E+08         0.00000E+00
    0.00000E+00         0.00000E+00        -0.59965E+08
 
   -0.59965E+08         0.59632E+04         0.00000E+00
    0.59632E+04        -0.59966E+08         0.00000E+00
    0.00000E+00         0.00000E+00        -0.59966E+08
 
   -0.59856E+08         0.34183E+04         0.00000E+00
    0.34183E+04        -0.60000E+08         0.00000E+00
    0.00000E+00         0.00000E+00        -0.59928E+08
 
   -0.59862E+08         0.94472E+04         0.00000E+00
    0.94472E+04        -0.59999E+08         0.00000E+00
    0.00000E+00         0.00000E+00        -0.59930E+08
 
   -0.59870E+08         0.14273E+05         0.00000E+00
    0.14273E+05        -0.59997E+08         0.00000E+00
    0.00000E+00         0.00000E+00        -0.59934E+08
 
   -0.59880E+08         0.17882E+05         0.00000E+00
    0.17882E+05        -0.59994E+08         0.00000E+00
    0.00000E+00         0.00000E+00        -0.59937E+08
 
   -0.59890E+08         0.20340E+05         0.00000E+00
    0.20340E+05        -0.59992E+08         0.00000E+00
    0.00000E+00         0.00000E+00        -0.59941E+08
 
   -0.59901E+08         0.21745E+05         0.00000E+00
    0.21745E+05        -0.59989E+08         0.00000E+00
    0.00000E+00         0.00000E+00        -0.59945E+08
 
   -0.59912E+08         0.22202E+05         0.00000E+00
    0.22202E+05        -0.59985E+08         0.00000E+00
    0.00000E+00         0.00000E+00        -0.59949E+08
 
   -0.59922E+08         0.21820E+05         0.00000E+00
    0.21820E+05        -0.59982E+08         0.00000E+00
    0.00000E+00         0.00000E+00        -0.59952E+08
 
   -0.59932E+08         0.20708E+05         0.00000E+00
    0.20708E+05        -0.59979E+08         0.00000E+00
    0.00000E+00         0.00000E+00        -0.59956E+08
 
   -0.59941E+08         0.18978E+05         0.00000E+00
    0.18978E+05        -0.59976E+08         0.00000E+00
    0.00000E+00         0.00000E+00        -0.59959E+08
 
   -0.59949E+08         0.16755E+05         0.00000E+00
    0.16755E+05        -0.59973E+08         0.00000E+00
    0.00000E+00         0.00000E+00        -0.59961E+08
 
   -0.59956E+08         0.14186E+05         0.00000E+00
    0.14186E+05        -0.59971E+08         0.00000E+00
    0.00000E+00         0.00000E+00        -0.59964E+08
 
   -0.59961E+08         0.11453E+05         0.00000E+00
    0.11453E+05        -0.59969E+08         0.00000E+00
    0.00000E+00         0.00000E+00        -0.59965E+08
 
   -0.59965E+08         0.87857E+04         0.00000E+00
    0.87857E+04        -0.59968E+08         0.00000E+00
    0.00000E+00         0.00000E+00        -0.59967E+08
 
   -0.59967E+08         0.64547E+04         0.00000E+00
    0.64547E+04        -0.59967E+08         0.00000E+00
    0.00000E+00         0.00000E+00        -0.59967E+08
 
   -0.59849E+08         0.39589E+04         0.00000E+00
    0.39589E+04        -0.60000E+08         0.00000E+00
    0.00000E+00         0.00000E+00        -0.59925E+08
 
   -0.59856E+08         0.10902E+05         0.00000E+00
    0.10902E+05        -0.59999E+08         0.00000E+00
    0.00000E+00         0.00000E+00        -0.59928E+08
 
   -0.59866E+08         0.16418E+05         0.00000E+00
    0.16418E+05        -0.59997E+08         0.00000E+00
    0.00000E+00         0.00000E+00        -0.59931E+08
 
   -0.59876E+08         0.20516E+05         0.00000E+00
    0.20516E+05        -0.59995E+08         0.00000E+00
    0.00000E+00         0.00000E+00        -0.59936E+08
 
   -0.59888E+08         0.23289E+05         0.00000E+00
    0.23289E+05        -0.59992E+08         0.00000E+00
    0.00000E+00         0.00000E+00        -0.59940E+08
 
   -0.59900E+08         0.24866E+05         0.00000E+00
    0.24866E+05        -0.59989E+08         0.00000E+00
    0.00000E+00         0.00000E+00        -0.59944E+08
 
   -0.59912E+08         0.25376E+05         0.00000E+00
    0.25376E+05        -0.59986E+08         0.00000E+00
    0.00000E+00         0.00000E+00        -0.59949E+08
 
   -0.59923E+08         0.24945E+05         0.00000E+00
    0.24945E+05        -0.59983E+08         0.00000E+00
    0.00000E+00         0.00000E+00        -0.59953E+08
 
   -0.59934E+08         0.23688E+05         0.00000E+00
    0.23688E+05        -0.59980E+08         0.00000E+00
    0.00000E+00         0.00000E+00        -0.59957E+08
 
   -0.59943E+08         0.21722E+05         0.00000E+00
    0.21722E+05        -0.59977E+08         0.00000E+00
    0.00000E+00         0.00000E+00        -0.59960E+08
 
   -0.59952E+08         0.19169E+05         0.00000E+00
    0.19169E+05        -0.59975E+08         0.00000E+00
    0.00000E+00         0.00000E+00        -0.59963E+08
 
   -0.59959E+08         0.16174E+05         0.00000E+00
    0.16174E+05        -0.59972E+08         0.00000E+00
    0.00000E+00         0.00000E+00        -0.59966E+08
 
   -0.59964E+08         0.12924E+05         0.00000E+00
    0.12924E+05        -0.59971E+08         0.00000E+00
    0.00000E+00         0.00000E+00        -0.59968E+08
 
   -0.59968E+08         0.96613E+04         0.00000E+00
    0.96613E+04        -0.59970E+08         0.00000E+00
    0.00000E+00         0.00000E+00        -0.59969E+08
 
   -0.59969E+08         0.66889E+04         0.00000E+00
    0.66889E+04        -0.59969E+08         0.00000E+00
    0.00000E+00         0.00000E+00        -0.59969E+08
 
   -0.59840E+08         0.44862E+04         0.00000E+00
    0.44862E+04        -0.60000E+08         0.00000E+00
    0.00000E+00         0.00000E+00        -0.59921E+08
 
   -0.59849E+08         0.12304E+05         0.00000E+00
    0.12304E+05        -0.59999E+08         0.00000E+00
    0.00000E+00         0.00000E+00        -0.59924E+08
 
   -0.59860E+08         0.18460E+05         0.00000E+00
    0.18460E+05        -0.59997E+08         0.00000E+00
    0.00000E+00         0.00000E+00        -0.59929E+08
 
   -0.59873E+08         0.22995E+05         0.00000E+00
    0.22995E+05        -0.59995E+08         0.00000E+00
    0.00000E+00         0.00000E+00        -0.59934E+08
 
   -0.59886E+08         0.26043E+05         0.00000E+00
    0.26043E+05        -0.59992E+08         0.00000E+00
    0.00000E+00         0.00000E+00        -0.59939E+08
 
   -0.59899E+08         0.27767E+05         0.00000E+00
    0.27767E+05        -0.59990E+08         0.00000E+00
    0.00000E+00         0.00000E+00        -0.59944E+08
 
   -0.59912E+08         0.28325E+05         0.00000E+00
    0.28325E+05        -0.59987E+08         0.00000E+00
    0.00000E+00         0.00000E+00        -0.59949E+08
 
   -0.59924E+08         0.27859E+05         0.00000E+00
    0.27859E+05        -0.59984E+08         0.00000E+00
    0.00000E+00         0.00000E+00        -0.59954E+08
 
   -0.59935E+08         0.26490E+05         0.00000E+00
    0.26490E+05        -0.59982E+08         0.00000E+00
    0.00000E+00         0.00000E+00        -0.59958E+08
 
   -0.59946E+08         0.24327E+05         0.00000E+00
    0.24327E+05        -0.59979E+08         0.00000E+00
    0.00000E+00         0.00000E+00        -0.59962E+08
 
   -0.59955E+08         0.21480E+05         0.00000E+00
    0.21480E+05        -0.59977E+08         0.00000E+00
    0.00000E+00         0.00000E+00        -0.59966E+08
 
   -0.59962E+08         0.18080E+05         0.00000E+00
    0.18080E+05        -0.59974E+08         0.00000E+00
    0.00000E+00         0.00000E+00        -0.59968E+08
 
   -0.59968E+08         0.14301E+05         0.00000E+00
    0.14301E+05        -0.59973E+08         0.00000E+00
    0.00000E+00         0.00000E+00        -0.59970E+08
 
   -0.59971E+08         0.10386E+05         0.00000E+00
    0.10386E+05        -0.59972E+08         0.00000E+00
    0.00000E+00         0.00000E+00        -0.59972E+08
 
   -0.59972E+08         0.66618E+04         0.00000E+00
    0.66618E+04        -0.59972E+08         0.00000E+00
    0.00000E+00         0.00000E+00        -0.59972E+08
 
   -0.59831E+08         0.49855E+04         0.00000E+00
    0.49855E+04        -0.60000E+08         0.00000E+00
    0.00000E+00         0.00000E+00        -0.59917E+08
 
   -0.59842E+08         0.13609E+05         0.00000E+00
    0.13609E+05        -0.59999E+08         0.00000E+00
    0.00000E+00         0.00000E+00        -0.59921E+08
 
   -0.59855E+08         0.20328E+05         0.00000E+00
    0.20328E+05        -0.59997E+08         0.00000E+00
    0.00000E+00         0.00000E+00        -0.59926E+08
 
   -0.59869E+08         0.25228E+05         0.00000E+00
    0.25228E+05        -0.59996E+08         0.00000E+00
    0.00000E+00         0.00000E+00        -0.59932E+08
 
   -0.59883E+08         0.28493E+05         0.00000E+00
    0.28493E+05        -0.59993E+08         0.00000E+00
    0.00000E+00         0.00000E+00        -0.59938E+08
 
   -0.59898E+08         0.30331E+05         0.00000E+00
    0.30331E+05        -0.59991E+08         0.00000E+00
    0.00000E+00         0.00000E+00        -0.59944E+08
 
   -0.59912E+08         0.30932E+05         0.00000E+00
    0.30932E+05        -0.59989E+08         0.00000E+00
    0.00000E+00         0.00000E+00        -0.59950E+08
 
   -0.59925E+08         0.30455E+05         0.00000E+00
    0.30455E+05        -0.59986E+08         0.00000E+00
    0.00000E+00         0.00000E+00        -0.59956E+08
 
   -0.59937E+08         0.29022E+05         0.00000E+00
    0.29022E+05        -0.59984E+08         0.00000E+00
    0.00000E+00         0.00000E+00        -0.59961E+08
 
   -0.59948E+08         0.26727E+05         0.00000E+00
    0.26727E+05        -0.59982E+08         0.00000E+00
    0.00000E+00         0.00000E+00        -0.59965E+08
 
   -0.59958E+08         0.23652E+05         0.00000E+00
    0.23652E+05        -0.59979E+08         0.00000E+00
    0.00000E+00         0.00000E+00        -0.59969E+08
 
   -0.59966E+08         0.19893E+05         0.00000E+00
    0.19893E+05        -0.59978E+08         0.00000E+00
    0.00000E+00         0.00000E+00        -0.59972E+08
 
   -0.59972E+08         0.15595E+05         0.00000E+00
    0.15595E+05        -0.59976E+08         0.00000E+00
    0.00000E+00         0.00000E+00        -0.59974E+08
 
   -0.59976E+08         0.10983E+05         0.00000E+00
    0.10983E+05        -0.59975E+08         0.00000E+00
    0.00000E+00         0.00000E+00        -0.59975E+08
 
   -0.59976E+08         0.63906E+04         0.00000E+00
    0.63906E+04        -0.59975E+08         0.00000E+00
    0.00000E+00         0.00000E+00        -0.59976E+08
 
   -0.59821E+08         0.54375E+04         0.00000E+00
    0.54375E+04        -0.60000E+08         0.00000E+00
    0.00000E+00         0.00000E+00        -0.59912E+08
 
   -0.59834E+08         0.14761E+05         0.00000E+00
    0.14761E+05        -0.59999E+08         0.00000E+00
    0.00000E+00         0.00000E+00        -0.59917E+08
 
   -0.59849E+08         0.21934E+05         0.00000E+00
    0.21934E+05        -0.59998E+08         0.00000E+00
    0.00000E+00         0.00000E+00        -0.59924E+08
 
   -0.59865E+08         0.27097E+05         0.00000E+00
    0.27097E+05        -0.59996E+08         0.00000E+00
    0.00000E+00         0.00000E+00        -0.59931E+08
 
   -0.59881E+08         0.30501E+05         0.00000E+00
    0.30501E+05        -0.59995E+08         0.00000E+00
    0.00000E+00         0.00000E+00        -0.59938E+08
 
   -0.59897E+08         0.32406E+05         0.00000E+00
    0.32406E+05        -0.59993E+08         0.00000E+00
    0.00000E+00         0.00000E+00        -0.59945E+08
 
   -0.59912E+08         0.33043E+05         0.00000E+00
    0.33043E+05        -0.59991E+08         0.00000E+00
    0.00000E+00         0.00000E+00        -0.59951E+08
 
   -0.59926E+08         0.32589E+05         0.00000E+00
    0.32589E+05        -0.59989E+08         0.00000E+00
    0.00000E+00         0.00000E+00        -0.59958E+08
 
   -0.59939E+08         0.31163E+05         0.00000E+00
    0.31163E+05        -0.59987E+08         0.00000E+00
    0.00000E+00         0.00000E+00        -0.59963E+08
 
   -0.59951E+08         0.28832E+05         0.00000E+00
    0.28832E+05        -0.59985E+08         0.00000E+00
    0.00000E+00         0.00000E+00        -0.59968E+08
 
   -0.59962E+08         0.25632E+05         0.00000E+00
    0.25632E+05        -0.59984E+08         0.00000E+00
    0.00000E+00         0.00000E+00        -0.59973E+08
 
   -0.59970E+08         0.21602E+05         0.00000E+00
    0.21602E+05        -0.59982E+08         0.00000E+00
    0.00000E+00         0.00000E+00        -0.59976E+08
 
   -0.59977E+08         0.16829E+05         0.00000E+00
    0.16829E+05        -0.59980E+08         0.00000E+00
    0.00000E+00         0.00000E+00        -0.59979E+08
 
   -0.59981E+08         0.11494E+05         0.00000E+00
    0.11494E+05        -0.59980E+08         0.00000E+00
    0.00000E+00         0.00000E+00        -0.59980E+08
 
   -0.59981E+08         0.59208E+04         0.00000E+00
    0.59208E+04        -0.59980E+08         0.00000E+00
    0.00000E+00         0.00000E+00        -0.59981E+08
 
   -0.59811E+08         0.58179E+04         0.00000E+00
    0.58179E+04        -0.60000E+08         0.00000E+00
    0.00000E+00         0.00000E+00        -0.59907E+08
 
   -0.59826E+08         0.15690E+05         0.00000E+00
    0.15690E+05        -0.59999E+08         0.00000E+00
    0.00000E+00         0.00000E+00        -0.59913E+08
 
   -0.59843E+08         0.23164E+05         0.00000E+00
    0.23164E+05        -0.59998E+08         0.00000E+00
    0.00000E+00         0.00000E+00        -0.59921E+08
 
   -0.59861E+08         0.28455E+05         0.00000E+00
    0.28455E+05        -0.59997E+08         0.00000E+00
    0.00000E+00         0.00000E+00        -0.59929E+08
 
   -0.59878E+08         0.31889E+05         0.00000E+00
    0.31889E+05        -0.59996E+08         0.00000E+00
    0.00000E+00         0.00000E+00        -0.59937E+08
 
   -0.59895E+08         0.33798E+05         0.00000E+00
    0.33798E+05        -0.59995E+08         0.00000E+00
    0.00000E+00         0.00000E+00        -0.59945E+08
 
   -0.59912E+08         0.34460E+05         0.00000E+00
    0.34460E+05        -0.59994E+08         0.00000E+00
    0.00000E+00         0.00000E+00        -0.59953E+08
 
   -0.59927E+08         0.34076E+05         0.00000E+00
    0.34076E+05        -0.59993E+08         0.00000E+00
    0.00000E+00         0.00000E+00        -0.59960E+08
 
   -0.59941E+08         0.32756E+05         0.00000E+00
    0.32756E+05        -0.59992E+08         0.00000E+00
    0.00000E+00         0.00000E+00        -0.59967E+08
 
   -0.59954E+08         0.30526E+05         0.00000E+00
    0.30526E+05        -0.59991E+08         0.00000E+00
    0.00000E+00         0.00000E+00        -0.59972E+08
 
   -0.59965E+08         0.27355E+05         0.00000E+00
    0.27355E+05        -0.59989E+08         0.00000E+00
    0.00000E+00         0.00000E+00        -0.59977E+08
 
   -0.59975E+08         0.23195E+05         0.00000E+00
    0.23195E+05        -0.59988E+08         0.00000E+00
    0.00000E+00         0.00000E+00        -0.59981E+08
 
   -0.59982E+08         0.18039E+05         0.00000E+00
    0.18039E+05        -0.59986E+08         0.00000E+00
    0.00000E+00         0.00000E+00        -0.59984E+08
 
   -0.59987E+08         0.11992E+05         0.00000E+00
    0.11992E+05        -0.59986E+08         0.00000E+00
    0.00000E+00         0.00000E+00        -0.59986E+08
 
   -0.59987E+08         0.53351E+04         0.00000E+00
    0.53351E+04        -0.59986E+08         0.00000E+00
    0.00000E+00         0.00000E+00        -0.59987E+08
 
   -0.59799E+08         0.60983E+04         0.00000E+00
    0.60983E+04        -0.60000E+08         0.00000E+00
    0.00000E+00         0.00000E+00        -0.59902E+08
 
   -0.59817E+08         0.16313E+05         0.00000E+00
    0.16313E+05        -0.60000E+08         0.00000E+00
    0.00000E+00         0.00000E+00        -0.59909E+08
 
   -0.59836E+08         0.23886E+05         0.00000E+00
    0.23886E+05        -0.59999E+08         0.00000E+00
    0.00000E+00         0.00000E+00        -0.59918E+08
 
   -0.59856E+08         0.29121E+05         0.00000E+00
    0.29121E+05        -0.59999E+08         0.00000E+00
    0.00000E+00         0.00000E+00        -0.59928E+08
 
   -0.59876E+08         0.32441E+05         0.00000E+00
    0.32441E+05        -0.59999E+08         0.00000E+00
    0.00000E+00         0.00000E+00        -0.59937E+08
 
   -0.59894E+08         0.34265E+05         0.00000E+00
    0.34265E+05        -0.59999E+08         0.00000E+00
    0.00000E+00         0.00000E+00        -0.59946E+08
 
   -0.59911E+08         0.34935E+05         0.00000E+00
    0.34935E+05        -0.59999E+08         0.00000E+00
    0.00000E+00         0.00000E+00        -0.59955E+08
 
   -0.59928E+08         0.34680E+05         0.00000E+00
    0.34680E+05        -0.59999E+08         0.00000E+00
    0.00000E+00         0.00000E+00        -0.59963E+08
 
   -0.59943E+08         0.33597E+05         0.00000E+00
    0.33597E+05        -0.59999E+08         0.00000E+00
    0.00000E+00         0.00000E+00        -0.59971E+08
 
   -0.59956E+08         0.31658E+05         0.00000E+00
    0.31658E+05        -0.59998E+08         0.00000E+00
    0.00000E+00         0.00000E+00        -0.59977E+08
 
   -0.59969E+08         0.28735E+05         0.00000E+00
    0.28735E+05        -0.59997E+08         0.00000E+00
    0.00000E+00         0.00000E+00        -0.59983E+08
 
   -0.59980E+08         0.24657E+05         0.00000E+00
    0.24657E+05        -0.59996E+08         0.00000E+00
    0.00000E+00         0.00000E+00        -0.59988E+08
 
   -0.59988E+08         0.19280E+05         0.00000E+00
    0.19280E+05        -0.59994E+08         0.00000E+00
    0.00000E+00         0.00000E+00        -0.59991E+08
 
   -0.59993E+08         0.12582E+05         0.00000E+00
    0.12582E+05        -0.59993E+08         0.00000E+00
    0.00000E+00         0.00000E+00        -0.59994E+08
 
   -0.59995E+08         0.47648E+04         0.00000E+00
    0.47648E+04        -0.59993E+08         0.00000E+00
    0.00000E+00         0.00000E+00        -0.59994E+08
 
   -0.59788E+08         0.62465E+04         0.00000E+00
    0.62465E+04        -0.60000E+08         0.00000E+00
    0.00000E+00         0.00000E+00        -0.59897E+08
 
   -0.59808E+08         0.16536E+05         0.00000E+00
    0.16536E+05        -0.60000E+08         0.00000E+00
    0.00000E+00         0.00000E+00        -0.59905E+08
 
   -0.59830E+08         0.23946E+05         0.00000E+00
    0.23946E+05        -0.60000E+08         0.00000E+00
    0.00000E+00         0.00000E+00        -0.59916E+08
 
   -0.59852E+08         0.28884E+05         0.00000E+00
    0.28884E+05        -0.60001E+08         0.00000E+00
    0.00000E+00         0.00000E+00        -0.59927E+08
 
   -0.59873E+08         0.31896E+05         0.00000E+00
    0.31896E+05        -0.60002E+08         0.00000E+00
    0.00000E+00         0.00000E+00        -0.59938E+08
 
   -0.59893E+08         0.33513E+05         0.00000E+00
    0.33513E+05        -0.60003E+08         0.00000E+00
    0.00000E+00         0.00000E+00        -0.59948E+08
 
   -0.59911E+08         0.34160E+05         0.00000E+00
    0.34160E+05        -0.60005E+08         0.00000E+00
    0.00000E+00         0.00000E+00        -0.59958E+08
 
   -0.59928E+08         0.34105E+05         0.00000E+00
    0.34105E+05        -0.60006E+08         0.00000E+00
    0.00000E+00         0.00000E+00        -0.59967E+08
 
   -0.59944E+08         0.33429E+05         0.00000E+00
    0.33429E+05        -0.60007E+08         0.00000E+00
    0.00000E+00         0.00000E+00        -0.59975E+08
 
   -0.59959E+08         0.32031E+05         0.00000E+00
    0.32031E+05        -0.60007E+08         0.00000E+00
    0.00000E+00         0.00000E+00        -0.59983E+08
 
   -0.59972E+08         0.29660E+05         0.00000E+00
    0.29660E+05        -0.60007E+08         0.00000E+00
    0.00000E+00         0.00000E+00        -0.59990E+08
 
   -0.59984E+08         0.25971E+05         0.00000E+00
    0.25971E+05        -0.60006E+08         0.00000E+00
    0.00000E+00         0.00000E+00        -0.59995E+08
 
   -0.59994E+08         0.20627E+05         0.00000E+00
    0.20627E+05        -0.60005E+08         0.00000E+00
    0.00000E+00         0.00000E+00        -0.60000E+08
 
   -0.60001E+08         0.13416E+05         0.00000E+00
    0.13416E+05        -0.60004E+08         0.00000E+00
    0.00000E+00         0.00000E+00        -0.60002E+08
 
   -0.60004E+08         0.44041E+04         0.00000E+00
    0.44041E+04        -0.60003E+08         0.00000E+00
    0.00000E+00         0.00000E+00        -0.60004E+08
 
   -0.59776E+08         0.62287E+04         0.00000E+00
    0.62287E+04        -0.60000E+08         0.00000E+00
    0.00000E+00         0.00000E+00        -0.59891E+08
 
   -0.59799E+08         0.16257E+05         0.00000E+00
    0.16257E+05        -0.60000E+08         0.00000E+00
    0.00000E+00         0.00000E+00        -0.59901E+08
 
   -0.59824E+08         0.23168E+05         0.00000E+00
    0.23168E+05        -0.60001E+08         0.00000E+00
    0.00000E+00         0.00000E+00        -0.59913E+08
 
   -0.59849E+08         0.27497E+05         0.00000E+00
    0.27497E+05        -0.60003E+08         0.00000E+00
    0.00000E+00         0.00000E+00        -0.59926E+08
 
   -0.59871E+08         0.29944E+05         0.00000E+00
    0.29944E+05        -0.60005E+08         0.00000E+00
    0.00000E+00         0.00000E+00        -0.59938E+08
 
   -0.59892E+08         0.31187E+05         0.00000E+00
    0.31187E+05        -0.60008E+08         0.00000E+00
    0.00000E+00         0.00000E+00        -0.59950E+08
 
   -0.59911E+08         0.31760E+05         0.00000E+00
    0.31760E+05        -0.60012E+08         0.00000E+00
    0.00000E+00         0.00000E+00        -0.59961E+08
 
   -0.59928E+08         0.31985E+05         0.00000E+00
    0.31985E+05        -0.60015E+08         0.00000E+00
    0.00000E+00         0.00000E+00        -0.59972E+08
 
   -0.59945E+08         0.31929E+05         0.00000E+00
    0.31929E+05        -0.60018E+08         0.00000E+00
    0.00000E+00         0.00000E+00        -0.59981E+08
 
   -0.59960E+08         0.31401E+05         0.00000E+00
    0.31401E+05        -0.60019E+08         0.00000E+00
    0.00000E+00         0.00000E+00        -0.59990E+08
 
   -0.59975E+08         0.29985E+05         0.00000E+00
    0.29985E+05        -0.60020E+08         0.00000E+00
    0.00000E+00         0.00000E+00        -0.59997E+08
 
   -0.59988E+08         0.27112E+05         0.00000E+00
    0.27112E+05        -0.60020E+08         0.00000E+00
    0.00000E+00         0.00000E+00        -0.60004E+08
 
   -0.60000E+08         0.22177E+05         0.00000E+00
    0.22177E+05        -0.60018E+08         0.00000E+00
    0.00000E+00         0.00000E+00        -0.60009E+08
 
   -0.60010E+08         0.14698E+05         0.00000E+00
    0.14698E+05        -0.60016E+08         0.00000E+00
    0.00000E+00         0.00000E+00        -0.60013E+08
 
   -0.60014E+08         0.45280E+04         0.00000E+00
    0.45280E+04        -0.60015E+08         0.00000E+00
    0.00000E+00         0.00000E+00        -0.60015E+08
 
   -0.59765E+08         0.60115E+04         0.00000E+00
    0.60115E+04        -0.60000E+08         0.00000E+00
    0.00000E+00         0.00000E+00        -0.59886E+08
 
   -0.59791E+08         0.15370E+05         0.00000E+00
    0.15370E+05        -0.60001E+08         0.00000E+00
    0.00000E+00         0.00000E+00        -0.59898E+08
 
   -0.59819E+08         0.21361E+05         0.00000E+00
    0.21361E+05        -0.60003E+08         0.00000E+00
    0.00000E+00         0.00000E+00        -0.59912E+08
 
   -0.59846E+08         0.24679E+05         0.00000E+00
    0.24679E+05        -0.60006E+08         0.00000E+00
    0.00000E+00         0.00000E+00        -0.59926E+08
 
   -0.59870E+08         0.26224E+05         0.00000E+00
    0.26224E+05        -0.60010E+08         0.00000E+00
    0.00000E+00         0.00000E+00        -0.59940E+08
 
   -0.59891E+08         0.26866E+05         0.00000E+00
    0.26866E+05        -0.60015E+08         0.00000E+00
    0.00000E+00         0.00000E+00        -0.59953E+08
 
   -0.59910E+08         0.27287E+05         0.00000E+00
    0.27287E+05        -0.60021E+08         0.00000E+00
    0.00000E+00         0.00000E+00        -0.59966E+08
 
   -0.59928E+08         0.27883E+05         0.00000E+00
    0.27883E+05        -0.60026E+08         0.00000E+00
    0.00000E+00         0.00000E+00        -0.59977E+08
 
   -0.59944E+08         0.28709E+05         0.00000E+00
    0.28709E+05        -0.60031E+08         0.00000E+00
    0.00000E+00         0.00000E+00        -0.59988E+08
 
   -0.59960E+08         0.29465E+05         0.00000E+00
    0.29465E+05        -0.60034E+08         0.00000E+00
    0.00000E+00         0.00000E+00        -0.59997E+08
 
   -0.59976E+08         0.29531E+05         0.00000E+00
    0.29531E+05        -0.60036E+08         0.00000E+00
    0.00000E+00         0.00000E+00        -0.60006E+08
 
   -0.59992E+08         0.28048E+05         0.00000E+00
    0.28048E+05        -0.60036E+08         0.00000E+00
    0.00000E+00         0.00000E+00        -0.60014E+08
 
   -0.60006E+08         0.24058E+05         0.00000E+00
    0.24058E+05        -0.60035E+08         0.00000E+00
    0.00000E+00         0.00000E+00        -0.60020E+08
 
   -0.60019E+08         0.16701E+05         0.00000E+00
    0.16701E+05        -0.60033E+08         0.00000E+00
    0.00000E+00         0.00000E+00        -0.60026E+08
 
   -0.60027E+08         0.55136E+04         0.00000E+00
    0.55136E+04        -0.60030E+08         0.00000E+00
    0.00000E+00         0.00000E+00        -0.60028E+08
 
   -0.59754E+08         0.55657E+04         0.00000E+00
    0.55657E+04        -0.60000E+08         0.00000E+00
    0.00000E+00         0.00000E+00        -0.59882E+08
 
   -0.59784E+08         0.13768E+05         0.00000E+00
    0.13768E+05        -0.60002E+08         0.00000E+00
    0.00000E+00         0.00000E+00        -0.59895E+08
 
   -0.59815E+08         0.18319E+05         0.00000E+00
    0.18319E+05        -0.60004E+08         0.00000E+00
    0.00000E+00         0.00000E+00        -0.59911E+08
 
   -0.59844E+08         0.20113E+05         0.00000E+00
    0.20113E+05        -0.60009E+08         0.00000E+00
    0.00000E+00         0.00000E+00        -0.59927E+08
 
   -0.59869E+08         0.20317E+05         0.00000E+00
    0.20317E+05        -0.60015E+08         0.00000E+00
    0.00000E+00         0.00000E+00        -0.59943E+08
 
   -0.59891E+08         0.20059E+05         0.00000E+00
    0.20059E+05        -0.60023E+08         0.00000E+00
    0.00000E+00         0.00000E+00        -0.59957E+08
 
   -0.59910E+08         0.20216E+05         0.00000E+00
    0.20216E+05        -0.60032E+08         0.00000E+00
    0.00000E+00         0.00000E+00        -0.59971E+08
 
   -0.59927E+08         0.21284E+05         0.00000E+00
    0.21284E+05        -0.60040E+08         0.00000E+00
    0.00000E+00         0.00000E+00        -0.59983E+08
 
   -0.59943E+08         0.23305E+05         0.00000E+00
    0.23305E+05        -0.60047E+08         0.00000E+00
    0.00000E+00         0.00000E+00        -0.59995E+08
 
   -0.59959E+08         0.25854E+05         0.00000E+00
    0.25854E+05        -0.60053E+08         0.00000E+00
    0.00000E+00         0.00000E+00        -0.60006E+08
 
   -0.59976E+08         0.28069E+05         0.00000E+00
    0.28069E+05        -0.60056E+08         0.00000E+00
    0.00000E+00         0.00000E+00        -0.60016E+08
 
   -0.59993E+08         0.28733E+05         0.00000E+00
    0.28733E+05        -0.60057E+08         0.00000E+00
    0.00000E+00         0.00000E+00        -0.60025E+08
 
   -0.60011E+08         0.26425E+05         0.00000E+00
    0.26425E+05        -0.60055E+08         0.00000E+00
    0.00000E+00         0.00000E+00        -0.60033E+08
 
   -0.60028E+08         0.19778E+05         0.00000E+00
    0.19778E+05        -0.60052E+08         0.00000E+00
    0.00000E+00         0.00000E+00        -0.60040E+08
 
   -0.60041E+08         0.78667E+04         0.00000E+00
    0.78667E+04        -0.60049E+08         0.00000E+00
    0.00000E+00         0.00000E+00        -0.60044E+08
 
   -0.59744E+08         0.48702E+04         0.00000E+00
    0.48702E+04        -0.60000E+08         0.00000E+00
    0.00000E+00         0.00000E+00        -0.59878E+08
 
   -0.59779E+08         0.11352E+05         0.00000E+00
    0.11352E+05        -0.60002E+08         0.00000E+00
    0.00000E+00         0.00000E+00        -0.59893E+08
 
   -0.59813E+08         0.13817E+05         0.00000E+00
    0.13817E+05        -0.60006E+08         0.00000E+00
    0.00000E+00         0.00000E+00        -0.59911E+08
 
   -0.59844E+08         0.13434E+05         0.00000E+00
    0.13434E+05        -0.60013E+08         0.00000E+00
    0.00000E+00         0.00000E+00        -0.59929E+08
 
   -0.59870E+08         0.11738E+05         0.00000E+00
    0.11738E+05        -0.60022E+08         0.00000E+00
    0.00000E+00         0.00000E+00        -0.59946E+08
 
   -0.59892E+08         0.10204E+05         0.00000E+00
    0.10204E+05        -0.60033E+08         0.00000E+00
    0.00000E+00         0.00000E+00        -0.59962E+08
 
   -0.59909E+08         0.99563E+04         0.00000E+00
    0.99563E+04        -0.60045E+08         0.00000E+00
    0.00000E+00         0.00000E+00        -0.59977E+08
 
   -0.59925E+08         0.11608E+05         0.00000E+00
    0.11608E+05        -0.60056E+08         0.00000E+00
    0.00000E+00         0.00000E+00        -0.59990E+08
 
   -0.59939E+08         0.15191E+05         0.00000E+00
    0.15191E+05        -0.60067E+08         0.00000E+00
    0.00000E+00         0.00000E+00        -0.60003E+08
 
   -0.59955E+08         0.20142E+05         0.00000E+00
    0.20142E+05        -0.60075E+08         0.00000E+00
    0.00000E+00         0.00000E+00        -0.60015E+08
 
   -0.59972E+08         0.25325E+05         0.00000E+00
    0.25325E+05        -0.60081E+08         0.00000E+00
    0.00000E+00         0.00000E+00        -0.60026E+08
 
   -0.59992E+08         0.29097E+05         0.00000E+00
    0.29097E+05        -0.60082E+08         0.00000E+00
    0.00000E+00         0.00000E+00        -0.60037E+08
 
   -0.60015E+08         0.29463E+05         0.00000E+00
    0.29463E+05        -0.60080E+08         0.00000E+00
    0.00000E+00         0.00000E+00        -0.60047E+08
 
   -0.60037E+08         0.24376E+05         0.00000E+00
    0.24376E+05        -0.60076E+08         0.00000E+00
    0.00000E+00         0.00000E+00        -0.60056E+08
 
   -0.60056E+08         0.12253E+05         0.00000E+00
    0.12253E+05        -0.60070E+08         0.00000E+00
    0.00000E+00         0.00000E+00        -0.60062E+08
 
   -0.59737E+08         0.39166E+04         0.00000E+00
    0.39166E+04        -0.60000E+08         0.00000E+00
    0.00000E+00         0.00000E+00        -0.59875E+08
 
   -0.59776E+08         0.80254E+04         0.00000E+00
    0.80254E+04        -0.60003E+08         0.00000E+00
    0.00000E+00         0.00000E+00        -0.59892E+08
 
   -0.59814E+08         0.75987E+04         0.00000E+00
    0.75987E+04        -0.60008E+08         0.00000E+00
    0.00000E+00         0.00000E+00        -0.59912E+08
 
   -0.59847E+08         0.42100E+04         0.00000E+00
    0.42100E+04        -0.60017E+08         0.00000E+00
    0.00000E+00         0.00000E+00        -0.59933E+08
 
   -0.59873E+08        -0.75136E+02         0.00000E+00
   -0.75136E+02        -0.60030E+08         0.00000E+00
    0.00000E+00         0.00000E+00        -0.59952E+08
 
   -0.59893E+08        -0.33260E+04         0.00000E+00
   -0.33260E+04        -0.60044E+08         0.00000E+00
    0.00000E+00         0.00000E+00        -0.59969E+08
 
   -0.59909E+08        -0.41281E+04         0.00000E+00
   -0.41281E+04        -0.60060E+08         0.00000E+00
    0.00000E+00         0.00000E+00        -0.59984E+08
 
   -0.59921E+08        -0.17511E+04         0.00000E+00
   -0.17511E+04        -0.60076E+08         0.00000E+00
    0.00000E+00         0.00000E+00        -0.59999E+08
 
   -0.59934E+08         0.38142E+04         0.00000E+00
    0.38142E+04        -0.60090E+08         0.00000E+00
    0.00000E+00         0.00000E+00        -0.60012E+08
 
   -0.59948E+08         0.11861E+05         0.00000E+00
    0.11861E+05        -0.60102E+08         0.00000E+00
    0.00000E+00         0.00000E+00        -0.60025E+08
 
   -0.59966E+08         0.20971E+05         0.00000E+00
    0.20971E+05        -0.60109E+08         0.00000E+00
    0.00000E+00         0.00000E+00        -0.60037E+08
 
   -0.59988E+08         0.29035E+05         0.00000E+00
    0.29035E+05        -0.60112E+08         0.00000E+00
    0.00000E+00         0.00000E+00        -0.60050E+08
 
   -0.60015E+08         0.33370E+05         0.00000E+00
    0.33370E+05        -0.60110E+08         0.00000E+00
    0.00000E+00         0.00000E+00        -0.60062E+08
 
   -0.60044E+08         0.31043E+05         0.00000E+00
    0.31043E+05        -0.60104E+08         0.00000E+00
    0.00000E+00         0.00000E+00        -0.60073E+08
 
   -0.60072E+08         0.19538E+05         0.00000E+00
    0.19538E+05        -0.60095E+08         0.00000E+00
    0.00000E+00         0.00000E+00        -0.60082E+08
 
   -0.59731E+08         0.27108E+04         0.00000E+00
    0.27108E+04        -0.60001E+08         0.00000E+00
    0.00000E+00         0.00000E+00        -0.59874E+08
 
   -0.59776E+08         0.36791E+04         0.00000E+00
    0.36791E+04        -0.60004E+08         0.00000E+00
    0.00000E+00         0.00000E+00        -0.59893E+08
 
   -0.59818E+08        -0.67181E+03         0.00000E+00
   -0.67181E+03        -0.60011E+08         0.00000E+00
    0.00000E+00         0.00000E+00        -0.59916E+08
 
   -0.59853E+08        -0.81069E+04         0.00000E+00
   -0.81069E+04        -0.60023E+08         0.00000E+00
    0.00000E+00         0.00000E+00        -0.59938E+08
 
   -0.59879E+08        -0.15786E+05         0.00000E+00
   -0.15786E+05        -0.60039E+08         0.00000E+00
    0.00000E+00         0.00000E+00        -0.59959E+08
 
   -0.59896E+08        -0.21201E+05         0.00000E+00
   -0.21201E+05        -0.60058E+08         0.00000E+00
    0.00000E+00         0.00000E+00        -0.59977E+08
 
   -0.59908E+08        -0.22652E+05         0.00000E+00
   -0.22652E+05        -0.60079E+08         0.00000E+00
    0.00000E+00         0.00000E+00        -0.59993E+08
 
   -0.59916E+08        -0.19346E+05         0.00000E+00
   -0.19346E+05        -0.60099E+08         0.00000E+00
    0.00000E+00         0.00000E+00        -0.60008E+08
 
   -0.59925E+08        -0.11335E+05         0.00000E+00
   -0.11335E+05        -0.60118E+08         0.00000E+00
    0.00000E+00         0.00000E+00        -0.60021E+08
 
   -0.59937E+08         0.54261E+03         0.00000E+00
    0.54261E+03        -0.60133E+08         0.00000E+00
    0.00000E+00         0.00000E+00        -0.60034E+08
 
   -0.59954E+08         0.14632E+05         0.00000E+00
    0.14632E+05        -0.60143E+08         0.00000E+00
    0.00000E+00         0.00000E+00        -0.60048E+08
 
   -0.59979E+08         0.28380E+05         0.00000E+00
    0.28380E+05        -0.60147E+08         0.00000E+00
    0.00000E+00         0.00000E+00        -0.60062E+08
 
   -0.60011E+08         0.38334E+05         0.00000E+00
    0.38334E+05        -0.60145E+08         0.00000E+00
    0.00000E+00         0.00000E+00        -0.60077E+08
 
   -0.60049E+08         0.40428E+05         0.00000E+00
    0.40428E+05        -0.60137E+08         0.00000E+00
    0.00000E+00         0.00000E+00        -0.60091E+08
 
   -0.60089E+08         0.30830E+05         0.00000E+00
    0.30830E+05        -0.60124E+08         0.00000E+00
    0.00000E+00         0.00000E+00        -0.60103E+08
 
   -0.59729E+08         0.12689E+04         0.00000E+00
    0.12689E+04        -0.60001E+08         0.00000E+00
    0.00000E+00         0.00000E+00        -0.59874E+08
 
   -0.59780E+08        -0.18645E+04         0.00000E+00
   -0.18645E+04        -0.60004E+08         0.00000E+00
    0.00000E+00         0.00000E+00        -0.59896E+08
 
   -0.59827E+08        -0.11508E+05         0.00000E+00
   -0.11508E+05        -0.60014E+08         0.00000E+00
    0.00000E+00         0.00000E+00        -0.59922E+08
 
   -0.59863E+08        -0.24274E+05         0.00000E+00
   -0.24274E+05        -0.60029E+08         0.00000E+00
    0.00000E+00         0.00000E+00        -0.59947E+08
 
   -0.59887E+08        -0.36183E+05         0.00000E+00
   -0.36183E+05        -0.60050E+08         0.00000E+00
    0.00000E+00         0.00000E+00        -0.59969E+08
 
   -0.59900E+08        -0.44073E+05         0.00000E+00
   -0.44073E+05        -0.60075E+08         0.00000E+00
    0.00000E+00         0.00000E+00        -0.59988E+08
 
   -0.59907E+08        -0.46079E+05         0.00000E+00
   -0.46079E+05        -0.60100E+08         0.00000E+00
    0.00000E+00         0.00000E+00        -0.60003E+08
 
   -0.59910E+08        -0.41514E+05         0.00000E+00
   -0.41514E+05        -0.60126E+08         0.00000E+00
    0.00000E+00         0.00000E+00        -0.60017E+08
 
   -0.59913E+08        -0.30574E+05         0.00000E+00
   -0.30574E+05        -0.60149E+08         0.00000E+00
    0.00000E+00         0.00000E+00        -0.60030E+08
 
   -0.59921E+08        -0.14188E+05         0.00000E+00
   -0.14188E+05        -0.60167E+08         0.00000E+00
    0.00000E+00         0.00000E+00        -0.60044E+08
 
   -0.59936E+08         0.59023E+04         0.00000E+00
    0.59023E+04        -0.60181E+08         0.00000E+00
    0.00000E+00         0.00000E+00        -0.60058E+08
 
   -0.59963E+08         0.26855E+05         0.00000E+00
    0.26855E+05        -0.60187E+08         0.00000E+00
    0.00000E+00         0.00000E+00        -0.60074E+08
 
   -0.60001E+08         0.44459E+05         0.00000E+00
    0.44459E+05        -0.60185E+08         0.00000E+00
    0.00000E+00         0.00000E+00        -0.60091E+08
 
   -0.60050E+08         0.53255E+05         0.00000E+00
    0.53255E+05        -0.60174E+08         0.00000E+00
    0.00000E+00         0.00000E+00        -0.60110E+08
 
   -0.60104E+08         0.47538E+05         0.00000E+00
    0.47538E+05        -0.60156E+08         0.00000E+00
    0.00000E+00         0.00000E+00        -0.60125E+08
 
   -0.59730E+08        -0.40412E+03         0.00000E+00
   -0.40412E+03        -0.60001E+08         0.00000E+00
    0.00000E+00         0.00000E+00        -0.59876E+08
 
   -0.59790E+08        -0.89873E+04         0.00000E+00
   -0.89873E+04        -0.60006E+08         0.00000E+00
    0.00000E+00         0.00000E+00        -0.59902E+08
 
   -0.59842E+08        -0.25814E+05         0.00000E+00
   -0.25814E+05        -0.60018E+08         0.00000E+00
    0.00000E+00         0.00000E+00        -0.59932E+08
 
   -0.59879E+08        -0.45413E+05         0.00000E+00
   -0.45413E+05        -0.60038E+08         0.00000E+00
    0.00000E+00         0.00000E+00        -0.59959E+08
 
   -0.59899E+08        -0.62190E+05         0.00000E+00
   -0.62190E+05        -0.60065E+08         0.00000E+00
    0.00000E+00         0.00000E+00        -0.59982E+08
 
   -0.59906E+08        -0.72423E+05         0.00000E+00
   -0.72423E+05        -0.60096E+08         0.00000E+00
    0.00000E+00         0.00000E+00        -0.60001E+08
 
   -0.59905E+08        -0.74469E+05         0.00000E+00
   -0.74469E+05        -0.60126E+08         0.00000E+00
    0.00000E+00         0.00000E+00        -0.60015E+08
 
   -0.59901E+08        -0.68093E+05         0.00000E+00
   -0.68093E+05        -0.60156E+08         0.00000E+00
    0.00000E+00         0.00000E+00        -0.60028E+08
 
   -0.59897E+08        -0.53784E+05         0.00000E+00
   -0.53784E+05        -0.60183E+08         0.00000E+00
    0.00000E+00         0.00000E+00        -0.60039E+08
 
   -0.59900E+08        -0.32451E+05         0.00000E+00
   -0.32451E+05        -0.60205E+08         0.00000E+00
    0.00000E+00         0.00000E+00        -0.60052E+08
 
   -0.59912E+08        -0.56125E+04         0.00000E+00
   -0.56125E+04        -0.60222E+08         0.00000E+00
    0.00000E+00         0.00000E+00        -0.60066E+08
 
   -0.59938E+08         0.23991E+05         0.00000E+00
    0.23991E+05        -0.60230E+08         0.00000E+00
    0.00000E+00         0.00000E+00        -0.60083E+08
 
   -0.59982E+08         0.51630E+05         0.00000E+00
    0.51630E+05        -0.60229E+08         0.00000E+00
    0.00000E+00         0.00000E+00        -0.60103E+08
 
   -0.60044E+08         0.70243E+05         0.00000E+00
    0.70243E+05        -0.60215E+08         0.00000E+00
    0.00000E+00         0.00000E+00        -0.60126E+08
 
   -0.60117E+08         0.71438E+05         0.00000E+00
    0.71438E+05        -0.60191E+08         0.00000E+00
    0.00000E+00         0.00000E+00        -0.60146E+08
 
   -0.59736E+08        -0.23825E+04         0.00000E+00
   -0.23825E+04        -0.60001E+08         0.00000E+00
    0.00000E+00         0.00000E+00        -0.59882E+08
 
   -0.59808E+08        -0.18592E+05         0.00000E+00
   -0.18592E+05        -0.60008E+08         0.00000E+00
    0.00000E+00         0.00000E+00        -0.59913E+08
 
   -0.59866E+08        -0.45285E+05         0.00000E+00
   -0.45285E+05        -0.60025E+08         0.00000E+00
    0.00000E+00         0.00000E+00        -0.59947E+08
 
   -0.59901E+08        -0.73226E+05         0.00000E+00
   -0.73226E+05        -0.60053E+08         0.00000E+00
    0.00000E+00         0.00000E+00        -0.59977E+08
 
   -0.59915E+08        -0.94770E+05         0.00000E+00
   -0.94770E+05        -0.60087E+08         0.00000E+00
    0.00000E+00         0.00000E+00        -0.60000E+08
 
   -0.59912E+08        -0.10624E+06         0.00000E+00
   -0.10624E+06        -0.60123E+08         0.00000E+00
    0.00000E+00         0.00000E+00        -0.60017E+08
 
   -0.59902E+08        -0.10704E+06         0.00000E+00
   -0.10704E+06        -0.60158E+08         0.00000E+00
    0.00000E+00         0.00000E+00        -0.60029E+08
 
   -0.59889E+08        -0.97983E+05         0.00000E+00
   -0.97983E+05        -0.60191E+08         0.00000E+00
    0.00000E+00         0.00000E+00        -0.60039E+08
 
   -0.59877E+08        -0.80021E+05         0.00000E+00
   -0.80021E+05        -0.60219E+08         0.00000E+00
    0.00000E+00         0.00000E+00        -0.60047E+08
 
   -0.59872E+08        -0.53839E+05         0.00000E+00
   -0.53839E+05        -0.60244E+08         0.00000E+00
    0.00000E+00         0.00000E+00        -0.60057E+08
 
   -0.59879E+08        -0.20200E+05         0.00000E+00
   -0.20200E+05        -0.60264E+08         0.00000E+00
    0.00000E+00         0.00000E+00        -0.60070E+08
 
   -0.59903E+08         0.19023E+05         0.00000E+00
    0.19023E+05        -0.60275E+08         0.00000E+00
    0.00000E+00         0.00000E+00        -0.60087E+08
 
   -0.59951E+08         0.59268E+05         0.00000E+00
    0.59268E+05        -0.60275E+08         0.00000E+00
    0.00000E+00         0.00000E+00        -0.60110E+08
 
   -0.60026E+08         0.91909E+05         0.00000E+00
    0.91909E+05        -0.60259E+08         0.00000E+00
    0.00000E+00         0.00000E+00        -0.60137E+08
 
   -0.60123E+08         0.10475E+06         0.00000E+00
    0.10475E+06        -0.60227E+08         0.00000E+00
    0.00000E+00         0.00000E+00        -0.60163E+08
 
   -0.59749E+08        -0.50131E+04         0.00000E+00
   -0.50131E+04        -0.60001E+08         0.00000E+00
    0.00000E+00         0.00000E+00        -0.59892E+08
 
   -0.59837E+08        -0.32806E+05         0.00000E+00
   -0.32806E+05        -0.60012E+08         0.00000E+00
    0.00000E+00         0.00000E+00        -0.59930E+08
 
   -0.59900E+08        -0.73083E+05         0.00000E+00
   -0.73083E+05        -0.60038E+08         0.00000E+00
    0.00000E+00         0.00000E+00        -0.59970E+08
 
   -0.59930E+08        -0.11011E+06         0.00000E+00
   -0.11011E+06        -0.60076E+08         0.00000E+00
    0.00000E+00         0.00000E+00        -0.60002E+08
 
   -0.59932E+08        -0.13449E+06         0.00000E+00
   -0.13449E+06        -0.60119E+08         0.00000E+00
    0.00000E+00         0.00000E+00        -0.60023E+08
 
   -0.59917E+08        -0.14430E+06         0.00000E+00
   -0.14430E+06        -0.60160E+08         0.00000E+00
    0.00000E+00         0.00000E+00        -0.60037E+08
 
   -0.59896E+08        -0.14149E+06         0.00000E+00
   -0.14149E+06        -0.60197E+08         0.00000E+00
    0.00000E+00         0.00000E+00        -0.60044E+08
 
   -0.59873E+08        -0.12856E+06         0.00000E+00
   -0.12856E+06        -0.60228E+08         0.00000E+00
    0.00000E+00         0.00000E+00        -0.60049E+08
 
   -0.59853E+08        -0.10702E+06         0.00000E+00
   -0.10702E+06        -0.60256E+08         0.00000E+00
    0.00000E+00         0.00000E+00        -0.60052E+08
 
   -0.59840E+08        -0.77006E+05         0.00000E+00
   -0.77006E+05        -0.60281E+08         0.00000E+00
    0.00000E+00         0.00000E+00        -0.60058E+08
 
   -0.59838E+08        -0.37806E+05         0.00000E+00
   -0.37806E+05        -0.60302E+08         0.00000E+00
    0.00000E+00         0.00000E+00        -0.60067E+08
 
   -0.59856E+08         0.10798E+05         0.00000E+00
    0.10798E+05        -0.60317E+08         0.00000E+00
    0.00000E+00         0.00000E+00        -0.60083E+08
 
   -0.59905E+08         0.65908E+05         0.00000E+00
    0.65908E+05        -0.60319E+08         0.00000E+00
    0.00000E+00         0.00000E+00        -0.60107E+08
 
   -0.59992E+08         0.11815E+06         0.00000E+00
    0.11815E+06        -0.60303E+08         0.00000E+00
    0.00000E+00         0.00000E+00        -0.60139E+08
 
   -0.60117E+08         0.15020E+06         0.00000E+00
    0.15020E+06        -0.60262E+08         0.00000E+00
    0.00000E+00         0.00000E+00        -0.60172E+08
 
   -0.59772E+08        -0.94791E+04         0.00000E+00
   -0.94791E+04        -0.60003E+08         0.00000E+00
    0.00000E+00         0.00000E+00        -0.59909E+08
 
   -0.59883E+08        -0.56458E+05         0.00000E+00
   -0.56458E+05        -0.60021E+08         0.00000E+00
    0.00000E+00         0.00000E+00        -0.59957E+08
 
   -0.59947E+08        -0.11465E+06         0.00000E+00
   -0.11465E+06        -0.60063E+08         0.00000E+00
    0.00000E+00         0.00000E+00        -0.60004E+08
 
   -0.59962E+08        -0.15862E+06         0.00000E+00
   -0.15862E+06        -0.60117E+08         0.00000E+00
    0.00000E+00         0.00000E+00        -0.60035E+08
 
   -0.59946E+08        -0.18023E+06         0.00000E+00
   -0.18023E+06        -0.60168E+08         0.00000E+00
    0.00000E+00         0.00000E+00        -0.60051E+08
 
   -0.59917E+08        -0.18299E+06         0.00000E+00
   -0.18299E+06        -0.60210E+08         0.00000E+00
    0.00000E+00         0.00000E+00        -0.60057E+08
 
   -0.59885E+08        -0.17313E+06         0.00000E+00
   -0.17313E+06        -0.60242E+08         0.00000E+00
    0.00000E+00         0.00000E+00        -0.60057E+08
 
   -0.59854E+08        -0.15511E+06         0.00000E+00
   -0.15511E+06        -0.60267E+08         0.00000E+00
    0.00000E+00         0.00000E+00        -0.60054E+08
 
   -0.59826E+08        -0.13069E+06         0.00000E+00
   -0.13069E+06        -0.60287E+08         0.00000E+00
    0.00000E+00         0.00000E+00        -0.60051E+08
 
   -0.59805E+08        -0.99105E+05         0.00000E+00
   -0.99105E+05        -0.60307E+08         0.00000E+00
    0.00000E+00         0.00000E+00        -0.60050E+08
 
   -0.59792E+08        -0.57509E+05         0.00000E+00
   -0.57509E+05        -0.60327E+08         0.00000E+00
    0.00000E+00         0.00000E+00        -0.60054E+08
 
   -0.59798E+08        -0.20880E+04         0.00000E+00
   -0.20880E+04        -0.60345E+08         0.00000E+00
    0.00000E+00         0.00000E+00        -0.60065E+08
 
   -0.59839E+08         0.68658E+05         0.00000E+00
    0.68658E+05        -0.60354E+08         0.00000E+00
    0.00000E+00         0.00000E+00        -0.60087E+08
 
   -0.59932E+08         0.14735E+06         0.00000E+00
    0.14735E+06        -0.60340E+08         0.00000E+00
    0.00000E+00         0.00000E+00        -0.60122E+08
 
   -0.60089E+08         0.21093E+06         0.00000E+00
    0.21093E+06        -0.60291E+08         0.00000E+00
    0.00000E+00         0.00000E+00        -0.60163E+08
 
   -0.59813E+08        -0.19447E+05         0.00000E+00
   -0.19447E+05        -0.60007E+08         0.00000E+00
    0.00000E+00         0.00000E+00        -0.59935E+08
 
   -0.59954E+08        -0.99812E+05         0.00000E+00
   -0.99812E+05        -0.60045E+08         0.00000E+00
    0.00000E+00         0.00000E+00        -0.59998E+08
 
   -0.60005E+08        -0.17755E+06         0.00000E+00
   -0.17755E+06        -0.60114E+08         0.00000E+00
    0.00000E+00         0.00000E+00        -0.60047E+08
 
   -0.59991E+08        -0.21868E+06         0.00000E+00
   -0.21868E+06        -0.60184E+08         0.00000E+00
    0.00000E+00         0.00000E+00        -0.60071E+08
 
   -0.59950E+08        -0.22620E+06         0.00000E+00
   -0.22620E+06        -0.60236E+08         0.00000E+00
    0.00000E+00         0.00000E+00        -0.60076E+08
 
   -0.59906E+08        -0.21449E+06         0.00000E+00
   -0.21449E+06        -0.60268E+08         0.00000E+00
    0.00000E+00         0.00000E+00        -0.60071E+08
 
   -0.59866E+08        -0.19431E+06         0.00000E+00
   -0.19431E+06        -0.60286E+08         0.00000E+00
    0.00000E+00         0.00000E+00        -0.60060E+08
 
   -0.59831E+08        -0.17077E+06         0.00000E+00
   -0.17077E+06        -0.60296E+08         0.00000E+00
    0.00000E+00         0.00000E+00        -0.60048E+08
 
   -0.59799E+08        -0.14504E+06         0.00000E+00
   -0.14504E+06        -0.60303E+08         0.00000E+00
    0.00000E+00         0.00000E+00        -0.60036E+08
 
   -0.59770E+08        -0.11524E+06         0.00000E+00
   -0.11524E+06        -0.60312E+08         0.00000E+00
    0.00000E+00         0.00000E+00        -0.60026E+08
 
   -0.59745E+08        -0.76488E+05         0.00000E+00
   -0.76488E+05        -0.60325E+08         0.00000E+00
    0.00000E+00         0.00000E+00        -0.60020E+08
 
   -0.59732E+08        -0.20404E+05         0.00000E+00
   -0.20404E+05        -0.60344E+08         0.00000E+00
    0.00000E+00         0.00000E+00        -0.60022E+08
 
   -0.59751E+08         0.62793E+05         0.00000E+00
    0.62793E+05        -0.60361E+08         0.00000E+00
    0.00000E+00         0.00000E+00        -0.60037E+08
 
   -0.59836E+08         0.17468E+06         0.00000E+00
    0.17468E+06        -0.60357E+08         0.00000E+00
    0.00000E+00         0.00000E+00        -0.60070E+08
 
   -0.60022E+08         0.28976E+06         0.00000E+00
    0.28976E+06        -0.60302E+08         0.00000E+00
    0.00000E+00         0.00000E+00        -0.60117E+08
 
   -0.59896E+08        -0.45851E+05         0.00000E+00
   -0.45851E+05        -0.60020E+08         0.00000E+00
    0.00000E+00         0.00000E+00        -0.59972E+08
 
   -0.60057E+08        -0.18147E+06         0.00000E+00
   -0.18147E+06        -0.60098E+08         0.00000E+00
    0.00000E+00         0.00000E+00        -0.60047E+08
 
   -0.60060E+08        -0.26568E+06         0.00000E+00
   -0.26568E+06        -0.60204E+08         0.00000E+00
    0.00000E+00         0.00000E+00        -0.60085E+08
 
   -0.59998E+08        -0.27931E+06         0.00000E+00
   -0.27931E+06        -0.60277E+08         0.00000E+00
    0.00000E+00         0.00000E+00        -0.60088E+08
 
   -0.59934E+08        -0.25737E+06         0.00000E+00
   -0.25737E+06        -0.60308E+08         0.00000E+00
    0.00000E+00         0.00000E+00        -0.60073E+08
 
   -0.59882E+08        -0.22594E+06         0.00000E+00
   -0.22594E+06        -0.60313E+08         0.00000E+00
    0.00000E+00         0.00000E+00        -0.60051E+08
 
   -0.59840E+08        -0.19510E+06         0.00000E+00
   -0.19510E+06        -0.60304E+08         0.00000E+00
    0.00000E+00         0.00000E+00        -0.60027E+08
 
   -0.59806E+08        -0.16769E+06         0.00000E+00
   -0.16769E+06        -0.60290E+08         0.00000E+00
    0.00000E+00         0.00000E+00        -0.60004E+08
 
   -0.59773E+08        -0.14312E+06         0.00000E+00
   -0.14312E+06        -0.60276E+08         0.00000E+00
    0.00000E+00         0.00000E+00        -0.59982E+08
 
   -0.59740E+08        -0.11861E+06         0.00000E+00
   -0.11861E+06        -0.60267E+08         0.00000E+00
    0.00000E+00         0.00000E+00        -0.59961E+08
 
   -0.59703E+08        -0.88482E+05         0.00000E+00
   -0.88482E+05        -0.60266E+08         0.00000E+00
    0.00000E+00         0.00000E+00        -0.59944E+08
 
   -0.59666E+08        -0.41682E+05         0.00000E+00
   -0.41682E+05        -0.60278E+08         0.00000E+00
    0.00000E+00         0.00000E+00        -0.59931E+08
 
   -0.59644E+08         0.42830E+05         0.00000E+00
    0.42830E+05        -0.60303E+08         0.00000E+00
    0.00000E+00         0.00000E+00        -0.59930E+08
 
   -0.59687E+08         0.18902E+06         0.00000E+00
    0.18902E+06        -0.60318E+08         0.00000E+00
    0.00000E+00         0.00000E+00        -0.59950E+08
 
   -0.59881E+08         0.38618E+06         0.00000E+00
    0.38618E+06        -0.60269E+08         0.00000E+00
    0.00000E+00         0.00000E+00        -0.59997E+08
 
   -0.60067E+08        -0.11862E+06         0.00000E+00
   -0.11862E+06        -0.60055E+08         0.00000E+00
    0.00000E+00         0.00000E+00        -0.59993E+08
 
   -0.60181E+08        -0.32083E+06         0.00000E+00
   -0.32083E+06        -0.60205E+08         0.00000E+00
    0.00000E+00         0.00000E+00        -0.60057E+08
 
   -0.60074E+08        -0.35359E+06         0.00000E+00
   -0.35359E+06        -0.60315E+08         0.00000E+00
    0.00000E+00         0.00000E+00        -0.60050E+08
 
   -0.59965E+08        -0.30450E+06         0.00000E+00
   -0.30450E+06        -0.60332E+08         0.00000E+00
    0.00000E+00         0.00000E+00        -0.60011E+08
 
   -0.59893E+08        -0.24870E+06         0.00000E+00
   -0.24870E+06        -0.60305E+08         0.00000E+00
    0.00000E+00         0.00000E+00        -0.59967E+08
 
   -0.59845E+08        -0.20227E+06         0.00000E+00
   -0.20227E+06        -0.60263E+08         0.00000E+00
    0.00000E+00         0.00000E+00        -0.59926E+08
 
   -0.59810E+08        -0.16668E+06         0.00000E+00
   -0.16668E+06        -0.60218E+08         0.00000E+00
    0.00000E+00         0.00000E+00        -0.59888E+08
 
   -0.59781E+08        -0.13999E+06         0.00000E+00
   -0.13999E+06        -0.60176E+08         0.00000E+00
    0.00000E+00         0.00000E+00        -0.59855E+08
 
   -0.59752E+08        -0.11961E+06         0.00000E+00
   -0.11961E+06        -0.60138E+08         0.00000E+00
    0.00000E+00         0.00000E+00        -0.59823E+08
 
   -0.59718E+08        -0.10254E+06         0.00000E+00
   -0.10254E+06        -0.60107E+08         0.00000E+00
    0.00000E+00         0.00000E+00        -0.59793E+08
 
   -0.59674E+08        -0.84123E+05         0.00000E+00
   -0.84123E+05        -0.60085E+08         0.00000E+00
    0.00000E+00         0.00000E+00        -0.59762E+08
 
   -0.59614E+08        -0.54813E+05         0.00000E+00
   -0.54813E+05        -0.60079E+08         0.00000E+00
    0.00000E+00         0.00000E+00        -0.59732E+08
 
   -0.59535E+08         0.86538E+04         0.00000E+00
    0.86538E+04        -0.60095E+08         0.00000E+00
    0.00000E+00         0.00000E+00        -0.59704E+08
 
   -0.59477E+08         0.16926E+06         0.00000E+00
    0.16926E+06        -0.60141E+08         0.00000E+00
    0.00000E+00         0.00000E+00        -0.59691E+08
 
   -0.59605E+08         0.48576E+06         0.00000E+00
    0.48576E+06        -0.60128E+08         0.00000E+00
    0.00000E+00         0.00000E+00        -0.59718E+08
 
   -0.60402E+08        -0.30254E+06         0.00000E+00
   -0.30254E+06        -0.60145E+08         0.00000E+00
    0.00000E+00         0.00000E+00        -0.59851E+08
 
   -0.60234E+08        -0.45147E+06         0.00000E+00
   -0.45147E+06        -0.60284E+08         0.00000E+00
    0.00000E+00         0.00000E+00        -0.59805E+08
 
   -0.59999E+08        -0.33756E+06         0.00000E+00
   -0.33756E+06        -0.60211E+08         0.00000E+00
    0.00000E+00         0.00000E+00        -0.59695E+08
 
   -0.59896E+08        -0.24203E+06         0.00000E+00
   -0.24203E+06        -0.60094E+08         0.00000E+00
    0.00000E+00         0.00000E+00        -0.59607E+08
 
   -0.59840E+08        -0.17826E+06         0.00000E+00
   -0.17826E+06        -0.59985E+08         0.00000E+00
    0.00000E+00         0.00000E+00        -0.59539E+08
 
   -0.59807E+08        -0.13606E+06         0.00000E+00
   -0.13606E+06        -0.59893E+08         0.00000E+00
    0.00000E+00         0.00000E+00        -0.59485E+08
 
   -0.59783E+08        -0.10778E+06         0.00000E+00
   -0.10778E+06        -0.59816E+08         0.00000E+00
    0.00000E+00         0.00000E+00        -0.59440E+08
 
   -0.59761E+08        -0.88543E+05         0.00000E+00
   -0.88543E+05        -0.59751E+08         0.00000E+00
    0.00000E+00         0.00000E+00        -0.59402E+08
 
   -0.59737E+08        -0.75228E+05         0.00000E+00
   -0.75228E+05        -0.59695E+08         0.00000E+00
    0.00000E+00         0.00000E+00        -0.59367E+08
 
   -0.59705E+08        -0.65517E+05         0.00000E+00
   -0.65517E+05        -0.59647E+08         0.00000E+00
    0.00000E+00         0.00000E+00        -0.59332E+08
 
   -0.59658E+08        -0.56797E+05         0.00000E+00
   -0.56797E+05        -0.59606E+08         0.00000E+00
    0.00000E+00         0.00000E+00        -0.59294E+08
 
   -0.59584E+08        -0.43926E+05         0.00000E+00
   -0.43926E+05        -0.59574E+08         0.00000E+00
    0.00000E+00         0.00000E+00        -0.59249E+08
 
   -0.59460E+08        -0.12735E+05         0.00000E+00
   -0.12735E+05        -0.59562E+08         0.00000E+00
    0.00000E+00         0.00000E+00        -0.59195E+08
 
   -0.59235E+08         0.91018E+05         0.00000E+00
    0.91018E+05        -0.59598E+08         0.00000E+00
    0.00000E+00         0.00000E+00        -0.59124E+08
 
   -0.59086E+08         0.51956E+06         0.00000E+00
    0.51956E+06        -0.59707E+08         0.00000E+00
    0.00000E+00         0.00000E+00        -0.59084E+08
 
   -0.60853E+08        -0.42044E+06         0.00000E+00
   -0.42044E+06        -0.59769E+08         0.00000E+00
    0.00000E+00         0.00000E+00        -0.58684E+08
 
   -0.60074E+08        -0.24412E+06         0.00000E+00
   -0.24412E+06        -0.59320E+08         0.00000E+00
    0.00000E+00         0.00000E+00        -0.58400E+08
 
   -0.59906E+08        -0.13230E+06         0.00000E+00
   -0.13230E+06        -0.58999E+08         0.00000E+00
    0.00000E+00         0.00000E+00        -0.58267E+08
 
   -0.59837E+08        -0.84698E+05         0.00000E+00
   -0.84698E+05        -0.58790E+08         0.00000E+00
    0.00000E+00         0.00000E+00        -0.58185E+08
 
   -0.59804E+08        -0.58464E+05         0.00000E+00
   -0.58464E+05        -0.58645E+08         0.00000E+00
    0.00000E+00         0.00000E+00        -0.58130E+08
 
   -0.59783E+08        -0.42919E+05         0.00000E+00
   -0.42919E+05        -0.58540E+08         0.00000E+00
    0.00000E+00         0.00000E+00        -0.58090E+08
 
   -0.59767E+08        -0.33072E+05         0.00000E+00
   -0.33072E+05        -0.58460E+08         0.00000E+00
    0.00000E+00         0.00000E+00        -0.58059E+08
 
   -0.59750E+08        -0.26561E+05         0.00000E+00
   -0.26561E+05        -0.58397E+08         0.00000E+00
    0.00000E+00         0.00000E+00        -0.58033E+08
 
   -0.59730E+08        -0.22078E+05         0.00000E+00
   -0.22078E+05        -0.58344E+08         0.00000E+00
    0.00000E+00         0.00000E+00        -0.58009E+08
 
   -0.59699E+08        -0.18762E+05         0.00000E+00
   -0.18762E+05        -0.58300E+08         0.00000E+00
    0.00000E+00         0.00000E+00        -0.57985E+08
 
   -0.59652E+08        -0.15745E+05         0.00000E+00
   -0.15745E+05        -0.58261E+08         0.00000E+00
    0.00000E+00         0.00000E+00        -0.57958E+08
 
   -0.59572E+08        -0.11574E+05         0.00000E+00
   -0.11574E+05        -0.58229E+08         0.00000E+00
    0.00000E+00         0.00000E+00        -0.57923E+08
 
   -0.59424E+08        -0.14405E+04         0.00000E+00
   -0.14405E+04        -0.58210E+08         0.00000E+00
    0.00000E+00         0.00000E+00        -0.57874E+08
 
   -0.59120E+08         0.26333E+05         0.00000E+00
    0.26333E+05        -0.58232E+08         0.00000E+00
    0.00000E+00         0.00000E+00        -0.57796E+08
 
   -0.58212E+08         0.25863E+06         0.00000E+00
    0.25863E+06        -0.58446E+08         0.00000E+00
    0.00000E+00         0.00000E+00        -0.57630E+08
 
SCALARS stresss double 
LOOKUP_TABLE default
  -59938237.7841674     
  -59939075.5266754     
  -59940403.4595200     
  -59942096.3161588     
  -59944052.8145922     
  -59946184.3951275     
  -59948411.5320717     
  -59950663.0855003     
  -59952876.8193453     
  -59955000.2870614     
  -59956991.5871432     
  -59958819.2056011     
  -59960458.8741805     
  -59961881.4510915     
  -59963014.3420376     
  -59937750.4769055     
  -59938657.7136149     
  -59940067.2740274     
  -59941844.2379176     
  -59943882.6558299     
  -59946091.2617100     
  -59948388.6271642     
  -59950702.0425701     
  -59952967.8239904     
  -59955132.0978984     
  -59957151.5253820     
  -59958993.2018782     
  -59960631.7586906     
  -59962037.9620615     
  -59963142.1531636     
  -59936773.3566913     
  -59937821.7575616     
  -59939396.7303688     
  -59941343.8470065     
  -59943547.8142632     
  -59945912.0078931     
  -59948351.2653841     
  -59950789.8071787     
  -59953161.1118886     
  -59955408.4924860     
  -59957485.7516672     
  -59959357.1892309     
  -59960995.1809005     
  -59962370.1975462     
  -59963418.2461849     
  -59935301.9429995     
  -59936567.4574660     
  -59938395.8547612     
  -59940602.9548493     
  -59943059.4326134     
  -59945660.7668377     
  -59948316.3757669     
  -59950946.0526949     
  -59953479.1703467     
  -59955854.9273492     
  -59958022.8842342     
  -59959943.1142507     
  -59961584.4736052     
  -59962916.7071174     
  -59963883.7928545     
  -59933330.8493446     
  -59934895.6616891     
  -59937071.6148376     
  -59939633.9757760     
  -59942434.6955958     
  -59945358.9964077     
  -59948309.4206143     
  -59951200.2020020     
  -59953955.5324292     
  -59956509.3362319     
  -59958805.6153473     
  -59960798.7552398     
  -59962452.6674319     
  -59963735.5883087     
  -59964601.0965889     
  -59930855.4019971     
  -59932809.6542644     
  -59935435.0310426     
  -59938454.7537307     
  -59941697.3772653     
  -59945035.7624797     
  -59948364.4403651     
  -59951591.2721132     
  -59954634.4745390     
  -59957421.7502120     
  -59959890.3391295     
  -59961987.4548547     
  -59963670.4292029     
  -59964904.7192646     
  -59965654.1614903     
  -59927873.8198228     
  -59930317.0084834     
  -59933502.6516778     
  -59937089.6479579     
  -59940878.5434408     
  -59944728.0750214     
  -59948524.0528802     
  -59952167.5834911     
  -59955570.5044478     
  -59958653.6576657     
  -59961346.5007396     
  -59963587.5949079     
  -59965325.8065030     
  -59966521.9020154     
  -59967149.2996180     
  -59924389.9577675     
  -59927431.9016732     
  -59931298.3812803     
  -59935570.8642825     
  -59940017.3901379     
  -59944481.2470478     
  -59948839.3604652     
  -59952986.2653925     
  -59956827.5459147     
  -59960276.9847553     
  -59963255.5251679     
  -59965691.6555921     
  -59967523.6139002     
  -59968704.7556757     
  -59969215.6291399     
  -59920416.5961252     
  -59924177.8705208     
  -59928855.6453624     
  -59933940.0186047     
  -59939162.2022477     
  -59944349.2488346     
  -59949369.7148376     
  -59954112.4764558     
  -59958477.7025402     
  -59962372.5413014     
  -59965709.1364285     
  -59968404.6444026     
  -59970384.2333135     
  -59971590.1344410     
  -59972005.2545960     
  -59915979.2220125     
  -59920590.9641622     
  -59926219.8682213     
  -59932249.9257098     
  -59938371.4299518     
  -59944395.0426984     
  -59950182.2961832     
  -59955618.2533490     
  -59960599.4612317     
  -59965027.7372569     
  -59968806.8214955     
  -59971841.6094426     
  -59974041.5207537     
  -59975332.7610881     
  -59975692.8385633     
  -59911120.1948947     
  -59916723.2231983     
  -59923451.2389953     
  -59930566.6262201     
  -59937714.9110193     
  -59944690.9141105     
  -59951351.4828500     
  -59957580.9031273     
  -59963275.1760715     
  -59968333.3308523     
  -59972652.1251758     
  -59976123.8628728     
  -59978639.4076365     
  -59980102.6551214     
  -59980474.1630800     
  -59905903.1121922     
  -59912646.3807201     
  -59920627.7534170     
  -59928971.7091020     
  -59937275.3269245     
  -59945318.8729639     
  -59952958.0306407     
  -59960080.8717717     
  -59966587.6584545     
  -59972378.9200668     
  -59977347.3787428     
  -59981373.4268737     
  -59984326.6487514     
  -59986080.7857486     
  -59986563.1282719     
  -59900417.0947866     
  -59908455.6563371     
  -59917848.5615589     
  -59927565.0758039     
  -59937150.0874253     
  -59946371.2985370     
  -59955088.1548389     
  -59963199.0580050     
  -59970615.6914682     
  -59977246.8334205     
  -59982986.3620585     
  -59987705.0685765     
  -59991248.9896094     
  -59993452.1803466     
  -59994186.4305250     
  -59894780.6034810     
  -59904273.5174524     
  -59915237.7552663     
  -59926468.4558324     
  -59937454.0177633     
  -59947952.1613287     
  -59957832.7251601     
  -59967013.6037958     
  -59975428.2877603     
  -59983004.0127549     
  -59989644.2702234     
  -59995215.1008813     
  -59999537.7875507     
  -60002395.4506361     
  -60003574.8845101     
  -59889144.2977001     
  -59900253.3555421     
  -59912948.9453193     
  -59925830.2713274     
  -59938323.5108988     
  -59950179.3951990     
  -59961286.9529608     
  -59971596.2841543     
  -59981077.5212616     
  -59989691.4076631     
  -59997364.1939147     
  -60003965.8768984     
  -60009293.7993485     
  -60013067.3329602     
  -60014949.9752345     
  -59883692.4040015     
  -59896583.2482525     
  -59911171.3982634     
  -59925832.9355109     
  -59939923.2493592     
  -59953189.3298290     
  -59965551.1691829     
  -59977008.7323017     
  -59987589.7802808     
  -59997310.3160064     
  -60006139.1181477     
  -60013964.5722233     
  -60020564.4012117     
  -60025580.3249660     
  -60028503.7015436     
  -59878642.1678824     
  -59893490.4987469     
  -59910139.2823960     
  -59926704.4686928     
  -59942457.2418059     
  -59957144.5145978     
  -59970733.5231389     
  -59983298.8383247     
  -59994955.2970106     
  -60005805.0044636     
  -60015888.1866844     
  -60025134.3909645     
  -60033311.8557983     
  -60039970.7351375     
  -60044369.0050286     
  -59874241.3972600     
  -59891248.7398813     
  -59910146.9788244     
  -59928737.5767951     
  -59946186.7619794     
  -59962246.6693151     
  -59976955.5434483     
  -59990497.6471417     
  -60003115.7591914     
  -60015040.8208997     
  -60026425.6571014     
  -60037275.6776680     
  -60047369.2253168     
  -60056153.2174293     
  -60062576.8446544     
  -59870765.2146069     
  -59890191.5915589     
  -59911575.8923942     
  -59932321.2102274     
  -59951458.6559165     
  -59968756.5315421     
  -59984361.1192496     
  -59998616.6795748     
  -60011949.5685896     
  -60024776.8358349     
  -60037420.5630891     
  -60050013.4335932     
  -60062378.8177352     
  -60073855.6303322     
  -60082993.7350806     
  -59868515.5996762     
  -59890741.1832924     
  -59914942.4240470     
  -59937992.0390808     
  -59958747.6728287     
  -59977021.0130137     
  -59993127.6147125     
  -60007644.1040458     
  -60021253.4860246     
  -60034631.6724264     
  -60048344.5125993     
  -60062726.1381162     
  -60077704.9397278     
  -60092523.6882856     
  -60105228.9957880     
  -59867832.5548493     
  -59893468.2131535     
  -59920983.4682022     
  -59946515.1319415     
  -59968713.5857700     
  -59987502.5881957     
  -60003472.1200955     
  -60017533.8055016     
  -60030716.8407099     
  -60044039.9427298     
  -60058403.8529413     
  -60074447.8620566     
  -60092306.7083085     
  -60111175.7818494     
  -60128490.8924508     
  -59869136.8167683     
  -59899215.9133294     
  -59930804.3334882     
  -59958999.4585815     
  -59982260.7559786     
  -60000789.1793910     
  -60015630.3999683     
  -60028169.5725850     
  -60039876.6984634     
  -60052192.1183927     
  -60066448.7637893     
  -60083729.5360044     
  -60104544.3714731     
  -60128168.8246132     
  -60151347.7530308     
  -59873047.8874083     
  -59909346.9104125     
  -59946116.2595706     
  -59977026.8109440     
  -60000544.4216863     
  -60017517.4173273     
  -60029746.7380119     
  -60039255.4092454     
  -60048019.0276976     
  -60057933.7504535     
  -60070838.9963253     
  -60088429.8399796     
  -60111866.5411441     
  -60140793.1154628     
  -60171296.3566657     
  -59880670.2123602     
  -59926205.2411213     
  -59969546.1724620     
  -60002665.5007017     
  -60024740.6215480     
  -60038025.3689780     
  -60045515.1078225     
  -60050000.5543263     
  -60053920.1555732     
  -60059542.3217278     
  -60069198.8442242     
  -60085364.1597414     
  -60110265.9800156     
  -60144520.3704727     
  -60183912.9871825     
  -59894241.3127387     
  -59953854.6004102     
  -60004758.6470830     
  -60037880.7270402     
  -60055048.9346137     
  -60061263.3355303     
  -60061167.8312334     
  -60058245.1640966     
  -60055113.1091057     
  -60054105.6321181     
  -60057839.0111934     
  -60069603.6276033     
  -60093255.5538754     
  -60131513.6003096     
  -60181066.1857077     
  -59918424.6724608     
  -59998743.5431967     
  -60055125.8535007     
  -60081776.4780479     
  -60087518.3578775     
  -60081781.7861950     
  -60070791.5475900     
  -60058050.5992118     
  -60045730.0484174     
  -60035638.5411756     
  -60030070.9569744     
  -60032825.7610345     
  -60049717.2010531     
  -60087554.0425539     
  -60146947.2899064     
  -59962492.8909946     
  -60067355.1598985     
  -60116269.3198204     
  -60121180.5080049     
  -60105110.5907464     
  -60081952.6182804     
  -60057184.1179081     
  -60032995.4494845     
  -60010163.5532977     
  -59989166.2658343     
  -59971052.4218465     
  -59958548.5453750     
  -59959113.9660620     
  -59985268.6072210     
  -60049057.8619912     
  -60038397.2615279     
  -60147801.4227727     
  -60146549.9139077     
  -60102629.4907959     
  -60055209.5680827     
  -60011312.4094690     
  -59972247.4145137     
  -59937090.1681233     
  -59904390.2378455     
  -59872657.0102880     
  -59840664.4540054     
  -59808275.1376153     
  -59777924.1639137     
  -59769859.3777132     
  -59816696.4992415     
  -60132544.4381314     
  -60107629.8611577     
  -59968276.3056491     
  -59865800.2556520     
  -59787998.7377255     
  -59727980.2677709     
  -59679477.5080275     
  -59637917.8922063     
  -59599639.6734254     
  -59561306.6041692     
  -59519346.2267650     
  -59469249.5219500     
  -59405805.7342897     
  -59318861.4957195     
  -59292539.7313677     
  -59768703.3361980     
  -59264648.1145684     
  -59057698.0304633     
  -58937462.6951800     
  -58859737.1697854     
  -58804598.7525628     
  -58762240.9412604     
  -58726877.9304652     
  -58694459.5146030     
  -58661402.6144149     
  -58623537.4190618     
  -58574632.6831189     
  -58502815.8227087     
  -58382671.6014916     
  -58095976.8550633     
SCALARS 2waySource double 
LOOKUP_TABLE default
 -6.972713733693338E-003
 -6.907964533724067E-003
 -6.781099485499428E-003
 -6.607369187680716E-003
 -6.398799909823724E-003
 -6.165826775515543E-003
 -5.917850428384606E-003
 -5.663362047162437E-003
 -5.409904063339020E-003
 -5.163976696347956E-003
 -4.930945717485521E-003
 -4.715014941656883E-003
 -4.519417859390302E-003
 -4.347273652784799E-003
 -4.204410128455732E-003
 -7.032136761421870E-003
 -6.960264824697254E-003
 -6.824128758923845E-003
 -6.640511698734705E-003
 -6.422143492400767E-003
 -6.179844636483070E-003
 -5.923272536522899E-003
 -5.661118652684666E-003
 -5.401098051569837E-003
 -5.149868126205652E-003
 -4.912940579016164E-003
 -4.694650517866095E-003
 -4.498329314998073E-003
 -4.327101258224622E-003
 -4.186533518680344E-003
 -7.148481916687600E-003
 -7.062136028022617E-003
 -6.907456104079363E-003
 -6.704173484859403E-003
 -6.466374908496142E-003
 -6.205621279226466E-003
 -5.932058864157298E-003
 -5.654758348085893E-003
 -5.381763891409990E-003
 -5.120039276674575E-003
 -4.875391449188377E-003
 -4.652435784929312E-003
 -4.454735167866766E-003
 -4.285486234659026E-003
 -4.149847720865222E-003
 -7.322351295394278E-003
 -7.213675478865160E-003
 -7.030639546005984E-003
 -6.797413279498543E-003
 -6.530107085828115E-003
 -6.241370231466538E-003
 -5.942056710253526E-003
 -5.641781291837723E-003
 -5.349060996611185E-003
 -5.071305214253211E-003
 -4.814759280243643E-003
 -4.584466811970940E-003
 -4.384361916779473E-003
 -4.217797465548843E-003
 -4.089410773364961E-003
 -7.554487427234345E-003
 -7.414894519705343E-003
 -7.192922860738866E-003
 -6.918773762516687E-003
 -6.611263811518674E-003
 -6.284465166357330E-003
 -5.950136291863975E-003
 -5.618577618157469E-003
 -5.298901604412262E-003
 -4.999085415655260E-003
 -4.725944923147952E-003
 -4.485097276451956E-003
 -4.280996392628165E-003
 -4.117261432597783E-003
 -3.997951201642857E-003
 -7.845582088867434E-003
 -7.665550953100351E-003
 -7.393098381048860E-003
 -7.066176314544587E-003
 -6.707005791765924E-003
 -6.331395447527741E-003
 -5.952173010474391E-003
 -5.580432575836246E-003
 -5.225973590971341E-003
 -4.897437495718792E-003
 -4.602325371757646E-003
 -4.346967392792615E-003
 -4.136496704371490E-003
 -3.974944997775752E-003
 -3.865815831831450E-003
 -8.196019770765443E-003
 -7.964926391020163E-003
 -7.629326611575973E-003
 -7.236784567330689E-003
 -6.813637219990408E-003
 -6.377713596400670E-003
 -5.943032648665915E-003
 -5.521544849669435E-003
 -5.123785349778085E-003
 -4.759119682542730E-003
 -4.435822320032345E-003
 -4.161064728260699E-003
 -3.940830027379097E-003
 -3.779755296473543E-003
 -3.680921426069960E-003
 -8.605555493554920E-003
 -8.311549630602150E-003
 -7.898914534050399E-003
 -7.426839000572959E-003
 -6.926495568906762E-003
 -6.417978338700605E-003
 -5.916564760767470E-003
 -5.435065585962491E-003
 -4.984742979105903E-003
 -4.575695176851404E-003
 -4.217018864950436E-003
 -3.916834867173057E-003
 -3.682156425827842E-003
 -3.518476041910796E-003
 -3.428728426922956E-003
 -9.072929211684910E-003
 -8.702869255377377E-003
 -8.198055646815769E-003
 -7.631465091260051E-003
 -7.039826995897686E-003
 -6.445696489415077E-003
 -5.865609602579133E-003
 -5.313166680544632E-003
 -4.800272348281264E-003
 -4.337695295177760E-003
 -3.935345356956312E-003
 -3.602366255710375E-003
 -3.346985118151450E-003
 -3.175867134692280E-003
 -3.092262556797708E-003
 -9.595423516608534E-003
 -9.134881832358700E-003
 -8.521536052565143E-003
 -7.844457044598546E-003
 -7.146648178612176E-003
 -6.453265147708331E-003
 -5.782022820100079E-003
 -5.147147140886348E-003
 -4.561000713633313E-003
 -4.034862450241324E-003
 -3.579361563293158E-003
 -3.204681469838361E-003
 -2.920438799323135E-003
 -2.734864368903397E-003
 -2.652219934722500E-003
 -1.016837824828192E-002
 -9.601726331789781E-003
 -8.862411746095096E-003
 -8.058037029041967E-003
 -7.238591548651061E-003
 -6.431911540756496E-003
 -5.656719051613000E-003
 -4.927585355923530E-003
 -4.257014280057946E-003
 -3.656498682089192E-003
 -3.137169816204011E-003
 -2.710177150651662E-003
 -2.386673554267533E-003
 -2.176929099490973E-003
 -2.087204720305601E-003
 -1.078468533251289E-002
 -1.009526035335328E-002
 -9.211661527000523E-003
 -8.262584514467285E-003
 -7.305723097923851E-003
 -6.371619944662410E-003
 -5.479729571968772E-003
 -4.644542339508147E-003
 -3.878209310312911E-003
 -3.191950817854658E-003
 -2.597003144396114E-003
 -2.105267663076588E-003
 -1.729517468008339E-003
 -1.482615104069853E-003
 -1.374166328997225E-003
 -1.143429975291588E-002
 -1.060463828975990E-002
 -9.557815493872400E-003
 -8.446319063904488E-003
 -7.336307577910714E-003
 -6.261021360952067E-003
 -5.240258817216231E-003
 -4.287815868007272E-003
 -3.414755043492260E-003
 -2.631269777119968E-003
 -1.948044205252933E-003
 -1.377304101646642E-003
 -9.334114754930832E-004
 -6.324429893199738E-004
 -4.891276054087868E-004
 -1.210381738267158E-002
 -1.111591322395414E-002
 -9.886546877426270E-003
 -8.594898237396040E-003
 -7.316471008762641E-003
 -6.087199252538370E-003
 -4.926708624337930E-003
 -3.847237540229638E-003
 -2.857687110046352E-003
 -1.966089748740220E-003
 -1.181546111693585E-003
 -5.158618641669860E-004
  1.523705651459553E-005
  3.917966535512488E-004
  5.916718224973000E-004
 -1.277618534090779E-002
 -1.161167816830083E-002
 -1.018018789759180E-002
 -8.690852718260981E-003
 -7.229669117718072E-003
 -5.835330276686679E-003
 -4.526616251788496E-003
 -3.312994600731941E-003
 -2.199651424676998E-003
 -1.190784201290322E-003
 -2.923463649519843E-004
  4.854815858338062E-004
  1.126141641410899E-003
  1.605148507408482E-003
  1.890048152539441E-003
 -1.343062082691755E-002
 -1.207073865527194E-002
 -1.041707569560346E-002
 -8.712711386805192E-003
 -7.055804626925153E-003
 -5.488029583295953E-003
 -4.026423569533643E-003
 -2.675948547222834E-003
 -1.435823454828705E-003
 -3.039721304464464E-004
  7.191079840718198E-004
  1.626719330490992E-003
  2.402469671284987E-003
  3.016785519201186E-003
  3.423330721268440E-003
 -1.404281047444834E-002
 -1.246774952585977E-002
 -1.057052959145686E-002
 -8.633550970075166E-003
 -6.769736868033629E-003
 -5.024206461136793E-003
 -3.410966914904512E-003
 -1.927921071061660E-003
 -5.650424059886726E-004
  6.895267404540227E-004
  1.844069369877859E-003
  2.898127091564471E-003
  3.837156522292803E-003
  4.626183721648542E-003
  5.200679852160737E-003
 -1.458542607861074E-002
 -1.277261913087162E-002
 -1.060706546951913E-002
 -8.418510117459258E-003
 -6.338788444480429E-003
 -4.417171656424263E-003
 -2.662572279427564E-003
 -1.061945030365834E-003
  4.087627517879716E-004
  1.776148542414175E-003
  3.061928137281570E-003
  4.275831033732143E-003
  5.407830446691419E-003
  6.417735601654821E-003
  7.217787944604512E-003
 -1.502889008902477E-002
 -1.294921517803254E-002
 -1.048309498031563E-002
 -8.020501828424287E-003
 -5.718692828558299E-003
 -3.631725805896327E-003
 -1.759720175465611E-003
 -7.258235388862837E-005
  1.474690209395442E-003
  2.930245661666848E-003
  4.335502776126982E-003
  5.715836132010068E-003
  7.069800749813461E-003
  8.353112442553799E-003
  9.449202057950763E-003
 -1.534208987415914E-002
 -1.295235811417879E-002
 -1.013871504101972E-002
 -7.372926471774602E-003
 -4.847345549691531E-003
 -2.620161107091653E-003
 -6.755655723799372E-004
  1.043294727491769E-003
  2.612155529306172E-003
  4.109612640015697E-003
  5.604782416371756E-003
  7.145926866705674E-003
  8.746231999441171E-003
  1.036020109228733E-002
  1.183692100520839E-002
 -1.549223704438396E-002
 -1.272097560012541E-002
 -9.486096721754038E-003
 -6.377755698871404E-003
 -3.636089713900824E-003
 -1.317972291245152E-003
  6.224567409388688E-004
  2.284110712530271E-003
  3.786499427054019E-003
  5.249238916789439E-003
  6.778457589985813E-003
  8.454453201496293E-003
  1.031395331085334E-002
  1.231641965422008E-002
  1.427263650406824E-002
 -1.544200448534591E-002
 -1.216305555154575E-002
 -8.388372153742947E-003
 -4.887628906204635E-003
 -1.960244723560285E-003
  3.572464309909592E-004
  2.168233450180702E-003
  3.636580516123692E-003
  4.940821343430779E-003
  6.251813989742632E-003
  7.721825478969931E-003
  9.474050664292154E-003
  1.158185463649422E-002
  1.402198859631649E-002
  1.656807932732987E-002
 -1.513973757970150E-002
 -1.112382555697597E-002
 -6.623673824009899E-003
 -2.684357768441729E-003
  3.424966197399250E-004
  2.492904503408284E-003
  3.977949181124382E-003
  5.056495930483982E-003
  5.978572756902082E-003
  6.970852761264057E-003
  8.237298756453036E-003
  9.955668186963557E-003
  1.225532628083463E-002
  1.515370792313531E-002
  1.840127891843593E-002
 -1.449359275666211E-002
 -9.321905419874850E-003
 -3.833802560215162E-003
  5.272237847075250E-004
  3.436398998492065E-003
  5.125090715087162E-003
  5.991938736314449E-003
  6.417986891379877E-003
  6.721508647921040E-003
  7.173777830509822E-003
  8.025842441022207E-003
  9.520728911915081E-003
  1.187123407362851E-002
  1.517845158654905E-002
  1.921111511189017E-002
 -1.330882225858623E-002
 -6.236775079521549E-003
  5.086487797894402E-004
  5.032723414351782E-003
  7.328794674244261E-003
  8.065250548153840E-003
  7.917506425951057E-003
  7.380444815239881E-003
  6.797767831966815E-003
  6.443996183624506E-003
  6.593364323418030E-003
  7.555286399739487E-003
  9.665553995492550E-003
  1.317771604152769E-002
  1.797744964602368E-002
 -1.115462822048922E-002
 -9.753729201585872E-004
  6.921956112452330E-003
  1.067328649105010E-002
  1.136363015787680E-002
  1.043312417381692E-002
  8.825820650651031E-003
  7.031887525853375E-003
  5.322499021145954E-003
  3.895640975156010E-003
  2.983139672657857E-003
  2.944912780201027E-003
  4.264905021819530E-003
  7.472717804201115E-003
  1.273888550538715E-002
 -7.092721735416704E-003
  7.475933414945755E-003
  1.476348216919613E-002
  1.532593780037728E-002
  1.282510028467538E-002
  9.492956757085539E-003
  6.099566760687769E-003
  2.903129706181134E-003
 -3.846194652048921E-005
 -2.705794845994823E-003
 -5.014825285459963E-003
 -6.698652299001653E-003
 -7.065329982499403E-003
 -5.268593789023297E-003
 -4.741342930335095E-004
  1.608231568870568E-004
  1.759318568269438E-002
  1.736714079219969E-002
  1.045217910323864E-002
  3.594147383521543E-003
 -2.378842027189016E-003
 -7.451932216130097E-003
 -1.185803979515056E-002
 -1.584703941537934E-002
 -1.964287384468765E-002
 -2.341794840657649E-002
 -2.721154990786991E-002
 -3.071436126574001E-002
 -3.207154037819215E-002
 -3.018965895559620E-002
  9.373130039866014E-003
  7.947754535646945E-003
 -1.409990139222368E-002
 -2.864665226253062E-002
 -3.888424800824921E-002
 -4.636733226401699E-002
 -5.218428393923602E-002
 -5.702213792637822E-002
 -6.137338310370611E-002
 -6.564762689434595E-002
 -7.025348003226181E-002
 -7.566651563749591E-002
 -8.241568810094108E-002
 -9.086827855227976E-002
 -9.450712453728913E-002
 -6.049484093458384E-002
 -0.134995655493273     
 -0.160327873209043     
 -0.173484681261196     
 -0.181514045961299     
 -0.187012456080516     
 -0.191134649349280     
 -0.194510525508835     
 -0.197552552054207     
 -0.200602772854472     
 -0.204035738602409     
 -0.208386907107413     
 -0.214591353250957     
 -0.224696001776775     
 -0.242240419421387     
SCALARS elementIsPlast double 
LOOKUP_TABLE default
  0.000000000000000E+000
  0.000000000000000E+000
  0.000000000000000E+000
  0.000000000000000E+000
  0.000000000000000E+000
  0.000000000000000E+000
  0.000000000000000E+000
  0.000000000000000E+000
  0.000000000000000E+000
  0.000000000000000E+000
  0.000000000000000E+000
  0.000000000000000E+000
  0.000000000000000E+000
  0.000000000000000E+000
  0.000000000000000E+000
  0.000000000000000E+000
  0.000000000000000E+000
  0.000000000000000E+000
  0.000000000000000E+000
  0.000000000000000E+000
  0.000000000000000E+000
  0.000000000000000E+000
  0.000000000000000E+000
  0.000000000000000E+000
  0.000000000000000E+000
  0.000000000000000E+000
  0.000000000000000E+000
  0.000000000000000E+000
  0.000000000000000E+000
  0.000000000000000E+000
  0.000000000000000E+000
  0.000000000000000E+000
  0.000000000000000E+000
  0.000000000000000E+000
  0.000000000000000E+000
  0.000000000000000E+000
  0.000000000000000E+000
  0.000000000000000E+000
  0.000000000000000E+000
  0.000000000000000E+000
  0.000000000000000E+000
  0.000000000000000E+000
  0.000000000000000E+000
  0.000000000000000E+000
  0.000000000000000E+000
  0.000000000000000E+000
  0.000000000000000E+000
  0.000000000000000E+000
  0.000000000000000E+000
  0.000000000000000E+000
  0.000000000000000E+000
  0.000000000000000E+000
  0.000000000000000E+000
  0.000000000000000E+000
  0.000000000000000E+000
  0.000000000000000E+000
  0.000000000000000E+000
  0.000000000000000E+000
  0.000000000000000E+000
  0.000000000000000E+000
  0.000000000000000E+000
  0.000000000000000E+000
  0.000000000000000E+000
  0.000000000000000E+000
  0.000000000000000E+000
  0.000000000000000E+000
  0.000000000000000E+000
  0.000000000000000E+000
  0.000000000000000E+000
  0.000000000000000E+000
  0.000000000000000E+000
  0.000000000000000E+000
  0.000000000000000E+000
  0.000000000000000E+000
  0.000000000000000E+000
  0.000000000000000E+000
  0.000000000000000E+000
  0.000000000000000E+000
  0.000000000000000E+000
  0.000000000000000E+000
  0.000000000000000E+000
  0.000000000000000E+000
  0.000000000000000E+000
  0.000000000000000E+000
  0.000000000000000E+000
  0.000000000000000E+000
  0.000000000000000E+000
  0.000000000000000E+000
  0.000000000000000E+000
  0.000000000000000E+000
  0.000000000000000E+000
  0.000000000000000E+000
  0.000000000000000E+000
  0.000000000000000E+000
  0.000000000000000E+000
  0.000000000000000E+000
  0.000000000000000E+000
  0.000000000000000E+000
  0.000000000000000E+000
  0.000000000000000E+000
  0.000000000000000E+000
  0.000000000000000E+000
  0.000000000000000E+000
  0.000000000000000E+000
  0.000000000000000E+000
  0.000000000000000E+000
  0.000000000000000E+000
  0.000000000000000E+000
  0.000000000000000E+000
  0.000000000000000E+000
  0.000000000000000E+000
  0.000000000000000E+000
  0.000000000000000E+000
  0.000000000000000E+000
  0.000000000000000E+000
  0.000000000000000E+000
  0.000000000000000E+000
  0.000000000000000E+000
  0.000000000000000E+000
  0.000000000000000E+000
  0.000000000000000E+000
  0.000000000000000E+000
  0.000000000000000E+000
  0.000000000000000E+000
  0.000000000000000E+000
  0.000000000000000E+000
  0.000000000000000E+000
  0.000000000000000E+000
  0.000000000000000E+000
  0.000000000000000E+000
  0.000000000000000E+000
  0.000000000000000E+000
  0.000000000000000E+000
  0.000000000000000E+000
  0.000000000000000E+000
  0.000000000000000E+000
  0.000000000000000E+000
  0.000000000000000E+000
  0.000000000000000E+000
  0.000000000000000E+000
  0.000000000000000E+000
  0.000000000000000E+000
  0.000000000000000E+000
  0.000000000000000E+000
  0.000000000000000E+000
  0.000000000000000E+000
  0.000000000000000E+000
  0.000000000000000E+000
  0.000000000000000E+000
  0.000000000000000E+000
  0.000000000000000E+000
  0.000000000000000E+000
  0.000000000000000E+000
  0.000000000000000E+000
  0.000000000000000E+000
  0.000000000000000E+000
  0.000000000000000E+000
  0.000000000000000E+000
  0.000000000000000E+000
  0.000000000000000E+000
  0.000000000000000E+000
  0.000000000000000E+000
  0.000000000000000E+000
  0.000000000000000E+000
  0.000000000000000E+000
  0.000000000000000E+000
  0.000000000000000E+000
  0.000000000000000E+000
  0.000000000000000E+000
  0.000000000000000E+000
  0.000000000000000E+000
  0.000000000000000E+000
  0.000000000000000E+000
  0.000000000000000E+000
  0.000000000000000E+000
  0.000000000000000E+000
  0.000000000000000E+000
  0.000000000000000E+000
  0.000000000000000E+000
  0.000000000000000E+000
  0.000000000000000E+000
  0.000000000000000E+000
  0.000000000000000E+000
  0.000000000000000E+000
  0.000000000000000E+000
  0.000000000000000E+000
  0.000000000000000E+000
  0.000000000000000E+000
  0.000000000000000E+000
  0.000000000000000E+000
  0.000000000000000E+000
  0.000000000000000E+000
  0.000000000000000E+000
  0.000000000000000E+000
  0.000000000000000E+000
  0.000000000000000E+000
  0.000000000000000E+000
  0.000000000000000E+000
  0.000000000000000E+000
  0.000000000000000E+000
  0.000000000000000E+000
  0.000000000000000E+000
  0.000000000000000E+000
  0.000000000000000E+000
  0.000000000000000E+000
  0.000000000000000E+000
  0.000000000000000E+000
  0.000000000000000E+000
  0.000000000000000E+000
  0.000000000000000E+000
  0.000000000000000E+000
  0.000000000000000E+000
  0.000000000000000E+000
  0.000000000000000E+000
  0.000000000000000E+000
  0.000000000000000E+000
  0.000000000000000E+000
  0.000000000000000E+000
  0.000000000000000E+000
  0.000000000000000E+000
  0.000000000000000E+000
  0.000000000000000E+000
  0.000000000000000E+000
  0.000000000000000E+000
  0.000000000000000E+000
  0.000000000000000E+000
  0.000000000000000E+000
  0.000000000000000E+000
  0.000000000000000E+000
  0.000000000000000E+000
  0.000000000000000E+000
  0.000000000000000E+000
  0.000000000000000E+000
  0.000000000000000E+000
  0.000000000000000E+000
  0.000000000000000E+000
  0.000000000000000E+000
  0.000000000000000E+000
  0.000000000000000E+000
  0.000000000000000E+000
  0.000000000000000E+000
  0.000000000000000E+000
  0.000000000000000E+000
  0.000000000000000E+000
  0.000000000000000E+000
  0.000000000000000E+000
  0.000000000000000E+000
  0.000000000000000E+000
  0.000000000000000E+000
  0.000000000000000E+000
  0.000000000000000E+000
  0.000000000000000E+000
  0.000000000000000E+000
  0.000000000000000E+000
  0.000000000000000E+000
  0.000000000000000E+000
  0.000000000000000E+000
  0.000000000000000E+000
  0.000000000000000E+000
  0.000000000000000E+000
  0.000000000000000E+000
  0.000000000000000E+000
  0.000000000000000E+000
  0.000000000000000E+000
  0.000000000000000E+000
  0.000000000000000E+000
  0.000000000000000E+000
  0.000000000000000E+000
  0.000000000000000E+000
  0.000000000000000E+000
  0.000000000000000E+000
  0.000000000000000E+000
  0.000000000000000E+000
  0.000000000000000E+000
  0.000000000000000E+000
  0.000000000000000E+000
  0.000000000000000E+000
  0.000000000000000E+000
  0.000000000000000E+000
  0.000000000000000E+000
  0.000000000000000E+000
  0.000000000000000E+000
  0.000000000000000E+000
  0.000000000000000E+000
  0.000000000000000E+000
  0.000000000000000E+000
  0.000000000000000E+000
  0.000000000000000E+000
  0.000000000000000E+000
  0.000000000000000E+000
  0.000000000000000E+000
  0.000000000000000E+000
  0.000000000000000E+000
  0.000000000000000E+000
  0.000000000000000E+000
  0.000000000000000E+000
  0.000000000000000E+000
  0.000000000000000E+000
  0.000000000000000E+000
  0.000000000000000E+000
  0.000000000000000E+000
  0.000000000000000E+000
  0.000000000000000E+000
  0.000000000000000E+000
  0.000000000000000E+000
  0.000000000000000E+000
  0.000000000000000E+000
  0.000000000000000E+000
  0.000000000000000E+000
  0.000000000000000E+000
  0.000000000000000E+000
  0.000000000000000E+000
  0.000000000000000E+000
  0.000000000000000E+000
  0.000000000000000E+000
  0.000000000000000E+000
  0.000000000000000E+000
  0.000000000000000E+000
  0.000000000000000E+000
  0.000000000000000E+000
  0.000000000000000E+000
  0.000000000000000E+000
  0.000000000000000E+000
  0.000000000000000E+000
  0.000000000000000E+000
  0.000000000000000E+000
  0.000000000000000E+000
  0.000000000000000E+000
  0.000000000000000E+000
  0.000000000000000E+000
  0.000000000000000E+000
  0.000000000000000E+000
  0.000000000000000E+000
  0.000000000000000E+000
  0.000000000000000E+000
  0.000000000000000E+000
  0.000000000000000E+000
  0.000000000000000E+000
  0.000000000000000E+000
  0.000000000000000E+000
  0.000000000000000E+000
  0.000000000000000E+000
  0.000000000000000E+000
  0.000000000000000E+000
  0.000000000000000E+000
  0.000000000000000E+000
  0.000000000000000E+000
  0.000000000000000E+000
  0.000000000000000E+000
  0.000000000000000E+000
  0.000000000000000E+000
  0.000000000000000E+000
  0.000000000000000E+000
  0.000000000000000E+000
  0.000000000000000E+000
  0.000000000000000E+000
  0.000000000000000E+000
  0.000000000000000E+000
  0.000000000000000E+000
  0.000000000000000E+000
  0.000000000000000E+000
  0.000000000000000E+000
  0.000000000000000E+000
  0.000000000000000E+000
  0.000000000000000E+000
  0.000000000000000E+000
  0.000000000000000E+000
  0.000000000000000E+000
  0.000000000000000E+000
  0.000000000000000E+000
  0.000000000000000E+000
  0.000000000000000E+000
  0.000000000000000E+000
  0.000000000000000E+000
  0.000000000000000E+000
  0.000000000000000E+000
  0.000000000000000E+000
  0.000000000000000E+000
  0.000000000000000E+000
  0.000000000000000E+000
  0.000000000000000E+000
  0.000000000000000E+000
  0.000000000000000E+000
  0.000000000000000E+000
  0.000000000000000E+000
  0.000000000000000E+000
  0.000000000000000E+000
  0.000000000000000E+000
  0.000000000000000E+000
  0.000000000000000E+000
  0.000000000000000E+000
  0.000000000000000E+000
  0.000000000000000E+000
  0.000000000000000E+000
  0.000000000000000E+000
  0.000000000000000E+000
  0.000000000000000E+000
  0.000000000000000E+000
  0.000000000000000E+000
  0.000000000000000E+000
  0.000000000000000E+000
  0.000000000000000E+000
  0.000000000000000E+000
  0.000000000000000E+000
  0.000000000000000E+000
  0.000000000000000E+000
  0.000000000000000E+000
  0.000000000000000E+000
  0.000000000000000E+000
  0.000000000000000E+000
  0.000000000000000E+000
  0.000000000000000E+000
  0.000000000000000E+000
  0.000000000000000E+000
  0.000000000000000E+000
  0.000000000000000E+000
  0.000000000000000E+000
  0.000000000000000E+000
  0.000000000000000E+000
  0.000000000000000E+000
  0.000000000000000E+000
  0.000000000000000E+000
  0.000000000000000E+000
  0.000000000000000E+000
  0.000000000000000E+000
  0.000000000000000E+000
  0.000000000000000E+000
  0.000000000000000E+000
  0.000000000000000E+000
  0.000000000000000E+000
  0.000000000000000E+000
  0.000000000000000E+000
  0.000000000000000E+000
  0.000000000000000E+000
  0.000000000000000E+000
  0.000000000000000E+000
  0.000000000000000E+000
  0.000000000000000E+000
  0.000000000000000E+000
  0.000000000000000E+000
  0.000000000000000E+000
  0.000000000000000E+000
  0.000000000000000E+000
  0.000000000000000E+000
  0.000000000000000E+000
  0.000000000000000E+000
  0.000000000000000E+000
  0.000000000000000E+000
  0.000000000000000E+000
  0.000000000000000E+000
SCALARS poroL double 
LOOKUP_TABLE default
  0.250000246059922     
  0.249999875537228     
  0.249999783196029     
  0.249999799875652     
  0.249999856117425     
  0.249999923300098     
  0.249999989308301     
  0.250000048463357     
  0.250000097114421     
  0.250000131049939     
  0.250000142260761     
  0.250000111359722     
  0.249999986230488     
  0.249999619857479     
  0.249998588464783     
  0.250000367532368     
  0.249999919335992     
  0.249999799418328     
  0.249999806347224     
  0.249999859056806     
  0.249999924841108     
  0.249999990231897     
  0.250000049185192     
  0.250000098044191     
  0.250000132752270     
  0.250000145646718     
  0.250000118204448     
  0.250000000734110     
  0.249999653254921     
  0.249998672402475     
  0.250000615788851     
  0.250000009040863     
  0.249999832784641     
  0.249999819724908     
  0.249999865123464     
  0.249999927947811     
  0.249999991972834     
  0.250000050411068     
  0.250000099594872     
  0.250000135782137     
  0.250000152003433     
  0.250000131447899     
  0.250000029215280     
  0.249999719227594     
  0.249998838505038     
  0.250001001337040     
  0.250000148827038     
  0.249999885128010     
  0.249999840879024     
  0.249999874698836     
  0.249999932675678     
  0.249999994322349     
  0.250000051704535     
  0.250000101141652     
  0.250000139375579     
  0.250000160477933     
  0.250000150164721     
  0.250000070568508     
  0.249999816028209     
  0.249999082987407     
  0.250001539636063     
  0.250000344853423     
  0.249999959170346     
  0.249999871118155     
  0.249999888370025     
  0.249999939124420     
  0.249999996977914     
  0.250000052409800     
  0.250000101730201     
  0.250000142350824     
  0.250000169733759     
  0.250000172882127     
  0.250000122999621     
  0.249999940773673     
  0.249999399562448     
  0.250002250696665     
  0.250000605123955     
  0.250000058484745     
  0.249999912192965     
  0.249999906950202     
  0.249999947461234     
  0.249999999559478     
  0.250000051653251     
  0.250000100057875     
  0.250000143065527     
  0.250000177880979     
  0.250000197474313     
  0.250000183855305     
  0.250000089116252     
  0.249999778678100     
  0.250003158490102     
  0.250000939280964     
  0.250000187438561     
  0.249999966301887     
  0.249999931510028     
  0.249999957957492     
  0.250000001636791     
  0.250000048350139     
  0.250000094451548     
  0.250000139360265     
  0.250000182380363     
  0.250000221015244     
  0.250000249383383     
  0.250000254780601     
  0.250000206445791     
  0.250004290124880     
  0.250001358315823     
  0.250000351113370     
  0.250000036100011     
  0.249999963423892     
  0.249999971043444     
  0.250000002772223     
  0.250000041220048     
  0.250000082844460     
  0.250000128488931     
  0.250000179919933     
  0.250000239584524     
  0.250000314412849     
  0.250000428944219     
  0.250000663209528     
  0.250005674754956     
  0.250001874184898     
  0.250000555199970     
  0.250000124714007     
  0.250000004435564     
  0.249999987385761     
  0.250000002583453     
  0.250000028814940     
  0.250000062755010     
  0.250000107037378     
  0.250000166262415     
  0.250000248020248     
  0.250000371939743     
  0.250000599431681     
  0.250001121687863     
  0.250007342203818     
  0.250002499328713     
  0.250000805871634     
  0.250000235768088     
  0.250000056747895     
  0.250000007991325     
  0.250000000828741     
  0.250000009562669     
  0.250000031270847     
  0.250000070833092     
  0.250000136063588     
  0.250000239612927     
  0.250000412602295     
  0.250000749685117     
  0.250001544601428     
  0.250009321337484     
  0.250003246114314     
  0.250001109648893     
  0.250000373429003     
  0.250000123139109     
  0.250000034335799     
  0.249999997512448     
  0.249999981826074     
  0.249999985042089     
  0.250000014851779     
  0.250000082665218     
  0.250000205736360     
  0.250000424026523     
  0.250000857464419     
  0.250001881676699     
  0.250011638314085     
  0.250004126262984     
  0.250001473287015     
  0.250000542481234     
  0.250000207101368     
  0.250000068503416     
  0.249999992996929     
  0.249999943971462     
  0.249999920288361     
  0.249999933133065     
  0.249999997873968     
  0.250000135415943     
  0.250000390021445     
  0.250000893219618     
  0.250002065891016     
  0.250014315007479     
  0.250005150400469     
  0.250001903747075     
  0.250000748445151     
  0.250000312979852     
  0.250000113298174     
  0.249999988083118     
  0.249999894427731     
  0.249999832825949     
  0.249999818729758     
  0.249999871752407     
  0.250000014843316     
  0.250000289599594     
  0.250000818060366     
  0.250002008789790     
  0.250017368193579     
  0.250006327994486     
  0.250002408358049     
  0.250000997745352     
  0.250000446050573     
  0.250000172232369     
  0.249999983974948     
  0.249999831692826     
  0.249999718123761     
  0.249999663736612     
  0.249999692473223     
  0.249999826858358     
  0.250000095787463     
  0.250000581211790     
  0.250001594648577     
  0.250020810575379     
  0.250007668154557     
  0.250002995343941     
  0.250001297907978     
  0.250000612385998     
  0.250000249188040     
  0.249999981950103     
  0.249999754194945     
  0.249999571395799     
  0.249999459476652     
  0.249999446324241     
  0.249999550429979     
  0.249999774155193     
  0.250000116762231     
  0.250000673127865     
  0.250024655528956     
  0.250009182104834     
  0.250003674967466     
  0.250001657670070     
  0.250000818158019     
  0.250000347321027     
  0.249999982374722     
  0.249999659809884     
  0.249999387713437     
  0.249999196952417     
  0.249999117986497     
  0.249999160153116     
  0.249999280892381     
  0.249999339305847     
  0.249999049773091     
  0.250028928784182     
  0.250010888647572     
  0.250004461569194     
  0.250002086593470     
  0.250001067570024     
  0.250000466302817     
  0.249999982315885     
  0.249999544586371     
  0.249999161996286     
  0.249998867626249     
  0.249998691174297     
  0.249998625666122     
  0.249998559981498     
  0.249998137601796     
  0.249996473008062     
  0.250033692452432     
  0.250012824602081     
  0.250005376513271     
  0.250002592923961     
  0.250001357519503     
  0.250000595955288     
  0.249999970160273     
  0.249999399590972     
  0.249998888260950     
  0.249998464222854     
  0.249998149388255     
  0.249997910453959     
  0.249997538311310     
  0.249996364252142     
  0.249992614629780     
  0.250039090382762     
  0.250015062696590     
  0.250006450630440     
  0.250003175969332     
  0.250001664393261     
  0.250000701930152     
  0.249999913643210     
  0.249999203032986     
  0.249998555877086     
  0.249997979734280     
  0.249997475140571     
  0.249996968080079     
  0.249996115770137     
  0.249993816828952     
  0.249987037092449     
  0.250045429161366     
  0.250017738027266     
  0.250007719377559     
  0.250003802174068     
  0.250001911494473     
  0.250000693202298     
  0.249999732576096     
  0.249998899841113     
  0.249998135434403     
  0.249997397717064     
  0.249996641344499     
  0.249995729579118     
  0.249994142741347     
  0.249990199944443     
  0.249979132579933     
  0.250053314558980     
  0.250021074373462     
  0.250009185795705     
  0.250004333880125     
  0.250001887510850     
  0.250000345962314     
  0.249999233620887     
  0.249998346384388     
  0.249997531298035     
  0.249996651368501     
  0.249995574170808     
  0.249994063100953     
  0.249991365255258     
  0.249985043791371     
  0.249968000453076     
  0.250063856870895     
  0.250025359422435     
  0.250010668869904     
  0.250004323015429     
  0.250001038411078     
  0.249999117402928     
  0.249997944723784     
  0.249997155647712     
  0.249996432757816     
  0.249995483226513     
  0.249994024481192     
  0.249991649891709     
  0.249987285158202     
  0.249977520444922     
  0.249952188427253     
  0.250078882027793     
  0.250030663314613     
  0.250011279280832     
  0.250002426181118     
  0.249997926304798     
  0.249995667610013     
  0.249994670177290     
  0.249994254828017     
  0.249993866753211     
  0.249993008924958     
  0.249991162536917     
  0.249987613833686     
  0.249980789252024     
  0.249966012661228     
  0.249929127626013     
  0.250100710258369     
  0.250035561532448     
  0.250007754868842     
  0.249994778028033     
  0.249988801012641     
  0.249986575025330     
  0.249986240745950     
  0.249986610366900     
  0.249986897122458     
  0.249986427397384     
  0.249984366725964     
  0.249979422359601     
  0.249969136960545     
  0.249947054259792     
  0.249893868154027     
  0.250129482048520     
  0.250032433539593     
  0.249989449924096     
  0.249970574874612     
  0.249963776101532     
  0.249962740848853     
  0.249963912476347     
  0.249965558671760     
  0.249966914174330     
  0.249967341633160     
  0.249965667444339     
  0.249959669994850     
  0.249945076868131     
  0.249912632130758     
  0.249836153410598     
  0.250150328867428     
  0.249991594679086     
  0.249924137933429     
  0.249900335673305     
  0.249896341902292     
  0.249899065438266     
  0.249902845109765     
  0.249906323159366     
  0.249909224907780     
  0.249911316370178     
  0.249911602440375     
  0.249906458519800     
  0.249888589896790     
  0.249842835827892     
  0.249733498613417     
  0.250081219817106     
  0.249812882378386     
  0.249719794164770     
  0.249704981843527     
  0.249713888077394     
  0.249723778529017     
  0.249731814210298     
  0.249738150220694     
  0.249743607792700     
  0.249748818607897     
  0.249753610333369     
  0.249755694639435     
  0.249741313563712     
  0.249685799380672     
  0.249533633297203     
  0.249593167938472     
  0.249184962913826     
  0.249130615096120     
  0.249173327148966     
  0.249206411989280     
  0.249229611458996     
  0.249245844567526     
  0.249258435930111     
  0.249269723121327     
  0.249281622294315     
  0.249296027621289     
  0.249313737176282     
  0.249333052130322     
  0.249292751731858     
  0.249110720207306     
  0.247461949992917     
  0.247273673590166     
  0.247538247074519     
  0.247673964067337     
  0.247756135530114     
  0.247808679444970     
  0.247846227981843     
  0.247876330667078     
  0.247903873496883     
  0.247933058572515     
  0.247968980843694     
  0.248020136682194     
  0.248098496773295     
  0.248243428725210     
  0.248127484133542     
  0.240241654207032     
  0.242220503931945     
  0.242886968449023     
  0.243230159779649     
  0.243434119344233     
  0.243571516808439     
  0.243673767682156     
  0.243757815761672     
  0.243834825155922     
  0.243914583283506     
  0.244009060156186     
  0.244137725737428     
  0.244342313046301     
  0.244720967781358     
  0.245803283322966     
