# vtk DataFile Version 3.0
vtk output
ASCII
DATASET UNSTRUCTURED_GRID
POINTS       496 double 
  0.00000000E+00  3.00000000E+02  0.00000000E+00
  0.00000000E+00  2.80000000E+02  0.00000000E+00
  0.00000000E+00  2.60000000E+02  0.00000000E+00
  0.00000000E+00  2.40000000E+02  0.00000000E+00
  0.00000000E+00  2.20000000E+02  0.00000000E+00
  0.00000000E+00  2.00000000E+02  0.00000000E+00
  0.00000000E+00  1.80000000E+02  0.00000000E+00
  0.00000000E+00  1.60000000E+02  0.00000000E+00
  0.00000000E+00  1.40000000E+02  0.00000000E+00
  0.00000000E+00  1.20000000E+02  0.00000000E+00
  0.00000000E+00  1.00000000E+02  0.00000000E+00
  0.00000000E+00  8.00000000E+01  0.00000000E+00
  0.00000000E+00  6.00000000E+01  0.00000000E+00
  0.00000000E+00  4.00000000E+01  0.00000000E+00
  0.00000000E+00  2.00000000E+01  0.00000000E+00
  0.00000000E+00  4.99600361E-14  0.00000000E+00
  2.00000000E+01  3.00000000E+02  0.00000000E+00
  2.00000000E+01  2.80000000E+02  0.00000000E+00
  2.00000000E+01  2.60000000E+02  0.00000000E+00
  2.00000000E+01  2.40000000E+02  0.00000000E+00
  2.00000000E+01  2.20000000E+02  0.00000000E+00
  2.00000000E+01  2.00000000E+02  0.00000000E+00
  2.00000000E+01  1.80000000E+02  0.00000000E+00
  2.00000000E+01  1.60000000E+02  0.00000000E+00
  2.00000000E+01  1.40000000E+02  0.00000000E+00
  2.00000000E+01  1.20000000E+02  0.00000000E+00
  2.00000000E+01  1.00000000E+02  0.00000000E+00
  2.00000000E+01  8.00000000E+01  0.00000000E+00
  2.00000000E+01  6.00000000E+01  0.00000000E+00
  2.00000000E+01  4.00000000E+01  0.00000000E+00
  2.00000000E+01  2.00000000E+01  0.00000000E+00
  2.00000000E+01  4.99600361E-14  0.00000000E+00
  4.00000000E+01  3.00000000E+02  0.00000000E+00
  4.00000000E+01  2.80000000E+02  0.00000000E+00
  4.00000000E+01  2.60000000E+02  0.00000000E+00
  4.00000000E+01  2.40000000E+02  0.00000000E+00
  4.00000000E+01  2.20000000E+02  0.00000000E+00
  4.00000000E+01  2.00000000E+02  0.00000000E+00
  4.00000000E+01  1.80000000E+02  0.00000000E+00
  4.00000000E+01  1.60000000E+02  0.00000000E+00
  4.00000000E+01  1.40000000E+02  0.00000000E+00
  4.00000000E+01  1.20000000E+02  0.00000000E+00
  4.00000000E+01  1.00000000E+02  0.00000000E+00
  4.00000000E+01  8.00000000E+01  0.00000000E+00
  4.00000000E+01  6.00000000E+01  0.00000000E+00
  4.00000000E+01  4.00000000E+01  0.00000000E+00
  4.00000000E+01  2.00000000E+01  0.00000000E+00
  4.00000000E+01  4.99600361E-14  0.00000000E+00
  6.00000000E+01  3.00000000E+02  0.00000000E+00
  6.00000000E+01  2.80000000E+02  0.00000000E+00
  6.00000000E+01  2.60000000E+02  0.00000000E+00
  6.00000000E+01  2.40000000E+02  0.00000000E+00
  6.00000000E+01  2.20000000E+02  0.00000000E+00
  6.00000000E+01  2.00000000E+02  0.00000000E+00
  6.00000000E+01  1.80000000E+02  0.00000000E+00
  6.00000000E+01  1.60000000E+02  0.00000000E+00
  6.00000000E+01  1.40000000E+02  0.00000000E+00
  6.00000000E+01  1.20000000E+02  0.00000000E+00
  6.00000000E+01  1.00000000E+02  0.00000000E+00
  6.00000000E+01  8.00000000E+01  0.00000000E+00
  6.00000000E+01  6.00000000E+01  0.00000000E+00
  6.00000000E+01  4.00000000E+01  0.00000000E+00
  6.00000000E+01  2.00000000E+01  0.00000000E+00
  6.00000000E+01  4.99600361E-14  0.00000000E+00
  8.00000000E+01  3.00000000E+02  0.00000000E+00
  8.00000000E+01  2.80000000E+02  0.00000000E+00
  8.00000000E+01  2.60000000E+02  0.00000000E+00
  8.00000000E+01  2.40000000E+02  0.00000000E+00
  8.00000000E+01  2.20000000E+02  0.00000000E+00
  8.00000000E+01  2.00000000E+02  0.00000000E+00
  8.00000000E+01  1.80000000E+02  0.00000000E+00
  8.00000000E+01  1.60000000E+02  0.00000000E+00
  8.00000000E+01  1.40000000E+02  0.00000000E+00
  8.00000000E+01  1.20000000E+02  0.00000000E+00
  8.00000000E+01  1.00000000E+02  0.00000000E+00
  8.00000000E+01  8.00000000E+01  0.00000000E+00
  8.00000000E+01  6.00000000E+01  0.00000000E+00
  8.00000000E+01  4.00000000E+01  0.00000000E+00
  8.00000000E+01  2.00000000E+01  0.00000000E+00
  8.00000000E+01  4.99600361E-14  0.00000000E+00
  1.00000000E+02  3.00000000E+02  0.00000000E+00
  1.00000000E+02  2.80000000E+02  0.00000000E+00
  1.00000000E+02  2.60000000E+02  0.00000000E+00
  1.00000000E+02  2.40000000E+02  0.00000000E+00
  1.00000000E+02  2.20000000E+02  0.00000000E+00
  1.00000000E+02  2.00000000E+02  0.00000000E+00
  1.00000000E+02  1.80000000E+02  0.00000000E+00
  1.00000000E+02  1.60000000E+02  0.00000000E+00
  1.00000000E+02  1.40000000E+02  0.00000000E+00
  1.00000000E+02  1.20000000E+02  0.00000000E+00
  1.00000000E+02  1.00000000E+02  0.00000000E+00
  1.00000000E+02  8.00000000E+01  0.00000000E+00
  1.00000000E+02  6.00000000E+01  0.00000000E+00
  1.00000000E+02  4.00000000E+01  0.00000000E+00
  1.00000000E+02  2.00000000E+01  0.00000000E+00
  1.00000000E+02  4.99600361E-14  0.00000000E+00
  1.20000000E+02  3.00000000E+02  0.00000000E+00
  1.20000000E+02  2.80000000E+02  0.00000000E+00
  1.20000000E+02  2.60000000E+02  0.00000000E+00
  1.20000000E+02  2.40000000E+02  0.00000000E+00
  1.20000000E+02  2.20000000E+02  0.00000000E+00
  1.20000000E+02  2.00000000E+02  0.00000000E+00
  1.20000000E+02  1.80000000E+02  0.00000000E+00
  1.20000000E+02  1.60000000E+02  0.00000000E+00
  1.20000000E+02  1.40000000E+02  0.00000000E+00
  1.20000000E+02  1.20000000E+02  0.00000000E+00
  1.20000000E+02  1.00000000E+02  0.00000000E+00
  1.20000000E+02  8.00000000E+01  0.00000000E+00
  1.20000000E+02  6.00000000E+01  0.00000000E+00
  1.20000000E+02  4.00000000E+01  0.00000000E+00
  1.20000000E+02  2.00000000E+01  0.00000000E+00
  1.20000000E+02  4.99600361E-14  0.00000000E+00
  1.40000000E+02  3.00000000E+02  0.00000000E+00
  1.40000000E+02  2.80000000E+02  0.00000000E+00
  1.40000000E+02  2.60000000E+02  0.00000000E+00
  1.40000000E+02  2.40000000E+02  0.00000000E+00
  1.40000000E+02  2.20000000E+02  0.00000000E+00
  1.40000000E+02  2.00000000E+02  0.00000000E+00
  1.40000000E+02  1.80000000E+02  0.00000000E+00
  1.40000000E+02  1.60000000E+02  0.00000000E+00
  1.40000000E+02  1.40000000E+02  0.00000000E+00
  1.40000000E+02  1.20000000E+02  0.00000000E+00
  1.40000000E+02  1.00000000E+02  0.00000000E+00
  1.40000000E+02  8.00000000E+01  0.00000000E+00
  1.40000000E+02  6.00000000E+01  0.00000000E+00
  1.40000000E+02  4.00000000E+01  0.00000000E+00
  1.40000000E+02  2.00000000E+01  0.00000000E+00
  1.40000000E+02  4.99600361E-14  0.00000000E+00
  1.60000000E+02  3.00000000E+02  0.00000000E+00
  1.60000000E+02  2.80000000E+02  0.00000000E+00
  1.60000000E+02  2.60000000E+02  0.00000000E+00
  1.60000000E+02  2.40000000E+02  0.00000000E+00
  1.60000000E+02  2.20000000E+02  0.00000000E+00
  1.60000000E+02  2.00000000E+02  0.00000000E+00
  1.60000000E+02  1.80000000E+02  0.00000000E+00
  1.60000000E+02  1.60000000E+02  0.00000000E+00
  1.60000000E+02  1.40000000E+02  0.00000000E+00
  1.60000000E+02  1.20000000E+02  0.00000000E+00
  1.60000000E+02  1.00000000E+02  0.00000000E+00
  1.60000000E+02  8.00000000E+01  0.00000000E+00
  1.60000000E+02  6.00000000E+01  0.00000000E+00
  1.60000000E+02  4.00000000E+01  0.00000000E+00
  1.60000000E+02  2.00000000E+01  0.00000000E+00
  1.60000000E+02  4.99600361E-14  0.00000000E+00
  1.80000000E+02  3.00000000E+02  0.00000000E+00
  1.80000000E+02  2.80000000E+02  0.00000000E+00
  1.80000000E+02  2.60000000E+02  0.00000000E+00
  1.80000000E+02  2.40000000E+02  0.00000000E+00
  1.80000000E+02  2.20000000E+02  0.00000000E+00
  1.80000000E+02  2.00000000E+02  0.00000000E+00
  1.80000000E+02  1.80000000E+02  0.00000000E+00
  1.80000000E+02  1.60000000E+02  0.00000000E+00
  1.80000000E+02  1.40000000E+02  0.00000000E+00
  1.80000000E+02  1.20000000E+02  0.00000000E+00
  1.80000000E+02  1.00000000E+02  0.00000000E+00
  1.80000000E+02  8.00000000E+01  0.00000000E+00
  1.80000000E+02  6.00000000E+01  0.00000000E+00
  1.80000000E+02  4.00000000E+01  0.00000000E+00
  1.80000000E+02  2.00000000E+01  0.00000000E+00
  1.80000000E+02  4.99600361E-14  0.00000000E+00
  2.00000000E+02  3.00000000E+02  0.00000000E+00
  2.00000000E+02  2.80000000E+02  0.00000000E+00
  2.00000000E+02  2.60000000E+02  0.00000000E+00
  2.00000000E+02  2.40000000E+02  0.00000000E+00
  2.00000000E+02  2.20000000E+02  0.00000000E+00
  2.00000000E+02  2.00000000E+02  0.00000000E+00
  2.00000000E+02  1.80000000E+02  0.00000000E+00
  2.00000000E+02  1.60000000E+02  0.00000000E+00
  2.00000000E+02  1.40000000E+02  0.00000000E+00
  2.00000000E+02  1.20000000E+02  0.00000000E+00
  2.00000000E+02  1.00000000E+02  0.00000000E+00
  2.00000000E+02  8.00000000E+01  0.00000000E+00
  2.00000000E+02  6.00000000E+01  0.00000000E+00
  2.00000000E+02  4.00000000E+01  0.00000000E+00
  2.00000000E+02  2.00000000E+01  0.00000000E+00
  2.00000000E+02  4.99600361E-14  0.00000000E+00
  2.20000000E+02  3.00000000E+02  0.00000000E+00
  2.20000000E+02  2.80000000E+02  0.00000000E+00
  2.20000000E+02  2.60000000E+02  0.00000000E+00
  2.20000000E+02  2.40000000E+02  0.00000000E+00
  2.20000000E+02  2.20000000E+02  0.00000000E+00
  2.20000000E+02  2.00000000E+02  0.00000000E+00
  2.20000000E+02  1.80000000E+02  0.00000000E+00
  2.20000000E+02  1.60000000E+02  0.00000000E+00
  2.20000000E+02  1.40000000E+02  0.00000000E+00
  2.20000000E+02  1.20000000E+02  0.00000000E+00
  2.20000000E+02  1.00000000E+02  0.00000000E+00
  2.20000000E+02  8.00000000E+01  0.00000000E+00
  2.20000000E+02  6.00000000E+01  0.00000000E+00
  2.20000000E+02  4.00000000E+01  0.00000000E+00
  2.20000000E+02  2.00000000E+01  0.00000000E+00
  2.20000000E+02  4.99600361E-14  0.00000000E+00
  2.40000000E+02  3.00000000E+02  0.00000000E+00
  2.40000000E+02  2.80000000E+02  0.00000000E+00
  2.40000000E+02  2.60000000E+02  0.00000000E+00
  2.40000000E+02  2.40000000E+02  0.00000000E+00
  2.40000000E+02  2.20000000E+02  0.00000000E+00
  2.40000000E+02  2.00000000E+02  0.00000000E+00
  2.40000000E+02  1.80000000E+02  0.00000000E+00
  2.40000000E+02  1.60000000E+02  0.00000000E+00
  2.40000000E+02  1.40000000E+02  0.00000000E+00
  2.40000000E+02  1.20000000E+02  0.00000000E+00
  2.40000000E+02  1.00000000E+02  0.00000000E+00
  2.40000000E+02  8.00000000E+01  0.00000000E+00
  2.40000000E+02  6.00000000E+01  0.00000000E+00
  2.40000000E+02  4.00000000E+01  0.00000000E+00
  2.40000000E+02  2.00000000E+01  0.00000000E+00
  2.40000000E+02  4.99600361E-14  0.00000000E+00
  2.60000000E+02  3.00000000E+02  0.00000000E+00
  2.60000000E+02  2.80000000E+02  0.00000000E+00
  2.60000000E+02  2.60000000E+02  0.00000000E+00
  2.60000000E+02  2.40000000E+02  0.00000000E+00
  2.60000000E+02  2.20000000E+02  0.00000000E+00
  2.60000000E+02  2.00000000E+02  0.00000000E+00
  2.60000000E+02  1.80000000E+02  0.00000000E+00
  2.60000000E+02  1.60000000E+02  0.00000000E+00
  2.60000000E+02  1.40000000E+02  0.00000000E+00
  2.60000000E+02  1.20000000E+02  0.00000000E+00
  2.60000000E+02  1.00000000E+02  0.00000000E+00
  2.60000000E+02  8.00000000E+01  0.00000000E+00
  2.60000000E+02  6.00000000E+01  0.00000000E+00
  2.60000000E+02  4.00000000E+01  0.00000000E+00
  2.60000000E+02  2.00000000E+01  0.00000000E+00
  2.60000000E+02  4.99600361E-14  0.00000000E+00
  2.80000000E+02  3.00000000E+02  0.00000000E+00
  2.80000000E+02  2.80000000E+02  0.00000000E+00
  2.80000000E+02  2.60000000E+02  0.00000000E+00
  2.80000000E+02  2.40000000E+02  0.00000000E+00
  2.80000000E+02  2.20000000E+02  0.00000000E+00
  2.80000000E+02  2.00000000E+02  0.00000000E+00
  2.80000000E+02  1.80000000E+02  0.00000000E+00
  2.80000000E+02  1.60000000E+02  0.00000000E+00
  2.80000000E+02  1.40000000E+02  0.00000000E+00
  2.80000000E+02  1.20000000E+02  0.00000000E+00
  2.80000000E+02  1.00000000E+02  0.00000000E+00
  2.80000000E+02  8.00000000E+01  0.00000000E+00
  2.80000000E+02  6.00000000E+01  0.00000000E+00
  2.80000000E+02  4.00000000E+01  0.00000000E+00
  2.80000000E+02  2.00000000E+01  0.00000000E+00
  2.80000000E+02  4.99600361E-14  0.00000000E+00
  3.00000000E+02  3.00000000E+02  0.00000000E+00
  3.00000000E+02  2.80000000E+02  0.00000000E+00
  3.00000000E+02  2.60000000E+02  0.00000000E+00
  3.00000000E+02  2.40000000E+02  0.00000000E+00
  3.00000000E+02  2.20000000E+02  0.00000000E+00
  3.00000000E+02  2.00000000E+02  0.00000000E+00
  3.00000000E+02  1.80000000E+02  0.00000000E+00
  3.00000000E+02  1.60000000E+02  0.00000000E+00
  3.00000000E+02  1.40000000E+02  0.00000000E+00
  3.00000000E+02  1.20000000E+02  0.00000000E+00
  3.00000000E+02  1.00000000E+02  0.00000000E+00
  3.00000000E+02  8.00000000E+01  0.00000000E+00
  3.00000000E+02  6.00000000E+01  0.00000000E+00
  3.00000000E+02  4.00000000E+01  0.00000000E+00
  3.00000000E+02  2.00000000E+01  0.00000000E+00
  3.00000000E+02  4.99600361E-14  0.00000000E+00
  3.20000000E+02  3.00000000E+02  0.00000000E+00
  3.20000000E+02  2.80000000E+02  0.00000000E+00
  3.20000000E+02  2.60000000E+02  0.00000000E+00
  3.20000000E+02  2.40000000E+02  0.00000000E+00
  3.20000000E+02  2.20000000E+02  0.00000000E+00
  3.20000000E+02  2.00000000E+02  0.00000000E+00
  3.20000000E+02  1.80000000E+02  0.00000000E+00
  3.20000000E+02  1.60000000E+02  0.00000000E+00
  3.20000000E+02  1.40000000E+02  0.00000000E+00
  3.20000000E+02  1.20000000E+02  0.00000000E+00
  3.20000000E+02  1.00000000E+02  0.00000000E+00
  3.20000000E+02  8.00000000E+01  0.00000000E+00
  3.20000000E+02  6.00000000E+01  0.00000000E+00
  3.20000000E+02  4.00000000E+01  0.00000000E+00
  3.20000000E+02  2.00000000E+01  0.00000000E+00
  3.20000000E+02  4.99600361E-14  0.00000000E+00
  3.40000000E+02  3.00000000E+02  0.00000000E+00
  3.40000000E+02  2.80000000E+02  0.00000000E+00
  3.40000000E+02  2.60000000E+02  0.00000000E+00
  3.40000000E+02  2.40000000E+02  0.00000000E+00
  3.40000000E+02  2.20000000E+02  0.00000000E+00
  3.40000000E+02  2.00000000E+02  0.00000000E+00
  3.40000000E+02  1.80000000E+02  0.00000000E+00
  3.40000000E+02  1.60000000E+02  0.00000000E+00
  3.40000000E+02  1.40000000E+02  0.00000000E+00
  3.40000000E+02  1.20000000E+02  0.00000000E+00
  3.40000000E+02  1.00000000E+02  0.00000000E+00
  3.40000000E+02  8.00000000E+01  0.00000000E+00
  3.40000000E+02  6.00000000E+01  0.00000000E+00
  3.40000000E+02  4.00000000E+01  0.00000000E+00
  3.40000000E+02  2.00000000E+01  0.00000000E+00
  3.40000000E+02  4.99600361E-14  0.00000000E+00
  3.60000000E+02  3.00000000E+02  0.00000000E+00
  3.60000000E+02  2.80000000E+02  0.00000000E+00
  3.60000000E+02  2.60000000E+02  0.00000000E+00
  3.60000000E+02  2.40000000E+02  0.00000000E+00
  3.60000000E+02  2.20000000E+02  0.00000000E+00
  3.60000000E+02  2.00000000E+02  0.00000000E+00
  3.60000000E+02  1.80000000E+02  0.00000000E+00
  3.60000000E+02  1.60000000E+02  0.00000000E+00
  3.60000000E+02  1.40000000E+02  0.00000000E+00
  3.60000000E+02  1.20000000E+02  0.00000000E+00
  3.60000000E+02  1.00000000E+02  0.00000000E+00
  3.60000000E+02  8.00000000E+01  0.00000000E+00
  3.60000000E+02  6.00000000E+01  0.00000000E+00
  3.60000000E+02  4.00000000E+01  0.00000000E+00
  3.60000000E+02  2.00000000E+01  0.00000000E+00
  3.60000000E+02  4.99600361E-14  0.00000000E+00
  3.80000000E+02  3.00000000E+02  0.00000000E+00
  3.80000000E+02  2.80000000E+02  0.00000000E+00
  3.80000000E+02  2.60000000E+02  0.00000000E+00
  3.80000000E+02  2.40000000E+02  0.00000000E+00
  3.80000000E+02  2.20000000E+02  0.00000000E+00
  3.80000000E+02  2.00000000E+02  0.00000000E+00
  3.80000000E+02  1.80000000E+02  0.00000000E+00
  3.80000000E+02  1.60000000E+02  0.00000000E+00
  3.80000000E+02  1.40000000E+02  0.00000000E+00
  3.80000000E+02  1.20000000E+02  0.00000000E+00
  3.80000000E+02  1.00000000E+02  0.00000000E+00
  3.80000000E+02  8.00000000E+01  0.00000000E+00
  3.80000000E+02  6.00000000E+01  0.00000000E+00
  3.80000000E+02  4.00000000E+01  0.00000000E+00
  3.80000000E+02  2.00000000E+01  0.00000000E+00
  3.80000000E+02  4.99600361E-14  0.00000000E+00
  4.00000000E+02  3.00000000E+02  0.00000000E+00
  4.00000000E+02  2.80000000E+02  0.00000000E+00
  4.00000000E+02  2.60000000E+02  0.00000000E+00
  4.00000000E+02  2.40000000E+02  0.00000000E+00
  4.00000000E+02  2.20000000E+02  0.00000000E+00
  4.00000000E+02  2.00000000E+02  0.00000000E+00
  4.00000000E+02  1.80000000E+02  0.00000000E+00
  4.00000000E+02  1.60000000E+02  0.00000000E+00
  4.00000000E+02  1.40000000E+02  0.00000000E+00
  4.00000000E+02  1.20000000E+02  0.00000000E+00
  4.00000000E+02  1.00000000E+02  0.00000000E+00
  4.00000000E+02  8.00000000E+01  0.00000000E+00
  4.00000000E+02  6.00000000E+01  0.00000000E+00
  4.00000000E+02  4.00000000E+01  0.00000000E+00
  4.00000000E+02  2.00000000E+01  0.00000000E+00
  4.00000000E+02  4.99600361E-14  0.00000000E+00
  4.20000000E+02  3.00000000E+02  0.00000000E+00
  4.20000000E+02  2.80000000E+02  0.00000000E+00
  4.20000000E+02  2.60000000E+02  0.00000000E+00
  4.20000000E+02  2.40000000E+02  0.00000000E+00
  4.20000000E+02  2.20000000E+02  0.00000000E+00
  4.20000000E+02  2.00000000E+02  0.00000000E+00
  4.20000000E+02  1.80000000E+02  0.00000000E+00
  4.20000000E+02  1.60000000E+02  0.00000000E+00
  4.20000000E+02  1.40000000E+02  0.00000000E+00
  4.20000000E+02  1.20000000E+02  0.00000000E+00
  4.20000000E+02  1.00000000E+02  0.00000000E+00
  4.20000000E+02  8.00000000E+01  0.00000000E+00
  4.20000000E+02  6.00000000E+01  0.00000000E+00
  4.20000000E+02  4.00000000E+01  0.00000000E+00
  4.20000000E+02  2.00000000E+01  0.00000000E+00
  4.20000000E+02  4.99600361E-14  0.00000000E+00
  4.40000000E+02  3.00000000E+02  0.00000000E+00
  4.40000000E+02  2.80000000E+02  0.00000000E+00
  4.40000000E+02  2.60000000E+02  0.00000000E+00
  4.40000000E+02  2.40000000E+02  0.00000000E+00
  4.40000000E+02  2.20000000E+02  0.00000000E+00
  4.40000000E+02  2.00000000E+02  0.00000000E+00
  4.40000000E+02  1.80000000E+02  0.00000000E+00
  4.40000000E+02  1.60000000E+02  0.00000000E+00
  4.40000000E+02  1.40000000E+02  0.00000000E+00
  4.40000000E+02  1.20000000E+02  0.00000000E+00
  4.40000000E+02  1.00000000E+02  0.00000000E+00
  4.40000000E+02  8.00000000E+01  0.00000000E+00
  4.40000000E+02  6.00000000E+01  0.00000000E+00
  4.40000000E+02  4.00000000E+01  0.00000000E+00
  4.40000000E+02  2.00000000E+01  0.00000000E+00
  4.40000000E+02  4.99600361E-14  0.00000000E+00
  4.60000000E+02  3.00000000E+02  0.00000000E+00
  4.60000000E+02  2.80000000E+02  0.00000000E+00
  4.60000000E+02  2.60000000E+02  0.00000000E+00
  4.60000000E+02  2.40000000E+02  0.00000000E+00
  4.60000000E+02  2.20000000E+02  0.00000000E+00
  4.60000000E+02  2.00000000E+02  0.00000000E+00
  4.60000000E+02  1.80000000E+02  0.00000000E+00
  4.60000000E+02  1.60000000E+02  0.00000000E+00
  4.60000000E+02  1.40000000E+02  0.00000000E+00
  4.60000000E+02  1.20000000E+02  0.00000000E+00
  4.60000000E+02  1.00000000E+02  0.00000000E+00
  4.60000000E+02  8.00000000E+01  0.00000000E+00
  4.60000000E+02  6.00000000E+01  0.00000000E+00
  4.60000000E+02  4.00000000E+01  0.00000000E+00
  4.60000000E+02  2.00000000E+01  0.00000000E+00
  4.60000000E+02  4.99600361E-14  0.00000000E+00
  4.80000000E+02  3.00000000E+02  0.00000000E+00
  4.80000000E+02  2.80000000E+02  0.00000000E+00
  4.80000000E+02  2.60000000E+02  0.00000000E+00
  4.80000000E+02  2.40000000E+02  0.00000000E+00
  4.80000000E+02  2.20000000E+02  0.00000000E+00
  4.80000000E+02  2.00000000E+02  0.00000000E+00
  4.80000000E+02  1.80000000E+02  0.00000000E+00
  4.80000000E+02  1.60000000E+02  0.00000000E+00
  4.80000000E+02  1.40000000E+02  0.00000000E+00
  4.80000000E+02  1.20000000E+02  0.00000000E+00
  4.80000000E+02  1.00000000E+02  0.00000000E+00
  4.80000000E+02  8.00000000E+01  0.00000000E+00
  4.80000000E+02  6.00000000E+01  0.00000000E+00
  4.80000000E+02  4.00000000E+01  0.00000000E+00
  4.80000000E+02  2.00000000E+01  0.00000000E+00
  4.80000000E+02  4.99600361E-14  0.00000000E+00
  5.00000000E+02  3.00000000E+02  0.00000000E+00
  5.00000000E+02  2.80000000E+02  0.00000000E+00
  5.00000000E+02  2.60000000E+02  0.00000000E+00
  5.00000000E+02  2.40000000E+02  0.00000000E+00
  5.00000000E+02  2.20000000E+02  0.00000000E+00
  5.00000000E+02  2.00000000E+02  0.00000000E+00
  5.00000000E+02  1.80000000E+02  0.00000000E+00
  5.00000000E+02  1.60000000E+02  0.00000000E+00
  5.00000000E+02  1.40000000E+02  0.00000000E+00
  5.00000000E+02  1.20000000E+02  0.00000000E+00
  5.00000000E+02  1.00000000E+02  0.00000000E+00
  5.00000000E+02  8.00000000E+01  0.00000000E+00
  5.00000000E+02  6.00000000E+01  0.00000000E+00
  5.00000000E+02  4.00000000E+01  0.00000000E+00
  5.00000000E+02  2.00000000E+01  0.00000000E+00
  5.00000000E+02  4.99600361E-14  0.00000000E+00
  5.20000000E+02  3.00000000E+02  0.00000000E+00
  5.20000000E+02  2.80000000E+02  0.00000000E+00
  5.20000000E+02  2.60000000E+02  0.00000000E+00
  5.20000000E+02  2.40000000E+02  0.00000000E+00
  5.20000000E+02  2.20000000E+02  0.00000000E+00
  5.20000000E+02  2.00000000E+02  0.00000000E+00
  5.20000000E+02  1.80000000E+02  0.00000000E+00
  5.20000000E+02  1.60000000E+02  0.00000000E+00
  5.20000000E+02  1.40000000E+02  0.00000000E+00
  5.20000000E+02  1.20000000E+02  0.00000000E+00
  5.20000000E+02  1.00000000E+02  0.00000000E+00
  5.20000000E+02  8.00000000E+01  0.00000000E+00
  5.20000000E+02  6.00000000E+01  0.00000000E+00
  5.20000000E+02  4.00000000E+01  0.00000000E+00
  5.20000000E+02  2.00000000E+01  0.00000000E+00
  5.20000000E+02  4.99600361E-14  0.00000000E+00
  5.40000000E+02  3.00000000E+02  0.00000000E+00
  5.40000000E+02  2.80000000E+02  0.00000000E+00
  5.40000000E+02  2.60000000E+02  0.00000000E+00
  5.40000000E+02  2.40000000E+02  0.00000000E+00
  5.40000000E+02  2.20000000E+02  0.00000000E+00
  5.40000000E+02  2.00000000E+02  0.00000000E+00
  5.40000000E+02  1.80000000E+02  0.00000000E+00
  5.40000000E+02  1.60000000E+02  0.00000000E+00
  5.40000000E+02  1.40000000E+02  0.00000000E+00
  5.40000000E+02  1.20000000E+02  0.00000000E+00
  5.40000000E+02  1.00000000E+02  0.00000000E+00
  5.40000000E+02  8.00000000E+01  0.00000000E+00
  5.40000000E+02  6.00000000E+01  0.00000000E+00
  5.40000000E+02  4.00000000E+01  0.00000000E+00
  5.40000000E+02  2.00000000E+01  0.00000000E+00
  5.40000000E+02  4.99600361E-14  0.00000000E+00
  5.60000000E+02  3.00000000E+02  0.00000000E+00
  5.60000000E+02  2.80000000E+02  0.00000000E+00
  5.60000000E+02  2.60000000E+02  0.00000000E+00
  5.60000000E+02  2.40000000E+02  0.00000000E+00
  5.60000000E+02  2.20000000E+02  0.00000000E+00
  5.60000000E+02  2.00000000E+02  0.00000000E+00
  5.60000000E+02  1.80000000E+02  0.00000000E+00
  5.60000000E+02  1.60000000E+02  0.00000000E+00
  5.60000000E+02  1.40000000E+02  0.00000000E+00
  5.60000000E+02  1.20000000E+02  0.00000000E+00
  5.60000000E+02  1.00000000E+02  0.00000000E+00
  5.60000000E+02  8.00000000E+01  0.00000000E+00
  5.60000000E+02  6.00000000E+01  0.00000000E+00
  5.60000000E+02  4.00000000E+01  0.00000000E+00
  5.60000000E+02  2.00000000E+01  0.00000000E+00
  5.60000000E+02  4.99600361E-14  0.00000000E+00
  5.80000000E+02  3.00000000E+02  0.00000000E+00
  5.80000000E+02  2.80000000E+02  0.00000000E+00
  5.80000000E+02  2.60000000E+02  0.00000000E+00
  5.80000000E+02  2.40000000E+02  0.00000000E+00
  5.80000000E+02  2.20000000E+02  0.00000000E+00
  5.80000000E+02  2.00000000E+02  0.00000000E+00
  5.80000000E+02  1.80000000E+02  0.00000000E+00
  5.80000000E+02  1.60000000E+02  0.00000000E+00
  5.80000000E+02  1.40000000E+02  0.00000000E+00
  5.80000000E+02  1.20000000E+02  0.00000000E+00
  5.80000000E+02  1.00000000E+02  0.00000000E+00
  5.80000000E+02  8.00000000E+01  0.00000000E+00
  5.80000000E+02  6.00000000E+01  0.00000000E+00
  5.80000000E+02  4.00000000E+01  0.00000000E+00
  5.80000000E+02  2.00000000E+01  0.00000000E+00
  5.80000000E+02  4.99600361E-14  0.00000000E+00
  6.00000000E+02  3.00000000E+02  0.00000000E+00
  6.00000000E+02  2.80000000E+02  0.00000000E+00
  6.00000000E+02  2.60000000E+02  0.00000000E+00
  6.00000000E+02  2.40000000E+02  0.00000000E+00
  6.00000000E+02  2.20000000E+02  0.00000000E+00
  6.00000000E+02  2.00000000E+02  0.00000000E+00
  6.00000000E+02  1.80000000E+02  0.00000000E+00
  6.00000000E+02  1.60000000E+02  0.00000000E+00
  6.00000000E+02  1.40000000E+02  0.00000000E+00
  6.00000000E+02  1.20000000E+02  0.00000000E+00
  6.00000000E+02  1.00000000E+02  0.00000000E+00
  6.00000000E+02  8.00000000E+01  0.00000000E+00
  6.00000000E+02  6.00000000E+01  0.00000000E+00
  6.00000000E+02  4.00000000E+01  0.00000000E+00
  6.00000000E+02  2.00000000E+01  0.00000000E+00
  6.00000000E+02  4.99600361E-14  0.00000000E+00
CELLS       450      2250
         4           0           1          17          16
         4           1           2          18          17
         4           2           3          19          18
         4           3           4          20          19
         4           4           5          21          20
         4           5           6          22          21
         4           6           7          23          22
         4           7           8          24          23
         4           8           9          25          24
         4           9          10          26          25
         4          10          11          27          26
         4          11          12          28          27
         4          12          13          29          28
         4          13          14          30          29
         4          14          15          31          30
         4          16          17          33          32
         4          17          18          34          33
         4          18          19          35          34
         4          19          20          36          35
         4          20          21          37          36
         4          21          22          38          37
         4          22          23          39          38
         4          23          24          40          39
         4          24          25          41          40
         4          25          26          42          41
         4          26          27          43          42
         4          27          28          44          43
         4          28          29          45          44
         4          29          30          46          45
         4          30          31          47          46
         4          32          33          49          48
         4          33          34          50          49
         4          34          35          51          50
         4          35          36          52          51
         4          36          37          53          52
         4          37          38          54          53
         4          38          39          55          54
         4          39          40          56          55
         4          40          41          57          56
         4          41          42          58          57
         4          42          43          59          58
         4          43          44          60          59
         4          44          45          61          60
         4          45          46          62          61
         4          46          47          63          62
         4          48          49          65          64
         4          49          50          66          65
         4          50          51          67          66
         4          51          52          68          67
         4          52          53          69          68
         4          53          54          70          69
         4          54          55          71          70
         4          55          56          72          71
         4          56          57          73          72
         4          57          58          74          73
         4          58          59          75          74
         4          59          60          76          75
         4          60          61          77          76
         4          61          62          78          77
         4          62          63          79          78
         4          64          65          81          80
         4          65          66          82          81
         4          66          67          83          82
         4          67          68          84          83
         4          68          69          85          84
         4          69          70          86          85
         4          70          71          87          86
         4          71          72          88          87
         4          72          73          89          88
         4          73          74          90          89
         4          74          75          91          90
         4          75          76          92          91
         4          76          77          93          92
         4          77          78          94          93
         4          78          79          95          94
         4          80          81          97          96
         4          81          82          98          97
         4          82          83          99          98
         4          83          84         100          99
         4          84          85         101         100
         4          85          86         102         101
         4          86          87         103         102
         4          87          88         104         103
         4          88          89         105         104
         4          89          90         106         105
         4          90          91         107         106
         4          91          92         108         107
         4          92          93         109         108
         4          93          94         110         109
         4          94          95         111         110
         4          96          97         113         112
         4          97          98         114         113
         4          98          99         115         114
         4          99         100         116         115
         4         100         101         117         116
         4         101         102         118         117
         4         102         103         119         118
         4         103         104         120         119
         4         104         105         121         120
         4         105         106         122         121
         4         106         107         123         122
         4         107         108         124         123
         4         108         109         125         124
         4         109         110         126         125
         4         110         111         127         126
         4         112         113         129         128
         4         113         114         130         129
         4         114         115         131         130
         4         115         116         132         131
         4         116         117         133         132
         4         117         118         134         133
         4         118         119         135         134
         4         119         120         136         135
         4         120         121         137         136
         4         121         122         138         137
         4         122         123         139         138
         4         123         124         140         139
         4         124         125         141         140
         4         125         126         142         141
         4         126         127         143         142
         4         128         129         145         144
         4         129         130         146         145
         4         130         131         147         146
         4         131         132         148         147
         4         132         133         149         148
         4         133         134         150         149
         4         134         135         151         150
         4         135         136         152         151
         4         136         137         153         152
         4         137         138         154         153
         4         138         139         155         154
         4         139         140         156         155
         4         140         141         157         156
         4         141         142         158         157
         4         142         143         159         158
         4         144         145         161         160
         4         145         146         162         161
         4         146         147         163         162
         4         147         148         164         163
         4         148         149         165         164
         4         149         150         166         165
         4         150         151         167         166
         4         151         152         168         167
         4         152         153         169         168
         4         153         154         170         169
         4         154         155         171         170
         4         155         156         172         171
         4         156         157         173         172
         4         157         158         174         173
         4         158         159         175         174
         4         160         161         177         176
         4         161         162         178         177
         4         162         163         179         178
         4         163         164         180         179
         4         164         165         181         180
         4         165         166         182         181
         4         166         167         183         182
         4         167         168         184         183
         4         168         169         185         184
         4         169         170         186         185
         4         170         171         187         186
         4         171         172         188         187
         4         172         173         189         188
         4         173         174         190         189
         4         174         175         191         190
         4         176         177         193         192
         4         177         178         194         193
         4         178         179         195         194
         4         179         180         196         195
         4         180         181         197         196
         4         181         182         198         197
         4         182         183         199         198
         4         183         184         200         199
         4         184         185         201         200
         4         185         186         202         201
         4         186         187         203         202
         4         187         188         204         203
         4         188         189         205         204
         4         189         190         206         205
         4         190         191         207         206
         4         192         193         209         208
         4         193         194         210         209
         4         194         195         211         210
         4         195         196         212         211
         4         196         197         213         212
         4         197         198         214         213
         4         198         199         215         214
         4         199         200         216         215
         4         200         201         217         216
         4         201         202         218         217
         4         202         203         219         218
         4         203         204         220         219
         4         204         205         221         220
         4         205         206         222         221
         4         206         207         223         222
         4         208         209         225         224
         4         209         210         226         225
         4         210         211         227         226
         4         211         212         228         227
         4         212         213         229         228
         4         213         214         230         229
         4         214         215         231         230
         4         215         216         232         231
         4         216         217         233         232
         4         217         218         234         233
         4         218         219         235         234
         4         219         220         236         235
         4         220         221         237         236
         4         221         222         238         237
         4         222         223         239         238
         4         224         225         241         240
         4         225         226         242         241
         4         226         227         243         242
         4         227         228         244         243
         4         228         229         245         244
         4         229         230         246         245
         4         230         231         247         246
         4         231         232         248         247
         4         232         233         249         248
         4         233         234         250         249
         4         234         235         251         250
         4         235         236         252         251
         4         236         237         253         252
         4         237         238         254         253
         4         238         239         255         254
         4         240         241         257         256
         4         241         242         258         257
         4         242         243         259         258
         4         243         244         260         259
         4         244         245         261         260
         4         245         246         262         261
         4         246         247         263         262
         4         247         248         264         263
         4         248         249         265         264
         4         249         250         266         265
         4         250         251         267         266
         4         251         252         268         267
         4         252         253         269         268
         4         253         254         270         269
         4         254         255         271         270
         4         256         257         273         272
         4         257         258         274         273
         4         258         259         275         274
         4         259         260         276         275
         4         260         261         277         276
         4         261         262         278         277
         4         262         263         279         278
         4         263         264         280         279
         4         264         265         281         280
         4         265         266         282         281
         4         266         267         283         282
         4         267         268         284         283
         4         268         269         285         284
         4         269         270         286         285
         4         270         271         287         286
         4         272         273         289         288
         4         273         274         290         289
         4         274         275         291         290
         4         275         276         292         291
         4         276         277         293         292
         4         277         278         294         293
         4         278         279         295         294
         4         279         280         296         295
         4         280         281         297         296
         4         281         282         298         297
         4         282         283         299         298
         4         283         284         300         299
         4         284         285         301         300
         4         285         286         302         301
         4         286         287         303         302
         4         288         289         305         304
         4         289         290         306         305
         4         290         291         307         306
         4         291         292         308         307
         4         292         293         309         308
         4         293         294         310         309
         4         294         295         311         310
         4         295         296         312         311
         4         296         297         313         312
         4         297         298         314         313
         4         298         299         315         314
         4         299         300         316         315
         4         300         301         317         316
         4         301         302         318         317
         4         302         303         319         318
         4         304         305         321         320
         4         305         306         322         321
         4         306         307         323         322
         4         307         308         324         323
         4         308         309         325         324
         4         309         310         326         325
         4         310         311         327         326
         4         311         312         328         327
         4         312         313         329         328
         4         313         314         330         329
         4         314         315         331         330
         4         315         316         332         331
         4         316         317         333         332
         4         317         318         334         333
         4         318         319         335         334
         4         320         321         337         336
         4         321         322         338         337
         4         322         323         339         338
         4         323         324         340         339
         4         324         325         341         340
         4         325         326         342         341
         4         326         327         343         342
         4         327         328         344         343
         4         328         329         345         344
         4         329         330         346         345
         4         330         331         347         346
         4         331         332         348         347
         4         332         333         349         348
         4         333         334         350         349
         4         334         335         351         350
         4         336         337         353         352
         4         337         338         354         353
         4         338         339         355         354
         4         339         340         356         355
         4         340         341         357         356
         4         341         342         358         357
         4         342         343         359         358
         4         343         344         360         359
         4         344         345         361         360
         4         345         346         362         361
         4         346         347         363         362
         4         347         348         364         363
         4         348         349         365         364
         4         349         350         366         365
         4         350         351         367         366
         4         352         353         369         368
         4         353         354         370         369
         4         354         355         371         370
         4         355         356         372         371
         4         356         357         373         372
         4         357         358         374         373
         4         358         359         375         374
         4         359         360         376         375
         4         360         361         377         376
         4         361         362         378         377
         4         362         363         379         378
         4         363         364         380         379
         4         364         365         381         380
         4         365         366         382         381
         4         366         367         383         382
         4         368         369         385         384
         4         369         370         386         385
         4         370         371         387         386
         4         371         372         388         387
         4         372         373         389         388
         4         373         374         390         389
         4         374         375         391         390
         4         375         376         392         391
         4         376         377         393         392
         4         377         378         394         393
         4         378         379         395         394
         4         379         380         396         395
         4         380         381         397         396
         4         381         382         398         397
         4         382         383         399         398
         4         384         385         401         400
         4         385         386         402         401
         4         386         387         403         402
         4         387         388         404         403
         4         388         389         405         404
         4         389         390         406         405
         4         390         391         407         406
         4         391         392         408         407
         4         392         393         409         408
         4         393         394         410         409
         4         394         395         411         410
         4         395         396         412         411
         4         396         397         413         412
         4         397         398         414         413
         4         398         399         415         414
         4         400         401         417         416
         4         401         402         418         417
         4         402         403         419         418
         4         403         404         420         419
         4         404         405         421         420
         4         405         406         422         421
         4         406         407         423         422
         4         407         408         424         423
         4         408         409         425         424
         4         409         410         426         425
         4         410         411         427         426
         4         411         412         428         427
         4         412         413         429         428
         4         413         414         430         429
         4         414         415         431         430
         4         416         417         433         432
         4         417         418         434         433
         4         418         419         435         434
         4         419         420         436         435
         4         420         421         437         436
         4         421         422         438         437
         4         422         423         439         438
         4         423         424         440         439
         4         424         425         441         440
         4         425         426         442         441
         4         426         427         443         442
         4         427         428         444         443
         4         428         429         445         444
         4         429         430         446         445
         4         430         431         447         446
         4         432         433         449         448
         4         433         434         450         449
         4         434         435         451         450
         4         435         436         452         451
         4         436         437         453         452
         4         437         438         454         453
         4         438         439         455         454
         4         439         440         456         455
         4         440         441         457         456
         4         441         442         458         457
         4         442         443         459         458
         4         443         444         460         459
         4         444         445         461         460
         4         445         446         462         461
         4         446         447         463         462
         4         448         449         465         464
         4         449         450         466         465
         4         450         451         467         466
         4         451         452         468         467
         4         452         453         469         468
         4         453         454         470         469
         4         454         455         471         470
         4         455         456         472         471
         4         456         457         473         472
         4         457         458         474         473
         4         458         459         475         474
         4         459         460         476         475
         4         460         461         477         476
         4         461         462         478         477
         4         462         463         479         478
         4         464         465         481         480
         4         465         466         482         481
         4         466         467         483         482
         4         467         468         484         483
         4         468         469         485         484
         4         469         470         486         485
         4         470         471         487         486
         4         471         472         488         487
         4         472         473         489         488
         4         473         474         490         489
         4         474         475         491         490
         4         475         476         492         491
         4         476         477         493         492
         4         477         478         494         493
         4         478         479         495         494
CELL_TYPES        450
9
9
9
9
9
9
9
9
9
9
9
9
9
9
9
9
9
9
9
9
9
9
9
9
9
9
9
9
9
9
9
9
9
9
9
9
9
9
9
9
9
9
9
9
9
9
9
9
9
9
9
9
9
9
9
9
9
9
9
9
9
9
9
9
9
9
9
9
9
9
9
9
9
9
9
9
9
9
9
9
9
9
9
9
9
9
9
9
9
9
9
9
9
9
9
9
9
9
9
9
9
9
9
9
9
9
9
9
9
9
9
9
9
9
9
9
9
9
9
9
9
9
9
9
9
9
9
9
9
9
9
9
9
9
9
9
9
9
9
9
9
9
9
9
9
9
9
9
9
9
9
9
9
9
9
9
9
9
9
9
9
9
9
9
9
9
9
9
9
9
9
9
9
9
9
9
9
9
9
9
9
9
9
9
9
9
9
9
9
9
9
9
9
9
9
9
9
9
9
9
9
9
9
9
9
9
9
9
9
9
9
9
9
9
9
9
9
9
9
9
9
9
9
9
9
9
9
9
9
9
9
9
9
9
9
9
9
9
9
9
9
9
9
9
9
9
9
9
9
9
9
9
9
9
9
9
9
9
9
9
9
9
9
9
9
9
9
9
9
9
9
9
9
9
9
9
9
9
9
9
9
9
9
9
9
9
9
9
9
9
9
9
9
9
9
9
9
9
9
9
9
9
9
9
9
9
9
9
9
9
9
9
9
9
9
9
9
9
9
9
9
9
9
9
9
9
9
9
9
9
9
9
9
9
9
9
9
9
9
9
9
9
9
9
9
9
9
9
9
9
9
9
9
9
9
9
9
9
9
9
9
9
9
9
9
9
9
9
9
9
9
9
9
9
9
9
9
9
9
9
9
9
9
9
9
9
9
9
9
9
9
9
9
9
9
9
9
9
9
9
9
9
9
9
9
9
9
9
9
9
9
9
9
9
9
9
9
9
9
9
9
9
9
9
9
9
9
9
9
9
9
9
9
9
9
9
9
9
9
9
9
9
9
9
9
9
9
9
9
9
POINT_DATA       496
SCALARS p double 
LOOKUP_TABLE default
   68135482.5933284     
   68152603.6312213     
   68185785.3781384     
   68216398.6297503     
   68245085.6448558     
   68271965.5070538     
   68297308.1272175     
   68321310.6785927     
   68344126.0185092     
   68365889.3946892     
   68386750.2560108     
   68406903.6978232     
   68426643.3449724     
   68446252.9206357     
   68467032.3913130     
   68478120.8847354     
   66623492.4899360     
   66624158.4760363     
   66630146.7522308     
   66642113.5165801     
   66655859.4048631     
   66670201.5169695     
   66684528.6674983     
   66698531.4474057     
   66712026.4111852     
   66724885.5082667     
   66736990.8044670     
   66748187.4524756     
   66758171.4774434     
   66766371.7728216     
   66770012.4148136     
   66770076.6929494     
   65278252.8984063     
   65276156.8408153     
   65273279.6531565     
   65273613.3037797     
   65276896.9749831     
   65281855.3274125     
   65287692.1208997     
   65293876.2797582     
   65300042.2999686     
   65305904.2169184     
   65311190.2332503     
   65315573.9377902     
   65318607.6697693     
   65319521.6969551     
   65318392.2630458     
   65317461.7954276     
   64123331.9524287     
   64121287.2927918     
   64116972.8287642     
   64113185.9698392     
   64111010.2320451     
   64110312.0277583     
   64110619.1422697     
   64111506.2012734     
   64112623.5979161     
   64113676.4636506     
   64114390.2749705     
   64114486.5131724     
   64113682.7387610     
   64111950.7735717     
   64109918.0319471     
   64108955.4320986     
   63161974.8981646     
   63160569.3714120     
   63157036.0170426     
   63152756.0781875     
   63148776.8349794     
   63145493.9152593     
   63142882.0207388     
   63140759.1685186     
   63138916.6956001     
   63137156.4622504     
   63135302.6417244     
   63133219.5307195     
   63130885.4119003     
   63128520.3853087     
   63126668.8566438     
   63125961.1542706     
   62381000.0007331     
   62380156.3521281     
   62377728.1737510     
   62374188.3159041     
   62370218.5998299     
   62366285.6947405     
   62362591.1657511     
   62359164.1756185     
   62355955.3755599     
   62352894.8334294     
   62349927.7784820     
   62347052.4289090     
   62344369.2481464     
   62342120.8883581     
   62340646.3124986     
   62340147.4324834     
   61756370.0752434     
   61755885.2879738     
   61754316.7516631     
   61751699.3631596     
   61748387.3411672     
   61744742.6656755     
   61741015.9554632     
   61737344.9097381     
   61733794.6466336     
   61730400.0078486     
   61727200.7842927     
   61724272.2734583     
   61721748.5141169     
   61719818.5696183     
   61718661.5036699     
   61718294.7878123     
   61259145.8924643     
   61258864.4212409     
   61257862.3898080     
   61256012.7159821     
   61253457.3790350     
   61250426.9604004     
   61247137.3840632     
   61243755.6404471     
   61240404.7618310     
   61237183.3386928     
   61234186.6549297     
   61231523.5137383     
   61229322.1822611     
   61227714.4336288     
   61226786.2596139     
   61226497.8692403     
   60860040.3163656     
   60859877.2194376     
   60859242.9580055     
   60857966.2451458     
   60856067.4748683     
   60853670.7742095     
   60850935.2572733     
   60848017.8223922     
   60845060.9193942     
   60842193.9973089     
   60839539.4617594     
   60837216.7152898     
   60835338.8202873     
   60833996.7617276     
   60833229.8264679     
   60832990.6960944     
   60531976.5615614     
   60531895.4949623     
   60531520.2885946     
   60530661.8894074     
   60529267.6256555     
   60527385.7474088     
   60525124.7788504     
   60522622.0878736     
   60520024.3468051     
   60517476.8311038     
   60515117.1143021     
   60513069.1657264     
   60511434.7517718     
   60510280.5710116     
   60509622.8111682     
   60509416.3880859     
   60250995.5194912     
   60250983.3735239     
   60250807.1375863     
   60250243.3693215     
   60249182.8991560     
   60247620.5332607     
   60245630.5403986     
   60243339.6070515     
   60240902.8077515     
   60238483.8642434     
   60236238.8968928     
   60234302.3496562     
   60232774.1909274     
   60231708.6898125     
   60231107.0834079     
   60230918.9100461     
   59996133.9047225     
   59996182.1656485     
   59996152.1333080     
   59995751.7208063     
   59994813.7434176     
   59993294.5462786     
   59991254.6674471     
   59988830.8991235     
   59986206.1083995     
   59983580.3387280     
   59981144.8170151     
   59979059.6351489     
   59977435.8878547     
   59976323.7091149     
   59975708.6434154     
   59975519.5222933     
   59748798.4789869     
   59748889.5616883     
   59748923.5624505     
   59748498.7265228     
   59747380.9746401     
   59745501.3397563     
   59742932.4804071     
   59739853.0567771     
   59736507.0537497     
   59733163.0072829     
   59730076.3306707     
   59727456.9266053     
   59725444.0583870     
   59724090.8317198     
   59723361.1682407     
   59723142.1757065     
   59491968.9016544     
   59492063.3889136     
   59492011.8930664     
   59491259.5216649     
   59489496.8921085     
   59486648.0922596     
   59482833.9428759     
   59478320.6641633     
   59473462.4385553     
   59468644.1055279     
   59464228.1833187     
   59460509.1664312     
   59457677.7924441     
   59455798.4997281     
   59454804.0417949     
   59454511.3650069     
   59209401.0344868     
   59209422.2629501     
   59209021.6770350     
   59207448.2740736     
   59204316.6126253     
   59199575.6330699     
   59193447.8500580     
   59186352.3513538     
   59178822.5472422     
   59171426.2627181     
   59164692.7565707     
   59159049.4995752     
   59154771.4247102     
   59151946.6302492     
   59150464.3618594     
   59150032.3265219     
   58884899.2327897     
   58884712.3169282     
   58883522.2410898     
   58880344.1318689     
   58874732.4410790     
   58866716.7298188     
   58856701.9875818     
   58845352.8660939     
   58833476.6262636     
   58821913.7585635     
   58811440.1655379     
   58802682.0374450     
   58796044.7765161     
   58791660.1950329     
   58789360.4867379     
   58788691.2727886     
   58501667.3369442     
   58501049.7991280     
   58498366.5948310     
   58492375.4112282     
   58482616.9435041     
   58469295.9719516     
   58453121.0039892     
   58435131.8502210     
   58416535.7580500     
   58398562.0502897     
   58382336.2436849     
   58368770.0135360     
   58358464.2321244     
   58351628.1116643     
   58348026.2861270     
   58346974.5083727     
   58041714.7880345     
   58040315.2743584     
   58035052.3536386     
   58024433.2342911     
   58008083.6666565     
   57986539.2299692     
   57960990.8661245     
   57933030.8406914     
   57904428.4070236     
   57876944.7273311     
   57852180.6548405     
   57831443.2054447     
   57815618.5413404     
   57805050.0968504     
   57799437.0980232     
   57797786.6237515     
   57485271.6096324     
   57482551.3883257     
   57473072.0657085     
   57455156.7040696     
   57428703.8672631     
   57394830.5896296     
   57355471.1248202     
   57313006.2200571     
   57269964.6140340     
   57228802.1527385     
   57191736.1084950     
   57160599.6200025     
   57136685.2718590     
   57120565.7649335     
   57111908.9821280     
   57109337.9752739     
   56810143.4236006     
   56805291.6520759     
   56789171.0910279     
   56760097.3637886     
   56718580.1580819     
   56666717.2850033     
   56607562.0158610     
   56544586.9260159     
   56481302.0667555     
   56421019.2504242     
   56366707.7330576     
   56320867.7100444     
   56285356.3146236     
   56261132.1661155     
   56247933.3120351     
   56243961.3004558     
   55990906.2611720     
   55982712.5401819     
   55956386.9674173     
   55910617.1224360     
   55847119.0966712     
   55769604.7469205     
   55682780.4180362     
   55591580.9149056     
   55500711.3837177     
   55414452.3046654     
   55336610.8723186     
   55270479.1906656     
   55218676.4792080     
   55182800.7730866     
   55162891.3155843     
   55156798.6240378     
   54997788.8403506     
   54984441.4061929     
   54942666.4895945     
   54872278.9958246     
   54777242.0039850     
   54663884.3640411     
   54539310.0526453     
   54410329.3419384     
   54282975.9878225     
   54162474.1771709     
   54053424.8475610     
   53959969.0533529     
   53885719.2077233     
   53833314.0319696     
   53803558.7132499     
   53794263.0718696     
   53794994.9568325     
   53773740.9809169     
   53708707.9562530     
   53602309.7467847     
   53462583.8594316     
   53300060.0632747     
   53125238.4351172     
   52947177.6007420     
   52773150.2820266     
   52609010.5868851     
   52459847.7603256     
   52330550.0131022     
   52225962.3835059     
   52150380.9954202     
   52106244.4784530     
   52092110.5672550     
   52338031.6228465     
   52304565.4608380     
   52204369.0665820     
   52045348.1110347     
   51842863.3540822     
   51614115.7040475     
   51374221.4766496     
   51134598.4905498     
   50903186.8447715     
   50685643.1079189     
   50486791.8633818     
   50311860.4197477     
   50167101.7083444     
   50059373.3420365     
   49994281.9819270     
   49972824.3446879     
   50569213.2544806     
   50516487.5479702     
   50362292.8298983     
   50125898.7172399     
   49835857.6064859     
   49519746.3610836     
   49198412.0586305     
   48884952.3908620     
   48586504.5491238     
   48306922.8907667     
   48049362.0374205     
   47818448.9255174     
   47621768.1812036     
   47469945.0780351     
   47374345.5068103     
   47341760.4951559     
   48409591.6840977     
   48325293.8604556     
   48085708.9948260     
   47734035.0850164     
   47322797.6429428     
   46894830.3765973     
   46476475.9147644     
   46079907.8653583     
   45708571.8814066     
   45362029.4857105     
   45039598.6108752     
   44743545.4479353     
   44481980.5904266     
   44270565.6651694     
   44130568.0159272     
   44080981.4882489     
   45743228.3292206     
   45603758.0492084     
   45222565.2971077     
   44696096.9292722     
   44120234.5385307     
   43556830.5253229     
   43032178.0536606     
   42551119.1244280     
   42109098.6045626     
   41698355.0117049     
   41311810.0346514     
   40946477.7226601     
   40608518.7671846     
   40318735.0638041     
   40114313.0179916     
   40038632.5108965     
   42382599.9084540     
   42135721.8767451     
   41503062.8629967     
   40707624.3610030     
   39922435.0340107     
   39215158.2728821     
   38591801.3267758     
   38040616.2308604     
   37544402.4205870     
   37085725.0580228     
   36649195.1142236     
   36223819.8725994     
   35807253.9329281     
   35421243.7744784     
   35124935.1286208     
   35008793.4207578     
   37975548.0026661     
   37485744.8998108     
   36344796.1257246     
   35163941.4275952     
   34175767.7723859     
   33360403.2068907     
   32682072.6382755     
   32104021.1710030     
   31594732.1970047     
   31127438.6582993     
   30679199.9646580     
   30230464.6052295     
   29767493.6825200     
   29286798.1459116     
   28867693.6868867     
   28692736.6343453     
   31755553.5373975     
   30239299.5873227     
   28122022.2361807     
   26710023.7947003     
   25681899.8512173     
   24907794.4377704     
   24299628.3138749     
   23801084.5689460     
   23372703.5987828     
   22984768.9442741     
   22612933.4172851     
   22235576.1124475     
   21831627.8724616     
   21384713.2638410     
   20858511.7258059     
   20585754.1592728     
   10000000.0000000     
   10000000.0000000     
   10000000.0000000     
   10000000.0000000     
   10000000.0000000     
   10000000.0000000     
   10000000.0000000     
   10000000.0000000     
   10000000.0000000     
   10000000.0000000     
   10000000.0000000     
   10000000.0000000     
   10000000.0000000     
  10000000.00000000     
   10000000.0000000     
   10000000.0000000     
VECTORS u double 
    0.00000E+00         0.27436E+01         0.00000E+00
    0.00000E+00         0.25618E+01         0.00000E+00
    0.00000E+00         0.23851E+01         0.00000E+00
    0.00000E+00         0.22176E+01         0.00000E+00
    0.00000E+00         0.20569E+01         0.00000E+00
    0.00000E+00         0.19006E+01         0.00000E+00
    0.00000E+00         0.17460E+01         0.00000E+00
    0.00000E+00         0.15908E+01         0.00000E+00
    0.00000E+00         0.14328E+01         0.00000E+00
    0.00000E+00         0.12701E+01         0.00000E+00
    0.00000E+00         0.11005E+01         0.00000E+00
    0.00000E+00         0.92164E+00         0.00000E+00
    0.00000E+00         0.73052E+00         0.00000E+00
    0.00000E+00         0.52224E+00         0.00000E+00
    0.00000E+00         0.28789E+00         0.00000E+00
    0.00000E+00         0.00000E+00         0.00000E+00
    0.69677E+00         0.26400E+01         0.00000E+00
    0.58450E+00         0.24933E+01         0.00000E+00
    0.52686E+00         0.23352E+01         0.00000E+00
    0.48645E+00         0.21786E+01         0.00000E+00
    0.45380E+00         0.20254E+01         0.00000E+00
    0.42487E+00         0.18745E+01         0.00000E+00
    0.39776E+00         0.17239E+01         0.00000E+00
    0.37142E+00         0.15718E+01         0.00000E+00
    0.34516E+00         0.14163E+01         0.00000E+00
    0.31834E+00         0.12554E+01         0.00000E+00
    0.29018E+00         0.10874E+01         0.00000E+00
    0.25947E+00         0.90972E+00         0.00000E+00
    0.22408E+00         0.71940E+00         0.00000E+00
    0.17977E+00         0.51164E+00         0.00000E+00
    0.11710E+00         0.27758E+00         0.00000E+00
    0.00000E+00         0.00000E+00         0.00000E+00
    0.13013E+01         0.24259E+01         0.00000E+00
    0.11126E+01         0.23195E+01         0.00000E+00
    0.99664E+00         0.21985E+01         0.00000E+00
    0.91393E+00         0.20688E+01         0.00000E+00
    0.84668E+00         0.19352E+01         0.00000E+00
    0.78722E+00         0.17988E+01         0.00000E+00
    0.73171E+00         0.16595E+01         0.00000E+00
    0.67801E+00         0.15162E+01         0.00000E+00
    0.62469E+00         0.13678E+01         0.00000E+00
    0.57047E+00         0.12128E+01         0.00000E+00
    0.51380E+00         0.10495E+01         0.00000E+00
    0.45238E+00         0.87564E+00         0.00000E+00
    0.38230E+00         0.68850E+00         0.00000E+00
    0.29635E+00         0.48386E+00         0.00000E+00
    0.17898E+00         0.25552E+00         0.00000E+00
    0.00000E+00         0.00000E+00         0.00000E+00
    0.18202E+01         0.21579E+01         0.00000E+00
    0.15849E+01         0.20864E+01         0.00000E+00
    0.14202E+01         0.20017E+01         0.00000E+00
    0.12954E+01         0.19039E+01         0.00000E+00
    0.11920E+01         0.17960E+01         0.00000E+00
    0.11003E+01         0.16803E+01         0.00000E+00
    0.10148E+01         0.15575E+01         0.00000E+00
    0.93255E+00         0.14278E+01         0.00000E+00
    0.85125E+00         0.12906E+01         0.00000E+00
    0.76904E+00         0.11450E+01         0.00000E+00
    0.68372E+00         0.98970E+00         0.00000E+00
    0.59220E+00         0.82301E+00         0.00000E+00
    0.48954E+00         0.64270E+00         0.00000E+00
    0.36731E+00         0.44608E+00         0.00000E+00
    0.21125E+00         0.23123E+00         0.00000E+00
    0.00000E+00         0.00000E+00         0.00000E+00
    0.22684E+01         0.18638E+01         0.00000E+00
    0.20057E+01         0.18217E+01         0.00000E+00
    0.18031E+01         0.17683E+01         0.00000E+00
    0.16398E+01         0.17008E+01         0.00000E+00
    0.15005E+01         0.16199E+01         0.00000E+00
    0.13755E+01         0.15273E+01         0.00000E+00
    0.12589E+01         0.14242E+01         0.00000E+00
    0.11469E+01         0.13112E+01         0.00000E+00
    0.10369E+01         0.11885E+01         0.00000E+00
    0.92635E+00         0.10556E+01         0.00000E+00
    0.81265E+00         0.91176E+00         0.00000E+00
    0.69229E+00         0.75590E+00         0.00000E+00
    0.56016E+00         0.58672E+00         0.00000E+00
    0.40856E+00         0.40332E+00         0.00000E+00
    0.22649E+00         0.20633E+00         0.00000E+00
    0.00000E+00         0.00000E+00         0.00000E+00
    0.26616E+01         0.15591E+01         0.00000E+00
    0.23827E+01         0.15414E+01         0.00000E+00
    0.21510E+01         0.15141E+01         0.00000E+00
    0.19538E+01         0.14732E+01         0.00000E+00
    0.17801E+01         0.14176E+01         0.00000E+00
    0.16219E+01         0.13481E+01         0.00000E+00
    0.14738E+01         0.12658E+01         0.00000E+00
    0.13316E+01         0.11715E+01         0.00000E+00
    0.11924E+01         0.10656E+01         0.00000E+00
    0.10536E+01         0.94831E+00         0.00000E+00
    0.91218E+00         0.81920E+00         0.00000E+00
    0.76472E+00         0.67783E+00         0.00000E+00
    0.60657E+00         0.52389E+00         0.00000E+00
    0.43160E+00         0.35774E+00         0.00000E+00
    0.23217E+00         0.18144E+00         0.00000E+00
    0.00000E+00         0.00000E+00         0.00000E+00
    0.30138E+01         0.12516E+01         0.00000E+00
    0.27248E+01         0.12540E+01         0.00000E+00
    0.24699E+01         0.12484E+01         0.00000E+00
    0.22430E+01         0.12299E+01         0.00000E+00
    0.20372E+01         0.11969E+01         0.00000E+00
    0.18469E+01         0.11493E+01         0.00000E+00
    0.16673E+01         0.10878E+01         0.00000E+00
    0.14950E+01         0.10131E+01         0.00000E+00
    0.13269E+01         0.92588E+00         0.00000E+00
    0.11603E+01         0.82646E+00         0.00000E+00
    0.99220E+00         0.71492E+00         0.00000E+00
    0.81952E+00         0.59134E+00         0.00000E+00
    0.63845E+00         0.45608E+00         0.00000E+00
    0.44456E+00         0.31029E+00         0.00000E+00
    0.23312E+00         0.15663E+00         0.00000E+00
    0.00000E+00         0.00000E+00         0.00000E+00
    0.33375E+01         0.94394E+00         0.00000E+00
    0.30406E+01         0.96332E+00         0.00000E+00
    0.27660E+01         0.97551E+00         0.00000E+00
    0.25124E+01         0.97604E+00         0.00000E+00
    0.22768E+01         0.96285E+00         0.00000E+00
    0.20557E+01         0.93541E+00         0.00000E+00
    0.18458E+01         0.89406E+00         0.00000E+00
    0.16440E+01         0.83941E+00         0.00000E+00
    0.14477E+01         0.77204E+00         0.00000E+00
    0.12541E+01         0.69243E+00         0.00000E+00
    0.10606E+01         0.60094E+00         0.00000E+00
    0.86451E+00         0.49796E+00         0.00000E+00
    0.66297E+00         0.38424E+00         0.00000E+00
    0.45311E+00         0.26126E+00         0.00000E+00
    0.23250E+00         0.13172E+00         0.00000E+00
    0.00000E+00         0.00000E+00         0.00000E+00
    0.36428E+01         0.63554E+00         0.00000E+00
    0.33374E+01         0.66941E+00         0.00000E+00
    0.30444E+01         0.69665E+00         0.00000E+00
    0.27662E+01         0.71340E+00         0.00000E+00
    0.25028E+01         0.71769E+00         0.00000E+00
    0.22526E+01         0.70883E+00         0.00000E+00
    0.20136E+01         0.68691E+00         0.00000E+00
    0.17836E+01         0.65240E+00         0.00000E+00
    0.15601E+01         0.60582E+00         0.00000E+00
    0.13408E+01         0.54765E+00         0.00000E+00
    0.11233E+01         0.47832E+00         0.00000E+00
    0.90548E+00         0.39836E+00         0.00000E+00
    0.68525E+00         0.30860E+00         0.00000E+00
    0.46109E+00         0.21049E+00         0.00000E+00
    0.23237E+00         0.10642E+00         0.00000E+00
    0.00000E+00         0.00000E+00         0.00000E+00
    0.39376E+01         0.32335E+00         0.00000E+00
    0.36215E+01         0.37006E+00         0.00000E+00
    0.33099E+01         0.41038E+00         0.00000E+00
    0.30081E+01         0.44135E+00         0.00000E+00
    0.27182E+01         0.46137E+00         0.00000E+00
    0.24406E+01         0.46984E+00         0.00000E+00
    0.21742E+01         0.46680E+00         0.00000E+00
    0.19175E+01         0.45262E+00         0.00000E+00
    0.16684E+01         0.42770E+00         0.00000E+00
    0.14249E+01         0.39246E+00         0.00000E+00
    0.11848E+01         0.34725E+00         0.00000E+00
    0.94659E+00         0.29250E+00         0.00000E+00
    0.70884E+00         0.22889E+00         0.00000E+00
    0.47110E+00         0.15755E+00         0.00000E+00
    0.23404E+00         0.80355E-01         0.00000E+00
    0.00000E+00         0.00000E+00         0.00000E+00
    0.42279E+01         0.27967E-02         0.00000E+00
    0.38973E+01         0.61328E-01         0.00000E+00
    0.35658E+01         0.11351E+00         0.00000E+00
    0.32406E+01         0.15741E+00         0.00000E+00
    0.29254E+01         0.19204E+00         0.00000E+00
    0.26219E+01         0.21711E+00         0.00000E+00
    0.23299E+01         0.23276E+00         0.00000E+00
    0.20483E+01         0.23929E+00         0.00000E+00
    0.17754E+01         0.23705E+00         0.00000E+00
    0.15093E+01         0.22627E+00         0.00000E+00
    0.12482E+01         0.20710E+00         0.00000E+00
    0.99079E+00         0.17971E+00         0.00000E+00
    0.73624E+00         0.14441E+00         0.00000E+00
    0.48488E+00         0.10183E+00         0.00000E+00
    0.23834E+00         0.53106E-01         0.00000E+00
    0.00000E+00         0.00000E+00         0.00000E+00
    0.45179E+01        -0.33177E+00         0.00000E+00
    0.41682E+01        -0.26189E+00         0.00000E+00
    0.38145E+01        -0.19847E+00         0.00000E+00
    0.34654E+01        -0.14228E+00         0.00000E+00
    0.31257E+01        -0.93531E-01         0.00000E+00
    0.27978E+01        -0.52050E-01         0.00000E+00
    0.24820E+01        -0.17480E-01         0.00000E+00
    0.21776E+01         0.10535E-01         0.00000E+00
    0.18830E+01         0.32222E-01         0.00000E+00
    0.15963E+01         0.47615E-01         0.00000E+00
    0.13157E+01         0.56568E-01         0.00000E+00
    0.10402E+01         0.58827E-01         0.00000E+00
    0.76918E+00         0.54163E-01         0.00000E+00
    0.50364E+00         0.42530E-01         0.00000E+00
    0.24586E+00         0.24222E-01         0.00000E+00
    0.00000E+00         0.00000E+00         0.00000E+00
    0.48096E+01        -0.68672E+00         0.00000E+00
    0.44356E+01        -0.60553E+00         0.00000E+00
    0.40571E+01        -0.53097E+00         0.00000E+00
    0.36833E+01        -0.46258E+00         0.00000E+00
    0.33196E+01        -0.39963E+00         0.00000E+00
    0.29688E+01        -0.34138E+00         0.00000E+00
    0.26315E+01        -0.28714E+00         0.00000E+00
    0.23066E+01        -0.23647E+00         0.00000E+00
    0.19926E+01        -0.18923E+00         0.00000E+00
    0.16873E+01        -0.14562E+00         0.00000E+00
    0.13889E+01        -0.10620E+00         0.00000E+00
    0.10962E+01        -0.71733E-01         0.00000E+00
    0.80898E+00        -0.43132E-01         0.00000E+00
    0.52830E+00        -0.21263E-01         0.00000E+00
    0.25706E+00        -0.67851E-02         0.00000E+00
    0.00000E+00         0.00000E+00         0.00000E+00
    0.51039E+01        -0.10689E+01         0.00000E+00
    0.47000E+01        -0.97609E+00         0.00000E+00
    0.42935E+01        -0.89006E+00         0.00000E+00
    0.38940E+01        -0.80903E+00         0.00000E+00
    0.35070E+01        -0.73127E+00         0.00000E+00
    0.31351E+01        -0.65535E+00         0.00000E+00
    0.27784E+01        -0.58019E+00         0.00000E+00
    0.24358E+01        -0.50520E+00         0.00000E+00
    0.21049E+01        -0.43034E+00         0.00000E+00
    0.17835E+01        -0.35609E+00         0.00000E+00
    0.14691E+01        -0.28346E+00         0.00000E+00
    0.11602E+01        -0.21384E+00         0.00000E+00
    0.85670E+00        -0.14894E+00         0.00000E+00
    0.55968E+00        -0.90561E-01         0.00000E+00
    0.27234E+00        -0.40431E-01         0.00000E+00
    0.00000E+00         0.00000E+00         0.00000E+00
    0.53996E+01        -0.14856E+01         0.00000E+00
    0.49599E+01        -0.13804E+01         0.00000E+00
    0.45225E+01        -0.12822E+01         0.00000E+00
    0.40965E+01        -0.11876E+01         0.00000E+00
    0.36869E+01        -0.10939E+01         0.00000E+00
    0.32957E+01        -0.99889E+00         0.00000E+00
    0.29224E+01        -0.90102E+00         0.00000E+00
    0.25650E+01        -0.79956E+00         0.00000E+00
    0.22204E+01        -0.69455E+00         0.00000E+00
    0.18853E+01        -0.58677E+00         0.00000E+00
    0.15570E+01        -0.47775E+00         0.00000E+00
    0.12332E+01        -0.36959E+00         0.00000E+00
    0.91332E+00        -0.26487E+00         0.00000E+00
    0.59853E+00        -0.16645E+00         0.00000E+00
    0.29217E+00        -0.77258E-01         0.00000E+00
    0.00000E+00         0.00000E+00         0.00000E+00
    0.56938E+01        -0.19440E+01         0.00000E+00
    0.52128E+01        -0.18254E+01         0.00000E+00
    0.47415E+01        -0.17139E+01         0.00000E+00
    0.42882E+01        -0.16044E+01         0.00000E+00
    0.38572E+01        -0.14932E+01         0.00000E+00
    0.34492E+01        -0.13771E+01         0.00000E+00
    0.30624E+01        -0.12542E+01         0.00000E+00
    0.26937E+01        -0.11236E+01         0.00000E+00
    0.23388E+01        -0.98542E+00         0.00000E+00
    0.19933E+01        -0.84076E+00         0.00000E+00
    0.16533E+01        -0.69170E+00         0.00000E+00
    0.13158E+01        -0.54112E+00         0.00000E+00
    0.97971E+00        -0.39257E+00         0.00000E+00
    0.64567E+00        -0.25005E+00         0.00000E+00
    0.31703E+00        -0.11782E+00         0.00000E+00
    0.00000E+00         0.00000E+00         0.00000E+00
    0.59820E+01        -0.24513E+01         0.00000E+00
    0.54541E+01        -0.23181E+01         0.00000E+00
    0.49464E+01        -0.21917E+01         0.00000E+00
    0.44659E+01        -0.20656E+01         0.00000E+00
    0.40152E+01        -0.19346E+01         0.00000E+00
    0.35933E+01        -0.17950E+01         0.00000E+00
    0.31969E+01        -0.16443E+01         0.00000E+00
    0.28209E+01        -0.14813E+01         0.00000E+00
    0.24597E+01        -0.13064E+01         0.00000E+00
    0.21072E+01        -0.11211E+01         0.00000E+00
    0.17583E+01        -0.92790E+00         0.00000E+00
    0.14089E+01        -0.73059E+00         0.00000E+00
    0.10567E+01        -0.53370E+00         0.00000E+00
    0.70188E+00        -0.34250E+00         0.00000E+00
    0.34748E+00        -0.16269E+00         0.00000E+00
    0.00000E+00         0.00000E+00         0.00000E+00
    0.62576E+01        -0.30145E+01         0.00000E+00
    0.56779E+01        -0.28650E+01         0.00000E+00
    0.51320E+01        -0.27217E+01         0.00000E+00
    0.46249E+01        -0.25767E+01         0.00000E+00
    0.41569E+01        -0.24234E+01         0.00000E+00
    0.37249E+01        -0.22572E+01         0.00000E+00
    0.33233E+01        -0.20752E+01         0.00000E+00
    0.29449E+01        -0.18762E+01         0.00000E+00
    0.25819E+01        -0.16606E+01         0.00000E+00
    0.22267E+01        -0.14304E+01         0.00000E+00
    0.18721E+01        -0.11886E+01         0.00000E+00
    0.15128E+01        -0.93992E+00         0.00000E+00
    0.11450E+01        -0.68980E+00         0.00000E+00
    0.76791E+00        -0.44488E+00         0.00000E+00
    0.38408E+00        -0.21242E+00         0.00000E+00
    0.00000E+00         0.00000E+00         0.00000E+00
    0.65122E+01        -0.36400E+01         0.00000E+00
    0.58764E+01        -0.34721E+01         0.00000E+00
    0.52913E+01        -0.33096E+01         0.00000E+00
    0.47592E+01        -0.31428E+01         0.00000E+00
    0.42775E+01        -0.29639E+01         0.00000E+00
    0.38401E+01        -0.27674E+01         0.00000E+00
    0.34386E+01        -0.25501E+01         0.00000E+00
    0.30632E+01        -0.23109E+01         0.00000E+00
    0.27038E+01        -0.20503E+01         0.00000E+00
    0.23503E+01        -0.17706E+01         0.00000E+00
    0.19940E+01        -0.14757E+01         0.00000E+00
    0.16272E+01        -0.11707E+01         0.00000E+00
    0.12448E+01        -0.86220E+00         0.00000E+00
    0.84433E+00        -0.55816E+00         0.00000E+00
    0.42735E+00        -0.26754E+00         0.00000E+00
    0.00000E+00         0.00000E+00         0.00000E+00
    0.67349E+01        -0.43336E+01         0.00000E+00
    0.60400E+01        -0.41447E+01         0.00000E+00
    0.54160E+01        -0.39600E+01         0.00000E+00
    0.48618E+01        -0.37678E+01         0.00000E+00
    0.43710E+01        -0.35592E+01         0.00000E+00
    0.39340E+01        -0.33281E+01         0.00000E+00
    0.35387E+01        -0.30710E+01         0.00000E+00
    0.31725E+01        -0.27868E+01         0.00000E+00
    0.28224E+01        -0.24766E+01         0.00000E+00
    0.24761E+01        -0.21429E+01         0.00000E+00
    0.21223E+01        -0.17900E+01         0.00000E+00
    0.17514E+01        -0.14239E+01         0.00000E+00
    0.13558E+01        -0.10519E+01         0.00000E+00
    0.93132E+00        -0.68316E+00         0.00000E+00
    0.47764E+00        -0.32855E+00         0.00000E+00
    0.00000E+00         0.00000E+00         0.00000E+00
    0.69128E+01        -0.50997E+01         0.00000E+00
    0.61568E+01        -0.48867E+01         0.00000E+00
    0.54958E+01        -0.46761E+01         0.00000E+00
    0.49240E+01        -0.44542E+01         0.00000E+00
    0.44304E+01        -0.42110E+01         0.00000E+00
    0.40005E+01        -0.39399E+01         0.00000E+00
    0.36185E+01        -0.36377E+01         0.00000E+00
    0.32682E+01        -0.33035E+01         0.00000E+00
    0.29338E+01        -0.29388E+01         0.00000E+00
    0.26003E+01        -0.25466E+01         0.00000E+00
    0.22542E+01        -0.21315E+01         0.00000E+00
    0.18830E+01        -0.16997E+01         0.00000E+00
    0.14768E+01        -0.12592E+01         0.00000E+00
    0.10284E+01        -0.82046E+00         0.00000E+00
    0.53502E+00        -0.39586E+00         0.00000E+00
    0.00000E+00         0.00000E+00         0.00000E+00
    0.70300E+01        -0.59416E+01         0.00000E+00
    0.62131E+01        -0.57005E+01         0.00000E+00
    0.55190E+01        -0.54593E+01         0.00000E+00
    0.49361E+01        -0.52023E+01         0.00000E+00
    0.44472E+01        -0.49185E+01         0.00000E+00
    0.40325E+01        -0.46012E+01         0.00000E+00
    0.36715E+01        -0.42477E+01         0.00000E+00
    0.33443E+01        -0.38580E+01         0.00000E+00
    0.30322E+01        -0.34340E+01         0.00000E+00
    0.27177E+01        -0.29792E+01         0.00000E+00
    0.23846E+01        -0.24981E+01         0.00000E+00
    0.20181E+01        -0.19970E+01         0.00000E+00
    0.16048E+01        -0.14841E+01         0.00000E+00
    0.11340E+01        -0.97032E+00         0.00000E+00
    0.59901E+00        -0.46984E+00         0.00000E+00
    0.00000E+00         0.00000E+00         0.00000E+00
    0.70681E+01        -0.68605E+01         0.00000E+00
    0.61926E+01        -0.65866E+01         0.00000E+00
    0.54719E+01        -0.63090E+01         0.00000E+00
    0.48866E+01        -0.60100E+01         0.00000E+00
    0.44121E+01        -0.56779E+01         0.00000E+00
    0.40218E+01        -0.53068E+01         0.00000E+00
    0.36899E+01        -0.48951E+01         0.00000E+00
    0.33930E+01        -0.44440E+01         0.00000E+00
    0.31095E+01        -0.39563E+01         0.00000E+00
    0.28200E+01        -0.34355E+01         0.00000E+00
    0.25060E+01        -0.28861E+01         0.00000E+00
    0.21499E+01        -0.23134E+01         0.00000E+00
    0.17347E+01        -0.17252E+01         0.00000E+00
    0.12448E+01        -0.11326E+01         0.00000E+00
    0.66830E+00        -0.55072E+00         0.00000E+00
    0.00000E+00         0.00000E+00         0.00000E+00
    0.70051E+01        -0.78556E+01         0.00000E+00
    0.60762E+01        -0.75427E+01         0.00000E+00
    0.53388E+01        -0.72212E+01         0.00000E+00
    0.47632E+01        -0.68712E+01         0.00000E+00
    0.43146E+01        -0.64812E+01         0.00000E+00
    0.39586E+01        -0.60471E+01         0.00000E+00
    0.36639E+01        -0.55694E+01         0.00000E+00
    0.34037E+01        -0.50510E+01         0.00000E+00
    0.31545E+01        -0.44958E+01         0.00000E+00
    0.28955E+01        -0.39071E+01         0.00000E+00
    0.26067E+01        -0.32886E+01         0.00000E+00
    0.22678E+01        -0.26443E+01         0.00000E+00
    0.18577E+01        -0.19803E+01         0.00000E+00
    0.13551E+01        -0.13065E+01         0.00000E+00
    0.74030E+00        -0.63867E+00         0.00000E+00
    0.00000E+00         0.00000E+00         0.00000E+00
    0.68149E+01        -0.89230E+01         0.00000E+00
    0.58421E+01        -0.85634E+01         0.00000E+00
    0.51024E+01        -0.81881E+01         0.00000E+00
    0.45520E+01        -0.77753E+01         0.00000E+00
    0.41430E+01        -0.73151E+01         0.00000E+00
    0.38315E+01        -0.68068E+01         0.00000E+00
    0.35811E+01        -0.62544E+01         0.00000E+00
    0.33625E+01        -0.56632E+01         0.00000E+00
    0.31516E+01        -0.50379E+01         0.00000E+00
    0.29276E+01        -0.43815E+01         0.00000E+00
    0.26696E+01        -0.36960E+01         0.00000E+00
    0.23557E+01        -0.29829E+01         0.00000E+00
    0.19604E+01        -0.22454E+01         0.00000E+00
    0.14553E+01        -0.14907E+01         0.00000E+00
    0.81046E+00        -0.73375E+00         0.00000E+00
    0.00000E+00         0.00000E+00         0.00000E+00
    0.64664E+01        -0.10055E+02         0.00000E+00
    0.54644E+01        -0.96386E+01         0.00000E+00
    0.47434E+01        -0.91961E+01         0.00000E+00
    0.42384E+01        -0.87046E+01         0.00000E+00
    0.38841E+01        -0.81585E+01         0.00000E+00
    0.36264E+01        -0.75632E+01         0.00000E+00
    0.34249E+01        -0.69274E+01         0.00000E+00
    0.32502E+01        -0.62591E+01         0.00000E+00
    0.30794E+01        -0.55631E+01         0.00000E+00
    0.28929E+01        -0.48417E+01         0.00000E+00
    0.26708E+01        -0.40943E+01         0.00000E+00
    0.23902E+01        -0.33191E+01         0.00000E+00
    0.20223E+01        -0.25145E+01         0.00000E+00
    0.15306E+01        -0.16830E+01         0.00000E+00
    0.87120E+00        -0.83590E+00         0.00000E+00
    0.00000E+00         0.00000E+00         0.00000E+00
    0.59206E+01        -0.11240E+02         0.00000E+00
    0.49127E+01        -0.10752E+02         0.00000E+00
    0.42408E+01        -0.10223E+02         0.00000E+00
    0.38064E+01        -0.96308E+01         0.00000E+00
    0.35216E+01        -0.89794E+01         0.00000E+00
    0.33237E+01        -0.82837E+01         0.00000E+00
    0.31720E+01        -0.75579E+01         0.00000E+00
    0.30400E+01        -0.68109E+01         0.00000E+00
    0.29082E+01        -0.60470E+01         0.00000E+00
    0.27597E+01        -0.52664E+01         0.00000E+00
    0.25770E+01        -0.44657E+01         0.00000E+00
    0.23382E+01        -0.36389E+01         0.00000E+00
    0.20130E+01        -0.27787E+01         0.00000E+00
    0.15572E+01        -0.18794E+01         0.00000E+00
    0.91013E+00        -0.94488E+00         0.00000E+00
    0.00000E+00         0.00000E+00         0.00000E+00
    0.51268E+01        -0.12458E+02         0.00000E+00
    0.41507E+01        -0.11877E+02         0.00000E+00
    0.35723E+01        -0.11232E+02         0.00000E+00
    0.32373E+01        -0.10509E+02         0.00000E+00
    0.30320E+01        -0.97306E+01         0.00000E+00
    0.28932E+01        -0.89252E+01         0.00000E+00
    0.27870E+01        -0.81081E+01         0.00000E+00
    0.26928E+01        -0.72864E+01         0.00000E+00
    0.25961E+01        -0.64616E+01         0.00000E+00
    0.24842E+01        -0.56310E+01         0.00000E+00
    0.23429E+01        -0.47883E+01         0.00000E+00
    0.21535E+01        -0.39238E+01         0.00000E+00
    0.18879E+01        -0.30243E+01         0.00000E+00
    0.14984E+01        -0.20732E+01         0.00000E+00
    0.90644E+00        -0.10600E+01         0.00000E+00
    0.00000E+00         0.00000E+00         0.00000E+00
    0.40120E+01        -0.13677E+02         0.00000E+00
    0.31346E+01        -0.12969E+02         0.00000E+00
    0.27149E+01        -0.12156E+02         0.00000E+00
    0.24999E+01        -0.11262E+02         0.00000E+00
    0.23704E+01        -0.10347E+02         0.00000E+00
    0.22820E+01        -0.94351E+01         0.00000E+00
    0.22128E+01        -0.85365E+01         0.00000E+00
    0.21498E+01        -0.76520E+01         0.00000E+00
    0.20836E+01        -0.67785E+01         0.00000E+00
    0.20059E+01        -0.59101E+01         0.00000E+00
    0.19069E+01        -0.50381E+01         0.00000E+00
    0.17730E+01        -0.41505E+01         0.00000E+00
    0.15821E+01        -0.32302E+01         0.00000E+00
    0.12944E+01        -0.22515E+01         0.00000E+00
    0.82289E+00        -0.11783E+01         0.00000E+00
    0.00000E+00         0.00000E+00         0.00000E+00
    0.24476E+01        -0.14858E+02         0.00000E+00
    0.18223E+01        -0.13921E+02         0.00000E+00
    0.16206E+01        -0.12848E+02         0.00000E+00
    0.15101E+01        -0.11780E+02         0.00000E+00
    0.14410E+01        -0.10750E+02         0.00000E+00
    0.13917E+01        -0.97600E+01         0.00000E+00
    0.13521E+01        -0.88047E+01         0.00000E+00
    0.13158E+01        -0.78784E+01         0.00000E+00
    0.12781E+01        -0.69737E+01         0.00000E+00
    0.12346E+01        -0.60821E+01         0.00000E+00
    0.11800E+01        -0.51934E+01         0.00000E+00
    0.11070E+01        -0.42945E+01         0.00000E+00
    0.10036E+01        -0.33673E+01         0.00000E+00
    0.84640E+00        -0.23840E+01         0.00000E+00
    0.58340E+00        -0.12928E+01         0.00000E+00
    0.00000E+00         0.00000E+00         0.00000E+00
    0.00000E+00        -0.15737E+02         0.00000E+00
    0.00000E+00        -0.14334E+02         0.00000E+00
    0.00000E+00        -0.13091E+02         0.00000E+00
    0.00000E+00        -0.11952E+02         0.00000E+00
    0.00000E+00        -0.10881E+02         0.00000E+00
    0.00000E+00        -0.98636E+01         0.00000E+00
    0.00000E+00        -0.88897E+01         0.00000E+00
    0.00000E+00        -0.79499E+01         0.00000E+00
    0.00000E+00        -0.70351E+01         0.00000E+00
    0.00000E+00        -0.61360E+01         0.00000E+00
    0.00000E+00        -0.52419E+01         0.00000E+00
    0.00000E+00        -0.43396E+01         0.00000E+00
    0.00000E+00        -0.34112E+01         0.00000E+00
    0.00000E+00        -0.24287E+01         0.00000E+00
    0.00000E+00        -0.13436E+01         0.00000E+00
    0.00000E+00         0.00000E+00         0.00000E+00
CELL_DATA        450
VECTORS vDarcy double 
    0.10854E-05         0.63495E-08         0.00000E+00
    0.10744E-05         0.13646E-07         0.00000E+00
    0.10743E-05         0.14615E-07         0.00000E+00
    0.10740E-05         0.14405E-07         0.00000E+00
    0.10738E-05         0.13872E-07         0.00000E+00
    0.10736E-05         0.13249E-07         0.00000E+00
    0.10734E-05         0.12608E-07         0.00000E+00
    0.10732E-05         0.11972E-07         0.00000E+00
    0.10730E-05         0.11350E-07         0.00000E+00
    0.10728E-05         0.10747E-07         0.00000E+00
    0.10726E-05         0.10164E-07         0.00000E+00
    0.10725E-05         0.95815E-08         0.00000E+00
    0.10724E-05         0.89067E-08         0.00000E+00
    0.10726E-05         0.77566E-08         0.00000E+00
    0.10665E-05         0.34933E-08         0.00000E+00
    0.92092E-06        -0.48899E-09         0.00000E+00
    0.91245E-06         0.10495E-08         0.00000E+00
    0.90823E-06         0.40991E-08         0.00000E+00
    0.90660E-06         0.56194E-08         0.00000E+00
    0.90551E-06         0.63155E-08         0.00000E+00
    0.90464E-06         0.65494E-08         0.00000E+00
    0.90386E-06         0.65130E-08         0.00000E+00
    0.90313E-06         0.63042E-08         0.00000E+00
    0.90245E-06         0.59678E-08         0.00000E+00
    0.90180E-06         0.55131E-08         0.00000E+00
    0.90117E-06         0.49120E-08         0.00000E+00
    0.90050E-06         0.40814E-08         0.00000E+00
    0.89966E-06         0.28408E-08         0.00000E+00
    0.89735E-06         0.77746E-09         0.00000E+00
    0.89366E-06        -0.26653E-09         0.00000E+00
    0.76075E-06        -0.13638E-08         0.00000E+00
    0.75671E-06        -0.23546E-08         0.00000E+00
    0.75260E-06        -0.11218E-08         0.00000E+00
    0.74978E-06         0.35709E-09         0.00000E+00
    0.74781E-06         0.13629E-08         0.00000E+00
    0.74624E-06         0.19521E-08         0.00000E+00
    0.74488E-06         0.22324E-08         0.00000E+00
    0.74364E-06         0.22855E-08         0.00000E+00
    0.74249E-06         0.21575E-08         0.00000E+00
    0.74138E-06         0.18619E-08         0.00000E+00
    0.74028E-06         0.13831E-08         0.00000E+00
    0.73908E-06         0.68500E-09         0.00000E+00
    0.73752E-06        -0.25005E-09         0.00000E+00
    0.73552E-06        -0.96266E-09         0.00000E+00
    0.73390E-06        -0.57482E-09         0.00000E+00
    0.61587E-06        -0.11055E-08         0.00000E+00
    0.61427E-06        -0.25099E-08         0.00000E+00
    0.61132E-06        -0.25679E-08         0.00000E+00
    0.60846E-06        -0.19479E-08         0.00000E+00
    0.60607E-06        -0.12521E-08         0.00000E+00
    0.60405E-06        -0.72039E-09         0.00000E+00
    0.60227E-06        -0.38395E-09         0.00000E+00
    0.60066E-06        -0.22398E-09         0.00000E+00
    0.59917E-06        -0.21732E-09         0.00000E+00
    0.59774E-06        -0.34845E-09         0.00000E+00
    0.59632E-06        -0.60439E-09         0.00000E+00
    0.59485E-06        -0.95037E-09         0.00000E+00
    0.59330E-06        -0.12362E-08         0.00000E+00
    0.59188E-06        -0.11690E-08         0.00000E+00
    0.59131E-06        -0.50231E-09         0.00000E+00
    0.49137E-06        -0.70782E-09         0.00000E+00
    0.49074E-06        -0.18757E-08         0.00000E+00
    0.48872E-06        -0.24532E-08         0.00000E+00
    0.48629E-06        -0.24825E-08         0.00000E+00
    0.48393E-06        -0.22417E-08         0.00000E+00
    0.48178E-06        -0.19483E-08         0.00000E+00
    0.47983E-06        -0.17050E-08         0.00000E+00
    0.47804E-06        -0.15434E-08         0.00000E+00
    0.47638E-06        -0.14653E-08         0.00000E+00
    0.47481E-06        -0.14583E-08         0.00000E+00
    0.47329E-06        -0.14933E-08         0.00000E+00
    0.47183E-06        -0.15053E-08         0.00000E+00
    0.47049E-06        -0.13800E-08         0.00000E+00
    0.46951E-06        -0.99314E-09         0.00000E+00
    0.46931E-06        -0.36025E-09         0.00000E+00
    0.38898E-06        -0.41375E-09         0.00000E+00
    0.38855E-06        -0.12447E-08         0.00000E+00
    0.38708E-06        -0.19130E-08         0.00000E+00
    0.38511E-06        -0.22536E-08         0.00000E+00
    0.38300E-06        -0.23341E-08         0.00000E+00
    0.38095E-06        -0.22742E-08         0.00000E+00
    0.37903E-06        -0.21637E-08         0.00000E+00
    0.37724E-06        -0.20497E-08         0.00000E+00
    0.37558E-06        -0.19479E-08         0.00000E+00
    0.37401E-06        -0.18521E-08         0.00000E+00
    0.37256E-06        -0.17361E-08         0.00000E+00
    0.37123E-06        -0.15521E-08         0.00000E+00
    0.37013E-06        -0.12422E-08         0.00000E+00
    0.36940E-06        -0.78126E-09         0.00000E+00
    0.36926E-06        -0.25697E-09         0.00000E+00
    0.30816E-06        -0.23750E-09         0.00000E+00
    0.30764E-06        -0.79601E-09         0.00000E+00
    0.30643E-06        -0.13797E-08         0.00000E+00
    0.30480E-06        -0.18053E-08         0.00000E+00
    0.30298E-06        -0.20444E-08         0.00000E+00
    0.30115E-06        -0.21382E-08         0.00000E+00
    0.29938E-06        -0.21383E-08         0.00000E+00
    0.29771E-06        -0.20817E-08         0.00000E+00
    0.29615E-06        -0.19860E-08         0.00000E+00
    0.29471E-06        -0.18515E-08         0.00000E+00
    0.29340E-06        -0.16643E-08         0.00000E+00
    0.29225E-06        -0.14017E-08         0.00000E+00
    0.29133E-06        -0.10468E-08         0.00000E+00
    0.29073E-06        -0.61612E-09         0.00000E+00
    0.29056E-06        -0.19351E-09         0.00000E+00
    0.24706E-06        -0.13762E-09         0.00000E+00
    0.24637E-06        -0.50543E-09         0.00000E+00
    0.24526E-06        -0.96248E-09         0.00000E+00
    0.24385E-06        -0.13654E-08         0.00000E+00
    0.24228E-06        -0.16557E-08         0.00000E+00
    0.24068E-06        -0.18288E-08         0.00000E+00
    0.23912E-06        -0.19020E-08         0.00000E+00
    0.23764E-06        -0.18948E-08         0.00000E+00
    0.23625E-06        -0.18200E-08         0.00000E+00
    0.23498E-06        -0.16817E-08         0.00000E+00
    0.23384E-06        -0.14778E-08         0.00000E+00
    0.23286E-06        -0.12050E-08         0.00000E+00
    0.23209E-06        -0.86912E-09         0.00000E+00
    0.23157E-06        -0.49860E-09         0.00000E+00
    0.23134E-06        -0.15506E-09         0.00000E+00
    0.20328E-06        -0.75655E-10         0.00000E+00
    0.20243E-06        -0.31164E-09         0.00000E+00
    0.20133E-06        -0.65626E-09         0.00000E+00
    0.20006E-06        -0.10072E-08         0.00000E+00
    0.19869E-06        -0.13017E-08         0.00000E+00
    0.19730E-06        -0.15117E-08         0.00000E+00
    0.19595E-06        -0.16310E-08         0.00000E+00
    0.19468E-06        -0.16626E-08         0.00000E+00
    0.19350E-06        -0.16124E-08         0.00000E+00
    0.19242E-06        -0.14863E-08         0.00000E+00
    0.19146E-06        -0.12902E-08         0.00000E+00
    0.19063E-06        -0.10332E-08         0.00000E+00
    0.18997E-06        -0.73224E-09         0.00000E+00
    0.18950E-06        -0.41707E-09         0.00000E+00
    0.18924E-06        -0.13028E-09         0.00000E+00
    0.17448E-06        -0.28945E-10         0.00000E+00
    0.17348E-06        -0.17034E-09         0.00000E+00
    0.17236E-06        -0.43683E-09         0.00000E+00
    0.17115E-06        -0.74956E-09         0.00000E+00
    0.16992E-06        -0.10454E-08         0.00000E+00
    0.16873E-06        -0.12825E-08         0.00000E+00
    0.16759E-06        -0.14377E-08         0.00000E+00
    0.16654E-06        -0.15015E-08         0.00000E+00
    0.16557E-06        -0.14733E-08         0.00000E+00
    0.16469E-06        -0.13594E-08         0.00000E+00
    0.16391E-06        -0.11711E-08         0.00000E+00
    0.16322E-06        -0.92604E-09         0.00000E+00
    0.16265E-06        -0.64792E-09         0.00000E+00
    0.16222E-06        -0.36672E-09         0.00000E+00
    0.16193E-06        -0.11472E-09         0.00000E+00
    0.15869E-06         0.11245E-10         0.00000E+00
    0.15753E-06        -0.63780E-10         0.00000E+00
    0.15633E-06        -0.29605E-09         0.00000E+00
    0.15516E-06        -0.60935E-09         0.00000E+00
    0.15404E-06        -0.93316E-09         0.00000E+00
    0.15302E-06        -0.12122E-08         0.00000E+00
    0.15210E-06        -0.14092E-08         0.00000E+00
    0.15127E-06        -0.15037E-08         0.00000E+00
    0.15054E-06        -0.14902E-08         0.00000E+00
    0.14987E-06        -0.13754E-08         0.00000E+00
    0.14927E-06        -0.11763E-08         0.00000E+00
    0.14873E-06        -0.91811E-09         0.00000E+00
    0.14824E-06        -0.63210E-09         0.00000E+00
    0.14784E-06        -0.35215E-09         0.00000E+00
    0.14753E-06        -0.10897E-09         0.00000E+00
    0.15442E-06         0.43503E-10         0.00000E+00
    0.15305E-06         0.12282E-11         0.00000E+00
    0.15175E-06        -0.25325E-09         0.00000E+00
    0.15058E-06        -0.62574E-09         0.00000E+00
    0.14957E-06        -0.10265E-08         0.00000E+00
    0.14873E-06        -0.13816E-08         0.00000E+00
    0.14804E-06        -0.16383E-08         0.00000E+00
    0.14749E-06        -0.17659E-08         0.00000E+00
    0.14702E-06        -0.17549E-08         0.00000E+00
    0.14660E-06        -0.16143E-08         0.00000E+00
    0.14620E-06        -0.13683E-08         0.00000E+00
    0.14581E-06        -0.10529E-08         0.00000E+00
    0.14542E-06        -0.71101E-09         0.00000E+00
    0.14503E-06        -0.38652E-09         0.00000E+00
    0.14469E-06        -0.11700E-09         0.00000E+00
    0.16071E-06         0.58061E-10         0.00000E+00
    0.15905E-06        -0.54165E-11         0.00000E+00
    0.15760E-06        -0.36084E-09         0.00000E+00
    0.15642E-06        -0.87465E-09         0.00000E+00
    0.15554E-06        -0.14232E-08         0.00000E+00
    0.15493E-06        -0.19056E-08         0.00000E+00
    0.15455E-06        -0.22495E-08         0.00000E+00
    0.15433E-06        -0.24137E-08         0.00000E+00
    0.15420E-06        -0.23858E-08         0.00000E+00
    0.15410E-06        -0.21799E-08         0.00000E+00
    0.15396E-06        -0.18316E-08         0.00000E+00
    0.15375E-06        -0.13929E-08         0.00000E+00
    0.15345E-06        -0.92534E-09         0.00000E+00
    0.15308E-06        -0.49163E-09         0.00000E+00
    0.15268E-06        -0.14543E-09         0.00000E+00
    0.17705E-06         0.36248E-10         0.00000E+00
    0.17500E-06        -0.13987E-09         0.00000E+00
    0.17334E-06        -0.71129E-09         0.00000E+00
    0.17217E-06        -0.14810E-08         0.00000E+00
    0.17147E-06        -0.22742E-08         0.00000E+00
    0.17119E-06        -0.29524E-08         0.00000E+00
    0.17123E-06        -0.34193E-08         0.00000E+00
    0.17148E-06        -0.36214E-08         0.00000E+00
    0.17183E-06        -0.35461E-08         0.00000E+00
    0.17215E-06        -0.32163E-08         0.00000E+00
    0.17236E-06        -0.26850E-08         0.00000E+00
    0.17239E-06        -0.20279E-08         0.00000E+00
    0.17221E-06        -0.13351E-08         0.00000E+00
    0.17184E-06        -0.69979E-09         0.00000E+00
    0.17134E-06        -0.20396E-09         0.00000E+00
    0.20329E-06        -0.51882E-10         0.00000E+00
    0.20070E-06        -0.49098E-09         0.00000E+00
    0.19881E-06        -0.14475E-08         0.00000E+00
    0.19769E-06        -0.26321E-08         0.00000E+00
    0.19729E-06        -0.37993E-08         0.00000E+00
    0.19751E-06        -0.47614E-08         0.00000E+00
    0.19817E-06        -0.53931E-08         0.00000E+00
    0.19909E-06        -0.56293E-08         0.00000E+00
    0.20010E-06        -0.54598E-08         0.00000E+00
    0.20103E-06        -0.49221E-08         0.00000E+00
    0.20172E-06        -0.40938E-08         0.00000E+00
    0.20208E-06        -0.30847E-08         0.00000E+00
    0.20207E-06        -0.20261E-08         0.00000E+00
    0.20169E-06        -0.10574E-08         0.00000E+00
    0.20103E-06        -0.30643E-09         0.00000E+00
    0.23952E-06        -0.25125E-09         0.00000E+00
    0.23622E-06        -0.11901E-08         0.00000E+00
    0.23409E-06        -0.27763E-08         0.00000E+00
    0.23313E-06        -0.45934E-08         0.00000E+00
    0.23324E-06        -0.63031E-08         0.00000E+00
    0.23420E-06        -0.76576E-08         0.00000E+00
    0.23578E-06        -0.85000E-08         0.00000E+00
    0.23768E-06        -0.87560E-08         0.00000E+00
    0.23964E-06        -0.84235E-08         0.00000E+00
    0.24142E-06        -0.75614E-08         0.00000E+00
    0.24281E-06        -0.62809E-08         0.00000E+00
    0.24365E-06        -0.47368E-08         0.00000E+00
    0.24386E-06        -0.31179E-08         0.00000E+00
    0.24345E-06        -0.16301E-08         0.00000E+00
    0.24252E-06        -0.47265E-09         0.00000E+00
    0.28593E-06        -0.62641E-09         0.00000E+00
    0.28176E-06        -0.24229E-08         0.00000E+00
    0.27941E-06        -0.49837E-08         0.00000E+00
    0.27882E-06        -0.77237E-08         0.00000E+00
    0.27974E-06        -0.10188E-07         0.00000E+00
    0.28185E-06        -0.12063E-07         0.00000E+00
    0.28475E-06        -0.13160E-07         0.00000E+00
    0.28804E-06        -0.13405E-07         0.00000E+00
    0.29136E-06        -0.12812E-07         0.00000E+00
    0.29434E-06        -0.11471E-07         0.00000E+00
    0.29671E-06        -0.95349E-08         0.00000E+00
    0.29823E-06        -0.72146E-08         0.00000E+00
    0.29877E-06        -0.47732E-08         0.00000E+00
    0.29831E-06        -0.25100E-08         0.00000E+00
    0.29698E-06        -0.73103E-09         0.00000E+00
    0.34269E-06        -0.12671E-08         0.00000E+00
    0.33749E-06        -0.44433E-08         0.00000E+00
    0.33505E-06        -0.84513E-08         0.00000E+00
    0.33515E-06        -0.12489E-07         0.00000E+00
    0.33736E-06        -0.15964E-07         0.00000E+00
    0.34115E-06        -0.18495E-07         0.00000E+00
    0.34594E-06        -0.19879E-07         0.00000E+00
    0.35119E-06        -0.20056E-07         0.00000E+00
    0.35637E-06        -0.19073E-07         0.00000E+00
    0.36103E-06        -0.17059E-07         0.00000E+00
    0.36477E-06        -0.14213E-07         0.00000E+00
    0.36726E-06        -0.10812E-07         0.00000E+00
    0.36827E-06        -0.72087E-08         0.00000E+00
    0.36775E-06        -0.38248E-08         0.00000E+00
    0.36581E-06        -0.11223E-08         0.00000E+00
    0.40976E-06        -0.22943E-08         0.00000E+00
    0.40344E-06        -0.75877E-08         0.00000E+00
    0.40118E-06        -0.13671E-07         0.00000E+00
    0.40250E-06        -0.19469E-07         0.00000E+00
    0.40666E-06        -0.24242E-07         0.00000E+00
    0.41286E-06        -0.27556E-07         0.00000E+00
    0.42028E-06        -0.29225E-07         0.00000E+00
    0.42818E-06        -0.29239E-07         0.00000E+00
    0.43588E-06        -0.27698E-07         0.00000E+00
    0.44281E-06        -0.24781E-07         0.00000E+00
    0.44842E-06        -0.20734E-07         0.00000E+00
    0.45226E-06        -0.15893E-07         0.00000E+00
    0.45398E-06        -0.10706E-07         0.00000E+00
    0.45339E-06        -0.57497E-08         0.00000E+00
    0.45059E-06        -0.17048E-08         0.00000E+00
    0.48676E-06        -0.38677E-08         0.00000E+00
    0.47935E-06        -0.12291E-07         0.00000E+00
    0.47777E-06        -0.21256E-07         0.00000E+00
    0.48110E-06        -0.29357E-07         0.00000E+00
    0.48815E-06        -0.35710E-07         0.00000E+00
    0.49772E-06        -0.39880E-07         0.00000E+00
    0.50868E-06        -0.41764E-07         0.00000E+00
    0.52006E-06        -0.41461E-07         0.00000E+00
    0.53104E-06        -0.39161E-07         0.00000E+00
    0.54092E-06        -0.35099E-07         0.00000E+00
    0.54903E-06        -0.29549E-07         0.00000E+00
    0.55474E-06        -0.22879E-07         0.00000E+00
    0.55749E-06        -0.15620E-07         0.00000E+00
    0.55691E-06        -0.85230E-08         0.00000E+00
    0.55294E-06        -0.25620E-08         0.00000E+00
    0.57274E-06        -0.61954E-08         0.00000E+00
    0.56451E-06        -0.19107E-07         0.00000E+00
    0.56446E-06        -0.31952E-07         0.00000E+00
    0.57098E-06        -0.42937E-07         0.00000E+00
    0.58219E-06        -0.51077E-07         0.00000E+00
    0.59632E-06        -0.56047E-07         0.00000E+00
    0.61187E-06        -0.57952E-07         0.00000E+00
    0.62766E-06        -0.57095E-07         0.00000E+00
    0.64275E-06        -0.53810E-07         0.00000E+00
    0.65635E-06        -0.48386E-07         0.00000E+00
    0.66769E-06        -0.41082E-07         0.00000E+00
    0.67593E-06        -0.32232E-07         0.00000E+00
    0.68023E-06        -0.22387E-07         0.00000E+00
    0.67984E-06        -0.12464E-07         0.00000E+00
    0.67438E-06        -0.38126E-08         0.00000E+00
    0.66597E-06        -0.95478E-08         0.00000E+00
    0.65760E-06        -0.28731E-07         0.00000E+00
    0.66051E-06        -0.46634E-07         0.00000E+00
    0.67192E-06        -0.61031E-07         0.00000E+00
    0.68897E-06        -0.70963E-07         0.00000E+00
    0.70910E-06        -0.76426E-07         0.00000E+00
    0.73040E-06        -0.77944E-07         0.00000E+00
    0.75149E-06        -0.76181E-07         0.00000E+00
    0.77146E-06        -0.71684E-07         0.00000E+00
    0.78954E-06        -0.64781E-07         0.00000E+00
    0.80490E-06        -0.55630E-07         0.00000E+00
    0.81653E-06        -0.44396E-07         0.00000E+00
    0.82312E-06        -0.31516E-07         0.00000E+00
    0.82335E-06        -0.17998E-07         0.00000E+00
    0.81618E-06        -0.56252E-08         0.00000E+00
    0.76374E-06        -0.14282E-07         0.00000E+00
    0.75660E-06        -0.42042E-07         0.00000E+00
    0.76471E-06        -0.66302E-07         0.00000E+00
    0.78351E-06        -0.84404E-07         0.00000E+00
    0.80854E-06        -0.95702E-07         0.00000E+00
    0.83629E-06        -0.10091E-06         0.00000E+00
    0.86440E-06        -0.10131E-06         0.00000E+00
    0.89150E-06        -0.98152E-07         0.00000E+00
    0.91689E-06        -0.92257E-07         0.00000E+00
    0.94003E-06        -0.83960E-07         0.00000E+00
    0.96021E-06        -0.73182E-07         0.00000E+00
    0.97624E-06        -0.59698E-07         0.00000E+00
    0.98626E-06        -0.43566E-07         0.00000E+00
    0.98799E-06        -0.25676E-07         0.00000E+00
    0.97921E-06        -0.82367E-08         0.00000E+00
    0.86195E-06        -0.20887E-07         0.00000E+00
    0.85857E-06        -0.60166E-07         0.00000E+00
    0.87552E-06        -0.92035E-07         0.00000E+00
    0.90520E-06        -0.11355E-06         0.00000E+00
    0.94089E-06        -0.12500E-06         0.00000E+00
    0.97786E-06        -0.12852E-06         0.00000E+00
    0.10135E-05        -0.12667E-06         0.00000E+00
    0.10469E-05        -0.12147E-06         0.00000E+00
    0.10777E-05        -0.11410E-06         0.00000E+00
    0.11061E-05        -0.10482E-06         0.00000E+00
    0.11317E-05        -0.93147E-07         0.00000E+00
    0.11533E-05        -0.78150E-07         0.00000E+00
    0.11684E-05        -0.59060E-07         0.00000E+00
    0.11733E-05        -0.36192E-07         0.00000E+00
    0.11637E-05        -0.11977E-07         0.00000E+00
    0.95476E-06        -0.30069E-07         0.00000E+00
    0.95967E-06        -0.84583E-07         0.00000E+00
    0.99120E-06        -0.12486E-06         0.00000E+00
    0.10367E-05        -0.14822E-06         0.00000E+00
    0.10861E-05        -0.15728E-06         0.00000E+00
    0.11334E-05        -0.15680E-06         0.00000E+00
    0.11766E-05        -0.15115E-06         0.00000E+00
    0.12155E-05        -0.14326E-06         0.00000E+00
    0.12511E-05        -0.13453E-06         0.00000E+00
    0.12843E-05        -0.12509E-06         0.00000E+00
    0.13154E-05        -0.11392E-06         0.00000E+00
    0.13437E-05        -0.99081E-07         0.00000E+00
    0.13662E-05        -0.78284E-07         0.00000E+00
    0.13772E-05        -0.50358E-07         0.00000E+00
    0.13691E-05        -0.17296E-07         0.00000E+00
    0.10338E-05        -0.42937E-07         0.00000E+00
    0.10552E-05        -0.11729E-06         0.00000E+00
    0.11106E-05        -0.16526E-06         0.00000E+00
    0.11784E-05        -0.18639E-06         0.00000E+00
    0.12441E-05        -0.18857E-06         0.00000E+00
    0.13017E-05        -0.18099E-06         0.00000E+00
    0.13510E-05        -0.17004E-06         0.00000E+00
    0.13939E-05        -0.15904E-06         0.00000E+00
    0.14325E-05        -0.14936E-06         0.00000E+00
    0.14689E-05        -0.14090E-06         0.00000E+00
    0.15049E-05        -0.13227E-06         0.00000E+00
    0.15405E-05        -0.12041E-06         0.00000E+00
    0.15732E-05        -0.10076E-06         0.00000E+00
    0.15953E-05        -0.68958E-07         0.00000E+00
    0.15938E-05        -0.24775E-07         0.00000E+00
    0.10871E-05        -0.61504E-07         0.00000E+00
    0.11401E-05        -0.16082E-06         0.00000E+00
    0.12344E-05        -0.21171E-06         0.00000E+00
    0.13321E-05        -0.22148E-06         0.00000E+00
    0.14142E-05        -0.21044E-06         0.00000E+00
    0.14793E-05        -0.19338E-06         0.00000E+00
    0.15317E-05        -0.17664E-06         0.00000E+00
    0.15756E-05        -0.16290E-06         0.00000E+00
    0.16147E-05        -0.15297E-06         0.00000E+00
    0.16521E-05        -0.14660E-06         0.00000E+00
    0.16905E-05        -0.14242E-06         0.00000E+00
    0.17326E-05        -0.13727E-06         0.00000E+00
    0.17783E-05        -0.12391E-06         0.00000E+00
    0.18192E-05        -0.92134E-07         0.00000E+00
    0.18347E-05        -0.35126E-07         0.00000E+00
    0.10963E-05        -0.89168E-07         0.00000E+00
    0.12119E-05        -0.21915E-06         0.00000E+00
    0.13702E-05        -0.25304E-06         0.00000E+00
    0.15000E-05        -0.23561E-06         0.00000E+00
    0.15910E-05        -0.20881E-06         0.00000E+00
    0.16577E-05        -0.18342E-06         0.00000E+00
    0.17090E-05        -0.16291E-06         0.00000E+00
    0.17509E-05        -0.14811E-06         0.00000E+00
    0.17877E-05        -0.13902E-06         0.00000E+00
    0.18230E-05        -0.13522E-06         0.00000E+00
    0.18605E-05        -0.13594E-06         0.00000E+00
    0.19047E-05        -0.13922E-06         0.00000E+00
    0.19631E-05        -0.13976E-06         0.00000E+00
    0.20329E-05        -0.11737E-06         0.00000E+00
    0.20862E-05        -0.48300E-07         0.00000E+00
    0.10280E-05        -0.15314E-06         0.00000E+00
    0.12913E-05        -0.27198E-06         0.00000E+00
    0.15345E-05        -0.23858E-06         0.00000E+00
    0.16690E-05        -0.19857E-06         0.00000E+00
    0.17576E-05        -0.16485E-06         0.00000E+00
    0.18194E-05        -0.13903E-06         0.00000E+00
    0.18659E-05        -0.12040E-06         0.00000E+00
    0.19036E-05        -0.10801E-06         0.00000E+00
    0.19363E-05        -0.10119E-06         0.00000E+00
    0.19675E-05        -0.99545E-07         0.00000E+00
    0.20008E-05        -0.10291E-06         0.00000E+00
    0.20417E-05        -0.11111E-06         0.00000E+00
    0.20996E-05        -0.12297E-06         0.00000E+00
    0.22065E-05        -0.13109E-06         0.00000E+00
    0.23369E-05        -0.64920E-07         0.00000E+00
    0.87628E-06        -0.31639E-07         0.00000E+00
    0.14479E-05        -0.79916E-07         0.00000E+00
    0.16679E-05        -0.67612E-07         0.00000E+00
    0.17948E-05        -0.56966E-07         0.00000E+00
    0.18743E-05        -0.47431E-07         0.00000E+00
    0.19298E-05        -0.40182E-07         0.00000E+00
    0.19716E-05        -0.34978E-07         0.00000E+00
    0.20054E-05        -0.31614E-07         0.00000E+00
    0.20347E-05        -0.29947E-07         0.00000E+00
    0.20623E-05        -0.29957E-07         0.00000E+00
    0.20912E-05        -0.31758E-07         0.00000E+00
    0.21266E-05        -0.35693E-07         0.00000E+00
    0.21791E-05        -0.41947E-07         0.00000E+00
    0.22711E-05        -0.53726E-07         0.00000E+00
    0.25539E-05        -0.32484E-07         0.00000E+00
POINT_DATA        496
VECTORS vDarcyNodal double 
    0.10795E-05         0.12223E-07         0.00000E+00
    0.10781E-05         0.17671E-07         0.00000E+00
    0.10759E-05         0.22067E-07         0.00000E+00
    0.10748E-05         0.20246E-07         0.00000E+00
    0.10743E-05         0.18784E-07         0.00000E+00
    0.10740E-05         0.17509E-07         0.00000E+00
    0.10737E-05         0.16427E-07         0.00000E+00
    0.10734E-05         0.15485E-07         0.00000E+00
    0.10732E-05         0.14657E-07         0.00000E+00
    0.10729E-05         0.13935E-07         0.00000E+00
    0.10727E-05         0.13335E-07         0.00000E+00
    0.10725E-05         0.12897E-07         0.00000E+00
    0.10722E-05         0.12643E-07         0.00000E+00
    0.10716E-05         0.12881E-07         0.00000E+00
    0.10706E-05         0.10073E-07         0.00000E+00
    0.10700E-05         0.69463E-08         0.00000E+00
    0.99972E-06         0.46546E-09         0.00000E+00
    0.99687E-06         0.22858E-08         0.00000E+00
    0.99288E-06         0.61007E-08         0.00000E+00
    0.99121E-06         0.86488E-08         0.00000E+00
    0.99028E-06         0.93608E-08         0.00000E+00
    0.98960E-06         0.94789E-08         0.00000E+00
    0.98902E-06         0.93009E-08         0.00000E+00
    0.98850E-06         0.89699E-08         0.00000E+00
    0.98800E-06         0.85456E-08         0.00000E+00
    0.98754E-06         0.80492E-08         0.00000E+00
    0.98710E-06         0.74719E-08         0.00000E+00
    0.98664E-06         0.67543E-08         0.00000E+00
    0.98612E-06         0.57654E-08         0.00000E+00
    0.98525E-06         0.37329E-08         0.00000E+00
    0.98333E-06         0.11617E-08         0.00000E+00
    0.98198E-06         0.39912E-10         0.00000E+00
    0.84037E-06        -0.14071E-08         0.00000E+00
    0.83707E-06        -0.16598E-08         0.00000E+00
    0.83206E-06        -0.84651E-09         0.00000E+00
    0.82930E-06         0.11807E-08         0.00000E+00
    0.82751E-06         0.26753E-08         0.00000E+00
    0.82614E-06         0.34796E-08         0.00000E+00
    0.82499E-06         0.38490E-08         0.00000E+00
    0.82395E-06         0.39298E-08         0.00000E+00
    0.82298E-06         0.38048E-08         0.00000E+00
    0.82207E-06         0.35069E-08         0.00000E+00
    0.82119E-06         0.30257E-08         0.00000E+00
    0.82029E-06         0.23092E-08         0.00000E+00
    0.81926E-06         0.12237E-08         0.00000E+00
    0.81784E-06        -0.64594E-10         0.00000E+00
    0.81547E-06        -0.63117E-09         0.00000E+00
    0.81394E-06        -0.56885E-09         0.00000E+00
    0.68842E-06        -0.13286E-08         0.00000E+00
    0.68679E-06        -0.20605E-08         0.00000E+00
    0.68341E-06        -0.26141E-08         0.00000E+00
    0.68033E-06        -0.19127E-08         0.00000E+00
    0.67796E-06        -0.91638E-09         0.00000E+00
    0.67603E-06        -0.12470E-09         0.00000E+00
    0.67438E-06         0.37461E-09         0.00000E+00
    0.67289E-06         0.62573E-09         0.00000E+00
    0.67152E-06         0.67390E-09         0.00000E+00
    0.67023E-06         0.54584E-09         0.00000E+00
    0.66899E-06         0.24934E-09         0.00000E+00
    0.66772E-06        -0.21568E-09         0.00000E+00
    0.66635E-06        -0.77121E-09         0.00000E+00
    0.66475E-06        -0.11413E-08         0.00000E+00
    0.66322E-06        -0.90618E-09         0.00000E+00
    0.66257E-06        -0.58177E-09         0.00000E+00
    0.55381E-06        -0.89268E-09         0.00000E+00
    0.55312E-06        -0.15672E-08         0.00000E+00
    0.55113E-06        -0.24734E-08         0.00000E+00
    0.54854E-06        -0.26036E-08         0.00000E+00
    0.54608E-06        -0.22772E-08         0.00000E+00
    0.54390E-06        -0.18378E-08         0.00000E+00
    0.54196E-06        -0.14675E-08         0.00000E+00
    0.54020E-06        -0.12219E-08         0.00000E+00
    0.53858E-06        -0.11040E-08         0.00000E+00
    0.53706E-06        -0.11016E-08         0.00000E+00
    0.53559E-06        -0.11942E-08         0.00000E+00
    0.53416E-06        -0.13341E-08         0.00000E+00
    0.53272E-06        -0.14141E-08         0.00000E+00
    0.53137E-06        -0.12656E-08         0.00000E+00
    0.53049E-06        -0.76710E-09         0.00000E+00
    0.53024E-06        -0.42413E-09         0.00000E+00
    0.44032E-06        -0.52826E-09         0.00000E+00
    0.43999E-06        -0.10242E-08         0.00000E+00
    0.43875E-06        -0.18652E-08         0.00000E+00
    0.43672E-06        -0.23393E-08         0.00000E+00
    0.43450E-06        -0.24508E-08         0.00000E+00
    0.43236E-06        -0.23534E-08         0.00000E+00
    0.43037E-06        -0.21855E-08         0.00000E+00
    0.42853E-06        -0.20255E-08         0.00000E+00
    0.42682E-06        -0.19037E-08         0.00000E+00
    0.42522E-06        -0.18213E-08         0.00000E+00
    0.42371E-06        -0.17574E-08         0.00000E+00
    0.42228E-06        -0.16654E-08         0.00000E+00
    0.42097E-06        -0.14729E-08         0.00000E+00
    0.41990E-06        -0.11095E-08         0.00000E+00
    0.41934E-06        -0.58755E-09         0.00000E+00
    0.41923E-06        -0.29706E-09         0.00000E+00
    0.34866E-06        -0.30125E-09         0.00000E+00
    0.34840E-06        -0.63772E-09         0.00000E+00
    0.34745E-06        -0.12979E-08         0.00000E+00
    0.34583E-06        -0.18328E-08         0.00000E+00
    0.34393E-06        -0.21415E-08         0.00000E+00
    0.34198E-06        -0.22584E-08         0.00000E+00
    0.34010E-06        -0.22549E-08         0.00000E+00
    0.33833E-06        -0.21898E-08         0.00000E+00
    0.33667E-06        -0.20954E-08         0.00000E+00
    0.33512E-06        -0.19801E-08         0.00000E+00
    0.33369E-06        -0.18323E-08         0.00000E+00
    0.33238E-06        -0.16243E-08         0.00000E+00
    0.33125E-06        -0.13229E-08         0.00000E+00
    0.33039E-06        -0.91512E-09         0.00000E+00
    0.32996E-06        -0.45128E-09         0.00000E+00
    0.32988E-06        -0.21719E-09         0.00000E+00
    0.27766E-06        -0.17437E-09         0.00000E+00
    0.27735E-06        -0.39709E-09         0.00000E+00
    0.27646E-06        -0.88026E-09         0.00000E+00
    0.27509E-06        -0.13552E-08         0.00000E+00
    0.27347E-06        -0.17111E-08         0.00000E+00
    0.27175E-06        -0.19268E-08         0.00000E+00
    0.27006E-06        -0.20237E-08         0.00000E+00
    0.26845E-06        -0.20319E-08         0.00000E+00
    0.26693E-06        -0.19737E-08         0.00000E+00
    0.26553E-06        -0.18586E-08         0.00000E+00
    0.26424E-06        -0.16846E-08         0.00000E+00
    0.26309E-06        -0.14426E-08         0.00000E+00
    0.26213E-06        -0.11264E-08         0.00000E+00
    0.26141E-06        -0.74835E-09         0.00000E+00
    0.26103E-06        -0.35860E-09         0.00000E+00
    0.26093E-06        -0.16995E-09         0.00000E+00
    0.22520E-06        -0.10102E-09         0.00000E+00
    0.22482E-06        -0.24637E-09         0.00000E+00
    0.22388E-06        -0.58859E-09         0.00000E+00
    0.22264E-06        -0.97414E-09         0.00000E+00
    0.22122E-06        -0.13116E-08         0.00000E+00
    0.21973E-06        -0.15592E-08         0.00000E+00
    0.21825E-06        -0.17084E-08         0.00000E+00
    0.21684E-06        -0.17660E-08         0.00000E+00
    0.21551E-06        -0.17420E-08         0.00000E+00
    0.21429E-06        -0.16438E-08         0.00000E+00
    0.21317E-06        -0.14755E-08         0.00000E+00
    0.21220E-06        -0.12406E-08         0.00000E+00
    0.21138E-06        -0.94812E-09         0.00000E+00
    0.21077E-06        -0.61960E-09         0.00000E+00
    0.21040E-06        -0.29516E-09         0.00000E+00
    0.21028E-06        -0.14021E-09         0.00000E+00
    0.18890E-06        -0.50292E-10         0.00000E+00
    0.18844E-06        -0.14101E-09         0.00000E+00
    0.18742E-06        -0.37962E-09         0.00000E+00
    0.18623E-06        -0.68984E-09         0.00000E+00
    0.18495E-06        -0.99794E-09         0.00000E+00
    0.18365E-06        -0.12550E-08         0.00000E+00
    0.18238E-06        -0.14350E-08         0.00000E+00
    0.18118E-06        -0.15280E-08         0.00000E+00
    0.18007E-06        -0.15333E-08         0.00000E+00
    0.17904E-06        -0.14552E-08         0.00000E+00
    0.17812E-06        -0.13013E-08         0.00000E+00
    0.17730E-06        -0.10829E-08         0.00000E+00
    0.17661E-06        -0.81741E-09         0.00000E+00
    0.17608E-06        -0.52978E-09         0.00000E+00
    0.17572E-06        -0.25223E-09         0.00000E+00
    0.17558E-06        -0.12037E-09         0.00000E+00
    0.16661E-06        -0.75535E-11         0.00000E+00
    0.16606E-06        -0.58243E-10         0.00000E+00
    0.16493E-06        -0.22760E-09         0.00000E+00
    0.16375E-06        -0.49672E-09         0.00000E+00
    0.16256E-06        -0.79725E-09         0.00000E+00
    0.16142E-06        -0.10732E-08         0.00000E+00
    0.16035E-06        -0.12854E-08         0.00000E+00
    0.15937E-06        -0.14113E-08         0.00000E+00
    0.15848E-06        -0.14414E-08         0.00000E+00
    0.15767E-06        -0.13773E-08         0.00000E+00
    0.15694E-06        -0.12290E-08         0.00000E+00
    0.15628E-06        -0.10141E-08         0.00000E+00
    0.15571E-06        -0.75645E-09         0.00000E+00
    0.15524E-06        -0.48480E-09         0.00000E+00
    0.15488E-06        -0.22918E-09         0.00000E+00
    0.15473E-06        -0.10905E-09         0.00000E+00
    0.15657E-06         0.30094E-10         0.00000E+00
    0.15593E-06         0.57563E-11         0.00000E+00
    0.15466E-06        -0.13220E-09         0.00000E+00
    0.15344E-06        -0.40867E-09         0.00000E+00
    0.15232E-06        -0.74519E-09         0.00000E+00
    0.15132E-06        -0.10720E-08         0.00000E+00
    0.15046E-06        -0.13356E-08         0.00000E+00
    0.14972E-06        -0.15010E-08         0.00000E+00
    0.14908E-06        -0.15518E-08         0.00000E+00
    0.14851E-06        -0.14876E-08         0.00000E+00
    0.14800E-06        -0.13220E-08         0.00000E+00
    0.14752E-06        -0.10797E-08         0.00000E+00
    0.14706E-06        -0.79334E-09         0.00000E+00
    0.14665E-06        -0.49920E-09         0.00000E+00
    0.14628E-06        -0.23183E-09         0.00000E+00
    0.14612E-06        -0.10884E-09         0.00000E+00
    0.15757E-06         0.56933E-10         0.00000E+00
    0.15680E-06         0.38992E-10         0.00000E+00
    0.15534E-06        -0.11977E-09         0.00000E+00
    0.15405E-06        -0.47012E-09         0.00000E+00
    0.15299E-06        -0.90655E-09         0.00000E+00
    0.15216E-06        -0.13352E-08         0.00000E+00
    0.15154E-06        -0.16831E-08         0.00000E+00
    0.15109E-06        -0.19015E-08         0.00000E+00
    0.15076E-06        -0.19672E-08         0.00000E+00
    0.15050E-06        -0.18798E-08         0.00000E+00
    0.15024E-06        -0.16590E-08         0.00000E+00
    0.14996E-06        -0.13402E-08         0.00000E+00
    0.14964E-06        -0.96960E-09         0.00000E+00
    0.14927E-06        -0.59772E-09         0.00000E+00
    0.14889E-06        -0.27141E-09         0.00000E+00
    0.14870E-06        -0.12502E-09         0.00000E+00
    0.16887E-06         0.59161E-10         0.00000E+00
    0.16792E-06         0.13643E-10         0.00000E+00
    0.16619E-06        -0.24630E-09         0.00000E+00
    0.16482E-06        -0.76465E-09         0.00000E+00
    0.16384E-06        -0.13898E-08         0.00000E+00
    0.16323E-06        -0.19912E-08         0.00000E+00
    0.16294E-06        -0.24689E-08         0.00000E+00
    0.16289E-06        -0.27580E-08         0.00000E+00
    0.16297E-06        -0.28284E-08         0.00000E+00
    0.16310E-06        -0.26821E-08         0.00000E+00
    0.16319E-06        -0.23491E-08         0.00000E+00
    0.16317E-06        -0.18815E-08         0.00000E+00
    0.16301E-06        -0.13465E-08         0.00000E+00
    0.16270E-06        -0.81795E-09         0.00000E+00
    0.16228E-06        -0.36505E-09         0.00000E+00
    0.16204E-06        -0.16556E-09         0.00000E+00
    0.19013E-06         0.13297E-10         0.00000E+00
    0.18894E-06        -0.11714E-09         0.00000E+00
    0.18686E-06        -0.60405E-09         0.00000E+00
    0.18540E-06        -0.14254E-08         0.00000E+00
    0.18456E-06        -0.23615E-08         0.00000E+00
    0.18429E-06        -0.32299E-08         0.00000E+00
    0.18448E-06        -0.38959E-08         0.00000E+00
    0.18499E-06        -0.42750E-08         0.00000E+00
    0.18565E-06        -0.43314E-08         0.00000E+00
    0.18633E-06        -0.40729E-08         0.00000E+00
    0.18689E-06        -0.35456E-08         0.00000E+00
    0.18723E-06        -0.28259E-08         0.00000E+00
    0.18728E-06        -0.20124E-08         0.00000E+00
    0.18704E-06        -0.12144E-08         0.00000E+00
    0.18654E-06        -0.53752E-09         0.00000E+00
    0.18624E-06        -0.24181E-09         0.00000E+00
    0.22130E-06        -0.11691E-09         0.00000E+00
    0.21980E-06        -0.42495E-09         0.00000E+00
    0.21729E-06        -0.13317E-08         0.00000E+00
    0.21577E-06        -0.26484E-08         0.00000E+00
    0.21520E-06        -0.40608E-08         0.00000E+00
    0.21546E-06        -0.53187E-08         0.00000E+00
    0.21636E-06        -0.62443E-08         0.00000E+00
    0.21767E-06        -0.67321E-08         0.00000E+00
    0.21917E-06        -0.67425E-08         0.00000E+00
    0.22063E-06        -0.62948E-08         0.00000E+00
    0.22186E-06        -0.54579E-08         0.00000E+00
    0.22270E-06        -0.43425E-08         0.00000E+00
    0.22306E-06        -0.30909E-08         0.00000E+00
    0.22290E-06        -0.18644E-08         0.00000E+00
    0.22228E-06        -0.82410E-09         0.00000E+00
    0.22186E-06        -0.37001E-09         0.00000E+00
    0.26253E-06        -0.38465E-09         0.00000E+00
    0.26064E-06        -0.10136E-08         0.00000E+00
    0.25762E-06        -0.26271E-08         0.00000E+00
    0.25612E-06        -0.47074E-08         0.00000E+00
    0.25604E-06        -0.68155E-08         0.00000E+00
    0.25712E-06        -0.86168E-08         0.00000E+00
    0.25908E-06        -0.98848E-08         0.00000E+00
    0.26156E-06        -0.10494E-07         0.00000E+00
    0.26425E-06        -0.10408E-07         0.00000E+00
    0.26681E-06        -0.96640E-08         0.00000E+00
    0.26899E-06        -0.83619E-08         0.00000E+00
    0.27055E-06        -0.66571E-08         0.00000E+00
    0.27134E-06        -0.47505E-08         0.00000E+00
    0.27130E-06        -0.28752E-08         0.00000E+00
    0.27048E-06        -0.12747E-08         0.00000E+00
    0.26988E-06        -0.57339E-09         0.00000E+00
    0.31398E-06        -0.86507E-09         0.00000E+00
    0.31161E-06        -0.20280E-08         0.00000E+00
    0.30805E-06        -0.47611E-08         0.00000E+00
    0.30677E-06        -0.79692E-08         0.00000E+00
    0.30750E-06        -0.11055E-07         0.00000E+00
    0.30985E-06        -0.13584E-07         0.00000E+00
    0.31334E-06        -0.15283E-07         0.00000E+00
    0.31750E-06        -0.16015E-07         0.00000E+00
    0.32184E-06        -0.15757E-07         0.00000E+00
    0.32595E-06        -0.14573E-07         0.00000E+00
    0.32945E-06        -0.12604E-07         0.00000E+00
    0.33202E-06        -0.10060E-07         0.00000E+00
    0.33343E-06        -0.72139E-08         0.00000E+00
    0.33357E-06        -0.43932E-08         0.00000E+00
    0.33245E-06        -0.19593E-08         0.00000E+00
    0.33160E-06        -0.88528E-09         0.00000E+00
    0.37570E-06        -0.16608E-08         0.00000E+00
    0.37280E-06        -0.36638E-08         0.00000E+00
    0.36875E-06        -0.80925E-08         0.00000E+00
    0.36801E-06        -0.12907E-07         0.00000E+00
    0.37008E-06        -0.17316E-07         0.00000E+00
    0.37430E-06        -0.20780E-07         0.00000E+00
    0.37998E-06        -0.22991E-07         0.00000E+00
    0.38644E-06        -0.23821E-07         0.00000E+00
    0.39305E-06        -0.23280E-07         0.00000E+00
    0.39926E-06        -0.21477E-07         0.00000E+00
    0.40457E-06        -0.18598E-07         0.00000E+00
    0.40855E-06        -0.14910E-07         0.00000E+00
    0.41085E-06        -0.10767E-07         0.00000E+00
    0.41126E-06        -0.66147E-08         0.00000E+00
    0.40973E-06        -0.29756E-08         0.00000E+00
    0.40850E-06        -0.13534E-08         0.00000E+00
    0.44745E-06        -0.29085E-08         0.00000E+00
    0.44401E-06        -0.61773E-08         0.00000E+00
    0.43967E-06        -0.13081E-07         0.00000E+00
    0.44002E-06        -0.20107E-07         0.00000E+00
    0.44418E-06        -0.26239E-07         0.00000E+00
    0.45112E-06        -0.30843E-07         0.00000E+00
    0.45983E-06        -0.33611E-07         0.00000E+00
    0.46938E-06        -0.34469E-07         0.00000E+00
    0.47900E-06        -0.33496E-07         0.00000E+00
    0.48797E-06        -0.30861E-07         0.00000E+00
    0.49569E-06        -0.26799E-07         0.00000E+00
    0.50160E-06        -0.21623E-07         0.00000E+00
    0.50516E-06        -0.15763E-07         0.00000E+00
    0.50601E-06        -0.97971E-08         0.00000E+00
    0.50396E-06        -0.44580E-08         0.00000E+00
    0.50221E-06        -0.20460E-08         0.00000E+00
    0.52852E-06        -0.47859E-08         0.00000E+00
    0.52464E-06        -0.98976E-08         0.00000E+00
    0.52047E-06        -0.20299E-07         0.00000E+00
    0.52278E-06        -0.30269E-07         0.00000E+00
    0.53011E-06        -0.38543E-07         0.00000E+00
    0.54087E-06        -0.44438E-07         0.00000E+00
    0.55364E-06        -0.47724E-07         0.00000E+00
    0.56722E-06        -0.48462E-07         0.00000E+00
    0.58066E-06        -0.46858E-07         0.00000E+00
    0.59315E-06        -0.43164E-07         0.00000E+00
    0.60398E-06        -0.37651E-07         0.00000E+00
    0.61244E-06        -0.30648E-07         0.00000E+00
    0.61780E-06        -0.22621E-07         0.00000E+00
    0.61937E-06        -0.14272E-07         0.00000E+00
    0.61673E-06        -0.65912E-08         0.00000E+00
    0.61432E-06        -0.30604E-08         0.00000E+00
    0.61753E-06        -0.75219E-08         0.00000E+00
    0.61347E-06        -0.15240E-07         0.00000E+00
    0.61035E-06        -0.30443E-07         0.00000E+00
    0.61599E-06        -0.44187E-07         0.00000E+00
    0.62799E-06        -0.54969E-07         0.00000E+00
    0.64400E-06        -0.62160E-07         0.00000E+00
    0.66203E-06        -0.65759E-07         0.00000E+00
    0.68062E-06        -0.66101E-07         0.00000E+00
    0.69870E-06        -0.63610E-07         0.00000E+00
    0.71546E-06        -0.58650E-07         0.00000E+00
    0.73016E-06        -0.51494E-07         0.00000E+00
    0.74194E-06        -0.42408E-07         0.00000E+00
    0.74980E-06        -0.31806E-07         0.00000E+00
    0.75262E-06        -0.20455E-07         0.00000E+00
    0.74944E-06        -0.96252E-08         0.00000E+00
    0.74626E-06        -0.45349E-08         0.00000E+00
    0.71217E-06        -0.11412E-07         0.00000E+00
    0.70852E-06        -0.22727E-07         0.00000E+00
    0.70799E-06        -0.44343E-07         0.00000E+00
    0.71905E-06        -0.62716E-07         0.00000E+00
    0.73780E-06        -0.76172E-07         0.00000E+00
    0.76077E-06        -0.84361E-07         0.00000E+00
    0.78536E-06        -0.87778E-07         0.00000E+00
    0.80987E-06        -0.87256E-07         0.00000E+00
    0.83328E-06        -0.83566E-07         0.00000E+00
    0.85494E-06        -0.77210E-07         0.00000E+00
    0.87420E-06        -0.68401E-07         0.00000E+00
    0.89016E-06        -0.57198E-07         0.00000E+00
    0.90149E-06        -0.43789E-07         0.00000E+00
    0.90641E-06        -0.28850E-07         0.00000E+00
    0.90307E-06        -0.13895E-07         0.00000E+00
    0.89912E-06        -0.66643E-08         0.00000E+00
    0.80892E-06        -0.16845E-07         0.00000E+00
    0.80675E-06        -0.33018E-07         0.00000E+00
    0.81149E-06        -0.62964E-07         0.00000E+00
    0.83111E-06        -0.86679E-07         0.00000E+00
    0.85939E-06        -0.10252E-06         0.00000E+00
    0.89134E-06        -0.11087E-06         0.00000E+00
    0.92368E-06        -0.11315E-06         0.00000E+00
    0.95471E-06        -0.11104E-06         0.00000E+00
    0.98376E-06        -0.10579E-06         0.00000E+00
    0.10106E-05        -0.98078E-07         0.00000E+00
    0.10349E-05        -0.87936E-07         0.00000E+00
    0.10559E-05        -0.75010E-07         0.00000E+00
    0.10720E-05        -0.58953E-07         0.00000E+00
    0.10804E-05        -0.40039E-07         0.00000E+00
    0.10780E-05        -0.19841E-07         0.00000E+00
    0.10735E-05        -0.97211E-08         0.00000E+00
    0.90256E-06        -0.24347E-07         0.00000E+00
    0.90386E-06        -0.46969E-07         0.00000E+00
    0.91840E-06        -0.87401E-07         0.00000E+00
    0.95132E-06        -0.11669E-06         0.00000E+00
    0.99274E-06        -0.13375E-06         0.00000E+00
    0.10357E-05        -0.14052E-06         0.00000E+00
    0.10765E-05        -0.14011E-06         0.00000E+00
    0.11140E-05        -0.13539E-06         0.00000E+00
    0.11484E-05        -0.12825E-06         0.00000E+00
    0.11801E-05        -0.11947E-06         0.00000E+00
    0.12095E-05        -0.10881E-06         0.00000E+00
    0.12363E-05        -0.95231E-07         0.00000E+00
    0.12587E-05        -0.77405E-07         0.00000E+00
    0.12729E-05        -0.54616E-07         0.00000E+00
    0.12734E-05        -0.28023E-07         0.00000E+00
    0.12694E-05        -0.14080E-07         0.00000E+00
    0.98554E-06        -0.34674E-07         0.00000E+00
    0.99396E-06        -0.65701E-07         0.00000E+00
    0.10261E-05        -0.11879E-06         0.00000E+00
    0.10794E-05        -0.15271E-06         0.00000E+00
    0.11381E-05        -0.16822E-06         0.00000E+00
    0.11934E-05        -0.17042E-06         0.00000E+00
    0.12424E-05        -0.16512E-06         0.00000E+00
    0.12854E-05        -0.15665E-06         0.00000E+00
    0.13238E-05        -0.14742E-06         0.00000E+00
    0.13593E-05        -0.13821E-06         0.00000E+00
    0.13931E-05        -0.12841E-06         0.00000E+00
    0.14258E-05        -0.11615E-06         0.00000E+00
    0.14561E-05        -0.98577E-07         0.00000E+00
    0.14795E-05        -0.73011E-07         0.00000E+00
    0.14873E-05        -0.39099E-07         0.00000E+00
    0.14859E-05        -0.20245E-07         0.00000E+00
    0.10466E-05        -0.48964E-07         0.00000E+00
    0.10693E-05        -0.90725E-07         0.00000E+00
    0.11327E-05        -0.15794E-06         0.00000E+00
    0.12166E-05        -0.19292E-06         0.00000E+00
    0.12961E-05        -0.20146E-06         0.00000E+00
    0.13630E-05        -0.19477E-06         0.00000E+00
    0.14181E-05        -0.18230E-06         0.00000E+00
    0.14643E-05        -0.16935E-06         0.00000E+00
    0.15047E-05        -0.15823E-06         0.00000E+00
    0.15419E-05        -0.14947E-06         0.00000E+00
    0.15783E-05        -0.14227E-06         0.00000E+00
    0.16159E-05        -0.13411E-06         0.00000E+00
    0.16552E-05        -0.12037E-06         0.00000E+00
    0.16924E-05        -0.94966E-07         0.00000E+00
    0.17151E-05        -0.53684E-07         0.00000E+00
    0.17206E-05        -0.28827E-07         0.00000E+00
    0.10684E-05        -0.69183E-07         0.00000E+00
    0.11198E-05        -0.12385E-06         0.00000E+00
    0.12417E-05        -0.20388E-06         0.00000E+00
    0.13670E-05        -0.23066E-06         0.00000E+00
    0.14649E-05        -0.22311E-06         0.00000E+00
    0.15391E-05        -0.20348E-06         0.00000E+00
    0.15965E-05        -0.18334E-06         0.00000E+00
    0.16429E-05        -0.16654E-06         0.00000E+00
    0.16827E-05        -0.15441E-06         0.00000E+00
    0.17191E-05        -0.14702E-06         0.00000E+00
    0.17556E-05        -0.14362E-06         0.00000E+00
    0.17953E-05        -0.14225E-06         0.00000E+00
    0.18419E-05        -0.13737E-06         0.00000E+00
    0.18973E-05        -0.11808E-06         0.00000E+00
    0.19482E-05        -0.71835E-07         0.00000E+00
    0.19691E-05        -0.40539E-07         0.00000E+00
    0.10083E-05        -0.96677E-07         0.00000E+00
    0.11477E-05        -0.16645E-06         0.00000E+00
    0.13704E-05        -0.24803E-06         0.00000E+00
    0.15284E-05        -0.24422E-06         0.00000E+00
    0.16345E-05        -0.21249E-06         0.00000E+00
    0.17090E-05        -0.18263E-06         0.00000E+00
    0.17643E-05        -0.15846E-06         0.00000E+00
    0.18079E-05        -0.14086E-06         0.00000E+00
    0.18448E-05        -0.12957E-06         0.00000E+00
    0.18785E-05        -0.12418E-06         0.00000E+00
    0.19124E-05        -0.12430E-06         0.00000E+00
    0.19507E-05        -0.12915E-06         0.00000E+00
    0.19995E-05        -0.13693E-06         0.00000E+00
    0.20695E-05        -0.13406E-06         0.00000E+00
    0.21684E-05        -0.90637E-07         0.00000E+00
    0.22235E-05        -0.54399E-07         0.00000E+00
    0.92879E-06        -0.14739E-06         0.00000E+00
    0.11722E-05        -0.20202E-06         0.00000E+00
    0.14974E-05        -0.22709E-06         0.00000E+00
    0.16682E-05        -0.17788E-06         0.00000E+00
    0.17736E-05        -0.14297E-06         0.00000E+00
    0.18443E-05        -0.11681E-06         0.00000E+00
    0.18957E-05        -0.98318E-07         0.00000E+00
    0.19359E-05        -0.85845E-07         0.00000E+00
    0.19696E-05        -0.78404E-07         0.00000E+00
    0.20002E-05        -0.75470E-07         0.00000E+00
    0.20308E-05        -0.76929E-07         0.00000E+00
    0.20657E-05        -0.83115E-07         0.00000E+00
    0.21125E-05        -0.94329E-07         0.00000E+00
    0.21872E-05        -0.11395E-06         0.00000E+00
    0.23370E-05        -0.99366E-07         0.00000E+00
    0.24363E-05        -0.72035E-07         0.00000E+00
    0.90792E-06         0.00000E+00         0.00000E+00
    0.11862E-05         0.00000E+00         0.00000E+00
    0.15518E-05        -0.49055E-20         0.00000E+00
    0.17260E-05         0.70946E-21         0.00000E+00
    0.18298E-05         0.49667E-20         0.00000E+00
    0.18984E-05         0.00000E+00         0.00000E+00
    0.19481E-05         0.00000E+00         0.00000E+00
    0.19868E-05        -0.57561E-20         0.00000E+00
    0.20192E-05        -0.55843E-20         0.00000E+00
    0.20485E-05         0.59087E-20         0.00000E+00
    0.20776E-05         0.58149E-20         0.00000E+00
    0.21109E-05        -0.62748E-20         0.00000E+00
    0.21560E-05         0.26208E-21         0.00000E+00
    0.22310E-05         0.61382E-20         0.00000E+00
    0.24019E-05         0.23773E-21         0.00000E+00
    0.25214E-05         0.00000E+00         0.00000E+00
CELL_DATA        450
TENSORS stressef double 
    0.15149E+08        -0.24952E+06         0.00000E+00
   -0.24952E+06         0.72089E+07         0.00000E+00
    0.00000E+00         0.00000E+00         0.44716E+07
 
    0.13279E+08        -0.25334E+06         0.00000E+00
   -0.25334E+06         0.68081E+07         0.00000E+00
    0.00000E+00         0.00000E+00         0.40174E+07
 
    0.12159E+08        -0.20195E+06         0.00000E+00
   -0.20195E+06         0.64159E+07         0.00000E+00
    0.00000E+00         0.00000E+00         0.37150E+07
 
    0.11319E+08        -0.15754E+06         0.00000E+00
   -0.15754E+06         0.60985E+07         0.00000E+00
    0.00000E+00         0.00000E+00         0.34835E+07
 
    0.10617E+08        -0.11980E+06         0.00000E+00
   -0.11980E+06         0.58549E+07         0.00000E+00
    0.00000E+00         0.00000E+00         0.32943E+07
 
    0.99879E+07        -0.88348E+05         0.00000E+00
   -0.88348E+05         0.56758E+07         0.00000E+00
    0.00000E+00         0.00000E+00         0.31327E+07
 
    0.94000E+07        -0.61879E+05         0.00000E+00
   -0.61879E+05         0.55513E+07         0.00000E+00
    0.00000E+00         0.00000E+00         0.29903E+07
 
    0.88328E+07        -0.39011E+05         0.00000E+00
   -0.39011E+05         0.54740E+07         0.00000E+00
    0.00000E+00         0.00000E+00         0.28614E+07
 
    0.82710E+07        -0.18322E+05         0.00000E+00
   -0.18322E+05         0.54384E+07         0.00000E+00
    0.00000E+00         0.00000E+00         0.27419E+07
 
    0.76994E+07         0.18242E+04         0.00000E+00
    0.18242E+04         0.54424E+07         0.00000E+00
    0.00000E+00         0.00000E+00         0.26284E+07
 
    0.70974E+07         0.23741E+05         0.00000E+00
    0.23741E+05         0.54874E+07         0.00000E+00
    0.00000E+00         0.00000E+00         0.25170E+07
 
    0.64323E+07         0.51457E+05         0.00000E+00
    0.51457E+05         0.55813E+07         0.00000E+00
    0.00000E+00         0.00000E+00         0.24027E+07
 
    0.56428E+07         0.94137E+05         0.00000E+00
    0.94137E+05         0.57445E+07         0.00000E+00
    0.00000E+00         0.00000E+00         0.22775E+07
 
    0.45997E+07         0.17397E+06         0.00000E+00
    0.17397E+06         0.60292E+07         0.00000E+00
    0.00000E+00         0.00000E+00         0.21258E+07
 
    0.28719E+07         0.44495E+06         0.00000E+00
    0.44495E+06         0.66083E+07         0.00000E+00
    0.00000E+00         0.00000E+00         0.18960E+07
 
    0.13288E+08        -0.36184E+06         0.00000E+00
   -0.36184E+06         0.59576E+07         0.00000E+00
    0.00000E+00         0.00000E+00         0.38491E+07
 
    0.11863E+08        -0.57005E+06         0.00000E+00
   -0.57005E+06         0.58736E+07         0.00000E+00
    0.00000E+00         0.00000E+00         0.35473E+07
 
    0.10765E+08        -0.51370E+06         0.00000E+00
   -0.51370E+06         0.56732E+07         0.00000E+00
    0.00000E+00         0.00000E+00         0.32876E+07
 
    0.99119E+07        -0.41726E+06         0.00000E+00
   -0.41726E+06         0.54661E+07         0.00000E+00
    0.00000E+00         0.00000E+00         0.30756E+07
 
    0.91896E+07        -0.32304E+06         0.00000E+00
   -0.32304E+06         0.52903E+07         0.00000E+00
    0.00000E+00         0.00000E+00         0.28960E+07
 
    0.85419E+07        -0.23934E+06         0.00000E+00
   -0.23934E+06         0.51552E+07         0.00000E+00
    0.00000E+00         0.00000E+00         0.27394E+07
 
    0.79376E+07        -0.16628E+06         0.00000E+00
   -0.16628E+06         0.50609E+07         0.00000E+00
    0.00000E+00         0.00000E+00         0.25997E+07
 
    0.73568E+07        -0.10149E+06         0.00000E+00
   -0.10149E+06         0.50051E+07         0.00000E+00
    0.00000E+00         0.00000E+00         0.24724E+07
 
    0.67847E+07        -0.41567E+05         0.00000E+00
   -0.41567E+05         0.49862E+07         0.00000E+00
    0.00000E+00         0.00000E+00         0.23542E+07
 
    0.62067E+07         0.17999E+05         0.00000E+00
    0.17999E+05         0.50041E+07         0.00000E+00
    0.00000E+00         0.00000E+00         0.22422E+07
 
    0.56043E+07         0.84005E+05         0.00000E+00
    0.84005E+05         0.50621E+07         0.00000E+00
    0.00000E+00         0.00000E+00         0.21333E+07
 
    0.49499E+07         0.16871E+06         0.00000E+00
    0.16871E+06         0.51693E+07         0.00000E+00
    0.00000E+00         0.00000E+00         0.20238E+07
 
    0.41990E+07         0.29825E+06         0.00000E+00
    0.29825E+06         0.53456E+07         0.00000E+00
    0.00000E+00         0.00000E+00         0.19089E+07
 
    0.32673E+07         0.54247E+06         0.00000E+00
    0.54247E+06         0.56336E+07         0.00000E+00
    0.00000E+00         0.00000E+00         0.17802E+07
 
    0.21683E+07         0.11417E+07         0.00000E+00
    0.11417E+07         0.60951E+07         0.00000E+00
    0.00000E+00         0.00000E+00         0.16527E+07
 
    0.11507E+08        -0.32137E+06         0.00000E+00
   -0.32137E+06         0.47291E+07         0.00000E+00
    0.00000E+00         0.00000E+00         0.32472E+07
 
    0.10526E+08        -0.62216E+06         0.00000E+00
   -0.62216E+06         0.47747E+07         0.00000E+00
    0.00000E+00         0.00000E+00         0.30601E+07
 
    0.95761E+07        -0.64268E+06         0.00000E+00
   -0.64268E+06         0.47636E+07         0.00000E+00
    0.00000E+00         0.00000E+00         0.28679E+07
 
    0.87462E+07        -0.55604E+06         0.00000E+00
   -0.55604E+06         0.47026E+07         0.00000E+00
    0.00000E+00         0.00000E+00         0.26898E+07
 
    0.80161E+07        -0.44354E+06         0.00000E+00
   -0.44354E+06         0.46303E+07         0.00000E+00
    0.00000E+00         0.00000E+00         0.25293E+07
 
    0.73526E+07        -0.33139E+06         0.00000E+00
   -0.33139E+06         0.45682E+07         0.00000E+00
    0.00000E+00         0.00000E+00         0.23842E+07
 
    0.67324E+07        -0.22676E+06         0.00000E+00
   -0.22676E+06         0.45263E+07         0.00000E+00
    0.00000E+00         0.00000E+00         0.22517E+07
 
    0.61388E+07        -0.12948E+06         0.00000E+00
   -0.12948E+06         0.45097E+07         0.00000E+00
    0.00000E+00         0.00000E+00         0.21297E+07
 
    0.55586E+07        -0.35981E+05         0.00000E+00
   -0.35981E+05         0.45212E+07         0.00000E+00
    0.00000E+00         0.00000E+00         0.20160E+07
 
    0.49795E+07         0.60037E+05         0.00000E+00
    0.60037E+05         0.45642E+07         0.00000E+00
    0.00000E+00         0.00000E+00         0.19087E+07
 
    0.43876E+07         0.16896E+06         0.00000E+00
    0.16896E+06         0.46439E+07         0.00000E+00
    0.00000E+00         0.00000E+00         0.18063E+07
 
    0.37658E+07         0.30953E+06         0.00000E+00
    0.30953E+06         0.47691E+07         0.00000E+00
    0.00000E+00         0.00000E+00         0.17070E+07
 
    0.30946E+07         0.51918E+06         0.00000E+00
    0.51918E+06         0.49534E+07         0.00000E+00
    0.00000E+00         0.00000E+00         0.16096E+07
 
    0.23781E+07         0.88072E+06         0.00000E+00
    0.88072E+06         0.52112E+07         0.00000E+00
    0.00000E+00         0.00000E+00         0.15178E+07
 
    0.17106E+07         0.15247E+07         0.00000E+00
    0.15247E+07         0.54979E+07         0.00000E+00
    0.00000E+00         0.00000E+00         0.14417E+07
 
    0.99709E+07        -0.25339E+06         0.00000E+00
   -0.25339E+06         0.36761E+07         0.00000E+00
    0.00000E+00         0.00000E+00         0.27294E+07
 
    0.93134E+07        -0.54484E+06         0.00000E+00
   -0.54484E+06         0.37670E+07         0.00000E+00
    0.00000E+00         0.00000E+00         0.26161E+07
 
    0.85407E+07        -0.61771E+06         0.00000E+00
   -0.61771E+06         0.38567E+07         0.00000E+00
    0.00000E+00         0.00000E+00         0.24795E+07
 
    0.77781E+07        -0.56885E+06         0.00000E+00
   -0.56885E+06         0.39107E+07         0.00000E+00
    0.00000E+00         0.00000E+00         0.23378E+07
 
    0.70635E+07        -0.46821E+06         0.00000E+00
   -0.46821E+06         0.39368E+07         0.00000E+00
    0.00000E+00         0.00000E+00         0.22001E+07
 
    0.63967E+07        -0.35128E+06         0.00000E+00
   -0.35128E+06         0.39522E+07         0.00000E+00
    0.00000E+00         0.00000E+00         0.20698E+07
 
    0.57680E+07        -0.23209E+06         0.00000E+00
   -0.23209E+06         0.39700E+07         0.00000E+00
    0.00000E+00         0.00000E+00         0.19476E+07
 
    0.51669E+07        -0.11408E+06         0.00000E+00
   -0.11408E+06         0.39993E+07         0.00000E+00
    0.00000E+00         0.00000E+00         0.18332E+07
 
    0.45842E+07         0.50372E+04         0.00000E+00
    0.50372E+04         0.40469E+07         0.00000E+00
    0.00000E+00         0.00000E+00         0.17262E+07
 
    0.40113E+07         0.13189E+06         0.00000E+00
    0.13189E+06         0.41186E+07         0.00000E+00
    0.00000E+00         0.00000E+00         0.16260E+07
 
    0.34406E+07         0.27843E+06         0.00000E+00
    0.27843E+06         0.42202E+07         0.00000E+00
    0.00000E+00         0.00000E+00         0.15322E+07
 
    0.28676E+07         0.46545E+06         0.00000E+00
    0.46545E+06         0.43574E+07         0.00000E+00
    0.00000E+00         0.00000E+00         0.14450E+07
 
    0.22986E+07         0.72958E+06         0.00000E+00
    0.72958E+06         0.45331E+07         0.00000E+00
    0.00000E+00         0.00000E+00         0.13663E+07
 
    0.17717E+07         0.11270E+07         0.00000E+00
    0.11270E+07         0.47329E+07         0.00000E+00
    0.00000E+00         0.00000E+00         0.13009E+07
 
    0.13848E+07         0.17201E+07         0.00000E+00
    0.17201E+07         0.49041E+07         0.00000E+00
    0.00000E+00         0.00000E+00         0.12578E+07
 
    0.87234E+07        -0.18095E+06         0.00000E+00
   -0.18095E+06         0.28044E+07         0.00000E+00
    0.00000E+00         0.00000E+00         0.23056E+07
 
    0.82781E+07        -0.41787E+06         0.00000E+00
   -0.41787E+06         0.29091E+07         0.00000E+00
    0.00000E+00         0.00000E+00         0.22374E+07
 
    0.76555E+07        -0.50518E+06         0.00000E+00
   -0.50518E+06         0.30440E+07         0.00000E+00
    0.00000E+00         0.00000E+00         0.21399E+07
 
    0.69749E+07        -0.48771E+06         0.00000E+00
   -0.48771E+06         0.31654E+07         0.00000E+00
    0.00000E+00         0.00000E+00         0.20281E+07
 
    0.62959E+07        -0.41034E+06         0.00000E+00
   -0.41034E+06         0.32628E+07         0.00000E+00
    0.00000E+00         0.00000E+00         0.19117E+07
 
    0.56410E+07        -0.30358E+06         0.00000E+00
   -0.30358E+06         0.33419E+07         0.00000E+00
    0.00000E+00         0.00000E+00         0.17966E+07
 
    0.50147E+07        -0.18337E+06         0.00000E+00
   -0.18337E+06         0.34126E+07         0.00000E+00
    0.00000E+00         0.00000E+00         0.16855E+07
 
    0.44147E+07        -0.55580E+05         0.00000E+00
   -0.55580E+05         0.34845E+07         0.00000E+00
    0.00000E+00         0.00000E+00         0.15798E+07
 
    0.38369E+07         0.80416E+05         0.00000E+00
    0.80416E+05         0.35656E+07         0.00000E+00
    0.00000E+00         0.00000E+00         0.14805E+07
 
    0.32778E+07         0.23027E+06         0.00000E+00
    0.23027E+06         0.36626E+07         0.00000E+00
    0.00000E+00         0.00000E+00         0.13881E+07
 
    0.27363E+07         0.40494E+06         0.00000E+00
    0.40494E+06         0.37802E+07         0.00000E+00
    0.00000E+00         0.00000E+00         0.13033E+07
 
    0.22180E+07         0.62241E+06         0.00000E+00
    0.62241E+06         0.39203E+07         0.00000E+00
    0.00000E+00         0.00000E+00         0.12277E+07
 
    0.17427E+07         0.90894E+06         0.00000E+00
    0.90894E+06         0.40768E+07         0.00000E+00
    0.00000E+00         0.00000E+00         0.11639E+07
 
    0.13560E+07         0.12960E+07         0.00000E+00
    0.12960E+07         0.42274E+07         0.00000E+00
    0.00000E+00         0.00000E+00         0.11167E+07
 
    0.11403E+07         0.18073E+07         0.00000E+00
    0.18073E+07         0.43244E+07         0.00000E+00
    0.00000E+00         0.00000E+00         0.10929E+07
 
    0.77580E+07        -0.11239E+06         0.00000E+00
   -0.11239E+06         0.20987E+07         0.00000E+00
    0.00000E+00         0.00000E+00         0.19713E+07
 
    0.74365E+07        -0.27748E+06         0.00000E+00
   -0.27748E+06         0.22017E+07         0.00000E+00
    0.00000E+00         0.00000E+00         0.19276E+07
 
    0.69222E+07        -0.35334E+06         0.00000E+00
   -0.35334E+06         0.23500E+07         0.00000E+00
    0.00000E+00         0.00000E+00         0.18544E+07
 
    0.63162E+07        -0.35204E+06         0.00000E+00
   -0.35204E+06         0.25021E+07         0.00000E+00
    0.00000E+00         0.00000E+00         0.17637E+07
 
    0.56810E+07        -0.29587E+06         0.00000E+00
   -0.29587E+06         0.26399E+07         0.00000E+00
    0.00000E+00         0.00000E+00         0.16642E+07
 
    0.50496E+07        -0.20468E+06         0.00000E+00
   -0.20468E+06         0.27606E+07         0.00000E+00
    0.00000E+00         0.00000E+00         0.15620E+07
 
    0.44365E+07        -0.91366E+05         0.00000E+00
   -0.91366E+05         0.28690E+07         0.00000E+00
    0.00000E+00         0.00000E+00         0.14611E+07
 
    0.38470E+07         0.38029E+05         0.00000E+00
    0.38029E+05         0.29725E+07         0.00000E+00
    0.00000E+00         0.00000E+00         0.13639E+07
 
    0.32821E+07         0.18293E+06         0.00000E+00
    0.18293E+06         0.30784E+07         0.00000E+00
    0.00000E+00         0.00000E+00         0.12721E+07
 
    0.27430E+07         0.34724E+06         0.00000E+00
    0.34724E+06         0.31926E+07         0.00000E+00
    0.00000E+00         0.00000E+00         0.11871E+07
 
    0.22340E+07         0.53902E+06         0.00000E+00
    0.53902E+06         0.33183E+07         0.00000E+00
    0.00000E+00         0.00000E+00         0.11105E+07
 
    0.17665E+07         0.77050E+06         0.00000E+00
    0.77050E+06         0.34542E+07         0.00000E+00
    0.00000E+00         0.00000E+00         0.10441E+07
 
    0.13647E+07         0.10567E+07         0.00000E+00
    0.10567E+07         0.35905E+07         0.00000E+00
    0.00000E+00         0.00000E+00         0.99105E+06
 
    0.10711E+07         0.14109E+07         0.00000E+00
    0.14109E+07         0.37048E+07         0.00000E+00
    0.00000E+00         0.00000E+00         0.95519E+06
 
    0.94966E+06         0.18353E+07         0.00000E+00
    0.18353E+07         0.37590E+07         0.00000E+00
    0.00000E+00         0.00000E+00         0.94174E+06
 
    0.70445E+07        -0.51536E+05         0.00000E+00
   -0.51536E+05         0.15336E+07         0.00000E+00
    0.00000E+00         0.00000E+00         0.17156E+07
 
    0.67794E+07        -0.14205E+06         0.00000E+00
   -0.14205E+06         0.16269E+07         0.00000E+00
    0.00000E+00         0.00000E+00         0.16813E+07
 
    0.63320E+07        -0.19221E+06         0.00000E+00
   -0.19221E+06         0.17699E+07         0.00000E+00
    0.00000E+00         0.00000E+00         0.16204E+07
 
    0.57835E+07        -0.19384E+06         0.00000E+00
   -0.19384E+06         0.19273E+07         0.00000E+00
    0.00000E+00         0.00000E+00         0.15422E+07
 
    0.51907E+07        -0.15201E+06         0.00000E+00
   -0.15201E+06         0.20793E+07         0.00000E+00
    0.00000E+00         0.00000E+00         0.14540E+07
 
    0.45888E+07        -0.75597E+05         0.00000E+00
   -0.75597E+05         0.22188E+07         0.00000E+00
    0.00000E+00         0.00000E+00         0.13615E+07
 
    0.39973E+07         0.27848E+05         0.00000E+00
    0.27848E+05         0.23464E+07         0.00000E+00
    0.00000E+00         0.00000E+00         0.12687E+07
 
    0.34262E+07         0.15397E+06         0.00000E+00
    0.15397E+06         0.24667E+07         0.00000E+00
    0.00000E+00         0.00000E+00         0.11786E+07
 
    0.28809E+07         0.30174E+06         0.00000E+00
    0.30174E+06         0.25852E+07         0.00000E+00
    0.00000E+00         0.00000E+00         0.10932E+07
 
    0.23660E+07         0.47309E+06         0.00000E+00
    0.47309E+06         0.27065E+07         0.00000E+00
    0.00000E+00         0.00000E+00         0.10145E+07
 
    0.18891E+07         0.67245E+06         0.00000E+00
    0.67245E+06         0.28323E+07         0.00000E+00
    0.00000E+00         0.00000E+00         0.94428E+06
 
    0.14639E+07         0.90579E+06         0.00000E+00
    0.90579E+06         0.29595E+07         0.00000E+00
    0.00000E+00         0.00000E+00         0.88469E+06
 
    0.11139E+07         0.11787E+07         0.00000E+00
    0.11787E+07         0.30781E+07         0.00000E+00
    0.00000E+00         0.00000E+00         0.83841E+06
 
    0.87474E+06         0.14921E+07         0.00000E+00
    0.14921E+07         0.31686E+07         0.00000E+00
    0.00000E+00         0.00000E+00         0.80868E+06
 
    0.79415E+06         0.18363E+07         0.00000E+00
    0.18363E+07         0.32022E+07         0.00000E+00
    0.00000E+00         0.00000E+00         0.79927E+06
 
    0.65424E+07        -0.89013E+02         0.00000E+00
   -0.89013E+02         0.10809E+07         0.00000E+00
    0.00000E+00         0.00000E+00         0.15247E+07
 
    0.62833E+07        -0.21437E+05         0.00000E+00
   -0.21437E+05         0.11602E+07         0.00000E+00
    0.00000E+00         0.00000E+00         0.14887E+07
 
    0.58671E+07        -0.40376E+05         0.00000E+00
   -0.40376E+05         0.12867E+07         0.00000E+00
    0.00000E+00         0.00000E+00         0.14308E+07
 
    0.53567E+07        -0.36349E+05         0.00000E+00
   -0.36349E+05         0.14320E+07         0.00000E+00
    0.00000E+00         0.00000E+00         0.13577E+07
 
    0.47997E+07        -0.20957E+04         0.00000E+00
   -0.20957E+04         0.15780E+07         0.00000E+00
    0.00000E+00         0.00000E+00         0.12755E+07
 
    0.42286E+07         0.62872E+05         0.00000E+00
    0.62872E+05         0.17162E+07         0.00000E+00
    0.00000E+00         0.00000E+00         0.11890E+07
 
    0.36638E+07         0.15671E+06         0.00000E+00
    0.15671E+06         0.18448E+07         0.00000E+00
    0.00000E+00         0.00000E+00         0.11017E+07
 
    0.31172E+07         0.27759E+06         0.00000E+00
    0.27759E+06         0.19662E+07         0.00000E+00
    0.00000E+00         0.00000E+00         0.10167E+07
 
    0.25964E+07         0.42467E+06         0.00000E+00
    0.42467E+06         0.20843E+07         0.00000E+00
    0.00000E+00         0.00000E+00         0.93615E+06
 
    0.21080E+07         0.59814E+06         0.00000E+00
    0.59814E+06         0.22022E+07         0.00000E+00
    0.00000E+00         0.00000E+00         0.86205E+06
 
    0.16607E+07         0.79885E+06         0.00000E+00
    0.79885E+06         0.23208E+07         0.00000E+00
    0.00000E+00         0.00000E+00         0.79630E+06
 
    0.12679E+07         0.10273E+07         0.00000E+00
    0.10273E+07         0.24366E+07         0.00000E+00
    0.00000E+00         0.00000E+00         0.74091E+06
 
    0.95033E+06         0.12817E+07         0.00000E+00
    0.12817E+07         0.25406E+07         0.00000E+00
    0.00000E+00         0.00000E+00         0.69819E+06
 
    0.73612E+06         0.15552E+07         0.00000E+00
    0.15552E+07         0.26173E+07         0.00000E+00
    0.00000E+00         0.00000E+00         0.67069E+06
 
    0.66006E+06         0.18315E+07         0.00000E+00
    0.18315E+07         0.26457E+07         0.00000E+00
    0.00000E+00         0.00000E+00         0.66115E+06
 
    0.62080E+07         0.41349E+05         0.00000E+00
    0.41349E+05         0.71260E+06         0.00000E+00
    0.00000E+00         0.00000E+00         0.13841E+07
 
    0.59182E+07         0.78978E+05         0.00000E+00
    0.78978E+05         0.77582E+06         0.00000E+00
    0.00000E+00         0.00000E+00         0.13388E+07
 
    0.55045E+07         0.90495E+05         0.00000E+00
    0.90495E+05         0.87894E+06         0.00000E+00
    0.00000E+00         0.00000E+00         0.12767E+07
 
    0.50141E+07         0.10402E+06         0.00000E+00
    0.10402E+06         0.10004E+07         0.00000E+00
    0.00000E+00         0.00000E+00         0.12029E+07
 
    0.44844E+07         0.13541E+06         0.00000E+00
    0.13541E+06         0.11252E+07         0.00000E+00
    0.00000E+00         0.00000E+00         0.11219E+07
 
    0.39428E+07         0.19252E+06         0.00000E+00
    0.19252E+06         0.12456E+07         0.00000E+00
    0.00000E+00         0.00000E+00         0.10377E+07
 
    0.34072E+07         0.27860E+06         0.00000E+00
    0.27860E+06         0.13591E+07         0.00000E+00
    0.00000E+00         0.00000E+00         0.95327E+06
 
    0.28892E+07         0.39451E+06         0.00000E+00
    0.39451E+06         0.14670E+07         0.00000E+00
    0.00000E+00         0.00000E+00         0.87124E+06
 
    0.23964E+07         0.53987E+06         0.00000E+00
    0.53987E+06         0.15721E+07         0.00000E+00
    0.00000E+00         0.00000E+00         0.79370E+06
 
    0.19354E+07         0.71351E+06         0.00000E+00
    0.71351E+06         0.16769E+07         0.00000E+00
    0.00000E+00         0.00000E+00         0.72245E+06
 
    0.15143E+07         0.91324E+06         0.00000E+00
    0.91324E+06         0.17818E+07         0.00000E+00
    0.00000E+00         0.00000E+00         0.65923E+06
 
    0.11450E+07         0.11351E+07         0.00000E+00
    0.11351E+07         0.18840E+07         0.00000E+00
    0.00000E+00         0.00000E+00         0.60580E+06
 
    0.84413E+06         0.13719E+07         0.00000E+00
    0.13719E+07         0.19761E+07         0.00000E+00
    0.00000E+00         0.00000E+00         0.56405E+06
 
    0.63323E+06         0.16116E+07         0.00000E+00
    0.16116E+07         0.20465E+07         0.00000E+00
    0.00000E+00         0.00000E+00         0.53594E+06
 
    0.53731E+06         0.18347E+07         0.00000E+00
    0.18347E+07         0.20799E+07         0.00000E+00
    0.00000E+00         0.00000E+00         0.52345E+06
 
    0.59986E+07         0.72650E+05         0.00000E+00
    0.72650E+05         0.40342E+06         0.00000E+00
    0.00000E+00         0.00000E+00         0.12804E+07
 
    0.56517E+07         0.15614E+06         0.00000E+00
    0.15614E+06         0.44931E+06         0.00000E+00
    0.00000E+00         0.00000E+00         0.12202E+07
 
    0.52187E+07         0.19284E+06         0.00000E+00
    0.19284E+06         0.52471E+06         0.00000E+00
    0.00000E+00         0.00000E+00         0.11487E+07
 
    0.47332E+07         0.21561E+06         0.00000E+00
    0.21561E+06         0.61406E+06         0.00000E+00
    0.00000E+00         0.00000E+00         0.10695E+07
 
    0.42230E+07         0.24629E+06         0.00000E+00
    0.24629E+06         0.70639E+06         0.00000E+00
    0.00000E+00         0.00000E+00         0.98587E+06
 
    0.37084E+07         0.29830E+06         0.00000E+00
    0.29830E+06         0.79576E+06         0.00000E+00
    0.00000E+00         0.00000E+00         0.90083E+06
 
    0.32034E+07         0.37903E+06         0.00000E+00
    0.37903E+06         0.88055E+06         0.00000E+00
    0.00000E+00         0.00000E+00         0.81679E+06
 
    0.27168E+07         0.49173E+06         0.00000E+00
    0.49173E+06         0.96207E+06         0.00000E+00
    0.00000E+00         0.00000E+00         0.73577E+06
 
    0.22543E+07         0.63660E+06         0.00000E+00
    0.63660E+06         0.10430E+07         0.00000E+00
    0.00000E+00         0.00000E+00         0.65947E+06
 
    0.18212E+07         0.81140E+06         0.00000E+00
    0.81140E+06         0.11259E+07         0.00000E+00
    0.00000E+00         0.00000E+00         0.58940E+06
 
    0.14235E+07         0.10115E+07         0.00000E+00
    0.10115E+07         0.12115E+07         0.00000E+00
    0.00000E+00         0.00000E+00         0.52698E+06
 
    0.10702E+07         0.12293E+07         0.00000E+00
    0.12293E+07         0.12980E+07         0.00000E+00
    0.00000E+00         0.00000E+00         0.47363E+06
 
    0.77394E+06         0.14538E+07         0.00000E+00
    0.14538E+07         0.13801E+07         0.00000E+00
    0.00000E+00         0.00000E+00         0.43081E+06
 
    0.55071E+06         0.16693E+07         0.00000E+00
    0.16693E+07         0.14494E+07         0.00000E+00
    0.00000E+00         0.00000E+00         0.40001E+06
 
    0.41855E+06         0.18547E+07         0.00000E+00
    0.18547E+07         0.14949E+07         0.00000E+00
    0.00000E+00         0.00000E+00         0.38268E+06
 
    0.58737E+07         0.93788E+05         0.00000E+00
    0.93788E+05         0.13084E+06         0.00000E+00
    0.00000E+00         0.00000E+00         0.12009E+07
 
    0.54511E+07         0.20811E+06         0.00000E+00
    0.20811E+06         0.15857E+06         0.00000E+00
    0.00000E+00         0.00000E+00         0.11219E+07
 
    0.49829E+07         0.26147E+06         0.00000E+00
    0.26147E+06         0.20311E+06         0.00000E+00
    0.00000E+00         0.00000E+00         0.10372E+07
 
    0.44914E+07         0.28995E+06         0.00000E+00
    0.28995E+06         0.25432E+06         0.00000E+00
    0.00000E+00         0.00000E+00         0.94914E+06
 
    0.39945E+07         0.31964E+06         0.00000E+00
    0.31964E+06         0.30540E+06         0.00000E+00
    0.00000E+00         0.00000E+00         0.85998E+06
 
    0.35053E+07         0.36806E+06         0.00000E+00
    0.36806E+06         0.35326E+06         0.00000E+00
    0.00000E+00         0.00000E+00         0.77171E+06
 
    0.30320E+07         0.44583E+06         0.00000E+00
    0.44583E+06         0.39807E+06         0.00000E+00
    0.00000E+00         0.00000E+00         0.68601E+06
 
    0.25792E+07         0.55810E+06         0.00000E+00
    0.55810E+06         0.44227E+06         0.00000E+00
    0.00000E+00         0.00000E+00         0.60430E+06
 
    0.21495E+07         0.70555E+06         0.00000E+00
    0.70555E+06         0.48935E+06         0.00000E+00
    0.00000E+00         0.00000E+00         0.52776E+06
 
    0.17448E+07         0.88508E+06         0.00000E+00
    0.88508E+06         0.54257E+06         0.00000E+00
    0.00000E+00         0.00000E+00         0.45747E+06
 
    0.13683E+07         0.10900E+07         0.00000E+00
    0.10900E+07         0.60382E+06         0.00000E+00
    0.00000E+00         0.00000E+00         0.39443E+06
 
    0.10256E+07         0.13099E+07         0.00000E+00
    0.13099E+07         0.67270E+06         0.00000E+00
    0.00000E+00         0.00000E+00         0.33966E+06
 
    0.72506E+06         0.15307E+07         0.00000E+00
    0.15307E+07         0.74602E+06         0.00000E+00
    0.00000E+00         0.00000E+00         0.29422E+06
 
    0.47823E+06         0.17339E+07         0.00000E+00
    0.17339E+07         0.81780E+06         0.00000E+00
    0.00000E+00         0.00000E+00         0.25921E+06
 
    0.29839E+06         0.18972E+07         0.00000E+00
    0.18972E+07         0.88010E+06         0.00000E+00
    0.00000E+00         0.00000E+00         0.23570E+06
 
    0.57944E+07         0.10465E+06         0.00000E+00
    0.10465E+06        -0.12498E+06         0.00000E+00
    0.00000E+00         0.00000E+00         0.11339E+07
 
    0.52840E+07         0.23335E+06         0.00000E+00
    0.23335E+06        -0.11626E+06         0.00000E+00
    0.00000E+00         0.00000E+00         0.10336E+07
 
    0.47705E+07         0.29246E+06         0.00000E+00
    0.29246E+06        -0.10519E+06         0.00000E+00
    0.00000E+00         0.00000E+00         0.93305E+06
 
    0.42658E+07         0.32059E+06         0.00000E+00
    0.32059E+06        -0.96982E+05         0.00000E+00
    0.00000E+00         0.00000E+00         0.83377E+06
 
    0.37790E+07         0.34694E+06         0.00000E+00
    0.34694E+06        -0.94136E+05         0.00000E+00
    0.00000E+00         0.00000E+00         0.73697E+06
 
    0.33150E+07         0.39208E+06         0.00000E+00
    0.39208E+06        -0.96323E+05         0.00000E+00
    0.00000E+00         0.00000E+00         0.64373E+06
 
    0.28755E+07         0.46902E+06         0.00000E+00
    0.46902E+06        -0.10079E+06         0.00000E+00
    0.00000E+00         0.00000E+00         0.55494E+06
 
    0.24597E+07         0.58429E+06         0.00000E+00
    0.58429E+06        -0.10311E+06         0.00000E+00
    0.00000E+00         0.00000E+00         0.47131E+06
 
    0.20654E+07         0.73886E+06         0.00000E+00
    0.73886E+06        -0.98187E+05         0.00000E+00
    0.00000E+00         0.00000E+00         0.39345E+06
 
    0.16907E+07         0.92879E+06         0.00000E+00
    0.92879E+06        -0.81263E+05         0.00000E+00
    0.00000E+00         0.00000E+00         0.32189E+06
 
    0.13347E+07         0.11456E+07         0.00000E+00
    0.11456E+07        -0.48872E+05         0.00000E+00
    0.00000E+00         0.00000E+00         0.25716E+06
 
    0.99888E+06         0.13766E+07         0.00000E+00
    0.13766E+07         0.37856E+03         0.00000E+00
    0.00000E+00         0.00000E+00         0.19985E+06
 
    0.68782E+06         0.16047E+07         0.00000E+00
    0.16047E+07         0.65328E+05         0.00000E+00
    0.00000E+00         0.00000E+00         0.15063E+06
 
    0.40908E+06         0.18093E+07         0.00000E+00
    0.18093E+07         0.14217E+06         0.00000E+00
    0.00000E+00         0.00000E+00         0.11025E+06
 
    0.17280E+06         0.19663E+07         0.00000E+00
    0.19663E+07         0.22483E+06         0.00000E+00
    0.00000E+00         0.00000E+00         0.79528E+05
 
    0.57234E+07         0.10494E+06         0.00000E+00
    0.10494E+06        -0.38195E+06         0.00000E+00
    0.00000E+00         0.00000E+00         0.10683E+07
 
    0.51181E+07         0.23036E+06         0.00000E+00
    0.23036E+06        -0.39325E+06         0.00000E+00
    0.00000E+00         0.00000E+00         0.94497E+06
 
    0.45539E+07         0.28253E+06         0.00000E+00
    0.28253E+06        -0.41814E+06         0.00000E+00
    0.00000E+00         0.00000E+00         0.82716E+06
 
    0.40336E+07         0.30232E+06         0.00000E+00
    0.30232E+06        -0.45718E+06         0.00000E+00
    0.00000E+00         0.00000E+00         0.71529E+06
 
    0.35568E+07         0.32139E+06         0.00000E+00
    0.32139E+06        -0.50846E+06         0.00000E+00
    0.00000E+00         0.00000E+00         0.60966E+06
 
    0.31202E+07         0.36255E+06         0.00000E+00
    0.36255E+06        -0.56785E+06         0.00000E+00
    0.00000E+00         0.00000E+00         0.51047E+06
 
    0.27182E+07         0.44049E+06         0.00000E+00
    0.44049E+06        -0.62939E+06         0.00000E+00
    0.00000E+00         0.00000E+00         0.41777E+06
 
    0.23438E+07         0.56263E+06         0.00000E+00
    0.56263E+06        -0.68600E+06         0.00000E+00
    0.00000E+00         0.00000E+00         0.33155E+06
 
    0.19891E+07         0.72995E+06         0.00000E+00
    0.72995E+06        -0.73033E+06         0.00000E+00
    0.00000E+00         0.00000E+00         0.25175E+06
 
    0.16471E+07         0.93764E+06         0.00000E+00
    0.93764E+06        -0.75553E+06         0.00000E+00
    0.00000E+00         0.00000E+00         0.17830E+06
 
    0.13122E+07         0.11756E+07         0.00000E+00
    0.11756E+07        -0.75610E+06         0.00000E+00
    0.00000E+00         0.00000E+00         0.11123E+06
 
    0.98174E+06         0.14287E+07         0.00000E+00
    0.14287E+07        -0.72855E+06         0.00000E+00
    0.00000E+00         0.00000E+00         0.50637E+05
 
    0.65595E+06         0.16775E+07         0.00000E+00
    0.16775E+07        -0.67196E+06         0.00000E+00
    0.00000E+00         0.00000E+00        -0.32036E+04
 
    0.33897E+06         0.18985E+07         0.00000E+00
    0.18985E+07        -0.58825E+06         0.00000E+00
    0.00000E+00         0.00000E+00        -0.49855E+05
 
    0.38680E+05         0.20656E+07         0.00000E+00
    0.20656E+07        -0.48217E+06         0.00000E+00
    0.00000E+00         0.00000E+00        -0.88698E+05
 
    0.56235E+07         0.94230E+05         0.00000E+00
    0.94230E+05        -0.65679E+06         0.00000E+00
    0.00000E+00         0.00000E+00         0.99334E+06
 
    0.49209E+07         0.19756E+06         0.00000E+00
    0.19756E+06        -0.68933E+06         0.00000E+00
    0.00000E+00         0.00000E+00         0.84630E+06
 
    0.43056E+07         0.22869E+06         0.00000E+00
    0.22869E+06        -0.75277E+06         0.00000E+00
    0.00000E+00         0.00000E+00         0.71057E+06
 
    0.37711E+07         0.23075E+06         0.00000E+00
    0.23075E+06        -0.84303E+06         0.00000E+00
    0.00000E+00         0.00000E+00         0.58562E+06
 
    0.33078E+07         0.23744E+06         0.00000E+00
    0.23744E+06        -0.95369E+06         0.00000E+00
    0.00000E+00         0.00000E+00         0.47083E+06
 
    0.29037E+07         0.27318E+06         0.00000E+00
    0.27318E+06        -0.10764E+07         0.00000E+00
    0.00000E+00         0.00000E+00         0.36546E+06
 
    0.25453E+07         0.35373E+06         0.00000E+00
    0.35373E+06        -0.12017E+07         0.00000E+00
    0.00000E+00         0.00000E+00         0.26874E+06
 
    0.22184E+07         0.48694E+06         0.00000E+00
    0.48694E+06        -0.13192E+07         0.00000E+00
    0.00000E+00         0.00000E+00         0.17985E+06
 
    0.19089E+07         0.67348E+06         0.00000E+00
    0.67348E+06        -0.14188E+07         0.00000E+00
    0.00000E+00         0.00000E+00         0.98021E+05
 
    0.16041E+07         0.90754E+06         0.00000E+00
    0.90754E+06        -0.14913E+07         0.00000E+00
    0.00000E+00         0.00000E+00         0.22562E+05
 
    0.12931E+07         0.11773E+07         0.00000E+00
    0.11773E+07        -0.15286E+07         0.00000E+00
    0.00000E+00         0.00000E+00        -0.47100E+05
 
    0.96810E+06         0.14656E+07         0.00000E+00
    0.14656E+07        -0.15249E+07         0.00000E+00
    0.00000E+00         0.00000E+00        -0.11135E+06
 
    0.62521E+06         0.17500E+07         0.00000E+00
    0.17500E+07        -0.14770E+07         0.00000E+00
    0.00000E+00         0.00000E+00        -0.17036E+06
 
    0.26501E+06         0.20041E+07         0.00000E+00
    0.20041E+07        -0.13850E+07         0.00000E+00
    0.00000E+00         0.00000E+00        -0.22400E+06
 
   -0.10664E+06         0.21987E+07         0.00000E+00
    0.21987E+07        -0.12526E+07         0.00000E+00
    0.00000E+00         0.00000E+00        -0.27184E+06
 
    0.54570E+07         0.71911E+05         0.00000E+00
    0.71911E+05        -0.96580E+06         0.00000E+00
    0.00000E+00         0.00000E+00         0.89823E+06
 
    0.46588E+07         0.13321E+06         0.00000E+00
    0.13321E+06        -0.10210E+07         0.00000E+00
    0.00000E+00         0.00000E+00         0.72756E+06
 
    0.39966E+07         0.12814E+06         0.00000E+00
    0.12814E+06        -0.11258E+07         0.00000E+00
    0.00000E+00         0.00000E+00         0.57417E+06
 
    0.34540E+07         0.10212E+06         0.00000E+00
    0.10212E+06        -0.12712E+07         0.00000E+00
    0.00000E+00         0.00000E+00         0.43656E+06
 
    0.30115E+07         0.90568E+05         0.00000E+00
    0.90568E+05        -0.14460E+07         0.00000E+00
    0.00000E+00         0.00000E+00         0.31310E+06
 
    0.26481E+07         0.11902E+06         0.00000E+00
    0.11902E+06        -0.16374E+07         0.00000E+00
    0.00000E+00         0.00000E+00         0.20213E+06
 
    0.23418E+07         0.20374E+06         0.00000E+00
    0.20374E+06        -0.18320E+07         0.00000E+00
    0.00000E+00         0.00000E+00         0.10196E+06
 
    0.20707E+07         0.35249E+06         0.00000E+00
    0.35249E+06        -0.20159E+07         0.00000E+00
    0.00000E+00         0.00000E+00         0.10958E+05
 
    0.18140E+07         0.56530E+06         0.00000E+00
    0.56530E+06        -0.21760E+07         0.00000E+00
    0.00000E+00         0.00000E+00        -0.72397E+05
 
    0.15527E+07         0.83523E+06         0.00000E+00
    0.83523E+06        -0.23002E+07         0.00000E+00
    0.00000E+00         0.00000E+00        -0.14950E+06
 
    0.12700E+07         0.11488E+07         0.00000E+00
    0.11488E+07        -0.23777E+07         0.00000E+00
    0.00000E+00         0.00000E+00        -0.22154E+06
 
    0.95281E+06         0.14864E+07         0.00000E+00
    0.14864E+07        -0.24001E+07         0.00000E+00
    0.00000E+00         0.00000E+00        -0.28946E+06
 
    0.59221E+06         0.18230E+07         0.00000E+00
    0.18230E+07        -0.23616E+07         0.00000E+00
    0.00000E+00         0.00000E+00        -0.35389E+06
 
    0.18490E+06         0.21285E+07         0.00000E+00
    0.21285E+07        -0.22603E+07         0.00000E+00
    0.00000E+00         0.00000E+00        -0.41508E+06
 
   -0.26562E+06         0.23693E+07         0.00000E+00
    0.23693E+07        -0.20985E+07         0.00000E+00
    0.00000E+00         0.00000E+00        -0.47282E+06
 
    0.51844E+07         0.37305E+05         0.00000E+00
    0.37305E+05        -0.13256E+07         0.00000E+00
    0.00000E+00         0.00000E+00         0.77177E+06
 
    0.42973E+07         0.35523E+05         0.00000E+00
    0.35523E+05        -0.14051E+07         0.00000E+00
    0.00000E+00         0.00000E+00         0.57844E+06
 
    0.35970E+07        -0.21756E+05         0.00000E+00
   -0.21756E+05        -0.15541E+07         0.00000E+00
    0.00000E+00         0.00000E+00         0.40858E+06
 
    0.30564E+07        -0.86758E+05         0.00000E+00
   -0.86758E+05        -0.17584E+07         0.00000E+00
    0.00000E+00         0.00000E+00         0.25960E+06
 
    0.26460E+07        -0.12268E+06         0.00000E+00
   -0.12268E+06        -0.20018E+07         0.00000E+00
    0.00000E+00         0.00000E+00         0.12883E+06
 
    0.23347E+07        -0.10344E+06         0.00000E+00
   -0.10344E+06        -0.22666E+07         0.00000E+00
    0.00000E+00         0.00000E+00         0.13606E+05
 
    0.20916E+07        -0.12888E+05         0.00000E+00
   -0.12888E+05        -0.25351E+07         0.00000E+00
    0.00000E+00         0.00000E+00        -0.88701E+05
 
    0.18869E+07         0.15610E+06         0.00000E+00
    0.15610E+06        -0.27898E+07         0.00000E+00
    0.00000E+00         0.00000E+00        -0.18058E+06
 
    0.16926E+07         0.40260E+06         0.00000E+00
    0.40260E+06        -0.30145E+07         0.00000E+00
    0.00000E+00         0.00000E+00        -0.26438E+06
 
    0.14831E+07         0.71836E+06         0.00000E+00
    0.71836E+06        -0.31941E+07         0.00000E+00
    0.00000E+00         0.00000E+00        -0.34221E+06
 
    0.12353E+07         0.10883E+07         0.00000E+00
    0.10883E+07        -0.33150E+07         0.00000E+00
    0.00000E+00         0.00000E+00        -0.41594E+06
 
    0.93018E+06         0.14906E+07         0.00000E+00
    0.14906E+07        -0.33658E+07         0.00000E+00
    0.00000E+00         0.00000E+00        -0.48713E+06
 
    0.55317E+06         0.18971E+07         0.00000E+00
    0.18971E+07        -0.33379E+07         0.00000E+00
    0.00000E+00         0.00000E+00        -0.55694E+06
 
    0.96110E+05         0.22738E+07         0.00000E+00
    0.22738E+07        -0.32264E+07         0.00000E+00
    0.00000E+00         0.00000E+00        -0.62607E+06
 
   -0.44086E+06         0.25818E+07         0.00000E+00
    0.25818E+07        -0.30322E+07         0.00000E+00
    0.00000E+00         0.00000E+00        -0.69462E+06
 
    0.47643E+07        -0.10311E+05         0.00000E+00
   -0.10311E+05        -0.17535E+07         0.00000E+00
    0.00000E+00         0.00000E+00         0.60216E+06
 
    0.37997E+07        -0.97264E+05         0.00000E+00
   -0.97264E+05        -0.18592E+07         0.00000E+00
    0.00000E+00         0.00000E+00         0.38809E+06
 
    0.30750E+07        -0.22328E+06         0.00000E+00
   -0.22328E+06        -0.20555E+07         0.00000E+00
    0.00000E+00         0.00000E+00         0.20389E+06
 
    0.25515E+07        -0.33829E+06         0.00000E+00
   -0.33829E+06        -0.23227E+07         0.00000E+00
    0.00000E+00         0.00000E+00         0.45762E+05
 
    0.21881E+07        -0.40451E+06         0.00000E+00
   -0.40451E+06        -0.26385E+07         0.00000E+00
    0.00000E+00         0.00000E+00        -0.90082E+05
 
    0.19434E+07        -0.39603E+06         0.00000E+00
   -0.39603E+06        -0.29804E+07         0.00000E+00
    0.00000E+00         0.00000E+00        -0.20739E+06
 
    0.17772E+07        -0.29761E+06         0.00000E+00
   -0.29761E+06        -0.33261E+07         0.00000E+00
    0.00000E+00         0.00000E+00        -0.30977E+06
 
    0.16514E+07        -0.10343E+06         0.00000E+00
   -0.10343E+06        -0.36546E+07         0.00000E+00
    0.00000E+00         0.00000E+00        -0.40064E+06
 
    0.15308E+07         0.18424E+06         0.00000E+00
    0.18424E+06        -0.39466E+07         0.00000E+00
    0.00000E+00         0.00000E+00        -0.48316E+06
 
    0.13832E+07         0.55581E+06         0.00000E+00
    0.55581E+06        -0.41844E+07         0.00000E+00
    0.00000E+00         0.00000E+00        -0.56024E+06
 
    0.11790E+07         0.99471E+06         0.00000E+00
    0.99471E+06        -0.43514E+07         0.00000E+00
    0.00000E+00         0.00000E+00        -0.63447E+06
 
    0.89264E+06         0.14773E+07         0.00000E+00
    0.14773E+07        -0.44331E+07         0.00000E+00
    0.00000E+00         0.00000E+00        -0.70809E+06
 
    0.50284E+06         0.19726E+07         0.00000E+00
    0.19726E+07        -0.44173E+07         0.00000E+00
    0.00000E+00         0.00000E+00        -0.78288E+06
 
   -0.48146E+04         0.24422E+07         0.00000E+00
    0.24422E+07        -0.42957E+07         0.00000E+00
    0.00000E+00         0.00000E+00        -0.86010E+06
 
   -0.63529E+06         0.28410E+07         0.00000E+00
    0.28410E+07        -0.40662E+07         0.00000E+00
    0.00000E+00         0.00000E+00        -0.94030E+06
 
    0.41523E+07        -0.71659E+05         0.00000E+00
   -0.71659E+05        -0.22687E+07         0.00000E+00
    0.00000E+00         0.00000E+00         0.37673E+06
 
    0.31271E+07        -0.26677E+06         0.00000E+00
   -0.26677E+06        -0.24026E+07         0.00000E+00
    0.00000E+00         0.00000E+00         0.14490E+06
 
    0.23970E+07        -0.47824E+06         0.00000E+00
   -0.47824E+06        -0.26495E+07         0.00000E+00
    0.00000E+00         0.00000E+00        -0.50499E+05
 
    0.19103E+07        -0.65379E+06         0.00000E+00
   -0.65379E+06        -0.29831E+07         0.00000E+00
    0.00000E+00         0.00000E+00        -0.21456E+06
 
    0.16130E+07        -0.75538E+06         0.00000E+00
   -0.75538E+06        -0.33747E+07         0.00000E+00
    0.00000E+00         0.00000E+00        -0.35234E+06
 
    0.14524E+07        -0.75826E+06         0.00000E+00
   -0.75826E+06        -0.37960E+07         0.00000E+00
    0.00000E+00         0.00000E+00        -0.46872E+06
 
    0.13786E+07        -0.64925E+06         0.00000E+00
   -0.64925E+06        -0.42203E+07         0.00000E+00
    0.00000E+00         0.00000E+00        -0.56835E+06
 
    0.13455E+07        -0.42467E+06         0.00000E+00
   -0.42467E+06        -0.46235E+07         0.00000E+00
    0.00000E+00         0.00000E+00        -0.65560E+06
 
    0.13113E+07        -0.88594E+05         0.00000E+00
   -0.88594E+05        -0.49838E+07         0.00000E+00
    0.00000E+00         0.00000E+00        -0.73450E+06
 
    0.12372E+07         0.34811E+06         0.00000E+00
    0.34811E+06        -0.52810E+07         0.00000E+00
    0.00000E+00         0.00000E+00        -0.80877E+06
 
    0.10874E+07         0.86793E+06         0.00000E+00
    0.86793E+06        -0.54963E+07         0.00000E+00
    0.00000E+00         0.00000E+00        -0.88176E+06
 
    0.82911E+06         0.14461E+07         0.00000E+00
    0.14461E+07        -0.56114E+07         0.00000E+00
    0.00000E+00         0.00000E+00        -0.95647E+06
 
    0.43316E+06         0.20493E+07         0.00000E+00
    0.20493E+07        -0.56102E+07         0.00000E+00
    0.00000E+00         0.00000E+00        -0.10354E+07
 
   -0.12314E+06         0.26351E+07         0.00000E+00
    0.26351E+07        -0.54795E+07         0.00000E+00
    0.00000E+00         0.00000E+00        -0.11205E+07
 
   -0.85248E+06         0.31513E+07         0.00000E+00
    0.31513E+07        -0.52127E+07         0.00000E+00
    0.00000E+00         0.00000E+00        -0.12130E+07
 
    0.33007E+07        -0.14744E+06         0.00000E+00
   -0.14744E+06        -0.28920E+07         0.00000E+00
    0.00000E+00         0.00000E+00         0.81741E+05
 
    0.22379E+07        -0.47441E+06         0.00000E+00
   -0.47441E+06        -0.30565E+07         0.00000E+00
    0.00000E+00         0.00000E+00        -0.16372E+06
 
    0.15276E+07        -0.78771E+06         0.00000E+00
   -0.78771E+06        -0.33578E+07         0.00000E+00
    0.00000E+00         0.00000E+00        -0.36604E+06
 
    0.11024E+07        -0.10331E+07         0.00000E+00
   -0.10331E+07        -0.37613E+07         0.00000E+00
    0.00000E+00         0.00000E+00        -0.53179E+06
 
    0.89402E+06        -0.11733E+07         0.00000E+00
   -0.11733E+07        -0.42310E+07         0.00000E+00
    0.00000E+00         0.00000E+00        -0.66739E+06
 
    0.83730E+06        -0.11865E+07         0.00000E+00
   -0.11865E+07        -0.47321E+07         0.00000E+00
    0.00000E+00         0.00000E+00        -0.77896E+06
 
    0.87257E+06        -0.10629E+07         0.00000E+00
   -0.10629E+07        -0.52338E+07         0.00000E+00
    0.00000E+00         0.00000E+00        -0.87225E+06
 
    0.94656E+06        -0.80249E+06         0.00000E+00
   -0.80249E+06        -0.57095E+07         0.00000E+00
    0.00000E+00         0.00000E+00        -0.95259E+06
 
    0.10115E+07        -0.41153E+06         0.00000E+00
   -0.41153E+06        -0.61359E+07         0.00000E+00
    0.00000E+00         0.00000E+00        -0.10249E+07
 
    0.10235E+07         0.98107E+05         0.00000E+00
    0.98107E+05        -0.64919E+07         0.00000E+00
    0.00000E+00         0.00000E+00        -0.10937E+07
 
    0.94087E+06         0.70893E+06         0.00000E+00
    0.70893E+06        -0.67563E+07         0.00000E+00
    0.00000E+00         0.00000E+00        -0.11631E+07
 
    0.72308E+06         0.13963E+07         0.00000E+00
    0.13963E+07        -0.69078E+07         0.00000E+00
    0.00000E+00         0.00000E+00        -0.12369E+07
 
    0.33172E+06         0.21262E+07         0.00000E+00
    0.21262E+07        -0.69248E+07         0.00000E+00
    0.00000E+00         0.00000E+00        -0.13186E+07
 
   -0.26694E+06         0.28527E+07         0.00000E+00
    0.28527E+07        -0.67879E+07         0.00000E+00
    0.00000E+00         0.00000E+00        -0.14110E+07
 
   -0.10970E+07         0.35166E+07         0.00000E+00
    0.35166E+07        -0.64835E+07         0.00000E+00
    0.00000E+00         0.00000E+00        -0.15161E+07
 
    0.21578E+07        -0.23834E+06         0.00000E+00
   -0.23834E+06        -0.36477E+07         0.00000E+00
    0.00000E+00         0.00000E+00        -0.29797E+06
 
    0.10877E+07        -0.72136E+06         0.00000E+00
   -0.72136E+06        -0.38457E+07         0.00000E+00
    0.00000E+00         0.00000E+00        -0.55161E+06
 
    0.42891E+06        -0.11518E+07         0.00000E+00
   -0.11518E+07        -0.42055E+07         0.00000E+00
    0.00000E+00         0.00000E+00        -0.75532E+06
 
    0.95654E+05        -0.14739E+07         0.00000E+00
   -0.14739E+07        -0.46823E+07         0.00000E+00
    0.00000E+00         0.00000E+00        -0.91734E+06
 
    0.26207E+04        -0.16530E+07         0.00000E+00
   -0.16530E+07        -0.52307E+07         0.00000E+00
    0.00000E+00         0.00000E+00        -0.10456E+07
 
    0.71063E+05        -0.16724E+07         0.00000E+00
   -0.16724E+07        -0.58091E+07         0.00000E+00
    0.00000E+00         0.00000E+00        -0.11476E+07
 
    0.23195E+06        -0.15287E+07         0.00000E+00
   -0.15287E+07        -0.63828E+07         0.00000E+00
    0.00000E+00         0.00000E+00        -0.12302E+07
 
    0.42613E+06        -0.12267E+07         0.00000E+00
   -0.12267E+07        -0.69243E+07         0.00000E+00
    0.00000E+00         0.00000E+00        -0.12996E+07
 
    0.60213E+06        -0.77574E+06         0.00000E+00
   -0.77574E+06        -0.74107E+07         0.00000E+00
    0.00000E+00         0.00000E+00        -0.13617E+07
 
    0.71272E+06        -0.18813E+06         0.00000E+00
   -0.18813E+06        -0.78214E+07         0.00000E+00
    0.00000E+00         0.00000E+00        -0.14217E+07
 
    0.71143E+06         0.52031E+06         0.00000E+00
    0.52031E+06        -0.81344E+07         0.00000E+00
    0.00000E+00         0.00000E+00        -0.14846E+07
 
    0.55030E+06         0.13275E+07         0.00000E+00
    0.13275E+07        -0.83253E+07         0.00000E+00
    0.00000E+00         0.00000E+00        -0.15550E+07
 
    0.17974E+06         0.22010E+07         0.00000E+00
    0.22010E+07        -0.83662E+07         0.00000E+00
    0.00000E+00         0.00000E+00        -0.16373E+07
 
   -0.44842E+06         0.30935E+07         0.00000E+00
    0.30935E+07        -0.82289E+07         0.00000E+00
    0.00000E+00         0.00000E+00        -0.17355E+07
 
   -0.13747E+07         0.39389E+07         0.00000E+00
    0.39389E+07        -0.78896E+07         0.00000E+00
    0.00000E+00         0.00000E+00        -0.18529E+07
 
    0.66687E+06        -0.34518E+06         0.00000E+00
   -0.34518E+06        -0.45636E+07         0.00000E+00
    0.00000E+00         0.00000E+00        -0.77934E+06
 
   -0.37188E+06        -0.10086E+07         0.00000E+00
   -0.10086E+07        -0.47991E+07         0.00000E+00
    0.00000E+00         0.00000E+00        -0.10342E+07
 
   -0.93889E+06        -0.15694E+07         0.00000E+00
   -0.15694E+07        -0.52227E+07         0.00000E+00
    0.00000E+00         0.00000E+00        -0.12323E+07
 
   -0.11435E+07        -0.19710E+07         0.00000E+00
   -0.19710E+07        -0.57759E+07         0.00000E+00
    0.00000E+00         0.00000E+00        -0.13839E+07
 
   -0.10916E+07        -0.21842E+07         0.00000E+00
   -0.21842E+07        -0.64013E+07         0.00000E+00
    0.00000E+00         0.00000E+00        -0.14986E+07
 
   -0.87656E+06        -0.22016E+07         0.00000E+00
   -0.22016E+07        -0.70499E+07         0.00000E+00
    0.00000E+00         0.00000E+00        -0.15853E+07
 
   -0.57580E+06        -0.20294E+07         0.00000E+00
   -0.20294E+07        -0.76844E+07         0.00000E+00
    0.00000E+00         0.00000E+00        -0.16520E+07
 
   -0.25163E+06        -0.16800E+07         0.00000E+00
   -0.16800E+07        -0.82784E+07         0.00000E+00
    0.00000E+00         0.00000E+00        -0.17060E+07
 
    0.44159E+05        -0.11664E+07         0.00000E+00
   -0.11664E+07        -0.88126E+07         0.00000E+00
    0.00000E+00         0.00000E+00        -0.17537E+07
 
    0.26423E+06        -0.50022E+06         0.00000E+00
   -0.50022E+06        -0.92693E+07         0.00000E+00
    0.00000E+00         0.00000E+00        -0.18010E+07
 
    0.35968E+06         0.30686E+06         0.00000E+00
    0.30686E+06        -0.96281E+07         0.00000E+00
    0.00000E+00         0.00000E+00        -0.18537E+07
 
    0.27556E+06         0.12389E+07         0.00000E+00
    0.12389E+07        -0.98616E+07         0.00000E+00
    0.00000E+00         0.00000E+00        -0.19172E+07
 
   -0.50536E+05         0.22691E+07         0.00000E+00
    0.22691E+07        -0.99349E+07         0.00000E+00
    0.00000E+00         0.00000E+00        -0.19971E+07
 
   -0.68568E+06         0.33520E+07         0.00000E+00
    0.33520E+07        -0.98077E+07         0.00000E+00
    0.00000E+00         0.00000E+00        -0.20987E+07
 
   -0.16937E+07         0.44169E+07         0.00000E+00
    0.44169E+07        -0.94411E+07         0.00000E+00
    0.00000E+00         0.00000E+00        -0.22270E+07
 
   -0.12356E+07        -0.46905E+06         0.00000E+00
   -0.46905E+06        -0.56730E+07         0.00000E+00
    0.00000E+00         0.00000E+00        -0.13817E+07
 
   -0.21933E+07        -0.13374E+07         0.00000E+00
   -0.13374E+07        -0.59521E+07         0.00000E+00
    0.00000E+00         0.00000E+00        -0.16291E+07
 
   -0.26180E+07        -0.20379E+07         0.00000E+00
   -0.20379E+07        -0.64466E+07         0.00000E+00
    0.00000E+00         0.00000E+00        -0.18129E+07
 
   -0.26502E+07        -0.25149E+07         0.00000E+00
   -0.25149E+07        -0.70787E+07         0.00000E+00
    0.00000E+00         0.00000E+00        -0.19458E+07
 
   -0.24212E+07        -0.27497E+07         0.00000E+00
   -0.27497E+07        -0.77756E+07         0.00000E+00
    0.00000E+00         0.00000E+00        -0.20394E+07
 
   -0.20402E+07        -0.27505E+07         0.00000E+00
   -0.27505E+07        -0.84805E+07         0.00000E+00
    0.00000E+00         0.00000E+00        -0.21041E+07
 
   -0.15905E+07        -0.25385E+07         0.00000E+00
   -0.25385E+07        -0.91556E+07         0.00000E+00
    0.00000E+00         0.00000E+00        -0.21492E+07
 
   -0.11328E+07        -0.21362E+07         0.00000E+00
   -0.21362E+07        -0.97799E+07         0.00000E+00
    0.00000E+00         0.00000E+00        -0.21826E+07
 
   -0.71425E+06        -0.15609E+07         0.00000E+00
   -0.15609E+07        -0.10341E+08         0.00000E+00
    0.00000E+00         0.00000E+00        -0.22111E+07
 
   -0.37728E+06        -0.82213E+06         0.00000E+00
   -0.82213E+06        -0.10829E+08         0.00000E+00
    0.00000E+00         0.00000E+00        -0.22413E+07
 
   -0.16959E+06         0.76157E+05         0.00000E+00
    0.76157E+05        -0.11228E+08         0.00000E+00
    0.00000E+00         0.00000E+00        -0.22794E+07
 
   -0.15144E+06         0.11293E+07         0.00000E+00
    0.11293E+07        -0.11507E+08         0.00000E+00
    0.00000E+00         0.00000E+00        -0.23318E+07
 
   -0.39955E+06         0.23224E+07         0.00000E+00
    0.23224E+07        -0.11625E+08         0.00000E+00
    0.00000E+00         0.00000E+00        -0.24050E+07
 
   -0.10053E+07         0.36179E+07         0.00000E+00
    0.36179E+07        -0.11525E+08         0.00000E+00
    0.00000E+00         0.00000E+00        -0.25061E+07
 
   -0.20649E+07         0.49435E+07         0.00000E+00
    0.49435E+07        -0.11147E+08         0.00000E+00
    0.00000E+00         0.00000E+00        -0.26424E+07
 
   -0.36226E+07        -0.61182E+06         0.00000E+00
   -0.61182E+06        -0.70174E+07         0.00000E+00
    0.00000E+00         0.00000E+00        -0.21280E+07
 
   -0.44350E+07        -0.17093E+07         0.00000E+00
   -0.17093E+07        -0.73492E+07         0.00000E+00
    0.00000E+00         0.00000E+00        -0.23568E+07
 
   -0.46531E+07        -0.25523E+07         0.00000E+00
   -0.25523E+07        -0.79244E+07         0.00000E+00
    0.00000E+00         0.00000E+00        -0.25155E+07
 
   -0.44609E+07        -0.30896E+07         0.00000E+00
   -0.30896E+07        -0.86368E+07         0.00000E+00
    0.00000E+00         0.00000E+00        -0.26195E+07
 
   -0.40220E+07        -0.33222E+07         0.00000E+00
   -0.33222E+07        -0.93933E+07         0.00000E+00
    0.00000E+00         0.00000E+00        -0.26831E+07
 
   -0.34613E+07        -0.32837E+07         0.00000E+00
   -0.32837E+07        -0.10130E+08         0.00000E+00
    0.00000E+00         0.00000E+00        -0.27182E+07
 
   -0.28626E+07        -0.30167E+07         0.00000E+00
   -0.30167E+07        -0.10814E+08         0.00000E+00
    0.00000E+00         0.00000E+00        -0.27352E+07
 
   -0.22781E+07        -0.25574E+07         0.00000E+00
   -0.25574E+07        -0.11434E+08         0.00000E+00
    0.00000E+00         0.00000E+00        -0.27424E+07
 
   -0.17425E+07        -0.19271E+07         0.00000E+00
   -0.19271E+07        -0.11992E+08         0.00000E+00
    0.00000E+00         0.00000E+00        -0.27469E+07
 
   -0.12870E+07        -0.11309E+07         0.00000E+00
   -0.11309E+07        -0.12488E+08         0.00000E+00
    0.00000E+00         0.00000E+00        -0.27551E+07
 
   -0.95276E+06        -0.16063E+06         0.00000E+00
   -0.16063E+06        -0.12915E+08         0.00000E+00
    0.00000E+00         0.00000E+00        -0.27735E+07
 
   -0.80180E+06         0.99709E+06         0.00000E+00
    0.99709E+06        -0.13244E+08         0.00000E+00
    0.00000E+00         0.00000E+00        -0.28092E+07
 
   -0.92559E+06         0.23481E+07         0.00000E+00
    0.23481E+07        -0.13424E+08         0.00000E+00
    0.00000E+00         0.00000E+00        -0.28700E+07
 
   -0.14458E+07         0.38722E+07         0.00000E+00
    0.38722E+07        -0.13379E+08         0.00000E+00
    0.00000E+00         0.00000E+00        -0.29649E+07
 
   -0.25039E+07         0.55027E+07         0.00000E+00
    0.55027E+07        -0.13016E+08         0.00000E+00
    0.00000E+00         0.00000E+00        -0.31039E+07
 
   -0.65820E+07        -0.77674E+06         0.00000E+00
   -0.77674E+06        -0.86499E+07         0.00000E+00
    0.00000E+00         0.00000E+00        -0.30464E+07
 
   -0.71636E+07        -0.21269E+07         0.00000E+00
   -0.21269E+07        -0.90491E+07         0.00000E+00
    0.00000E+00         0.00000E+00        -0.32425E+07
 
   -0.70917E+07        -0.31036E+07         0.00000E+00
   -0.31036E+07        -0.97190E+07         0.00000E+00
    0.00000E+00         0.00000E+00        -0.33621E+07
 
   -0.66144E+07        -0.36684E+07         0.00000E+00
   -0.36684E+07        -0.10509E+08         0.00000E+00
    0.00000E+00         0.00000E+00        -0.34247E+07
 
   -0.59363E+07        -0.38591E+07         0.00000E+00
   -0.38591E+07        -0.11301E+08         0.00000E+00
    0.00000E+00         0.00000E+00        -0.34475E+07
 
   -0.51935E+07        -0.37489E+07         0.00000E+00
   -0.37489E+07        -0.12029E+08         0.00000E+00
    0.00000E+00         0.00000E+00        -0.34445E+07
 
   -0.44602E+07        -0.34099E+07         0.00000E+00
   -0.34099E+07        -0.12673E+08         0.00000E+00
    0.00000E+00         0.00000E+00        -0.34266E+07
 
   -0.37692E+07        -0.28931E+07         0.00000E+00
   -0.28931E+07        -0.13240E+08         0.00000E+00
    0.00000E+00         0.00000E+00        -0.34019E+07
 
   -0.31338E+07        -0.22224E+07         0.00000E+00
   -0.22224E+07        -0.13752E+08         0.00000E+00
    0.00000E+00         0.00000E+00        -0.33772E+07
 
   -0.25666E+07        -0.13955E+07         0.00000E+00
   -0.13955E+07        -0.14225E+08         0.00000E+00
    0.00000E+00         0.00000E+00        -0.33583E+07
 
   -0.20945E+07        -0.38768E+06         0.00000E+00
   -0.38768E+06        -0.14663E+08         0.00000E+00
    0.00000E+00         0.00000E+00        -0.33514E+07
 
   -0.17753E+07         0.84012E+06         0.00000E+00
    0.84012E+06        -0.15043E+08         0.00000E+00
    0.00000E+00         0.00000E+00        -0.33637E+07
 
   -0.17126E+07         0.23267E+07         0.00000E+00
    0.23267E+07        -0.15309E+08         0.00000E+00
    0.00000E+00         0.00000E+00        -0.34042E+07
 
   -0.20641E+07         0.40846E+07         0.00000E+00
    0.40846E+07        -0.15357E+08         0.00000E+00
    0.00000E+00         0.00000E+00        -0.34843E+07
 
   -0.30328E+07         0.60654E+07         0.00000E+00
    0.60654E+07        -0.15054E+08         0.00000E+00
    0.00000E+00         0.00000E+00        -0.36174E+07
 
   -0.10226E+08        -0.96984E+06         0.00000E+00
   -0.96984E+06        -0.10643E+08         0.00000E+00
    0.00000E+00         0.00000E+00        -0.41736E+07
 
   -0.10458E+08        -0.25941E+07         0.00000E+00
   -0.25941E+07        -0.11134E+08         0.00000E+00
    0.00000E+00         0.00000E+00        -0.43183E+07
 
   -0.99856E+07        -0.36741E+07         0.00000E+00
   -0.36741E+07        -0.11916E+08         0.00000E+00
    0.00000E+00         0.00000E+00        -0.43804E+07
 
   -0.91565E+07        -0.42054E+07         0.00000E+00
   -0.42054E+07        -0.12771E+08         0.00000E+00
    0.00000E+00         0.00000E+00        -0.43854E+07
 
   -0.82220E+07        -0.42939E+07         0.00000E+00
   -0.42939E+07        -0.13552E+08         0.00000E+00
    0.00000E+00         0.00000E+00        -0.43547E+07
 
   -0.73151E+07        -0.40728E+07         0.00000E+00
   -0.40728E+07        -0.14205E+08         0.00000E+00
    0.00000E+00         0.00000E+00        -0.43041E+07
 
   -0.64813E+07        -0.36478E+07         0.00000E+00
   -0.36478E+07        -0.14740E+08         0.00000E+00
    0.00000E+00         0.00000E+00        -0.42443E+07
 
   -0.57198E+07        -0.30813E+07         0.00000E+00
   -0.30813E+07        -0.15193E+08         0.00000E+00
    0.00000E+00         0.00000E+00        -0.41827E+07
 
   -0.50144E+07        -0.23951E+07         0.00000E+00
   -0.23951E+07        -0.15606E+08         0.00000E+00
    0.00000E+00         0.00000E+00        -0.41241E+07
 
   -0.43517E+07        -0.15768E+07         0.00000E+00
   -0.15768E+07        -0.16014E+08         0.00000E+00
    0.00000E+00         0.00000E+00        -0.40731E+07
 
   -0.37367E+07        -0.58294E+06         0.00000E+00
   -0.58294E+06        -0.16437E+08         0.00000E+00
    0.00000E+00         0.00000E+00        -0.40347E+07
 
   -0.32115E+07         0.65760E+06         0.00000E+00
    0.65760E+06        -0.16866E+08         0.00000E+00
    0.00000E+00         0.00000E+00        -0.40155E+07
 
   -0.28824E+07         0.22314E+07         0.00000E+00
    0.22314E+07        -0.17244E+08         0.00000E+00
    0.00000E+00         0.00000E+00        -0.40253E+07
 
   -0.29449E+07         0.42077E+07         0.00000E+00
    0.42077E+07        -0.17445E+08         0.00000E+00
    0.00000E+00         0.00000E+00        -0.40780E+07
 
   -0.36853E+07         0.65813E+07         0.00000E+00
    0.65813E+07        -0.17272E+08         0.00000E+00
    0.00000E+00         0.00000E+00        -0.41914E+07
 
   -0.14707E+08        -0.12023E+07         0.00000E+00
   -0.12023E+07        -0.13100E+08         0.00000E+00
    0.00000E+00         0.00000E+00        -0.55614E+07
 
   -0.14414E+08        -0.31148E+07         0.00000E+00
   -0.31148E+07        -0.13726E+08         0.00000E+00
    0.00000E+00         0.00000E+00        -0.56278E+07
 
   -0.13395E+08        -0.42241E+07         0.00000E+00
   -0.42241E+07        -0.14638E+08         0.00000E+00
    0.00000E+00         0.00000E+00        -0.56066E+07
 
   -0.12153E+08        -0.46168E+07         0.00000E+00
   -0.46168E+07        -0.15512E+08         0.00000E+00
    0.00000E+00         0.00000E+00        -0.55330E+07
 
   -0.10976E+08        -0.45243E+07         0.00000E+00
   -0.45243E+07        -0.16192E+08         0.00000E+00
    0.00000E+00         0.00000E+00        -0.54336E+07
 
   -0.99553E+07        -0.41579E+07         0.00000E+00
   -0.41579E+07        -0.16672E+08         0.00000E+00
    0.00000E+00         0.00000E+00        -0.53255E+07
 
   -0.90769E+07        -0.36481E+07         0.00000E+00
   -0.36481E+07        -0.17012E+08         0.00000E+00
    0.00000E+00         0.00000E+00        -0.52178E+07
 
   -0.82938E+07        -0.30548E+07         0.00000E+00
   -0.30548E+07        -0.17280E+08         0.00000E+00
    0.00000E+00         0.00000E+00        -0.51147E+07
 
   -0.75566E+07        -0.23901E+07         0.00000E+00
   -0.23901E+07        -0.17536E+08         0.00000E+00
    0.00000E+00         0.00000E+00        -0.50186E+07
 
   -0.68237E+07        -0.16303E+07         0.00000E+00
   -0.16303E+07        -0.17832E+08         0.00000E+00
    0.00000E+00         0.00000E+00        -0.49311E+07
 
   -0.60701E+07        -0.71616E+06         0.00000E+00
   -0.71616E+06        -0.18204E+08         0.00000E+00
    0.00000E+00         0.00000E+00        -0.48548E+07
 
   -0.53055E+07         0.45451E+06         0.00000E+00
    0.45451E+06        -0.18668E+08         0.00000E+00
    0.00000E+00         0.00000E+00        -0.47946E+07
 
   -0.46151E+07         0.20292E+07         0.00000E+00
    0.20292E+07        -0.19184E+08         0.00000E+00
    0.00000E+00         0.00000E+00        -0.47598E+07
 
   -0.42197E+07         0.41712E+07         0.00000E+00
    0.41712E+07        -0.19613E+08         0.00000E+00
    0.00000E+00         0.00000E+00        -0.47665E+07
 
   -0.45140E+07         0.69681E+07         0.00000E+00
    0.69681E+07        -0.19678E+08         0.00000E+00
    0.00000E+00         0.00000E+00        -0.48385E+07
 
   -0.20255E+08        -0.14970E+07         0.00000E+00
   -0.14970E+07        -0.16197E+08         0.00000E+00
    0.00000E+00         0.00000E+00        -0.72903E+07
 
   -0.19157E+08        -0.36830E+07         0.00000E+00
   -0.36830E+07        -0.17024E+08         0.00000E+00
    0.00000E+00         0.00000E+00        -0.72360E+07
 
   -0.17406E+08        -0.46559E+07         0.00000E+00
   -0.46559E+07        -0.18058E+08         0.00000E+00
    0.00000E+00         0.00000E+00        -0.70928E+07
 
   -0.15735E+08        -0.47456E+07         0.00000E+00
   -0.47456E+07        -0.18822E+08         0.00000E+00
    0.00000E+00         0.00000E+00        -0.69114E+07
 
   -0.14394E+08        -0.44000E+07         0.00000E+00
   -0.44000E+07        -0.19235E+08         0.00000E+00
    0.00000E+00         0.00000E+00        -0.67258E+07
 
   -0.13348E+08        -0.38912E+07         0.00000E+00
   -0.38912E+07        -0.19410E+08         0.00000E+00
    0.00000E+00         0.00000E+00        -0.65516E+07
 
   -0.12494E+08        -0.33317E+07         0.00000E+00
   -0.33317E+07        -0.19463E+08         0.00000E+00
    0.00000E+00         0.00000E+00        -0.63913E+07
 
   -0.11738E+08        -0.27567E+07         0.00000E+00
   -0.27567E+07        -0.19483E+08         0.00000E+00
    0.00000E+00         0.00000E+00        -0.62441E+07
 
   -0.11004E+08        -0.21614E+07         0.00000E+00
   -0.21614E+07        -0.19536E+08         0.00000E+00
    0.00000E+00         0.00000E+00        -0.61079E+07
 
   -0.10227E+08        -0.15134E+07         0.00000E+00
   -0.15134E+07        -0.19676E+08         0.00000E+00
    0.00000E+00         0.00000E+00        -0.59807E+07
 
   -0.93510E+07        -0.74776E+06         0.00000E+00
   -0.74776E+06        -0.19954E+08         0.00000E+00
    0.00000E+00         0.00000E+00        -0.58609E+07
 
   -0.83311E+07         0.25158E+06         0.00000E+00
    0.25158E+06        -0.20414E+08         0.00000E+00
    0.00000E+00         0.00000E+00        -0.57489E+07
 
   -0.71849E+07         0.16910E+07         0.00000E+00
    0.16910E+07        -0.21072E+08         0.00000E+00
    0.00000E+00         0.00000E+00        -0.56513E+07
 
   -0.61053E+07         0.38757E+07         0.00000E+00
    0.38757E+07        -0.21815E+08         0.00000E+00
    0.00000E+00         0.00000E+00        -0.55841E+07
 
   -0.56099E+07         0.70896E+07         0.00000E+00
    0.70896E+07        -0.22286E+08         0.00000E+00
    0.00000E+00         0.00000E+00        -0.55792E+07
 
   -0.27258E+08        -0.19050E+07         0.00000E+00
   -0.19050E+07        -0.20241E+08         0.00000E+00
    0.00000E+00         0.00000E+00        -0.94999E+07
 
   -0.24869E+08        -0.42393E+07         0.00000E+00
   -0.42393E+07        -0.21409E+08         0.00000E+00
    0.00000E+00         0.00000E+00        -0.92555E+07
 
   -0.22212E+08        -0.46988E+07         0.00000E+00
   -0.46988E+07        -0.22400E+08         0.00000E+00
    0.00000E+00         0.00000E+00        -0.89224E+07
 
   -0.20248E+08        -0.43125E+07         0.00000E+00
   -0.43125E+07        -0.22703E+08         0.00000E+00
    0.00000E+00         0.00000E+00        -0.85903E+07
 
   -0.18911E+08        -0.37450E+07         0.00000E+00
   -0.37450E+07        -0.22613E+08         0.00000E+00
    0.00000E+00         0.00000E+00        -0.83047E+07
 
   -0.17936E+08        -0.31785E+07         0.00000E+00
   -0.31785E+07        -0.22356E+08         0.00000E+00
    0.00000E+00         0.00000E+00        -0.80584E+07
 
   -0.17153E+08        -0.26532E+07         0.00000E+00
   -0.26532E+07        -0.22061E+08         0.00000E+00
    0.00000E+00         0.00000E+00        -0.78428E+07
 
   -0.16446E+08        -0.21650E+07         0.00000E+00
   -0.21650E+07        -0.21802E+08         0.00000E+00
    0.00000E+00         0.00000E+00        -0.76497E+07
 
   -0.15728E+08        -0.16930E+07         0.00000E+00
   -0.16930E+07        -0.21631E+08         0.00000E+00
    0.00000E+00         0.00000E+00        -0.74718E+07
 
   -0.14921E+08        -0.12028E+07         0.00000E+00
   -0.12028E+07        -0.21591E+08         0.00000E+00
    0.00000E+00         0.00000E+00        -0.73024E+07
 
   -0.13939E+08        -0.63877E+06         0.00000E+00
   -0.63877E+06        -0.21735E+08         0.00000E+00
    0.00000E+00         0.00000E+00        -0.71347E+07
 
   -0.12681E+08         0.10017E+06         0.00000E+00
    0.10017E+06        -0.22127E+08         0.00000E+00
    0.00000E+00         0.00000E+00        -0.69616E+07
 
   -0.11025E+08         0.12210E+07         0.00000E+00
    0.12210E+07        -0.22858E+08         0.00000E+00
    0.00000E+00         0.00000E+00        -0.67765E+07
 
   -0.89910E+07         0.31944E+07         0.00000E+00
    0.31944E+07        -0.23981E+08         0.00000E+00
    0.00000E+00         0.00000E+00        -0.65945E+07
 
   -0.71458E+07         0.67123E+07         0.00000E+00
    0.67123E+07        -0.25102E+08         0.00000E+00
    0.00000E+00         0.00000E+00        -0.64496E+07
 
   -0.36533E+08        -0.26254E+07         0.00000E+00
   -0.26254E+07        -0.26268E+08         0.00000E+00
    0.00000E+00         0.00000E+00        -0.12560E+08
 
   -0.31978E+08        -0.42637E+07         0.00000E+00
   -0.42637E+07        -0.27638E+08         0.00000E+00
    0.00000E+00         0.00000E+00        -0.11923E+08
 
   -0.28605E+08        -0.36876E+07         0.00000E+00
   -0.36876E+07        -0.27587E+08         0.00000E+00
    0.00000E+00         0.00000E+00        -0.11239E+08
 
   -0.26729E+08        -0.30130E+07         0.00000E+00
   -0.30130E+07        -0.26948E+08         0.00000E+00
    0.00000E+00         0.00000E+00        -0.10735E+08
 
   -0.25503E+08        -0.24626E+07         0.00000E+00
   -0.24626E+07        -0.26189E+08         0.00000E+00
    0.00000E+00         0.00000E+00        -0.10338E+08
 
   -0.24605E+08        -0.20175E+07         0.00000E+00
   -0.20175E+07        -0.25462E+08         0.00000E+00
    0.00000E+00         0.00000E+00        -0.10013E+08
 
   -0.23859E+08        -0.16472E+07         0.00000E+00
   -0.16472E+07        -0.24827E+08         0.00000E+00
    0.00000E+00         0.00000E+00        -0.97372E+07
 
   -0.23155E+08        -0.13244E+07         0.00000E+00
   -0.13244E+07        -0.24312E+08         0.00000E+00
    0.00000E+00         0.00000E+00        -0.94933E+07
 
   -0.22409E+08        -0.10253E+07         0.00000E+00
   -0.10253E+07        -0.23936E+08         0.00000E+00
    0.00000E+00         0.00000E+00        -0.92691E+07
 
   -0.21538E+08        -0.72393E+06         0.00000E+00
   -0.72393E+06        -0.23725E+08         0.00000E+00
    0.00000E+00         0.00000E+00        -0.90528E+07
 
   -0.20439E+08        -0.38483E+06         0.00000E+00
   -0.38483E+06        -0.23719E+08         0.00000E+00
    0.00000E+00         0.00000E+00        -0.88317E+07
 
   -0.18960E+08         0.54898E+05         0.00000E+00
    0.54898E+05        -0.23985E+08         0.00000E+00
    0.00000E+00         0.00000E+00        -0.85889E+07
 
   -0.16855E+08         0.73062E+06         0.00000E+00
    0.73062E+06        -0.24650E+08         0.00000E+00
    0.00000E+00         0.00000E+00        -0.83010E+07
 
   -0.13650E+08         0.20311E+07         0.00000E+00
    0.20311E+07        -0.25958E+08         0.00000E+00
    0.00000E+00         0.00000E+00        -0.79218E+07
 
   -0.95253E+07         0.53825E+07         0.00000E+00
    0.53825E+07        -0.28123E+08         0.00000E+00
    0.00000E+00         0.00000E+00        -0.75296E+07
 
   -0.53941E+08        -0.27771E+07         0.00000E+00
   -0.27771E+07        -0.37852E+08         0.00000E+00
    0.00000E+00         0.00000E+00        -0.18358E+08
 
   -0.44687E+08        -0.18933E+07         0.00000E+00
   -0.18933E+07        -0.35293E+08         0.00000E+00
    0.00000E+00         0.00000E+00        -0.15996E+08
 
   -0.40918E+08        -0.12676E+07         0.00000E+00
   -0.12676E+07        -0.33224E+08         0.00000E+00
    0.00000E+00         0.00000E+00        -0.14828E+08
 
   -0.38627E+08        -0.97107E+06         0.00000E+00
   -0.97107E+06        -0.31544E+08         0.00000E+00
    0.00000E+00         0.00000E+00        -0.14034E+08
 
   -0.37052E+08        -0.77029E+06         0.00000E+00
   -0.77029E+06        -0.30177E+08         0.00000E+00
    0.00000E+00         0.00000E+00        -0.13446E+08
 
   -0.35846E+08        -0.62106E+06         0.00000E+00
   -0.62106E+06        -0.29057E+08         0.00000E+00
    0.00000E+00         0.00000E+00        -0.12981E+08
 
   -0.34828E+08        -0.50048E+06         0.00000E+00
   -0.50048E+06        -0.28146E+08         0.00000E+00
    0.00000E+00         0.00000E+00        -0.12595E+08
 
   -0.33876E+08        -0.39601E+06         0.00000E+00
   -0.39601E+06        -0.27422E+08         0.00000E+00
    0.00000E+00         0.00000E+00        -0.12259E+08
 
   -0.32893E+08        -0.29849E+06         0.00000E+00
   -0.29849E+06        -0.26877E+08         0.00000E+00
    0.00000E+00         0.00000E+00        -0.11954E+08
 
   -0.31781E+08        -0.19908E+06         0.00000E+00
   -0.19908E+06        -0.26516E+08         0.00000E+00
    0.00000E+00         0.00000E+00        -0.11659E+08
 
   -0.30415E+08        -0.86129E+05         0.00000E+00
   -0.86129E+05        -0.26366E+08         0.00000E+00
    0.00000E+00         0.00000E+00        -0.11356E+08
 
   -0.28606E+08         0.60154E+05         0.00000E+00
    0.60154E+05        -0.26481E+08         0.00000E+00
    0.00000E+00         0.00000E+00        -0.11017E+08
 
   -0.26016E+08         0.28621E+06         0.00000E+00
    0.28621E+06        -0.26980E+08         0.00000E+00
    0.00000E+00         0.00000E+00        -0.10599E+08
 
   -0.21932E+08         0.69811E+06         0.00000E+00
    0.69811E+06        -0.28153E+08         0.00000E+00
    0.00000E+00         0.00000E+00        -0.10017E+08
 
   -0.13806E+08         0.22194E+07         0.00000E+00
    0.22194E+07        -0.30914E+08         0.00000E+00
    0.00000E+00         0.00000E+00        -0.89440E+07
 
TENSORS stresstot double 
   -0.52235E+08        -0.24952E+06         0.00000E+00
   -0.24952E+06        -0.60175E+08         0.00000E+00
    0.00000E+00         0.00000E+00        -0.62912E+08
 
   -0.54119E+08        -0.25334E+06         0.00000E+00
   -0.25334E+06        -0.60590E+08         0.00000E+00
    0.00000E+00         0.00000E+00        -0.63381E+08
 
   -0.55259E+08        -0.20195E+06         0.00000E+00
   -0.20195E+06        -0.61003E+08         0.00000E+00
    0.00000E+00         0.00000E+00        -0.63704E+08
 
   -0.56121E+08        -0.15754E+06         0.00000E+00
   -0.15754E+06        -0.61341E+08         0.00000E+00
    0.00000E+00         0.00000E+00        -0.63956E+08
 
   -0.56844E+08        -0.11980E+06         0.00000E+00
   -0.11980E+06        -0.61606E+08         0.00000E+00
    0.00000E+00         0.00000E+00        -0.64166E+08
 
   -0.57493E+08        -0.88348E+05         0.00000E+00
   -0.88348E+05        -0.61805E+08         0.00000E+00
    0.00000E+00         0.00000E+00        -0.64348E+08
 
   -0.58100E+08        -0.61879E+05         0.00000E+00
   -0.61879E+05        -0.61949E+08         0.00000E+00
    0.00000E+00         0.00000E+00        -0.64510E+08
 
   -0.58686E+08        -0.39011E+05         0.00000E+00
   -0.39011E+05        -0.62045E+08         0.00000E+00
    0.00000E+00         0.00000E+00        -0.64658E+08
 
   -0.59266E+08        -0.18322E+05         0.00000E+00
   -0.18322E+05        -0.62098E+08         0.00000E+00
    0.00000E+00         0.00000E+00        -0.64795E+08
 
   -0.59854E+08         0.18242E+04         0.00000E+00
    0.18242E+04        -0.62111E+08         0.00000E+00
    0.00000E+00         0.00000E+00        -0.64925E+08
 
   -0.60472E+08         0.23741E+05         0.00000E+00
    0.23741E+05        -0.62082E+08         0.00000E+00
    0.00000E+00         0.00000E+00        -0.65053E+08
 
   -0.61153E+08         0.51457E+05         0.00000E+00
    0.51457E+05        -0.62004E+08         0.00000E+00
    0.00000E+00         0.00000E+00        -0.65182E+08
 
   -0.61957E+08         0.94137E+05         0.00000E+00
    0.94137E+05        -0.61855E+08         0.00000E+00
    0.00000E+00         0.00000E+00        -0.65322E+08
 
   -0.63013E+08         0.17397E+06         0.00000E+00
    0.17397E+06        -0.61583E+08         0.00000E+00
    0.00000E+00         0.00000E+00        -0.65487E+08
 
   -0.64749E+08         0.44495E+06         0.00000E+00
    0.44495E+06        -0.61013E+08         0.00000E+00
    0.00000E+00         0.00000E+00        -0.65725E+08
 
   -0.52663E+08        -0.36184E+06         0.00000E+00
   -0.36184E+06        -0.59993E+08         0.00000E+00
    0.00000E+00         0.00000E+00        -0.62101E+08
 
   -0.54088E+08        -0.57005E+06         0.00000E+00
   -0.57005E+06        -0.60077E+08         0.00000E+00
    0.00000E+00         0.00000E+00        -0.62404E+08
 
   -0.55190E+08        -0.51370E+06         0.00000E+00
   -0.51370E+06        -0.60282E+08         0.00000E+00
    0.00000E+00         0.00000E+00        -0.62667E+08
 
   -0.56050E+08        -0.41726E+06         0.00000E+00
   -0.41726E+06        -0.60496E+08         0.00000E+00
    0.00000E+00         0.00000E+00        -0.62887E+08
 
   -0.56782E+08        -0.32304E+06         0.00000E+00
   -0.32304E+06        -0.60681E+08         0.00000E+00
    0.00000E+00         0.00000E+00        -0.63075E+08
 
   -0.57439E+08        -0.23934E+06         0.00000E+00
   -0.23934E+06        -0.60826E+08         0.00000E+00
    0.00000E+00         0.00000E+00        -0.63242E+08
 
   -0.58054E+08        -0.16628E+06         0.00000E+00
   -0.16628E+06        -0.60930E+08         0.00000E+00
    0.00000E+00         0.00000E+00        -0.63391E+08
 
   -0.58644E+08        -0.10149E+06         0.00000E+00
   -0.10149E+06        -0.60996E+08         0.00000E+00
    0.00000E+00         0.00000E+00        -0.63529E+08
 
   -0.59226E+08        -0.41567E+05         0.00000E+00
   -0.41567E+05        -0.61025E+08         0.00000E+00
    0.00000E+00         0.00000E+00        -0.63657E+08
 
   -0.59813E+08         0.17999E+05         0.00000E+00
    0.17999E+05        -0.61016E+08         0.00000E+00
    0.00000E+00         0.00000E+00        -0.63778E+08
 
   -0.60424E+08         0.84005E+05         0.00000E+00
    0.84005E+05        -0.60966E+08         0.00000E+00
    0.00000E+00         0.00000E+00        -0.63895E+08
 
   -0.61085E+08         0.16871E+06         0.00000E+00
    0.16871E+06        -0.60866E+08         0.00000E+00
    0.00000E+00         0.00000E+00        -0.64011E+08
 
   -0.61842E+08         0.29825E+06         0.00000E+00
    0.29825E+06        -0.60695E+08         0.00000E+00
    0.00000E+00         0.00000E+00        -0.64132E+08
 
   -0.62776E+08         0.54247E+06         0.00000E+00
    0.54247E+06        -0.60410E+08         0.00000E+00
    0.00000E+00         0.00000E+00        -0.64263E+08
 
   -0.63876E+08         0.11417E+07         0.00000E+00
    0.11417E+07        -0.59949E+08         0.00000E+00
    0.00000E+00         0.00000E+00        -0.64391E+08
 
   -0.53193E+08        -0.32137E+06         0.00000E+00
   -0.32137E+06        -0.59971E+08         0.00000E+00
    0.00000E+00         0.00000E+00        -0.61453E+08
 
   -0.54171E+08        -0.62216E+06         0.00000E+00
   -0.62216E+06        -0.59922E+08         0.00000E+00
    0.00000E+00         0.00000E+00        -0.61637E+08
 
   -0.55118E+08        -0.64268E+06         0.00000E+00
   -0.64268E+06        -0.59931E+08         0.00000E+00
    0.00000E+00         0.00000E+00        -0.61826E+08
 
   -0.55947E+08        -0.55604E+06         0.00000E+00
   -0.55604E+06        -0.59991E+08         0.00000E+00
    0.00000E+00         0.00000E+00        -0.62004E+08
 
   -0.56679E+08        -0.44354E+06         0.00000E+00
   -0.44354E+06        -0.60065E+08         0.00000E+00
    0.00000E+00         0.00000E+00        -0.62166E+08
 
   -0.57345E+08        -0.33139E+06         0.00000E+00
   -0.33139E+06        -0.60129E+08         0.00000E+00
    0.00000E+00         0.00000E+00        -0.62313E+08
 
   -0.57969E+08        -0.22676E+06         0.00000E+00
   -0.22676E+06        -0.60175E+08         0.00000E+00
    0.00000E+00         0.00000E+00        -0.62449E+08
 
   -0.58566E+08        -0.12948E+06         0.00000E+00
   -0.12948E+06        -0.60195E+08         0.00000E+00
    0.00000E+00         0.00000E+00        -0.62575E+08
 
   -0.59149E+08        -0.35981E+05         0.00000E+00
   -0.35981E+05        -0.60187E+08         0.00000E+00
    0.00000E+00         0.00000E+00        -0.62692E+08
 
   -0.59732E+08         0.60037E+05         0.00000E+00
    0.60037E+05        -0.60147E+08         0.00000E+00
    0.00000E+00         0.00000E+00        -0.62803E+08
 
   -0.60326E+08         0.16896E+06         0.00000E+00
    0.16896E+06        -0.60070E+08         0.00000E+00
    0.00000E+00         0.00000E+00        -0.62908E+08
 
   -0.60950E+08         0.30953E+06         0.00000E+00
    0.30953E+06        -0.59946E+08         0.00000E+00
    0.00000E+00         0.00000E+00        -0.63009E+08
 
   -0.61621E+08         0.51918E+06         0.00000E+00
    0.51918E+06        -0.59763E+08         0.00000E+00
    0.00000E+00         0.00000E+00        -0.63106E+08
 
   -0.62337E+08         0.88072E+06         0.00000E+00
    0.88072E+06        -0.59504E+08         0.00000E+00
    0.00000E+00         0.00000E+00        -0.63197E+08
 
   -0.63003E+08         0.15247E+07         0.00000E+00
    0.15247E+07        -0.59216E+08         0.00000E+00
    0.00000E+00         0.00000E+00        -0.63272E+08
 
   -0.53671E+08        -0.25339E+06         0.00000E+00
   -0.25339E+06        -0.59966E+08         0.00000E+00
    0.00000E+00         0.00000E+00        -0.60912E+08
 
   -0.54326E+08        -0.54484E+06         0.00000E+00
   -0.54484E+06        -0.59872E+08         0.00000E+00
    0.00000E+00         0.00000E+00        -0.61023E+08
 
   -0.55094E+08        -0.61771E+06         0.00000E+00
   -0.61771E+06        -0.59778E+08         0.00000E+00
    0.00000E+00         0.00000E+00        -0.61156E+08
 
   -0.55853E+08        -0.56885E+06         0.00000E+00
   -0.56885E+06        -0.59721E+08         0.00000E+00
    0.00000E+00         0.00000E+00        -0.61294E+08
 
   -0.56565E+08        -0.46821E+06         0.00000E+00
   -0.46821E+06        -0.59692E+08         0.00000E+00
    0.00000E+00         0.00000E+00        -0.61429E+08
 
   -0.57231E+08        -0.35128E+06         0.00000E+00
   -0.35128E+06        -0.59675E+08         0.00000E+00
    0.00000E+00         0.00000E+00        -0.61558E+08
 
   -0.57858E+08        -0.23209E+06         0.00000E+00
   -0.23209E+06        -0.59656E+08         0.00000E+00
    0.00000E+00         0.00000E+00        -0.61679E+08
 
   -0.58459E+08        -0.11408E+06         0.00000E+00
   -0.11408E+06        -0.59627E+08         0.00000E+00
    0.00000E+00         0.00000E+00        -0.61793E+08
 
   -0.59041E+08         0.50372E+04         0.00000E+00
    0.50372E+04        -0.59579E+08         0.00000E+00
    0.00000E+00         0.00000E+00        -0.61899E+08
 
   -0.59614E+08         0.13189E+06         0.00000E+00
    0.13189E+06        -0.59507E+08         0.00000E+00
    0.00000E+00         0.00000E+00        -0.61999E+08
 
   -0.60184E+08         0.27843E+06         0.00000E+00
    0.27843E+06        -0.59404E+08         0.00000E+00
    0.00000E+00         0.00000E+00        -0.62092E+08
 
   -0.60755E+08         0.46545E+06         0.00000E+00
    0.46545E+06        -0.59266E+08         0.00000E+00
    0.00000E+00         0.00000E+00        -0.62178E+08
 
   -0.61323E+08         0.72958E+06         0.00000E+00
    0.72958E+06        -0.59088E+08         0.00000E+00
    0.00000E+00         0.00000E+00        -0.62255E+08
 
   -0.61848E+08         0.11270E+07         0.00000E+00
    0.11270E+07        -0.58886E+08         0.00000E+00
    0.00000E+00         0.00000E+00        -0.62318E+08
 
   -0.62233E+08         0.17201E+07         0.00000E+00
    0.17201E+07        -0.58714E+08         0.00000E+00
    0.00000E+00         0.00000E+00        -0.62360E+08
 
   -0.54048E+08        -0.18095E+06         0.00000E+00
   -0.18095E+06        -0.59967E+08         0.00000E+00
    0.00000E+00         0.00000E+00        -0.60465E+08
 
   -0.54491E+08        -0.41787E+06         0.00000E+00
   -0.41787E+06        -0.59860E+08         0.00000E+00
    0.00000E+00         0.00000E+00        -0.60531E+08
 
   -0.55110E+08        -0.50518E+06         0.00000E+00
   -0.50518E+06        -0.59721E+08         0.00000E+00
    0.00000E+00         0.00000E+00        -0.60626E+08
 
   -0.55787E+08        -0.48771E+06         0.00000E+00
   -0.48771E+06        -0.59596E+08         0.00000E+00
    0.00000E+00         0.00000E+00        -0.60733E+08
 
   -0.56462E+08        -0.41034E+06         0.00000E+00
   -0.41034E+06        -0.59495E+08         0.00000E+00
    0.00000E+00         0.00000E+00        -0.60846E+08
 
   -0.57113E+08        -0.30358E+06         0.00000E+00
   -0.30358E+06        -0.59412E+08         0.00000E+00
    0.00000E+00         0.00000E+00        -0.60958E+08
 
   -0.57737E+08        -0.18337E+06         0.00000E+00
   -0.18337E+06        -0.59339E+08         0.00000E+00
    0.00000E+00         0.00000E+00        -0.61066E+08
 
   -0.58334E+08        -0.55580E+05         0.00000E+00
   -0.55580E+05        -0.59264E+08         0.00000E+00
    0.00000E+00         0.00000E+00        -0.61169E+08
 
   -0.58909E+08         0.80416E+05         0.00000E+00
    0.80416E+05        -0.59181E+08         0.00000E+00
    0.00000E+00         0.00000E+00        -0.61266E+08
 
   -0.59466E+08         0.23027E+06         0.00000E+00
    0.23027E+06        -0.59081E+08         0.00000E+00
    0.00000E+00         0.00000E+00        -0.61356E+08
 
   -0.60005E+08         0.40494E+06         0.00000E+00
    0.40494E+06        -0.58961E+08         0.00000E+00
    0.00000E+00         0.00000E+00        -0.61438E+08
 
   -0.60521E+08         0.62241E+06         0.00000E+00
    0.62241E+06        -0.58819E+08         0.00000E+00
    0.00000E+00         0.00000E+00        -0.61511E+08
 
   -0.60994E+08         0.90894E+06         0.00000E+00
    0.90894E+06        -0.58660E+08         0.00000E+00
    0.00000E+00         0.00000E+00        -0.61573E+08
 
   -0.61378E+08         0.12960E+07         0.00000E+00
    0.12960E+07        -0.58507E+08         0.00000E+00
    0.00000E+00         0.00000E+00        -0.61618E+08
 
   -0.61593E+08         0.18073E+07         0.00000E+00
    0.18073E+07        -0.58409E+08         0.00000E+00
    0.00000E+00         0.00000E+00        -0.61640E+08
 
   -0.54310E+08        -0.11239E+06         0.00000E+00
   -0.11239E+06        -0.59970E+08         0.00000E+00
    0.00000E+00         0.00000E+00        -0.60097E+08
 
   -0.54630E+08        -0.27748E+06         0.00000E+00
   -0.27748E+06        -0.59865E+08         0.00000E+00
    0.00000E+00         0.00000E+00        -0.60139E+08
 
   -0.55142E+08        -0.35334E+06         0.00000E+00
   -0.35334E+06        -0.59715E+08         0.00000E+00
    0.00000E+00         0.00000E+00        -0.60210E+08
 
   -0.55745E+08        -0.35204E+06         0.00000E+00
   -0.35204E+06        -0.59559E+08         0.00000E+00
    0.00000E+00         0.00000E+00        -0.60297E+08
 
   -0.56376E+08        -0.29587E+06         0.00000E+00
   -0.29587E+06        -0.59417E+08         0.00000E+00
    0.00000E+00         0.00000E+00        -0.60393E+08
 
   -0.57004E+08        -0.20468E+06         0.00000E+00
   -0.20468E+06        -0.59293E+08         0.00000E+00
    0.00000E+00         0.00000E+00        -0.60492E+08
 
   -0.57613E+08        -0.91366E+05         0.00000E+00
   -0.91366E+05        -0.59181E+08         0.00000E+00
    0.00000E+00         0.00000E+00        -0.60589E+08
 
   -0.58200E+08         0.38029E+05         0.00000E+00
    0.38029E+05        -0.59074E+08         0.00000E+00
    0.00000E+00         0.00000E+00        -0.60683E+08
 
   -0.58761E+08         0.18293E+06         0.00000E+00
    0.18293E+06        -0.58965E+08         0.00000E+00
    0.00000E+00         0.00000E+00        -0.60771E+08
 
   -0.59297E+08         0.34724E+06         0.00000E+00
    0.34724E+06        -0.58848E+08         0.00000E+00
    0.00000E+00         0.00000E+00        -0.60853E+08
 
   -0.59803E+08         0.53902E+06         0.00000E+00
    0.53902E+06        -0.58719E+08         0.00000E+00
    0.00000E+00         0.00000E+00        -0.60927E+08
 
   -0.60268E+08         0.77050E+06         0.00000E+00
    0.77050E+06        -0.58580E+08         0.00000E+00
    0.00000E+00         0.00000E+00        -0.60990E+08
 
   -0.60667E+08         0.10567E+07         0.00000E+00
    0.10567E+07        -0.58442E+08         0.00000E+00
    0.00000E+00         0.00000E+00        -0.61041E+08
 
   -0.60959E+08         0.14109E+07         0.00000E+00
    0.14109E+07        -0.58325E+08         0.00000E+00
    0.00000E+00         0.00000E+00        -0.61075E+08
 
   -0.61080E+08         0.18353E+07         0.00000E+00
    0.18353E+07        -0.58270E+08         0.00000E+00
    0.00000E+00         0.00000E+00        -0.61088E+08
 
   -0.54463E+08        -0.51536E+05         0.00000E+00
   -0.51536E+05        -0.59974E+08         0.00000E+00
    0.00000E+00         0.00000E+00        -0.59792E+08
 
   -0.54727E+08        -0.14205E+06         0.00000E+00
   -0.14205E+06        -0.59880E+08         0.00000E+00
    0.00000E+00         0.00000E+00        -0.59825E+08
 
   -0.55173E+08        -0.19221E+06         0.00000E+00
   -0.19221E+06        -0.59735E+08         0.00000E+00
    0.00000E+00         0.00000E+00        -0.59885E+08
 
   -0.55719E+08        -0.19384E+06         0.00000E+00
   -0.19384E+06        -0.59575E+08         0.00000E+00
    0.00000E+00         0.00000E+00        -0.59960E+08
 
   -0.56309E+08        -0.15201E+06         0.00000E+00
   -0.15201E+06        -0.59420E+08         0.00000E+00
    0.00000E+00         0.00000E+00        -0.60045E+08
 
   -0.56907E+08        -0.75597E+05         0.00000E+00
   -0.75597E+05        -0.59277E+08         0.00000E+00
    0.00000E+00         0.00000E+00        -0.60134E+08
 
   -0.57495E+08         0.27848E+05         0.00000E+00
    0.27848E+05        -0.59146E+08         0.00000E+00
    0.00000E+00         0.00000E+00        -0.60224E+08
 
   -0.58063E+08         0.15397E+06         0.00000E+00
    0.15397E+06        -0.59022E+08         0.00000E+00
    0.00000E+00         0.00000E+00        -0.60310E+08
 
   -0.58605E+08         0.30174E+06         0.00000E+00
    0.30174E+06        -0.58900E+08         0.00000E+00
    0.00000E+00         0.00000E+00        -0.60392E+08
 
   -0.59116E+08         0.47309E+06         0.00000E+00
    0.47309E+06        -0.58776E+08         0.00000E+00
    0.00000E+00         0.00000E+00        -0.60468E+08
 
   -0.59590E+08         0.67245E+06         0.00000E+00
    0.67245E+06        -0.58647E+08         0.00000E+00
    0.00000E+00         0.00000E+00        -0.60535E+08
 
   -0.60013E+08         0.90579E+06         0.00000E+00
    0.90579E+06        -0.58517E+08         0.00000E+00
    0.00000E+00         0.00000E+00        -0.60592E+08
 
   -0.60361E+08         0.11787E+07         0.00000E+00
    0.11787E+07        -0.58397E+08         0.00000E+00
    0.00000E+00         0.00000E+00        -0.60636E+08
 
   -0.60599E+08         0.14921E+07         0.00000E+00
    0.14921E+07        -0.58305E+08         0.00000E+00
    0.00000E+00         0.00000E+00        -0.60665E+08
 
   -0.60678E+08         0.18363E+07         0.00000E+00
    0.18363E+07        -0.58270E+08         0.00000E+00
    0.00000E+00         0.00000E+00        -0.60673E+08
 
   -0.54517E+08        -0.89013E+02         0.00000E+00
   -0.89013E+02        -0.59979E+08         0.00000E+00
    0.00000E+00         0.00000E+00        -0.59535E+08
 
   -0.54776E+08        -0.21437E+05         0.00000E+00
   -0.21437E+05        -0.59899E+08         0.00000E+00
    0.00000E+00         0.00000E+00        -0.59570E+08
 
   -0.55191E+08        -0.40376E+05         0.00000E+00
   -0.40376E+05        -0.59771E+08         0.00000E+00
    0.00000E+00         0.00000E+00        -0.59627E+08
 
   -0.55699E+08        -0.36349E+05         0.00000E+00
   -0.36349E+05        -0.59624E+08         0.00000E+00
    0.00000E+00         0.00000E+00        -0.59698E+08
 
   -0.56254E+08        -0.20957E+04         0.00000E+00
   -0.20957E+04        -0.59475E+08         0.00000E+00
    0.00000E+00         0.00000E+00        -0.59778E+08
 
   -0.56822E+08         0.62872E+05         0.00000E+00
    0.62872E+05        -0.59334E+08         0.00000E+00
    0.00000E+00         0.00000E+00        -0.59862E+08
 
   -0.57384E+08         0.15671E+06         0.00000E+00
    0.15671E+06        -0.59203E+08         0.00000E+00
    0.00000E+00         0.00000E+00        -0.59946E+08
 
   -0.57927E+08         0.27759E+06         0.00000E+00
    0.27759E+06        -0.59078E+08         0.00000E+00
    0.00000E+00         0.00000E+00        -0.60028E+08
 
   -0.58445E+08         0.42467E+06         0.00000E+00
    0.42467E+06        -0.58957E+08         0.00000E+00
    0.00000E+00         0.00000E+00        -0.60105E+08
 
   -0.58930E+08         0.59814E+06         0.00000E+00
    0.59814E+06        -0.58836E+08         0.00000E+00
    0.00000E+00         0.00000E+00        -0.60176E+08
 
   -0.59375E+08         0.79885E+06         0.00000E+00
    0.79885E+06        -0.58715E+08         0.00000E+00
    0.00000E+00         0.00000E+00        -0.60239E+08
 
   -0.59765E+08         0.10273E+07         0.00000E+00
    0.10273E+07        -0.58597E+08         0.00000E+00
    0.00000E+00         0.00000E+00        -0.60292E+08
 
   -0.60081E+08         0.12817E+07         0.00000E+00
    0.12817E+07        -0.58491E+08         0.00000E+00
    0.00000E+00         0.00000E+00        -0.60333E+08
 
   -0.60294E+08         0.15552E+07         0.00000E+00
    0.15552E+07        -0.58413E+08         0.00000E+00
    0.00000E+00         0.00000E+00        -0.60360E+08
 
   -0.60370E+08         0.18315E+07         0.00000E+00
    0.18315E+07        -0.58384E+08         0.00000E+00
    0.00000E+00         0.00000E+00        -0.60369E+08
 
   -0.54488E+08         0.41349E+05         0.00000E+00
    0.41349E+05        -0.59983E+08         0.00000E+00
    0.00000E+00         0.00000E+00        -0.59312E+08
 
   -0.54777E+08         0.78978E+05         0.00000E+00
    0.78978E+05        -0.59920E+08         0.00000E+00
    0.00000E+00         0.00000E+00        -0.59357E+08
 
   -0.55190E+08         0.90495E+05         0.00000E+00
    0.90495E+05        -0.59816E+08         0.00000E+00
    0.00000E+00         0.00000E+00        -0.59418E+08
 
   -0.55679E+08         0.10402E+06         0.00000E+00
    0.10402E+06        -0.59693E+08         0.00000E+00
    0.00000E+00         0.00000E+00        -0.59491E+08
 
   -0.56207E+08         0.13541E+06         0.00000E+00
    0.13541E+06        -0.59566E+08         0.00000E+00
    0.00000E+00         0.00000E+00        -0.59570E+08
 
   -0.56747E+08         0.19252E+06         0.00000E+00
    0.19252E+06        -0.59444E+08         0.00000E+00
    0.00000E+00         0.00000E+00        -0.59652E+08
 
   -0.57279E+08         0.27860E+06         0.00000E+00
    0.27860E+06        -0.59328E+08         0.00000E+00
    0.00000E+00         0.00000E+00        -0.59733E+08
 
   -0.57795E+08         0.39451E+06         0.00000E+00
    0.39451E+06        -0.59217E+08         0.00000E+00
    0.00000E+00         0.00000E+00        -0.59813E+08
 
   -0.58285E+08         0.53987E+06         0.00000E+00
    0.53987E+06        -0.59109E+08         0.00000E+00
    0.00000E+00         0.00000E+00        -0.59887E+08
 
   -0.58743E+08         0.71351E+06         0.00000E+00
    0.71351E+06        -0.59002E+08         0.00000E+00
    0.00000E+00         0.00000E+00        -0.59956E+08
 
   -0.59162E+08         0.91324E+06         0.00000E+00
    0.91324E+06        -0.58894E+08         0.00000E+00
    0.00000E+00         0.00000E+00        -0.60017E+08
 
   -0.59529E+08         0.11351E+07         0.00000E+00
    0.11351E+07        -0.58790E+08         0.00000E+00
    0.00000E+00         0.00000E+00        -0.60068E+08
 
   -0.59829E+08         0.13719E+07         0.00000E+00
    0.13719E+07        -0.58697E+08         0.00000E+00
    0.00000E+00         0.00000E+00        -0.60109E+08
 
   -0.60039E+08         0.16116E+07         0.00000E+00
    0.16116E+07        -0.58625E+08         0.00000E+00
    0.00000E+00         0.00000E+00        -0.60136E+08
 
   -0.60134E+08         0.18347E+07         0.00000E+00
    0.18347E+07        -0.58591E+08         0.00000E+00
    0.00000E+00         0.00000E+00        -0.60148E+08
 
   -0.54393E+08         0.72650E+05         0.00000E+00
    0.72650E+05        -0.59988E+08         0.00000E+00
    0.00000E+00         0.00000E+00        -0.59111E+08
 
   -0.54740E+08         0.15614E+06         0.00000E+00
    0.15614E+06        -0.59942E+08         0.00000E+00
    0.00000E+00         0.00000E+00        -0.59171E+08
 
   -0.55172E+08         0.19284E+06         0.00000E+00
    0.19284E+06        -0.59866E+08         0.00000E+00
    0.00000E+00         0.00000E+00        -0.59242E+08
 
   -0.55657E+08         0.21561E+06         0.00000E+00
    0.21561E+06        -0.59776E+08         0.00000E+00
    0.00000E+00         0.00000E+00        -0.59320E+08
 
   -0.56165E+08         0.24629E+06         0.00000E+00
    0.24629E+06        -0.59682E+08         0.00000E+00
    0.00000E+00         0.00000E+00        -0.59402E+08
 
   -0.56678E+08         0.29830E+06         0.00000E+00
    0.29830E+06        -0.59591E+08         0.00000E+00
    0.00000E+00         0.00000E+00        -0.59486E+08
 
   -0.57181E+08         0.37903E+06         0.00000E+00
    0.37903E+06        -0.59504E+08         0.00000E+00
    0.00000E+00         0.00000E+00        -0.59567E+08
 
   -0.57665E+08         0.49173E+06         0.00000E+00
    0.49173E+06        -0.59420E+08         0.00000E+00
    0.00000E+00         0.00000E+00        -0.59646E+08
 
   -0.58125E+08         0.63660E+06         0.00000E+00
    0.63660E+06        -0.59336E+08         0.00000E+00
    0.00000E+00         0.00000E+00        -0.59720E+08
 
   -0.58556E+08         0.81140E+06         0.00000E+00
    0.81140E+06        -0.59251E+08         0.00000E+00
    0.00000E+00         0.00000E+00        -0.59787E+08
 
   -0.58951E+08         0.10115E+07         0.00000E+00
    0.10115E+07        -0.59163E+08         0.00000E+00
    0.00000E+00         0.00000E+00        -0.59848E+08
 
   -0.59303E+08         0.12293E+07         0.00000E+00
    0.12293E+07        -0.59075E+08         0.00000E+00
    0.00000E+00         0.00000E+00        -0.59899E+08
 
   -0.59598E+08         0.14538E+07         0.00000E+00
    0.14538E+07        -0.58991E+08         0.00000E+00
    0.00000E+00         0.00000E+00        -0.59941E+08
 
   -0.59820E+08         0.16693E+07         0.00000E+00
    0.16693E+07        -0.58921E+08         0.00000E+00
    0.00000E+00         0.00000E+00        -0.59971E+08
 
   -0.59952E+08         0.18547E+07         0.00000E+00
    0.18547E+07        -0.58875E+08         0.00000E+00
    0.00000E+00         0.00000E+00        -0.59988E+08
 
   -0.54250E+08         0.93788E+05         0.00000E+00
    0.93788E+05        -0.59993E+08         0.00000E+00
    0.00000E+00         0.00000E+00        -0.58923E+08
 
   -0.54672E+08         0.20811E+06         0.00000E+00
    0.20811E+06        -0.59965E+08         0.00000E+00
    0.00000E+00         0.00000E+00        -0.59002E+08
 
   -0.55140E+08         0.26147E+06         0.00000E+00
    0.26147E+06        -0.59920E+08         0.00000E+00
    0.00000E+00         0.00000E+00        -0.59086E+08
 
   -0.55631E+08         0.28995E+06         0.00000E+00
    0.28995E+06        -0.59868E+08         0.00000E+00
    0.00000E+00         0.00000E+00        -0.59173E+08
 
   -0.56127E+08         0.31964E+06         0.00000E+00
    0.31964E+06        -0.59816E+08         0.00000E+00
    0.00000E+00         0.00000E+00        -0.59261E+08
 
   -0.56614E+08         0.36806E+06         0.00000E+00
    0.36806E+06        -0.59766E+08         0.00000E+00
    0.00000E+00         0.00000E+00        -0.59348E+08
 
   -0.57085E+08         0.44583E+06         0.00000E+00
    0.44583E+06        -0.59719E+08         0.00000E+00
    0.00000E+00         0.00000E+00        -0.59431E+08
 
   -0.57536E+08         0.55810E+06         0.00000E+00
    0.55810E+06        -0.59673E+08         0.00000E+00
    0.00000E+00         0.00000E+00        -0.59511E+08
 
   -0.57963E+08         0.70555E+06         0.00000E+00
    0.70555E+06        -0.59623E+08         0.00000E+00
    0.00000E+00         0.00000E+00        -0.59585E+08
 
   -0.58365E+08         0.88508E+06         0.00000E+00
    0.88508E+06        -0.59567E+08         0.00000E+00
    0.00000E+00         0.00000E+00        -0.59652E+08
 
   -0.58739E+08         0.10900E+07         0.00000E+00
    0.10900E+07        -0.59504E+08         0.00000E+00
    0.00000E+00         0.00000E+00        -0.59713E+08
 
   -0.59080E+08         0.13099E+07         0.00000E+00
    0.13099E+07        -0.59433E+08         0.00000E+00
    0.00000E+00         0.00000E+00        -0.59766E+08
 
   -0.59379E+08         0.15307E+07         0.00000E+00
    0.15307E+07        -0.59359E+08         0.00000E+00
    0.00000E+00         0.00000E+00        -0.59810E+08
 
   -0.59625E+08         0.17339E+07         0.00000E+00
    0.17339E+07        -0.59286E+08         0.00000E+00
    0.00000E+00         0.00000E+00        -0.59845E+08
 
   -0.59805E+08         0.18972E+07         0.00000E+00
    0.18972E+07        -0.59223E+08         0.00000E+00
    0.00000E+00         0.00000E+00        -0.59868E+08
 
   -0.54078E+08         0.10465E+06         0.00000E+00
    0.10465E+06        -0.59997E+08         0.00000E+00
    0.00000E+00         0.00000E+00        -0.58739E+08
 
   -0.54589E+08         0.23335E+06         0.00000E+00
    0.23335E+06        -0.59989E+08         0.00000E+00
    0.00000E+00         0.00000E+00        -0.58839E+08
 
   -0.55102E+08         0.29246E+06         0.00000E+00
    0.29246E+06        -0.59978E+08         0.00000E+00
    0.00000E+00         0.00000E+00        -0.58939E+08
 
   -0.55606E+08         0.32059E+06         0.00000E+00
    0.32059E+06        -0.59969E+08         0.00000E+00
    0.00000E+00         0.00000E+00        -0.59038E+08
 
   -0.56091E+08         0.34694E+06         0.00000E+00
    0.34694E+06        -0.59964E+08         0.00000E+00
    0.00000E+00         0.00000E+00        -0.59133E+08
 
   -0.56553E+08         0.39208E+06         0.00000E+00
    0.39208E+06        -0.59965E+08         0.00000E+00
    0.00000E+00         0.00000E+00        -0.59225E+08
 
   -0.56990E+08         0.46902E+06         0.00000E+00
    0.46902E+06        -0.59967E+08         0.00000E+00
    0.00000E+00         0.00000E+00        -0.59311E+08
 
   -0.57403E+08         0.58429E+06         0.00000E+00
    0.58429E+06        -0.59966E+08         0.00000E+00
    0.00000E+00         0.00000E+00        -0.59392E+08
 
   -0.57794E+08         0.73886E+06         0.00000E+00
    0.73886E+06        -0.59958E+08         0.00000E+00
    0.00000E+00         0.00000E+00        -0.59466E+08
 
   -0.58166E+08         0.92879E+06         0.00000E+00
    0.92879E+06        -0.59938E+08         0.00000E+00
    0.00000E+00         0.00000E+00        -0.59535E+08
 
   -0.58520E+08         0.11456E+07         0.00000E+00
    0.11456E+07        -0.59903E+08         0.00000E+00
    0.00000E+00         0.00000E+00        -0.59597E+08
 
   -0.58853E+08         0.13766E+07         0.00000E+00
    0.13766E+07        -0.59852E+08         0.00000E+00
    0.00000E+00         0.00000E+00        -0.59652E+08
 
   -0.59163E+08         0.16047E+07         0.00000E+00
    0.16047E+07        -0.59785E+08         0.00000E+00
    0.00000E+00         0.00000E+00        -0.59700E+08
 
   -0.59441E+08         0.18093E+07         0.00000E+00
    0.18093E+07        -0.59708E+08         0.00000E+00
    0.00000E+00         0.00000E+00        -0.59740E+08
 
   -0.59677E+08         0.19663E+07         0.00000E+00
    0.19663E+07        -0.59625E+08         0.00000E+00
    0.00000E+00         0.00000E+00        -0.59770E+08
 
   -0.53897E+08         0.10494E+06         0.00000E+00
    0.10494E+06        -0.60002E+08         0.00000E+00
    0.00000E+00         0.00000E+00        -0.58552E+08
 
   -0.54502E+08         0.23036E+06         0.00000E+00
    0.23036E+06        -0.60014E+08         0.00000E+00
    0.00000E+00         0.00000E+00        -0.58675E+08
 
   -0.55066E+08         0.28253E+06         0.00000E+00
    0.28253E+06        -0.60038E+08         0.00000E+00
    0.00000E+00         0.00000E+00        -0.58793E+08
 
   -0.55586E+08         0.30232E+06         0.00000E+00
    0.30232E+06        -0.60076E+08         0.00000E+00
    0.00000E+00         0.00000E+00        -0.58904E+08
 
   -0.56060E+08         0.32139E+06         0.00000E+00
    0.32139E+06        -0.60126E+08         0.00000E+00
    0.00000E+00         0.00000E+00        -0.59008E+08
 
   -0.56494E+08         0.36255E+06         0.00000E+00
    0.36255E+06        -0.60182E+08         0.00000E+00
    0.00000E+00         0.00000E+00        -0.59104E+08
 
   -0.56893E+08         0.44049E+06         0.00000E+00
    0.44049E+06        -0.60240E+08         0.00000E+00
    0.00000E+00         0.00000E+00        -0.59193E+08
 
   -0.57263E+08         0.56263E+06         0.00000E+00
    0.56263E+06        -0.60293E+08         0.00000E+00
    0.00000E+00         0.00000E+00        -0.59275E+08
 
   -0.57614E+08         0.72995E+06         0.00000E+00
    0.72995E+06        -0.60333E+08         0.00000E+00
    0.00000E+00         0.00000E+00        -0.59351E+08
 
   -0.57952E+08         0.93764E+06         0.00000E+00
    0.93764E+06        -0.60355E+08         0.00000E+00
    0.00000E+00         0.00000E+00        -0.59421E+08
 
   -0.58283E+08         0.11756E+07         0.00000E+00
    0.11756E+07        -0.60352E+08         0.00000E+00
    0.00000E+00         0.00000E+00        -0.59484E+08
 
   -0.58611E+08         0.14287E+07         0.00000E+00
    0.14287E+07        -0.60321E+08         0.00000E+00
    0.00000E+00         0.00000E+00        -0.59542E+08
 
   -0.58935E+08         0.16775E+07         0.00000E+00
    0.16775E+07        -0.60263E+08         0.00000E+00
    0.00000E+00         0.00000E+00        -0.59594E+08
 
   -0.59251E+08         0.18985E+07         0.00000E+00
    0.18985E+07        -0.60178E+08         0.00000E+00
    0.00000E+00         0.00000E+00        -0.59639E+08
 
   -0.59550E+08         0.20656E+07         0.00000E+00
    0.20656E+07        -0.60071E+08         0.00000E+00
    0.00000E+00         0.00000E+00        -0.59678E+08
 
   -0.53727E+08         0.94230E+05         0.00000E+00
    0.94230E+05        -0.60008E+08         0.00000E+00
    0.00000E+00         0.00000E+00        -0.58357E+08
 
   -0.54430E+08         0.19756E+06         0.00000E+00
    0.19756E+06        -0.60040E+08         0.00000E+00
    0.00000E+00         0.00000E+00        -0.58504E+08
 
   -0.55044E+08         0.22869E+06         0.00000E+00
    0.22869E+06        -0.60103E+08         0.00000E+00
    0.00000E+00         0.00000E+00        -0.58639E+08
 
   -0.55577E+08         0.23075E+06         0.00000E+00
    0.23075E+06        -0.60191E+08         0.00000E+00
    0.00000E+00         0.00000E+00        -0.58763E+08
 
   -0.56037E+08         0.23744E+06         0.00000E+00
    0.23744E+06        -0.60299E+08         0.00000E+00
    0.00000E+00         0.00000E+00        -0.58874E+08
 
   -0.56437E+08         0.27318E+06         0.00000E+00
    0.27318E+06        -0.60417E+08         0.00000E+00
    0.00000E+00         0.00000E+00        -0.58975E+08
 
   -0.56790E+08         0.35373E+06         0.00000E+00
    0.35373E+06        -0.60537E+08         0.00000E+00
    0.00000E+00         0.00000E+00        -0.59067E+08
 
   -0.57111E+08         0.48694E+06         0.00000E+00
    0.48694E+06        -0.60648E+08         0.00000E+00
    0.00000E+00         0.00000E+00        -0.59149E+08
 
   -0.57414E+08         0.67348E+06         0.00000E+00
    0.67348E+06        -0.60742E+08         0.00000E+00
    0.00000E+00         0.00000E+00        -0.59225E+08
 
   -0.57713E+08         0.90754E+06         0.00000E+00
    0.90754E+06        -0.60809E+08         0.00000E+00
    0.00000E+00         0.00000E+00        -0.59295E+08
 
   -0.58019E+08         0.11773E+07         0.00000E+00
    0.11773E+07        -0.60841E+08         0.00000E+00
    0.00000E+00         0.00000E+00        -0.59359E+08
 
   -0.58340E+08         0.14656E+07         0.00000E+00
    0.14656E+07        -0.60833E+08         0.00000E+00
    0.00000E+00         0.00000E+00        -0.59419E+08
 
   -0.58680E+08         0.17500E+07         0.00000E+00
    0.17500E+07        -0.60782E+08         0.00000E+00
    0.00000E+00         0.00000E+00        -0.59475E+08
 
   -0.59038E+08         0.20041E+07         0.00000E+00
    0.20041E+07        -0.60688E+08         0.00000E+00
    0.00000E+00         0.00000E+00        -0.59527E+08
 
   -0.59409E+08         0.21987E+07         0.00000E+00
    0.21987E+07        -0.60555E+08         0.00000E+00
    0.00000E+00         0.00000E+00        -0.59574E+08
 
   -0.53590E+08         0.71911E+05         0.00000E+00
    0.71911E+05        -0.60013E+08         0.00000E+00
    0.00000E+00         0.00000E+00        -0.58149E+08
 
   -0.54388E+08         0.13321E+06         0.00000E+00
    0.13321E+06        -0.60068E+08         0.00000E+00
    0.00000E+00         0.00000E+00        -0.58319E+08
 
   -0.55048E+08         0.12814E+06         0.00000E+00
    0.12814E+06        -0.60171E+08         0.00000E+00
    0.00000E+00         0.00000E+00        -0.58471E+08
 
   -0.55588E+08         0.10212E+06         0.00000E+00
    0.10212E+06        -0.60313E+08         0.00000E+00
    0.00000E+00         0.00000E+00        -0.58605E+08
 
   -0.56025E+08         0.90568E+05         0.00000E+00
    0.90568E+05        -0.60482E+08         0.00000E+00
    0.00000E+00         0.00000E+00        -0.58723E+08
 
   -0.56381E+08         0.11902E+06         0.00000E+00
    0.11902E+06        -0.60667E+08         0.00000E+00
    0.00000E+00         0.00000E+00        -0.58827E+08
 
   -0.56679E+08         0.20374E+06         0.00000E+00
    0.20374E+06        -0.60852E+08         0.00000E+00
    0.00000E+00         0.00000E+00        -0.58919E+08
 
   -0.56940E+08         0.35249E+06         0.00000E+00
    0.35249E+06        -0.61027E+08         0.00000E+00
    0.00000E+00         0.00000E+00        -0.59000E+08
 
   -0.57187E+08         0.56530E+06         0.00000E+00
    0.56530E+06        -0.61177E+08         0.00000E+00
    0.00000E+00         0.00000E+00        -0.59074E+08
 
   -0.57440E+08         0.83523E+06         0.00000E+00
    0.83523E+06        -0.61293E+08         0.00000E+00
    0.00000E+00         0.00000E+00        -0.59142E+08
 
   -0.57714E+08         0.11488E+07         0.00000E+00
    0.11488E+07        -0.61362E+08         0.00000E+00
    0.00000E+00         0.00000E+00        -0.59206E+08
 
   -0.58025E+08         0.14864E+07         0.00000E+00
    0.14864E+07        -0.61378E+08         0.00000E+00
    0.00000E+00         0.00000E+00        -0.59268E+08
 
   -0.58381E+08         0.18230E+07         0.00000E+00
    0.18230E+07        -0.61335E+08         0.00000E+00
    0.00000E+00         0.00000E+00        -0.59327E+08
 
   -0.58786E+08         0.21285E+07         0.00000E+00
    0.21285E+07        -0.61231E+08         0.00000E+00
    0.00000E+00         0.00000E+00        -0.59386E+08
 
   -0.59235E+08         0.23693E+07         0.00000E+00
    0.23693E+07        -0.61068E+08         0.00000E+00
    0.00000E+00         0.00000E+00        -0.59442E+08
 
   -0.53509E+08         0.37305E+05         0.00000E+00
    0.37305E+05        -0.60019E+08         0.00000E+00
    0.00000E+00         0.00000E+00        -0.57921E+08
 
   -0.54395E+08         0.35523E+05         0.00000E+00
    0.35523E+05        -0.60097E+08         0.00000E+00
    0.00000E+00         0.00000E+00        -0.58113E+08
 
   -0.55092E+08        -0.21756E+05         0.00000E+00
   -0.21756E+05        -0.60243E+08         0.00000E+00
    0.00000E+00         0.00000E+00        -0.58280E+08
 
   -0.55626E+08        -0.86758E+05         0.00000E+00
   -0.86758E+05        -0.60441E+08         0.00000E+00
    0.00000E+00         0.00000E+00        -0.58423E+08
 
   -0.56027E+08        -0.12268E+06         0.00000E+00
   -0.12268E+06        -0.60675E+08         0.00000E+00
    0.00000E+00         0.00000E+00        -0.58545E+08
 
   -0.56327E+08        -0.10344E+06         0.00000E+00
   -0.10344E+06        -0.60928E+08         0.00000E+00
    0.00000E+00         0.00000E+00        -0.58648E+08
 
   -0.56556E+08        -0.12888E+05         0.00000E+00
   -0.12888E+05        -0.61183E+08         0.00000E+00
    0.00000E+00         0.00000E+00        -0.58736E+08
 
   -0.56746E+08         0.15610E+06         0.00000E+00
    0.15610E+06        -0.61422E+08         0.00000E+00
    0.00000E+00         0.00000E+00        -0.58813E+08
 
   -0.56925E+08         0.40260E+06         0.00000E+00
    0.40260E+06        -0.61632E+08         0.00000E+00
    0.00000E+00         0.00000E+00        -0.58882E+08
 
   -0.57121E+08         0.71836E+06         0.00000E+00
    0.71836E+06        -0.61798E+08         0.00000E+00
    0.00000E+00         0.00000E+00        -0.58946E+08
 
   -0.57356E+08         0.10883E+07         0.00000E+00
    0.10883E+07        -0.61906E+08         0.00000E+00
    0.00000E+00         0.00000E+00        -0.59007E+08
 
   -0.57651E+08         0.14906E+07         0.00000E+00
    0.14906E+07        -0.61947E+08         0.00000E+00
    0.00000E+00         0.00000E+00        -0.59069E+08
 
   -0.58021E+08         0.18971E+07         0.00000E+00
    0.18971E+07        -0.61912E+08         0.00000E+00
    0.00000E+00         0.00000E+00        -0.59131E+08
 
   -0.58474E+08         0.22738E+07         0.00000E+00
    0.22738E+07        -0.61797E+08         0.00000E+00
    0.00000E+00         0.00000E+00        -0.59196E+08
 
   -0.59009E+08         0.25818E+07         0.00000E+00
    0.25818E+07        -0.61600E+08         0.00000E+00
    0.00000E+00         0.00000E+00        -0.59263E+08
 
   -0.53507E+08        -0.10311E+05         0.00000E+00
   -0.10311E+05        -0.60025E+08         0.00000E+00
    0.00000E+00         0.00000E+00        -0.57669E+08
 
   -0.54469E+08        -0.97264E+05         0.00000E+00
   -0.97264E+05        -0.60128E+08         0.00000E+00
    0.00000E+00         0.00000E+00        -0.57881E+08
 
   -0.55188E+08        -0.22328E+06         0.00000E+00
   -0.22328E+06        -0.60318E+08         0.00000E+00
    0.00000E+00         0.00000E+00        -0.58059E+08
 
   -0.55700E+08        -0.33829E+06         0.00000E+00
   -0.33829E+06        -0.60575E+08         0.00000E+00
    0.00000E+00         0.00000E+00        -0.58206E+08
 
   -0.56049E+08        -0.40451E+06         0.00000E+00
   -0.40451E+06        -0.60875E+08         0.00000E+00
    0.00000E+00         0.00000E+00        -0.58327E+08
 
   -0.56274E+08        -0.39603E+06         0.00000E+00
   -0.39603E+06        -0.61198E+08         0.00000E+00
    0.00000E+00         0.00000E+00        -0.58425E+08
 
   -0.56418E+08        -0.29761E+06         0.00000E+00
   -0.29761E+06        -0.61522E+08         0.00000E+00
    0.00000E+00         0.00000E+00        -0.58505E+08
 
   -0.56521E+08        -0.10343E+06         0.00000E+00
   -0.10343E+06        -0.61827E+08         0.00000E+00
    0.00000E+00         0.00000E+00        -0.58573E+08
 
   -0.56618E+08         0.18424E+06         0.00000E+00
    0.18424E+06        -0.62096E+08         0.00000E+00
    0.00000E+00         0.00000E+00        -0.58632E+08
 
   -0.56744E+08         0.55581E+06         0.00000E+00
    0.55581E+06        -0.62312E+08         0.00000E+00
    0.00000E+00         0.00000E+00        -0.58688E+08
 
   -0.56930E+08         0.99471E+06         0.00000E+00
    0.99471E+06        -0.62460E+08         0.00000E+00
    0.00000E+00         0.00000E+00        -0.58743E+08
 
   -0.57201E+08         0.14773E+07         0.00000E+00
    0.14773E+07        -0.62527E+08         0.00000E+00
    0.00000E+00         0.00000E+00        -0.58802E+08
 
   -0.57580E+08         0.19726E+07         0.00000E+00
    0.19726E+07        -0.62500E+08         0.00000E+00
    0.00000E+00         0.00000E+00        -0.58866E+08
 
   -0.58081E+08         0.24422E+07         0.00000E+00
    0.24422E+07        -0.62372E+08         0.00000E+00
    0.00000E+00         0.00000E+00        -0.58936E+08
 
   -0.58708E+08         0.28410E+07         0.00000E+00
    0.28410E+07        -0.62139E+08         0.00000E+00
    0.00000E+00         0.00000E+00        -0.59013E+08
 
   -0.53610E+08        -0.71659E+05         0.00000E+00
   -0.71659E+05        -0.60031E+08         0.00000E+00
    0.00000E+00         0.00000E+00        -0.57386E+08
 
   -0.54631E+08        -0.26677E+06         0.00000E+00
   -0.26677E+06        -0.60160E+08         0.00000E+00
    0.00000E+00         0.00000E+00        -0.57613E+08
 
   -0.55350E+08        -0.47824E+06         0.00000E+00
   -0.47824E+06        -0.60396E+08         0.00000E+00
    0.00000E+00         0.00000E+00        -0.57797E+08
 
   -0.55819E+08        -0.65379E+06         0.00000E+00
   -0.65379E+06        -0.60712E+08         0.00000E+00
    0.00000E+00         0.00000E+00        -0.57944E+08
 
   -0.56092E+08        -0.75538E+06         0.00000E+00
   -0.75538E+06        -0.61079E+08         0.00000E+00
    0.00000E+00         0.00000E+00        -0.58057E+08
 
   -0.56222E+08        -0.75826E+06         0.00000E+00
   -0.75826E+06        -0.61470E+08         0.00000E+00
    0.00000E+00         0.00000E+00        -0.58143E+08
 
   -0.56262E+08        -0.64925E+06         0.00000E+00
   -0.64925E+06        -0.61861E+08         0.00000E+00
    0.00000E+00         0.00000E+00        -0.58209E+08
 
   -0.56260E+08        -0.42467E+06         0.00000E+00
   -0.42467E+06        -0.62229E+08         0.00000E+00
    0.00000E+00         0.00000E+00        -0.58261E+08
 
   -0.56259E+08        -0.88594E+05         0.00000E+00
   -0.88594E+05        -0.62554E+08         0.00000E+00
    0.00000E+00         0.00000E+00        -0.58305E+08
 
   -0.56300E+08         0.34811E+06         0.00000E+00
    0.34811E+06        -0.62818E+08         0.00000E+00
    0.00000E+00         0.00000E+00        -0.58346E+08
 
   -0.56422E+08         0.86793E+06         0.00000E+00
    0.86793E+06        -0.63005E+08         0.00000E+00
    0.00000E+00         0.00000E+00        -0.58391E+08
 
   -0.56657E+08         0.14461E+07         0.00000E+00
    0.14461E+07        -0.63098E+08         0.00000E+00
    0.00000E+00         0.00000E+00        -0.58443E+08
 
   -0.57036E+08         0.20493E+07         0.00000E+00
    0.20493E+07        -0.63080E+08         0.00000E+00
    0.00000E+00         0.00000E+00        -0.58505E+08
 
   -0.57582E+08         0.26351E+07         0.00000E+00
    0.26351E+07        -0.62939E+08         0.00000E+00
    0.00000E+00         0.00000E+00        -0.58580E+08
 
   -0.58307E+08         0.31513E+07         0.00000E+00
    0.31513E+07        -0.62667E+08         0.00000E+00
    0.00000E+00         0.00000E+00        -0.58668E+08
 
   -0.53845E+08        -0.14744E+06         0.00000E+00
   -0.14744E+06        -0.60038E+08         0.00000E+00
    0.00000E+00         0.00000E+00        -0.57064E+08
 
   -0.54900E+08        -0.47441E+06         0.00000E+00
   -0.47441E+06        -0.60194E+08         0.00000E+00
    0.00000E+00         0.00000E+00        -0.57301E+08
 
   -0.55592E+08        -0.78771E+06         0.00000E+00
   -0.78771E+06        -0.60477E+08         0.00000E+00
    0.00000E+00         0.00000E+00        -0.57485E+08
 
   -0.55988E+08        -0.10331E+07         0.00000E+00
   -0.10331E+07        -0.60852E+08         0.00000E+00
    0.00000E+00         0.00000E+00        -0.57622E+08
 
   -0.56158E+08        -0.11733E+07         0.00000E+00
   -0.11733E+07        -0.61283E+08         0.00000E+00
    0.00000E+00         0.00000E+00        -0.57720E+08
 
   -0.56169E+08        -0.11865E+07         0.00000E+00
   -0.11865E+07        -0.61738E+08         0.00000E+00
    0.00000E+00         0.00000E+00        -0.57785E+08
 
   -0.56083E+08        -0.10629E+07         0.00000E+00
   -0.10629E+07        -0.62189E+08         0.00000E+00
    0.00000E+00         0.00000E+00        -0.57827E+08
 
   -0.55956E+08        -0.80249E+06         0.00000E+00
   -0.80249E+06        -0.62612E+08         0.00000E+00
    0.00000E+00         0.00000E+00        -0.57855E+08
 
   -0.55839E+08        -0.41153E+06         0.00000E+00
   -0.41153E+06        -0.62986E+08         0.00000E+00
    0.00000E+00         0.00000E+00        -0.57875E+08
 
   -0.55779E+08         0.98107E+05         0.00000E+00
    0.98107E+05        -0.63294E+08         0.00000E+00
    0.00000E+00         0.00000E+00        -0.57896E+08
 
   -0.55819E+08         0.70893E+06         0.00000E+00
    0.70893E+06        -0.63516E+08         0.00000E+00
    0.00000E+00         0.00000E+00        -0.57923E+08
 
   -0.56003E+08         0.13963E+07         0.00000E+00
    0.13963E+07        -0.63634E+08         0.00000E+00
    0.00000E+00         0.00000E+00        -0.57963E+08
 
   -0.56369E+08         0.21262E+07         0.00000E+00
    0.21262E+07        -0.63626E+08         0.00000E+00
    0.00000E+00         0.00000E+00        -0.58020E+08
 
   -0.56952E+08         0.28527E+07         0.00000E+00
    0.28527E+07        -0.63473E+08         0.00000E+00
    0.00000E+00         0.00000E+00        -0.58096E+08
 
   -0.57775E+08         0.35166E+07         0.00000E+00
    0.35166E+07        -0.63162E+08         0.00000E+00
    0.00000E+00         0.00000E+00        -0.58194E+08
 
   -0.54239E+08        -0.23834E+06         0.00000E+00
   -0.23834E+06        -0.60045E+08         0.00000E+00
    0.00000E+00         0.00000E+00        -0.56695E+08
 
   -0.55296E+08        -0.72136E+06         0.00000E+00
   -0.72136E+06        -0.60229E+08         0.00000E+00
    0.00000E+00         0.00000E+00        -0.56935E+08
 
   -0.55925E+08        -0.11518E+07         0.00000E+00
   -0.11518E+07        -0.60560E+08         0.00000E+00
    0.00000E+00         0.00000E+00        -0.57109E+08
 
   -0.56213E+08        -0.14739E+07         0.00000E+00
   -0.14739E+07        -0.60991E+08         0.00000E+00
    0.00000E+00         0.00000E+00        -0.57226E+08
 
   -0.56248E+08        -0.16530E+07         0.00000E+00
   -0.16530E+07        -0.61481E+08         0.00000E+00
    0.00000E+00         0.00000E+00        -0.57296E+08
 
   -0.56111E+08        -0.16724E+07         0.00000E+00
   -0.16724E+07        -0.61991E+08         0.00000E+00
    0.00000E+00         0.00000E+00        -0.57329E+08
 
   -0.55875E+08        -0.15287E+07         0.00000E+00
   -0.15287E+07        -0.62489E+08         0.00000E+00
    0.00000E+00         0.00000E+00        -0.57337E+08
 
   -0.55603E+08        -0.12267E+07         0.00000E+00
   -0.12267E+07        -0.62954E+08         0.00000E+00
    0.00000E+00         0.00000E+00        -0.57329E+08
 
   -0.55352E+08        -0.77574E+06         0.00000E+00
   -0.77574E+06        -0.63365E+08         0.00000E+00
    0.00000E+00         0.00000E+00        -0.57316E+08
 
   -0.55172E+08        -0.18813E+06         0.00000E+00
   -0.18813E+06        -0.63706E+08         0.00000E+00
    0.00000E+00         0.00000E+00        -0.57306E+08
 
   -0.55112E+08         0.52031E+06         0.00000E+00
    0.52031E+06        -0.63958E+08         0.00000E+00
    0.00000E+00         0.00000E+00        -0.57308E+08
 
   -0.55224E+08         0.13275E+07         0.00000E+00
    0.13275E+07        -0.64099E+08         0.00000E+00
    0.00000E+00         0.00000E+00        -0.57329E+08
 
   -0.55557E+08         0.22010E+07         0.00000E+00
    0.22010E+07        -0.64103E+08         0.00000E+00
    0.00000E+00         0.00000E+00        -0.57374E+08
 
   -0.56162E+08         0.30935E+07         0.00000E+00
    0.30935E+07        -0.63943E+08         0.00000E+00
    0.00000E+00         0.00000E+00        -0.57449E+08
 
   -0.57078E+08         0.39389E+07         0.00000E+00
    0.39389E+07        -0.63592E+08         0.00000E+00
    0.00000E+00         0.00000E+00        -0.57556E+08
 
   -0.54822E+08        -0.34518E+06         0.00000E+00
   -0.34518E+06        -0.60053E+08         0.00000E+00
    0.00000E+00         0.00000E+00        -0.56268E+08
 
   -0.55838E+08        -0.10086E+07         0.00000E+00
   -0.10086E+07        -0.60266E+08         0.00000E+00
    0.00000E+00         0.00000E+00        -0.56501E+08
 
   -0.56359E+08        -0.15694E+07         0.00000E+00
   -0.15694E+07        -0.60643E+08         0.00000E+00
    0.00000E+00         0.00000E+00        -0.56653E+08
 
   -0.56495E+08        -0.19710E+07         0.00000E+00
   -0.19710E+07        -0.61128E+08         0.00000E+00
    0.00000E+00         0.00000E+00        -0.56736E+08
 
   -0.56356E+08        -0.21842E+07         0.00000E+00
   -0.21842E+07        -0.61666E+08         0.00000E+00
    0.00000E+00         0.00000E+00        -0.56763E+08
 
   -0.56040E+08        -0.22016E+07         0.00000E+00
   -0.22016E+07        -0.62214E+08         0.00000E+00
    0.00000E+00         0.00000E+00        -0.56749E+08
 
   -0.55632E+08        -0.20294E+07         0.00000E+00
   -0.20294E+07        -0.62740E+08         0.00000E+00
    0.00000E+00         0.00000E+00        -0.56708E+08
 
   -0.55198E+08        -0.16800E+07         0.00000E+00
   -0.16800E+07        -0.63225E+08         0.00000E+00
    0.00000E+00         0.00000E+00        -0.56652E+08
 
   -0.54796E+08        -0.11664E+07         0.00000E+00
   -0.11664E+07        -0.63653E+08         0.00000E+00
    0.00000E+00         0.00000E+00        -0.56594E+08
 
   -0.54478E+08        -0.50022E+06         0.00000E+00
   -0.50022E+06        -0.64011E+08         0.00000E+00
    0.00000E+00         0.00000E+00        -0.56543E+08
 
   -0.54295E+08         0.30686E+06         0.00000E+00
    0.30686E+06        -0.64283E+08         0.00000E+00
    0.00000E+00         0.00000E+00        -0.56509E+08
 
   -0.54308E+08         0.12389E+07         0.00000E+00
    0.12389E+07        -0.64445E+08         0.00000E+00
    0.00000E+00         0.00000E+00        -0.56501E+08
 
   -0.54581E+08         0.22691E+07         0.00000E+00
    0.22691E+07        -0.64465E+08         0.00000E+00
    0.00000E+00         0.00000E+00        -0.56527E+08
 
   -0.55181E+08         0.33520E+07         0.00000E+00
    0.33520E+07        -0.64303E+08         0.00000E+00
    0.00000E+00         0.00000E+00        -0.56594E+08
 
   -0.56173E+08         0.44169E+07         0.00000E+00
    0.44169E+07        -0.63920E+08         0.00000E+00
    0.00000E+00         0.00000E+00        -0.56706E+08
 
   -0.55623E+08        -0.46905E+06         0.00000E+00
   -0.46905E+06        -0.60061E+08         0.00000E+00
    0.00000E+00         0.00000E+00        -0.55769E+08
 
   -0.56546E+08        -0.13374E+07         0.00000E+00
   -0.13374E+07        -0.60305E+08         0.00000E+00
    0.00000E+00         0.00000E+00        -0.55981E+08
 
   -0.56900E+08        -0.20379E+07         0.00000E+00
   -0.20379E+07        -0.60728E+08         0.00000E+00
    0.00000E+00         0.00000E+00        -0.56094E+08
 
   -0.56829E+08        -0.25149E+07         0.00000E+00
   -0.25149E+07        -0.61257E+08         0.00000E+00
    0.00000E+00         0.00000E+00        -0.56124E+08
 
   -0.56472E+08        -0.27497E+07         0.00000E+00
   -0.27497E+07        -0.61827E+08         0.00000E+00
    0.00000E+00         0.00000E+00        -0.56090E+08
 
   -0.55947E+08        -0.27505E+07         0.00000E+00
   -0.27505E+07        -0.62388E+08         0.00000E+00
    0.00000E+00         0.00000E+00        -0.56011E+08
 
   -0.55346E+08        -0.25385E+07         0.00000E+00
   -0.25385E+07        -0.62911E+08         0.00000E+00
    0.00000E+00         0.00000E+00        -0.55905E+08
 
   -0.54736E+08        -0.21362E+07         0.00000E+00
   -0.21362E+07        -0.63383E+08         0.00000E+00
    0.00000E+00         0.00000E+00        -0.55786E+08
 
   -0.54171E+08        -0.15609E+07         0.00000E+00
   -0.15609E+07        -0.63798E+08         0.00000E+00
    0.00000E+00         0.00000E+00        -0.55668E+08
 
   -0.53698E+08        -0.82213E+06         0.00000E+00
   -0.82213E+06        -0.64151E+08         0.00000E+00
    0.00000E+00         0.00000E+00        -0.55563E+08
 
   -0.53371E+08         0.76157E+05         0.00000E+00
    0.76157E+05        -0.64429E+08         0.00000E+00
    0.00000E+00         0.00000E+00        -0.55480E+08
 
   -0.53252E+08         0.11293E+07         0.00000E+00
    0.11293E+07        -0.64608E+08         0.00000E+00
    0.00000E+00         0.00000E+00        -0.55432E+08
 
   -0.53423E+08         0.23224E+07         0.00000E+00
    0.23224E+07        -0.64649E+08         0.00000E+00
    0.00000E+00         0.00000E+00        -0.55429E+08
 
   -0.53979E+08         0.36179E+07         0.00000E+00
    0.36179E+07        -0.64499E+08         0.00000E+00
    0.00000E+00         0.00000E+00        -0.55480E+08
 
   -0.55014E+08         0.49435E+07         0.00000E+00
    0.49435E+07        -0.64096E+08         0.00000E+00
    0.00000E+00         0.00000E+00        -0.55591E+08
 
   -0.56675E+08        -0.61182E+06         0.00000E+00
   -0.61182E+06        -0.60070E+08         0.00000E+00
    0.00000E+00         0.00000E+00        -0.55181E+08
 
   -0.57433E+08        -0.17093E+07         0.00000E+00
   -0.17093E+07        -0.60347E+08         0.00000E+00
    0.00000E+00         0.00000E+00        -0.55355E+08
 
   -0.57543E+08        -0.25523E+07         0.00000E+00
   -0.25523E+07        -0.60815E+08         0.00000E+00
    0.00000E+00         0.00000E+00        -0.55406E+08
 
   -0.57199E+08        -0.30896E+07         0.00000E+00
   -0.30896E+07        -0.61375E+08         0.00000E+00
    0.00000E+00         0.00000E+00        -0.55358E+08
 
   -0.56577E+08        -0.33222E+07         0.00000E+00
   -0.33222E+07        -0.61948E+08         0.00000E+00
    0.00000E+00         0.00000E+00        -0.55238E+08
 
   -0.55815E+08        -0.32837E+07         0.00000E+00
   -0.32837E+07        -0.62483E+08         0.00000E+00
    0.00000E+00         0.00000E+00        -0.55072E+08
 
   -0.55008E+08        -0.30167E+07         0.00000E+00
   -0.30167E+07        -0.62959E+08         0.00000E+00
    0.00000E+00         0.00000E+00        -0.54881E+08
 
   -0.54218E+08        -0.25574E+07         0.00000E+00
   -0.25574E+07        -0.63373E+08         0.00000E+00
    0.00000E+00         0.00000E+00        -0.54682E+08
 
   -0.53485E+08        -0.19271E+07         0.00000E+00
   -0.19271E+07        -0.63735E+08         0.00000E+00
    0.00000E+00         0.00000E+00        -0.54490E+08
 
   -0.52847E+08        -0.11309E+07         0.00000E+00
   -0.11309E+07        -0.64049E+08         0.00000E+00
    0.00000E+00         0.00000E+00        -0.54315E+08
 
   -0.52350E+08        -0.16063E+06         0.00000E+00
   -0.16063E+06        -0.64312E+08         0.00000E+00
    0.00000E+00         0.00000E+00        -0.54171E+08
 
   -0.52061E+08         0.99709E+06         0.00000E+00
    0.99709E+06        -0.64503E+08         0.00000E+00
    0.00000E+00         0.00000E+00        -0.54068E+08
 
   -0.52076E+08         0.23481E+07         0.00000E+00
    0.23481E+07        -0.64575E+08         0.00000E+00
    0.00000E+00         0.00000E+00        -0.54021E+08
 
   -0.52523E+08         0.38722E+07         0.00000E+00
    0.38722E+07        -0.64456E+08         0.00000E+00
    0.00000E+00         0.00000E+00        -0.54042E+08
 
   -0.53545E+08         0.55027E+07         0.00000E+00
    0.55027E+07        -0.64057E+08         0.00000E+00
    0.00000E+00         0.00000E+00        -0.54145E+08
 
   -0.58014E+08        -0.77674E+06         0.00000E+00
   -0.77674E+06        -0.60082E+08         0.00000E+00
    0.00000E+00         0.00000E+00        -0.54478E+08
 
   -0.58511E+08        -0.21269E+07         0.00000E+00
   -0.21269E+07        -0.60396E+08         0.00000E+00
    0.00000E+00         0.00000E+00        -0.54589E+08
 
   -0.58276E+08        -0.31036E+07         0.00000E+00
   -0.31036E+07        -0.60903E+08         0.00000E+00
    0.00000E+00         0.00000E+00        -0.54547E+08
 
   -0.57577E+08        -0.36684E+07         0.00000E+00
   -0.36684E+07        -0.61472E+08         0.00000E+00
    0.00000E+00         0.00000E+00        -0.54387E+08
 
   -0.56639E+08        -0.38591E+07         0.00000E+00
   -0.38591E+07        -0.62004E+08         0.00000E+00
    0.00000E+00         0.00000E+00        -0.54151E+08
 
   -0.55620E+08        -0.37489E+07         0.00000E+00
   -0.37489E+07        -0.62456E+08         0.00000E+00
    0.00000E+00         0.00000E+00        -0.53871E+08
 
   -0.54608E+08        -0.34099E+07         0.00000E+00
   -0.34099E+07        -0.62821E+08         0.00000E+00
    0.00000E+00         0.00000E+00        -0.53575E+08
 
   -0.53646E+08        -0.28931E+07         0.00000E+00
   -0.28931E+07        -0.63118E+08         0.00000E+00
    0.00000E+00         0.00000E+00        -0.53279E+08
 
   -0.52754E+08        -0.22224E+07         0.00000E+00
   -0.22224E+07        -0.63373E+08         0.00000E+00
    0.00000E+00         0.00000E+00        -0.52998E+08
 
   -0.51949E+08        -0.13955E+07         0.00000E+00
   -0.13955E+07        -0.63607E+08         0.00000E+00
    0.00000E+00         0.00000E+00        -0.52741E+08
 
   -0.51261E+08        -0.38768E+06         0.00000E+00
   -0.38768E+06        -0.63829E+08         0.00000E+00
    0.00000E+00         0.00000E+00        -0.52518E+08
 
   -0.50755E+08         0.84012E+06         0.00000E+00
    0.84012E+06        -0.64023E+08         0.00000E+00
    0.00000E+00         0.00000E+00        -0.52344E+08
 
   -0.50542E+08         0.23267E+07         0.00000E+00
    0.23267E+07        -0.64138E+08         0.00000E+00
    0.00000E+00         0.00000E+00        -0.52234E+08
 
   -0.50789E+08         0.40846E+07         0.00000E+00
    0.40846E+07        -0.64082E+08         0.00000E+00
    0.00000E+00         0.00000E+00        -0.52209E+08
 
   -0.51704E+08         0.60654E+07         0.00000E+00
    0.60654E+07        -0.63725E+08         0.00000E+00
    0.00000E+00         0.00000E+00        -0.52288E+08
 
   -0.59681E+08        -0.96984E+06         0.00000E+00
   -0.96984E+06        -0.60098E+08         0.00000E+00
    0.00000E+00         0.00000E+00        -0.53629E+08
 
   -0.59780E+08        -0.25941E+07         0.00000E+00
   -0.25941E+07        -0.60456E+08         0.00000E+00
    0.00000E+00         0.00000E+00        -0.53641E+08
 
   -0.59063E+08        -0.36741E+07         0.00000E+00
   -0.36741E+07        -0.60993E+08         0.00000E+00
    0.00000E+00         0.00000E+00        -0.53457E+08
 
   -0.57911E+08        -0.42054E+07         0.00000E+00
   -0.42054E+07        -0.61525E+08         0.00000E+00
    0.00000E+00         0.00000E+00        -0.53140E+08
 
   -0.56615E+08        -0.42939E+07         0.00000E+00
   -0.42939E+07        -0.61945E+08         0.00000E+00
    0.00000E+00         0.00000E+00        -0.52748E+08
 
   -0.55337E+08        -0.40728E+07         0.00000E+00
   -0.40728E+07        -0.62228E+08         0.00000E+00
    0.00000E+00         0.00000E+00        -0.52326E+08
 
   -0.54141E+08        -0.36478E+07         0.00000E+00
   -0.36478E+07        -0.62400E+08         0.00000E+00
    0.00000E+00         0.00000E+00        -0.51904E+08
 
   -0.53035E+08        -0.30813E+07         0.00000E+00
   -0.30813E+07        -0.62508E+08         0.00000E+00
    0.00000E+00         0.00000E+00        -0.51498E+08
 
   -0.52005E+08        -0.23951E+07         0.00000E+00
   -0.23951E+07        -0.62597E+08         0.00000E+00
    0.00000E+00         0.00000E+00        -0.51115E+08
 
   -0.51041E+08        -0.15768E+07         0.00000E+00
   -0.15768E+07        -0.62703E+08         0.00000E+00
    0.00000E+00         0.00000E+00        -0.50763E+08
 
   -0.50149E+08        -0.58294E+06         0.00000E+00
   -0.58294E+06        -0.62849E+08         0.00000E+00
    0.00000E+00         0.00000E+00        -0.50447E+08
 
   -0.49378E+08         0.65760E+06         0.00000E+00
    0.65760E+06        -0.63032E+08         0.00000E+00
    0.00000E+00         0.00000E+00        -0.50182E+08
 
   -0.48844E+08         0.22314E+07         0.00000E+00
    0.22314E+07        -0.63205E+08         0.00000E+00
    0.00000E+00         0.00000E+00        -0.49986E+08
 
   -0.48756E+08         0.42077E+07         0.00000E+00
    0.42077E+07        -0.63256E+08         0.00000E+00
    0.00000E+00         0.00000E+00        -0.49889E+08
 
   -0.49417E+08         0.65813E+07         0.00000E+00
    0.65813E+07        -0.63004E+08         0.00000E+00
    0.00000E+00         0.00000E+00        -0.49923E+08
 
   -0.61727E+08        -0.12023E+07         0.00000E+00
   -0.12023E+07        -0.60121E+08         0.00000E+00
    0.00000E+00         0.00000E+00        -0.52582E+08
 
   -0.61223E+08        -0.31148E+07         0.00000E+00
   -0.31148E+07        -0.60535E+08         0.00000E+00
    0.00000E+00         0.00000E+00        -0.52437E+08
 
   -0.59830E+08        -0.42241E+07         0.00000E+00
   -0.42241E+07        -0.61073E+08         0.00000E+00
    0.00000E+00         0.00000E+00        -0.52041E+08
 
   -0.58121E+08        -0.46168E+07         0.00000E+00
   -0.46168E+07        -0.61480E+08         0.00000E+00
    0.00000E+00         0.00000E+00        -0.51501E+08
 
   -0.56450E+08        -0.45243E+07         0.00000E+00
   -0.45243E+07        -0.61666E+08         0.00000E+00
    0.00000E+00         0.00000E+00        -0.50907E+08
 
   -0.54945E+08        -0.41579E+07         0.00000E+00
   -0.41579E+07        -0.61662E+08         0.00000E+00
    0.00000E+00         0.00000E+00        -0.50316E+08
 
   -0.53612E+08        -0.36481E+07         0.00000E+00
   -0.36481E+07        -0.61547E+08         0.00000E+00
    0.00000E+00         0.00000E+00        -0.49753E+08
 
   -0.52406E+08        -0.30548E+07         0.00000E+00
   -0.30548E+07        -0.61392E+08         0.00000E+00
    0.00000E+00         0.00000E+00        -0.49227E+08
 
   -0.51276E+08        -0.23901E+07         0.00000E+00
   -0.23901E+07        -0.61256E+08         0.00000E+00
    0.00000E+00         0.00000E+00        -0.48738E+08
 
   -0.50177E+08        -0.16303E+07         0.00000E+00
   -0.16303E+07        -0.61185E+08         0.00000E+00
    0.00000E+00         0.00000E+00        -0.48284E+08
 
   -0.49080E+08        -0.71616E+06         0.00000E+00
   -0.71616E+06        -0.61214E+08         0.00000E+00
    0.00000E+00         0.00000E+00        -0.47865E+08
 
   -0.48001E+08         0.45451E+06         0.00000E+00
    0.45451E+06        -0.61363E+08         0.00000E+00
    0.00000E+00         0.00000E+00        -0.47490E+08
 
   -0.47035E+08         0.20292E+07         0.00000E+00
    0.20292E+07        -0.61604E+08         0.00000E+00
    0.00000E+00         0.00000E+00        -0.47180E+08
 
   -0.46428E+08         0.41712E+07         0.00000E+00
    0.41712E+07        -0.61821E+08         0.00000E+00
    0.00000E+00         0.00000E+00        -0.46975E+08
 
   -0.46605E+08         0.69681E+07         0.00000E+00
    0.69681E+07        -0.61769E+08         0.00000E+00
    0.00000E+00         0.00000E+00        -0.46930E+08
 
   -0.64221E+08        -0.14970E+07         0.00000E+00
   -0.14970E+07        -0.60163E+08         0.00000E+00
    0.00000E+00         0.00000E+00        -0.51257E+08
 
   -0.62773E+08        -0.36830E+07         0.00000E+00
   -0.36830E+07        -0.60640E+08         0.00000E+00
    0.00000E+00         0.00000E+00        -0.50852E+08
 
   -0.60438E+08        -0.46559E+07         0.00000E+00
   -0.46559E+07        -0.61090E+08         0.00000E+00
    0.00000E+00         0.00000E+00        -0.50125E+08
 
   -0.58096E+08        -0.47456E+07         0.00000E+00
   -0.47456E+07        -0.61184E+08         0.00000E+00
    0.00000E+00         0.00000E+00        -0.49273E+08
 
   -0.56098E+08        -0.44000E+07         0.00000E+00
   -0.44000E+07        -0.60938E+08         0.00000E+00
    0.00000E+00         0.00000E+00        -0.48429E+08
 
   -0.54447E+08        -0.38912E+07         0.00000E+00
   -0.38912E+07        -0.60509E+08         0.00000E+00
    0.00000E+00         0.00000E+00        -0.47651E+08
 
   -0.53047E+08        -0.33317E+07         0.00000E+00
   -0.33317E+07        -0.60017E+08         0.00000E+00
    0.00000E+00         0.00000E+00        -0.46945E+08
 
   -0.51799E+08        -0.27567E+07         0.00000E+00
   -0.27567E+07        -0.59544E+08         0.00000E+00
    0.00000E+00         0.00000E+00        -0.46305E+08
 
   -0.50613E+08        -0.21614E+07         0.00000E+00
   -0.21614E+07        -0.59145E+08         0.00000E+00
    0.00000E+00         0.00000E+00        -0.45717E+08
 
   -0.49414E+08        -0.15134E+07         0.00000E+00
   -0.15134E+07        -0.58862E+08         0.00000E+00
    0.00000E+00         0.00000E+00        -0.45167E+08
 
   -0.48134E+08        -0.74776E+06         0.00000E+00
   -0.74776E+06        -0.58736E+08         0.00000E+00
    0.00000E+00         0.00000E+00        -0.44644E+08
 
   -0.46728E+08         0.25158E+06         0.00000E+00
    0.25158E+06        -0.58810E+08         0.00000E+00
    0.00000E+00         0.00000E+00        -0.44145E+08
 
   -0.45224E+08         0.16910E+07         0.00000E+00
    0.16910E+07        -0.59111E+08         0.00000E+00
    0.00000E+00         0.00000E+00        -0.43690E+08
 
   -0.43850E+08         0.38757E+07         0.00000E+00
    0.38757E+07        -0.59560E+08         0.00000E+00
    0.00000E+00         0.00000E+00        -0.43329E+08
 
   -0.43182E+08         0.70896E+07         0.00000E+00
    0.70896E+07        -0.59858E+08         0.00000E+00
    0.00000E+00         0.00000E+00        -0.43151E+08
 
   -0.67253E+08        -0.19050E+07         0.00000E+00
   -0.19050E+07        -0.60236E+08         0.00000E+00
    0.00000E+00         0.00000E+00        -0.49495E+08
 
   -0.64236E+08        -0.42393E+07         0.00000E+00
   -0.42393E+07        -0.60776E+08         0.00000E+00
    0.00000E+00         0.00000E+00        -0.48623E+08
 
   -0.60642E+08        -0.46988E+07         0.00000E+00
   -0.46988E+07        -0.60830E+08         0.00000E+00
    0.00000E+00         0.00000E+00        -0.47352E+08
 
   -0.57741E+08        -0.43125E+07         0.00000E+00
   -0.43125E+07        -0.60196E+08         0.00000E+00
    0.00000E+00         0.00000E+00        -0.46083E+08
 
   -0.55579E+08        -0.37450E+07         0.00000E+00
   -0.37450E+07        -0.59281E+08         0.00000E+00
    0.00000E+00         0.00000E+00        -0.44973E+08
 
   -0.53898E+08        -0.31785E+07         0.00000E+00
   -0.31785E+07        -0.58318E+08         0.00000E+00
    0.00000E+00         0.00000E+00        -0.44021E+08
 
   -0.52508E+08        -0.26532E+07         0.00000E+00
   -0.26532E+07        -0.57416E+08         0.00000E+00
    0.00000E+00         0.00000E+00        -0.43197E+08
 
   -0.51267E+08        -0.21650E+07         0.00000E+00
   -0.21650E+07        -0.56623E+08         0.00000E+00
    0.00000E+00         0.00000E+00        -0.42471E+08
 
   -0.50066E+08        -0.16930E+07         0.00000E+00
   -0.16930E+07        -0.55969E+08         0.00000E+00
    0.00000E+00         0.00000E+00        -0.41810E+08
 
   -0.48806E+08        -0.12028E+07         0.00000E+00
   -0.12028E+07        -0.55477E+08         0.00000E+00
    0.00000E+00         0.00000E+00        -0.41188E+08
 
   -0.47384E+08        -0.63877E+06         0.00000E+00
   -0.63877E+06        -0.55180E+08         0.00000E+00
    0.00000E+00         0.00000E+00        -0.40580E+08
 
   -0.45688E+08         0.10017E+06         0.00000E+00
    0.10017E+06        -0.55135E+08         0.00000E+00
    0.00000E+00         0.00000E+00        -0.39969E+08
 
   -0.43595E+08         0.12210E+07         0.00000E+00
    0.12210E+07        -0.55428E+08         0.00000E+00
    0.00000E+00         0.00000E+00        -0.39347E+08
 
   -0.41166E+08         0.31944E+07         0.00000E+00
    0.31944E+07        -0.56157E+08         0.00000E+00
    0.00000E+00         0.00000E+00        -0.38770E+08
 
   -0.39069E+08         0.67123E+07         0.00000E+00
    0.67123E+07        -0.57026E+08         0.00000E+00
    0.00000E+00         0.00000E+00        -0.38373E+08
 
   -0.70897E+08        -0.26254E+07         0.00000E+00
   -0.26254E+07        -0.60632E+08         0.00000E+00
    0.00000E+00         0.00000E+00        -0.46924E+08
 
   -0.65026E+08        -0.42637E+07         0.00000E+00
   -0.42637E+07        -0.60686E+08         0.00000E+00
    0.00000E+00         0.00000E+00        -0.44971E+08
 
   -0.60190E+08        -0.36876E+07         0.00000E+00
   -0.36876E+07        -0.59172E+08         0.00000E+00
    0.00000E+00         0.00000E+00        -0.42824E+08
 
   -0.57162E+08        -0.30130E+07         0.00000E+00
   -0.30130E+07        -0.57381E+08         0.00000E+00
    0.00000E+00         0.00000E+00        -0.41168E+08
 
   -0.55034E+08        -0.24626E+07         0.00000E+00
   -0.24626E+07        -0.55720E+08         0.00000E+00
    0.00000E+00         0.00000E+00        -0.39870E+08
 
   -0.53418E+08        -0.20175E+07         0.00000E+00
   -0.20175E+07        -0.54275E+08         0.00000E+00
    0.00000E+00         0.00000E+00        -0.38826E+08
 
   -0.52081E+08        -0.16472E+07         0.00000E+00
   -0.16472E+07        -0.53049E+08         0.00000E+00
    0.00000E+00         0.00000E+00        -0.37959E+08
 
   -0.50873E+08        -0.13244E+07         0.00000E+00
   -0.13244E+07        -0.52030E+08         0.00000E+00
    0.00000E+00         0.00000E+00        -0.37211E+08
 
   -0.49679E+08        -0.10253E+07         0.00000E+00
   -0.10253E+07        -0.51206E+08         0.00000E+00
    0.00000E+00         0.00000E+00        -0.36539E+08
 
   -0.48390E+08        -0.72393E+06         0.00000E+00
   -0.72393E+06        -0.50576E+08         0.00000E+00
    0.00000E+00         0.00000E+00        -0.35904E+08
 
   -0.46879E+08        -0.38483E+06         0.00000E+00
   -0.38483E+06        -0.50159E+08         0.00000E+00
    0.00000E+00         0.00000E+00        -0.35271E+08
 
   -0.44976E+08         0.54898E+05         0.00000E+00
    0.54898E+05        -0.50001E+08         0.00000E+00
    0.00000E+00         0.00000E+00        -0.34605E+08
 
   -0.42422E+08         0.73062E+06         0.00000E+00
    0.73062E+06        -0.50218E+08         0.00000E+00
    0.00000E+00         0.00000E+00        -0.33869E+08
 
   -0.38750E+08         0.20311E+07         0.00000E+00
    0.20311E+07        -0.51058E+08         0.00000E+00
    0.00000E+00         0.00000E+00        -0.33021E+08
 
   -0.34277E+08         0.53825E+07         0.00000E+00
    0.53825E+07        -0.52874E+08         0.00000E+00
    0.00000E+00         0.00000E+00        -0.32281E+08
 
   -0.74439E+08        -0.27771E+07         0.00000E+00
   -0.27771E+07        -0.58351E+08         0.00000E+00
    0.00000E+00         0.00000E+00        -0.38857E+08
 
   -0.64277E+08        -0.18933E+07         0.00000E+00
   -0.18933E+07        -0.54883E+08         0.00000E+00
    0.00000E+00         0.00000E+00        -0.35586E+08
 
   -0.59626E+08        -0.12676E+07         0.00000E+00
   -0.12676E+07        -0.51932E+08         0.00000E+00
    0.00000E+00         0.00000E+00        -0.33536E+08
 
   -0.56725E+08        -0.97107E+06         0.00000E+00
   -0.97107E+06        -0.49642E+08         0.00000E+00
    0.00000E+00         0.00000E+00        -0.32132E+08
 
   -0.54699E+08        -0.77029E+06         0.00000E+00
   -0.77029E+06        -0.47824E+08         0.00000E+00
    0.00000E+00         0.00000E+00        -0.31093E+08
 
   -0.53148E+08        -0.62106E+06         0.00000E+00
   -0.62106E+06        -0.46359E+08         0.00000E+00
    0.00000E+00         0.00000E+00        -0.30282E+08
 
   -0.51853E+08        -0.50048E+06         0.00000E+00
   -0.50048E+06        -0.45171E+08         0.00000E+00
    0.00000E+00         0.00000E+00        -0.29620E+08
 
   -0.50669E+08        -0.39601E+06         0.00000E+00
   -0.39601E+06        -0.44215E+08         0.00000E+00
    0.00000E+00         0.00000E+00        -0.29053E+08
 
   -0.49482E+08        -0.29849E+06         0.00000E+00
   -0.29849E+06        -0.43466E+08         0.00000E+00
    0.00000E+00         0.00000E+00        -0.28543E+08
 
   -0.48180E+08        -0.19908E+06         0.00000E+00
   -0.19908E+06        -0.42916E+08         0.00000E+00
    0.00000E+00         0.00000E+00        -0.28059E+08
 
   -0.46627E+08        -0.86129E+05         0.00000E+00
   -0.86129E+05        -0.42578E+08         0.00000E+00
    0.00000E+00         0.00000E+00        -0.27568E+08
 
   -0.44623E+08         0.60154E+05         0.00000E+00
    0.60154E+05        -0.42498E+08         0.00000E+00
    0.00000E+00         0.00000E+00        -0.27034E+08
 
   -0.41820E+08         0.28621E+06         0.00000E+00
    0.28621E+06        -0.42784E+08         0.00000E+00
    0.00000E+00         0.00000E+00        -0.26403E+08
 
   -0.37493E+08         0.69811E+06         0.00000E+00
    0.69811E+06        -0.43714E+08         0.00000E+00
    0.00000E+00         0.00000E+00        -0.25578E+08
 
   -0.29167E+08         0.22194E+07         0.00000E+00
    0.22194E+07        -0.46275E+08         0.00000E+00
    0.00000E+00         0.00000E+00        -0.24305E+08
 
SCALARS stresss double 
LOOKUP_TABLE default
  -58440807.8063012     
  -59363459.2036628     
  -59988572.0329070     
  -60472923.0848182     
  -60872190.3208914     
  -61215520.7806189     
  -61519870.2566447     
  -61796293.0033105     
  -62052940.1044797     
  -62296905.9781530     
  -62535774.8146067     
  -62779548.2064932     
  -63044427.7712043     
  -63360838.3542595     
  -63829231.0173636     
  -58252297.2785602     
  -58856345.3831565     
  -59379574.8351202     
  -59810919.9533844     
  -60179241.8630265     
  -60502199.9872185     
  -60791777.0741844     
  -61056346.0731569     
  -61302345.3579147     
  -61535424.9825354     
  -61761417.6154765     
  -61987448.0054215     
  -62222833.1723722     
  -62483207.2639490     
  -62738617.9126553     
  -58205296.2321863     
  -58576664.7284931     
  -58958374.0550930     
  -59314165.5605136     
  -59636469.6515030     
  -59929317.0020183     
  -60197433.9778976     
  -60445130.3330937     
  -60676133.1441466     
  -60893798.0939849     
  -61101318.8145712     
  -61301611.9441724     
  -61496767.7523658     
  -61679252.4398693     
  -61830254.5298357     
  -58182981.5090698     
  -58406796.0765066     
  -58676023.7992358     
  -58955918.4987483     
  -59228765.6409669     
  -59487755.1997162     
  -59731262.2359680     
  -59959459.9689701     
  -60173145.5103292     
  -60373175.4604954     
  -60560022.0552544     
  -60733090.8872946     
  -60888566.1640778     
  -61017401.2938148     
  -61102304.7789076     
  -58159810.9313510     
  -58293983.9191550     
  -58485610.4539476     
  -58705353.8320214     
  -58934195.1049197     
  -59161164.8428693     
  -59380442.9469327     
  -59589022.6776727     
  -59785200.8658207     
  -59967668.9815152     
  -60134771.9374245     
  -60283560.8178501     
  -60408695.2653578     
  -60501115.6949180     
  -60547493.3798880     
  -58125687.9776391     
  -58211735.4578309     
  -58355603.0182192     
  -58533795.9790227     
  -58729042.1218261     
  -58929582.6136468     
  -59127797.7685002     
  -59318764.8840970     
  -59499069.3876088     
  -59665886.0536068     
  -59816202.2343010     
  -59946080.2977367     
  -60049918.8213676     
  -60119922.7709127     
  -60145966.3345266     
  -58076305.2009382     
  -58144210.7338965     
  -58264217.0132772     
  -58418088.3227748     
  -58591260.9793281     
  -58772804.0701470     
  -58954826.4703920     
  -59131654.4805440     
  -59299003.9963229     
  -59453241.5862777     
  -59590742.1487085     
  -59707329.5913796     
  -59797840.0913171     
  -59855891.7266200     
  -59874010.1155799     
  -58010181.2217418     
  -58081564.4967040     
  -58196245.9907955     
  -58340411.8034624     
  -58502339.0181082     
  -58672631.4502979     
  -58844021.6085031     
  -59010927.8629521     
  -59168918.3616477     
  -59314177.5385297     
  -59443025.3547169     
  -59551523.8895412     
  -59635213.4664807     
  -59689044.4784738     
  -59707578.4672927     
  -57927707.1290149     
  -58018038.8454578     
  -58141451.8024258     
  -58287708.1921188     
  -58447736.2719700     
  -58613932.2579254     
  -58780143.5868097     
  -58941442.7896305     
  -59093792.3644377     
  -59233678.7852249     
  -59357772.1950152     
  -59462655.9186623     
  -59544668.8791181     
  -59599906.3988092     
  -59624424.7739147     
  -57830638.3724072     
  -57950899.7091363     
  -58093457.1679892     
  -58250932.6575997     
  -58416625.5299148     
  -58584774.6555486     
  -58750601.2244466     
  -58910191.8874635     
  -59060286.1737069     
  -59198026.0084150     
  -59320715.7315475     
  -59425633.5121785     
  -59509930.5855484     
  -59570651.5877722     
  -59604903.1287602     
  -57721774.5744603     
  -57879652.9463929     
  -58048818.2714746     
  -58224220.2813928     
  -58401274.1854215     
  -58576036.7947615     
  -58745241.7268332     
  -58906222.9005359     
  -59056764.9799168     
  -59194920.5650866     
  -59318830.9072148     
  -59426582.7203694     
  -59516129.5434447     
  -59585301.4259461     
  -59631919.8854377     
  -57604744.7254738     
  -57805431.4274987     
  -58006226.6351758     
  -58204064.9813264     
  -58396299.0672719     
  -58580776.8380330     
  -58755834.9216159     
  -58920220.0552427     
  -59072960.5865986     
  -59213213.7042934     
  -59340113.9082618     
  -59452646.2096942     
  -59549564.6212127     
  -59629372.6469865     
  -59690376.9633464     
  -57483863.4736502     
  -57730524.2224612     
  -57965849.5360672     
  -58188583.4644272     
  -58397931.4491269     
  -58593541.7934486     
  -58775441.5590456     
  -58943930.9534076     
  -59099448.0737104     
  -59242419.2640080     
  -59373110.9055286     
  -59491497.5805743     
  -59597160.0256704     
  -59689224.2166361     
  -59766349.8876734     
  -57364030.5828852     
  -57658021.8654513     
  -57928803.7250827     
  -58176892.1406401     
  -58403354.7859202     
  -58609703.9598646     
  -58797768.4573104     
  -58969546.6068622     
  -59127047.0041599     
  -59272124.7056921     
  -59406320.3259094     
  -59530708.8917976     
  -59645765.1545541     
  -59751252.3452037     
  -59846141.5478611     
  -57250649.6685256     
  -57591545.2910407     
  -57896738.0055531     
  -58168589.3877655     
  -58410127.1645275     
  -58624854.2980006     
  -58816552.4182595     
  -58989084.8178959     
  -59146203.6370623     
  -59291363.1670921     
  -59427538.5139678     
  -59557047.7962312     
  -59681377.3090264     
  -59801012.4045306     
  -59915281.1915976     
  -57149546.9145925     
  -57535025.6928733     
  -57871490.6623671     
  -58163315.5920579     
  -58415671.2797648     
  -58634247.0256042     
  -58824978.0056294     
  -58993791.4832187     
  -59146377.0229049     
  -59287976.7972653     
  -59423185.2230945     
  -59555744.8542327     
  -59688328.4498743     
  -59822304.6731197     
  -59957495.0267744     
  -57066875.4742512     
  -57492506.2289742     
  -57854785.3210682     
  -58160353.5195927     
  -58416798.4218487     
  -58632269.3599136     
  -58815112.6468489     
  -58973553.6574778     
  -59115432.9374249     
  -59247984.1646686     
  -59377628.2416615     
  -59509753.4635808     
  -59648457.2947820     
  -59796239.1796485     
  -59953652.6689250     
  -57008996.4691728     
  -57467940.5927837     
  -57847927.5603101     
  -58158223.8970662     
  -58409220.1124717     
  -58611894.7906319     
  -58777326.9234514     
  -58916304.5335403     
  -59039038.7194327     
  -59154956.1935721     
  -59272519.6292238     
  -59399018.1698493     
  -59540280.3986313     
  -59700285.9211455     
  -59880684.1266884     
  -56982333.3497033     
  -57464965.1842864     
  -57851458.8380470     
  -58154217.8668506     
  -58386982.9063105     
  -58564058.8261294     
  -58699650.4438887     
  -58807387.1582236     
  -58900043.6586511     
  -58989401.1113276     
  -59086155.1039539     
  -59199767.3135107     
  -59338175.3536971     
  -59507314.4627227     
  -59710458.2799408     
  -56993203.2517866     
  -57486618.0886350     
  -57864707.6552799     
  -58143780.5161788     
  -58341729.0556753     
  -58476864.0823036     
  -58566987.0209407     
  -58628824.8907196     
  -58677819.0866091     
  -58728155.6972743     
  -58792870.0887181     
  -58883850.1653177     
  -59011592.5178553     
  -59184626.9802869     
  -59408610.3244170     
  -57047636.6487776     
  -57534964.0367421     
  -57885139.9054040     
  -58119604.4596035     
  -58261624.9040001     
  -58334465.8313593     
  -58360068.7145766     
  -58358416.1453812     
  -58347514.9773743     
  -58343774.0223299     
  -58362488.2058574     
  -58418144.9719958     
  -58524316.5467033     
  -58692987.4497633     
  -58933296.6791727     
  -57151202.8606971     
  -57610548.3867784     
  -57907329.0865533     
  -58070183.7772505     
  -58129686.9828835     
  -58115392.9761405     
  -58053955.3409349     
  -57968520.1674738     
  -57879157.7306365     
  -57803889.0133220     
  -57759835.7585847     
  -57764070.5134168     
  -57833803.7300433     
  -57985643.0816767     
  -58233833.0738248     
  -57308860.0835029     
  -57711515.0299930     
  -57921193.6893656     
  -57977361.0565731     
  -57921029.4334756     
  -57789895.6612384     
  -57615767.1714528     
  -57424314.0251737     
  -57236448.9961688     
  -57070477.7918092     
  -56944316.1157713     
  -56877233.2301670     
  -56890624.9364946     
  -57007316.8621531     
  -57249121.1627941     
  -57524821.7987472     
  -57832018.3020482     
  -57908754.8148601     
  -57811951.5352641     
  -57598169.1072596     
  -57315633.3984349     
  -57001147.8263701     
  -56681144.4507192     
  -56374979.5796234     
  -56098839.1939990     
  -55869456.9592365     
  -55707220.3002217     
  -55638040.1974203     
  -55693120.8471024     
  -55905662.7869145     
  -57802401.2334781     
  -57958983.4764904     
  -57837748.2642185     
  -57525534.7734437     
  -57102776.8570910     
  -56630565.5199763     
  -56148627.6148736     
  -55680285.1180295     
  -55239218.9930996     
  -54835732.8825954     
  -54482100.8676624     
  -54197419.1931341     
  -54011737.8222162     
  -53967275.7221548     
  -54114763.6255179     
  -58143299.8762447     
  -58064950.9312105     
  -57647818.9454853     
  -57034193.9316119     
  -56340874.7561937     
  -55641061.5635739     
  -54970481.4666673     
  -54341625.3237919     
  -53756686.9454915     
  -53215200.9048170     
  -52720031.2148385     
  -52284425.7702080     
  -51939592.2377371     
  -51741577.8304624     
  -51768060.9741244     
  -58546960.5384519     
  -58088341.1242871     
  -57217871.1580932     
  -56184423.7009848     
  -55155205.7933414     
  -54202184.4208539     
  -53336606.1467667     
  -52549542.7850473     
  -51825245.1290553     
  -51147636.4313314     
  -50504681.1470433     
  -49894409.8169441     
  -49341612.5588679     
  -48912973.3979112     
  -48730110.7769646     
  -58994675.8092053     
  -57878377.7733187     
  -56274730.7866441     
  -54672951.7669158     
  -53277790.8396178     
  -52079078.6933782     
  -51040218.6183982     
  -50120318.2490371     
  -49281687.0489146     
  -48490222.1482382     
  -47715013.8431737     
  -46930468.1399937     
  -46123627.1596666     
  -45364122.3842526     
  -44822685.0578783     
  -59484274.3655637     
  -56894373.2411493     
  -54062205.9980525     
  -51903635.2393167     
  -50208037.5682843     
  -48839378.1226591     
  -47696108.0817982     
  -46704788.4347621     
  -45808056.8110788     
  -44956632.6648949     
  -44102849.0190560     
  -43194121.8735707     
  -42169563.7568768     
  -40942978.1197644     
  -39810443.2206870     
  -57215673.8854758     
  -51582012.1145858     
  -48364735.3568404     
  -46166043.5046564     
  -44538728.5873890     
  -43263105.9630876     
  -42214615.6885273     
  -41312440.3563799     
  -40497191.4011373     
  -39718309.4549071     
  -38924381.6686963     
  -38051696.6271041     
  -37002502.1473986     
  -35594864.7023457     
  -33249094.1752673     
SCALARS 2waySource double 
LOOKUP_TABLE default
  0.000000000000000E+000
  0.000000000000000E+000
  0.000000000000000E+000
  0.000000000000000E+000
  0.000000000000000E+000
  0.000000000000000E+000
  0.000000000000000E+000
  0.000000000000000E+000
  0.000000000000000E+000
  0.000000000000000E+000
  0.000000000000000E+000
  0.000000000000000E+000
  0.000000000000000E+000
  0.000000000000000E+000
  0.000000000000000E+000
  0.000000000000000E+000
  0.000000000000000E+000
  0.000000000000000E+000
  0.000000000000000E+000
  0.000000000000000E+000
  0.000000000000000E+000
  0.000000000000000E+000
  0.000000000000000E+000
  0.000000000000000E+000
  0.000000000000000E+000
  0.000000000000000E+000
  0.000000000000000E+000
  0.000000000000000E+000
  0.000000000000000E+000
  0.000000000000000E+000
  0.000000000000000E+000
  0.000000000000000E+000
  0.000000000000000E+000
  0.000000000000000E+000
  0.000000000000000E+000
  0.000000000000000E+000
  0.000000000000000E+000
  0.000000000000000E+000
  0.000000000000000E+000
  0.000000000000000E+000
  0.000000000000000E+000
  0.000000000000000E+000
  0.000000000000000E+000
  0.000000000000000E+000
  0.000000000000000E+000
  0.000000000000000E+000
  0.000000000000000E+000
  0.000000000000000E+000
  0.000000000000000E+000
  0.000000000000000E+000
  0.000000000000000E+000
  0.000000000000000E+000
  0.000000000000000E+000
  0.000000000000000E+000
  0.000000000000000E+000
  0.000000000000000E+000
  0.000000000000000E+000
  0.000000000000000E+000
  0.000000000000000E+000
  0.000000000000000E+000
  0.000000000000000E+000
  0.000000000000000E+000
  0.000000000000000E+000
  0.000000000000000E+000
  0.000000000000000E+000
  0.000000000000000E+000
  0.000000000000000E+000
  0.000000000000000E+000
  0.000000000000000E+000
  0.000000000000000E+000
  0.000000000000000E+000
  0.000000000000000E+000
  0.000000000000000E+000
  0.000000000000000E+000
  0.000000000000000E+000
  0.000000000000000E+000
  0.000000000000000E+000
  0.000000000000000E+000
  0.000000000000000E+000
  0.000000000000000E+000
  0.000000000000000E+000
  0.000000000000000E+000
  0.000000000000000E+000
  0.000000000000000E+000
  0.000000000000000E+000
  0.000000000000000E+000
  0.000000000000000E+000
  0.000000000000000E+000
  0.000000000000000E+000
  0.000000000000000E+000
  0.000000000000000E+000
  0.000000000000000E+000
  0.000000000000000E+000
  0.000000000000000E+000
  0.000000000000000E+000
  0.000000000000000E+000
  0.000000000000000E+000
  0.000000000000000E+000
  0.000000000000000E+000
  0.000000000000000E+000
  0.000000000000000E+000
  0.000000000000000E+000
  0.000000000000000E+000
  0.000000000000000E+000
  0.000000000000000E+000
  0.000000000000000E+000
  0.000000000000000E+000
  0.000000000000000E+000
  0.000000000000000E+000
  0.000000000000000E+000
  0.000000000000000E+000
  0.000000000000000E+000
  0.000000000000000E+000
  0.000000000000000E+000
  0.000000000000000E+000
  0.000000000000000E+000
  0.000000000000000E+000
  0.000000000000000E+000
  0.000000000000000E+000
  0.000000000000000E+000
  0.000000000000000E+000
  0.000000000000000E+000
  0.000000000000000E+000
  0.000000000000000E+000
  0.000000000000000E+000
  0.000000000000000E+000
  0.000000000000000E+000
  0.000000000000000E+000
  0.000000000000000E+000
  0.000000000000000E+000
  0.000000000000000E+000
  0.000000000000000E+000
  0.000000000000000E+000
  0.000000000000000E+000
  0.000000000000000E+000
  0.000000000000000E+000
  0.000000000000000E+000
  0.000000000000000E+000
  0.000000000000000E+000
  0.000000000000000E+000
  0.000000000000000E+000
  0.000000000000000E+000
  0.000000000000000E+000
  0.000000000000000E+000
  0.000000000000000E+000
  0.000000000000000E+000
  0.000000000000000E+000
  0.000000000000000E+000
  0.000000000000000E+000
  0.000000000000000E+000
  0.000000000000000E+000
  0.000000000000000E+000
  0.000000000000000E+000
  0.000000000000000E+000
  0.000000000000000E+000
  0.000000000000000E+000
  0.000000000000000E+000
  0.000000000000000E+000
  0.000000000000000E+000
  0.000000000000000E+000
  0.000000000000000E+000
  0.000000000000000E+000
  0.000000000000000E+000
  0.000000000000000E+000
  0.000000000000000E+000
  0.000000000000000E+000
  0.000000000000000E+000
  0.000000000000000E+000
  0.000000000000000E+000
  0.000000000000000E+000
  0.000000000000000E+000
  0.000000000000000E+000
  0.000000000000000E+000
  0.000000000000000E+000
  0.000000000000000E+000
  0.000000000000000E+000
  0.000000000000000E+000
  0.000000000000000E+000
  0.000000000000000E+000
  0.000000000000000E+000
  0.000000000000000E+000
  0.000000000000000E+000
  0.000000000000000E+000
  0.000000000000000E+000
  0.000000000000000E+000
  0.000000000000000E+000
  0.000000000000000E+000
  0.000000000000000E+000
  0.000000000000000E+000
  0.000000000000000E+000
  0.000000000000000E+000
  0.000000000000000E+000
  0.000000000000000E+000
  0.000000000000000E+000
  0.000000000000000E+000
  0.000000000000000E+000
  0.000000000000000E+000
  0.000000000000000E+000
  0.000000000000000E+000
  0.000000000000000E+000
  0.000000000000000E+000
  0.000000000000000E+000
  0.000000000000000E+000
  0.000000000000000E+000
  0.000000000000000E+000
  0.000000000000000E+000
  0.000000000000000E+000
  0.000000000000000E+000
  0.000000000000000E+000
  0.000000000000000E+000
  0.000000000000000E+000
  0.000000000000000E+000
  0.000000000000000E+000
  0.000000000000000E+000
  0.000000000000000E+000
  0.000000000000000E+000
  0.000000000000000E+000
  0.000000000000000E+000
  0.000000000000000E+000
  0.000000000000000E+000
  0.000000000000000E+000
  0.000000000000000E+000
  0.000000000000000E+000
  0.000000000000000E+000
  0.000000000000000E+000
  0.000000000000000E+000
  0.000000000000000E+000
  0.000000000000000E+000
  0.000000000000000E+000
  0.000000000000000E+000
  0.000000000000000E+000
  0.000000000000000E+000
  0.000000000000000E+000
  0.000000000000000E+000
  0.000000000000000E+000
  0.000000000000000E+000
  0.000000000000000E+000
  0.000000000000000E+000
  0.000000000000000E+000
  0.000000000000000E+000
  0.000000000000000E+000
  0.000000000000000E+000
  0.000000000000000E+000
  0.000000000000000E+000
  0.000000000000000E+000
  0.000000000000000E+000
  0.000000000000000E+000
  0.000000000000000E+000
  0.000000000000000E+000
  0.000000000000000E+000
  0.000000000000000E+000
  0.000000000000000E+000
  0.000000000000000E+000
  0.000000000000000E+000
  0.000000000000000E+000
  0.000000000000000E+000
  0.000000000000000E+000
  0.000000000000000E+000
  0.000000000000000E+000
  0.000000000000000E+000
  0.000000000000000E+000
  0.000000000000000E+000
  0.000000000000000E+000
  0.000000000000000E+000
  0.000000000000000E+000
  0.000000000000000E+000
  0.000000000000000E+000
  0.000000000000000E+000
  0.000000000000000E+000
  0.000000000000000E+000
  0.000000000000000E+000
  0.000000000000000E+000
  0.000000000000000E+000
  0.000000000000000E+000
  0.000000000000000E+000
  0.000000000000000E+000
  0.000000000000000E+000
  0.000000000000000E+000
  0.000000000000000E+000
  0.000000000000000E+000
  0.000000000000000E+000
  0.000000000000000E+000
  0.000000000000000E+000
  0.000000000000000E+000
  0.000000000000000E+000
  0.000000000000000E+000
  0.000000000000000E+000
  0.000000000000000E+000
  0.000000000000000E+000
  0.000000000000000E+000
  0.000000000000000E+000
  0.000000000000000E+000
  0.000000000000000E+000
  0.000000000000000E+000
  0.000000000000000E+000
  0.000000000000000E+000
  0.000000000000000E+000
  0.000000000000000E+000
  0.000000000000000E+000
  0.000000000000000E+000
  0.000000000000000E+000
  0.000000000000000E+000
  0.000000000000000E+000
  0.000000000000000E+000
  0.000000000000000E+000
  0.000000000000000E+000
  0.000000000000000E+000
  0.000000000000000E+000
  0.000000000000000E+000
  0.000000000000000E+000
  0.000000000000000E+000
  0.000000000000000E+000
  0.000000000000000E+000
  0.000000000000000E+000
  0.000000000000000E+000
  0.000000000000000E+000
  0.000000000000000E+000
  0.000000000000000E+000
  0.000000000000000E+000
  0.000000000000000E+000
  0.000000000000000E+000
  0.000000000000000E+000
  0.000000000000000E+000
  0.000000000000000E+000
  0.000000000000000E+000
  0.000000000000000E+000
  0.000000000000000E+000
  0.000000000000000E+000
  0.000000000000000E+000
  0.000000000000000E+000
  0.000000000000000E+000
  0.000000000000000E+000
  0.000000000000000E+000
  0.000000000000000E+000
  0.000000000000000E+000
  0.000000000000000E+000
  0.000000000000000E+000
  0.000000000000000E+000
  0.000000000000000E+000
  0.000000000000000E+000
  0.000000000000000E+000
  0.000000000000000E+000
  0.000000000000000E+000
  0.000000000000000E+000
  0.000000000000000E+000
  0.000000000000000E+000
  0.000000000000000E+000
  0.000000000000000E+000
  0.000000000000000E+000
  0.000000000000000E+000
  0.000000000000000E+000
  0.000000000000000E+000
  0.000000000000000E+000
  0.000000000000000E+000
  0.000000000000000E+000
  0.000000000000000E+000
  0.000000000000000E+000
  0.000000000000000E+000
  0.000000000000000E+000
  0.000000000000000E+000
  0.000000000000000E+000
  0.000000000000000E+000
  0.000000000000000E+000
  0.000000000000000E+000
  0.000000000000000E+000
  0.000000000000000E+000
  0.000000000000000E+000
  0.000000000000000E+000
  0.000000000000000E+000
  0.000000000000000E+000
  0.000000000000000E+000
  0.000000000000000E+000
  0.000000000000000E+000
  0.000000000000000E+000
  0.000000000000000E+000
  0.000000000000000E+000
  0.000000000000000E+000
  0.000000000000000E+000
  0.000000000000000E+000
  0.000000000000000E+000
  0.000000000000000E+000
  0.000000000000000E+000
  0.000000000000000E+000
  0.000000000000000E+000
  0.000000000000000E+000
  0.000000000000000E+000
  0.000000000000000E+000
  0.000000000000000E+000
  0.000000000000000E+000
  0.000000000000000E+000
  0.000000000000000E+000
  0.000000000000000E+000
  0.000000000000000E+000
  0.000000000000000E+000
  0.000000000000000E+000
  0.000000000000000E+000
  0.000000000000000E+000
  0.000000000000000E+000
  0.000000000000000E+000
  0.000000000000000E+000
  0.000000000000000E+000
  0.000000000000000E+000
  0.000000000000000E+000
  0.000000000000000E+000
  0.000000000000000E+000
  0.000000000000000E+000
  0.000000000000000E+000
  0.000000000000000E+000
  0.000000000000000E+000
  0.000000000000000E+000
  0.000000000000000E+000
  0.000000000000000E+000
  0.000000000000000E+000
  0.000000000000000E+000
  0.000000000000000E+000
  0.000000000000000E+000
  0.000000000000000E+000
  0.000000000000000E+000
  0.000000000000000E+000
  0.000000000000000E+000
  0.000000000000000E+000
  0.000000000000000E+000
  0.000000000000000E+000
  0.000000000000000E+000
  0.000000000000000E+000
  0.000000000000000E+000
  0.000000000000000E+000
  0.000000000000000E+000
  0.000000000000000E+000
  0.000000000000000E+000
  0.000000000000000E+000
  0.000000000000000E+000
  0.000000000000000E+000
  0.000000000000000E+000
  0.000000000000000E+000
  0.000000000000000E+000
  0.000000000000000E+000
  0.000000000000000E+000
  0.000000000000000E+000
  0.000000000000000E+000
  0.000000000000000E+000
  0.000000000000000E+000
  0.000000000000000E+000
  0.000000000000000E+000
  0.000000000000000E+000
  0.000000000000000E+000
  0.000000000000000E+000
  0.000000000000000E+000
  0.000000000000000E+000
  0.000000000000000E+000
SCALARS elementIsPlast double 
LOOKUP_TABLE default
  0.000000000000000E+000
  0.000000000000000E+000
  0.000000000000000E+000
  0.000000000000000E+000
  0.000000000000000E+000
  0.000000000000000E+000
  0.000000000000000E+000
  0.000000000000000E+000
  0.000000000000000E+000
  0.000000000000000E+000
  0.000000000000000E+000
  0.000000000000000E+000
  0.000000000000000E+000
  0.000000000000000E+000
  0.000000000000000E+000
  0.000000000000000E+000
  0.000000000000000E+000
  0.000000000000000E+000
  0.000000000000000E+000
  0.000000000000000E+000
  0.000000000000000E+000
  0.000000000000000E+000
  0.000000000000000E+000
  0.000000000000000E+000
  0.000000000000000E+000
  0.000000000000000E+000
  0.000000000000000E+000
  0.000000000000000E+000
  0.000000000000000E+000
  0.000000000000000E+000
  0.000000000000000E+000
  0.000000000000000E+000
  0.000000000000000E+000
  0.000000000000000E+000
  0.000000000000000E+000
  0.000000000000000E+000
  0.000000000000000E+000
  0.000000000000000E+000
  0.000000000000000E+000
  0.000000000000000E+000
  0.000000000000000E+000
  0.000000000000000E+000
  0.000000000000000E+000
  0.000000000000000E+000
  0.000000000000000E+000
  0.000000000000000E+000
  0.000000000000000E+000
  0.000000000000000E+000
  0.000000000000000E+000
  0.000000000000000E+000
  0.000000000000000E+000
  0.000000000000000E+000
  0.000000000000000E+000
  0.000000000000000E+000
  0.000000000000000E+000
  0.000000000000000E+000
  0.000000000000000E+000
  0.000000000000000E+000
  0.000000000000000E+000
  0.000000000000000E+000
  0.000000000000000E+000
  0.000000000000000E+000
  0.000000000000000E+000
  0.000000000000000E+000
  0.000000000000000E+000
  0.000000000000000E+000
  0.000000000000000E+000
  0.000000000000000E+000
  0.000000000000000E+000
  0.000000000000000E+000
  0.000000000000000E+000
  0.000000000000000E+000
  0.000000000000000E+000
  0.000000000000000E+000
  0.000000000000000E+000
  0.000000000000000E+000
  0.000000000000000E+000
  0.000000000000000E+000
  0.000000000000000E+000
  0.000000000000000E+000
  0.000000000000000E+000
  0.000000000000000E+000
  0.000000000000000E+000
  0.000000000000000E+000
  0.000000000000000E+000
  0.000000000000000E+000
  0.000000000000000E+000
  0.000000000000000E+000
  0.000000000000000E+000
  0.000000000000000E+000
  0.000000000000000E+000
  0.000000000000000E+000
  0.000000000000000E+000
  0.000000000000000E+000
  0.000000000000000E+000
  0.000000000000000E+000
  0.000000000000000E+000
  0.000000000000000E+000
  0.000000000000000E+000
  0.000000000000000E+000
  0.000000000000000E+000
  0.000000000000000E+000
  0.000000000000000E+000
  0.000000000000000E+000
  0.000000000000000E+000
  0.000000000000000E+000
  0.000000000000000E+000
  0.000000000000000E+000
  0.000000000000000E+000
  0.000000000000000E+000
  0.000000000000000E+000
  0.000000000000000E+000
  0.000000000000000E+000
  0.000000000000000E+000
  0.000000000000000E+000
  0.000000000000000E+000
  0.000000000000000E+000
  0.000000000000000E+000
  0.000000000000000E+000
  0.000000000000000E+000
  0.000000000000000E+000
  0.000000000000000E+000
  0.000000000000000E+000
  0.000000000000000E+000
  0.000000000000000E+000
  0.000000000000000E+000
  0.000000000000000E+000
  0.000000000000000E+000
  0.000000000000000E+000
  0.000000000000000E+000
  0.000000000000000E+000
  0.000000000000000E+000
  0.000000000000000E+000
  0.000000000000000E+000
  0.000000000000000E+000
  0.000000000000000E+000
  0.000000000000000E+000
  0.000000000000000E+000
  0.000000000000000E+000
  0.000000000000000E+000
  0.000000000000000E+000
  0.000000000000000E+000
  0.000000000000000E+000
  0.000000000000000E+000
  0.000000000000000E+000
  0.000000000000000E+000
  0.000000000000000E+000
  0.000000000000000E+000
  0.000000000000000E+000
  0.000000000000000E+000
  0.000000000000000E+000
  0.000000000000000E+000
  0.000000000000000E+000
  0.000000000000000E+000
  0.000000000000000E+000
  0.000000000000000E+000
  0.000000000000000E+000
  0.000000000000000E+000
  0.000000000000000E+000
  0.000000000000000E+000
  0.000000000000000E+000
  0.000000000000000E+000
  0.000000000000000E+000
  0.000000000000000E+000
  0.000000000000000E+000
  0.000000000000000E+000
  0.000000000000000E+000
  0.000000000000000E+000
  0.000000000000000E+000
  0.000000000000000E+000
  0.000000000000000E+000
  0.000000000000000E+000
  0.000000000000000E+000
  0.000000000000000E+000
  0.000000000000000E+000
  0.000000000000000E+000
  0.000000000000000E+000
  0.000000000000000E+000
  0.000000000000000E+000
  0.000000000000000E+000
  0.000000000000000E+000
  0.000000000000000E+000
  0.000000000000000E+000
  0.000000000000000E+000
  0.000000000000000E+000
  0.000000000000000E+000
  0.000000000000000E+000
  0.000000000000000E+000
  0.000000000000000E+000
  0.000000000000000E+000
  0.000000000000000E+000
  0.000000000000000E+000
  0.000000000000000E+000
  0.000000000000000E+000
  0.000000000000000E+000
  0.000000000000000E+000
  0.000000000000000E+000
  0.000000000000000E+000
  0.000000000000000E+000
  0.000000000000000E+000
  0.000000000000000E+000
  0.000000000000000E+000
  0.000000000000000E+000
  0.000000000000000E+000
  0.000000000000000E+000
  0.000000000000000E+000
  0.000000000000000E+000
  0.000000000000000E+000
  0.000000000000000E+000
  0.000000000000000E+000
  0.000000000000000E+000
  0.000000000000000E+000
  0.000000000000000E+000
  0.000000000000000E+000
  0.000000000000000E+000
  0.000000000000000E+000
  0.000000000000000E+000
  0.000000000000000E+000
  0.000000000000000E+000
  0.000000000000000E+000
  0.000000000000000E+000
  0.000000000000000E+000
  0.000000000000000E+000
  0.000000000000000E+000
  0.000000000000000E+000
  0.000000000000000E+000
  0.000000000000000E+000
  0.000000000000000E+000
  0.000000000000000E+000
  0.000000000000000E+000
  0.000000000000000E+000
  0.000000000000000E+000
  0.000000000000000E+000
  0.000000000000000E+000
  0.000000000000000E+000
  0.000000000000000E+000
  0.000000000000000E+000
  0.000000000000000E+000
  0.000000000000000E+000
  0.000000000000000E+000
  0.000000000000000E+000
  0.000000000000000E+000
  0.000000000000000E+000
  0.000000000000000E+000
  0.000000000000000E+000
  0.000000000000000E+000
  0.000000000000000E+000
  0.000000000000000E+000
  0.000000000000000E+000
  0.000000000000000E+000
  0.000000000000000E+000
  0.000000000000000E+000
  0.000000000000000E+000
  0.000000000000000E+000
  0.000000000000000E+000
  0.000000000000000E+000
  0.000000000000000E+000
  0.000000000000000E+000
  0.000000000000000E+000
  0.000000000000000E+000
  0.000000000000000E+000
  0.000000000000000E+000
  0.000000000000000E+000
  0.000000000000000E+000
  0.000000000000000E+000
  0.000000000000000E+000
  0.000000000000000E+000
  0.000000000000000E+000
  0.000000000000000E+000
  0.000000000000000E+000
  0.000000000000000E+000
  0.000000000000000E+000
  0.000000000000000E+000
  0.000000000000000E+000
  0.000000000000000E+000
  0.000000000000000E+000
  0.000000000000000E+000
  0.000000000000000E+000
  0.000000000000000E+000
  0.000000000000000E+000
  0.000000000000000E+000
  0.000000000000000E+000
  0.000000000000000E+000
  0.000000000000000E+000
  0.000000000000000E+000
  0.000000000000000E+000
  0.000000000000000E+000
  0.000000000000000E+000
  0.000000000000000E+000
  0.000000000000000E+000
  0.000000000000000E+000
  0.000000000000000E+000
  0.000000000000000E+000
  0.000000000000000E+000
  0.000000000000000E+000
  0.000000000000000E+000
  0.000000000000000E+000
  0.000000000000000E+000
  0.000000000000000E+000
  0.000000000000000E+000
  0.000000000000000E+000
  0.000000000000000E+000
  0.000000000000000E+000
  0.000000000000000E+000
  0.000000000000000E+000
  0.000000000000000E+000
  0.000000000000000E+000
  0.000000000000000E+000
  0.000000000000000E+000
  0.000000000000000E+000
  0.000000000000000E+000
  0.000000000000000E+000
  0.000000000000000E+000
  0.000000000000000E+000
  0.000000000000000E+000
  0.000000000000000E+000
  0.000000000000000E+000
  0.000000000000000E+000
  0.000000000000000E+000
  0.000000000000000E+000
  0.000000000000000E+000
  0.000000000000000E+000
  0.000000000000000E+000
  0.000000000000000E+000
  0.000000000000000E+000
  0.000000000000000E+000
  0.000000000000000E+000
  0.000000000000000E+000
  0.000000000000000E+000
  0.000000000000000E+000
  0.000000000000000E+000
  0.000000000000000E+000
  0.000000000000000E+000
  0.000000000000000E+000
  0.000000000000000E+000
  0.000000000000000E+000
  0.000000000000000E+000
  0.000000000000000E+000
  0.000000000000000E+000
  0.000000000000000E+000
  0.000000000000000E+000
  0.000000000000000E+000
  0.000000000000000E+000
  0.000000000000000E+000
  0.000000000000000E+000
  0.000000000000000E+000
  0.000000000000000E+000
  0.000000000000000E+000
  0.000000000000000E+000
  0.000000000000000E+000
  0.000000000000000E+000
  0.000000000000000E+000
  0.000000000000000E+000
  0.000000000000000E+000
  0.000000000000000E+000
  0.000000000000000E+000
  0.000000000000000E+000
  0.000000000000000E+000
  0.000000000000000E+000
  0.000000000000000E+000
  0.000000000000000E+000
  0.000000000000000E+000
  0.000000000000000E+000
  0.000000000000000E+000
  0.000000000000000E+000
  0.000000000000000E+000
  0.000000000000000E+000
  0.000000000000000E+000
  0.000000000000000E+000
  0.000000000000000E+000
  0.000000000000000E+000
  0.000000000000000E+000
  0.000000000000000E+000
  0.000000000000000E+000
  0.000000000000000E+000
  0.000000000000000E+000
  0.000000000000000E+000
  0.000000000000000E+000
  0.000000000000000E+000
  0.000000000000000E+000
  0.000000000000000E+000
  0.000000000000000E+000
  0.000000000000000E+000
  0.000000000000000E+000
  0.000000000000000E+000
  0.000000000000000E+000
  0.000000000000000E+000
  0.000000000000000E+000
  0.000000000000000E+000
  0.000000000000000E+000
  0.000000000000000E+000
  0.000000000000000E+000
  0.000000000000000E+000
  0.000000000000000E+000
  0.000000000000000E+000
  0.000000000000000E+000
  0.000000000000000E+000
  0.000000000000000E+000
  0.000000000000000E+000
  0.000000000000000E+000
  0.000000000000000E+000
  0.000000000000000E+000
  0.000000000000000E+000
  0.000000000000000E+000
  0.000000000000000E+000
  0.000000000000000E+000
  0.000000000000000E+000
  0.000000000000000E+000
  0.000000000000000E+000
  0.000000000000000E+000
  0.000000000000000E+000
  0.000000000000000E+000
  0.000000000000000E+000
  0.000000000000000E+000
  0.000000000000000E+000
  0.000000000000000E+000
  0.000000000000000E+000
  0.000000000000000E+000
  0.000000000000000E+000
  0.000000000000000E+000
  0.000000000000000E+000
  0.000000000000000E+000
  0.000000000000000E+000
  0.000000000000000E+000
  0.000000000000000E+000
  0.000000000000000E+000
  0.000000000000000E+000
  0.000000000000000E+000
  0.000000000000000E+000
  0.000000000000000E+000
  0.000000000000000E+000
  0.000000000000000E+000
  0.000000000000000E+000
  0.000000000000000E+000
  0.000000000000000E+000
  0.000000000000000E+000
  0.000000000000000E+000
  0.000000000000000E+000
  0.000000000000000E+000
  0.000000000000000E+000
  0.000000000000000E+000
  0.000000000000000E+000
  0.000000000000000E+000
  0.000000000000000E+000
  0.000000000000000E+000
  0.000000000000000E+000
  0.000000000000000E+000
  0.000000000000000E+000
  0.000000000000000E+000
  0.000000000000000E+000
SCALARS poroL double 
LOOKUP_TABLE default
  0.290244069210982     
  0.286156214600848     
  0.283435175663205     
  0.281351235463874     
  0.279648644638949     
  0.278194660783297     
  0.276912472630902     
  0.275752175360257     
  0.274677062779073     
  0.273655253557175     
  0.272652699571393     
  0.271624427290085     
  0.270497194484938     
  0.269132105592864     
  0.267064358103651     
  0.284641980539822     
  0.281925655213315     
  0.279588460620924     
  0.277680403810002     
  0.276063826493638     
  0.274654912394394     
  0.273397210246177     
  0.272251478663902     
  0.271187661630265     
  0.270179429686856     
  0.269199555961837     
  0.268214592080267     
  0.267180257418438     
  0.266021652728320     
  0.264874155455067     
  0.279225074562659     
  0.277541167414250     
  0.275811499977063     
  0.274207799768417     
  0.272763470450710     
  0.271457361936550     
  0.270265702561687     
  0.269167217927359     
  0.268143678252101     
  0.267178714914456     
  0.266256661413511     
  0.265362890968154     
  0.264486278353293     
  0.263660619631798     
  0.262975423078573     
  0.274564642163333     
  0.273544766354482     
  0.272315337659001     
  0.271039812010065     
  0.269800596751947     
  0.268628072095557     
  0.267528307287544     
  0.266499211510856     
  0.265536015075363     
  0.264633802000691     
  0.263789474582016     
  0.263004899476047     
  0.262297121484884     
  0.261708384481239     
  0.261320069904246     
  0.270750014009163     
  0.270136998517428     
  0.269259175115232     
  0.268252590063417     
  0.267205743953272     
  0.266169167603139     
  0.265169077835758     
  0.264218542792682     
  0.263324634891502     
  0.262492681513554     
  0.261729716458904     
  0.261048943766809     
  0.260475004231318     
  0.260050180371030     
  0.259836381515888     
  0.267741992281212     
  0.267348787825966     
  0.266689960598051     
  0.265872973416966     
  0.264977649040872     
  0.264058343155424     
  0.263150040774141     
  0.262275099517557     
  0.261448863227166     
  0.260683989088329     
  0.259994099868930     
  0.259397261432894     
  0.258919429676616     
  0.258596750714306     
  0.258475620285652     
  0.265440675482315     
  0.265131346654487     
  0.264583401063442     
  0.263879353946775     
  0.263085966732586     
  0.262253620020641     
  0.261418691509162     
  0.260607267291033     
  0.259838987615929     
  0.259130504995735     
  0.258498491460533     
  0.257962241632813     
  0.257545648751151     
  0.257278090592557     
  0.257193474952769     
  0.263721853332859     
  0.263398287626885     
  0.262876862888979     
  0.262219588676329     
  0.261479799830591     
  0.260700600146599     
  0.259915479628934     
  0.259150218653788     
  0.258425315766966     
  0.257758442460893     
  0.257166660542706     
  0.256668218882588     
  0.256283708123480     
  0.256036243038486     
  0.255950339630026     
  0.262457081210801     
  0.262049178151565     
  0.261490282192881     
  0.260826021774927     
  0.260097377351045     
  0.259339060966795     
  0.258579391299044     
  0.257841198270186     
  0.257143284966469     
  0.256502063796521     
  0.255933085386644     
  0.255452240250729     
  0.255076422311867     
  0.254823442422031     
  0.254711005704428     
  0.261523709642399     
  0.260981808390387     
  0.260338079514572     
  0.259625078297284     
  0.258872824021550     
  0.258107495849940     
  0.257351101130936     
  0.256621886462081     
  0.255935211049461     
  0.255304614256992     
  0.254742847675436     
  0.254262677210539     
  0.253877285343996     
  0.253600126904850     
  0.253444134262376     
  0.260808096248738     
  0.260097452152557     
  0.259334891434514     
  0.258542249433022     
  0.257739791852980     
  0.256945359746881     
  0.256174099907524     
  0.255438686297705     
  0.254749877349387     
  0.254117236363600     
  0.253549849828585     
  0.253056896329873     
  0.252647939841922     
  0.252332847724712     
  0.252121271444588     
  0.260204903360295     
  0.259301974427238     
  0.258397472052682     
  0.257503958395092     
  0.256632768626881     
  0.255793610141977     
  0.254994472844453     
  0.254241831509214     
  0.253541065931986     
  0.252896998386089     
  0.252314442335942     
  0.251798663127872     
  0.251355665502504     
  0.250992242985113     
  0.250715751613304     
  0.259614549741223     
  0.258504765455808     
  0.257444457504365     
  0.256437590039381     
  0.255486964190039     
  0.254594217266692     
  0.253759945646546     
  0.252983971824567     
  0.252265732349059     
  0.251604738892114     
  0.251001055358026     
  0.250455734824267     
  0.249971167464547     
  0.249551302384306     
  0.249201721600062     
  0.258940074913522     
  0.257616735730180     
  0.256395092273698     
  0.255270571830151     
  0.254237445347180     
  0.253289150888656     
  0.252418616101611     
  0.251618618020599     
  0.250882188254580     
  0.250203054046038     
  0.249576098090041     
  0.248997818855467     
  0.248466775445030     
  0.247984004671919     
  0.247553401641706     
  0.258084065694684     
  0.256548059500571     
  0.255167557339587     
  0.253929044397158     
  0.252817936853293     
  0.251819153134592     
  0.250917601054806     
  0.250098623259291     
  0.249348427727356     
  0.248654522809400     
  0.248006174203665     
  0.247394901122487     
  0.246815028014203     
  0.246264304812727     
  0.245744601641707     
  0.256945908655848     
  0.255205991703044     
  0.253677226445743     
  0.252336407379379     
  0.251159511588206     
  0.250122453539790     
  0.249201695146039     
  0.248374747563723     
  0.247620602614241     
  0.246920138157642     
  0.246256548513804     
  0.245615854348027     
  0.244987543955321     
  0.244365388435469     
  0.243748456502794     
  0.255419400964143     
  0.253492853994316     
  0.251834972098431     
  0.250411857074473     
  0.249189259890272     
  0.248133478336428     
  0.247212051970334     
  0.246394276254334     
  0.245651581592119     
  0.244957847894656     
  0.244289744294718     
  0.243627192405387     
  0.242954048278208     
  0.242259082983330     
  0.241537315570646     
  0.253390600581617     
  0.251304132299758     
  0.249545504631026     
  0.248068917119517     
  0.246828936516586     
  0.245781534229018     
  0.244884840277623     
  0.244099613441101     
  0.243389483151321     
  0.242721068727756     
  0.242064116205874     
  0.241391808204156     
  0.240681397840515     
  0.239915295539522     
  0.239082700943976     
  0.250735665259174     
  0.248526503642491     
  0.246705619606458     
  0.245213874954026     
  0.243993512809078     
  0.242989388924646     
  0.242149777575099     
  0.241426725093214     
  0.240776027630516     
  0.240156993399330     
  0.239532202100257     
  0.238867494620298     
  0.238132417865586     
  0.237301317671112     
  0.236355222006396     
  0.247318270978620     
  0.245035476133183     
  0.243202122163994     
  0.241743953135795     
  0.240589493196973     
  0.239671609153682     
  0.238928382464938     
  0.238303241944581     
  0.237744484741517     
  0.237204438292789     
  0.236638583295115     
  0.236004976412430     
  0.235264295119314     
  0.234380780851383     
  0.233324286161251     
  0.242985965259385     
  0.240692145163470     
  0.238909063697864     
  0.237544944303065     
  0.236512769420070     
  0.235732430788231     
  0.235131691602872     
  0.234645924677717     
  0.234216873186864     
  0.233790849376446     
  0.233316847533027     
  0.232745047048337     
  0.232026149843321     
  0.231111941914192     
  0.229957365634057     
  0.237564424084193     
  0.235338283696574     
  0.233683727697524     
  0.232487889434152     
  0.231645650154098     
  0.231062786136831     
  0.230657013325041     
  0.230356996610464     
  0.230099852625279     
  0.229827851483486     
  0.229485004720003     
  0.229014158429519     
  0.228355181910752     
  0.227444791628934     
  0.226218450102469     
  0.230847879273350     
  0.228788488762695     
  0.227360455138591     
  0.226424118450671     
  0.225852443402801     
  0.225535809663402     
  0.225382938231904     
  0.225318464257069     
  0.225278344191543     
  0.225204304920184     
  0.225038258792656     
  0.224717359304537     
  0.224170358518745     
  0.223316140017877     
  0.222065098811290     
  0.222582637027540     
  0.220817096909233     
  0.219740750648479     
  0.219177431853760     
  0.218972394921243     
  0.218999457257506     
  0.219161042250113     
  0.219382747531484     
  0.219605131458348     
  0.219775033513928     
  0.219837214835262     
  0.219726585288167     
  0.219361780959931     
  0.218641145335449     
  0.217443131328539     
  0.212437354089728     
  0.211135580493087     
  0.210576560391370     
  0.210531006202649     
  0.210807390128589     
  0.211263102960067     
  0.211800892491386     
  0.212356145741462     
  0.212883046938935     
  0.213341854181190     
  0.213687870494986     
  0.213860574669115     
  0.213771971754216     
  0.213298361549488     
  0.212277176129580     
  0.199947256470254     
  0.199349712786350     
  0.199540521839816     
  0.200203437027979     
  0.201097593315946     
  0.202070577193056     
  0.203039974477985     
  0.203967470703161     
  0.204832720601596     
  0.205619863214133     
  0.206306470326364     
  0.206848171878296     
  0.207161610027591     
  0.207101354246173     
  0.206453782528637     
  0.184387149261048     
  0.184875711537523     
  0.186165097920258     
  0.187797283066237     
  0.189468064597054     
  0.191035634307129     
  0.192477951417240     
  0.193802948395280     
  0.195028675650988     
  0.196173856929937     
  0.197251650425457     
  0.198259484906045     
  0.199137963965789     
  0.199743250067406     
  0.199787009841709     
  0.164501025382212     
  0.166700291506003     
  0.169698064334586     
  0.172687706718248     
  0.175257926043660     
  0.177474760755225     
  0.179414841504987     
  0.181152811401220     
  0.182753743905537     
  0.184278253977532     
  0.185787952207018     
  0.187345554474965     
  0.189011816009318     
  0.190649703848748     
  0.191953845968985     
  0.136958929635560     
  0.142691166119997     
  0.148853454540990     
  0.153381728374711     
  0.156955429369518     
  0.159878934369447     
  0.162365171160520     
  0.164560061271274     
  0.166578343173302     
  0.168525036615554     
  0.170515125276321     
  0.172699759125673     
  0.175291425179380     
  0.178704029886311     
  0.182233288739008     
  8.477367728066912E-002
  0.106037432535805     
  0.116544742678959     
  0.123693718330703     
  0.128989127431860     
  0.133174373761707     
  0.136647531394801     
  0.139664530084985     
  0.142414795305821     
  0.145065022609672     
  0.147794855711816     
  0.150842969661054     
  0.154607124115047     
  0.159846736952797     
  0.169503875332011     
