# vtk DataFile Version 3.0
vtk output
ASCII
DATASET UNSTRUCTURED_GRID
POINTS       496 double 
  0.00000000E+00  3.00000000E+02  0.00000000E+00
  0.00000000E+00  2.80000000E+02  0.00000000E+00
  0.00000000E+00  2.60000000E+02  0.00000000E+00
  0.00000000E+00  2.40000000E+02  0.00000000E+00
  0.00000000E+00  2.20000000E+02  0.00000000E+00
  0.00000000E+00  2.00000000E+02  0.00000000E+00
  0.00000000E+00  1.80000000E+02  0.00000000E+00
  0.00000000E+00  1.60000000E+02  0.00000000E+00
  0.00000000E+00  1.40000000E+02  0.00000000E+00
  0.00000000E+00  1.20000000E+02  0.00000000E+00
  0.00000000E+00  1.00000000E+02  0.00000000E+00
  0.00000000E+00  8.00000000E+01  0.00000000E+00
  0.00000000E+00  6.00000000E+01  0.00000000E+00
  0.00000000E+00  4.00000000E+01  0.00000000E+00
  0.00000000E+00  2.00000000E+01  0.00000000E+00
  0.00000000E+00  4.99600361E-14  0.00000000E+00
  2.00000000E+01  3.00000000E+02  0.00000000E+00
  2.00000000E+01  2.80000000E+02  0.00000000E+00
  2.00000000E+01  2.60000000E+02  0.00000000E+00
  2.00000000E+01  2.40000000E+02  0.00000000E+00
  2.00000000E+01  2.20000000E+02  0.00000000E+00
  2.00000000E+01  2.00000000E+02  0.00000000E+00
  2.00000000E+01  1.80000000E+02  0.00000000E+00
  2.00000000E+01  1.60000000E+02  0.00000000E+00
  2.00000000E+01  1.40000000E+02  0.00000000E+00
  2.00000000E+01  1.20000000E+02  0.00000000E+00
  2.00000000E+01  1.00000000E+02  0.00000000E+00
  2.00000000E+01  8.00000000E+01  0.00000000E+00
  2.00000000E+01  6.00000000E+01  0.00000000E+00
  2.00000000E+01  4.00000000E+01  0.00000000E+00
  2.00000000E+01  2.00000000E+01  0.00000000E+00
  2.00000000E+01  4.99600361E-14  0.00000000E+00
  4.00000000E+01  3.00000000E+02  0.00000000E+00
  4.00000000E+01  2.80000000E+02  0.00000000E+00
  4.00000000E+01  2.60000000E+02  0.00000000E+00
  4.00000000E+01  2.40000000E+02  0.00000000E+00
  4.00000000E+01  2.20000000E+02  0.00000000E+00
  4.00000000E+01  2.00000000E+02  0.00000000E+00
  4.00000000E+01  1.80000000E+02  0.00000000E+00
  4.00000000E+01  1.60000000E+02  0.00000000E+00
  4.00000000E+01  1.40000000E+02  0.00000000E+00
  4.00000000E+01  1.20000000E+02  0.00000000E+00
  4.00000000E+01  1.00000000E+02  0.00000000E+00
  4.00000000E+01  8.00000000E+01  0.00000000E+00
  4.00000000E+01  6.00000000E+01  0.00000000E+00
  4.00000000E+01  4.00000000E+01  0.00000000E+00
  4.00000000E+01  2.00000000E+01  0.00000000E+00
  4.00000000E+01  4.99600361E-14  0.00000000E+00
  6.00000000E+01  3.00000000E+02  0.00000000E+00
  6.00000000E+01  2.80000000E+02  0.00000000E+00
  6.00000000E+01  2.60000000E+02  0.00000000E+00
  6.00000000E+01  2.40000000E+02  0.00000000E+00
  6.00000000E+01  2.20000000E+02  0.00000000E+00
  6.00000000E+01  2.00000000E+02  0.00000000E+00
  6.00000000E+01  1.80000000E+02  0.00000000E+00
  6.00000000E+01  1.60000000E+02  0.00000000E+00
  6.00000000E+01  1.40000000E+02  0.00000000E+00
  6.00000000E+01  1.20000000E+02  0.00000000E+00
  6.00000000E+01  1.00000000E+02  0.00000000E+00
  6.00000000E+01  8.00000000E+01  0.00000000E+00
  6.00000000E+01  6.00000000E+01  0.00000000E+00
  6.00000000E+01  4.00000000E+01  0.00000000E+00
  6.00000000E+01  2.00000000E+01  0.00000000E+00
  6.00000000E+01  4.99600361E-14  0.00000000E+00
  8.00000000E+01  3.00000000E+02  0.00000000E+00
  8.00000000E+01  2.80000000E+02  0.00000000E+00
  8.00000000E+01  2.60000000E+02  0.00000000E+00
  8.00000000E+01  2.40000000E+02  0.00000000E+00
  8.00000000E+01  2.20000000E+02  0.00000000E+00
  8.00000000E+01  2.00000000E+02  0.00000000E+00
  8.00000000E+01  1.80000000E+02  0.00000000E+00
  8.00000000E+01  1.60000000E+02  0.00000000E+00
  8.00000000E+01  1.40000000E+02  0.00000000E+00
  8.00000000E+01  1.20000000E+02  0.00000000E+00
  8.00000000E+01  1.00000000E+02  0.00000000E+00
  8.00000000E+01  8.00000000E+01  0.00000000E+00
  8.00000000E+01  6.00000000E+01  0.00000000E+00
  8.00000000E+01  4.00000000E+01  0.00000000E+00
  8.00000000E+01  2.00000000E+01  0.00000000E+00
  8.00000000E+01  4.99600361E-14  0.00000000E+00
  1.00000000E+02  3.00000000E+02  0.00000000E+00
  1.00000000E+02  2.80000000E+02  0.00000000E+00
  1.00000000E+02  2.60000000E+02  0.00000000E+00
  1.00000000E+02  2.40000000E+02  0.00000000E+00
  1.00000000E+02  2.20000000E+02  0.00000000E+00
  1.00000000E+02  2.00000000E+02  0.00000000E+00
  1.00000000E+02  1.80000000E+02  0.00000000E+00
  1.00000000E+02  1.60000000E+02  0.00000000E+00
  1.00000000E+02  1.40000000E+02  0.00000000E+00
  1.00000000E+02  1.20000000E+02  0.00000000E+00
  1.00000000E+02  1.00000000E+02  0.00000000E+00
  1.00000000E+02  8.00000000E+01  0.00000000E+00
  1.00000000E+02  6.00000000E+01  0.00000000E+00
  1.00000000E+02  4.00000000E+01  0.00000000E+00
  1.00000000E+02  2.00000000E+01  0.00000000E+00
  1.00000000E+02  4.99600361E-14  0.00000000E+00
  1.20000000E+02  3.00000000E+02  0.00000000E+00
  1.20000000E+02  2.80000000E+02  0.00000000E+00
  1.20000000E+02  2.60000000E+02  0.00000000E+00
  1.20000000E+02  2.40000000E+02  0.00000000E+00
  1.20000000E+02  2.20000000E+02  0.00000000E+00
  1.20000000E+02  2.00000000E+02  0.00000000E+00
  1.20000000E+02  1.80000000E+02  0.00000000E+00
  1.20000000E+02  1.60000000E+02  0.00000000E+00
  1.20000000E+02  1.40000000E+02  0.00000000E+00
  1.20000000E+02  1.20000000E+02  0.00000000E+00
  1.20000000E+02  1.00000000E+02  0.00000000E+00
  1.20000000E+02  8.00000000E+01  0.00000000E+00
  1.20000000E+02  6.00000000E+01  0.00000000E+00
  1.20000000E+02  4.00000000E+01  0.00000000E+00
  1.20000000E+02  2.00000000E+01  0.00000000E+00
  1.20000000E+02  4.99600361E-14  0.00000000E+00
  1.40000000E+02  3.00000000E+02  0.00000000E+00
  1.40000000E+02  2.80000000E+02  0.00000000E+00
  1.40000000E+02  2.60000000E+02  0.00000000E+00
  1.40000000E+02  2.40000000E+02  0.00000000E+00
  1.40000000E+02  2.20000000E+02  0.00000000E+00
  1.40000000E+02  2.00000000E+02  0.00000000E+00
  1.40000000E+02  1.80000000E+02  0.00000000E+00
  1.40000000E+02  1.60000000E+02  0.00000000E+00
  1.40000000E+02  1.40000000E+02  0.00000000E+00
  1.40000000E+02  1.20000000E+02  0.00000000E+00
  1.40000000E+02  1.00000000E+02  0.00000000E+00
  1.40000000E+02  8.00000000E+01  0.00000000E+00
  1.40000000E+02  6.00000000E+01  0.00000000E+00
  1.40000000E+02  4.00000000E+01  0.00000000E+00
  1.40000000E+02  2.00000000E+01  0.00000000E+00
  1.40000000E+02  4.99600361E-14  0.00000000E+00
  1.60000000E+02  3.00000000E+02  0.00000000E+00
  1.60000000E+02  2.80000000E+02  0.00000000E+00
  1.60000000E+02  2.60000000E+02  0.00000000E+00
  1.60000000E+02  2.40000000E+02  0.00000000E+00
  1.60000000E+02  2.20000000E+02  0.00000000E+00
  1.60000000E+02  2.00000000E+02  0.00000000E+00
  1.60000000E+02  1.80000000E+02  0.00000000E+00
  1.60000000E+02  1.60000000E+02  0.00000000E+00
  1.60000000E+02  1.40000000E+02  0.00000000E+00
  1.60000000E+02  1.20000000E+02  0.00000000E+00
  1.60000000E+02  1.00000000E+02  0.00000000E+00
  1.60000000E+02  8.00000000E+01  0.00000000E+00
  1.60000000E+02  6.00000000E+01  0.00000000E+00
  1.60000000E+02  4.00000000E+01  0.00000000E+00
  1.60000000E+02  2.00000000E+01  0.00000000E+00
  1.60000000E+02  4.99600361E-14  0.00000000E+00
  1.80000000E+02  3.00000000E+02  0.00000000E+00
  1.80000000E+02  2.80000000E+02  0.00000000E+00
  1.80000000E+02  2.60000000E+02  0.00000000E+00
  1.80000000E+02  2.40000000E+02  0.00000000E+00
  1.80000000E+02  2.20000000E+02  0.00000000E+00
  1.80000000E+02  2.00000000E+02  0.00000000E+00
  1.80000000E+02  1.80000000E+02  0.00000000E+00
  1.80000000E+02  1.60000000E+02  0.00000000E+00
  1.80000000E+02  1.40000000E+02  0.00000000E+00
  1.80000000E+02  1.20000000E+02  0.00000000E+00
  1.80000000E+02  1.00000000E+02  0.00000000E+00
  1.80000000E+02  8.00000000E+01  0.00000000E+00
  1.80000000E+02  6.00000000E+01  0.00000000E+00
  1.80000000E+02  4.00000000E+01  0.00000000E+00
  1.80000000E+02  2.00000000E+01  0.00000000E+00
  1.80000000E+02  4.99600361E-14  0.00000000E+00
  2.00000000E+02  3.00000000E+02  0.00000000E+00
  2.00000000E+02  2.80000000E+02  0.00000000E+00
  2.00000000E+02  2.60000000E+02  0.00000000E+00
  2.00000000E+02  2.40000000E+02  0.00000000E+00
  2.00000000E+02  2.20000000E+02  0.00000000E+00
  2.00000000E+02  2.00000000E+02  0.00000000E+00
  2.00000000E+02  1.80000000E+02  0.00000000E+00
  2.00000000E+02  1.60000000E+02  0.00000000E+00
  2.00000000E+02  1.40000000E+02  0.00000000E+00
  2.00000000E+02  1.20000000E+02  0.00000000E+00
  2.00000000E+02  1.00000000E+02  0.00000000E+00
  2.00000000E+02  8.00000000E+01  0.00000000E+00
  2.00000000E+02  6.00000000E+01  0.00000000E+00
  2.00000000E+02  4.00000000E+01  0.00000000E+00
  2.00000000E+02  2.00000000E+01  0.00000000E+00
  2.00000000E+02  4.99600361E-14  0.00000000E+00
  2.20000000E+02  3.00000000E+02  0.00000000E+00
  2.20000000E+02  2.80000000E+02  0.00000000E+00
  2.20000000E+02  2.60000000E+02  0.00000000E+00
  2.20000000E+02  2.40000000E+02  0.00000000E+00
  2.20000000E+02  2.20000000E+02  0.00000000E+00
  2.20000000E+02  2.00000000E+02  0.00000000E+00
  2.20000000E+02  1.80000000E+02  0.00000000E+00
  2.20000000E+02  1.60000000E+02  0.00000000E+00
  2.20000000E+02  1.40000000E+02  0.00000000E+00
  2.20000000E+02  1.20000000E+02  0.00000000E+00
  2.20000000E+02  1.00000000E+02  0.00000000E+00
  2.20000000E+02  8.00000000E+01  0.00000000E+00
  2.20000000E+02  6.00000000E+01  0.00000000E+00
  2.20000000E+02  4.00000000E+01  0.00000000E+00
  2.20000000E+02  2.00000000E+01  0.00000000E+00
  2.20000000E+02  4.99600361E-14  0.00000000E+00
  2.40000000E+02  3.00000000E+02  0.00000000E+00
  2.40000000E+02  2.80000000E+02  0.00000000E+00
  2.40000000E+02  2.60000000E+02  0.00000000E+00
  2.40000000E+02  2.40000000E+02  0.00000000E+00
  2.40000000E+02  2.20000000E+02  0.00000000E+00
  2.40000000E+02  2.00000000E+02  0.00000000E+00
  2.40000000E+02  1.80000000E+02  0.00000000E+00
  2.40000000E+02  1.60000000E+02  0.00000000E+00
  2.40000000E+02  1.40000000E+02  0.00000000E+00
  2.40000000E+02  1.20000000E+02  0.00000000E+00
  2.40000000E+02  1.00000000E+02  0.00000000E+00
  2.40000000E+02  8.00000000E+01  0.00000000E+00
  2.40000000E+02  6.00000000E+01  0.00000000E+00
  2.40000000E+02  4.00000000E+01  0.00000000E+00
  2.40000000E+02  2.00000000E+01  0.00000000E+00
  2.40000000E+02  4.99600361E-14  0.00000000E+00
  2.60000000E+02  3.00000000E+02  0.00000000E+00
  2.60000000E+02  2.80000000E+02  0.00000000E+00
  2.60000000E+02  2.60000000E+02  0.00000000E+00
  2.60000000E+02  2.40000000E+02  0.00000000E+00
  2.60000000E+02  2.20000000E+02  0.00000000E+00
  2.60000000E+02  2.00000000E+02  0.00000000E+00
  2.60000000E+02  1.80000000E+02  0.00000000E+00
  2.60000000E+02  1.60000000E+02  0.00000000E+00
  2.60000000E+02  1.40000000E+02  0.00000000E+00
  2.60000000E+02  1.20000000E+02  0.00000000E+00
  2.60000000E+02  1.00000000E+02  0.00000000E+00
  2.60000000E+02  8.00000000E+01  0.00000000E+00
  2.60000000E+02  6.00000000E+01  0.00000000E+00
  2.60000000E+02  4.00000000E+01  0.00000000E+00
  2.60000000E+02  2.00000000E+01  0.00000000E+00
  2.60000000E+02  4.99600361E-14  0.00000000E+00
  2.80000000E+02  3.00000000E+02  0.00000000E+00
  2.80000000E+02  2.80000000E+02  0.00000000E+00
  2.80000000E+02  2.60000000E+02  0.00000000E+00
  2.80000000E+02  2.40000000E+02  0.00000000E+00
  2.80000000E+02  2.20000000E+02  0.00000000E+00
  2.80000000E+02  2.00000000E+02  0.00000000E+00
  2.80000000E+02  1.80000000E+02  0.00000000E+00
  2.80000000E+02  1.60000000E+02  0.00000000E+00
  2.80000000E+02  1.40000000E+02  0.00000000E+00
  2.80000000E+02  1.20000000E+02  0.00000000E+00
  2.80000000E+02  1.00000000E+02  0.00000000E+00
  2.80000000E+02  8.00000000E+01  0.00000000E+00
  2.80000000E+02  6.00000000E+01  0.00000000E+00
  2.80000000E+02  4.00000000E+01  0.00000000E+00
  2.80000000E+02  2.00000000E+01  0.00000000E+00
  2.80000000E+02  4.99600361E-14  0.00000000E+00
  3.00000000E+02  3.00000000E+02  0.00000000E+00
  3.00000000E+02  2.80000000E+02  0.00000000E+00
  3.00000000E+02  2.60000000E+02  0.00000000E+00
  3.00000000E+02  2.40000000E+02  0.00000000E+00
  3.00000000E+02  2.20000000E+02  0.00000000E+00
  3.00000000E+02  2.00000000E+02  0.00000000E+00
  3.00000000E+02  1.80000000E+02  0.00000000E+00
  3.00000000E+02  1.60000000E+02  0.00000000E+00
  3.00000000E+02  1.40000000E+02  0.00000000E+00
  3.00000000E+02  1.20000000E+02  0.00000000E+00
  3.00000000E+02  1.00000000E+02  0.00000000E+00
  3.00000000E+02  8.00000000E+01  0.00000000E+00
  3.00000000E+02  6.00000000E+01  0.00000000E+00
  3.00000000E+02  4.00000000E+01  0.00000000E+00
  3.00000000E+02  2.00000000E+01  0.00000000E+00
  3.00000000E+02  4.99600361E-14  0.00000000E+00
  3.20000000E+02  3.00000000E+02  0.00000000E+00
  3.20000000E+02  2.80000000E+02  0.00000000E+00
  3.20000000E+02  2.60000000E+02  0.00000000E+00
  3.20000000E+02  2.40000000E+02  0.00000000E+00
  3.20000000E+02  2.20000000E+02  0.00000000E+00
  3.20000000E+02  2.00000000E+02  0.00000000E+00
  3.20000000E+02  1.80000000E+02  0.00000000E+00
  3.20000000E+02  1.60000000E+02  0.00000000E+00
  3.20000000E+02  1.40000000E+02  0.00000000E+00
  3.20000000E+02  1.20000000E+02  0.00000000E+00
  3.20000000E+02  1.00000000E+02  0.00000000E+00
  3.20000000E+02  8.00000000E+01  0.00000000E+00
  3.20000000E+02  6.00000000E+01  0.00000000E+00
  3.20000000E+02  4.00000000E+01  0.00000000E+00
  3.20000000E+02  2.00000000E+01  0.00000000E+00
  3.20000000E+02  4.99600361E-14  0.00000000E+00
  3.40000000E+02  3.00000000E+02  0.00000000E+00
  3.40000000E+02  2.80000000E+02  0.00000000E+00
  3.40000000E+02  2.60000000E+02  0.00000000E+00
  3.40000000E+02  2.40000000E+02  0.00000000E+00
  3.40000000E+02  2.20000000E+02  0.00000000E+00
  3.40000000E+02  2.00000000E+02  0.00000000E+00
  3.40000000E+02  1.80000000E+02  0.00000000E+00
  3.40000000E+02  1.60000000E+02  0.00000000E+00
  3.40000000E+02  1.40000000E+02  0.00000000E+00
  3.40000000E+02  1.20000000E+02  0.00000000E+00
  3.40000000E+02  1.00000000E+02  0.00000000E+00
  3.40000000E+02  8.00000000E+01  0.00000000E+00
  3.40000000E+02  6.00000000E+01  0.00000000E+00
  3.40000000E+02  4.00000000E+01  0.00000000E+00
  3.40000000E+02  2.00000000E+01  0.00000000E+00
  3.40000000E+02  4.99600361E-14  0.00000000E+00
  3.60000000E+02  3.00000000E+02  0.00000000E+00
  3.60000000E+02  2.80000000E+02  0.00000000E+00
  3.60000000E+02  2.60000000E+02  0.00000000E+00
  3.60000000E+02  2.40000000E+02  0.00000000E+00
  3.60000000E+02  2.20000000E+02  0.00000000E+00
  3.60000000E+02  2.00000000E+02  0.00000000E+00
  3.60000000E+02  1.80000000E+02  0.00000000E+00
  3.60000000E+02  1.60000000E+02  0.00000000E+00
  3.60000000E+02  1.40000000E+02  0.00000000E+00
  3.60000000E+02  1.20000000E+02  0.00000000E+00
  3.60000000E+02  1.00000000E+02  0.00000000E+00
  3.60000000E+02  8.00000000E+01  0.00000000E+00
  3.60000000E+02  6.00000000E+01  0.00000000E+00
  3.60000000E+02  4.00000000E+01  0.00000000E+00
  3.60000000E+02  2.00000000E+01  0.00000000E+00
  3.60000000E+02  4.99600361E-14  0.00000000E+00
  3.80000000E+02  3.00000000E+02  0.00000000E+00
  3.80000000E+02  2.80000000E+02  0.00000000E+00
  3.80000000E+02  2.60000000E+02  0.00000000E+00
  3.80000000E+02  2.40000000E+02  0.00000000E+00
  3.80000000E+02  2.20000000E+02  0.00000000E+00
  3.80000000E+02  2.00000000E+02  0.00000000E+00
  3.80000000E+02  1.80000000E+02  0.00000000E+00
  3.80000000E+02  1.60000000E+02  0.00000000E+00
  3.80000000E+02  1.40000000E+02  0.00000000E+00
  3.80000000E+02  1.20000000E+02  0.00000000E+00
  3.80000000E+02  1.00000000E+02  0.00000000E+00
  3.80000000E+02  8.00000000E+01  0.00000000E+00
  3.80000000E+02  6.00000000E+01  0.00000000E+00
  3.80000000E+02  4.00000000E+01  0.00000000E+00
  3.80000000E+02  2.00000000E+01  0.00000000E+00
  3.80000000E+02  4.99600361E-14  0.00000000E+00
  4.00000000E+02  3.00000000E+02  0.00000000E+00
  4.00000000E+02  2.80000000E+02  0.00000000E+00
  4.00000000E+02  2.60000000E+02  0.00000000E+00
  4.00000000E+02  2.40000000E+02  0.00000000E+00
  4.00000000E+02  2.20000000E+02  0.00000000E+00
  4.00000000E+02  2.00000000E+02  0.00000000E+00
  4.00000000E+02  1.80000000E+02  0.00000000E+00
  4.00000000E+02  1.60000000E+02  0.00000000E+00
  4.00000000E+02  1.40000000E+02  0.00000000E+00
  4.00000000E+02  1.20000000E+02  0.00000000E+00
  4.00000000E+02  1.00000000E+02  0.00000000E+00
  4.00000000E+02  8.00000000E+01  0.00000000E+00
  4.00000000E+02  6.00000000E+01  0.00000000E+00
  4.00000000E+02  4.00000000E+01  0.00000000E+00
  4.00000000E+02  2.00000000E+01  0.00000000E+00
  4.00000000E+02  4.99600361E-14  0.00000000E+00
  4.20000000E+02  3.00000000E+02  0.00000000E+00
  4.20000000E+02  2.80000000E+02  0.00000000E+00
  4.20000000E+02  2.60000000E+02  0.00000000E+00
  4.20000000E+02  2.40000000E+02  0.00000000E+00
  4.20000000E+02  2.20000000E+02  0.00000000E+00
  4.20000000E+02  2.00000000E+02  0.00000000E+00
  4.20000000E+02  1.80000000E+02  0.00000000E+00
  4.20000000E+02  1.60000000E+02  0.00000000E+00
  4.20000000E+02  1.40000000E+02  0.00000000E+00
  4.20000000E+02  1.20000000E+02  0.00000000E+00
  4.20000000E+02  1.00000000E+02  0.00000000E+00
  4.20000000E+02  8.00000000E+01  0.00000000E+00
  4.20000000E+02  6.00000000E+01  0.00000000E+00
  4.20000000E+02  4.00000000E+01  0.00000000E+00
  4.20000000E+02  2.00000000E+01  0.00000000E+00
  4.20000000E+02  4.99600361E-14  0.00000000E+00
  4.40000000E+02  3.00000000E+02  0.00000000E+00
  4.40000000E+02  2.80000000E+02  0.00000000E+00
  4.40000000E+02  2.60000000E+02  0.00000000E+00
  4.40000000E+02  2.40000000E+02  0.00000000E+00
  4.40000000E+02  2.20000000E+02  0.00000000E+00
  4.40000000E+02  2.00000000E+02  0.00000000E+00
  4.40000000E+02  1.80000000E+02  0.00000000E+00
  4.40000000E+02  1.60000000E+02  0.00000000E+00
  4.40000000E+02  1.40000000E+02  0.00000000E+00
  4.40000000E+02  1.20000000E+02  0.00000000E+00
  4.40000000E+02  1.00000000E+02  0.00000000E+00
  4.40000000E+02  8.00000000E+01  0.00000000E+00
  4.40000000E+02  6.00000000E+01  0.00000000E+00
  4.40000000E+02  4.00000000E+01  0.00000000E+00
  4.40000000E+02  2.00000000E+01  0.00000000E+00
  4.40000000E+02  4.99600361E-14  0.00000000E+00
  4.60000000E+02  3.00000000E+02  0.00000000E+00
  4.60000000E+02  2.80000000E+02  0.00000000E+00
  4.60000000E+02  2.60000000E+02  0.00000000E+00
  4.60000000E+02  2.40000000E+02  0.00000000E+00
  4.60000000E+02  2.20000000E+02  0.00000000E+00
  4.60000000E+02  2.00000000E+02  0.00000000E+00
  4.60000000E+02  1.80000000E+02  0.00000000E+00
  4.60000000E+02  1.60000000E+02  0.00000000E+00
  4.60000000E+02  1.40000000E+02  0.00000000E+00
  4.60000000E+02  1.20000000E+02  0.00000000E+00
  4.60000000E+02  1.00000000E+02  0.00000000E+00
  4.60000000E+02  8.00000000E+01  0.00000000E+00
  4.60000000E+02  6.00000000E+01  0.00000000E+00
  4.60000000E+02  4.00000000E+01  0.00000000E+00
  4.60000000E+02  2.00000000E+01  0.00000000E+00
  4.60000000E+02  4.99600361E-14  0.00000000E+00
  4.80000000E+02  3.00000000E+02  0.00000000E+00
  4.80000000E+02  2.80000000E+02  0.00000000E+00
  4.80000000E+02  2.60000000E+02  0.00000000E+00
  4.80000000E+02  2.40000000E+02  0.00000000E+00
  4.80000000E+02  2.20000000E+02  0.00000000E+00
  4.80000000E+02  2.00000000E+02  0.00000000E+00
  4.80000000E+02  1.80000000E+02  0.00000000E+00
  4.80000000E+02  1.60000000E+02  0.00000000E+00
  4.80000000E+02  1.40000000E+02  0.00000000E+00
  4.80000000E+02  1.20000000E+02  0.00000000E+00
  4.80000000E+02  1.00000000E+02  0.00000000E+00
  4.80000000E+02  8.00000000E+01  0.00000000E+00
  4.80000000E+02  6.00000000E+01  0.00000000E+00
  4.80000000E+02  4.00000000E+01  0.00000000E+00
  4.80000000E+02  2.00000000E+01  0.00000000E+00
  4.80000000E+02  4.99600361E-14  0.00000000E+00
  5.00000000E+02  3.00000000E+02  0.00000000E+00
  5.00000000E+02  2.80000000E+02  0.00000000E+00
  5.00000000E+02  2.60000000E+02  0.00000000E+00
  5.00000000E+02  2.40000000E+02  0.00000000E+00
  5.00000000E+02  2.20000000E+02  0.00000000E+00
  5.00000000E+02  2.00000000E+02  0.00000000E+00
  5.00000000E+02  1.80000000E+02  0.00000000E+00
  5.00000000E+02  1.60000000E+02  0.00000000E+00
  5.00000000E+02  1.40000000E+02  0.00000000E+00
  5.00000000E+02  1.20000000E+02  0.00000000E+00
  5.00000000E+02  1.00000000E+02  0.00000000E+00
  5.00000000E+02  8.00000000E+01  0.00000000E+00
  5.00000000E+02  6.00000000E+01  0.00000000E+00
  5.00000000E+02  4.00000000E+01  0.00000000E+00
  5.00000000E+02  2.00000000E+01  0.00000000E+00
  5.00000000E+02  4.99600361E-14  0.00000000E+00
  5.20000000E+02  3.00000000E+02  0.00000000E+00
  5.20000000E+02  2.80000000E+02  0.00000000E+00
  5.20000000E+02  2.60000000E+02  0.00000000E+00
  5.20000000E+02  2.40000000E+02  0.00000000E+00
  5.20000000E+02  2.20000000E+02  0.00000000E+00
  5.20000000E+02  2.00000000E+02  0.00000000E+00
  5.20000000E+02  1.80000000E+02  0.00000000E+00
  5.20000000E+02  1.60000000E+02  0.00000000E+00
  5.20000000E+02  1.40000000E+02  0.00000000E+00
  5.20000000E+02  1.20000000E+02  0.00000000E+00
  5.20000000E+02  1.00000000E+02  0.00000000E+00
  5.20000000E+02  8.00000000E+01  0.00000000E+00
  5.20000000E+02  6.00000000E+01  0.00000000E+00
  5.20000000E+02  4.00000000E+01  0.00000000E+00
  5.20000000E+02  2.00000000E+01  0.00000000E+00
  5.20000000E+02  4.99600361E-14  0.00000000E+00
  5.40000000E+02  3.00000000E+02  0.00000000E+00
  5.40000000E+02  2.80000000E+02  0.00000000E+00
  5.40000000E+02  2.60000000E+02  0.00000000E+00
  5.40000000E+02  2.40000000E+02  0.00000000E+00
  5.40000000E+02  2.20000000E+02  0.00000000E+00
  5.40000000E+02  2.00000000E+02  0.00000000E+00
  5.40000000E+02  1.80000000E+02  0.00000000E+00
  5.40000000E+02  1.60000000E+02  0.00000000E+00
  5.40000000E+02  1.40000000E+02  0.00000000E+00
  5.40000000E+02  1.20000000E+02  0.00000000E+00
  5.40000000E+02  1.00000000E+02  0.00000000E+00
  5.40000000E+02  8.00000000E+01  0.00000000E+00
  5.40000000E+02  6.00000000E+01  0.00000000E+00
  5.40000000E+02  4.00000000E+01  0.00000000E+00
  5.40000000E+02  2.00000000E+01  0.00000000E+00
  5.40000000E+02  4.99600361E-14  0.00000000E+00
  5.60000000E+02  3.00000000E+02  0.00000000E+00
  5.60000000E+02  2.80000000E+02  0.00000000E+00
  5.60000000E+02  2.60000000E+02  0.00000000E+00
  5.60000000E+02  2.40000000E+02  0.00000000E+00
  5.60000000E+02  2.20000000E+02  0.00000000E+00
  5.60000000E+02  2.00000000E+02  0.00000000E+00
  5.60000000E+02  1.80000000E+02  0.00000000E+00
  5.60000000E+02  1.60000000E+02  0.00000000E+00
  5.60000000E+02  1.40000000E+02  0.00000000E+00
  5.60000000E+02  1.20000000E+02  0.00000000E+00
  5.60000000E+02  1.00000000E+02  0.00000000E+00
  5.60000000E+02  8.00000000E+01  0.00000000E+00
  5.60000000E+02  6.00000000E+01  0.00000000E+00
  5.60000000E+02  4.00000000E+01  0.00000000E+00
  5.60000000E+02  2.00000000E+01  0.00000000E+00
  5.60000000E+02  4.99600361E-14  0.00000000E+00
  5.80000000E+02  3.00000000E+02  0.00000000E+00
  5.80000000E+02  2.80000000E+02  0.00000000E+00
  5.80000000E+02  2.60000000E+02  0.00000000E+00
  5.80000000E+02  2.40000000E+02  0.00000000E+00
  5.80000000E+02  2.20000000E+02  0.00000000E+00
  5.80000000E+02  2.00000000E+02  0.00000000E+00
  5.80000000E+02  1.80000000E+02  0.00000000E+00
  5.80000000E+02  1.60000000E+02  0.00000000E+00
  5.80000000E+02  1.40000000E+02  0.00000000E+00
  5.80000000E+02  1.20000000E+02  0.00000000E+00
  5.80000000E+02  1.00000000E+02  0.00000000E+00
  5.80000000E+02  8.00000000E+01  0.00000000E+00
  5.80000000E+02  6.00000000E+01  0.00000000E+00
  5.80000000E+02  4.00000000E+01  0.00000000E+00
  5.80000000E+02  2.00000000E+01  0.00000000E+00
  5.80000000E+02  4.99600361E-14  0.00000000E+00
  6.00000000E+02  3.00000000E+02  0.00000000E+00
  6.00000000E+02  2.80000000E+02  0.00000000E+00
  6.00000000E+02  2.60000000E+02  0.00000000E+00
  6.00000000E+02  2.40000000E+02  0.00000000E+00
  6.00000000E+02  2.20000000E+02  0.00000000E+00
  6.00000000E+02  2.00000000E+02  0.00000000E+00
  6.00000000E+02  1.80000000E+02  0.00000000E+00
  6.00000000E+02  1.60000000E+02  0.00000000E+00
  6.00000000E+02  1.40000000E+02  0.00000000E+00
  6.00000000E+02  1.20000000E+02  0.00000000E+00
  6.00000000E+02  1.00000000E+02  0.00000000E+00
  6.00000000E+02  8.00000000E+01  0.00000000E+00
  6.00000000E+02  6.00000000E+01  0.00000000E+00
  6.00000000E+02  4.00000000E+01  0.00000000E+00
  6.00000000E+02  2.00000000E+01  0.00000000E+00
  6.00000000E+02  4.99600361E-14  0.00000000E+00
CELLS       450      2250
         4           0           1          17          16
         4           1           2          18          17
         4           2           3          19          18
         4           3           4          20          19
         4           4           5          21          20
         4           5           6          22          21
         4           6           7          23          22
         4           7           8          24          23
         4           8           9          25          24
         4           9          10          26          25
         4          10          11          27          26
         4          11          12          28          27
         4          12          13          29          28
         4          13          14          30          29
         4          14          15          31          30
         4          16          17          33          32
         4          17          18          34          33
         4          18          19          35          34
         4          19          20          36          35
         4          20          21          37          36
         4          21          22          38          37
         4          22          23          39          38
         4          23          24          40          39
         4          24          25          41          40
         4          25          26          42          41
         4          26          27          43          42
         4          27          28          44          43
         4          28          29          45          44
         4          29          30          46          45
         4          30          31          47          46
         4          32          33          49          48
         4          33          34          50          49
         4          34          35          51          50
         4          35          36          52          51
         4          36          37          53          52
         4          37          38          54          53
         4          38          39          55          54
         4          39          40          56          55
         4          40          41          57          56
         4          41          42          58          57
         4          42          43          59          58
         4          43          44          60          59
         4          44          45          61          60
         4          45          46          62          61
         4          46          47          63          62
         4          48          49          65          64
         4          49          50          66          65
         4          50          51          67          66
         4          51          52          68          67
         4          52          53          69          68
         4          53          54          70          69
         4          54          55          71          70
         4          55          56          72          71
         4          56          57          73          72
         4          57          58          74          73
         4          58          59          75          74
         4          59          60          76          75
         4          60          61          77          76
         4          61          62          78          77
         4          62          63          79          78
         4          64          65          81          80
         4          65          66          82          81
         4          66          67          83          82
         4          67          68          84          83
         4          68          69          85          84
         4          69          70          86          85
         4          70          71          87          86
         4          71          72          88          87
         4          72          73          89          88
         4          73          74          90          89
         4          74          75          91          90
         4          75          76          92          91
         4          76          77          93          92
         4          77          78          94          93
         4          78          79          95          94
         4          80          81          97          96
         4          81          82          98          97
         4          82          83          99          98
         4          83          84         100          99
         4          84          85         101         100
         4          85          86         102         101
         4          86          87         103         102
         4          87          88         104         103
         4          88          89         105         104
         4          89          90         106         105
         4          90          91         107         106
         4          91          92         108         107
         4          92          93         109         108
         4          93          94         110         109
         4          94          95         111         110
         4          96          97         113         112
         4          97          98         114         113
         4          98          99         115         114
         4          99         100         116         115
         4         100         101         117         116
         4         101         102         118         117
         4         102         103         119         118
         4         103         104         120         119
         4         104         105         121         120
         4         105         106         122         121
         4         106         107         123         122
         4         107         108         124         123
         4         108         109         125         124
         4         109         110         126         125
         4         110         111         127         126
         4         112         113         129         128
         4         113         114         130         129
         4         114         115         131         130
         4         115         116         132         131
         4         116         117         133         132
         4         117         118         134         133
         4         118         119         135         134
         4         119         120         136         135
         4         120         121         137         136
         4         121         122         138         137
         4         122         123         139         138
         4         123         124         140         139
         4         124         125         141         140
         4         125         126         142         141
         4         126         127         143         142
         4         128         129         145         144
         4         129         130         146         145
         4         130         131         147         146
         4         131         132         148         147
         4         132         133         149         148
         4         133         134         150         149
         4         134         135         151         150
         4         135         136         152         151
         4         136         137         153         152
         4         137         138         154         153
         4         138         139         155         154
         4         139         140         156         155
         4         140         141         157         156
         4         141         142         158         157
         4         142         143         159         158
         4         144         145         161         160
         4         145         146         162         161
         4         146         147         163         162
         4         147         148         164         163
         4         148         149         165         164
         4         149         150         166         165
         4         150         151         167         166
         4         151         152         168         167
         4         152         153         169         168
         4         153         154         170         169
         4         154         155         171         170
         4         155         156         172         171
         4         156         157         173         172
         4         157         158         174         173
         4         158         159         175         174
         4         160         161         177         176
         4         161         162         178         177
         4         162         163         179         178
         4         163         164         180         179
         4         164         165         181         180
         4         165         166         182         181
         4         166         167         183         182
         4         167         168         184         183
         4         168         169         185         184
         4         169         170         186         185
         4         170         171         187         186
         4         171         172         188         187
         4         172         173         189         188
         4         173         174         190         189
         4         174         175         191         190
         4         176         177         193         192
         4         177         178         194         193
         4         178         179         195         194
         4         179         180         196         195
         4         180         181         197         196
         4         181         182         198         197
         4         182         183         199         198
         4         183         184         200         199
         4         184         185         201         200
         4         185         186         202         201
         4         186         187         203         202
         4         187         188         204         203
         4         188         189         205         204
         4         189         190         206         205
         4         190         191         207         206
         4         192         193         209         208
         4         193         194         210         209
         4         194         195         211         210
         4         195         196         212         211
         4         196         197         213         212
         4         197         198         214         213
         4         198         199         215         214
         4         199         200         216         215
         4         200         201         217         216
         4         201         202         218         217
         4         202         203         219         218
         4         203         204         220         219
         4         204         205         221         220
         4         205         206         222         221
         4         206         207         223         222
         4         208         209         225         224
         4         209         210         226         225
         4         210         211         227         226
         4         211         212         228         227
         4         212         213         229         228
         4         213         214         230         229
         4         214         215         231         230
         4         215         216         232         231
         4         216         217         233         232
         4         217         218         234         233
         4         218         219         235         234
         4         219         220         236         235
         4         220         221         237         236
         4         221         222         238         237
         4         222         223         239         238
         4         224         225         241         240
         4         225         226         242         241
         4         226         227         243         242
         4         227         228         244         243
         4         228         229         245         244
         4         229         230         246         245
         4         230         231         247         246
         4         231         232         248         247
         4         232         233         249         248
         4         233         234         250         249
         4         234         235         251         250
         4         235         236         252         251
         4         236         237         253         252
         4         237         238         254         253
         4         238         239         255         254
         4         240         241         257         256
         4         241         242         258         257
         4         242         243         259         258
         4         243         244         260         259
         4         244         245         261         260
         4         245         246         262         261
         4         246         247         263         262
         4         247         248         264         263
         4         248         249         265         264
         4         249         250         266         265
         4         250         251         267         266
         4         251         252         268         267
         4         252         253         269         268
         4         253         254         270         269
         4         254         255         271         270
         4         256         257         273         272
         4         257         258         274         273
         4         258         259         275         274
         4         259         260         276         275
         4         260         261         277         276
         4         261         262         278         277
         4         262         263         279         278
         4         263         264         280         279
         4         264         265         281         280
         4         265         266         282         281
         4         266         267         283         282
         4         267         268         284         283
         4         268         269         285         284
         4         269         270         286         285
         4         270         271         287         286
         4         272         273         289         288
         4         273         274         290         289
         4         274         275         291         290
         4         275         276         292         291
         4         276         277         293         292
         4         277         278         294         293
         4         278         279         295         294
         4         279         280         296         295
         4         280         281         297         296
         4         281         282         298         297
         4         282         283         299         298
         4         283         284         300         299
         4         284         285         301         300
         4         285         286         302         301
         4         286         287         303         302
         4         288         289         305         304
         4         289         290         306         305
         4         290         291         307         306
         4         291         292         308         307
         4         292         293         309         308
         4         293         294         310         309
         4         294         295         311         310
         4         295         296         312         311
         4         296         297         313         312
         4         297         298         314         313
         4         298         299         315         314
         4         299         300         316         315
         4         300         301         317         316
         4         301         302         318         317
         4         302         303         319         318
         4         304         305         321         320
         4         305         306         322         321
         4         306         307         323         322
         4         307         308         324         323
         4         308         309         325         324
         4         309         310         326         325
         4         310         311         327         326
         4         311         312         328         327
         4         312         313         329         328
         4         313         314         330         329
         4         314         315         331         330
         4         315         316         332         331
         4         316         317         333         332
         4         317         318         334         333
         4         318         319         335         334
         4         320         321         337         336
         4         321         322         338         337
         4         322         323         339         338
         4         323         324         340         339
         4         324         325         341         340
         4         325         326         342         341
         4         326         327         343         342
         4         327         328         344         343
         4         328         329         345         344
         4         329         330         346         345
         4         330         331         347         346
         4         331         332         348         347
         4         332         333         349         348
         4         333         334         350         349
         4         334         335         351         350
         4         336         337         353         352
         4         337         338         354         353
         4         338         339         355         354
         4         339         340         356         355
         4         340         341         357         356
         4         341         342         358         357
         4         342         343         359         358
         4         343         344         360         359
         4         344         345         361         360
         4         345         346         362         361
         4         346         347         363         362
         4         347         348         364         363
         4         348         349         365         364
         4         349         350         366         365
         4         350         351         367         366
         4         352         353         369         368
         4         353         354         370         369
         4         354         355         371         370
         4         355         356         372         371
         4         356         357         373         372
         4         357         358         374         373
         4         358         359         375         374
         4         359         360         376         375
         4         360         361         377         376
         4         361         362         378         377
         4         362         363         379         378
         4         363         364         380         379
         4         364         365         381         380
         4         365         366         382         381
         4         366         367         383         382
         4         368         369         385         384
         4         369         370         386         385
         4         370         371         387         386
         4         371         372         388         387
         4         372         373         389         388
         4         373         374         390         389
         4         374         375         391         390
         4         375         376         392         391
         4         376         377         393         392
         4         377         378         394         393
         4         378         379         395         394
         4         379         380         396         395
         4         380         381         397         396
         4         381         382         398         397
         4         382         383         399         398
         4         384         385         401         400
         4         385         386         402         401
         4         386         387         403         402
         4         387         388         404         403
         4         388         389         405         404
         4         389         390         406         405
         4         390         391         407         406
         4         391         392         408         407
         4         392         393         409         408
         4         393         394         410         409
         4         394         395         411         410
         4         395         396         412         411
         4         396         397         413         412
         4         397         398         414         413
         4         398         399         415         414
         4         400         401         417         416
         4         401         402         418         417
         4         402         403         419         418
         4         403         404         420         419
         4         404         405         421         420
         4         405         406         422         421
         4         406         407         423         422
         4         407         408         424         423
         4         408         409         425         424
         4         409         410         426         425
         4         410         411         427         426
         4         411         412         428         427
         4         412         413         429         428
         4         413         414         430         429
         4         414         415         431         430
         4         416         417         433         432
         4         417         418         434         433
         4         418         419         435         434
         4         419         420         436         435
         4         420         421         437         436
         4         421         422         438         437
         4         422         423         439         438
         4         423         424         440         439
         4         424         425         441         440
         4         425         426         442         441
         4         426         427         443         442
         4         427         428         444         443
         4         428         429         445         444
         4         429         430         446         445
         4         430         431         447         446
         4         432         433         449         448
         4         433         434         450         449
         4         434         435         451         450
         4         435         436         452         451
         4         436         437         453         452
         4         437         438         454         453
         4         438         439         455         454
         4         439         440         456         455
         4         440         441         457         456
         4         441         442         458         457
         4         442         443         459         458
         4         443         444         460         459
         4         444         445         461         460
         4         445         446         462         461
         4         446         447         463         462
         4         448         449         465         464
         4         449         450         466         465
         4         450         451         467         466
         4         451         452         468         467
         4         452         453         469         468
         4         453         454         470         469
         4         454         455         471         470
         4         455         456         472         471
         4         456         457         473         472
         4         457         458         474         473
         4         458         459         475         474
         4         459         460         476         475
         4         460         461         477         476
         4         461         462         478         477
         4         462         463         479         478
         4         464         465         481         480
         4         465         466         482         481
         4         466         467         483         482
         4         467         468         484         483
         4         468         469         485         484
         4         469         470         486         485
         4         470         471         487         486
         4         471         472         488         487
         4         472         473         489         488
         4         473         474         490         489
         4         474         475         491         490
         4         475         476         492         491
         4         476         477         493         492
         4         477         478         494         493
         4         478         479         495         494
CELL_TYPES        450
9
9
9
9
9
9
9
9
9
9
9
9
9
9
9
9
9
9
9
9
9
9
9
9
9
9
9
9
9
9
9
9
9
9
9
9
9
9
9
9
9
9
9
9
9
9
9
9
9
9
9
9
9
9
9
9
9
9
9
9
9
9
9
9
9
9
9
9
9
9
9
9
9
9
9
9
9
9
9
9
9
9
9
9
9
9
9
9
9
9
9
9
9
9
9
9
9
9
9
9
9
9
9
9
9
9
9
9
9
9
9
9
9
9
9
9
9
9
9
9
9
9
9
9
9
9
9
9
9
9
9
9
9
9
9
9
9
9
9
9
9
9
9
9
9
9
9
9
9
9
9
9
9
9
9
9
9
9
9
9
9
9
9
9
9
9
9
9
9
9
9
9
9
9
9
9
9
9
9
9
9
9
9
9
9
9
9
9
9
9
9
9
9
9
9
9
9
9
9
9
9
9
9
9
9
9
9
9
9
9
9
9
9
9
9
9
9
9
9
9
9
9
9
9
9
9
9
9
9
9
9
9
9
9
9
9
9
9
9
9
9
9
9
9
9
9
9
9
9
9
9
9
9
9
9
9
9
9
9
9
9
9
9
9
9
9
9
9
9
9
9
9
9
9
9
9
9
9
9
9
9
9
9
9
9
9
9
9
9
9
9
9
9
9
9
9
9
9
9
9
9
9
9
9
9
9
9
9
9
9
9
9
9
9
9
9
9
9
9
9
9
9
9
9
9
9
9
9
9
9
9
9
9
9
9
9
9
9
9
9
9
9
9
9
9
9
9
9
9
9
9
9
9
9
9
9
9
9
9
9
9
9
9
9
9
9
9
9
9
9
9
9
9
9
9
9
9
9
9
9
9
9
9
9
9
9
9
9
9
9
9
9
9
9
9
9
9
9
9
9
9
9
9
9
9
9
9
9
9
9
9
9
9
9
9
9
9
9
9
9
9
9
9
9
9
9
9
9
9
9
9
9
9
9
9
9
9
9
9
9
9
9
9
9
9
9
9
9
9
9
POINT_DATA       496
SCALARS p double 
LOOKUP_TABLE default
   64079705.6879531     
   64091448.7793814     
   64112142.9342853     
   64128279.9576196     
   64141981.5181880     
   64154007.5250688     
   64164918.4062089     
   64175047.8771736     
   64184610.5146198     
   64193768.1436992     
   64202685.3897708     
   64211583.4087430     
   64220825.9304428     
   64230906.2909985     
   64243643.3744644     
   64251130.6060701     
   62610487.6071175     
   62608697.8956080     
   62607957.3944303     
   62610499.1152102     
   62613505.4007521     
   62616560.8170649     
   62619515.1936690     
   62622340.5492580     
   62625036.1705392     
   62627607.3637581     
   62630056.7214854     
   62632372.7331721     
   62634469.6527223     
   62636140.8758767     
   62635417.5245338     
   62633984.4927776     
   61535701.2678809     
   61533523.9969330     
   61529326.9995090     
   61526112.2649558     
   61524105.9862466     
   61522695.7792360     
   61521599.6340052     
   61520666.0944762     
   61519812.7681054     
   61518982.7309284     
   61518117.3298962     
   61517124.8921037     
   61515847.0018792     
   61513897.7382873     
   61511571.4542779     
   61510460.0670454     
   60832820.6065806     
   60831667.2327072     
   60828851.6743547     
   60825603.2004312     
   60822660.2440653     
   60820109.7261840     
   60817836.6930894     
   60815750.5504139     
   60813788.4184263     
   60811903.3058632     
   60810049.1290244     
   60808170.9222600     
   60806201.7589756     
   60804220.9706487     
   60802640.6955681     
   60802025.0083891     
   60418493.0776169     
   60417997.8810506     
   60416577.3557599     
   60414557.9550826     
   60412375.3403901     
   60410256.5661962     
   60408257.2120408     
   60406369.5080720     
   60404575.8972704     
   60402859.5503940     
   60401206.1836794     
   60399608.9092596     
   60398100.3813905     
   60396803.8754070     
   60395937.4653410     
   60395643.9291353     
   60195021.3470179     
   60194808.6567190     
   60194142.5531502     
   60193082.1142894     
   60191808.8210701     
   60190472.0997508     
   60189150.1131231     
   60187872.4166922     
   60186647.8163660     
   60185479.4056930     
   60184371.8372837     
   60183340.5288953     
   60182425.6333298     
   60181701.3800422     
   60181253.7355225     
   60181109.0868368     
   60082316.4151292     
   60082219.5182008     
   60081913.7698613     
   60081409.5107117     
   60080770.4474041     
   60080065.4531275     
   60079343.1155411     
   60078630.4753038     
   60077941.4194977     
   60077284.6220376     
   60076669.2552875     
   60076110.0140192     
   60075631.3498334     
   60075266.4395966     
   60075045.1791419     
   60074973.4198680     
   60027033.5339919     
   60026995.9717574     
   60026879.3395086     
   60026685.1184320     
   60026430.0990694     
   60026137.2106033     
   60025826.4946230     
   60025512.0004758     
   60025203.0105359     
   60024906.5566085     
   60024629.7009599     
   60024381.2760860     
   60024172.5990186     
   60024016.0511246     
   60023921.0316789     
   60023889.7259201     
   59998083.4137288     
   59998087.0984250     
   59998092.4461631     
   59998089.0293228     
   59998070.3931642     
   59998035.2257683     
   59997985.4732900     
   59997924.5814078     
   59997856.6541136     
   59997786.1745239     
   59997717.8622007     
   59997656.4558659     
   59997606.2693227     
   59997570.3959770     
   59997549.8009703     
   59997543.2839159     
   59978635.8654533     
   59978676.1041124     
   59978781.1664317     
   59978920.4741432     
   59979068.4346851     
   59979207.5874062     
   59979328.5842935     
   59979428.6731258     
   59979509.6647369     
   59979575.8396131     
   59979632.0102908     
   59979681.8863743     
   59979726.8642007     
   59979765.3668701     
   59979792.9221208     
   59979803.2418545     
   59959488.7867400     
   59959568.1135604     
   59959774.0324829     
   59960045.9119096     
   59960335.3449306     
   59960609.5184461     
   59960850.8707093     
   59961054.4168973     
   59961223.8796747     
   59961367.4659582     
   59961493.8936792     
   59961609.1119268     
   59961714.0511182     
   59961803.6584703     
   59961867.3869646     
   59961891.1682203     
   59934780.7653149     
   59934907.0411528     
   59935228.9260424     
   59935641.2624651     
   59936064.5170970     
   59936447.9464357     
   59936767.5889043     
   59937020.9086455     
   59937219.7077633     
   59937382.5943001     
   59937527.9748406     
   59937668.2974033     
   59937806.1076868     
   59937932.3614883     
   59938027.2906872     
   59938063.8708934     
   59899511.4754433     
   59899695.8089021     
   59900154.0571195     
   59900714.6209884     
   59901254.4145126     
   59901701.0206237     
   59902027.2139097     
   59902240.7191790     
   59902371.7020059     
   59902459.9237145     
   59902542.9604916     
   59902646.5122736     
   59902777.6362922     
   59902921.6618394     
   59903043.4348973     
   59903093.2303962     
   59848124.1558937     
   59848377.0358867     
   59848983.9004165     
   59849675.1147754     
   59850267.8906925     
   59850665.4194755     
   59850844.7804804     
   59850838.2868916     
   59850712.1625895     
   59850545.3753389     
   59850410.4929932     
   59850357.8381937     
   59850404.0550271     
   59850526.3332403     
   59850663.6701071     
   59850726.3140432     
   59773610.3016125     
   59773934.2863681     
   59774670.3122581     
   59775407.9683822     
   59775886.4144523     
   59775986.3088512     
   59775705.6190006     
   59775126.9158732     
   59774382.1833976     
   59773619.1119074     
   59772971.0713517     
   59772531.9945747     
   59772337.3915989     
   59772353.4171023     
   59772476.7534811     
   59772548.2908127     
   59666828.6787388     
   59667205.1675101     
   59667978.1986289     
   59668542.8390893     
   59668543.7010268     
   59667851.7177844     
   59666518.5166008     
   59664720.8245569     
   59662704.1845048     
   59660731.2619156     
   59659036.6865739     
   59657788.7306911     
   59657058.5083731     
   59656799.3644522     
   59656841.6349952     
   59656909.5346775     
   59515886.8762349     
   59516253.3820789     
   59516829.9764404     
   59516756.0602189     
   59515575.8801595     
   59513185.6464231     
   59509750.7649637     
   59505613.7352538     
   59501206.9467521     
   59496976.8441122     
   59493319.5995279     
   59490525.5308803     
   59488730.7070458     
   59487878.7670280     
   59487702.0429847     
   59487735.9076506     
   59305516.2527994     
   59305729.1121382     
   59305624.2832155     
   59304027.3523127     
   59300404.4468654     
   59294753.5843352     
   59287458.4108010     
   59279138.8521191     
   59270520.5114163     
   59262329.5643863     
   59255207.9345657     
   59249638.3339495     
   59245871.5016527     
   59243857.4506811     
   59243195.5272832     
   59243129.8825098     
   59016402.5142547     
   59016177.7128870     
   59014483.0083876     
   59009798.0118377     
   59001593.5741785     
   58990120.2469895     
   58976154.0496964     
   58960758.6444945     
   58945097.2197596     
   58930298.2192884     
   58917356.8694519     
   58907045.3559896     
   58899810.0261080     
   58895652.0455545     
   58894013.5238749     
   58893716.6065941     
   58624430.0415107     
   58623250.8789951     
   58618370.6720215     
   58607963.0596163     
   58591706.5059350     
   58570383.6945751     
   58545443.6796335     
   58518629.4674895     
   58491720.4063934     
   58466383.0352407     
   58444084.6058767     
   58426008.7828402     
   58412923.4733719     
   58404982.6582801     
   58401490.8506382     
   58400709.4301810     
   58099763.9319702     
   58096736.5206982     
   58085983.0943936     
   58065573.3096772     
   58035824.2538595     
   57998550.1642831     
   57956311.9301483     
   57911845.2199091     
   57867734.1502343     
   57826293.3627305     
   57789556.5931925     
   57759250.2549196     
   57736649.7130415     
   57722267.4866933     
   57715401.5261128     
   57713665.8068853     
   57405624.6486014     
   57399246.1986926     
   57378205.2590582     
   57341007.0711761     
   57289464.3591811     
   57227291.9766505     
   57158825.9427970     
   57088172.3357095     
   57018853.1612130     
   56953830.2057949     
   56895697.8025171     
   56846822.9342819     
   56809244.8770259     
   56784218.1909210     
   56771402.2271790     
   56767865.6516536     
   56496486.5556502     
   56484256.6396645     
   56445753.5626377     
   56381148.7491245     
   56295401.3813189     
   56195606.3157926     
   56088828.6256266     
   55980915.1626145     
   55876261.2091293     
   55778206.4896401     
   55689661.9291562     
   55613609.4423955     
   55553171.2707213     
   55511010.4454320     
   55487971.5045265     
   55481145.6270753     
   55315202.3680036     
   55292928.6106621     
   55225249.9422606     
   55116671.2672917     
   54978439.9613165     
   54823481.9210865     
   54662835.1709983     
   54504234.4157518     
   54352414.2884812     
   54210306.4913017     
   54080443.0717622     
   53966105.8741846     
   53871818.1500134     
   53802726.2755967     
   53762501.2466933     
   53749821.2905944     
   53788091.9763929     
   53748549.4031464     
   53632173.7479302     
   53453582.5612496     
   53236285.3108671     
   53002906.2817575     
   52769691.7188049     
   52545642.6191586     
   52334377.1976892     
   52136808.2224406     
   51953682.5495712     
   51787696.3036637     
   51644879.4950699     
   51534419.5411493     
   51465833.2872566     
   51442948.6354506     
   51815982.3657172     
   51746072.4463158     
   51547190.1191831     
   51257008.0326768     
   50922720.1458241     
   50582004.2190649     
   50256263.3501534     
   49953159.3270305     
   49672233.8165139     
   49409787.6603031     
   49162483.4705056     
   48930570.6908263     
   48720886.5368522     
   48548473.3616039     
   48433855.5064307     
   48393460.6704280     
   49256527.0492384     
   49130504.3439707     
   48786872.6319667     
   48317605.1981500     
   47814818.4991132     
   47335796.9954222     
   46901502.8245645     
   46511583.4353545     
   46157000.0155070     
   45826212.9539341     
   45508952.0948612     
   45199704.4839591     
   44903359.2120839     
   44641429.5363799     
   44453398.4988879     
   44383381.7166648     
   45885145.8954244     
   45645034.9010469     
   45032616.8565759     
   44274261.7465976     
   43545196.9208547     
   42908996.0062128     
   42364536.9418512     
   41893652.2822281     
   41473850.9983415     
   41083233.0584195     
   40702358.0096991     
   40316536.7959115     
   39920804.0219441     
   39538495.6195582     
   39236838.4412506     
   39117063.9707137     
   41289356.8726605     
   40783556.7650534     
   39609027.5675829     
   38417844.9863803     
   37453355.4303075     
   36683113.3887090     
   36060732.0656960     
   35541415.9058197     
   35087638.2954556     
   34667613.2664325     
   34253515.8125673     
   33820556.0271543     
   33349877.1708475     
   32834773.8534794     
   32369686.7850648     
   32172448.6171407     
   34585448.7687171     
   32935382.8808137     
   30648926.7531078     
   29167339.8856150     
   28119306.1159131     
   27352409.6383498     
   26764543.6783560     
   26290904.7730921     
   25886264.2681170     
   25516234.5880794     
   25151771.0453799     
   24765768.1238361     
   24330448.2482369     
   23822934.6347119     
   23197665.9654016     
   22868031.8641434     
   10325000.0000000     
   10325000.0000000     
   10325000.0000000     
   10325000.0000000     
   10325000.0000000     
   10325000.0000000     
   10325000.0000000     
   10325000.0000000     
   10325000.0000000     
   10325000.0000000     
   10325000.0000000     
   10325000.0000000     
   10325000.0000000     
   10325000.0000000     
   10325000.0000000     
   10325000.0000000     
VECTORS u double 
    0.00000E+00         0.93433E+00         0.00000E+00
    0.00000E+00         0.86867E+00         0.00000E+00
    0.00000E+00         0.81395E+00         0.00000E+00
    0.00000E+00         0.76914E+00         0.00000E+00
    0.00000E+00         0.72946E+00         0.00000E+00
    0.00000E+00         0.69134E+00         0.00000E+00
    0.00000E+00         0.65212E+00         0.00000E+00
    0.00000E+00         0.60986E+00         0.00000E+00
    0.00000E+00         0.56315E+00         0.00000E+00
    0.00000E+00         0.51097E+00         0.00000E+00
    0.00000E+00         0.45252E+00         0.00000E+00
    0.00000E+00         0.38706E+00         0.00000E+00
    0.00000E+00         0.31363E+00         0.00000E+00
    0.00000E+00         0.23035E+00         0.00000E+00
    0.00000E+00         0.13273E+00         0.00000E+00
    0.00000E+00         0.00000E+00         0.00000E+00
    0.41423E+00         0.85607E+00         0.00000E+00
    0.34537E+00         0.82387E+00         0.00000E+00
    0.31772E+00         0.78521E+00         0.00000E+00
    0.29862E+00         0.74876E+00         0.00000E+00
    0.28190E+00         0.71412E+00         0.00000E+00
    0.26559E+00         0.67927E+00         0.00000E+00
    0.24914E+00         0.64228E+00         0.00000E+00
    0.23243E+00         0.60159E+00         0.00000E+00
    0.21548E+00         0.55600E+00         0.00000E+00
    0.19827E+00         0.50460E+00         0.00000E+00
    0.18066E+00         0.44663E+00         0.00000E+00
    0.16221E+00         0.38134E+00         0.00000E+00
    0.14183E+00         0.30771E+00         0.00000E+00
    0.11685E+00         0.22378E+00         0.00000E+00
    0.80320E-01         0.12484E+00         0.00000E+00
    0.00000E+00         0.00000E+00         0.00000E+00
    0.74766E+00         0.71971E+00         0.00000E+00
    0.64324E+00         0.72009E+00         0.00000E+00
    0.58553E+00         0.71052E+00         0.00000E+00
    0.54477E+00         0.69325E+00         0.00000E+00
    0.50923E+00         0.67124E+00         0.00000E+00
    0.47510E+00         0.64499E+00         0.00000E+00
    0.44107E+00         0.61405E+00         0.00000E+00
    0.40680E+00         0.57773E+00         0.00000E+00
    0.37222E+00         0.53534E+00         0.00000E+00
    0.33728E+00         0.48624E+00         0.00000E+00
    0.30167E+00         0.42984E+00         0.00000E+00
    0.26457E+00         0.36540E+00         0.00000E+00
    0.22404E+00         0.29192E+00         0.00000E+00
    0.17572E+00         0.20766E+00         0.00000E+00
    0.10859E+00         0.10981E+00         0.00000E+00
    0.00000E+00         0.00000E+00         0.00000E+00
    0.10205E+01         0.57589E+00         0.00000E+00
    0.90425E+00         0.59813E+00         0.00000E+00
    0.82299E+00         0.61181E+00         0.00000E+00
    0.75943E+00         0.61451E+00         0.00000E+00
    0.70316E+00         0.60765E+00         0.00000E+00
    0.64943E+00         0.59266E+00         0.00000E+00
    0.59642E+00         0.57014E+00         0.00000E+00
    0.54351E+00         0.54020E+00         0.00000E+00
    0.49051E+00         0.50272E+00         0.00000E+00
    0.43727E+00         0.45741E+00         0.00000E+00
    0.38337E+00         0.40389E+00         0.00000E+00
    0.32774E+00         0.34165E+00         0.00000E+00
    0.26812E+00         0.26997E+00         0.00000E+00
    0.19984E+00         0.18807E+00         0.00000E+00
    0.11445E+00         0.96442E-01         0.00000E+00
    0.00000E+00         0.00000E+00         0.00000E+00
    0.12571E+01         0.44091E+00         0.00000E+00
    0.11393E+01         0.47666E+00         0.00000E+00
    0.10416E+01         0.50572E+00         0.00000E+00
    0.95695E+00         0.52389E+00         0.00000E+00
    0.87927E+00         0.53074E+00         0.00000E+00
    0.80474E+00         0.52709E+00         0.00000E+00
    0.73156E+00         0.51377E+00         0.00000E+00
    0.65902E+00         0.49132E+00         0.00000E+00
    0.58686E+00         0.45999E+00         0.00000E+00
    0.51486E+00         0.41983E+00         0.00000E+00
    0.44255E+00         0.37073E+00         0.00000E+00
    0.36890E+00         0.31249E+00         0.00000E+00
    0.29185E+00         0.24497E+00         0.00000E+00
    0.20790E+00         0.16852E+00         0.00000E+00
    0.11215E+00         0.85119E-01         0.00000E+00
    0.00000E+00         0.00000E+00         0.00000E+00
    0.14765E+01         0.31725E+00         0.00000E+00
    0.13594E+01         0.36108E+00         0.00000E+00
    0.12493E+01         0.39958E+00         0.00000E+00
    0.11460E+01         0.42840E+00         0.00000E+00
    0.10474E+01         0.44596E+00         0.00000E+00
    0.95160E+00         0.45225E+00         0.00000E+00
    0.85753E+00         0.44781E+00         0.00000E+00
    0.76467E+00         0.43321E+00         0.00000E+00
    0.67282E+00         0.40886E+00         0.00000E+00
    0.58179E+00         0.37504E+00         0.00000E+00
    0.49120E+00         0.33189E+00         0.00000E+00
    0.40024E+00         0.27957E+00         0.00000E+00
    0.30750E+00         0.21844E+00         0.00000E+00
    0.21097E+00         0.14955E+00         0.00000E+00
    0.10863E+00         0.75280E-01         0.00000E+00
    0.00000E+00         0.00000E+00         0.00000E+00
    0.16911E+01         0.20145E+00         0.00000E+00
    0.15732E+01         0.25039E+00         0.00000E+00
    0.14520E+01         0.29468E+00         0.00000E+00
    0.13315E+01         0.33054E+00         0.00000E+00
    0.12128E+01         0.35600E+00         0.00000E+00
    0.10959E+01         0.37047E+00         0.00000E+00
    0.98076E+00         0.37410E+00         0.00000E+00
    0.86726E+00         0.36729E+00         0.00000E+00
    0.75548E+00         0.35046E+00         0.00000E+00
    0.64538E+00         0.32400E+00         0.00000E+00
    0.53678E+00         0.28823E+00         0.00000E+00
    0.42924E+00         0.24353E+00         0.00000E+00
    0.32209E+00         0.19059E+00         0.00000E+00
    0.21464E+00         0.13070E+00         0.00000E+00
    0.10677E+00         0.66079E-01         0.00000E+00
    0.00000E+00         0.00000E+00         0.00000E+00
    0.19088E+01         0.88172E-01         0.00000E+00
    0.17866E+01         0.14084E+00         0.00000E+00
    0.16539E+01         0.18903E+00         0.00000E+00
    0.15167E+01         0.22972E+00         0.00000E+00
    0.13784E+01         0.26107E+00         0.00000E+00
    0.12407E+01         0.28226E+00         0.00000E+00
    0.11045E+01         0.29316E+00         0.00000E+00
    0.97039E+00         0.29401E+00         0.00000E+00
    0.83872E+00         0.28515E+00         0.00000E+00
    0.70971E+00         0.26697E+00         0.00000E+00
    0.58343E+00         0.23985E+00         0.00000E+00
    0.45987E+00         0.20427E+00         0.00000E+00
    0.33905E+00         0.16098E+00         0.00000E+00
    0.22123E+00         0.11121E+00         0.00000E+00
    0.10743E+00         0.56776E-01         0.00000E+00
    0.00000E+00         0.00000E+00         0.00000E+00
    0.21343E+01        -0.28153E-01         0.00000E+00
    0.20037E+01         0.27821E-01         0.00000E+00
    0.18576E+01         0.79110E-01         0.00000E+00
    0.17033E+01         0.12353E+00         0.00000E+00
    0.15455E+01         0.15959E+00         0.00000E+00
    0.13872E+01         0.18657E+00         0.00000E+00
    0.12302E+01         0.20426E+00         0.00000E+00
    0.10757E+01         0.21278E+00         0.00000E+00
    0.92445E+00         0.21241E+00         0.00000E+00
    0.77683E+00         0.20343E+00         0.00000E+00
    0.63324E+00         0.18619E+00         0.00000E+00
    0.49404E+00         0.16111E+00         0.00000E+00
    0.35978E+00         0.12882E+00         0.00000E+00
    0.23141E+00         0.90272E-01         0.00000E+00
    0.11060E+00         0.46802E-01         0.00000E+00
    0.00000E+00         0.00000E+00         0.00000E+00
    0.23703E+01        -0.15284E+00         0.00000E+00
    0.22270E+01        -0.93525E-01         0.00000E+00
    0.20651E+01        -0.39292E-01         0.00000E+00
    0.18925E+01         0.84470E-02         0.00000E+00
    0.17148E+01         0.48753E-01         0.00000E+00
    0.15360E+01         0.81161E-01         0.00000E+00
    0.13585E+01         0.10557E+00         0.00000E+00
    0.11841E+01         0.12208E+00         0.00000E+00
    0.10136E+01         0.13089E+00         0.00000E+00
    0.84778E+00         0.13218E+00         0.00000E+00
    0.68724E+00         0.12615E+00         0.00000E+00
    0.53259E+00         0.11301E+00         0.00000E+00
    0.38479E+00         0.93137E-01         0.00000E+00
    0.24525E+00         0.67095E-01         0.00000E+00
    0.11605E+00         0.35712E-01         0.00000E+00
    0.00000E+00         0.00000E+00         0.00000E+00
    0.26186E+01        -0.29103E+00         0.00000E+00
    0.24582E+01        -0.22810E+00         0.00000E+00
    0.22775E+01        -0.17076E+00         0.00000E+00
    0.20848E+01        -0.11965E+00         0.00000E+00
    0.18866E+01        -0.75077E-01         0.00000E+00
    0.16872E+01        -0.37110E-01         0.00000E+00
    0.14896E+01        -0.56286E-02         0.00000E+00
    0.12957E+01         0.19542E-01         0.00000E+00
    0.11066E+01         0.38540E-01         0.00000E+00
    0.92314E+00         0.51415E-01         0.00000E+00
    0.74600E+00         0.58132E-01         0.00000E+00
    0.57600E+00         0.58617E-01         0.00000E+00
    0.41432E+00         0.52842E-01         0.00000E+00
    0.26272E+00         0.40911E-01         0.00000E+00
    0.12360E+00         0.23125E-01         0.00000E+00
    0.00000E+00         0.00000E+00         0.00000E+00
    0.28800E+01        -0.44786E+00         0.00000E+00
    0.26979E+01        -0.38095E+00         0.00000E+00
    0.24951E+01        -0.32017E+00         0.00000E+00
    0.22805E+01        -0.26534E+00         0.00000E+00
    0.20608E+01        -0.21613E+00         0.00000E+00
    0.18408E+01        -0.17207E+00         0.00000E+00
    0.16234E+01        -0.13274E+00         0.00000E+00
    0.14107E+01        -0.97851E-01         0.00000E+00
    0.12038E+01        -0.67286E-01         0.00000E+00
    0.10034E+01        -0.41163E-01         0.00000E+00
    0.81009E+00        -0.19803E-01         0.00000E+00
    0.62475E+00        -0.36706E-02         0.00000E+00
    0.44872E+00         0.67215E-02         0.00000E+00
    0.28399E+00         0.10926E-01         0.00000E+00
    0.13328E+00         0.86789E-02         0.00000E+00
    0.00000E+00         0.00000E+00         0.00000E+00
    0.31547E+01        -0.62870E+00         0.00000E+00
    0.29462E+01        -0.55737E+00         0.00000E+00
    0.27180E+01        -0.49269E+00         0.00000E+00
    0.24794E+01        -0.43364E+00         0.00000E+00
    0.22373E+01        -0.37910E+00         0.00000E+00
    0.19966E+01        -0.32807E+00         0.00000E+00
    0.17600E+01        -0.27974E+00         0.00000E+00
    0.15295E+01        -0.23365E+00         0.00000E+00
    0.13057E+01        -0.18972E+00         0.00000E+00
    0.10891E+01        -0.14826E+00         0.00000E+00
    0.88019E+00        -0.10993E+00         0.00000E+00
    0.67955E+00        -0.75667E-01         0.00000E+00
    0.48860E+00        -0.46562E-01         0.00000E+00
    0.30949E+00        -0.23704E-01         0.00000E+00
    0.14531E+00        -0.80040E-02         0.00000E+00
    0.00000E+00         0.00000E+00         0.00000E+00
    0.34425E+01        -0.83924E+00         0.00000E+00
    0.32023E+01        -0.76299E+00         0.00000E+00
    0.29451E+01        -0.69387E+00         0.00000E+00
    0.26805E+01        -0.62989E+00         0.00000E+00
    0.24154E+01        -0.56911E+00         0.00000E+00
    0.21541E+01        -0.50988E+00         0.00000E+00
    0.18993E+01        -0.45100E+00         0.00000E+00
    0.16520E+01        -0.39181E+00         0.00000E+00
    0.14127E+01        -0.33227E+00         0.00000E+00
    0.11811E+01        -0.27290E+00         0.00000E+00
    0.95722E+00        -0.21477E+00         0.00000E+00
    0.74140E+00        -0.15937E+00         0.00000E+00
    0.53489E+00        -0.10847E+00         0.00000E+00
    0.33996E+00        -0.63895E-01         0.00000E+00
    0.16011E+00        -0.27332E-01         0.00000E+00
    0.00000E+00         0.00000E+00         0.00000E+00
    0.37418E+01        -0.10856E+01         0.00000E+00
    0.34647E+01        -0.10038E+01         0.00000E+00
    0.31751E+01        -0.92959E+00         0.00000E+00
    0.28826E+01        -0.85980E+00         0.00000E+00
    0.25938E+01        -0.79159E+00         0.00000E+00
    0.23126E+01        -0.72261E+00         0.00000E+00
    0.20407E+01        -0.65122E+00         0.00000E+00
    0.17785E+01        -0.57659E+00         0.00000E+00
    0.15254E+01        -0.49870E+00         0.00000E+00
    0.12802E+01        -0.41834E+00         0.00000E+00
    0.10423E+01        -0.33705E+00         0.00000E+00
    0.81158E+00        -0.25694E+00         0.00000E+00
    0.58886E+00        -0.18056E+00         0.00000E+00
    0.37649E+00        -0.11064E+00         0.00000E+00
    0.17835E+00        -0.49753E-01         0.00000E+00
    0.00000E+00         0.00000E+00         0.00000E+00
    0.40505E+01        -0.13743E+01         0.00000E+00
    0.37309E+01        -0.12863E+01         0.00000E+00
    0.34053E+01        -0.12061E+01         0.00000E+00
    0.30834E+01        -0.11294E+01         0.00000E+00
    0.27709E+01        -0.10522E+01         0.00000E+00
    0.24709E+01        -0.97155E+00         0.00000E+00
    0.21839E+01        -0.88527E+00         0.00000E+00
    0.19090E+01        -0.79237E+00         0.00000E+00
    0.16442E+01        -0.69290E+00         0.00000E+00
    0.13874E+01        -0.58796E+00         0.00000E+00
    0.11369E+01        -0.47960E+00         0.00000E+00
    0.89167E+00        -0.37064E+00         0.00000E+00
    0.65211E+00        -0.26452E+00         0.00000E+00
    0.42042E+00        -0.16499E+00         0.00000E+00
    0.20088E+00        -0.75753E-01         0.00000E+00
    0.00000E+00         0.00000E+00         0.00000E+00
    0.43649E+01        -0.17124E+01         0.00000E+00
    0.39970E+01        -0.16172E+01         0.00000E+00
    0.36323E+01        -0.15299E+01         0.00000E+00
    0.32798E+01        -0.14448E+01         0.00000E+00
    0.29444E+01        -0.13568E+01         0.00000E+00
    0.26274E+01        -0.12620E+01         0.00000E+00
    0.23279E+01        -0.11580E+01         0.00000E+00
    0.20431E+01        -0.10435E+01         0.00000E+00
    0.17696E+01        -0.91875E+00         0.00000E+00
    0.15037E+01        -0.78512E+00         0.00000E+00
    0.12424E+01        -0.64524E+00         0.00000E+00
    0.98337E+00        -0.50274E+00         0.00000E+00
    0.72643E+00        -0.36204E+00         0.00000E+00
    0.47337E+00        -0.22807E+00         0.00000E+00
    0.22871E+00        -0.10586E+00         0.00000E+00
    0.00000E+00         0.00000E+00         0.00000E+00
    0.46798E+01        -0.21070E+01         0.00000E+00
    0.42579E+01        -0.20034E+01         0.00000E+00
    0.38513E+01        -0.19076E+01         0.00000E+00
    0.34680E+01        -0.18122E+01         0.00000E+00
    0.31110E+01        -0.17110E+01         0.00000E+00
    0.27797E+01        -0.15993E+01         0.00000E+00
    0.24711E+01        -0.14741E+01         0.00000E+00
    0.21803E+01        -0.13342E+01         0.00000E+00
    0.19017E+01        -0.11799E+01         0.00000E+00
    0.16299E+01        -0.10130E+01         0.00000E+00
    0.13600E+01        -0.83668E+00         0.00000E+00
    0.10884E+01        -0.65548E+00         0.00000E+00
    0.81371E+00        -0.47485E+00         0.00000E+00
    0.53708E+00        -0.30103E+00         0.00000E+00
    0.26302E+00        -0.14064E+00         0.00000E+00
    0.00000E+00         0.00000E+00         0.00000E+00
    0.49883E+01        -0.25656E+01         0.00000E+00
    0.45069E+01        -0.24519E+01         0.00000E+00
    0.40563E+01        -0.23456E+01         0.00000E+00
    0.36426E+01        -0.22376E+01         0.00000E+00
    0.32665E+01        -0.21202E+01         0.00000E+00
    0.29247E+01        -0.19880E+01         0.00000E+00
    0.26114E+01        -0.18376E+01         0.00000E+00
    0.23192E+01        -0.16679E+01         0.00000E+00
    0.20401E+01        -0.14793E+01         0.00000E+00
    0.17662E+01        -0.12742E+01         0.00000E+00
    0.14907E+01        -0.10563E+01         0.00000E+00
    0.12082E+01        -0.83087E+00         0.00000E+00
    0.91572E+00        -0.60457E+00         0.00000E+00
    0.61329E+00        -0.38503E+00         0.00000E+00
    0.30504E+00        -0.18069E+00         0.00000E+00
    0.00000E+00         0.00000E+00         0.00000E+00
    0.52812E+01        -0.30954E+01         0.00000E+00
    0.47352E+01        -0.29695E+01         0.00000E+00
    0.42394E+01        -0.28502E+01         0.00000E+00
    0.37971E+01        -0.27263E+01         0.00000E+00
    0.34056E+01        -0.25889E+01         0.00000E+00
    0.30583E+01        -0.24319E+01         0.00000E+00
    0.27459E+01        -0.22517E+01         0.00000E+00
    0.24578E+01        -0.20471E+01         0.00000E+00
    0.21833E+01        -0.18192E+01         0.00000E+00
    0.19120E+01        -0.15706E+01         0.00000E+00
    0.16346E+01        -0.13057E+01         0.00000E+00
    0.13436E+01        -0.10305E+01         0.00000E+00
    0.10338E+01        -0.75265E+00         0.00000E+00
    0.70352E+00        -0.48120E+00         0.00000E+00
    0.35591E+00        -0.22663E+00         0.00000E+00
    0.00000E+00         0.00000E+00         0.00000E+00
    0.55465E+01        -0.37035E+01         0.00000E+00
    0.49320E+01        -0.35625E+01         0.00000E+00
    0.43911E+01        -0.34268E+01         0.00000E+00
    0.39234E+01        -0.32829E+01         0.00000E+00
    0.35218E+01        -0.31206E+01         0.00000E+00
    0.31752E+01        -0.29334E+01         0.00000E+00
    0.28702E+01        -0.27177E+01         0.00000E+00
    0.25927E+01        -0.24728E+01         0.00000E+00
    0.23288E+01        -0.22002E+01         0.00000E+00
    0.20654E+01        -0.19029E+01         0.00000E+00
    0.17905E+01        -0.15858E+01         0.00000E+00
    0.14940E+01        -0.12555E+01         0.00000E+00
    0.11681E+01        -0.92020E+00         0.00000E+00
    0.80867E+00        -0.59055E+00         0.00000E+00
    0.41658E+00        -0.27911E+00         0.00000E+00
    0.00000E+00         0.00000E+00         0.00000E+00
    0.57695E+01        -0.43960E+01         0.00000E+00
    0.50835E+01        -0.42362E+01         0.00000E+00
    0.44996E+01        -0.40795E+01         0.00000E+00
    0.40118E+01        -0.39101E+01         0.00000E+00
    0.36072E+01        -0.37167E+01         0.00000E+00
    0.32689E+01        -0.34926E+01         0.00000E+00
    0.29788E+01        -0.32349E+01         0.00000E+00
    0.27189E+01        -0.29435E+01         0.00000E+00
    0.24719E+01        -0.26206E+01         0.00000E+00
    0.22221E+01        -0.22698E+01         0.00000E+00
    0.19549E+01        -0.18959E+01         0.00000E+00
    0.16571E+01        -0.15057E+01         0.00000E+00
    0.13176E+01        -0.11078E+01         0.00000E+00
    0.92853E+00        -0.71396E+00         0.00000E+00
    0.48747E+00        -0.33881E+00         0.00000E+00
    0.00000E+00         0.00000E+00         0.00000E+00
    0.59316E+01        -0.51779E+01         0.00000E+00
    0.51733E+01        -0.49942E+01         0.00000E+00
    0.45509E+01        -0.48105E+01         0.00000E+00
    0.40508E+01        -0.46084E+01         0.00000E+00
    0.36523E+01        -0.43758E+01         0.00000E+00
    0.33313E+01        -0.41066E+01         0.00000E+00
    0.30643E+01        -0.37991E+01         0.00000E+00
    0.28290E+01        -0.34546E+01         0.00000E+00
    0.26054E+01        -0.30761E+01         0.00000E+00
    0.23752E+01        -0.26674E+01         0.00000E+00
    0.21212E+01        -0.22333E+01         0.00000E+00
    0.18272E+01        -0.17798E+01         0.00000E+00
    0.14781E+01        -0.13154E+01         0.00000E+00
    0.10611E+01        -0.85205E+00         0.00000E+00
    0.56810E+00        -0.40641E+00         0.00000E+00
    0.00000E+00         0.00000E+00         0.00000E+00
    0.60102E+01        -0.60525E+01         0.00000E+00
    0.51815E+01        -0.58384E+01         0.00000E+00
    0.45286E+01        -0.56196E+01         0.00000E+00
    0.40273E+01        -0.53750E+01         0.00000E+00
    0.36461E+01        -0.50926E+01         0.00000E+00
    0.33526E+01        -0.47679E+01         0.00000E+00
    0.31167E+01        -0.44016E+01         0.00000E+00
    0.29127E+01        -0.39970E+01         0.00000E+00
    0.27181E+01        -0.35580E+01         0.00000E+00
    0.25129E+01        -0.30886E+01         0.00000E+00
    0.22781E+01        -0.25926E+01         0.00000E+00
    0.19944E+01        -0.20746E+01         0.00000E+00
    0.16419E+01        -0.15417E+01         0.00000E+00
    0.12014E+01        -0.10051E+01         0.00000E+00
    0.65658E+00        -0.48265E+00         0.00000E+00
    0.00000E+00         0.00000E+00         0.00000E+00
    0.59772E+01        -0.70204E+01         0.00000E+00
    0.50840E+01        -0.67672E+01         0.00000E+00
    0.44135E+01        -0.65023E+01         0.00000E+00
    0.39262E+01        -0.62021E+01         0.00000E+00
    0.35762E+01        -0.58559E+01         0.00000E+00
    0.33204E+01        -0.54631E+01         0.00000E+00
    0.31229E+01        -0.50279E+01         0.00000E+00
    0.29551E+01        -0.45561E+01         0.00000E+00
    0.27936E+01        -0.40529E+01         0.00000E+00
    0.26178E+01        -0.35218E+01         0.00000E+00
    0.24079E+01        -0.29649E+01         0.00000E+00
    0.21419E+01        -0.23843E+01         0.00000E+00
    0.17953E+01        -0.17840E+01         0.00000E+00
    0.13402E+01        -0.11728E+01         0.00000E+00
    0.74874E+00        -0.56827E+00         0.00000E+00
    0.00000E+00         0.00000E+00         0.00000E+00
    0.57978E+01        -0.80790E+01         0.00000E+00
    0.48518E+01        -0.77748E+01         0.00000E+00
    0.41838E+01        -0.74485E+01         0.00000E+00
    0.37308E+01        -0.70745E+01         0.00000E+00
    0.34274E+01        -0.66465E+01         0.00000E+00
    0.32189E+01        -0.61704E+01         0.00000E+00
    0.30646E+01        -0.56557E+01         0.00000E+00
    0.29352E+01        -0.51110E+01         0.00000E+00
    0.28083E+01        -0.45419E+01         0.00000E+00
    0.26645E+01        -0.39507E+01         0.00000E+00
    0.24842E+01        -0.33372E+01         0.00000E+00
    0.22445E+01        -0.26998E+01         0.00000E+00
    0.19160E+01        -0.20375E+01         0.00000E+00
    0.14615E+01        -0.13540E+01         0.00000E+00
    0.83684E+00        -0.66407E+00         0.00000E+00
    0.00000E+00         0.00000E+00         0.00000E+00
    0.54279E+01        -0.92204E+01         0.00000E+00
    0.44499E+01        -0.88487E+01         0.00000E+00
    0.38148E+01        -0.84387E+01         0.00000E+00
    0.34223E+01        -0.79655E+01         0.00000E+00
    0.31810E+01        -0.74331E+01         0.00000E+00
    0.30257E+01        -0.68577E+01         0.00000E+00
    0.29151E+01        -0.62546E+01         0.00000E+00
    0.28224E+01        -0.56338E+01         0.00000E+00
    0.27284E+01        -0.50001E+01         0.00000E+00
    0.26165E+01        -0.43538E+01         0.00000E+00
    0.24692E+01        -0.36916E+01         0.00000E+00
    0.22642E+01        -0.30075E+01         0.00000E+00
    0.19697E+01        -0.22939E+01         0.00000E+00
    0.15390E+01        -0.15460E+01         0.00000E+00
    0.90725E+00        -0.77077E+00         0.00000E+00
    0.00000E+00         0.00000E+00         0.00000E+00
    0.48084E+01        -0.10429E+02         0.00000E+00
    0.38353E+01        -0.99651E+01         0.00000E+00
    0.32798E+01        -0.94373E+01         0.00000E+00
    0.29781E+01        -0.88294E+01         0.00000E+00
    0.28089E+01        -0.81672E+01         0.00000E+00
    0.27055E+01        -0.74801E+01         0.00000E+00
    0.26332E+01        -0.67854E+01         0.00000E+00
    0.25713E+01        -0.60910E+01         0.00000E+00
    0.25054E+01        -0.53986E+01         0.00000E+00
    0.24230E+01        -0.47054E+01         0.00000E+00
    0.23100E+01        -0.40051E+01         0.00000E+00
    0.21472E+01        -0.32878E+01         0.00000E+00
    0.19043E+01        -0.25393E+01         0.00000E+00
    0.15296E+01        -0.17426E+01         0.00000E+00
    0.93600E+00        -0.88863E+00         0.00000E+00
    0.00000E+00         0.00000E+00         0.00000E+00
    0.38543E+01        -0.11676E+02         0.00000E+00
    0.29559E+01        -0.11079E+02         0.00000E+00
    0.25501E+01        -0.10374E+02         0.00000E+00
    0.23607E+01        -0.95859E+01         0.00000E+00
    0.22583E+01        -0.87791E+01         0.00000E+00
    0.21962E+01        -0.79819E+01         0.00000E+00
    0.21519E+01        -0.72041E+01         0.00000E+00
    0.21123E+01        -0.64468E+01         0.00000E+00
    0.20685E+01        -0.57068E+01         0.00000E+00
    0.20120E+01        -0.49781E+01         0.00000E+00
    0.19332E+01        -0.42518E+01         0.00000E+00
    0.18177E+01        -0.35153E+01         0.00000E+00
    0.16420E+01        -0.27505E+01         0.00000E+00
    0.13619E+01        -0.19302E+01         0.00000E+00
    0.87870E+00        -0.10155E+01         0.00000E+00
    0.00000E+00         0.00000E+00         0.00000E+00
    0.24163E+01        -0.12923E+02         0.00000E+00
    0.17598E+01        -0.12078E+02         0.00000E+00
    0.15678E+01        -0.11090E+02         0.00000E+00
    0.14713E+01        -0.10114E+02         0.00000E+00
    0.14169E+01        -0.91850E+01         0.00000E+00
    0.13818E+01        -0.83050E+01         0.00000E+00
    0.13556E+01        -0.74688E+01         0.00000E+00
    0.13320E+01        -0.66693E+01         0.00000E+00
    0.13062E+01        -0.58987E+01         0.00000E+00
    0.12740E+01        -0.51480E+01         0.00000E+00
    0.12300E+01        -0.44069E+01         0.00000E+00
    0.11664E+01        -0.36618E+01         0.00000E+00
    0.10704E+01        -0.28938E+01         0.00000E+00
    0.91565E+00        -0.20734E+01         0.00000E+00
    0.64300E+00        -0.11436E+01         0.00000E+00
    0.00000E+00         0.00000E+00         0.00000E+00
    0.00000E+00        -0.13882E+02         0.00000E+00
    0.00000E+00        -0.12519E+02         0.00000E+00
    0.00000E+00        -0.11343E+02         0.00000E+00
    0.00000E+00        -0.10289E+02         0.00000E+00
    0.00000E+00        -0.93168E+01         0.00000E+00
    0.00000E+00        -0.84087E+01         0.00000E+00
    0.00000E+00        -0.75532E+01         0.00000E+00
    0.00000E+00        -0.67399E+01         0.00000E+00
    0.00000E+00        -0.59593E+01         0.00000E+00
    0.00000E+00        -0.52015E+01         0.00000E+00
    0.00000E+00        -0.44555E+01         0.00000E+00
    0.00000E+00        -0.37078E+01         0.00000E+00
    0.00000E+00        -0.29397E+01         0.00000E+00
    0.00000E+00        -0.21218E+01         0.00000E+00
    0.00000E+00        -0.12013E+01         0.00000E+00
    0.00000E+00         0.00000E+00         0.00000E+00
CELL_DATA        450
VECTORS vDarcy double 
    0.10098E-05         0.34047E-08         0.00000E+00
    0.10010E-05         0.66873E-08         0.00000E+00
    0.10008E-05         0.61862E-08         0.00000E+00
    0.10002E-05         0.54858E-08         0.00000E+00
    0.99963E-06         0.49172E-08         0.00000E+00
    0.99907E-06         0.44933E-08         0.00000E+00
    0.99853E-06         0.41754E-08         0.00000E+00
    0.99801E-06         0.39308E-08         0.00000E+00
    0.99753E-06         0.37431E-08         0.00000E+00
    0.99707E-06         0.36107E-08         0.00000E+00
    0.99664E-06         0.35460E-08         0.00000E+00
    0.99625E-06         0.35687E-08         0.00000E+00
    0.99585E-06         0.36789E-08         0.00000E+00
    0.99593E-06         0.37355E-08         0.00000E+00
    0.99097E-06         0.18601E-08         0.00000E+00
    0.70584E-06        -0.13024E-08         0.00000E+00
    0.70034E-06        -0.16055E-08         0.00000E+00
    0.69679E-06        -0.21680E-09         0.00000E+00
    0.69490E-06         0.31967E-09         0.00000E+00
    0.69330E-06         0.52244E-09         0.00000E+00
    0.69187E-06         0.58658E-09         0.00000E+00
    0.69054E-06         0.59391E-09         0.00000E+00
    0.68928E-06         0.57541E-09         0.00000E+00
    0.68810E-06         0.54118E-09         0.00000E+00
    0.68698E-06         0.49003E-09         0.00000E+00
    0.68590E-06         0.40761E-09         0.00000E+00
    0.68482E-06         0.25108E-09         0.00000E+00
    0.68369E-06        -0.84831E-10         0.00000E+00
    0.68162E-06        -0.92547E-09         0.00000E+00
    0.67912E-06        -0.76888E-09         0.00000E+00
    0.44699E-06        -0.10598E-08         0.00000E+00
    0.44490E-06        -0.22248E-08         0.00000E+00
    0.44202E-06        -0.20392E-08         0.00000E+00
    0.43966E-06        -0.15521E-08         0.00000E+00
    0.43775E-06        -0.12349E-08         0.00000E+00
    0.43604E-06        -0.10446E-08         0.00000E+00
    0.43446E-06        -0.93131E-09         0.00000E+00
    0.43297E-06        -0.86397E-09         0.00000E+00
    0.43157E-06        -0.82922E-09         0.00000E+00
    0.43023E-06        -0.82680E-09         0.00000E+00
    0.42894E-06        -0.86895E-09         0.00000E+00
    0.42764E-06        -0.97884E-09         0.00000E+00
    0.42621E-06        -0.11801E-08         0.00000E+00
    0.42466E-06        -0.11694E-08         0.00000E+00
    0.42370E-06        -0.51628E-09         0.00000E+00
    0.25848E-06        -0.51465E-09         0.00000E+00
    0.25775E-06        -0.13220E-08         0.00000E+00
    0.25612E-06        -0.16388E-08         0.00000E+00
    0.25435E-06        -0.15873E-08         0.00000E+00
    0.25272E-06        -0.14388E-08         0.00000E+00
    0.25122E-06        -0.13098E-08         0.00000E+00
    0.24982E-06        -0.12122E-08         0.00000E+00
    0.24850E-06        -0.11401E-08         0.00000E+00
    0.24725E-06        -0.10882E-08         0.00000E+00
    0.24606E-06        -0.10553E-08         0.00000E+00
    0.24492E-06        -0.10414E-08         0.00000E+00
    0.24381E-06        -0.10382E-08         0.00000E+00
    0.24273E-06        -0.97544E-09         0.00000E+00
    0.24182E-06        -0.72676E-09         0.00000E+00
    0.24145E-06        -0.27000E-09         0.00000E+00
    0.13808E-06        -0.21883E-09         0.00000E+00
    0.13776E-06        -0.64507E-09         0.00000E+00
    0.13692E-06        -0.94996E-09         0.00000E+00
    0.13585E-06        -0.10621E-08         0.00000E+00
    0.13473E-06        -0.10573E-08         0.00000E+00
    0.13365E-06        -0.10114E-08         0.00000E+00
    0.13263E-06        -0.95934E-09         0.00000E+00
    0.13165E-06        -0.91046E-09         0.00000E+00
    0.13073E-06        -0.86631E-09         0.00000E+00
    0.12985E-06        -0.82565E-09         0.00000E+00
    0.12902E-06        -0.78307E-09         0.00000E+00
    0.12825E-06        -0.71957E-09         0.00000E+00
    0.12758E-06        -0.59846E-09         0.00000E+00
    0.12709E-06        -0.38856E-09         0.00000E+00
    0.12690E-06        -0.12955E-09         0.00000E+00
    0.69381E-07        -0.95339E-10         0.00000E+00
    0.69187E-07        -0.29908E-09         0.00000E+00
    0.68746E-07        -0.48042E-09         0.00000E+00
    0.68143E-07        -0.58512E-09         0.00000E+00
    0.67472E-07        -0.62209E-09         0.00000E+00
    0.66791E-07        -0.62005E-09         0.00000E+00
    0.66128E-07        -0.60086E-09         0.00000E+00
    0.65493E-07        -0.57505E-09         0.00000E+00
    0.64891E-07        -0.54605E-09         0.00000E+00
    0.64326E-07        -0.51334E-09         0.00000E+00
    0.63802E-07        -0.47215E-09         0.00000E+00
    0.63334E-07        -0.41238E-09         0.00000E+00
    0.62946E-07        -0.32153E-09         0.00000E+00
    0.62679E-07        -0.19717E-09         0.00000E+00
    0.62563E-07        -0.63761E-10         0.00000E+00
    0.34020E-07        -0.41394E-10         0.00000E+00
    0.33882E-07        -0.12979E-09         0.00000E+00
    0.33630E-07        -0.21401E-09         0.00000E+00
    0.33292E-07        -0.27292E-09         0.00000E+00
    0.32906E-07        -0.30329E-09         0.00000E+00
    0.32504E-07        -0.31252E-09         0.00000E+00
    0.32107E-07        -0.30926E-09         0.00000E+00
    0.31725E-07        -0.29911E-09         0.00000E+00
    0.31363E-07        -0.28441E-09         0.00000E+00
    0.31026E-07        -0.26511E-09         0.00000E+00
    0.30719E-07        -0.23910E-09         0.00000E+00
    0.30452E-07        -0.20284E-09         0.00000E+00
    0.30236E-07        -0.15351E-09         0.00000E+00
    0.30088E-07        -0.92954E-10         0.00000E+00
    0.30015E-07        -0.30266E-10         0.00000E+00
    0.17840E-07        -0.10446E-10         0.00000E+00
    0.17735E-07        -0.34207E-10         0.00000E+00
    0.17572E-07        -0.60520E-10         0.00000E+00
    0.17365E-07        -0.83433E-10         0.00000E+00
    0.17133E-07        -0.99546E-10         0.00000E+00
    0.16892E-07        -0.10884E-09         0.00000E+00
    0.16654E-07        -0.11279E-09         0.00000E+00
    0.16426E-07        -0.11270E-09         0.00000E+00
    0.16211E-07        -0.10921E-09         0.00000E+00
    0.16014E-07        -0.10230E-09         0.00000E+00
    0.15836E-07        -0.91477E-10         0.00000E+00
    0.15683E-07        -0.76180E-10         0.00000E+00
    0.15560E-07        -0.56479E-10         0.00000E+00
    0.15473E-07        -0.33870E-10         0.00000E+00
    0.15426E-07        -0.11067E-10         0.00000E+00
    0.12013E-07         0.13579E-10         0.00000E+00
    0.11918E-07         0.33981E-10         0.00000E+00
    0.11786E-07         0.41621E-10         0.00000E+00
    0.11631E-07         0.39406E-10         0.00000E+00
    0.11465E-07         0.31516E-10         0.00000E+00
    0.11300E-07         0.21476E-10         0.00000E+00
    0.11140E-07         0.11753E-10         0.00000E+00
    0.10991E-07         0.38972E-11         0.00000E+00
    0.10853E-07        -0.12779E-11         0.00000E+00
    0.10727E-07        -0.35884E-11         0.00000E+00
    0.10615E-07        -0.33941E-11         0.00000E+00
    0.10517E-07        -0.15279E-11         0.00000E+00
    0.10438E-07         0.76908E-12         0.00000E+00
    0.10379E-07         0.20314E-11         0.00000E+00
    0.10344E-07         0.11081E-11         0.00000E+00
    0.11863E-07         0.37078E-10         0.00000E+00
    0.11751E-07         0.95875E-10         0.00000E+00
    0.11609E-07         0.12601E-09         0.00000E+00
    0.11455E-07         0.13323E-09         0.00000E+00
    0.11302E-07         0.12513E-09         0.00000E+00
    0.11157E-07         0.10904E-09         0.00000E+00
    0.11026E-07         0.90844E-10         0.00000E+00
    0.10908E-07         0.74520E-10         0.00000E+00
    0.10802E-07         0.62089E-10         0.00000E+00
    0.10707E-07         0.53792E-10         0.00000E+00
    0.10622E-07         0.48427E-10         0.00000E+00
    0.10545E-07         0.43810E-10         0.00000E+00
    0.10479E-07         0.37318E-10         0.00000E+00
    0.10427E-07         0.26523E-10         0.00000E+00
    0.10393E-07         0.98898E-11         0.00000E+00
    0.15360E-07         0.63967E-10         0.00000E+00
    0.15198E-07         0.16302E-09         0.00000E+00
    0.15009E-07         0.20980E-09         0.00000E+00
    0.14819E-07         0.21697E-09         0.00000E+00
    0.14643E-07         0.19882E-09         0.00000E+00
    0.14489E-07         0.16848E-09         0.00000E+00
    0.14359E-07         0.13634E-09         0.00000E+00
    0.14250E-07         0.10924E-09         0.00000E+00
    0.14156E-07         0.90404E-10         0.00000E+00
    0.14072E-07         0.79768E-10         0.00000E+00
    0.13994E-07         0.74647E-10         0.00000E+00
    0.13920E-07         0.70620E-10         0.00000E+00
    0.13851E-07         0.62576E-10         0.00000E+00
    0.13791E-07         0.45860E-10         0.00000E+00
    0.13747E-07         0.17408E-10         0.00000E+00
    0.21996E-07         0.96939E-10         0.00000E+00
    0.21743E-07         0.24133E-09         0.00000E+00
    0.21469E-07         0.29839E-09         0.00000E+00
    0.21212E-07         0.29294E-09         0.00000E+00
    0.20992E-07         0.25050E-09         0.00000E+00
    0.20816E-07         0.19347E-09         0.00000E+00
    0.20681E-07         0.13887E-09         0.00000E+00
    0.20579E-07         0.97468E-10         0.00000E+00
    0.20497E-07         0.73770E-10         0.00000E+00
    0.20424E-07         0.66734E-10         0.00000E+00
    0.20351E-07         0.70893E-10         0.00000E+00
    0.20272E-07         0.77827E-10         0.00000E+00
    0.20189E-07         0.77909E-10         0.00000E+00
    0.20109E-07         0.62257E-10         0.00000E+00
    0.20044E-07         0.24749E-10         0.00000E+00
    0.32139E-07         0.13682E-09         0.00000E+00
    0.31736E-07         0.32982E-09         0.00000E+00
    0.31335E-07         0.38377E-09         0.00000E+00
    0.30986E-07         0.34397E-09         0.00000E+00
    0.30713E-07         0.25412E-09         0.00000E+00
    0.30520E-07         0.15095E-09         0.00000E+00
    0.30398E-07         0.61342E-10         0.00000E+00
    0.30326E-07         0.14296E-11         0.00000E+00
    0.30280E-07        -0.22969E-10         0.00000E+00
    0.30238E-07        -0.15067E-10         0.00000E+00
    0.30182E-07         0.14711E-10         0.00000E+00
    0.30103E-07         0.51007E-10         0.00000E+00
    0.30002E-07         0.76260E-10         0.00000E+00
    0.29890E-07         0.73917E-10         0.00000E+00
    0.29787E-07         0.31975E-10         0.00000E+00
    0.46697E-07         0.18084E-09         0.00000E+00
    0.46066E-07         0.41586E-09         0.00000E+00
    0.45487E-07         0.43744E-09         0.00000E+00
    0.45028E-07         0.32449E-09         0.00000E+00
    0.44713E-07         0.14921E-09         0.00000E+00
    0.44540E-07        -0.30124E-10         0.00000E+00
    0.44480E-07        -0.17255E-09         0.00000E+00
    0.44496E-07        -0.25486E-09         0.00000E+00
    0.44543E-07        -0.27026E-09         0.00000E+00
    0.44582E-07        -0.22611E-09         0.00000E+00
    0.44580E-07        -0.14119E-09         0.00000E+00
    0.44521E-07        -0.42377E-10         0.00000E+00
    0.44402E-07         0.39305E-10         0.00000E+00
    0.44243E-07         0.73759E-10         0.00000E+00
    0.44077E-07         0.37824E-10         0.00000E+00
    0.66966E-07         0.21970E-09         0.00000E+00
    0.66000E-07         0.46667E-09         0.00000E+00
    0.65192E-07         0.39755E-09         0.00000E+00
    0.64623E-07         0.14460E-09         0.00000E+00
    0.64314E-07        -0.17672E-09         0.00000E+00
    0.64241E-07        -0.47707E-09         0.00000E+00
    0.64347E-07        -0.69635E-09         0.00000E+00
    0.64562E-07        -0.80276E-09         0.00000E+00
    0.64811E-07        -0.78962E-09         0.00000E+00
    0.65025E-07        -0.67157E-09         0.00000E+00
    0.65150E-07        -0.48063E-09         0.00000E+00
    0.65153E-07        -0.26195E-09         0.00000E+00
    0.65028E-07        -0.68489E-10         0.00000E+00
    0.64802E-07         0.46420E-10         0.00000E+00
    0.64533E-07         0.38908E-10         0.00000E+00
    0.94549E-07         0.23269E-09         0.00000E+00
    0.93108E-07         0.41596E-09         0.00000E+00
    0.92024E-07         0.14907E-09         0.00000E+00
    0.91385E-07        -0.35363E-09         0.00000E+00
    0.91190E-07        -0.91364E-09         0.00000E+00
    0.91373E-07        -0.13989E-08         0.00000E+00
    0.91829E-07        -0.17253E-08         0.00000E+00
    0.92437E-07        -0.18520E-08         0.00000E+00
    0.93073E-07        -0.17750E-08         0.00000E+00
    0.93626E-07        -0.15208E-08         0.00000E+00
    0.94005E-07        -0.11411E-08         0.00000E+00
    0.94151E-07        -0.70841E-09         0.00000E+00
    0.94049E-07        -0.30985E-09         0.00000E+00
    0.93733E-07        -0.37280E-10         0.00000E+00
    0.93294E-07         0.28063E-10         0.00000E+00
    0.13127E-06         0.18069E-09         0.00000E+00
    0.12918E-06         0.14451E-09         0.00000E+00
    0.12780E-06        -0.50371E-09         0.00000E+00
    0.12721E-06        -0.14279E-08         0.00000E+00
    0.12733E-06        -0.23613E-08         0.00000E+00
    0.12804E-06        -0.31174E-08         0.00000E+00
    0.12915E-06        -0.35850E-08         0.00000E+00
    0.13047E-06        -0.37172E-08         0.00000E+00
    0.13179E-06        -0.35178E-08         0.00000E+00
    0.13294E-06        -0.30311E-08         0.00000E+00
    0.13378E-06        -0.23360E-08         0.00000E+00
    0.13422E-06        -0.15431E-08         0.00000E+00
    0.13420E-06        -0.78993E-09         0.00000E+00
    0.13376E-06        -0.22963E-09         0.00000E+00
    0.13305E-06        -0.86447E-11         0.00000E+00
    0.17906E-06        -0.36954E-11         0.00000E+00
    0.17615E-06        -0.54586E-09         0.00000E+00
    0.17452E-06        -0.18728E-08         0.00000E+00
    0.17419E-06        -0.34739E-08         0.00000E+00
    0.17499E-06        -0.49659E-08         0.00000E+00
    0.17667E-06        -0.60985E-08         0.00000E+00
    0.17891E-06        -0.67382E-08         0.00000E+00
    0.18141E-06        -0.68414E-08         0.00000E+00
    0.18386E-06        -0.64292E-08         0.00000E+00
    0.18601E-06        -0.55710E-08         0.00000E+00
    0.18765E-06        -0.43795E-08         0.00000E+00
    0.18859E-06        -0.30130E-08         0.00000E+00
    0.18877E-06        -0.16782E-08         0.00000E+00
    0.18819E-06        -0.62079E-09         0.00000E+00
    0.18704E-06        -0.97073E-10         0.00000E+00
    0.23982E-06        -0.42897E-09         0.00000E+00
    0.23588E-06        -0.19656E-08         0.00000E+00
    0.23417E-06        -0.44292E-08         0.00000E+00
    0.23454E-06        -0.70677E-08         0.00000E+00
    0.23662E-06        -0.93537E-08         0.00000E+00
    0.23993E-06        -0.10976E-07         0.00000E+00
    0.24400E-06        -0.11799E-07         0.00000E+00
    0.24834E-06        -0.11806E-07         0.00000E+00
    0.25256E-06        -0.11051E-07         0.00000E+00
    0.25629E-06        -0.96368E-08         0.00000E+00
    0.25920E-06        -0.77102E-08         0.00000E+00
    0.26103E-06        -0.54801E-08         0.00000E+00
    0.26160E-06        -0.32377E-08         0.00000E+00
    0.26088E-06        -0.13613E-08         0.00000E+00
    0.25906E-06        -0.28346E-09         0.00000E+00
    0.31511E-06        -0.12610E-08         0.00000E+00
    0.31006E-06        -0.45777E-08         0.00000E+00
    0.30865E-06        -0.88501E-08         0.00000E+00
    0.31044E-06        -0.13004E-07         0.00000E+00
    0.31469E-06        -0.16352E-07         0.00000E+00
    0.32062E-06        -0.18552E-07         0.00000E+00
    0.32746E-06        -0.19518E-07         0.00000E+00
    0.33457E-06        -0.19306E-07         0.00000E+00
    0.34140E-06        -0.18035E-07         0.00000E+00
    0.34747E-06        -0.15845E-07         0.00000E+00
    0.35235E-06        -0.12902E-07         0.00000E+00
    0.35561E-06        -0.94491E-08         0.00000E+00
    0.35693E-06        -0.58629E-08         0.00000E+00
    0.35611E-06        -0.26947E-08         0.00000E+00
    0.35332E-06        -0.64769E-09         0.00000E+00
    0.40594E-06        -0.27437E-08         0.00000E+00
    0.39984E-06        -0.90465E-08         0.00000E+00
    0.39950E-06        -0.16067E-07         0.00000E+00
    0.40387E-06        -0.22320E-07         0.00000E+00
    0.41165E-06        -0.26974E-07         0.00000E+00
    0.42152E-06        -0.29746E-07         0.00000E+00
    0.43239E-06        -0.30704E-07         0.00000E+00
    0.44339E-06        -0.30070E-07         0.00000E+00
    0.45387E-06        -0.28072E-07         0.00000E+00
    0.46327E-06        -0.24882E-07         0.00000E+00
    0.47102E-06        -0.20648E-07         0.00000E+00
    0.47653E-06        -0.15587E-07         0.00000E+00
    0.47915E-06        -0.10122E-07         0.00000E+00
    0.47844E-06        -0.50034E-08         0.00000E+00
    0.47431E-06        -0.13233E-08         0.00000E+00
    0.51228E-06        -0.52259E-08         0.00000E+00
    0.50560E-06        -0.16296E-07         0.00000E+00
    0.50768E-06        -0.27312E-07         0.00000E+00
    0.51647E-06        -0.36289E-07         0.00000E+00
    0.52968E-06        -0.42350E-07         0.00000E+00
    0.54525E-06        -0.45464E-07         0.00000E+00
    0.56164E-06        -0.46063E-07         0.00000E+00
    0.57783E-06        -0.44681E-07         0.00000E+00
    0.59312E-06        -0.41724E-07         0.00000E+00
    0.60697E-06        -0.37381E-07         0.00000E+00
    0.61875E-06        -0.31690E-07         0.00000E+00
    0.62761E-06        -0.24712E-07         0.00000E+00
    0.63249E-06        -0.16801E-07         0.00000E+00
    0.63234E-06        -0.88680E-08         0.00000E+00
    0.62655E-06        -0.25261E-08         0.00000E+00
    0.63266E-06        -0.92005E-08         0.00000E+00
    0.62655E-06        -0.27584E-07         0.00000E+00
    0.63343E-06        -0.44145E-07         0.00000E+00
    0.64942E-06        -0.56347E-07         0.00000E+00
    0.67066E-06        -0.63536E-07         0.00000E+00
    0.69407E-06        -0.66334E-07         0.00000E+00
    0.71763E-06        -0.65890E-07         0.00000E+00
    0.74027E-06        -0.63275E-07         0.00000E+00
    0.76148E-06        -0.59151E-07         0.00000E+00
    0.78094E-06        -0.53685E-07         0.00000E+00
    0.79806E-06        -0.46655E-07         0.00000E+00
    0.81177E-06        -0.37731E-07         0.00000E+00
    0.82037E-06        -0.26926E-07         0.00000E+00
    0.82180E-06        -0.15141E-07         0.00000E+00
    0.81427E-06        -0.45947E-08         0.00000E+00
    0.76356E-06        -0.15367E-07         0.00000E+00
    0.76045E-06        -0.44611E-07         0.00000E+00
    0.77609E-06        -0.68445E-07         0.00000E+00
    0.80343E-06        -0.83883E-07         0.00000E+00
    0.83613E-06        -0.91138E-07         0.00000E+00
    0.86975E-06        -0.92242E-07         0.00000E+00
    0.90198E-06        -0.89607E-07         0.00000E+00
    0.93203E-06        -0.85099E-07         0.00000E+00
    0.95996E-06        -0.79695E-07         0.00000E+00
    0.98594E-06        -0.73469E-07         0.00000E+00
    0.10097E-05        -0.65747E-07         0.00000E+00
    0.10302E-05        -0.55446E-07         0.00000E+00
    0.10447E-05        -0.41730E-07         0.00000E+00
    0.10497E-05        -0.25021E-07         0.00000E+00
    0.10411E-05        -0.80429E-08         0.00000E+00
    0.89863E-06        -0.24747E-07         0.00000E+00
    0.90328E-06        -0.69669E-07         0.00000E+00
    0.93428E-06        -0.10229E-06         0.00000E+00
    0.97898E-06        -0.11973E-06         0.00000E+00
    0.10273E-05        -0.12456E-06         0.00000E+00
    0.10733E-05        -0.12158E-06         0.00000E+00
    0.11151E-05        -0.11513E-06         0.00000E+00
    0.11528E-05        -0.10798E-06         0.00000E+00
    0.11875E-05        -0.10137E-06         0.00000E+00
    0.12204E-05        -0.95191E-07         0.00000E+00
    0.12518E-05        -0.88187E-07         0.00000E+00
    0.12811E-05        -0.78114E-07         0.00000E+00
    0.13049E-05        -0.62456E-07         0.00000E+00
    0.13170E-05        -0.40094E-07         0.00000E+00
    0.13096E-05        -0.13626E-07         0.00000E+00
    0.10277E-05        -0.38909E-07         0.00000E+00
    0.10491E-05        -0.10588E-06         0.00000E+00
    0.11065E-05        -0.14743E-06         0.00000E+00
    0.11768E-05        -0.16290E-06         0.00000E+00
    0.12449E-05        -0.16060E-06         0.00000E+00
    0.13044E-05        -0.15019E-06         0.00000E+00
    0.13554E-05        -0.13821E-06         0.00000E+00
    0.13999E-05        -0.12788E-06         0.00000E+00
    0.14405E-05        -0.12038E-06         0.00000E+00
    0.14795E-05        -0.11542E-06         0.00000E+00
    0.15187E-05        -0.11130E-06         0.00000E+00
    0.15585E-05        -0.10448E-06         0.00000E+00
    0.15957E-05        -0.89722E-07         0.00000E+00
    0.16213E-05        -0.62209E-07         0.00000E+00
    0.16205E-05        -0.22392E-07         0.00000E+00
    0.11348E-05        -0.60596E-07         0.00000E+00
    0.11908E-05        -0.15726E-06         0.00000E+00
    0.12928E-05        -0.20353E-06         0.00000E+00
    0.13989E-05        -0.20729E-06         0.00000E+00
    0.14883E-05        -0.19086E-06         0.00000E+00
    0.15595E-05        -0.17029E-06         0.00000E+00
    0.16175E-05        -0.15209E-06         0.00000E+00
    0.16669E-05        -0.13878E-06         0.00000E+00
    0.17115E-05        -0.13098E-06         0.00000E+00
    0.17547E-05        -0.12828E-06         0.00000E+00
    0.17999E-05        -0.12911E-06         0.00000E+00
    0.18501E-05        -0.12978E-06         0.00000E+00
    0.19048E-05        -0.12167E-06         0.00000E+00
    0.19538E-05        -0.92713E-07         0.00000E+00
    0.19720E-05        -0.35703E-07         0.00000E+00
    0.11953E-05        -0.94278E-07         0.00000E+00
    0.13226E-05        -0.22979E-06         0.00000E+00
    0.14999E-05        -0.25924E-06         0.00000E+00
    0.16465E-05        -0.23337E-06         0.00000E+00
    0.17505E-05        -0.19987E-06         0.00000E+00
    0.18284E-05        -0.17027E-06         0.00000E+00
    0.18898E-05        -0.14786E-06         0.00000E+00
    0.19413E-05        -0.13313E-06         0.00000E+00
    0.19875E-05        -0.12586E-06         0.00000E+00
    0.20323E-05        -0.12559E-06         0.00000E+00
    0.20798E-05        -0.13155E-06         0.00000E+00
    0.21355E-05        -0.14160E-06         0.00000E+00
    0.22082E-05        -0.14928E-06         0.00000E+00
    0.22937E-05        -0.12959E-06         0.00000E+00
    0.23562E-05        -0.54080E-07         0.00000E+00
    0.11645E-05        -0.17253E-06         0.00000E+00
    0.14643E-05        -0.30151E-06         0.00000E+00
    0.17441E-05        -0.25598E-06         0.00000E+00
    0.19017E-05        -0.20593E-06         0.00000E+00
    0.20087E-05        -0.16542E-06         0.00000E+00
    0.20866E-05        -0.13557E-06         0.00000E+00
    0.21480E-05        -0.11500E-06         0.00000E+00
    0.21995E-05        -0.10232E-06         0.00000E+00
    0.22454E-05        -0.96660E-07         0.00000E+00
    0.22893E-05        -0.97645E-07         0.00000E+00
    0.23350E-05        -0.10532E-06         0.00000E+00
    0.23892E-05        -0.11976E-06         0.00000E+00
    0.24628E-05        -0.13967E-06         0.00000E+00
    0.25947E-05        -0.15558E-06         0.00000E+00
    0.27508E-05        -0.78442E-07         0.00000E+00
    0.10244E-05        -0.36064E-07         0.00000E+00
    0.16879E-05        -0.89891E-07         0.00000E+00
    0.19454E-05        -0.73590E-07         0.00000E+00
    0.20992E-05        -0.60050E-07         0.00000E+00
    0.22010E-05        -0.48473E-07         0.00000E+00
    0.22763E-05        -0.39985E-07         0.00000E+00
    0.23364E-05        -0.34149E-07         0.00000E+00
    0.23872E-05        -0.30639E-07         0.00000E+00
    0.24323E-05        -0.29267E-07         0.00000E+00
    0.24746E-05        -0.30046E-07         0.00000E+00
    0.25174E-05        -0.33201E-07         0.00000E+00
    0.25659E-05        -0.39267E-07         0.00000E+00
    0.26327E-05        -0.48581E-07         0.00000E+00
    0.27443E-05        -0.65069E-07         0.00000E+00
    0.30897E-05        -0.40073E-07         0.00000E+00
POINT_DATA        496
VECTORS vDarcyNodal double 
    0.10051E-05         0.80338E-08         0.00000E+00
    0.10041E-05         0.10952E-07         0.00000E+00
    0.10023E-05         0.12280E-07         0.00000E+00
    0.10010E-05         0.98432E-08         0.00000E+00
    0.10002E-05         0.84198E-08         0.00000E+00
    0.99952E-06         0.74569E-08         0.00000E+00
    0.99891E-06         0.68007E-08         0.00000E+00
    0.99835E-06         0.63312E-08         0.00000E+00
    0.99782E-06         0.59890E-08         0.00000E+00
    0.99732E-06         0.57552E-08         0.00000E+00
    0.99684E-06         0.56463E-08         0.00000E+00
    0.99637E-06         0.57224E-08         0.00000E+00
    0.99586E-06         0.60644E-08         0.00000E+00
    0.99512E-06         0.71161E-08         0.00000E+00
    0.99417E-06         0.62608E-08         0.00000E+00
    0.99371E-06         0.46008E-08         0.00000E+00
    0.85542E-06        -0.11998E-08         0.00000E+00
    0.85336E-06        -0.84436E-09         0.00000E+00
    0.85024E-06         0.58581E-09         0.00000E+00
    0.84849E-06         0.18043E-08         0.00000E+00
    0.84720E-06         0.19573E-08         0.00000E+00
    0.84609E-06         0.19282E-08         0.00000E+00
    0.84508E-06         0.18438E-08         0.00000E+00
    0.84415E-06         0.17520E-08         0.00000E+00
    0.84327E-06         0.16630E-08         0.00000E+00
    0.84244E-06         0.15778E-08         0.00000E+00
    0.84164E-06         0.14907E-08         0.00000E+00
    0.84086E-06         0.13742E-08         0.00000E+00
    0.84004E-06         0.11679E-08         0.00000E+00
    0.83904E-06         0.29432E-09         0.00000E+00
    0.83742E-06        -0.65888E-09         0.00000E+00
    0.83636E-06        -0.87333E-09         0.00000E+00
    0.57651E-06        -0.14076E-08         0.00000E+00
    0.57429E-06        -0.20519E-08         0.00000E+00
    0.57071E-06        -0.23730E-08         0.00000E+00
    0.56833E-06        -0.16602E-08         0.00000E+00
    0.56643E-06        -0.10790E-08         0.00000E+00
    0.56477E-06        -0.78668E-09         0.00000E+00
    0.56325E-06        -0.63343E-09         0.00000E+00
    0.56183E-06        -0.55468E-09         0.00000E+00
    0.56050E-06        -0.51993E-09         0.00000E+00
    0.55923E-06        -0.52116E-09         0.00000E+00
    0.55802E-06        -0.56844E-09         0.00000E+00
    0.55683E-06        -0.69151E-09         0.00000E+00
    0.55562E-06        -0.97852E-09         0.00000E+00
    0.55426E-06        -0.12912E-08         0.00000E+00
    0.55240E-06        -0.10352E-08         0.00000E+00
    0.55129E-06        -0.66807E-09         0.00000E+00
    0.35300E-06        -0.72706E-09         0.00000E+00
    0.35212E-06        -0.12495E-08         0.00000E+00
    0.35007E-06        -0.19037E-08         0.00000E+00
    0.34793E-06        -0.19349E-08         0.00000E+00
    0.34608E-06        -0.17077E-08         0.00000E+00
    0.34442E-06        -0.14914E-08         0.00000E+00
    0.34288E-06        -0.13407E-08         0.00000E+00
    0.34144E-06        -0.12388E-08         0.00000E+00
    0.34008E-06        -0.11716E-08         0.00000E+00
    0.33879E-06        -0.11334E-08         0.00000E+00
    0.33755E-06        -0.11264E-08         0.00000E+00
    0.33636E-06        -0.11564E-08         0.00000E+00
    0.33516E-06        -0.11829E-08         0.00000E+00
    0.33391E-06        -0.10634E-08         0.00000E+00
    0.33286E-06        -0.65467E-09         0.00000E+00
    0.33245E-06        -0.36688E-09         0.00000E+00
    0.19843E-06        -0.30767E-09         0.00000E+00
    0.19811E-06        -0.59506E-09         0.00000E+00
    0.19714E-06        -0.10668E-08         0.00000E+00
    0.19577E-06        -0.12989E-08         0.00000E+00
    0.19438E-06        -0.13239E-08         0.00000E+00
    0.19306E-06        -0.12615E-08         0.00000E+00
    0.19182E-06        -0.11849E-08         0.00000E+00
    0.19064E-06        -0.11167E-08         0.00000E+00
    0.18953E-06        -0.10598E-08         0.00000E+00
    0.18847E-06        -0.10130E-08         0.00000E+00
    0.18747E-06        -0.97314E-09         0.00000E+00
    0.18652E-06        -0.92635E-09         0.00000E+00
    0.18561E-06        -0.83406E-09         0.00000E+00
    0.18479E-06        -0.64170E-09         0.00000E+00
    0.18427E-06        -0.34375E-09         0.00000E+00
    0.18410E-06        -0.17395E-09         0.00000E+00
    0.10379E-06        -0.13125E-09         0.00000E+00
    0.10366E-06        -0.27108E-09         0.00000E+00
    0.10318E-06        -0.53180E-09         0.00000E+00
    0.10242E-06        -0.71679E-09         0.00000E+00
    0.10154E-06        -0.79858E-09         0.00000E+00
    0.10065E-06        -0.80991E-09         0.00000E+00
    0.99791E-07        -0.78825E-09         0.00000E+00
    0.98968E-07        -0.75518E-09         0.00000E+00
    0.98186E-07        -0.71892E-09         0.00000E+00
    0.97446E-07        -0.68082E-09         0.00000E+00
    0.96750E-07        -0.63729E-09         0.00000E+00
    0.96103E-07        -0.57788E-09         0.00000E+00
    0.95521E-07        -0.48534E-09         0.00000E+00
    0.95051E-07        -0.34631E-09         0.00000E+00
    0.94776E-07        -0.17485E-09         0.00000E+00
    0.94698E-07        -0.85383E-10         0.00000E+00
    0.51727E-07        -0.59670E-10         0.00000E+00
    0.51646E-07        -0.12386E-09         0.00000E+00
    0.51385E-07        -0.24869E-09         0.00000E+00
    0.50964E-07        -0.34997E-09         0.00000E+00
    0.50455E-07        -0.40984E-09         0.00000E+00
    0.49915E-07        -0.43334E-09         0.00000E+00
    0.49379E-07        -0.43366E-09         0.00000E+00
    0.48859E-07        -0.42164E-09         0.00000E+00
    0.48364E-07        -0.40301E-09         0.00000E+00
    0.47898E-07        -0.37933E-09         0.00000E+00
    0.47465E-07        -0.34888E-09         0.00000E+00
    0.47071E-07        -0.30724E-09         0.00000E+00
    0.46732E-07        -0.24903E-09         0.00000E+00
    0.46471E-07        -0.17270E-09         0.00000E+00
    0.46318E-07        -0.86231E-10         0.00000E+00
    0.46272E-07        -0.42216E-10         0.00000E+00
    0.25945E-07        -0.23146E-10         0.00000E+00
    0.25885E-07        -0.47418E-10         0.00000E+00
    0.25719E-07        -0.95337E-10         0.00000E+00
    0.25474E-07        -0.13729E-09         0.00000E+00
    0.25177E-07        -0.16674E-09         0.00000E+00
    0.24859E-07        -0.18286E-09         0.00000E+00
    0.24537E-07        -0.18850E-09         0.00000E+00
    0.24225E-07        -0.18709E-09         0.00000E+00
    0.23928E-07        -0.18084E-09         0.00000E+00
    0.23650E-07        -0.17050E-09         0.00000E+00
    0.23395E-07        -0.15560E-09         0.00000E+00
    0.23167E-07        -0.13494E-09         0.00000E+00
    0.22975E-07        -0.10751E-09         0.00000E+00
    0.22830E-07        -0.73899E-10         0.00000E+00
    0.22740E-07        -0.37058E-10         0.00000E+00
    0.22711E-07        -0.18354E-10         0.00000E+00
    0.14939E-07         0.22752E-11         0.00000E+00
    0.14887E-07         0.27825E-11         0.00000E+00
    0.14761E-07         0.59844E-12         0.00000E+00
    0.14593E-07        -0.67266E-11         0.00000E+00
    0.14401E-07        -0.16345E-10         0.00000E+00
    0.14197E-07        -0.25675E-10         0.00000E+00
    0.13995E-07        -0.33287E-10         0.00000E+00
    0.13801E-07        -0.38564E-10         0.00000E+00
    0.13618E-07        -0.41237E-10         0.00000E+00
    0.13449E-07        -0.41168E-10         0.00000E+00
    0.13295E-07        -0.38321E-10         0.00000E+00
    0.13159E-07        -0.32848E-10         0.00000E+00
    0.13045E-07        -0.25257E-10         0.00000E+00
    0.12957E-07        -0.16533E-10         0.00000E+00
    0.12899E-07        -0.79251E-11         0.00000E+00
    0.12879E-07        -0.38061E-11         0.00000E+00
    0.11950E-07         0.24918E-10         0.00000E+00
    0.11896E-07         0.44822E-10         0.00000E+00
    0.11771E-07         0.75042E-10         0.00000E+00
    0.11622E-07         0.87755E-10         0.00000E+00
    0.11463E-07         0.87226E-10         0.00000E+00
    0.11304E-07         0.78593E-10         0.00000E+00
    0.11154E-07         0.66421E-10         0.00000E+00
    0.11014E-07         0.54108E-10         0.00000E+00
    0.10887E-07         0.43746E-10         0.00000E+00
    0.10771E-07         0.36191E-10         0.00000E+00
    0.10666E-07         0.31230E-10         0.00000E+00
    0.10573E-07         0.27825E-10         0.00000E+00
    0.10493E-07         0.24408E-10         0.00000E+00
    0.10428E-07         0.19263E-10         0.00000E+00
    0.10382E-07         0.11024E-10         0.00000E+00
    0.10364E-07         0.60001E-11         0.00000E+00
    0.13625E-07         0.49280E-10         0.00000E+00
    0.13553E-07         0.88182E-10         0.00000E+00
    0.13396E-07         0.14688E-09         0.00000E+00
    0.13223E-07         0.17148E-09         0.00000E+00
    0.13052E-07         0.17108E-09         0.00000E+00
    0.12894E-07         0.15550E-09         0.00000E+00
    0.12754E-07         0.13338E-09         0.00000E+00
    0.12633E-07         0.11117E-09         0.00000E+00
    0.12527E-07         0.92774E-10         0.00000E+00
    0.12434E-07         0.79602E-10         0.00000E+00
    0.12349E-07         0.70901E-10         0.00000E+00
    0.12270E-07         0.64324E-10         0.00000E+00
    0.12198E-07         0.56637E-10         0.00000E+00
    0.12136E-07         0.44508E-10         0.00000E+00
    0.12087E-07         0.25346E-10         0.00000E+00
    0.12067E-07         0.13755E-10         0.00000E+00
    0.18694E-07         0.78696E-10         0.00000E+00
    0.18585E-07         0.13884E-09         0.00000E+00
    0.18357E-07         0.22594E-09         0.00000E+00
    0.18124E-07         0.25525E-09         0.00000E+00
    0.17911E-07         0.24462E-09         0.00000E+00
    0.17728E-07         0.21170E-09         0.00000E+00
    0.17581E-07         0.17135E-09         0.00000E+00
    0.17464E-07         0.13434E-09         0.00000E+00
    0.17369E-07         0.10681E-09         0.00000E+00
    0.17288E-07         0.90520E-10         0.00000E+00
    0.17213E-07         0.83460E-10         0.00000E+00
    0.17137E-07         0.80877E-10         0.00000E+00
    0.17060E-07         0.76482E-10         0.00000E+00
    0.16985E-07         0.63852E-10         0.00000E+00
    0.16920E-07         0.37871E-10         0.00000E+00
    0.16892E-07         0.21031E-10         0.00000E+00
    0.27088E-07         0.11521E-09         0.00000E+00
    0.26916E-07         0.19943E-09         0.00000E+00
    0.26570E-07         0.31372E-09         0.00000E+00
    0.26242E-07         0.33596E-09         0.00000E+00
    0.25964E-07         0.29868E-09         0.00000E+00
    0.25749E-07         0.23217E-09         0.00000E+00
    0.25595E-07         0.16095E-09         0.00000E+00
    0.25491E-07         0.10202E-09         0.00000E+00
    0.25420E-07         0.64481E-10         0.00000E+00
    0.25363E-07         0.50050E-10         0.00000E+00
    0.25305E-07         0.54212E-10         0.00000E+00
    0.25234E-07         0.67846E-10         0.00000E+00
    0.25148E-07         0.79210E-10         0.00000E+00
    0.25051E-07         0.76241E-10         0.00000E+00
    0.24956E-07         0.49076E-10         0.00000E+00
    0.24912E-07         0.28428E-10         0.00000E+00
    0.39440E-07         0.15841E-09         0.00000E+00
    0.39170E-07         0.26713E-09         0.00000E+00
    0.38648E-07         0.39969E-09         0.00000E+00
    0.38191E-07         0.39156E-09         0.00000E+00
    0.37838E-07         0.29925E-09         0.00000E+00
    0.37602E-07         0.17290E-09         0.00000E+00
    0.37471E-07         0.51519E-10         0.00000E+00
    0.37419E-07        -0.38931E-10         0.00000E+00
    0.37413E-07        -0.85629E-10         0.00000E+00
    0.37420E-07        -0.87695E-10         0.00000E+00
    0.37409E-07        -0.54246E-10         0.00000E+00
    0.37362E-07        -0.19230E-11         0.00000E+00
    0.37271E-07         0.48129E-10         0.00000E+00
    0.37143E-07         0.73903E-10         0.00000E+00
    0.37001E-07         0.56756E-10         0.00000E+00
    0.36929E-07         0.35473E-10         0.00000E+00
    0.56851E-07         0.20318E-09         0.00000E+00
    0.56435E-07         0.32936E-09         0.00000E+00
    0.55664E-07         0.45328E-09         0.00000E+00
    0.55047E-07         0.37014E-09         0.00000E+00
    0.54633E-07         0.17452E-09         0.00000E+00
    0.54422E-07        -0.53319E-10         0.00000E+00
    0.54383E-07        -0.25332E-09         0.00000E+00
    0.54465E-07        -0.38733E-09         0.00000E+00
    0.54610E-07        -0.43823E-09         0.00000E+00
    0.54759E-07        -0.40747E-09         0.00000E+00
    0.54861E-07        -0.31205E-09         0.00000E+00
    0.54881E-07        -0.18093E-09         0.00000E+00
    0.54804E-07        -0.50814E-10         0.00000E+00
    0.54639E-07         0.39269E-10         0.00000E+00
    0.54421E-07         0.54798E-10         0.00000E+00
    0.54305E-07         0.40127E-10         0.00000E+00
    0.80764E-07         0.23599E-09         0.00000E+00
    0.80140E-07         0.35665E-09         0.00000E+00
    0.79031E-07         0.41060E-09         0.00000E+00
    0.78243E-07         0.17220E-09         0.00000E+00
    0.77818E-07        -0.20557E-09         0.00000E+00
    0.77732E-07        -0.59845E-09         0.00000E+00
    0.77920E-07        -0.91732E-09         0.00000E+00
    0.78288E-07        -0.11085E-08         0.00000E+00
    0.78737E-07        -0.11508E-08         0.00000E+00
    0.79168E-07        -0.10507E-08         0.00000E+00
    0.79499E-07        -0.83760E-09         0.00000E+00
    0.79669E-07        -0.55978E-09         0.00000E+00
    0.79647E-07        -0.27849E-09         0.00000E+00
    0.79443E-07        -0.60851E-10         0.00000E+00
    0.79109E-07         0.30620E-10         0.00000E+00
    0.78919E-07         0.37670E-10         0.00000E+00
    0.11288E-06         0.22909E-09         0.00000E+00
    0.11197E-06         0.29171E-09         0.00000E+00
    0.11043E-06         0.15480E-09         0.00000E+00
    0.10950E-06        -0.37474E-09         0.00000E+00
    0.10918E-06        -0.10576E-08         0.00000E+00
    0.10941E-06        -0.17081E-08         0.00000E+00
    0.11006E-06        -0.21995E-08         0.00000E+00
    0.11097E-06        -0.24608E-08         0.00000E+00
    0.11197E-06        -0.24684E-08         0.00000E+00
    0.11292E-06        -0.22381E-08         0.00000E+00
    0.11367E-06        -0.18184E-08         0.00000E+00
    0.11413E-06        -0.12853E-08         0.00000E+00
    0.11424E-06        -0.73696E-09         0.00000E+00
    0.11401E-06        -0.28489E-09         0.00000E+00
    0.11350E-06        -0.39419E-10         0.00000E+00
    0.11319E-06         0.18550E-10         0.00000E+00
    0.15508E-06         0.13225E-09         0.00000E+00
    0.15379E-06         0.34173E-10         0.00000E+00
    0.15174E-06        -0.51072E-09         0.00000E+00
    0.15076E-06        -0.15493E-08         0.00000E+00
    0.15079E-06        -0.27196E-08         0.00000E+00
    0.15166E-06        -0.37550E-08         0.00000E+00
    0.15315E-06        -0.44851E-08         0.00000E+00
    0.15499E-06        -0.48231E-08         0.00000E+00
    0.15693E-06        -0.47492E-08         0.00000E+00
    0.15874E-06        -0.42953E-08         0.00000E+00
    0.16022E-06        -0.35358E-08         0.00000E+00
    0.16121E-06        -0.25841E-08         0.00000E+00
    0.16159E-06        -0.15897E-08         0.00000E+00
    0.16136E-06        -0.73130E-09         0.00000E+00
    0.16059E-06        -0.19765E-09         0.00000E+00
    0.16009E-06        -0.35432E-10         0.00000E+00
    0.20923E-06        -0.13825E-09         0.00000E+00
    0.20748E-06        -0.57947E-09         0.00000E+00
    0.20489E-06        -0.18962E-08         0.00000E+00
    0.20408E-06        -0.37760E-08         0.00000E+00
    0.20488E-06        -0.56899E-08         0.00000E+00
    0.20693E-06        -0.72728E-08         0.00000E+00
    0.20983E-06        -0.83121E-08         0.00000E+00
    0.21319E-06        -0.87171E-08         0.00000E+00
    0.21663E-06        -0.84847E-08         0.00000E+00
    0.21982E-06        -0.76729E-08         0.00000E+00
    0.22247E-06        -0.63884E-08         0.00000E+00
    0.22434E-06        -0.47885E-08         0.00000E+00
    0.22523E-06        -0.30880E-08         0.00000E+00
    0.22507E-06        -0.15601E-08         0.00000E+00
    0.22394E-06        -0.51724E-09         0.00000E+00
    0.22315E-06        -0.15755E-09         0.00000E+00
    0.27704E-06        -0.71376E-09         0.00000E+00
    0.27476E-06        -0.18008E-08         0.00000E+00
    0.27172E-06        -0.44655E-08         0.00000E+00
    0.27155E-06        -0.76677E-08         0.00000E+00
    0.27379E-06        -0.10662E-07         0.00000E+00
    0.27781E-06        -0.12978E-07         0.00000E+00
    0.28296E-06        -0.14381E-07         0.00000E+00
    0.28865E-06        -0.14808E-07         0.00000E+00
    0.29436E-06        -0.14298E-07         0.00000E+00
    0.29963E-06        -0.12951E-07         0.00000E+00
    0.30409E-06        -0.10906E-07         0.00000E+00
    0.30737E-06        -0.83617E-08         0.00000E+00
    0.30914E-06        -0.56021E-08         0.00000E+00
    0.30921E-06        -0.30228E-08         0.00000E+00
    0.30759E-06        -0.11207E-08         0.00000E+00
    0.30638E-06        -0.40648E-09         0.00000E+00
    0.35976E-06        -0.17906E-08         0.00000E+00
    0.35696E-06        -0.39995E-08         0.00000E+00
    0.35379E-06        -0.88811E-08         0.00000E+00
    0.35505E-06        -0.14065E-07         0.00000E+00
    0.35981E-06        -0.18544E-07         0.00000E+00
    0.36696E-06        -0.21763E-07         0.00000E+00
    0.37550E-06        -0.23525E-07         0.00000E+00
    0.38457E-06        -0.23860E-07         0.00000E+00
    0.39351E-06        -0.22902E-07         0.00000E+00
    0.40177E-06        -0.20807E-07         0.00000E+00
    0.40888E-06        -0.17740E-07         0.00000E+00
    0.41430E-06        -0.13911E-07         0.00000E+00
    0.41755E-06        -0.96547E-08         0.00000E+00
    0.41817E-06        -0.55016E-08         0.00000E+00
    0.41597E-06        -0.22070E-08         0.00000E+00
    0.41416E-06        -0.88226E-09         0.00000E+00
    0.45780E-06        -0.36519E-08         0.00000E+00
    0.45464E-06        -0.76985E-08         0.00000E+00
    0.45207E-06        -0.16050E-07         0.00000E+00
    0.45613E-06        -0.24065E-07         0.00000E+00
    0.46503E-06        -0.30448E-07         0.00000E+00
    0.47692E-06        -0.34640E-07         0.00000E+00
    0.49030E-06        -0.36615E-07         0.00000E+00
    0.50402E-06        -0.36625E-07         0.00000E+00
    0.51733E-06        -0.34980E-07         0.00000E+00
    0.52964E-06        -0.31922E-07         0.00000E+00
    0.54041E-06        -0.27603E-07         0.00000E+00
    0.54900E-06        -0.22175E-07         0.00000E+00
    0.55460E-06        -0.15947E-07         0.00000E+00
    0.55635E-06        -0.95572E-08         0.00000E+00
    0.55360E-06        -0.40888E-08         0.00000E+00
    0.55105E-06        -0.17498E-08         0.00000E+00
    0.57031E-06        -0.66958E-08         0.00000E+00
    0.56726E-06        -0.13618E-07         0.00000E+00
    0.56676E-06        -0.27170E-07         0.00000E+00
    0.57583E-06        -0.39019E-07         0.00000E+00
    0.59122E-06        -0.47610E-07         0.00000E+00
    0.60999E-06        -0.52585E-07         0.00000E+00
    0.62994E-06        -0.54352E-07         0.00000E+00
    0.64970E-06        -0.53607E-07         0.00000E+00
    0.66853E-06        -0.50968E-07         0.00000E+00
    0.68598E-06        -0.46784E-07         0.00000E+00
    0.70159E-06        -0.41129E-07         0.00000E+00
    0.71461E-06        -0.33952E-07         0.00000E+00
    0.72386E-06        -0.25362E-07         0.00000E+00
    0.72779E-06        -0.15980E-07         0.00000E+00
    0.72485E-06        -0.72420E-08         0.00000E+00
    0.72150E-06        -0.32719E-08         0.00000E+00
    0.69463E-06        -0.11477E-07         0.00000E+00
    0.69270E-06        -0.22731E-07         0.00000E+00
    0.69700E-06        -0.43771E-07         0.00000E+00
    0.71460E-06        -0.60473E-07         0.00000E+00
    0.73983E-06        -0.71202E-07         0.00000E+00
    0.76811E-06        -0.76243E-07         0.00000E+00
    0.79648E-06        -0.76911E-07         0.00000E+00
    0.82355E-06        -0.74695E-07         0.00000E+00
    0.84886E-06        -0.70691E-07         0.00000E+00
    0.87238E-06        -0.65373E-07         0.00000E+00
    0.89396E-06        -0.58619E-07         0.00000E+00
    0.91291E-06        -0.49939E-07         0.00000E+00
    0.92764E-06        -0.38911E-07         0.00000E+00
    0.93553E-06        -0.25828E-07         0.00000E+00
    0.93346E-06        -0.12366E-07         0.00000E+00
    0.92952E-06        -0.58544E-08         0.00000E+00
    0.82552E-06        -0.18770E-07         0.00000E+00
    0.82676E-06        -0.36348E-07         0.00000E+00
    0.84077E-06        -0.67731E-07         0.00000E+00
    0.87244E-06        -0.89986E-07         0.00000E+00
    0.91204E-06        -0.10192E-06         0.00000E+00
    0.95276E-06        -0.10538E-06         0.00000E+00
    0.99117E-06        -0.10337E-06         0.00000E+00
    0.10263E-05        -0.98632E-07         0.00000E+00
    0.10586E-05        -0.92878E-07         0.00000E+00
    0.10886E-05        -0.86687E-07         0.00000E+00
    0.11170E-05        -0.79601E-07         0.00000E+00
    0.11434E-05        -0.70382E-07         0.00000E+00
    0.11659E-05        -0.57553E-07         0.00000E+00
    0.11808E-05        -0.40421E-07         0.00000E+00
    0.11820E-05        -0.20442E-07         0.00000E+00
    0.11784E-05        -0.10103E-07         0.00000E+00
    0.95415E-06        -0.29689E-07         0.00000E+00
    0.96257E-06        -0.56227E-07         0.00000E+00
    0.99514E-06        -0.10121E-06         0.00000E+00
    0.10494E-05        -0.12863E-06         0.00000E+00
    0.11089E-05        -0.13915E-06         0.00000E+00
    0.11647E-05        -0.13795E-06         0.00000E+00
    0.12138E-05        -0.13093E-06         0.00000E+00
    0.12569E-05        -0.12240E-06         0.00000E+00
    0.12957E-05        -0.11463E-06         0.00000E+00
    0.13319E-05        -0.10817E-06         0.00000E+00
    0.13671E-05        -0.10217E-06         0.00000E+00
    0.14020E-05        -0.94427E-07         0.00000E+00
    0.14352E-05        -0.81721E-07         0.00000E+00
    0.14615E-05        -0.61163E-07         0.00000E+00
    0.14709E-05        -0.32767E-07         0.00000E+00
    0.14699E-05        -0.16891E-07         0.00000E+00
    0.10662E-05        -0.45883E-07         0.00000E+00
    0.10900E-05        -0.84734E-07         0.00000E+00
    0.11573E-05        -0.14624E-06         0.00000E+00
    0.12467E-05        -0.17568E-06         0.00000E+00
    0.13314E-05        -0.17914E-06         0.00000E+00
    0.14026E-05        -0.16860E-06         0.00000E+00
    0.14615E-05        -0.15402E-06         0.00000E+00
    0.15112E-05        -0.14078E-06         0.00000E+00
    0.15551E-05        -0.13104E-06         0.00000E+00
    0.15962E-05        -0.12517E-06         0.00000E+00
    0.16372E-05        -0.12210E-06         0.00000E+00
    0.16802E-05        -0.11890E-06         0.00000E+00
    0.17261E-05        -0.11017E-06         0.00000E+00
    0.17700E-05        -0.88912E-07         0.00000E+00
    0.17972E-05        -0.50810E-07         0.00000E+00
    0.18040E-05        -0.27371E-07         0.00000E+00
    0.11388E-05        -0.70087E-07         0.00000E+00
    0.11949E-05        -0.12479E-06         0.00000E+00
    0.13293E-05        -0.20303E-06         0.00000E+00
    0.14683E-05        -0.22486E-06         0.00000E+00
    0.15772E-05        -0.21122E-06         0.00000E+00
    0.16605E-05        -0.18673E-06         0.00000E+00
    0.17261E-05        -0.16384E-06         0.00000E+00
    0.17801E-05        -0.14636E-06         0.00000E+00
    0.18272E-05        -0.13539E-06         0.00000E+00
    0.18711E-05        -0.13086E-06         0.00000E+00
    0.19155E-05        -0.13191E-06         0.00000E+00
    0.19640E-05        -0.13627E-06         0.00000E+00
    0.20211E-05        -0.13734E-06         0.00000E+00
    0.20890E-05        -0.12195E-06         0.00000E+00
    0.21506E-05        -0.75531E-07         0.00000E+00
    0.21754E-05        -0.42964E-07         0.00000E+00
    0.11174E-05        -0.10441E-06         0.00000E+00
    0.12757E-05        -0.17888E-06         0.00000E+00
    0.15287E-05        -0.26292E-06         0.00000E+00
    0.17092E-05        -0.25204E-06         0.00000E+00
    0.18324E-05        -0.21198E-06         0.00000E+00
    0.19213E-05        -0.17644E-06         0.00000E+00
    0.19896E-05        -0.14911E-06         0.00000E+00
    0.20453E-05        -0.13047E-06         0.00000E+00
    0.20936E-05        -0.11992E-06         0.00000E+00
    0.21385E-05        -0.11698E-06         0.00000E+00
    0.21835E-05        -0.12130E-06         0.00000E+00
    0.22334E-05        -0.13219E-06         0.00000E+00
    0.22956E-05        -0.14759E-06         0.00000E+00
    0.23825E-05        -0.15051E-06         0.00000E+00
    0.25032E-05        -0.10399E-06         0.00000E+00
    0.25699E-05        -0.63012E-07         0.00000E+00
    0.10667E-05        -0.16811E-06         0.00000E+00
    0.13474E-05        -0.22860E-06         0.00000E+00
    0.17236E-05        -0.25228E-06         0.00000E+00
    0.19240E-05        -0.19139E-06         0.00000E+00
    0.20520E-05        -0.14915E-06         0.00000E+00
    0.21419E-05        -0.11842E-06         0.00000E+00
    0.22107E-05        -0.97421E-07         0.00000E+00
    0.22670E-05        -0.83938E-07         0.00000E+00
    0.23158E-05        -0.76705E-07         0.00000E+00
    0.23606E-05        -0.75147E-07         0.00000E+00
    0.24048E-05        -0.79299E-07         0.00000E+00
    0.24531E-05        -0.89828E-07         0.00000E+00
    0.25141E-05        -0.10736E-06         0.00000E+00
    0.26068E-05        -0.13609E-06         0.00000E+00
    0.27894E-05        -0.12172E-06         0.00000E+00
    0.29101E-05        -0.89149E-07         0.00000E+00
    0.10605E-05         0.00000E+00         0.00000E+00
    0.13831E-05         0.00000E+00         0.00000E+00
    0.18085E-05        -0.57245E-20         0.00000E+00
    0.20155E-05         0.81695E-21         0.00000E+00
    0.21443E-05         0.57365E-20         0.00000E+00
    0.22344E-05         0.00000E+00         0.00000E+00
    0.23035E-05         0.00000E+00         0.00000E+00
    0.23601E-05        -0.67875E-20         0.00000E+00
    0.24091E-05        -0.66993E-20         0.00000E+00
    0.24539E-05         0.71978E-20         0.00000E+00
    0.24976E-05         0.69099E-20         0.00000E+00
    0.25447E-05        -0.74558E-20         0.00000E+00
    0.26040E-05         0.32550E-21         0.00000E+00
    0.26967E-05         0.73742E-20         0.00000E+00
    0.29045E-05         0.24230E-21         0.00000E+00
    0.30497E-05         0.00000E+00         0.00000E+00
CELL_DATA        450
TENSORS stressef double 
    0.87118E+07        -0.22577E+06         0.00000E+00
   -0.22577E+06         0.31974E+07         0.00000E+00
    0.00000E+00         0.00000E+00         0.23818E+07
 
    0.76270E+07        -0.19121E+06         0.00000E+00
   -0.19121E+06         0.28795E+07         0.00000E+00
    0.00000E+00         0.00000E+00         0.21013E+07
 
    0.70739E+07        -0.12512E+06         0.00000E+00
   -0.12512E+06         0.26149E+07         0.00000E+00
    0.00000E+00         0.00000E+00         0.19378E+07
 
    0.66566E+07        -0.79170E+05         0.00000E+00
   -0.79170E+05         0.24383E+07         0.00000E+00
    0.00000E+00         0.00000E+00         0.18190E+07
 
    0.62860E+07        -0.46232E+05         0.00000E+00
   -0.46232E+05         0.23316E+07         0.00000E+00
    0.00000E+00         0.00000E+00         0.17235E+07
 
    0.59310E+07        -0.22719E+05         0.00000E+00
   -0.22719E+05         0.22766E+07         0.00000E+00
    0.00000E+00         0.00000E+00         0.16415E+07
 
    0.55813E+07        -0.58302E+04         0.00000E+00
   -0.58302E+04         0.22594E+07         0.00000E+00
    0.00000E+00         0.00000E+00         0.15681E+07
 
    0.52332E+07         0.63711E+04         0.00000E+00
    0.63711E+04         0.22697E+07         0.00000E+00
    0.00000E+00         0.00000E+00         0.15006E+07
 
    0.48849E+07         0.15317E+05         0.00000E+00
    0.15317E+05         0.23002E+07         0.00000E+00
    0.00000E+00         0.00000E+00         0.14370E+07
 
    0.45338E+07         0.22219E+05         0.00000E+00
    0.22219E+05         0.23461E+07         0.00000E+00
    0.00000E+00         0.00000E+00         0.13760E+07
 
    0.41729E+07         0.28466E+05         0.00000E+00
    0.28466E+05         0.24051E+07         0.00000E+00
    0.00000E+00         0.00000E+00         0.13156E+07
 
    0.37868E+07         0.36385E+05         0.00000E+00
    0.36385E+05         0.24787E+07         0.00000E+00
    0.00000E+00         0.00000E+00         0.12531E+07
 
    0.33387E+07         0.52067E+05         0.00000E+00
    0.52067E+05         0.25764E+07         0.00000E+00
    0.00000E+00         0.00000E+00         0.11830E+07
 
    0.27368E+07         0.91987E+05         0.00000E+00
    0.91987E+05         0.27318E+07         0.00000E+00
    0.00000E+00         0.00000E+00         0.10937E+07
 
    0.16079E+07         0.30178E+06         0.00000E+00
    0.30178E+06         0.30849E+07         0.00000E+00
    0.00000E+00         0.00000E+00         0.93857E+06
 
    0.71029E+07        -0.27857E+06         0.00000E+00
   -0.27857E+06         0.21071E+07         0.00000E+00
    0.00000E+00         0.00000E+00         0.18420E+07
 
    0.64194E+07        -0.38792E+06         0.00000E+00
   -0.38792E+06         0.21073E+07         0.00000E+00
    0.00000E+00         0.00000E+00         0.17053E+07
 
    0.58599E+07        -0.29303E+06         0.00000E+00
   -0.29303E+06         0.20246E+07         0.00000E+00
    0.00000E+00         0.00000E+00         0.15769E+07
 
    0.54183E+07        -0.19223E+06         0.00000E+00
   -0.19223E+06         0.19446E+07         0.00000E+00
    0.00000E+00         0.00000E+00         0.14726E+07
 
    0.50235E+07        -0.11135E+06         0.00000E+00
   -0.11135E+06         0.18923E+07         0.00000E+00
    0.00000E+00         0.00000E+00         0.13832E+07
 
    0.46491E+07        -0.50119E+05         0.00000E+00
   -0.50119E+05         0.18699E+07         0.00000E+00
    0.00000E+00         0.00000E+00         0.13038E+07
 
    0.42838E+07        -0.45831E+04         0.00000E+00
   -0.45831E+04         0.18732E+07         0.00000E+00
    0.00000E+00         0.00000E+00         0.12314E+07
 
    0.39233E+07         0.29218E+05         0.00000E+00
    0.29218E+05         0.18973E+07         0.00000E+00
    0.00000E+00         0.00000E+00         0.11641E+07
 
    0.35653E+07         0.54739E+05         0.00000E+00
    0.54739E+05         0.19382E+07         0.00000E+00
    0.00000E+00         0.00000E+00         0.11007E+07
 
    0.32068E+07         0.75303E+05         0.00000E+00
    0.75303E+05         0.19932E+07         0.00000E+00
    0.00000E+00         0.00000E+00         0.10400E+07
 
    0.28422E+07         0.95097E+05         0.00000E+00
    0.95097E+05         0.20618E+07         0.00000E+00
    0.00000E+00         0.00000E+00         0.98081E+06
 
    0.24594E+07         0.12160E+06         0.00000E+00
    0.12160E+06         0.21473E+07         0.00000E+00
    0.00000E+00         0.00000E+00         0.92135E+06
 
    0.20346E+07         0.17242E+06         0.00000E+00
    0.17242E+06         0.22606E+07         0.00000E+00
    0.00000E+00         0.00000E+00         0.85905E+06
 
    0.15148E+07         0.30212E+06         0.00000E+00
    0.30212E+06         0.24286E+07         0.00000E+00
    0.00000E+00         0.00000E+00         0.78869E+06
 
    0.96591E+06         0.72452E+06         0.00000E+00
    0.72452E+06         0.26857E+07         0.00000E+00
    0.00000E+00         0.00000E+00         0.73033E+06
 
    0.58684E+07        -0.18811E+06         0.00000E+00
   -0.18811E+06         0.12315E+07         0.00000E+00
    0.00000E+00         0.00000E+00         0.14200E+07
 
    0.55271E+07        -0.34048E+06         0.00000E+00
   -0.34048E+06         0.13389E+07         0.00000E+00
    0.00000E+00         0.00000E+00         0.13732E+07
 
    0.50642E+07        -0.30470E+06         0.00000E+00
   -0.30470E+06         0.14179E+07         0.00000E+00
    0.00000E+00         0.00000E+00         0.12964E+07
 
    0.46200E+07        -0.21049E+06         0.00000E+00
   -0.21049E+06         0.14557E+07         0.00000E+00
    0.00000E+00         0.00000E+00         0.12151E+07
 
    0.42063E+07        -0.11693E+06         0.00000E+00
   -0.11693E+06         0.14812E+07         0.00000E+00
    0.00000E+00         0.00000E+00         0.11375E+07
 
    0.38116E+07        -0.38376E+05         0.00000E+00
   -0.38376E+05         0.15098E+07         0.00000E+00
    0.00000E+00         0.00000E+00         0.10643E+07
 
    0.34292E+07         0.23936E+05         0.00000E+00
    0.23936E+05         0.15475E+07         0.00000E+00
    0.00000E+00         0.00000E+00         0.99533E+06
 
    0.30552E+07         0.72593E+05         0.00000E+00
    0.72593E+05         0.15958E+07         0.00000E+00
    0.00000E+00         0.00000E+00         0.93022E+06
 
    0.26876E+07         0.11133E+06         0.00000E+00
    0.11133E+06         0.16552E+07         0.00000E+00
    0.00000E+00         0.00000E+00         0.86857E+06
 
    0.23241E+07         0.14471E+06         0.00000E+00
    0.14471E+06         0.17261E+07         0.00000E+00
    0.00000E+00         0.00000E+00         0.81004E+06
 
    0.19615E+07         0.17930E+06         0.00000E+00
    0.17930E+06         0.18100E+07         0.00000E+00
    0.00000E+00         0.00000E+00         0.75429E+06
 
    0.15949E+07         0.22689E+06         0.00000E+00
    0.22689E+06         0.19109E+07         0.00000E+00
    0.00000E+00         0.00000E+00         0.70115E+06
 
    0.12194E+07         0.31273E+06         0.00000E+00
    0.31273E+06         0.20357E+07         0.00000E+00
    0.00000E+00         0.00000E+00         0.65101E+06
 
    0.85941E+06         0.49820E+06         0.00000E+00
    0.49820E+06         0.21885E+07         0.00000E+00
    0.00000E+00         0.00000E+00         0.60958E+06
 
    0.63800E+06         0.87361E+06         0.00000E+00
    0.87361E+06         0.23080E+07         0.00000E+00
    0.00000E+00         0.00000E+00         0.58920E+06
 
    0.50806E+07        -0.93518E+05         0.00000E+00
   -0.93518E+05         0.66619E+06         0.00000E+00
    0.00000E+00         0.00000E+00         0.11494E+07
 
    0.49220E+07        -0.20221E+06         0.00000E+00
   -0.20221E+06         0.78525E+06         0.00000E+00
    0.00000E+00         0.00000E+00         0.11414E+07
 
    0.45652E+07        -0.20226E+06         0.00000E+00
   -0.20226E+06         0.92390E+06         0.00000E+00
    0.00000E+00         0.00000E+00         0.10978E+07
 
    0.41515E+07        -0.13990E+06         0.00000E+00
   -0.13990E+06         0.10379E+07         0.00000E+00
    0.00000E+00         0.00000E+00         0.10379E+07
 
    0.37343E+07        -0.59297E+05         0.00000E+00
   -0.59297E+05         0.11278E+07         0.00000E+00
    0.00000E+00         0.00000E+00         0.97243E+06
 
    0.33268E+07         0.17722E+05         0.00000E+00
    0.17722E+05         0.12050E+07         0.00000E+00
    0.00000E+00         0.00000E+00         0.90637E+06
 
    0.29305E+07         0.84215E+05         0.00000E+00
    0.84215E+05         0.12783E+07         0.00000E+00
    0.00000E+00         0.00000E+00         0.84177E+06
 
    0.25451E+07         0.13982E+06         0.00000E+00
    0.13982E+06         0.13531E+07         0.00000E+00
    0.00000E+00         0.00000E+00         0.77964E+06
 
    0.21700E+07         0.18721E+06         0.00000E+00
    0.18721E+06         0.14328E+07         0.00000E+00
    0.00000E+00         0.00000E+00         0.72056E+06
 
    0.18047E+07         0.23109E+06         0.00000E+00
    0.23109E+06         0.15201E+07         0.00000E+00
    0.00000E+00         0.00000E+00         0.66496E+06
 
    0.14496E+07         0.27902E+06         0.00000E+00
    0.27902E+06         0.16174E+07         0.00000E+00
    0.00000E+00         0.00000E+00         0.61340E+06
 
    0.11076E+07         0.34385E+06         0.00000E+00
    0.34385E+06         0.17270E+07         0.00000E+00
    0.00000E+00         0.00000E+00         0.56693E+06
 
    0.79303E+06         0.44864E+06         0.00000E+00
    0.44864E+06         0.18477E+07         0.00000E+00
    0.00000E+00         0.00000E+00         0.52814E+06
 
    0.55025E+06         0.62613E+06         0.00000E+00
    0.62613E+06         0.19608E+07         0.00000E+00
    0.00000E+00         0.00000E+00         0.50220E+06
 
    0.47886E+06         0.89698E+06         0.00000E+00
    0.89698E+06         0.20110E+07         0.00000E+00
    0.00000E+00         0.00000E+00         0.49797E+06
 
    0.46617E+07        -0.18518E+05         0.00000E+00
   -0.18518E+05         0.33649E+06         0.00000E+00
    0.00000E+00         0.00000E+00         0.99963E+06
 
    0.45659E+07        -0.57377E+05         0.00000E+00
   -0.57377E+05         0.43775E+06         0.00000E+00
    0.00000E+00         0.00000E+00         0.10007E+07
 
    0.42775E+07        -0.57074E+05         0.00000E+00
   -0.57074E+05         0.57994E+06         0.00000E+00
    0.00000E+00         0.00000E+00         0.97150E+06
 
    0.38999E+07        -0.16678E+05         0.00000E+00
   -0.16678E+05         0.72070E+06         0.00000E+00
    0.00000E+00         0.00000E+00         0.92413E+06
 
    0.34920E+07         0.44507E+05         0.00000E+00
    0.44507E+05         0.84549E+06         0.00000E+00
    0.00000E+00         0.00000E+00         0.86751E+06
 
    0.30807E+07         0.11023E+06         0.00000E+00
    0.11023E+06         0.95515E+06         0.00000E+00
    0.00000E+00         0.00000E+00         0.80717E+06
 
    0.26765E+07         0.17223E+06         0.00000E+00
    0.17223E+06         0.10551E+07         0.00000E+00
    0.00000E+00         0.00000E+00         0.74633E+06
 
    0.22837E+07         0.22824E+06         0.00000E+00
    0.22824E+06         0.11509E+07         0.00000E+00
    0.00000E+00         0.00000E+00         0.68692E+06
 
    0.19043E+07         0.27959E+06         0.00000E+00
    0.27959E+06         0.12467E+07         0.00000E+00
    0.00000E+00         0.00000E+00         0.63022E+06
 
    0.15404E+07         0.33025E+06         0.00000E+00
    0.33025E+06         0.13460E+07         0.00000E+00
    0.00000E+00         0.00000E+00         0.57729E+06
 
    0.11959E+07         0.38687E+06         0.00000E+00
    0.38687E+06         0.14506E+07         0.00000E+00
    0.00000E+00         0.00000E+00         0.52930E+06
 
    0.87949E+06         0.45974E+06         0.00000E+00
    0.45974E+06         0.15600E+07         0.00000E+00
    0.00000E+00         0.00000E+00         0.48791E+06
 
    0.61171E+06         0.56236E+06         0.00000E+00
    0.56236E+06         0.16669E+07         0.00000E+00
    0.00000E+00         0.00000E+00         0.45572E+06
 
    0.43287E+06         0.70533E+06         0.00000E+00
    0.70533E+06         0.17506E+07         0.00000E+00
    0.00000E+00         0.00000E+00         0.43669E+06
 
    0.40636E+06         0.87891E+06         0.00000E+00
    0.87891E+06         0.17724E+07         0.00000E+00
    0.00000E+00         0.00000E+00         0.43576E+06
 
    0.45018E+07         0.35199E+05         0.00000E+00
    0.35199E+05         0.15915E+06         0.00000E+00
    0.00000E+00         0.00000E+00         0.93218E+06
 
    0.43972E+07         0.65473E+05         0.00000E+00
    0.65473E+05         0.23688E+06         0.00000E+00
    0.00000E+00         0.00000E+00         0.92682E+06
 
    0.41350E+07         0.87614E+05         0.00000E+00
    0.87614E+05         0.36009E+06         0.00000E+00
    0.00000E+00         0.00000E+00         0.89901E+06
 
    0.37811E+07         0.12284E+06         0.00000E+00
    0.12284E+06         0.49710E+06         0.00000E+00
    0.00000E+00         0.00000E+00         0.85563E+06
 
    0.33847E+07         0.17049E+06         0.00000E+00
    0.17049E+06         0.62982E+06         0.00000E+00
    0.00000E+00         0.00000E+00         0.80290E+06
 
    0.29753E+07         0.22395E+06         0.00000E+00
    0.22395E+06         0.75230E+06         0.00000E+00
    0.00000E+00         0.00000E+00         0.74551E+06
 
    0.25686E+07         0.27799E+06         0.00000E+00
    0.27799E+06         0.86528E+06         0.00000E+00
    0.00000E+00         0.00000E+00         0.68678E+06
 
    0.21728E+07         0.33051E+06         0.00000E+00
    0.33051E+06         0.97203E+06         0.00000E+00
    0.00000E+00         0.00000E+00         0.62896E+06
 
    0.17925E+07         0.38208E+06         0.00000E+00
    0.38208E+06         0.10761E+07         0.00000E+00
    0.00000E+00         0.00000E+00         0.57373E+06
 
    0.14322E+07         0.43541E+06         0.00000E+00
    0.43541E+06         0.11802E+07         0.00000E+00
    0.00000E+00         0.00000E+00         0.52248E+06
 
    0.10981E+07         0.49502E+06         0.00000E+00
    0.49502E+06         0.12852E+07         0.00000E+00
    0.00000E+00         0.00000E+00         0.47665E+06
 
    0.80117E+06         0.56670E+06         0.00000E+00
    0.56670E+06         0.13885E+07         0.00000E+00
    0.00000E+00         0.00000E+00         0.43793E+06
 
    0.56069E+06         0.65533E+06         0.00000E+00
    0.65533E+06         0.14817E+07         0.00000E+00
    0.00000E+00         0.00000E+00         0.40847E+06
 
    0.40597E+06         0.75906E+06         0.00000E+00
    0.75906E+06         0.15482E+07         0.00000E+00
    0.00000E+00         0.00000E+00         0.39084E+06
 
    0.37202E+06         0.85913E+06         0.00000E+00
    0.85913E+06         0.15655E+07         0.00000E+00
    0.00000E+00         0.00000E+00         0.38750E+06
 
    0.45079E+07         0.72338E+05         0.00000E+00
    0.72338E+05         0.68607E+05         0.00000E+00
    0.00000E+00         0.00000E+00         0.91531E+06
 
    0.43569E+07         0.16109E+06         0.00000E+00
    0.16109E+06         0.12591E+06         0.00000E+00
    0.00000E+00         0.00000E+00         0.89656E+06
 
    0.40876E+07         0.21309E+06         0.00000E+00
    0.21309E+06         0.22447E+06         0.00000E+00
    0.00000E+00         0.00000E+00         0.86241E+06
 
    0.37397E+07         0.25525E+06         0.00000E+00
    0.25525E+06         0.34316E+06         0.00000E+00
    0.00000E+00         0.00000E+00         0.81658E+06
 
    0.33496E+07         0.29779E+06         0.00000E+00
    0.29779E+06         0.46594E+06         0.00000E+00
    0.00000E+00         0.00000E+00         0.76310E+06
 
    0.29433E+07         0.34262E+06         0.00000E+00
    0.34262E+06         0.58450E+06         0.00000E+00
    0.00000E+00         0.00000E+00         0.70555E+06
 
    0.25374E+07         0.38914E+06         0.00000E+00
    0.38914E+06         0.69650E+06         0.00000E+00
    0.00000E+00         0.00000E+00         0.64679E+06
 
    0.21420E+07         0.43693E+06         0.00000E+00
    0.43693E+06         0.80293E+06         0.00000E+00
    0.00000E+00         0.00000E+00         0.58899E+06
 
    0.17636E+07         0.48654E+06         0.00000E+00
    0.48654E+06         0.90592E+06         0.00000E+00
    0.00000E+00         0.00000E+00         0.53390E+06
 
    0.14078E+07         0.53947E+06         0.00000E+00
    0.53947E+06         0.10072E+07         0.00000E+00
    0.00000E+00         0.00000E+00         0.48300E+06
 
    0.10818E+07         0.59773E+06         0.00000E+00
    0.59773E+06         0.11067E+07         0.00000E+00
    0.00000E+00         0.00000E+00         0.43770E+06
 
    0.79616E+06         0.66291E+06         0.00000E+00
    0.66291E+06         0.12013E+07         0.00000E+00
    0.00000E+00         0.00000E+00         0.39950E+06
 
    0.56627E+06         0.73402E+06         0.00000E+00
    0.73402E+06         0.12839E+07         0.00000E+00
    0.00000E+00         0.00000E+00         0.37003E+06
 
    0.41127E+06         0.80370E+06         0.00000E+00
    0.80370E+06         0.13430E+07         0.00000E+00
    0.00000E+00         0.00000E+00         0.35085E+06
 
    0.34862E+06         0.85373E+06         0.00000E+00
    0.85373E+06         0.13669E+07         0.00000E+00
    0.00000E+00         0.00000E+00         0.34310E+06
 
    0.46157E+07         0.98122E+05         0.00000E+00
    0.98122E+05         0.22198E+05         0.00000E+00
    0.00000E+00         0.00000E+00         0.92757E+06
 
    0.43997E+07         0.23253E+06         0.00000E+00
    0.23253E+06         0.63746E+05         0.00000E+00
    0.00000E+00         0.00000E+00         0.89270E+06
 
    0.41008E+07         0.31375E+06         0.00000E+00
    0.31375E+06         0.13864E+06         0.00000E+00
    0.00000E+00         0.00000E+00         0.84790E+06
 
    0.37428E+07         0.36833E+06         0.00000E+00
    0.36833E+06         0.23344E+06         0.00000E+00
    0.00000E+00         0.00000E+00         0.79524E+06
 
    0.33508E+07         0.41192E+06         0.00000E+00
    0.41192E+06         0.33601E+06         0.00000E+00
    0.00000E+00         0.00000E+00         0.73736E+06
 
    0.29455E+07         0.45248E+06         0.00000E+00
    0.45248E+06         0.43857E+06         0.00000E+00
    0.00000E+00         0.00000E+00         0.67681E+06
 
    0.25416E+07         0.49373E+06         0.00000E+00
    0.49373E+06         0.53777E+06         0.00000E+00
    0.00000E+00         0.00000E+00         0.61587E+06
 
    0.21488E+07         0.53749E+06         0.00000E+00
    0.53749E+06         0.63332E+06         0.00000E+00
    0.00000E+00         0.00000E+00         0.55643E+06
 
    0.17739E+07         0.58477E+06         0.00000E+00
    0.58477E+06         0.72633E+06         0.00000E+00
    0.00000E+00         0.00000E+00         0.50004E+06
 
    0.14226E+07         0.63614E+06         0.00000E+00
    0.63614E+06         0.81779E+06         0.00000E+00
    0.00000E+00         0.00000E+00         0.44807E+06
 
    0.11017E+07         0.69143E+06         0.00000E+00
    0.69143E+06         0.90733E+06         0.00000E+00
    0.00000E+00         0.00000E+00         0.40180E+06
 
    0.81998E+06         0.74904E+06         0.00000E+00
    0.74904E+06         0.99225E+06         0.00000E+00
    0.00000E+00         0.00000E+00         0.36244E+06
 
    0.58883E+06         0.80451E+06         0.00000E+00
    0.80451E+06         0.10672E+07         0.00000E+00
    0.00000E+00         0.00000E+00         0.33120E+06
 
    0.42033E+06         0.84876E+06         0.00000E+00
    0.84876E+06         0.11249E+07         0.00000E+00
    0.00000E+00         0.00000E+00         0.30905E+06
 
    0.32295E+06         0.86690E+06         0.00000E+00
    0.86690E+06         0.11597E+07         0.00000E+00
    0.00000E+00         0.00000E+00         0.29653E+06
 
    0.47841E+07         0.11627E+06         0.00000E+00
    0.11627E+06        -0.49161E+04         0.00000E+00
    0.00000E+00         0.00000E+00         0.95583E+06
 
    0.44943E+07         0.28420E+06         0.00000E+00
    0.28420E+06         0.24387E+05         0.00000E+00
    0.00000E+00         0.00000E+00         0.90373E+06
 
    0.41513E+07         0.38929E+06         0.00000E+00
    0.38929E+06         0.77878E+05         0.00000E+00
    0.00000E+00         0.00000E+00         0.84583E+06
 
    0.37705E+07         0.45640E+06         0.00000E+00
    0.45640E+06         0.14706E+06         0.00000E+00
    0.00000E+00         0.00000E+00         0.78351E+06
 
    0.33689E+07         0.50371E+06         0.00000E+00
    0.50371E+06         0.22365E+06         0.00000E+00
    0.00000E+00         0.00000E+00         0.71851E+06
 
    0.29615E+07         0.54306E+06         0.00000E+00
    0.54306E+06         0.30188E+06         0.00000E+00
    0.00000E+00         0.00000E+00         0.65267E+06
 
    0.25594E+07         0.58158E+06         0.00000E+00
    0.58158E+06         0.37903E+06         0.00000E+00
    0.00000E+00         0.00000E+00         0.58769E+06
 
    0.21704E+07         0.62312E+06         0.00000E+00
    0.62312E+06         0.45478E+06         0.00000E+00
    0.00000E+00         0.00000E+00         0.52504E+06
 
    0.18000E+07         0.66935E+06         0.00000E+00
    0.66935E+06         0.53002E+06         0.00000E+00
    0.00000E+00         0.00000E+00         0.46601E+06
 
    0.14529E+07         0.72017E+06         0.00000E+00
    0.72017E+06         0.60568E+06         0.00000E+00
    0.00000E+00         0.00000E+00         0.41172E+06
 
    0.11344E+07         0.77374E+06         0.00000E+00
    0.77374E+06         0.68167E+06         0.00000E+00
    0.00000E+00         0.00000E+00         0.36321E+06
 
    0.85107E+06         0.82618E+06         0.00000E+00
    0.82618E+06         0.75617E+06         0.00000E+00
    0.00000E+00         0.00000E+00         0.32145E+06
 
    0.61100E+06         0.87105E+06         0.00000E+00
    0.87105E+06         0.82555E+06         0.00000E+00
    0.00000E+00         0.00000E+00         0.28731E+06
 
    0.42218E+06         0.89895E+06         0.00000E+00
    0.89895E+06         0.88526E+06         0.00000E+00
    0.00000E+00         0.00000E+00         0.26149E+06
 
    0.28973E+06         0.89815E+06         0.00000E+00
    0.89815E+06         0.93195E+06         0.00000E+00
    0.00000E+00         0.00000E+00         0.24434E+06
 
    0.49874E+07         0.12879E+06         0.00000E+00
    0.12879E+06        -0.26507E+05         0.00000E+00
    0.00000E+00         0.00000E+00         0.99218E+06
 
    0.46182E+07         0.31915E+06         0.00000E+00
    0.31915E+06        -0.76757E+04         0.00000E+00
    0.00000E+00         0.00000E+00         0.92210E+06
 
    0.42220E+07         0.44044E+06         0.00000E+00
    0.44044E+06         0.25768E+05         0.00000E+00
    0.00000E+00         0.00000E+00         0.84956E+06
 
    0.38099E+07         0.51658E+06         0.00000E+00
    0.51658E+06         0.68359E+05         0.00000E+00
    0.00000E+00         0.00000E+00         0.77565E+06
 
    0.33929E+07         0.56718E+06         0.00000E+00
    0.56718E+06         0.11517E+06         0.00000E+00
    0.00000E+00         0.00000E+00         0.70162E+06
 
    0.29808E+07         0.60661E+06         0.00000E+00
    0.60661E+06         0.16302E+06         0.00000E+00
    0.00000E+00         0.00000E+00         0.62876E+06
 
    0.25803E+07         0.64442E+06         0.00000E+00
    0.64442E+06         0.21087E+06         0.00000E+00
    0.00000E+00         0.00000E+00         0.55824E+06
 
    0.21962E+07         0.68611E+06         0.00000E+00
    0.68611E+06         0.25941E+06         0.00000E+00
    0.00000E+00         0.00000E+00         0.49112E+06
 
    0.18313E+07         0.73388E+06         0.00000E+00
    0.73388E+06         0.31025E+06         0.00000E+00
    0.00000E+00         0.00000E+00         0.42832E+06
 
    0.14884E+07         0.78713E+06         0.00000E+00
    0.78713E+06         0.36499E+06         0.00000E+00
    0.00000E+00         0.00000E+00         0.37067E+06
 
    0.11704E+07         0.84268E+06         0.00000E+00
    0.84268E+06         0.42435E+06         0.00000E+00
    0.00000E+00         0.00000E+00         0.31894E+06
 
    0.88162E+06         0.89495E+06         0.00000E+00
    0.89495E+06         0.48759E+06         0.00000E+00
    0.00000E+00         0.00000E+00         0.27384E+06
 
    0.62773E+06         0.93608E+06         0.00000E+00
    0.93608E+06         0.55249E+06         0.00000E+00
    0.00000E+00         0.00000E+00         0.23604E+06
 
    0.41469E+06         0.95645E+06         0.00000E+00
    0.95645E+06         0.61585E+06         0.00000E+00
    0.00000E+00         0.00000E+00         0.20611E+06
 
    0.24740E+06         0.94610E+06         0.00000E+00
    0.94610E+06         0.67473E+06         0.00000E+00
    0.00000E+00         0.00000E+00         0.18443E+06
 
    0.52073E+07         0.13636E+06         0.00000E+00
    0.13636E+06        -0.50620E+05         0.00000E+00
    0.00000E+00         0.00000E+00         0.10313E+07
 
    0.47541E+07         0.33857E+06         0.00000E+00
    0.33857E+06        -0.41987E+05         0.00000E+00
    0.00000E+00         0.00000E+00         0.94242E+06
 
    0.42991E+07         0.46719E+06         0.00000E+00
    0.46719E+06        -0.28740E+05         0.00000E+00
    0.00000E+00         0.00000E+00         0.85406E+06
 
    0.38505E+07         0.54660E+06         0.00000E+00
    0.54660E+06        -0.14291E+05         0.00000E+00
    0.00000E+00         0.00000E+00         0.76724E+06
 
    0.34150E+07         0.59777E+06         0.00000E+00
    0.59777E+06        -0.68230E+03         0.00000E+00
    0.00000E+00         0.00000E+00         0.68287E+06
 
    0.29971E+07         0.63694E+06         0.00000E+00
    0.63694E+06         0.11697E+05         0.00000E+00
    0.00000E+00         0.00000E+00         0.60176E+06
 
    0.25991E+07         0.67542E+06         0.00000E+00
    0.67542E+06         0.24114E+05         0.00000E+00
    0.00000E+00         0.00000E+00         0.52464E+06
 
    0.22215E+07         0.71987E+06         0.00000E+00
    0.71987E+06         0.39096E+05         0.00000E+00
    0.00000E+00         0.00000E+00         0.45212E+06
 
    0.18639E+07         0.77280E+06         0.00000E+00
    0.77280E+06         0.59754E+05         0.00000E+00
    0.00000E+00         0.00000E+00         0.38474E+06
 
    0.15259E+07         0.83309E+06         0.00000E+00
    0.83309E+06         0.88999E+05         0.00000E+00
    0.00000E+00         0.00000E+00         0.32297E+06
 
    0.12076E+07         0.89634E+06         0.00000E+00
    0.89634E+06         0.12880E+06         0.00000E+00
    0.00000E+00         0.00000E+00         0.26728E+06
 
    0.91109E+06         0.95540E+06         0.00000E+00
    0.95540E+06         0.17968E+06         0.00000E+00
    0.00000E+00         0.00000E+00         0.21815E+06
 
    0.63997E+06         0.10009E+07         0.00000E+00
    0.10009E+07         0.24048E+06         0.00000E+00
    0.00000E+00         0.00000E+00         0.17609E+06
 
    0.39949E+06         0.10225E+07         0.00000E+00
    0.10225E+07         0.30855E+06         0.00000E+00
    0.00000E+00         0.00000E+00         0.14161E+06
 
    0.19589E+06         0.10102E+07         0.00000E+00
    0.10102E+07         0.38026E+06         0.00000E+00
    0.00000E+00         0.00000E+00         0.11523E+06
 
    0.54279E+07         0.13880E+06         0.00000E+00
    0.13880E+06        -0.83010E+05         0.00000E+00
    0.00000E+00         0.00000E+00         0.10690E+07
 
    0.48862E+07         0.34197E+06         0.00000E+00
    0.34197E+06        -0.85395E+05         0.00000E+00
    0.00000E+00         0.00000E+00         0.96017E+06
 
    0.43690E+07         0.46817E+06         0.00000E+00
    0.46817E+06        -0.93918E+05         0.00000E+00
    0.00000E+00         0.00000E+00         0.85501E+06
 
    0.38820E+07         0.54366E+06         0.00000E+00
    0.54366E+06        -0.11023E+06         0.00000E+00
    0.00000E+00         0.00000E+00         0.75435E+06
 
    0.34276E+07         0.59116E+06         0.00000E+00
    0.59116E+06        -0.13369E+06         0.00000E+00
    0.00000E+00         0.00000E+00         0.65878E+06
 
    0.30052E+07         0.62857E+06         0.00000E+00
    0.62857E+06        -0.16178E+06         0.00000E+00
    0.00000E+00         0.00000E+00         0.56869E+06
 
    0.26122E+07         0.66855E+06         0.00000E+00
    0.66855E+06        -0.19049E+06         0.00000E+00
    0.00000E+00         0.00000E+00         0.48435E+06
 
    0.22444E+07         0.71854E+06         0.00000E+00
    0.71854E+06        -0.21488E+06         0.00000E+00
    0.00000E+00         0.00000E+00         0.40590E+06
 
    0.18970E+07         0.78110E+06         0.00000E+00
    0.78110E+06        -0.22974E+06         0.00000E+00
    0.00000E+00         0.00000E+00         0.33345E+06
 
    0.15658E+07         0.85439E+06         0.00000E+00
    0.85439E+06        -0.23032E+06         0.00000E+00
    0.00000E+00         0.00000E+00         0.26709E+06
 
    0.12478E+07         0.93270E+06         0.00000E+00
    0.93270E+06        -0.21299E+06         0.00000E+00
    0.00000E+00         0.00000E+00         0.20696E+06
 
    0.94229E+06         0.10071E+07         0.00000E+00
    0.10071E+07        -0.17586E+06         0.00000E+00
    0.00000E+00         0.00000E+00         0.15329E+06
 
    0.65119E+06         0.10664E+07         0.00000E+00
    0.10664E+07        -0.11911E+06         0.00000E+00
    0.00000E+00         0.00000E+00         0.10642E+06
 
    0.37953E+06         0.10982E+07         0.00000E+00
    0.10982E+07        -0.45247E+05         0.00000E+00
    0.00000E+00         0.00000E+00         0.66856E+05
 
    0.13547E+06         0.10913E+07         0.00000E+00
    0.10913E+07         0.40899E+05         0.00000E+00
    0.00000E+00         0.00000E+00         0.35275E+05
 
    0.56328E+07         0.13536E+06         0.00000E+00
    0.13536E+06        -0.12916E+06         0.00000E+00
    0.00000E+00         0.00000E+00         0.11007E+07
 
    0.49984E+07         0.32760E+06         0.00000E+00
    0.32760E+06        -0.14415E+06         0.00000E+00
    0.00000E+00         0.00000E+00         0.97085E+06
 
    0.44175E+07         0.44074E+06         0.00000E+00
    0.44074E+06        -0.17718E+06         0.00000E+00
    0.00000E+00         0.00000E+00         0.84806E+06
 
    0.38928E+07         0.50408E+06         0.00000E+00
    0.50408E+06        -0.22797E+06         0.00000E+00
    0.00000E+00         0.00000E+00         0.73296E+06
 
    0.34220E+07         0.54265E+06         0.00000E+00
    0.54265E+06        -0.29311E+06         0.00000E+00
    0.00000E+00         0.00000E+00         0.62578E+06
 
    0.29992E+07         0.57607E+06         0.00000E+00
    0.57607E+06        -0.36700E+06         0.00000E+00
    0.00000E+00         0.00000E+00         0.52644E+06
 
    0.26161E+07         0.61810E+06         0.00000E+00
    0.61810E+06        -0.44257E+06         0.00000E+00
    0.00000E+00         0.00000E+00         0.43472E+06
 
    0.22632E+07         0.67664E+06         0.00000E+00
    0.67664E+06        -0.51203E+06         0.00000E+00
    0.00000E+00         0.00000E+00         0.35024E+06
 
    0.19307E+07         0.75401E+06         0.00000E+00
    0.75401E+06        -0.56762E+06         0.00000E+00
    0.00000E+00         0.00000E+00         0.27262E+06
 
    0.16099E+07         0.84743E+06         0.00000E+00
    0.84743E+06        -0.60230E+06         0.00000E+00
    0.00000E+00         0.00000E+00         0.20152E+06
 
    0.12940E+07         0.94959E+06         0.00000E+00
    0.94959E+06        -0.61048E+06         0.00000E+00
    0.00000E+00         0.00000E+00         0.13671E+06
 
    0.97925E+06         0.10494E+07         0.00000E+00
    0.10494E+07        -0.58864E+06         0.00000E+00
    0.00000E+00         0.00000E+00         0.78121E+05
 
    0.66566E+06         0.11331E+07         0.00000E+00
    0.11331E+07        -0.53599E+06         0.00000E+00
    0.00000E+00         0.00000E+00         0.25934E+05
 
    0.35798E+06         0.11854E+07         0.00000E+00
    0.11854E+07        -0.45490E+06         0.00000E+00
    0.00000E+00         0.00000E+00        -0.19384E+05
 
    0.66364E+05         0.11921E+07         0.00000E+00
    0.11921E+07        -0.35150E+06         0.00000E+00
    0.00000E+00         0.00000E+00        -0.57026E+05
 
    0.58028E+07         0.12496E+06         0.00000E+00
    0.12496E+06        -0.19549E+06         0.00000E+00
    0.00000E+00         0.00000E+00         0.11215E+07
 
    0.50721E+07         0.29281E+06         0.00000E+00
    0.29281E+06        -0.22523E+06         0.00000E+00
    0.00000E+00         0.00000E+00         0.96938E+06
 
    0.44281E+07         0.38113E+06         0.00000E+00
    0.38113E+06        -0.28640E+06         0.00000E+00
    0.00000E+00         0.00000E+00         0.82834E+06
 
    0.38693E+07         0.42326E+06         0.00000E+00
    0.42326E+06        -0.37634E+06         0.00000E+00
    0.00000E+00         0.00000E+00         0.69859E+06
 
    0.33878E+07         0.44702E+06         0.00000E+00
    0.44702E+06        -0.48858E+06         0.00000E+00
    0.00000E+00         0.00000E+00         0.57984E+06
 
    0.29715E+07         0.47382E+06         0.00000E+00
    0.47382E+06        -0.61409E+06         0.00000E+00
    0.00000E+00         0.00000E+00         0.47149E+06
 
    0.26060E+07         0.51839E+06         0.00000E+00
    0.51839E+06        -0.74246E+06         0.00000E+00
    0.00000E+00         0.00000E+00         0.37270E+06
 
    0.22755E+07         0.58882E+06         0.00000E+00
    0.58882E+06        -0.86273E+06         0.00000E+00
    0.00000E+00         0.00000E+00         0.28255E+06
 
    0.19647E+07         0.68690E+06         0.00000E+00
    0.68690E+06        -0.96424E+06         0.00000E+00
    0.00000E+00         0.00000E+00         0.20009E+06
 
    0.16597E+07         0.80860E+06         0.00000E+00
    0.80860E+06        -0.10374E+07         0.00000E+00
    0.00000E+00         0.00000E+00         0.12446E+06
 
    0.13493E+07         0.94471E+06         0.00000E+00
    0.94471E+06        -0.10742E+07         0.00000E+00
    0.00000E+00         0.00000E+00         0.55011E+05
 
    0.10260E+07         0.10815E+07         0.00000E+00
    0.10815E+07        -0.10694E+07         0.00000E+00
    0.00000E+00         0.00000E+00        -0.86807E+04
 
    0.68752E+06         0.12019E+07         0.00000E+00
    0.12019E+07        -0.10208E+07         0.00000E+00
    0.00000E+00         0.00000E+00        -0.66664E+05
 
    0.33781E+06         0.12867E+07         0.00000E+00
    0.12867E+07        -0.93060E+06         0.00000E+00
    0.00000E+00         0.00000E+00        -0.11856E+06
 
   -0.11463E+05         0.13169E+07         0.00000E+00
    0.13169E+07        -0.80584E+06         0.00000E+00
    0.00000E+00         0.00000E+00        -0.16346E+06
 
    0.59149E+07         0.10626E+06         0.00000E+00
    0.10626E+06        -0.29018E+06         0.00000E+00
    0.00000E+00         0.00000E+00         0.11249E+07
 
    0.50858E+07         0.23429E+06         0.00000E+00
    0.23429E+06        -0.33722E+06         0.00000E+00
    0.00000E+00         0.00000E+00         0.94972E+06
 
    0.43818E+07         0.28480E+06         0.00000E+00
    0.28480E+06        -0.43089E+06         0.00000E+00
    0.00000E+00         0.00000E+00         0.79018E+06
 
    0.37954E+07         0.29590E+06         0.00000E+00
    0.29590E+06        -0.56544E+06         0.00000E+00
    0.00000E+00         0.00000E+00         0.64599E+06
 
    0.33120E+07         0.29855E+06         0.00000E+00
    0.29855E+06        -0.73079E+06         0.00000E+00
    0.00000E+00         0.00000E+00         0.51625E+06
 
    0.29125E+07         0.31603E+06         0.00000E+00
    0.31603E+06        -0.91416E+06         0.00000E+00
    0.00000E+00         0.00000E+00         0.39966E+06
 
    0.25749E+07         0.36383E+06         0.00000E+00
    0.36383E+06        -0.11014E+07         0.00000E+00
    0.00000E+00         0.00000E+00         0.29470E+06
 
    0.22770E+07         0.44992E+06         0.00000E+00
    0.44992E+06        -0.12783E+07         0.00000E+00
    0.00000E+00         0.00000E+00         0.19975E+06
 
    0.19970E+07         0.57528E+06         0.00000E+00
    0.57528E+06        -0.14309E+07         0.00000E+00
    0.00000E+00         0.00000E+00         0.11323E+06
 
    0.17153E+07         0.73436E+06         0.00000E+00
    0.73436E+06        -0.15468E+07         0.00000E+00
    0.00000E+00         0.00000E+00         0.33698E+05
 
    0.14154E+07         0.91572E+06         0.00000E+00
    0.91572E+06        -0.16156E+07         0.00000E+00
    0.00000E+00         0.00000E+00        -0.40037E+05
 
    0.10856E+07         0.11026E+07         0.00000E+00
    0.11026E+07        -0.16296E+07         0.00000E+00
    0.00000E+00         0.00000E+00        -0.10881E+06
 
    0.72015E+06         0.12740E+07         0.00000E+00
    0.12740E+07        -0.15852E+07         0.00000E+00
    0.00000E+00         0.00000E+00        -0.17300E+06
 
    0.32142E+06         0.14055E+07         0.00000E+00
    0.14055E+07        -0.14834E+07         0.00000E+00
    0.00000E+00         0.00000E+00        -0.23239E+06
 
   -0.98370E+05         0.14718E+07         0.00000E+00
    0.14718E+07        -0.13320E+07         0.00000E+00
    0.00000E+00         0.00000E+00        -0.28606E+06
 
    0.59408E+07         0.77725E+05         0.00000E+00
    0.77725E+05        -0.42383E+06         0.00000E+00
    0.00000E+00         0.00000E+00         0.11034E+07
 
    0.50136E+07         0.14827E+06         0.00000E+00
    0.14827E+06        -0.49109E+06         0.00000E+00
    0.00000E+00         0.00000E+00         0.90451E+06
 
    0.42557E+07         0.14663E+06         0.00000E+00
    0.14663E+06        -0.62214E+06         0.00000E+00
    0.00000E+00         0.00000E+00         0.72672E+06
 
    0.36519E+07         0.11624E+06         0.00000E+00
    0.11624E+06        -0.80731E+06         0.00000E+00
    0.00000E+00         0.00000E+00         0.56892E+06
 
    0.31791E+07         0.91390E+05         0.00000E+00
    0.91390E+05        -0.10322E+07         0.00000E+00
    0.00000E+00         0.00000E+00         0.42938E+06
 
    0.28096E+07         0.97059E+05         0.00000E+00
    0.97059E+05        -0.12798E+07         0.00000E+00
    0.00000E+00         0.00000E+00         0.30595E+06
 
    0.25135E+07         0.14917E+06         0.00000E+00
    0.14917E+06        -0.15320E+07         0.00000E+00
    0.00000E+00         0.00000E+00         0.19630E+06
 
    0.22609E+07         0.25524E+06         0.00000E+00
    0.25524E+06        -0.17708E+07         0.00000E+00
    0.00000E+00         0.00000E+00         0.98014E+05
 
    0.20231E+07         0.41506E+06         0.00000E+00
    0.41506E+06        -0.19794E+07         0.00000E+00
    0.00000E+00         0.00000E+00         0.87572E+04
 
    0.17743E+07         0.62138E+06         0.00000E+00
    0.62138E+06        -0.21423E+07         0.00000E+00
    0.00000E+00         0.00000E+00        -0.73601E+05
 
    0.14920E+07         0.86035E+06         0.00000E+00
    0.86035E+06        -0.22463E+07         0.00000E+00
    0.00000E+00         0.00000E+00        -0.15088E+06
 
    0.11591E+07         0.11120E+07         0.00000E+00
    0.11120E+07        -0.22813E+07         0.00000E+00
    0.00000E+00         0.00000E+00        -0.22444E+06
 
    0.76542E+06         0.13506E+07         0.00000E+00
    0.13506E+07        -0.22410E+07         0.00000E+00
    0.00000E+00         0.00000E+00        -0.29511E+06
 
    0.31023E+06         0.15459E+07         0.00000E+00
    0.15459E+07        -0.21250E+07         0.00000E+00
    0.00000E+00         0.00000E+00        -0.36295E+06
 
   -0.19520E+06         0.16645E+07         0.00000E+00
    0.16645E+07        -0.19406E+07         0.00000E+00
    0.00000E+00         0.00000E+00        -0.42716E+06
 
    0.58465E+07         0.37710E+05         0.00000E+00
    0.37710E+05        -0.61013E+06         0.00000E+00
    0.00000E+00         0.00000E+00         0.10473E+07
 
    0.48248E+07         0.30668E+05         0.00000E+00
    0.30668E+05        -0.70080E+06         0.00000E+00
    0.00000E+00         0.00000E+00         0.82480E+06
 
    0.40231E+07        -0.38757E+05         0.00000E+00
   -0.38757E+05        -0.87457E+06         0.00000E+00
    0.00000E+00         0.00000E+00         0.62971E+06
 
    0.34160E+07        -0.12150E+06         0.00000E+00
   -0.12150E+06        -0.11167E+07         0.00000E+00
    0.00000E+00         0.00000E+00         0.45985E+06
 
    0.29698E+07        -0.18001E+06         0.00000E+00
   -0.18001E+06        -0.14077E+07         0.00000E+00
    0.00000E+00         0.00000E+00         0.31243E+06
 
    0.26470E+07        -0.18805E+06         0.00000E+00
   -0.18805E+06        -0.17255E+07         0.00000E+00
    0.00000E+00         0.00000E+00         0.18430E+06
 
    0.24086E+07        -0.12985E+06         0.00000E+00
   -0.12985E+06        -0.20479E+07         0.00000E+00
    0.00000E+00         0.00000E+00         0.72143E+05
 
    0.22165E+07         0.10719E+04         0.00000E+00
    0.10719E+04        -0.23534E+07         0.00000E+00
    0.00000E+00         0.00000E+00        -0.27382E+05
 
    0.20347E+07         0.20303E+06         0.00000E+00
    0.20303E+06        -0.26220E+07         0.00000E+00
    0.00000E+00         0.00000E+00        -0.11747E+06
 
    0.18304E+07         0.46691E+06         0.00000E+00
    0.46691E+06        -0.28356E+07         0.00000E+00
    0.00000E+00         0.00000E+00        -0.20104E+06
 
    0.15748E+07         0.77655E+06         0.00000E+00
    0.77655E+06        -0.29781E+07         0.00000E+00
    0.00000E+00         0.00000E+00        -0.28066E+06
 
    0.12443E+07         0.11087E+07         0.00000E+00
    0.11087E+07        -0.30362E+07         0.00000E+00
    0.00000E+00         0.00000E+00        -0.35837E+06
 
    0.82276E+06         0.14330E+07         0.00000E+00
    0.14330E+07        -0.30004E+07         0.00000E+00
    0.00000E+00         0.00000E+00        -0.43554E+06
 
    0.30412E+06         0.17123E+07         0.00000E+00
    0.17123E+07        -0.28677E+07         0.00000E+00
    0.00000E+00         0.00000E+00        -0.51272E+06
 
   -0.30348E+06         0.19040E+07         0.00000E+00
    0.19040E+07        -0.26436E+07         0.00000E+00
    0.00000E+00         0.00000E+00        -0.58941E+06
 
    0.55908E+07        -0.15539E+05         0.00000E+00
   -0.15539E+05        -0.86644E+06         0.00000E+00
    0.00000E+00         0.00000E+00         0.94487E+06
 
    0.44830E+07        -0.12272E+06         0.00000E+00
   -0.12272E+06        -0.98406E+06         0.00000E+00
    0.00000E+00         0.00000E+00         0.69978E+06
 
    0.36524E+07        -0.27670E+06         0.00000E+00
   -0.27670E+06        -0.12063E+07         0.00000E+00
    0.00000E+00         0.00000E+00         0.48923E+06
 
    0.30606E+07        -0.42263E+06         0.00000E+00
   -0.42263E+06        -0.15119E+07         0.00000E+00
    0.00000E+00         0.00000E+00         0.30973E+06
 
    0.26613E+07        -0.52018E+06         0.00000E+00
   -0.52018E+06        -0.18751E+07         0.00000E+00
    0.00000E+00         0.00000E+00         0.15724E+06
 
    0.24052E+07        -0.54272E+06         0.00000E+00
   -0.54272E+06        -0.22683E+07         0.00000E+00
    0.00000E+00         0.00000E+00         0.27370E+05
 
    0.22431E+07        -0.47564E+06         0.00000E+00
   -0.47564E+06        -0.26649E+07         0.00000E+00
    0.00000E+00         0.00000E+00        -0.84353E+05
 
    0.21284E+07        -0.31432E+06         0.00000E+00
   -0.31432E+06        -0.30400E+07         0.00000E+00
    0.00000E+00         0.00000E+00        -0.18231E+06
 
    0.20179E+07        -0.62358E+05         0.00000E+00
   -0.62358E+05        -0.33712E+07         0.00000E+00
    0.00000E+00         0.00000E+00        -0.27067E+06
 
    0.18717E+07         0.26935E+06         0.00000E+00
    0.26935E+06        -0.36380E+07         0.00000E+00
    0.00000E+00         0.00000E+00        -0.35326E+06
 
    0.16543E+07         0.66276E+06         0.00000E+00
    0.66276E+06        -0.38217E+07         0.00000E+00
    0.00000E+00         0.00000E+00        -0.43349E+06
 
    0.13343E+07         0.10920E+07         0.00000E+00
    0.10920E+07        -0.39054E+07         0.00000E+00
    0.00000E+00         0.00000E+00        -0.51420E+06
 
    0.88772E+06         0.15223E+07         0.00000E+00
    0.15223E+07        -0.38755E+07         0.00000E+00
    0.00000E+00         0.00000E+00        -0.59755E+06
 
    0.30050E+06         0.19094E+07         0.00000E+00
    0.19094E+07        -0.37243E+07         0.00000E+00
    0.00000E+00         0.00000E+00        -0.68475E+06
 
   -0.42577E+06         0.22001E+07         0.00000E+00
    0.22001E+07        -0.34536E+07         0.00000E+00
    0.00000E+00         0.00000E+00        -0.77587E+06
 
    0.51253E+07        -0.83840E+05         0.00000E+00
   -0.83840E+05        -0.12146E+07         0.00000E+00
    0.00000E+00         0.00000E+00         0.78212E+06
 
    0.39454E+07        -0.31614E+06         0.00000E+00
   -0.31614E+06        -0.13631E+07         0.00000E+00
    0.00000E+00         0.00000E+00         0.51646E+06
 
    0.31069E+07        -0.57216E+06         0.00000E+00
   -0.57216E+06        -0.16399E+07         0.00000E+00
    0.00000E+00         0.00000E+00         0.29339E+06
 
    0.25546E+07        -0.79137E+06         0.00000E+00
   -0.79137E+06        -0.20156E+07         0.00000E+00
    0.00000E+00         0.00000E+00         0.10779E+06
 
    0.22265E+07        -0.93164E+06         0.00000E+00
   -0.93164E+06        -0.24563E+07         0.00000E+00
    0.00000E+00         0.00000E+00        -0.45959E+05
 
    0.20597E+07        -0.96756E+06         0.00000E+00
   -0.96756E+06        -0.29282E+07         0.00000E+00
    0.00000E+00         0.00000E+00        -0.17370E+06
 
    0.19941E+07        -0.88733E+06         0.00000E+00
   -0.88733E+06        -0.34002E+07         0.00000E+00
    0.00000E+00         0.00000E+00        -0.28122E+06
 
    0.19746E+07        -0.68940E+06         0.00000E+00
   -0.68940E+06        -0.38450E+07         0.00000E+00
    0.00000E+00         0.00000E+00        -0.37406E+06
 
    0.19514E+07        -0.37983E+06         0.00000E+00
   -0.37983E+06        -0.42386E+07         0.00000E+00
    0.00000E+00         0.00000E+00        -0.45745E+06
 
    0.18783E+07         0.29038E+05         0.00000E+00
    0.29038E+05        -0.45594E+07         0.00000E+00
    0.00000E+00         0.00000E+00        -0.53621E+06
 
    0.17127E+07         0.51827E+06         0.00000E+00
    0.51827E+06        -0.47861E+07         0.00000E+00
    0.00000E+00         0.00000E+00        -0.61468E+06
 
    0.14149E+07         0.10607E+07         0.00000E+00
    0.10607E+07        -0.48983E+07         0.00000E+00
    0.00000E+00         0.00000E+00        -0.69668E+06
 
    0.95018E+06         0.16184E+07         0.00000E+00
    0.16184E+07        -0.48768E+07         0.00000E+00
    0.00000E+00         0.00000E+00        -0.78533E+06
 
    0.29307E+06         0.21407E+07         0.00000E+00
    0.21407E+07        -0.47072E+07         0.00000E+00
    0.00000E+00         0.00000E+00        -0.88282E+06
 
   -0.56611E+06         0.25625E+07         0.00000E+00
    0.25625E+07        -0.43844E+07         0.00000E+00
    0.00000E+00         0.00000E+00        -0.99009E+06
 
    0.43925E+07        -0.16909E+06         0.00000E+00
   -0.16909E+06        -0.16819E+07         0.00000E+00
    0.00000E+00         0.00000E+00         0.54213E+06
 
    0.31625E+07        -0.55377E+06         0.00000E+00
   -0.55377E+06        -0.18658E+07         0.00000E+00
    0.00000E+00         0.00000E+00         0.25934E+06
 
    0.23444E+07        -0.92936E+06         0.00000E+00
   -0.92936E+06        -0.22040E+07         0.00000E+00
    0.00000E+00         0.00000E+00         0.28088E+05
 
    0.18620E+07        -0.12300E+07         0.00000E+00
   -0.12300E+07        -0.26560E+07         0.00000E+00
    0.00000E+00         0.00000E+00        -0.15880E+06
 
    0.16338E+07        -0.14136E+07         0.00000E+00
   -0.14136E+07        -0.31780E+07         0.00000E+00
    0.00000E+00         0.00000E+00        -0.30884E+06
 
    0.15809E+07        -0.14587E+07         0.00000E+00
   -0.14587E+07        -0.37288E+07         0.00000E+00
    0.00000E+00         0.00000E+00        -0.42958E+06
 
    0.16321E+07        -0.13589E+07         0.00000E+00
   -0.13589E+07        -0.42733E+07         0.00000E+00
    0.00000E+00         0.00000E+00        -0.52824E+06
 
    0.17249E+07        -0.11176E+07         0.00000E+00
   -0.11176E+07        -0.47831E+07         0.00000E+00
    0.00000E+00         0.00000E+00        -0.61166E+06
 
    0.18042E+07        -0.74376E+06         0.00000E+00
   -0.74376E+06        -0.52349E+07         0.00000E+00
    0.00000E+00         0.00000E+00        -0.68614E+06
 
    0.18194E+07        -0.25068E+06         0.00000E+00
   -0.25068E+06        -0.56070E+07         0.00000E+00
    0.00000E+00         0.00000E+00        -0.75752E+06
 
    0.17216E+07         0.34370E+06         0.00000E+00
    0.34370E+06        -0.58775E+07         0.00000E+00
    0.00000E+00         0.00000E+00        -0.83118E+06
 
    0.14616E+07         0.10134E+07         0.00000E+00
    0.10134E+07        -0.60217E+07         0.00000E+00
    0.00000E+00         0.00000E+00        -0.91201E+06
 
    0.99176E+06         0.17200E+07         0.00000E+00
    0.17200E+07        -0.60135E+07         0.00000E+00
    0.00000E+00         0.00000E+00        -0.10043E+07
 
    0.27013E+06         0.24077E+07         0.00000E+00
    0.24077E+07        -0.58284E+07         0.00000E+00
    0.00000E+00         0.00000E+00        -0.11117E+07
 
   -0.73072E+06         0.30001E+07         0.00000E+00
    0.30001E+07        -0.54508E+07         0.00000E+00
    0.00000E+00         0.00000E+00        -0.12363E+07
 
    0.33256E+07        -0.27335E+06         0.00000E+00
   -0.27335E+06        -0.23019E+07         0.00000E+00
    0.00000E+00         0.00000E+00         0.20474E+06
 
    0.20770E+07        -0.83976E+06         0.00000E+00
   -0.83976E+06        -0.25268E+07         0.00000E+00
    0.00000E+00         0.00000E+00        -0.89969E+05
 
    0.13174E+07        -0.13514E+07         0.00000E+00
   -0.13514E+07        -0.29344E+07         0.00000E+00
    0.00000E+00         0.00000E+00        -0.32340E+06
 
    0.94267E+06        -0.17378E+07         0.00000E+00
   -0.17378E+07        -0.34688E+07         0.00000E+00
    0.00000E+00         0.00000E+00        -0.50523E+06
 
    0.84684E+06        -0.19603E+07         0.00000E+00
   -0.19603E+07        -0.40732E+07         0.00000E+00
    0.00000E+00         0.00000E+00        -0.64527E+06
 
    0.93307E+06        -0.20056E+07         0.00000E+00
   -0.20056E+07        -0.46982E+07         0.00000E+00
    0.00000E+00         0.00000E+00        -0.75302E+06
 
    0.11192E+07        -0.18768E+07         0.00000E+00
   -0.18768E+07        -0.53058E+07         0.00000E+00
    0.00000E+00         0.00000E+00        -0.83732E+06
 
    0.13379E+07        -0.15847E+07         0.00000E+00
   -0.15847E+07        -0.58692E+07         0.00000E+00
    0.00000E+00         0.00000E+00        -0.90626E+06
 
    0.15320E+07        -0.11422E+07         0.00000E+00
   -0.11422E+07        -0.63682E+07         0.00000E+00
    0.00000E+00         0.00000E+00        -0.96723E+06
 
    0.16495E+07        -0.56197E+06         0.00000E+00
   -0.56197E+06        -0.67847E+07         0.00000E+00
    0.00000E+00         0.00000E+00        -0.10270E+07
 
    0.16369E+07         0.14171E+06         0.00000E+00
    0.14171E+06        -0.70972E+07         0.00000E+00
    0.00000E+00         0.00000E+00        -0.10920E+07
 
    0.14358E+07         0.94820E+06         0.00000E+00
    0.94820E+06        -0.72776E+07         0.00000E+00
    0.00000E+00         0.00000E+00        -0.11684E+07
 
    0.98235E+06         0.18229E+07         0.00000E+00
    0.18229E+07        -0.72910E+07         0.00000E+00
    0.00000E+00         0.00000E+00        -0.12617E+07
 
    0.21215E+06         0.27085E+07         0.00000E+00
    0.27085E+07        -0.70990E+07         0.00000E+00
    0.00000E+00         0.00000E+00        -0.13774E+07
 
   -0.92885E+06         0.35181E+07         0.00000E+00
    0.35181E+07        -0.66689E+07         0.00000E+00
    0.00000E+00         0.00000E+00        -0.15195E+07
 
    0.18456E+07        -0.39902E+06         0.00000E+00
   -0.39902E+06        -0.31164E+07         0.00000E+00
    0.00000E+00         0.00000E+00        -0.25416E+06
 
    0.62307E+06        -0.11784E+07         0.00000E+00
   -0.11784E+07        -0.33902E+07         0.00000E+00
    0.00000E+00         0.00000E+00        -0.55342E+06
 
   -0.27698E+05        -0.18395E+07         0.00000E+00
   -0.18395E+07        -0.38769E+07         0.00000E+00
    0.00000E+00         0.00000E+00        -0.78091E+06
 
   -0.24825E+06        -0.23093E+07         0.00000E+00
   -0.23093E+07        -0.44991E+07         0.00000E+00
    0.00000E+00         0.00000E+00        -0.94947E+06
 
   -0.17572E+06        -0.25581E+07         0.00000E+00
   -0.25581E+07        -0.51828E+07         0.00000E+00
    0.00000E+00         0.00000E+00        -0.10717E+07
 
    0.72976E+05        -0.25878E+07         0.00000E+00
   -0.25878E+07        -0.58697E+07         0.00000E+00
    0.00000E+00         0.00000E+00        -0.11593E+07
 
    0.40693E+06        -0.24167E+07         0.00000E+00
   -0.24167E+07        -0.65216E+07         0.00000E+00
    0.00000E+00         0.00000E+00        -0.12229E+07
 
    0.75814E+06        -0.20665E+07         0.00000E+00
   -0.20665E+07        -0.71168E+07         0.00000E+00
    0.00000E+00         0.00000E+00        -0.12717E+07
 
    0.10732E+07        -0.15544E+07         0.00000E+00
   -0.15544E+07        -0.76435E+07         0.00000E+00
    0.00000E+00         0.00000E+00        -0.13140E+07
 
    0.13034E+07        -0.89085E+06         0.00000E+00
   -0.89085E+06        -0.80905E+07         0.00000E+00
    0.00000E+00         0.00000E+00        -0.13574E+07
 
    0.13943E+07        -0.82193E+05         0.00000E+00
   -0.82193E+05        -0.84402E+07         0.00000E+00
    0.00000E+00         0.00000E+00        -0.14092E+07
 
    0.12792E+07         0.86223E+06         0.00000E+00
    0.86223E+06        -0.86620E+07         0.00000E+00
    0.00000E+00         0.00000E+00        -0.14766E+07
 
    0.87546E+06         0.19186E+07         0.00000E+00
    0.19186E+07        -0.87103E+07         0.00000E+00
    0.00000E+00         0.00000E+00        -0.15670E+07
 
    0.88594E+05         0.30347E+07         0.00000E+00
    0.30347E+07        -0.85277E+07         0.00000E+00
    0.00000E+00         0.00000E+00        -0.16878E+07
 
   -0.11741E+07         0.41165E+07         0.00000E+00
    0.41165E+07        -0.80563E+07         0.00000E+00
    0.00000E+00         0.00000E+00        -0.18461E+07
 
   -0.14096E+06        -0.54931E+06         0.00000E+00
   -0.54931E+06        -0.41781E+07         0.00000E+00
    0.00000E+00         0.00000E+00        -0.86380E+06
 
   -0.12752E+07        -0.15746E+07         0.00000E+00
   -0.15746E+07        -0.45119E+07         0.00000E+00
    0.00000E+00         0.00000E+00        -0.11574E+07
 
   -0.17502E+07        -0.23926E+07         0.00000E+00
   -0.23926E+07        -0.50905E+07         0.00000E+00
    0.00000E+00         0.00000E+00        -0.13681E+07
 
   -0.17599E+07        -0.29318E+07         0.00000E+00
   -0.29318E+07        -0.58045E+07         0.00000E+00
    0.00000E+00         0.00000E+00        -0.15129E+07
 
   -0.14816E+07        -0.31817E+07         0.00000E+00
   -0.31817E+07        -0.65571E+07         0.00000E+00
    0.00000E+00         0.00000E+00        -0.16077E+07
 
   -0.10530E+07        -0.31706E+07         0.00000E+00
   -0.31706E+07        -0.72820E+07         0.00000E+00
    0.00000E+00         0.00000E+00        -0.16670E+07
 
   -0.56858E+06        -0.29399E+07         0.00000E+00
   -0.29399E+07        -0.79455E+07         0.00000E+00
    0.00000E+00         0.00000E+00        -0.17028E+07
 
   -0.89227E+05        -0.25253E+07         0.00000E+00
   -0.25253E+07        -0.85380E+07         0.00000E+00
    0.00000E+00         0.00000E+00        -0.17254E+07
 
    0.34306E+06        -0.19486E+07         0.00000E+00
   -0.19486E+07        -0.90611E+07         0.00000E+00
    0.00000E+00         0.00000E+00        -0.17436E+07
 
    0.68976E+06        -0.12153E+07         0.00000E+00
   -0.12153E+07        -0.95163E+07         0.00000E+00
    0.00000E+00         0.00000E+00        -0.17653E+07
 
    0.90167E+06        -0.31846E+06         0.00000E+00
   -0.31846E+06        -0.98935E+07         0.00000E+00
    0.00000E+00         0.00000E+00        -0.17984E+07
 
    0.90662E+06         0.75174E+06         0.00000E+00
    0.75174E+06        -0.10162E+08         0.00000E+00
    0.00000E+00         0.00000E+00        -0.18512E+07
 
    0.60147E+06         0.19929E+07         0.00000E+00
    0.19929E+07        -0.10266E+08         0.00000E+00
    0.00000E+00         0.00000E+00        -0.19328E+07
 
   -0.14694E+06         0.33687E+07         0.00000E+00
    0.33687E+07        -0.10121E+08         0.00000E+00
    0.00000E+00         0.00000E+00        -0.20535E+07
 
   -0.14865E+07         0.47852E+07         0.00000E+00
    0.47852E+07        -0.96327E+07         0.00000E+00
    0.00000E+00         0.00000E+00        -0.22238E+07
 
   -0.27482E+07        -0.72898E+06         0.00000E+00
   -0.72898E+06        -0.55545E+07         0.00000E+00
    0.00000E+00         0.00000E+00        -0.16605E+07
 
   -0.37064E+07        -0.20341E+07         0.00000E+00
   -0.20341E+07        -0.59658E+07         0.00000E+00
    0.00000E+00         0.00000E+00        -0.19344E+07
 
   -0.39156E+07        -0.30047E+07         0.00000E+00
   -0.30047E+07        -0.66536E+07         0.00000E+00
    0.00000E+00         0.00000E+00        -0.21138E+07
 
   -0.36471E+07        -0.35800E+07         0.00000E+00
   -0.35800E+07        -0.74591E+07         0.00000E+00
    0.00000E+00         0.00000E+00        -0.22212E+07
 
   -0.31286E+07        -0.37882E+07         0.00000E+00
   -0.37882E+07        -0.82568E+07         0.00000E+00
    0.00000E+00         0.00000E+00        -0.22771E+07
 
   -0.25151E+07        -0.37004E+07         0.00000E+00
   -0.37004E+07        -0.89777E+07         0.00000E+00
    0.00000E+00         0.00000E+00        -0.22985E+07
 
   -0.18937E+07        -0.33896E+07         0.00000E+00
   -0.33896E+07        -0.96021E+07         0.00000E+00
    0.00000E+00         0.00000E+00        -0.22992E+07
 
   -0.13065E+07        -0.29082E+07         0.00000E+00
   -0.29082E+07        -0.10141E+08         0.00000E+00
    0.00000E+00         0.00000E+00        -0.22895E+07
 
   -0.77424E+06        -0.22803E+07         0.00000E+00
   -0.22803E+07        -0.10616E+08         0.00000E+00
    0.00000E+00         0.00000E+00        -0.22781E+07
 
   -0.31652E+06        -0.15033E+07         0.00000E+00
   -0.15033E+07        -0.11047E+08         0.00000E+00
    0.00000E+00         0.00000E+00        -0.22726E+07
 
    0.30396E+05        -0.55191E+06         0.00000E+00
   -0.55191E+06        -0.11435E+08         0.00000E+00
    0.00000E+00         0.00000E+00        -0.22809E+07
 
    0.19578E+06         0.61248E+06         0.00000E+00
    0.61248E+06        -0.11756E+08         0.00000E+00
    0.00000E+00         0.00000E+00        -0.23120E+07
 
    0.57790E+05         0.20236E+07         0.00000E+00
    0.20236E+07        -0.11942E+08         0.00000E+00
    0.00000E+00         0.00000E+00        -0.23769E+07
 
   -0.56415E+06         0.36788E+07         0.00000E+00
    0.36788E+07        -0.11880E+08         0.00000E+00
    0.00000E+00         0.00000E+00        -0.24888E+07
 
   -0.18952E+07         0.54988E+07         0.00000E+00
    0.54988E+07        -0.11421E+08         0.00000E+00
    0.00000E+00         0.00000E+00        -0.26632E+07
 
   -0.61210E+07        -0.94579E+06         0.00000E+00
   -0.94579E+06        -0.73364E+07         0.00000E+00
    0.00000E+00         0.00000E+00        -0.26915E+07
 
   -0.67755E+07        -0.25640E+07         0.00000E+00
   -0.25640E+07        -0.78533E+07         0.00000E+00
    0.00000E+00         0.00000E+00        -0.29258E+07
 
   -0.65972E+07        -0.36595E+07         0.00000E+00
   -0.36595E+07        -0.86723E+07         0.00000E+00
    0.00000E+00         0.00000E+00        -0.30539E+07
 
   -0.59746E+07        -0.42065E+07         0.00000E+00
   -0.42065E+07        -0.95568E+07         0.00000E+00
    0.00000E+00         0.00000E+00        -0.31063E+07
 
   -0.51947E+07        -0.43071E+07         0.00000E+00
   -0.43071E+07        -0.10351E+08         0.00000E+00
    0.00000E+00         0.00000E+00        -0.31091E+07
 
   -0.44141E+07        -0.40980E+07         0.00000E+00
   -0.40980E+07        -0.10998E+08         0.00000E+00
    0.00000E+00         0.00000E+00        -0.30825E+07
 
   -0.36920E+07        -0.36898E+07         0.00000E+00
   -0.36898E+07        -0.11511E+08         0.00000E+00
    0.00000E+00         0.00000E+00        -0.30405E+07
 
   -0.30361E+07        -0.31473E+07         0.00000E+00
   -0.31473E+07        -0.11929E+08         0.00000E+00
    0.00000E+00         0.00000E+00        -0.29931E+07
 
   -0.24362E+07        -0.24929E+07         0.00000E+00
   -0.24929E+07        -0.12300E+08         0.00000E+00
    0.00000E+00         0.00000E+00        -0.29473E+07
 
   -0.18850E+07        -0.17125E+07         0.00000E+00
   -0.17125E+07        -0.12662E+08         0.00000E+00
    0.00000E+00         0.00000E+00        -0.29095E+07
 
   -0.13963E+07        -0.75921E+06         0.00000E+00
   -0.75921E+06        -0.13036E+08         0.00000E+00
    0.00000E+00         0.00000E+00        -0.28865E+07
 
   -0.10267E+07         0.44187E+06         0.00000E+00
    0.44187E+06        -0.13409E+08         0.00000E+00
    0.00000E+00         0.00000E+00        -0.28872E+07
 
   -0.90681E+06         0.19789E+07         0.00000E+00
    0.19789E+07        -0.13714E+08         0.00000E+00
    0.00000E+00         0.00000E+00        -0.29241E+07
 
   -0.12688E+07         0.39127E+07         0.00000E+00
    0.39127E+07        -0.13801E+08         0.00000E+00
    0.00000E+00         0.00000E+00        -0.30140E+07
 
   -0.24443E+07         0.62074E+07         0.00000E+00
    0.62074E+07        -0.13448E+08         0.00000E+00
    0.00000E+00         0.00000E+00        -0.31785E+07
 
   -0.10454E+08        -0.12133E+07         0.00000E+00
   -0.12133E+07        -0.96530E+07         0.00000E+00
    0.00000E+00         0.00000E+00        -0.40214E+07
 
   -0.10611E+08        -0.31711E+07         0.00000E+00
   -0.31711E+07        -0.10323E+08         0.00000E+00
    0.00000E+00         0.00000E+00        -0.41869E+07
 
   -0.98804E+07        -0.43161E+07         0.00000E+00
   -0.43161E+07        -0.11295E+08         0.00000E+00
    0.00000E+00         0.00000E+00        -0.42351E+07
 
   -0.88328E+07        -0.47206E+07         0.00000E+00
   -0.47206E+07        -0.12212E+08         0.00000E+00
    0.00000E+00         0.00000E+00        -0.42089E+07
 
   -0.78049E+07        -0.46255E+07         0.00000E+00
   -0.46255E+07        -0.12905E+08         0.00000E+00
    0.00000E+00         0.00000E+00        -0.41420E+07
 
   -0.69122E+07        -0.42552E+07         0.00000E+00
   -0.42552E+07        -0.13372E+08         0.00000E+00
    0.00000E+00         0.00000E+00        -0.40568E+07
 
   -0.61520E+07        -0.37481E+07         0.00000E+00
   -0.37481E+07        -0.13678E+08         0.00000E+00
    0.00000E+00         0.00000E+00        -0.39660E+07
 
   -0.54827E+07        -0.31668E+07         0.00000E+00
   -0.31668E+07        -0.13900E+08         0.00000E+00
    0.00000E+00         0.00000E+00        -0.38766E+07
 
   -0.48589E+07        -0.25233E+07         0.00000E+00
   -0.25233E+07        -0.14106E+08         0.00000E+00
    0.00000E+00         0.00000E+00        -0.37929E+07
 
   -0.42436E+07        -0.17912E+07         0.00000E+00
   -0.17912E+07        -0.14349E+08         0.00000E+00
    0.00000E+00         0.00000E+00        -0.37185E+07
 
   -0.36184E+07        -0.90550E+06         0.00000E+00
   -0.90550E+06        -0.14671E+08         0.00000E+00
    0.00000E+00         0.00000E+00        -0.36578E+07
 
   -0.30060E+07         0.24513E+06         0.00000E+00
    0.24513E+06        -0.15084E+08         0.00000E+00
    0.00000E+00         0.00000E+00        -0.36180E+07
 
   -0.25182E+07         0.18204E+07         0.00000E+00
    0.18204E+07        -0.15540E+08         0.00000E+00
    0.00000E+00         0.00000E+00        -0.36116E+07
 
   -0.24265E+07         0.39903E+07         0.00000E+00
    0.39903E+07        -0.15869E+08         0.00000E+00
    0.00000E+00         0.00000E+00        -0.36591E+07
 
   -0.32033E+07         0.68225E+07         0.00000E+00
    0.68225E+07        -0.15747E+08         0.00000E+00
    0.00000E+00         0.00000E+00        -0.37901E+07
 
   -0.16031E+08        -0.15581E+07         0.00000E+00
   -0.15581E+07        -0.12712E+08         0.00000E+00
    0.00000E+00         0.00000E+00        -0.57486E+07
 
   -0.15377E+08        -0.38513E+07         0.00000E+00
   -0.38513E+07        -0.13613E+08         0.00000E+00
    0.00000E+00         0.00000E+00        -0.57980E+07
 
   -0.13882E+08        -0.48672E+07         0.00000E+00
   -0.48672E+07        -0.14732E+08         0.00000E+00
    0.00000E+00         0.00000E+00        -0.57229E+07
 
   -0.12389E+08        -0.49472E+07         0.00000E+00
   -0.49472E+07        -0.15541E+08         0.00000E+00
    0.00000E+00         0.00000E+00        -0.55859E+07
 
   -0.11200E+08        -0.45746E+07         0.00000E+00
   -0.45746E+07        -0.15951E+08         0.00000E+00
    0.00000E+00         0.00000E+00        -0.54303E+07
 
   -0.10296E+08        -0.40431E+07         0.00000E+00
   -0.40431E+07        -0.16093E+08         0.00000E+00
    0.00000E+00         0.00000E+00        -0.52777E+07
 
   -0.95765E+07        -0.34724E+07         0.00000E+00
   -0.34724E+07        -0.16094E+08         0.00000E+00
    0.00000E+00         0.00000E+00        -0.51340E+07
 
   -0.89518E+07        -0.28985E+07         0.00000E+00
   -0.28985E+07        -0.16052E+08         0.00000E+00
    0.00000E+00         0.00000E+00        -0.50007E+07
 
   -0.83479E+07        -0.23154E+07         0.00000E+00
   -0.23154E+07        -0.16040E+08         0.00000E+00
    0.00000E+00         0.00000E+00        -0.48776E+07
 
   -0.77024E+07        -0.16868E+07         0.00000E+00
   -0.16868E+07        -0.16118E+08         0.00000E+00
    0.00000E+00         0.00000E+00        -0.47640E+07
 
   -0.69617E+07        -0.94188E+06         0.00000E+00
   -0.94188E+06        -0.16339E+08         0.00000E+00
    0.00000E+00         0.00000E+00        -0.46602E+07
 
   -0.60894E+07         0.48159E+05         0.00000E+00
    0.48159E+05        -0.16752E+08         0.00000E+00
    0.00000E+00         0.00000E+00        -0.45683E+07
 
   -0.51228E+07         0.15141E+07         0.00000E+00
    0.15141E+07        -0.17370E+08         0.00000E+00
    0.00000E+00         0.00000E+00        -0.44985E+07
 
   -0.43110E+07         0.37952E+07         0.00000E+00
    0.37952E+07        -0.18049E+08         0.00000E+00
    0.00000E+00         0.00000E+00        -0.44720E+07
 
   -0.42900E+07         0.71891E+07         0.00000E+00
    0.71891E+07        -0.18358E+08         0.00000E+00
    0.00000E+00         0.00000E+00        -0.45296E+07
 
   -0.23319E+08        -0.20384E+07         0.00000E+00
   -0.20384E+07        -0.16877E+08         0.00000E+00
    0.00000E+00         0.00000E+00        -0.80392E+07
 
   -0.21304E+08        -0.45402E+07         0.00000E+00
   -0.45402E+07        -0.18168E+08         0.00000E+00
    0.00000E+00         0.00000E+00        -0.78945E+07
 
   -0.18847E+08        -0.50095E+07         0.00000E+00
   -0.50095E+07        -0.19255E+08         0.00000E+00
    0.00000E+00         0.00000E+00        -0.76202E+07
 
   -0.17058E+08        -0.45701E+07         0.00000E+00
   -0.45701E+07        -0.19567E+08         0.00000E+00
    0.00000E+00         0.00000E+00        -0.73251E+07
 
   -0.15899E+08        -0.39513E+07         0.00000E+00
   -0.39513E+07        -0.19436E+08         0.00000E+00
    0.00000E+00         0.00000E+00        -0.70669E+07
 
   -0.15097E+08        -0.33490E+07         0.00000E+00
   -0.33490E+07        -0.19113E+08         0.00000E+00
    0.00000E+00         0.00000E+00        -0.68421E+07
 
   -0.14480E+08        -0.28038E+07         0.00000E+00
   -0.28038E+07        -0.18742E+08         0.00000E+00
    0.00000E+00         0.00000E+00        -0.66445E+07
 
   -0.13933E+08        -0.23096E+07         0.00000E+00
   -0.23096E+07        -0.18404E+08         0.00000E+00
    0.00000E+00         0.00000E+00        -0.64674E+07
 
   -0.13371E+08        -0.18424E+07         0.00000E+00
   -0.18424E+07        -0.18154E+08         0.00000E+00
    0.00000E+00         0.00000E+00        -0.63049E+07
 
   -0.12716E+08        -0.13649E+07         0.00000E+00
   -0.13649E+07        -0.18039E+08         0.00000E+00
    0.00000E+00         0.00000E+00        -0.61511E+07
 
   -0.11886E+08        -0.81583E+06         0.00000E+00
   -0.81583E+06        -0.18116E+08         0.00000E+00
    0.00000E+00         0.00000E+00        -0.60004E+07
 
   -0.10778E+08        -0.83206E+05         0.00000E+00
   -0.83206E+05        -0.18458E+08         0.00000E+00
    0.00000E+00         0.00000E+00        -0.58470E+07
 
   -0.92687E+07         0.10672E+07         0.00000E+00
    0.10672E+07        -0.19160E+08         0.00000E+00
    0.00000E+00         0.00000E+00        -0.56858E+07
 
   -0.74133E+07         0.31764E+07         0.00000E+00
    0.31764E+07        -0.20278E+08         0.00000E+00
    0.00000E+00         0.00000E+00        -0.55382E+07
 
   -0.59259E+07         0.70327E+07         0.00000E+00
    0.70327E+07        -0.21316E+08         0.00000E+00
    0.00000E+00         0.00000E+00        -0.54484E+07
 
   -0.33271E+08        -0.28801E+07         0.00000E+00
   -0.28801E+07        -0.23329E+08         0.00000E+00
    0.00000E+00         0.00000E+00        -0.11320E+08
 
   -0.28908E+08        -0.46545E+07         0.00000E+00
   -0.46545E+07        -0.24864E+08         0.00000E+00
    0.00000E+00         0.00000E+00        -0.10754E+08
 
   -0.25698E+08        -0.39901E+07         0.00000E+00
   -0.39901E+07        -0.24807E+08         0.00000E+00
    0.00000E+00         0.00000E+00        -0.10101E+08
 
   -0.24051E+08        -0.32361E+07         0.00000E+00
   -0.32361E+07        -0.24090E+08         0.00000E+00
    0.00000E+00         0.00000E+00        -0.96282E+07
 
   -0.23056E+08        -0.26331E+07         0.00000E+00
   -0.26331E+07        -0.23234E+08         0.00000E+00
    0.00000E+00         0.00000E+00        -0.92580E+07
 
   -0.22379E+08        -0.21554E+07         0.00000E+00
   -0.21554E+07        -0.22408E+08         0.00000E+00
    0.00000E+00         0.00000E+00        -0.89575E+07
 
   -0.21841E+08        -0.17668E+07         0.00000E+00
   -0.17668E+07        -0.21677E+08         0.00000E+00
    0.00000E+00         0.00000E+00        -0.87036E+07
 
   -0.21335E+08        -0.14365E+07         0.00000E+00
   -0.14365E+07        -0.21069E+08         0.00000E+00
    0.00000E+00         0.00000E+00        -0.84807E+07
 
   -0.20779E+08        -0.11375E+07         0.00000E+00
   -0.11375E+07        -0.20604E+08         0.00000E+00
    0.00000E+00         0.00000E+00        -0.82765E+07
 
   -0.20090E+08        -0.84191E+06         0.00000E+00
   -0.84191E+06        -0.20309E+08         0.00000E+00
    0.00000E+00         0.00000E+00        -0.80799E+07
 
   -0.19166E+08        -0.51088E+06         0.00000E+00
   -0.51088E+06        -0.20225E+08         0.00000E+00
    0.00000E+00         0.00000E+00        -0.78782E+07
 
   -0.17846E+08        -0.75074E+05         0.00000E+00
   -0.75074E+05        -0.20428E+08         0.00000E+00
    0.00000E+00         0.00000E+00        -0.76547E+07
 
   -0.15867E+08         0.61828E+06         0.00000E+00
    0.61828E+06        -0.21057E+08         0.00000E+00
    0.00000E+00         0.00000E+00        -0.73849E+07
 
   -0.12701E+08         0.20191E+07         0.00000E+00
    0.20191E+07        -0.22389E+08         0.00000E+00
    0.00000E+00         0.00000E+00        -0.70179E+07
 
   -0.86162E+07         0.58067E+07         0.00000E+00
    0.58067E+07        -0.24644E+08         0.00000E+00
    0.00000E+00         0.00000E+00        -0.66520E+07
 
   -0.52533E+08        -0.30953E+07         0.00000E+00
   -0.30953E+07        -0.36128E+08         0.00000E+00
    0.00000E+00         0.00000E+00        -0.17732E+08
 
   -0.42983E+08        -0.20896E+07         0.00000E+00
   -0.20896E+07        -0.33284E+08         0.00000E+00
    0.00000E+00         0.00000E+00        -0.15254E+08
 
   -0.39407E+08        -0.13856E+07         0.00000E+00
   -0.13856E+07        -0.30999E+08         0.00000E+00
    0.00000E+00         0.00000E+00        -0.14081E+08
 
   -0.37373E+08        -0.10554E+07         0.00000E+00
   -0.10554E+07        -0.29148E+08         0.00000E+00
    0.00000E+00         0.00000E+00        -0.13304E+08
 
   -0.36064E+08        -0.83518E+06         0.00000E+00
   -0.83518E+06        -0.27641E+08         0.00000E+00
    0.00000E+00         0.00000E+00        -0.12741E+08
 
   -0.35116E+08        -0.67448E+06         0.00000E+00
   -0.67448E+06        -0.26402E+08         0.00000E+00
    0.00000E+00         0.00000E+00        -0.12304E+08
 
   -0.34343E+08        -0.54727E+06         0.00000E+00
   -0.54727E+06        -0.25386E+08         0.00000E+00
    0.00000E+00         0.00000E+00        -0.11946E+08
 
   -0.33623E+08        -0.43947E+06         0.00000E+00
   -0.43947E+06        -0.24564E+08         0.00000E+00
    0.00000E+00         0.00000E+00        -0.11637E+08
 
   -0.32859E+08        -0.34091E+06         0.00000E+00
   -0.34091E+06        -0.23928E+08         0.00000E+00
    0.00000E+00         0.00000E+00        -0.11357E+08
 
   -0.31953E+08        -0.24192E+06         0.00000E+00
   -0.24192E+06        -0.23479E+08         0.00000E+00
    0.00000E+00         0.00000E+00        -0.11086E+08
 
   -0.30773E+08        -0.12977E+06         0.00000E+00
   -0.12977E+06        -0.23244E+08         0.00000E+00
    0.00000E+00         0.00000E+00        -0.10803E+08
 
   -0.29120E+08         0.17292E+05         0.00000E+00
    0.17292E+05        -0.23281E+08         0.00000E+00
    0.00000E+00         0.00000E+00        -0.10480E+08
 
   -0.26618E+08         0.25158E+06         0.00000E+00
    0.25158E+06        -0.23720E+08         0.00000E+00
    0.00000E+00         0.00000E+00        -0.10068E+08
 
   -0.22458E+08         0.69385E+06         0.00000E+00
    0.69385E+06        -0.24889E+08         0.00000E+00
    0.00000E+00         0.00000E+00        -0.94694E+07
 
   -0.13658E+08         0.24388E+07         0.00000E+00
    0.24388E+07        -0.27840E+08         0.00000E+00
    0.00000E+00         0.00000E+00        -0.82995E+07
 
TENSORS stresstot double 
   -0.54636E+08        -0.22577E+06         0.00000E+00
   -0.22577E+06        -0.60150E+08         0.00000E+00
    0.00000E+00         0.00000E+00        -0.60966E+08
 
   -0.55728E+08        -0.19121E+06         0.00000E+00
   -0.19121E+06        -0.60476E+08         0.00000E+00
    0.00000E+00         0.00000E+00        -0.61254E+08
 
   -0.56291E+08        -0.12512E+06         0.00000E+00
   -0.12512E+06        -0.60750E+08         0.00000E+00
    0.00000E+00         0.00000E+00        -0.61427E+08
 
   -0.56717E+08        -0.79170E+05         0.00000E+00
   -0.79170E+05        -0.60935E+08         0.00000E+00
    0.00000E+00         0.00000E+00        -0.61555E+08
 
   -0.57096E+08        -0.46232E+05         0.00000E+00
   -0.46232E+05        -0.61050E+08         0.00000E+00
    0.00000E+00         0.00000E+00        -0.61658E+08
 
   -0.57458E+08        -0.22719E+05         0.00000E+00
   -0.22719E+05        -0.61112E+08         0.00000E+00
    0.00000E+00         0.00000E+00        -0.61747E+08
 
   -0.57814E+08        -0.58302E+04         0.00000E+00
   -0.58302E+04        -0.61136E+08         0.00000E+00
    0.00000E+00         0.00000E+00        -0.61827E+08
 
   -0.58169E+08         0.63711E+04         0.00000E+00
    0.63711E+04        -0.61132E+08         0.00000E+00
    0.00000E+00         0.00000E+00        -0.61901E+08
 
   -0.58523E+08         0.15317E+05         0.00000E+00
    0.15317E+05        -0.61108E+08         0.00000E+00
    0.00000E+00         0.00000E+00        -0.61971E+08
 
   -0.58880E+08         0.22219E+05         0.00000E+00
    0.22219E+05        -0.61067E+08         0.00000E+00
    0.00000E+00         0.00000E+00        -0.62038E+08
 
   -0.59246E+08         0.28466E+05         0.00000E+00
    0.28466E+05        -0.61014E+08         0.00000E+00
    0.00000E+00         0.00000E+00        -0.62104E+08
 
   -0.59638E+08         0.36385E+05         0.00000E+00
    0.36385E+05        -0.60946E+08         0.00000E+00
    0.00000E+00         0.00000E+00        -0.62172E+08
 
   -0.60092E+08         0.52067E+05         0.00000E+00
    0.52067E+05        -0.60854E+08         0.00000E+00
    0.00000E+00         0.00000E+00        -0.62248E+08
 
   -0.60700E+08         0.91987E+05         0.00000E+00
    0.91987E+05        -0.60705E+08         0.00000E+00
    0.00000E+00         0.00000E+00        -0.62343E+08
 
   -0.61833E+08         0.30178E+06         0.00000E+00
    0.30178E+06        -0.60356E+08         0.00000E+00
    0.00000E+00         0.00000E+00        -0.62502E+08
 
   -0.54969E+08        -0.27857E+06         0.00000E+00
   -0.27857E+06        -0.59965E+08         0.00000E+00
    0.00000E+00         0.00000E+00        -0.60230E+08
 
   -0.55650E+08        -0.38792E+06         0.00000E+00
   -0.38792E+06        -0.59963E+08         0.00000E+00
    0.00000E+00         0.00000E+00        -0.60365E+08
 
   -0.56209E+08        -0.29303E+06         0.00000E+00
   -0.29303E+06        -0.60044E+08         0.00000E+00
    0.00000E+00         0.00000E+00        -0.60492E+08
 
   -0.56650E+08        -0.19223E+06         0.00000E+00
   -0.19223E+06        -0.60124E+08         0.00000E+00
    0.00000E+00         0.00000E+00        -0.60596E+08
 
   -0.57046E+08        -0.11135E+06         0.00000E+00
   -0.11135E+06        -0.60177E+08         0.00000E+00
    0.00000E+00         0.00000E+00        -0.60686E+08
 
   -0.57421E+08        -0.50119E+05         0.00000E+00
   -0.50119E+05        -0.60200E+08         0.00000E+00
    0.00000E+00         0.00000E+00        -0.60766E+08
 
   -0.57787E+08        -0.45831E+04         0.00000E+00
   -0.45831E+04        -0.60198E+08         0.00000E+00
    0.00000E+00         0.00000E+00        -0.60840E+08
 
   -0.58149E+08         0.29218E+05         0.00000E+00
    0.29218E+05        -0.60175E+08         0.00000E+00
    0.00000E+00         0.00000E+00        -0.60908E+08
 
   -0.58508E+08         0.54739E+05         0.00000E+00
    0.54739E+05        -0.60135E+08         0.00000E+00
    0.00000E+00         0.00000E+00        -0.60972E+08
 
   -0.58867E+08         0.75303E+05         0.00000E+00
    0.75303E+05        -0.60081E+08         0.00000E+00
    0.00000E+00         0.00000E+00        -0.61034E+08
 
   -0.59232E+08         0.95097E+05         0.00000E+00
    0.95097E+05        -0.60013E+08         0.00000E+00
    0.00000E+00         0.00000E+00        -0.61094E+08
 
   -0.59616E+08         0.12160E+06         0.00000E+00
    0.12160E+06        -0.59928E+08         0.00000E+00
    0.00000E+00         0.00000E+00        -0.61154E+08
 
   -0.60040E+08         0.17242E+06         0.00000E+00
    0.17242E+06        -0.59814E+08         0.00000E+00
    0.00000E+00         0.00000E+00        -0.61216E+08
 
   -0.60559E+08         0.30212E+06         0.00000E+00
    0.30212E+06        -0.59646E+08         0.00000E+00
    0.00000E+00         0.00000E+00        -0.61286E+08
 
   -0.61107E+08         0.72452E+06         0.00000E+00
    0.72452E+06        -0.59387E+08         0.00000E+00
    0.00000E+00         0.00000E+00        -0.61343E+08
 
   -0.55315E+08        -0.18811E+06         0.00000E+00
   -0.18811E+06        -0.59952E+08         0.00000E+00
    0.00000E+00         0.00000E+00        -0.59763E+08
 
   -0.55654E+08        -0.34048E+06         0.00000E+00
   -0.34048E+06        -0.59842E+08         0.00000E+00
    0.00000E+00         0.00000E+00        -0.59808E+08
 
   -0.56113E+08        -0.30470E+06         0.00000E+00
   -0.30470E+06        -0.59760E+08         0.00000E+00
    0.00000E+00         0.00000E+00        -0.59881E+08
 
   -0.56555E+08        -0.21049E+06         0.00000E+00
   -0.21049E+06        -0.59719E+08         0.00000E+00
    0.00000E+00         0.00000E+00        -0.59959E+08
 
   -0.56966E+08        -0.11693E+06         0.00000E+00
   -0.11693E+06        -0.59691E+08         0.00000E+00
    0.00000E+00         0.00000E+00        -0.60035E+08
 
   -0.57359E+08        -0.38376E+05         0.00000E+00
   -0.38376E+05        -0.59661E+08         0.00000E+00
    0.00000E+00         0.00000E+00        -0.60106E+08
 
   -0.57740E+08         0.23936E+05         0.00000E+00
    0.23936E+05        -0.59621E+08         0.00000E+00
    0.00000E+00         0.00000E+00        -0.60174E+08
 
   -0.58112E+08         0.72593E+05         0.00000E+00
    0.72593E+05        -0.59572E+08         0.00000E+00
    0.00000E+00         0.00000E+00        -0.60237E+08
 
   -0.58479E+08         0.11133E+06         0.00000E+00
    0.11133E+06        -0.59511E+08         0.00000E+00
    0.00000E+00         0.00000E+00        -0.60298E+08
 
   -0.58841E+08         0.14471E+06         0.00000E+00
    0.14471E+06        -0.59439E+08         0.00000E+00
    0.00000E+00         0.00000E+00        -0.60355E+08
 
   -0.59202E+08         0.17930E+06         0.00000E+00
    0.17930E+06        -0.59353E+08         0.00000E+00
    0.00000E+00         0.00000E+00        -0.60409E+08
 
   -0.59567E+08         0.22689E+06         0.00000E+00
    0.22689E+06        -0.59251E+08         0.00000E+00
    0.00000E+00         0.00000E+00        -0.60461E+08
 
   -0.59941E+08         0.31273E+06         0.00000E+00
    0.31273E+06        -0.59124E+08         0.00000E+00
    0.00000E+00         0.00000E+00        -0.60509E+08
 
   -0.60299E+08         0.49820E+06         0.00000E+00
    0.49820E+06        -0.58970E+08         0.00000E+00
    0.00000E+00         0.00000E+00        -0.60549E+08
 
   -0.60519E+08         0.87361E+06         0.00000E+00
    0.87361E+06        -0.58849E+08         0.00000E+00
    0.00000E+00         0.00000E+00        -0.60567E+08
 
   -0.55545E+08        -0.93518E+05         0.00000E+00
   -0.93518E+05        -0.59959E+08         0.00000E+00
    0.00000E+00         0.00000E+00        -0.59476E+08
 
   -0.55702E+08        -0.20221E+06         0.00000E+00
   -0.20221E+06        -0.59839E+08         0.00000E+00
    0.00000E+00         0.00000E+00        -0.59482E+08
 
   -0.56056E+08        -0.20226E+06         0.00000E+00
   -0.20226E+06        -0.59697E+08         0.00000E+00
    0.00000E+00         0.00000E+00        -0.59524E+08
 
   -0.56467E+08        -0.13990E+06         0.00000E+00
   -0.13990E+06        -0.59581E+08         0.00000E+00
    0.00000E+00         0.00000E+00        -0.59581E+08
 
   -0.56882E+08        -0.59297E+05         0.00000E+00
   -0.59297E+05        -0.59489E+08         0.00000E+00
    0.00000E+00         0.00000E+00        -0.59644E+08
 
   -0.57287E+08         0.17722E+05         0.00000E+00
    0.17722E+05        -0.59409E+08         0.00000E+00
    0.00000E+00         0.00000E+00        -0.59708E+08
 
   -0.57682E+08         0.84215E+05         0.00000E+00
    0.84215E+05        -0.59334E+08         0.00000E+00
    0.00000E+00         0.00000E+00        -0.59770E+08
 
   -0.58065E+08         0.13982E+06         0.00000E+00
    0.13982E+06        -0.59257E+08         0.00000E+00
    0.00000E+00         0.00000E+00        -0.59830E+08
 
   -0.58438E+08         0.18721E+06         0.00000E+00
    0.18721E+06        -0.59175E+08         0.00000E+00
    0.00000E+00         0.00000E+00        -0.59888E+08
 
   -0.58802E+08         0.23109E+06         0.00000E+00
    0.23109E+06        -0.59086E+08         0.00000E+00
    0.00000E+00         0.00000E+00        -0.59942E+08
 
   -0.59155E+08         0.27902E+06         0.00000E+00
    0.27902E+06        -0.58987E+08         0.00000E+00
    0.00000E+00         0.00000E+00        -0.59991E+08
 
   -0.59495E+08         0.34385E+06         0.00000E+00
    0.34385E+06        -0.58876E+08         0.00000E+00
    0.00000E+00         0.00000E+00        -0.60036E+08
 
   -0.59808E+08         0.44864E+06         0.00000E+00
    0.44864E+06        -0.58754E+08         0.00000E+00
    0.00000E+00         0.00000E+00        -0.60073E+08
 
   -0.60050E+08         0.62613E+06         0.00000E+00
    0.62613E+06        -0.58639E+08         0.00000E+00
    0.00000E+00         0.00000E+00        -0.60098E+08
 
   -0.60120E+08         0.89698E+06         0.00000E+00
    0.89698E+06        -0.58588E+08         0.00000E+00
    0.00000E+00         0.00000E+00        -0.60101E+08
 
   -0.55645E+08        -0.18518E+05         0.00000E+00
   -0.18518E+05        -0.59970E+08         0.00000E+00
    0.00000E+00         0.00000E+00        -0.59307E+08
 
   -0.55740E+08        -0.57377E+05         0.00000E+00
   -0.57377E+05        -0.59868E+08         0.00000E+00
    0.00000E+00         0.00000E+00        -0.59305E+08
 
   -0.56027E+08        -0.57074E+05         0.00000E+00
   -0.57074E+05        -0.59725E+08         0.00000E+00
    0.00000E+00         0.00000E+00        -0.59333E+08
 
   -0.56403E+08        -0.16678E+05         0.00000E+00
   -0.16678E+05        -0.59582E+08         0.00000E+00
    0.00000E+00         0.00000E+00        -0.59379E+08
 
   -0.56809E+08         0.44507E+05         0.00000E+00
    0.44507E+05        -0.59456E+08         0.00000E+00
    0.00000E+00         0.00000E+00        -0.59434E+08
 
   -0.57219E+08         0.11023E+06         0.00000E+00
    0.11023E+06        -0.59344E+08         0.00000E+00
    0.00000E+00         0.00000E+00        -0.59492E+08
 
   -0.57621E+08         0.17223E+06         0.00000E+00
    0.17223E+06        -0.59243E+08         0.00000E+00
    0.00000E+00         0.00000E+00        -0.59552E+08
 
   -0.58013E+08         0.22824E+06         0.00000E+00
    0.22824E+06        -0.59145E+08         0.00000E+00
    0.00000E+00         0.00000E+00        -0.59609E+08
 
   -0.58391E+08         0.27959E+06         0.00000E+00
    0.27959E+06        -0.59048E+08         0.00000E+00
    0.00000E+00         0.00000E+00        -0.59665E+08
 
   -0.58753E+08         0.33025E+06         0.00000E+00
    0.33025E+06        -0.58947E+08         0.00000E+00
    0.00000E+00         0.00000E+00        -0.59716E+08
 
   -0.59096E+08         0.38687E+06         0.00000E+00
    0.38687E+06        -0.58841E+08         0.00000E+00
    0.00000E+00         0.00000E+00        -0.59763E+08
 
   -0.59411E+08         0.45974E+06         0.00000E+00
    0.45974E+06        -0.58731E+08         0.00000E+00
    0.00000E+00         0.00000E+00        -0.59803E+08
 
   -0.59678E+08         0.56236E+06         0.00000E+00
    0.56236E+06        -0.58623E+08         0.00000E+00
    0.00000E+00         0.00000E+00        -0.59834E+08
 
   -0.59856E+08         0.70533E+06         0.00000E+00
    0.70533E+06        -0.58538E+08         0.00000E+00
    0.00000E+00         0.00000E+00        -0.59852E+08
 
   -0.59882E+08         0.87891E+06         0.00000E+00
    0.87891E+06        -0.58516E+08         0.00000E+00
    0.00000E+00         0.00000E+00        -0.59853E+08
 
   -0.55637E+08         0.35199E+05         0.00000E+00
    0.35199E+05        -0.59979E+08         0.00000E+00
    0.00000E+00         0.00000E+00        -0.59206E+08
 
   -0.55741E+08         0.65473E+05         0.00000E+00
    0.65473E+05        -0.59901E+08         0.00000E+00
    0.00000E+00         0.00000E+00        -0.59211E+08
 
   -0.56003E+08         0.87614E+05         0.00000E+00
    0.87614E+05        -0.59778E+08         0.00000E+00
    0.00000E+00         0.00000E+00        -0.59239E+08
 
   -0.56356E+08         0.12284E+06         0.00000E+00
    0.12284E+06        -0.59640E+08         0.00000E+00
    0.00000E+00         0.00000E+00        -0.59281E+08
 
   -0.56751E+08         0.17049E+06         0.00000E+00
    0.17049E+06        -0.59506E+08         0.00000E+00
    0.00000E+00         0.00000E+00        -0.59333E+08
 
   -0.57159E+08         0.22395E+06         0.00000E+00
    0.22395E+06        -0.59382E+08         0.00000E+00
    0.00000E+00         0.00000E+00        -0.59389E+08
 
   -0.57565E+08         0.27799E+06         0.00000E+00
    0.27799E+06        -0.59268E+08         0.00000E+00
    0.00000E+00         0.00000E+00        -0.59447E+08
 
   -0.57960E+08         0.33051E+06         0.00000E+00
    0.33051E+06        -0.59161E+08         0.00000E+00
    0.00000E+00         0.00000E+00        -0.59504E+08
 
   -0.58339E+08         0.38208E+06         0.00000E+00
    0.38208E+06        -0.59056E+08         0.00000E+00
    0.00000E+00         0.00000E+00        -0.59558E+08
 
   -0.58699E+08         0.43541E+06         0.00000E+00
    0.43541E+06        -0.58951E+08         0.00000E+00
    0.00000E+00         0.00000E+00        -0.59608E+08
 
   -0.59032E+08         0.49502E+06         0.00000E+00
    0.49502E+06        -0.58845E+08         0.00000E+00
    0.00000E+00         0.00000E+00        -0.59653E+08
 
   -0.59328E+08         0.56670E+06         0.00000E+00
    0.56670E+06        -0.58741E+08         0.00000E+00
    0.00000E+00         0.00000E+00        -0.59691E+08
 
   -0.59568E+08         0.65533E+06         0.00000E+00
    0.65533E+06        -0.58647E+08         0.00000E+00
    0.00000E+00         0.00000E+00        -0.59720E+08
 
   -0.59722E+08         0.75906E+06         0.00000E+00
    0.75906E+06        -0.58580E+08         0.00000E+00
    0.00000E+00         0.00000E+00        -0.59737E+08
 
   -0.59756E+08         0.85913E+06         0.00000E+00
    0.85913E+06        -0.58563E+08         0.00000E+00
    0.00000E+00         0.00000E+00        -0.59741E+08
 
   -0.55547E+08         0.72338E+05         0.00000E+00
    0.72338E+05        -0.59986E+08         0.00000E+00
    0.00000E+00         0.00000E+00        -0.59139E+08
 
   -0.55698E+08         0.16109E+06         0.00000E+00
    0.16109E+06        -0.59929E+08         0.00000E+00
    0.00000E+00         0.00000E+00        -0.59158E+08
 
   -0.55967E+08         0.21309E+06         0.00000E+00
    0.21309E+06        -0.59830E+08         0.00000E+00
    0.00000E+00         0.00000E+00        -0.59192E+08
 
   -0.56314E+08         0.25525E+06         0.00000E+00
    0.25525E+06        -0.59711E+08         0.00000E+00
    0.00000E+00         0.00000E+00        -0.59237E+08
 
   -0.56704E+08         0.29779E+06         0.00000E+00
    0.29779E+06        -0.59587E+08         0.00000E+00
    0.00000E+00         0.00000E+00        -0.59290E+08
 
   -0.57110E+08         0.34262E+06         0.00000E+00
    0.34262E+06        -0.59468E+08         0.00000E+00
    0.00000E+00         0.00000E+00        -0.59347E+08
 
   -0.57515E+08         0.38914E+06         0.00000E+00
    0.38914E+06        -0.59356E+08         0.00000E+00
    0.00000E+00         0.00000E+00        -0.59406E+08
 
   -0.57910E+08         0.43693E+06         0.00000E+00
    0.43693E+06        -0.59249E+08         0.00000E+00
    0.00000E+00         0.00000E+00        -0.59463E+08
 
   -0.58288E+08         0.48654E+06         0.00000E+00
    0.48654E+06        -0.59145E+08         0.00000E+00
    0.00000E+00         0.00000E+00        -0.59517E+08
 
   -0.58643E+08         0.53947E+06         0.00000E+00
    0.53947E+06        -0.59044E+08         0.00000E+00
    0.00000E+00         0.00000E+00        -0.59568E+08
 
   -0.58969E+08         0.59773E+06         0.00000E+00
    0.59773E+06        -0.58944E+08         0.00000E+00
    0.00000E+00         0.00000E+00        -0.59613E+08
 
   -0.59254E+08         0.66291E+06         0.00000E+00
    0.66291E+06        -0.58849E+08         0.00000E+00
    0.00000E+00         0.00000E+00        -0.59651E+08
 
   -0.59484E+08         0.73402E+06         0.00000E+00
    0.73402E+06        -0.58766E+08         0.00000E+00
    0.00000E+00         0.00000E+00        -0.59680E+08
 
   -0.59638E+08         0.80370E+06         0.00000E+00
    0.80370E+06        -0.58707E+08         0.00000E+00
    0.00000E+00         0.00000E+00        -0.59699E+08
 
   -0.59701E+08         0.85373E+06         0.00000E+00
    0.85373E+06        -0.58683E+08         0.00000E+00
    0.00000E+00         0.00000E+00        -0.59706E+08
 
   -0.55397E+08         0.98122E+05         0.00000E+00
    0.98122E+05        -0.59990E+08         0.00000E+00
    0.00000E+00         0.00000E+00        -0.59085E+08
 
   -0.55613E+08         0.23253E+06         0.00000E+00
    0.23253E+06        -0.59949E+08         0.00000E+00
    0.00000E+00         0.00000E+00        -0.59120E+08
 
   -0.55912E+08         0.31375E+06         0.00000E+00
    0.31375E+06        -0.59874E+08         0.00000E+00
    0.00000E+00         0.00000E+00        -0.59165E+08
 
   -0.56270E+08         0.36833E+06         0.00000E+00
    0.36833E+06        -0.59779E+08         0.00000E+00
    0.00000E+00         0.00000E+00        -0.59217E+08
 
   -0.56661E+08         0.41192E+06         0.00000E+00
    0.41192E+06        -0.59676E+08         0.00000E+00
    0.00000E+00         0.00000E+00        -0.59275E+08
 
   -0.57067E+08         0.45248E+06         0.00000E+00
    0.45248E+06        -0.59573E+08         0.00000E+00
    0.00000E+00         0.00000E+00        -0.59335E+08
 
   -0.57470E+08         0.49373E+06         0.00000E+00
    0.49373E+06        -0.59474E+08         0.00000E+00
    0.00000E+00         0.00000E+00        -0.59396E+08
 
   -0.57863E+08         0.53749E+06         0.00000E+00
    0.53749E+06        -0.59378E+08         0.00000E+00
    0.00000E+00         0.00000E+00        -0.59455E+08
 
   -0.58238E+08         0.58477E+06         0.00000E+00
    0.58477E+06        -0.59285E+08         0.00000E+00
    0.00000E+00         0.00000E+00        -0.59511E+08
 
   -0.58589E+08         0.63614E+06         0.00000E+00
    0.63614E+06        -0.59193E+08         0.00000E+00
    0.00000E+00         0.00000E+00        -0.59563E+08
 
   -0.58909E+08         0.69143E+06         0.00000E+00
    0.69143E+06        -0.59104E+08         0.00000E+00
    0.00000E+00         0.00000E+00        -0.59609E+08
 
   -0.59191E+08         0.74904E+06         0.00000E+00
    0.74904E+06        -0.59019E+08         0.00000E+00
    0.00000E+00         0.00000E+00        -0.59649E+08
 
   -0.59422E+08         0.80451E+06         0.00000E+00
    0.80451E+06        -0.58944E+08         0.00000E+00
    0.00000E+00         0.00000E+00        -0.59680E+08
 
   -0.59590E+08         0.84876E+06         0.00000E+00
    0.84876E+06        -0.58886E+08         0.00000E+00
    0.00000E+00         0.00000E+00        -0.59702E+08
 
   -0.59688E+08         0.86690E+06         0.00000E+00
    0.86690E+06        -0.58851E+08         0.00000E+00
    0.00000E+00         0.00000E+00        -0.59714E+08
 
   -0.55204E+08         0.11627E+06         0.00000E+00
    0.11627E+06        -0.59993E+08         0.00000E+00
    0.00000E+00         0.00000E+00        -0.59033E+08
 
   -0.55494E+08         0.28420E+06         0.00000E+00
    0.28420E+06        -0.59964E+08         0.00000E+00
    0.00000E+00         0.00000E+00        -0.59085E+08
 
   -0.55837E+08         0.38929E+06         0.00000E+00
    0.38929E+06        -0.59911E+08         0.00000E+00
    0.00000E+00         0.00000E+00        -0.59143E+08
 
   -0.56218E+08         0.45640E+06         0.00000E+00
    0.45640E+06        -0.59841E+08         0.00000E+00
    0.00000E+00         0.00000E+00        -0.59205E+08
 
   -0.56620E+08         0.50371E+06         0.00000E+00
    0.50371E+06        -0.59765E+08         0.00000E+00
    0.00000E+00         0.00000E+00        -0.59270E+08
 
   -0.57027E+08         0.54306E+06         0.00000E+00
    0.54306E+06        -0.59687E+08         0.00000E+00
    0.00000E+00         0.00000E+00        -0.59336E+08
 
   -0.57429E+08         0.58158E+06         0.00000E+00
    0.58158E+06        -0.59610E+08         0.00000E+00
    0.00000E+00         0.00000E+00        -0.59401E+08
 
   -0.57818E+08         0.62312E+06         0.00000E+00
    0.62312E+06        -0.59534E+08         0.00000E+00
    0.00000E+00         0.00000E+00        -0.59464E+08
 
   -0.58189E+08         0.66935E+06         0.00000E+00
    0.66935E+06        -0.59459E+08         0.00000E+00
    0.00000E+00         0.00000E+00        -0.59523E+08
 
   -0.58536E+08         0.72017E+06         0.00000E+00
    0.72017E+06        -0.59383E+08         0.00000E+00
    0.00000E+00         0.00000E+00        -0.59577E+08
 
   -0.58854E+08         0.77374E+06         0.00000E+00
    0.77374E+06        -0.59307E+08         0.00000E+00
    0.00000E+00         0.00000E+00        -0.59625E+08
 
   -0.59138E+08         0.82618E+06         0.00000E+00
    0.82618E+06        -0.59232E+08         0.00000E+00
    0.00000E+00         0.00000E+00        -0.59667E+08
 
   -0.59378E+08         0.87105E+06         0.00000E+00
    0.87105E+06        -0.59163E+08         0.00000E+00
    0.00000E+00         0.00000E+00        -0.59701E+08
 
   -0.59566E+08         0.89895E+06         0.00000E+00
    0.89895E+06        -0.59103E+08         0.00000E+00
    0.00000E+00         0.00000E+00        -0.59727E+08
 
   -0.59699E+08         0.89815E+06         0.00000E+00
    0.89815E+06        -0.59057E+08         0.00000E+00
    0.00000E+00         0.00000E+00        -0.59744E+08
 
   -0.54982E+08         0.12879E+06         0.00000E+00
    0.12879E+06        -0.59996E+08         0.00000E+00
    0.00000E+00         0.00000E+00        -0.58977E+08
 
   -0.55351E+08         0.31915E+06         0.00000E+00
    0.31915E+06        -0.59977E+08         0.00000E+00
    0.00000E+00         0.00000E+00        -0.59047E+08
 
   -0.55747E+08         0.44044E+06         0.00000E+00
    0.44044E+06        -0.59944E+08         0.00000E+00
    0.00000E+00         0.00000E+00        -0.59120E+08
 
   -0.56160E+08         0.51658E+06         0.00000E+00
    0.51658E+06        -0.59901E+08         0.00000E+00
    0.00000E+00         0.00000E+00        -0.59194E+08
 
   -0.56577E+08         0.56718E+06         0.00000E+00
    0.56718E+06        -0.59855E+08         0.00000E+00
    0.00000E+00         0.00000E+00        -0.59268E+08
 
   -0.56989E+08         0.60661E+06         0.00000E+00
    0.60661E+06        -0.59807E+08         0.00000E+00
    0.00000E+00         0.00000E+00        -0.59341E+08
 
   -0.57390E+08         0.64442E+06         0.00000E+00
    0.64442E+06        -0.59759E+08         0.00000E+00
    0.00000E+00         0.00000E+00        -0.59412E+08
 
   -0.57774E+08         0.68611E+06         0.00000E+00
    0.68611E+06        -0.59711E+08         0.00000E+00
    0.00000E+00         0.00000E+00        -0.59479E+08
 
   -0.58139E+08         0.73388E+06         0.00000E+00
    0.73388E+06        -0.59660E+08         0.00000E+00
    0.00000E+00         0.00000E+00        -0.59542E+08
 
   -0.58482E+08         0.78713E+06         0.00000E+00
    0.78713E+06        -0.59606E+08         0.00000E+00
    0.00000E+00         0.00000E+00        -0.59600E+08
 
   -0.58800E+08         0.84268E+06         0.00000E+00
    0.84268E+06        -0.59546E+08         0.00000E+00
    0.00000E+00         0.00000E+00        -0.59652E+08
 
   -0.59089E+08         0.89495E+06         0.00000E+00
    0.89495E+06        -0.59483E+08         0.00000E+00
    0.00000E+00         0.00000E+00        -0.59697E+08
 
   -0.59343E+08         0.93608E+06         0.00000E+00
    0.93608E+06        -0.59418E+08         0.00000E+00
    0.00000E+00         0.00000E+00        -0.59735E+08
 
   -0.59556E+08         0.95645E+06         0.00000E+00
    0.95645E+06        -0.59355E+08         0.00000E+00
    0.00000E+00         0.00000E+00        -0.59765E+08
 
   -0.59723E+08         0.94610E+06         0.00000E+00
    0.94610E+06        -0.59296E+08         0.00000E+00
    0.00000E+00         0.00000E+00        -0.59786E+08
 
   -0.54740E+08         0.13636E+06         0.00000E+00
    0.13636E+06        -0.59998E+08         0.00000E+00
    0.00000E+00         0.00000E+00        -0.58916E+08
 
   -0.55193E+08         0.33857E+06         0.00000E+00
    0.33857E+06        -0.59989E+08         0.00000E+00
    0.00000E+00         0.00000E+00        -0.59005E+08
 
   -0.55649E+08         0.46719E+06         0.00000E+00
    0.46719E+06        -0.59976E+08         0.00000E+00
    0.00000E+00         0.00000E+00        -0.59094E+08
 
   -0.56098E+08         0.54660E+06         0.00000E+00
    0.54660E+06        -0.59962E+08         0.00000E+00
    0.00000E+00         0.00000E+00        -0.59181E+08
 
   -0.56533E+08         0.59777E+06         0.00000E+00
    0.59777E+06        -0.59949E+08         0.00000E+00
    0.00000E+00         0.00000E+00        -0.59265E+08
 
   -0.56952E+08         0.63694E+06         0.00000E+00
    0.63694E+06        -0.59937E+08         0.00000E+00
    0.00000E+00         0.00000E+00        -0.59347E+08
 
   -0.57350E+08         0.67542E+06         0.00000E+00
    0.67542E+06        -0.59925E+08         0.00000E+00
    0.00000E+00         0.00000E+00        -0.59424E+08
 
   -0.57728E+08         0.71987E+06         0.00000E+00
    0.71987E+06        -0.59910E+08         0.00000E+00
    0.00000E+00         0.00000E+00        -0.59497E+08
 
   -0.58085E+08         0.77280E+06         0.00000E+00
    0.77280E+06        -0.59890E+08         0.00000E+00
    0.00000E+00         0.00000E+00        -0.59565E+08
 
   -0.58424E+08         0.83309E+06         0.00000E+00
    0.83309E+06        -0.59860E+08         0.00000E+00
    0.00000E+00         0.00000E+00        -0.59626E+08
 
   -0.58742E+08         0.89634E+06         0.00000E+00
    0.89634E+06        -0.59821E+08         0.00000E+00
    0.00000E+00         0.00000E+00        -0.59682E+08
 
   -0.59039E+08         0.95540E+06         0.00000E+00
    0.95540E+06        -0.59770E+08         0.00000E+00
    0.00000E+00         0.00000E+00        -0.59732E+08
 
   -0.59310E+08         0.10009E+07         0.00000E+00
    0.10009E+07        -0.59709E+08         0.00000E+00
    0.00000E+00         0.00000E+00        -0.59774E+08
 
   -0.59550E+08         0.10225E+07         0.00000E+00
    0.10225E+07        -0.59641E+08         0.00000E+00
    0.00000E+00         0.00000E+00        -0.59808E+08
 
   -0.59754E+08         0.10102E+07         0.00000E+00
    0.10102E+07        -0.59570E+08         0.00000E+00
    0.00000E+00         0.00000E+00        -0.59835E+08
 
   -0.54489E+08         0.13880E+06         0.00000E+00
    0.13880E+06        -0.60000E+08         0.00000E+00
    0.00000E+00         0.00000E+00        -0.58848E+08
 
   -0.55031E+08         0.34197E+06         0.00000E+00
    0.34197E+06        -0.60003E+08         0.00000E+00
    0.00000E+00         0.00000E+00        -0.58957E+08
 
   -0.55549E+08         0.46817E+06         0.00000E+00
    0.46817E+06        -0.60012E+08         0.00000E+00
    0.00000E+00         0.00000E+00        -0.59063E+08
 
   -0.56036E+08         0.54366E+06         0.00000E+00
    0.54366E+06        -0.60029E+08         0.00000E+00
    0.00000E+00         0.00000E+00        -0.59164E+08
 
   -0.56491E+08         0.59116E+06         0.00000E+00
    0.59116E+06        -0.60053E+08         0.00000E+00
    0.00000E+00         0.00000E+00        -0.59260E+08
 
   -0.56914E+08         0.62857E+06         0.00000E+00
    0.62857E+06        -0.60081E+08         0.00000E+00
    0.00000E+00         0.00000E+00        -0.59351E+08
 
   -0.57307E+08         0.66855E+06         0.00000E+00
    0.66855E+06        -0.60110E+08         0.00000E+00
    0.00000E+00         0.00000E+00        -0.59435E+08
 
   -0.57675E+08         0.71854E+06         0.00000E+00
    0.71854E+06        -0.60135E+08         0.00000E+00
    0.00000E+00         0.00000E+00        -0.59514E+08
 
   -0.58023E+08         0.78110E+06         0.00000E+00
    0.78110E+06        -0.60150E+08         0.00000E+00
    0.00000E+00         0.00000E+00        -0.59586E+08
 
   -0.58354E+08         0.85439E+06         0.00000E+00
    0.85439E+06        -0.60150E+08         0.00000E+00
    0.00000E+00         0.00000E+00        -0.59653E+08
 
   -0.58672E+08         0.93270E+06         0.00000E+00
    0.93270E+06        -0.60133E+08         0.00000E+00
    0.00000E+00         0.00000E+00        -0.59713E+08
 
   -0.58978E+08         0.10071E+07         0.00000E+00
    0.10071E+07        -0.60096E+08         0.00000E+00
    0.00000E+00         0.00000E+00        -0.59767E+08
 
   -0.59269E+08         0.10664E+07         0.00000E+00
    0.10664E+07        -0.60039E+08         0.00000E+00
    0.00000E+00         0.00000E+00        -0.59814E+08
 
   -0.59541E+08         0.10982E+07         0.00000E+00
    0.10982E+07        -0.59966E+08         0.00000E+00
    0.00000E+00         0.00000E+00        -0.59854E+08
 
   -0.59785E+08         0.10913E+07         0.00000E+00
    0.10913E+07        -0.59880E+08         0.00000E+00
    0.00000E+00         0.00000E+00        -0.59885E+08
 
   -0.54241E+08         0.13536E+06         0.00000E+00
    0.13536E+06        -0.60003E+08         0.00000E+00
    0.00000E+00         0.00000E+00        -0.58773E+08
 
   -0.54876E+08         0.32760E+06         0.00000E+00
    0.32760E+06        -0.60018E+08         0.00000E+00
    0.00000E+00         0.00000E+00        -0.58903E+08
 
   -0.55457E+08         0.44074E+06         0.00000E+00
    0.44074E+06        -0.60052E+08         0.00000E+00
    0.00000E+00         0.00000E+00        -0.59027E+08
 
   -0.55983E+08         0.50408E+06         0.00000E+00
    0.50408E+06        -0.60103E+08         0.00000E+00
    0.00000E+00         0.00000E+00        -0.59143E+08
 
   -0.56454E+08         0.54265E+06         0.00000E+00
    0.54265E+06        -0.60169E+08         0.00000E+00
    0.00000E+00         0.00000E+00        -0.59250E+08
 
   -0.56877E+08         0.57607E+06         0.00000E+00
    0.57607E+06        -0.60243E+08         0.00000E+00
    0.00000E+00         0.00000E+00        -0.59350E+08
 
   -0.57260E+08         0.61810E+06         0.00000E+00
    0.61810E+06        -0.60319E+08         0.00000E+00
    0.00000E+00         0.00000E+00        -0.59442E+08
 
   -0.57613E+08         0.67664E+06         0.00000E+00
    0.67664E+06        -0.60389E+08         0.00000E+00
    0.00000E+00         0.00000E+00        -0.59526E+08
 
   -0.57946E+08         0.75401E+06         0.00000E+00
    0.75401E+06        -0.60444E+08         0.00000E+00
    0.00000E+00         0.00000E+00        -0.59604E+08
 
   -0.58267E+08         0.84743E+06         0.00000E+00
    0.84743E+06        -0.60479E+08         0.00000E+00
    0.00000E+00         0.00000E+00        -0.59675E+08
 
   -0.58582E+08         0.94959E+06         0.00000E+00
    0.94959E+06        -0.60487E+08         0.00000E+00
    0.00000E+00         0.00000E+00        -0.59740E+08
 
   -0.58897E+08         0.10494E+07         0.00000E+00
    0.10494E+07        -0.60465E+08         0.00000E+00
    0.00000E+00         0.00000E+00        -0.59798E+08
 
   -0.59211E+08         0.11331E+07         0.00000E+00
    0.11331E+07        -0.60413E+08         0.00000E+00
    0.00000E+00         0.00000E+00        -0.59851E+08
 
   -0.59519E+08         0.11854E+07         0.00000E+00
    0.11854E+07        -0.60332E+08         0.00000E+00
    0.00000E+00         0.00000E+00        -0.59896E+08
 
   -0.59811E+08         0.11921E+07         0.00000E+00
    0.11921E+07        -0.60228E+08         0.00000E+00
    0.00000E+00         0.00000E+00        -0.59934E+08
 
   -0.54008E+08         0.12496E+06         0.00000E+00
    0.12496E+06        -0.60006E+08         0.00000E+00
    0.00000E+00         0.00000E+00        -0.58690E+08
 
   -0.54739E+08         0.29281E+06         0.00000E+00
    0.29281E+06        -0.60037E+08         0.00000E+00
    0.00000E+00         0.00000E+00        -0.58842E+08
 
   -0.55384E+08         0.38113E+06         0.00000E+00
    0.38113E+06        -0.60099E+08         0.00000E+00
    0.00000E+00         0.00000E+00        -0.58984E+08
 
   -0.55944E+08         0.42326E+06         0.00000E+00
    0.42326E+06        -0.60189E+08         0.00000E+00
    0.00000E+00         0.00000E+00        -0.59114E+08
 
   -0.56425E+08         0.44702E+06         0.00000E+00
    0.44702E+06        -0.60302E+08         0.00000E+00
    0.00000E+00         0.00000E+00        -0.59233E+08
 
   -0.56842E+08         0.47382E+06         0.00000E+00
    0.47382E+06        -0.60427E+08         0.00000E+00
    0.00000E+00         0.00000E+00        -0.59342E+08
 
   -0.57207E+08         0.51839E+06         0.00000E+00
    0.51839E+06        -0.60556E+08         0.00000E+00
    0.00000E+00         0.00000E+00        -0.59440E+08
 
   -0.57537E+08         0.58882E+06         0.00000E+00
    0.58882E+06        -0.60675E+08         0.00000E+00
    0.00000E+00         0.00000E+00        -0.59530E+08
 
   -0.57848E+08         0.68690E+06         0.00000E+00
    0.68690E+06        -0.60777E+08         0.00000E+00
    0.00000E+00         0.00000E+00        -0.59612E+08
 
   -0.58152E+08         0.80860E+06         0.00000E+00
    0.80860E+06        -0.60849E+08         0.00000E+00
    0.00000E+00         0.00000E+00        -0.59687E+08
 
   -0.58462E+08         0.94471E+06         0.00000E+00
    0.94471E+06        -0.60886E+08         0.00000E+00
    0.00000E+00         0.00000E+00        -0.59757E+08
 
   -0.58785E+08         0.10815E+07         0.00000E+00
    0.10815E+07        -0.60881E+08         0.00000E+00
    0.00000E+00         0.00000E+00        -0.59820E+08
 
   -0.59124E+08         0.12019E+07         0.00000E+00
    0.12019E+07        -0.60832E+08         0.00000E+00
    0.00000E+00         0.00000E+00        -0.59878E+08
 
   -0.59474E+08         0.12867E+07         0.00000E+00
    0.12867E+07        -0.60742E+08         0.00000E+00
    0.00000E+00         0.00000E+00        -0.59930E+08
 
   -0.59823E+08         0.13169E+07         0.00000E+00
    0.13169E+07        -0.60617E+08         0.00000E+00
    0.00000E+00         0.00000E+00        -0.59975E+08
 
   -0.53806E+08         0.10626E+06         0.00000E+00
    0.10626E+06        -0.60011E+08         0.00000E+00
    0.00000E+00         0.00000E+00        -0.58595E+08
 
   -0.54635E+08         0.23429E+06         0.00000E+00
    0.23429E+06        -0.60058E+08         0.00000E+00
    0.00000E+00         0.00000E+00        -0.58771E+08
 
   -0.55340E+08         0.28480E+06         0.00000E+00
    0.28480E+06        -0.60153E+08         0.00000E+00
    0.00000E+00         0.00000E+00        -0.58931E+08
 
   -0.55927E+08         0.29590E+06         0.00000E+00
    0.29590E+06        -0.60288E+08         0.00000E+00
    0.00000E+00         0.00000E+00        -0.59076E+08
 
   -0.56410E+08         0.29855E+06         0.00000E+00
    0.29855E+06        -0.60453E+08         0.00000E+00
    0.00000E+00         0.00000E+00        -0.59206E+08
 
   -0.56809E+08         0.31603E+06         0.00000E+00
    0.31603E+06        -0.60636E+08         0.00000E+00
    0.00000E+00         0.00000E+00        -0.59322E+08
 
   -0.57146E+08         0.36383E+06         0.00000E+00
    0.36383E+06        -0.60822E+08         0.00000E+00
    0.00000E+00         0.00000E+00        -0.59426E+08
 
   -0.57442E+08         0.44992E+06         0.00000E+00
    0.44992E+06        -0.60997E+08         0.00000E+00
    0.00000E+00         0.00000E+00        -0.59519E+08
 
   -0.57721E+08         0.57528E+06         0.00000E+00
    0.57528E+06        -0.61149E+08         0.00000E+00
    0.00000E+00         0.00000E+00        -0.59605E+08
 
   -0.58001E+08         0.73436E+06         0.00000E+00
    0.73436E+06        -0.61263E+08         0.00000E+00
    0.00000E+00         0.00000E+00        -0.59683E+08
 
   -0.58300E+08         0.91572E+06         0.00000E+00
    0.91572E+06        -0.61331E+08         0.00000E+00
    0.00000E+00         0.00000E+00        -0.59756E+08
 
   -0.58629E+08         0.11026E+07         0.00000E+00
    0.11026E+07        -0.61345E+08         0.00000E+00
    0.00000E+00         0.00000E+00        -0.59824E+08
 
   -0.58994E+08         0.12740E+07         0.00000E+00
    0.12740E+07        -0.61300E+08         0.00000E+00
    0.00000E+00         0.00000E+00        -0.59888E+08
 
   -0.59393E+08         0.14055E+07         0.00000E+00
    0.14055E+07        -0.61198E+08         0.00000E+00
    0.00000E+00         0.00000E+00        -0.59947E+08
 
   -0.59813E+08         0.14718E+07         0.00000E+00
    0.14718E+07        -0.61047E+08         0.00000E+00
    0.00000E+00         0.00000E+00        -0.60001E+08
 
   -0.53651E+08         0.77725E+05         0.00000E+00
    0.77725E+05        -0.60015E+08         0.00000E+00
    0.00000E+00         0.00000E+00        -0.58488E+08
 
   -0.54578E+08         0.14827E+06         0.00000E+00
    0.14827E+06        -0.60083E+08         0.00000E+00
    0.00000E+00         0.00000E+00        -0.58688E+08
 
   -0.55337E+08         0.14663E+06         0.00000E+00
    0.14663E+06        -0.60215E+08         0.00000E+00
    0.00000E+00         0.00000E+00        -0.58866E+08
 
   -0.55940E+08         0.11624E+06         0.00000E+00
    0.11624E+06        -0.60400E+08         0.00000E+00
    0.00000E+00         0.00000E+00        -0.59023E+08
 
   -0.56412E+08         0.91390E+05         0.00000E+00
    0.91390E+05        -0.60624E+08         0.00000E+00
    0.00000E+00         0.00000E+00        -0.59162E+08
 
   -0.56780E+08         0.97059E+05         0.00000E+00
    0.97059E+05        -0.60869E+08         0.00000E+00
    0.00000E+00         0.00000E+00        -0.59283E+08
 
   -0.57073E+08         0.14917E+06         0.00000E+00
    0.14917E+06        -0.61119E+08         0.00000E+00
    0.00000E+00         0.00000E+00        -0.59390E+08
 
   -0.57323E+08         0.25524E+06         0.00000E+00
    0.25524E+06        -0.61354E+08         0.00000E+00
    0.00000E+00         0.00000E+00        -0.59486E+08
 
   -0.57557E+08         0.41506E+06         0.00000E+00
    0.41506E+06        -0.61560E+08         0.00000E+00
    0.00000E+00         0.00000E+00        -0.59572E+08
 
   -0.57803E+08         0.62138E+06         0.00000E+00
    0.62138E+06        -0.61720E+08         0.00000E+00
    0.00000E+00         0.00000E+00        -0.59651E+08
 
   -0.58083E+08         0.86035E+06         0.00000E+00
    0.86035E+06        -0.61822E+08         0.00000E+00
    0.00000E+00         0.00000E+00        -0.59726E+08
 
   -0.58414E+08         0.11120E+07         0.00000E+00
    0.11120E+07        -0.61855E+08         0.00000E+00
    0.00000E+00         0.00000E+00        -0.59798E+08
 
   -0.58807E+08         0.13506E+07         0.00000E+00
    0.13506E+07        -0.61814E+08         0.00000E+00
    0.00000E+00         0.00000E+00        -0.59868E+08
 
   -0.59262E+08         0.15459E+07         0.00000E+00
    0.15459E+07        -0.61697E+08         0.00000E+00
    0.00000E+00         0.00000E+00        -0.59935E+08
 
   -0.59767E+08         0.16645E+07         0.00000E+00
    0.16645E+07        -0.61513E+08         0.00000E+00
    0.00000E+00         0.00000E+00        -0.59999E+08
 
   -0.53564E+08         0.37710E+05         0.00000E+00
    0.37710E+05        -0.60021E+08         0.00000E+00
    0.00000E+00         0.00000E+00        -0.58364E+08
 
   -0.54586E+08         0.30668E+05         0.00000E+00
    0.30668E+05        -0.60112E+08         0.00000E+00
    0.00000E+00         0.00000E+00        -0.58586E+08
 
   -0.55388E+08        -0.38757E+05         0.00000E+00
   -0.38757E+05        -0.60285E+08         0.00000E+00
    0.00000E+00         0.00000E+00        -0.58781E+08
 
   -0.55993E+08        -0.12150E+06         0.00000E+00
   -0.12150E+06        -0.60526E+08         0.00000E+00
    0.00000E+00         0.00000E+00        -0.58949E+08
 
   -0.56436E+08        -0.18001E+06         0.00000E+00
   -0.18001E+06        -0.60814E+08         0.00000E+00
    0.00000E+00         0.00000E+00        -0.59094E+08
 
   -0.56754E+08        -0.18805E+06         0.00000E+00
   -0.18805E+06        -0.61127E+08         0.00000E+00
    0.00000E+00         0.00000E+00        -0.59217E+08
 
   -0.56987E+08        -0.12985E+06         0.00000E+00
   -0.12985E+06        -0.61443E+08         0.00000E+00
    0.00000E+00         0.00000E+00        -0.59323E+08
 
   -0.57173E+08         0.10719E+04         0.00000E+00
    0.10719E+04        -0.61743E+08         0.00000E+00
    0.00000E+00         0.00000E+00        -0.59417E+08
 
   -0.57348E+08         0.20303E+06         0.00000E+00
    0.20303E+06        -0.62005E+08         0.00000E+00
    0.00000E+00         0.00000E+00        -0.59500E+08
 
   -0.57547E+08         0.46691E+06         0.00000E+00
    0.46691E+06        -0.62213E+08         0.00000E+00
    0.00000E+00         0.00000E+00        -0.59578E+08
 
   -0.57797E+08         0.77655E+06         0.00000E+00
    0.77655E+06        -0.62350E+08         0.00000E+00
    0.00000E+00         0.00000E+00        -0.59653E+08
 
   -0.58124E+08         0.11087E+07         0.00000E+00
    0.11087E+07        -0.62405E+08         0.00000E+00
    0.00000E+00         0.00000E+00        -0.59727E+08
 
   -0.58544E+08         0.14330E+07         0.00000E+00
    0.14330E+07        -0.62367E+08         0.00000E+00
    0.00000E+00         0.00000E+00        -0.59802E+08
 
   -0.59062E+08         0.17123E+07         0.00000E+00
    0.17123E+07        -0.62233E+08         0.00000E+00
    0.00000E+00         0.00000E+00        -0.59878E+08
 
   -0.59669E+08         0.19040E+07         0.00000E+00
    0.19040E+07        -0.62009E+08         0.00000E+00
    0.00000E+00         0.00000E+00        -0.59955E+08
 
   -0.53570E+08        -0.15539E+05         0.00000E+00
   -0.15539E+05        -0.60027E+08         0.00000E+00
    0.00000E+00         0.00000E+00        -0.58216E+08
 
   -0.54678E+08        -0.12272E+06         0.00000E+00
   -0.12272E+06        -0.60145E+08         0.00000E+00
    0.00000E+00         0.00000E+00        -0.58461E+08
 
   -0.55506E+08        -0.27670E+06         0.00000E+00
   -0.27670E+06        -0.60365E+08         0.00000E+00
    0.00000E+00         0.00000E+00        -0.58669E+08
 
   -0.56093E+08        -0.42263E+06         0.00000E+00
   -0.42263E+06        -0.60666E+08         0.00000E+00
    0.00000E+00         0.00000E+00        -0.58844E+08
 
   -0.56485E+08        -0.52018E+06         0.00000E+00
   -0.52018E+06        -0.61022E+08         0.00000E+00
    0.00000E+00         0.00000E+00        -0.58989E+08
 
   -0.56732E+08        -0.54272E+06         0.00000E+00
   -0.54272E+06        -0.61405E+08         0.00000E+00
    0.00000E+00         0.00000E+00        -0.59110E+08
 
   -0.56883E+08        -0.47564E+06         0.00000E+00
   -0.47564E+06        -0.61791E+08         0.00000E+00
    0.00000E+00         0.00000E+00        -0.59210E+08
 
   -0.56985E+08        -0.31432E+06         0.00000E+00
   -0.31432E+06        -0.62154E+08         0.00000E+00
    0.00000E+00         0.00000E+00        -0.59296E+08
 
   -0.57084E+08        -0.62358E+05         0.00000E+00
   -0.62358E+05        -0.62473E+08         0.00000E+00
    0.00000E+00         0.00000E+00        -0.59373E+08
 
   -0.57220E+08         0.26935E+06         0.00000E+00
    0.26935E+06        -0.62729E+08         0.00000E+00
    0.00000E+00         0.00000E+00        -0.59445E+08
 
   -0.57428E+08         0.66276E+06         0.00000E+00
    0.66276E+06        -0.62904E+08         0.00000E+00
    0.00000E+00         0.00000E+00        -0.59516E+08
 
   -0.57741E+08         0.10920E+07         0.00000E+00
    0.10920E+07        -0.62981E+08         0.00000E+00
    0.00000E+00         0.00000E+00        -0.59590E+08
 
   -0.58184E+08         0.15223E+07         0.00000E+00
    0.15223E+07        -0.62947E+08         0.00000E+00
    0.00000E+00         0.00000E+00        -0.59669E+08
 
   -0.58769E+08         0.19094E+07         0.00000E+00
    0.19094E+07        -0.62793E+08         0.00000E+00
    0.00000E+00         0.00000E+00        -0.59754E+08
 
   -0.59494E+08         0.22001E+07         0.00000E+00
    0.22001E+07        -0.62522E+08         0.00000E+00
    0.00000E+00         0.00000E+00        -0.59844E+08
 
   -0.53695E+08        -0.83840E+05         0.00000E+00
   -0.83840E+05        -0.60035E+08         0.00000E+00
    0.00000E+00         0.00000E+00        -0.58038E+08
 
   -0.54873E+08        -0.31614E+06         0.00000E+00
   -0.31614E+06        -0.60181E+08         0.00000E+00
    0.00000E+00         0.00000E+00        -0.58302E+08
 
   -0.55706E+08        -0.57216E+06         0.00000E+00
   -0.57216E+06        -0.60453E+08         0.00000E+00
    0.00000E+00         0.00000E+00        -0.58519E+08
 
   -0.56248E+08        -0.79137E+06         0.00000E+00
   -0.79137E+06        -0.60818E+08         0.00000E+00
    0.00000E+00         0.00000E+00        -0.58695E+08
 
   -0.56562E+08        -0.93164E+06         0.00000E+00
   -0.93164E+06        -0.61245E+08         0.00000E+00
    0.00000E+00         0.00000E+00        -0.58834E+08
 
   -0.56711E+08        -0.96756E+06         0.00000E+00
   -0.96756E+06        -0.61699E+08         0.00000E+00
    0.00000E+00         0.00000E+00        -0.58944E+08
 
   -0.56756E+08        -0.88733E+06         0.00000E+00
   -0.88733E+06        -0.62150E+08         0.00000E+00
    0.00000E+00         0.00000E+00        -0.59031E+08
 
   -0.56754E+08        -0.68940E+06         0.00000E+00
   -0.68940E+06        -0.62574E+08         0.00000E+00
    0.00000E+00         0.00000E+00        -0.59103E+08
 
   -0.56757E+08        -0.37983E+06         0.00000E+00
   -0.37983E+06        -0.62947E+08         0.00000E+00
    0.00000E+00         0.00000E+00        -0.59166E+08
 
   -0.56811E+08         0.29038E+05         0.00000E+00
    0.29038E+05        -0.63249E+08         0.00000E+00
    0.00000E+00         0.00000E+00        -0.59226E+08
 
   -0.56961E+08         0.51827E+06         0.00000E+00
    0.51827E+06        -0.63460E+08         0.00000E+00
    0.00000E+00         0.00000E+00        -0.59288E+08
 
   -0.57247E+08         0.10607E+07         0.00000E+00
    0.10607E+07        -0.63560E+08         0.00000E+00
    0.00000E+00         0.00000E+00        -0.59358E+08
 
   -0.57703E+08         0.16184E+07         0.00000E+00
    0.16184E+07        -0.63530E+08         0.00000E+00
    0.00000E+00         0.00000E+00        -0.59439E+08
 
   -0.58356E+08         0.21407E+07         0.00000E+00
    0.21407E+07        -0.63356E+08         0.00000E+00
    0.00000E+00         0.00000E+00        -0.59532E+08
 
   -0.59214E+08         0.25625E+07         0.00000E+00
    0.25625E+07        -0.63032E+08         0.00000E+00
    0.00000E+00         0.00000E+00        -0.59638E+08
 
   -0.53969E+08        -0.16909E+06         0.00000E+00
   -0.16909E+06        -0.60043E+08         0.00000E+00
    0.00000E+00         0.00000E+00        -0.57819E+08
 
   -0.55194E+08        -0.55377E+06         0.00000E+00
   -0.55377E+06        -0.60222E+08         0.00000E+00
    0.00000E+00         0.00000E+00        -0.58097E+08
 
   -0.56000E+08        -0.92936E+06         0.00000E+00
   -0.92936E+06        -0.60548E+08         0.00000E+00
    0.00000E+00         0.00000E+00        -0.58316E+08
 
   -0.56463E+08        -0.12300E+07         0.00000E+00
   -0.12300E+07        -0.60981E+08         0.00000E+00
    0.00000E+00         0.00000E+00        -0.58484E+08
 
   -0.56665E+08        -0.14136E+07         0.00000E+00
   -0.14136E+07        -0.61477E+08         0.00000E+00
    0.00000E+00         0.00000E+00        -0.58608E+08
 
   -0.56687E+08        -0.14587E+07         0.00000E+00
   -0.14587E+07        -0.61996E+08         0.00000E+00
    0.00000E+00         0.00000E+00        -0.58697E+08
 
   -0.56601E+08        -0.13589E+07         0.00000E+00
   -0.13589E+07        -0.62506E+08         0.00000E+00
    0.00000E+00         0.00000E+00        -0.58761E+08
 
   -0.56473E+08        -0.11176E+07         0.00000E+00
   -0.11176E+07        -0.62981E+08         0.00000E+00
    0.00000E+00         0.00000E+00        -0.58809E+08
 
   -0.56359E+08        -0.74376E+06         0.00000E+00
   -0.74376E+06        -0.63398E+08         0.00000E+00
    0.00000E+00         0.00000E+00        -0.58849E+08
 
   -0.56312E+08        -0.25068E+06         0.00000E+00
   -0.25068E+06        -0.63739E+08         0.00000E+00
    0.00000E+00         0.00000E+00        -0.58889E+08
 
   -0.56383E+08         0.34370E+06         0.00000E+00
    0.34370E+06        -0.63982E+08         0.00000E+00
    0.00000E+00         0.00000E+00        -0.58936E+08
 
   -0.56622E+08         0.10134E+07         0.00000E+00
    0.10134E+07        -0.64105E+08         0.00000E+00
    0.00000E+00         0.00000E+00        -0.58996E+08
 
   -0.57077E+08         0.17200E+07         0.00000E+00
    0.17200E+07        -0.64083E+08         0.00000E+00
    0.00000E+00         0.00000E+00        -0.59074E+08
 
   -0.57791E+08         0.24077E+07         0.00000E+00
    0.24077E+07        -0.63889E+08         0.00000E+00
    0.00000E+00         0.00000E+00        -0.59173E+08
 
   -0.58789E+08         0.30001E+07         0.00000E+00
    0.30001E+07        -0.63509E+08         0.00000E+00
    0.00000E+00         0.00000E+00        -0.59294E+08
 
   -0.54425E+08        -0.27335E+06         0.00000E+00
   -0.27335E+06        -0.60052E+08         0.00000E+00
    0.00000E+00         0.00000E+00        -0.57546E+08
 
   -0.55663E+08        -0.83976E+06         0.00000E+00
   -0.83976E+06        -0.60267E+08         0.00000E+00
    0.00000E+00         0.00000E+00        -0.57830E+08
 
   -0.56400E+08        -0.13514E+07         0.00000E+00
   -0.13514E+07        -0.60652E+08         0.00000E+00
    0.00000E+00         0.00000E+00        -0.58041E+08
 
   -0.56740E+08        -0.17378E+07         0.00000E+00
   -0.17378E+07        -0.61152E+08         0.00000E+00
    0.00000E+00         0.00000E+00        -0.58188E+08
 
   -0.56791E+08        -0.19603E+07         0.00000E+00
   -0.19603E+07        -0.61711E+08         0.00000E+00
    0.00000E+00         0.00000E+00        -0.58283E+08
 
   -0.56652E+08        -0.20056E+07         0.00000E+00
   -0.20056E+07        -0.62283E+08         0.00000E+00
    0.00000E+00         0.00000E+00        -0.58338E+08
 
   -0.56410E+08        -0.18768E+07         0.00000E+00
   -0.18768E+07        -0.62835E+08         0.00000E+00
    0.00000E+00         0.00000E+00        -0.58366E+08
 
   -0.56134E+08        -0.15847E+07         0.00000E+00
   -0.15847E+07        -0.63341E+08         0.00000E+00
    0.00000E+00         0.00000E+00        -0.58378E+08
 
   -0.55885E+08        -0.11422E+07         0.00000E+00
   -0.11422E+07        -0.63785E+08         0.00000E+00
    0.00000E+00         0.00000E+00        -0.58384E+08
 
   -0.55717E+08        -0.56197E+06         0.00000E+00
   -0.56197E+06        -0.64151E+08         0.00000E+00
    0.00000E+00         0.00000E+00        -0.58393E+08
 
   -0.55686E+08         0.14171E+06         0.00000E+00
    0.14171E+06        -0.64420E+08         0.00000E+00
    0.00000E+00         0.00000E+00        -0.58415E+08
 
   -0.55852E+08         0.94820E+06         0.00000E+00
    0.94820E+06        -0.64566E+08         0.00000E+00
    0.00000E+00         0.00000E+00        -0.58456E+08
 
   -0.56281E+08         0.18229E+07         0.00000E+00
    0.18229E+07        -0.64554E+08         0.00000E+00
    0.00000E+00         0.00000E+00        -0.58525E+08
 
   -0.57036E+08         0.27085E+07         0.00000E+00
    0.27085E+07        -0.64347E+08         0.00000E+00
    0.00000E+00         0.00000E+00        -0.58626E+08
 
   -0.58171E+08         0.35181E+07         0.00000E+00
    0.35181E+07        -0.63911E+08         0.00000E+00
    0.00000E+00         0.00000E+00        -0.58762E+08
 
   -0.55101E+08        -0.39902E+06         0.00000E+00
   -0.39902E+06        -0.60063E+08         0.00000E+00
    0.00000E+00         0.00000E+00        -0.57201E+08
 
   -0.56304E+08        -0.11784E+07         0.00000E+00
   -0.11784E+07        -0.60317E+08         0.00000E+00
    0.00000E+00         0.00000E+00        -0.57480E+08
 
   -0.56914E+08        -0.18395E+07         0.00000E+00
   -0.18395E+07        -0.60763E+08         0.00000E+00
    0.00000E+00         0.00000E+00        -0.57667E+08
 
   -0.57075E+08        -0.23093E+07         0.00000E+00
   -0.23093E+07        -0.61326E+08         0.00000E+00
    0.00000E+00         0.00000E+00        -0.57776E+08
 
   -0.56928E+08        -0.25581E+07         0.00000E+00
   -0.25581E+07        -0.61935E+08         0.00000E+00
    0.00000E+00         0.00000E+00        -0.57824E+08
 
   -0.56595E+08        -0.25878E+07         0.00000E+00
   -0.25878E+07        -0.62537E+08         0.00000E+00
    0.00000E+00         0.00000E+00        -0.57827E+08
 
   -0.56172E+08        -0.24167E+07         0.00000E+00
   -0.24167E+07        -0.63101E+08         0.00000E+00
    0.00000E+00         0.00000E+00        -0.57802E+08
 
   -0.55733E+08        -0.20665E+07         0.00000E+00
   -0.20665E+07        -0.63608E+08         0.00000E+00
    0.00000E+00         0.00000E+00        -0.57763E+08
 
   -0.55334E+08        -0.15544E+07         0.00000E+00
   -0.15544E+07        -0.64050E+08         0.00000E+00
    0.00000E+00         0.00000E+00        -0.57721E+08
 
   -0.55026E+08        -0.89085E+06         0.00000E+00
   -0.89085E+06        -0.64420E+08         0.00000E+00
    0.00000E+00         0.00000E+00        -0.57687E+08
 
   -0.54867E+08        -0.82193E+05         0.00000E+00
   -0.82193E+05        -0.64702E+08         0.00000E+00
    0.00000E+00         0.00000E+00        -0.57671E+08
 
   -0.54926E+08         0.86223E+06         0.00000E+00
    0.86223E+06        -0.64868E+08         0.00000E+00
    0.00000E+00         0.00000E+00        -0.57682E+08
 
   -0.55289E+08         0.19186E+07         0.00000E+00
    0.19186E+07        -0.64875E+08         0.00000E+00
    0.00000E+00         0.00000E+00        -0.57731E+08
 
   -0.56050E+08         0.30347E+07         0.00000E+00
    0.30347E+07        -0.64666E+08         0.00000E+00
    0.00000E+00         0.00000E+00        -0.57826E+08
 
   -0.57301E+08         0.41165E+07         0.00000E+00
    0.41165E+07        -0.64183E+08         0.00000E+00
    0.00000E+00         0.00000E+00        -0.57973E+08
 
   -0.56038E+08        -0.54931E+06         0.00000E+00
   -0.54931E+06        -0.60075E+08         0.00000E+00
    0.00000E+00         0.00000E+00        -0.56761E+08
 
   -0.57137E+08        -0.15746E+07         0.00000E+00
   -0.15746E+07        -0.60374E+08         0.00000E+00
    0.00000E+00         0.00000E+00        -0.57019E+08
 
   -0.57542E+08        -0.23926E+07         0.00000E+00
   -0.23926E+07        -0.60883E+08         0.00000E+00
    0.00000E+00         0.00000E+00        -0.57160E+08
 
   -0.57453E+08        -0.29318E+07         0.00000E+00
   -0.29318E+07        -0.61497E+08         0.00000E+00
    0.00000E+00         0.00000E+00        -0.57206E+08
 
   -0.57055E+08        -0.31817E+07         0.00000E+00
   -0.31817E+07        -0.62130E+08         0.00000E+00
    0.00000E+00         0.00000E+00        -0.57181E+08
 
   -0.56496E+08        -0.31706E+07         0.00000E+00
   -0.31706E+07        -0.62725E+08         0.00000E+00
    0.00000E+00         0.00000E+00        -0.57110E+08
 
   -0.55878E+08        -0.29399E+07         0.00000E+00
   -0.29399E+07        -0.63255E+08         0.00000E+00
    0.00000E+00         0.00000E+00        -0.57012E+08
 
   -0.55268E+08        -0.25253E+07         0.00000E+00
   -0.25253E+07        -0.63716E+08         0.00000E+00
    0.00000E+00         0.00000E+00        -0.56904E+08
 
   -0.54711E+08        -0.19486E+07         0.00000E+00
   -0.19486E+07        -0.64115E+08         0.00000E+00
    0.00000E+00         0.00000E+00        -0.56798E+08
 
   -0.54250E+08        -0.12153E+07         0.00000E+00
   -0.12153E+07        -0.64456E+08         0.00000E+00
    0.00000E+00         0.00000E+00        -0.56705E+08
 
   -0.53936E+08        -0.31846E+06         0.00000E+00
   -0.31846E+06        -0.64731E+08         0.00000E+00
    0.00000E+00         0.00000E+00        -0.56636E+08
 
   -0.53845E+08         0.75174E+06         0.00000E+00
    0.75174E+06        -0.64914E+08         0.00000E+00
    0.00000E+00         0.00000E+00        -0.56602E+08
 
   -0.54083E+08         0.19929E+07         0.00000E+00
    0.19929E+07        -0.64950E+08         0.00000E+00
    0.00000E+00         0.00000E+00        -0.56618E+08
 
   -0.54788E+08         0.33687E+07         0.00000E+00
    0.33687E+07        -0.64762E+08         0.00000E+00
    0.00000E+00         0.00000E+00        -0.56695E+08
 
   -0.56107E+08         0.47852E+07         0.00000E+00
    0.47852E+07        -0.64253E+08         0.00000E+00
    0.00000E+00         0.00000E+00        -0.56844E+08
 
   -0.57284E+08        -0.72898E+06         0.00000E+00
   -0.72898E+06        -0.60091E+08         0.00000E+00
    0.00000E+00         0.00000E+00        -0.56197E+08
 
   -0.58181E+08        -0.20341E+07         0.00000E+00
   -0.20341E+07        -0.60440E+08         0.00000E+00
    0.00000E+00         0.00000E+00        -0.56409E+08
 
   -0.58273E+08        -0.30047E+07         0.00000E+00
   -0.30047E+07        -0.61011E+08         0.00000E+00
    0.00000E+00         0.00000E+00        -0.56471E+08
 
   -0.57843E+08        -0.35800E+07         0.00000E+00
   -0.35800E+07        -0.61655E+08         0.00000E+00
    0.00000E+00         0.00000E+00        -0.56417E+08
 
   -0.57139E+08        -0.37882E+07         0.00000E+00
   -0.37882E+07        -0.62267E+08         0.00000E+00
    0.00000E+00         0.00000E+00        -0.56287E+08
 
   -0.56330E+08        -0.37004E+07         0.00000E+00
   -0.37004E+07        -0.62792E+08         0.00000E+00
    0.00000E+00         0.00000E+00        -0.56113E+08
 
   -0.55514E+08        -0.33896E+07         0.00000E+00
   -0.33896E+07        -0.63223E+08         0.00000E+00
    0.00000E+00         0.00000E+00        -0.55920E+08
 
   -0.54741E+08        -0.29082E+07         0.00000E+00
   -0.29082E+07        -0.63575E+08         0.00000E+00
    0.00000E+00         0.00000E+00        -0.55724E+08
 
   -0.54033E+08        -0.22803E+07         0.00000E+00
   -0.22803E+07        -0.63875E+08         0.00000E+00
    0.00000E+00         0.00000E+00        -0.55537E+08
 
   -0.53412E+08        -0.15033E+07         0.00000E+00
   -0.15033E+07        -0.64142E+08         0.00000E+00
    0.00000E+00         0.00000E+00        -0.55368E+08
 
   -0.52917E+08        -0.55191E+06         0.00000E+00
   -0.55191E+06        -0.64382E+08         0.00000E+00
    0.00000E+00         0.00000E+00        -0.55228E+08
 
   -0.52622E+08         0.61248E+06         0.00000E+00
    0.61248E+06        -0.64574E+08         0.00000E+00
    0.00000E+00         0.00000E+00        -0.55130E+08
 
   -0.52656E+08         0.20236E+07         0.00000E+00
    0.20236E+07        -0.64656E+08         0.00000E+00
    0.00000E+00         0.00000E+00        -0.55090E+08
 
   -0.53206E+08         0.36788E+07         0.00000E+00
    0.36788E+07        -0.64521E+08         0.00000E+00
    0.00000E+00         0.00000E+00        -0.55130E+08
 
   -0.54500E+08         0.54988E+07         0.00000E+00
    0.54988E+07        -0.64026E+08         0.00000E+00
    0.00000E+00         0.00000E+00        -0.55268E+08
 
   -0.58896E+08        -0.94579E+06         0.00000E+00
   -0.94579E+06        -0.60111E+08         0.00000E+00
    0.00000E+00         0.00000E+00        -0.55466E+08
 
   -0.59444E+08        -0.25640E+07         0.00000E+00
   -0.25640E+07        -0.60522E+08         0.00000E+00
    0.00000E+00         0.00000E+00        -0.55594E+08
 
   -0.59070E+08        -0.36595E+07         0.00000E+00
   -0.36595E+07        -0.61145E+08         0.00000E+00
    0.00000E+00         0.00000E+00        -0.55526E+08
 
   -0.58192E+08        -0.42065E+07         0.00000E+00
   -0.42065E+07        -0.61774E+08         0.00000E+00
    0.00000E+00         0.00000E+00        -0.55324E+08
 
   -0.57131E+08        -0.43071E+07         0.00000E+00
   -0.43071E+07        -0.62287E+08         0.00000E+00
    0.00000E+00         0.00000E+00        -0.55045E+08
 
   -0.56067E+08        -0.40980E+07         0.00000E+00
   -0.40980E+07        -0.62651E+08         0.00000E+00
    0.00000E+00         0.00000E+00        -0.54735E+08
 
   -0.55073E+08        -0.36898E+07         0.00000E+00
   -0.36898E+07        -0.62892E+08         0.00000E+00
    0.00000E+00         0.00000E+00        -0.54422E+08
 
   -0.54163E+08        -0.31473E+07         0.00000E+00
   -0.31473E+07        -0.63055E+08         0.00000E+00
    0.00000E+00         0.00000E+00        -0.54119E+08
 
   -0.53324E+08        -0.24929E+07         0.00000E+00
   -0.24929E+07        -0.63189E+08         0.00000E+00
    0.00000E+00         0.00000E+00        -0.53836E+08
 
   -0.52551E+08        -0.17125E+07         0.00000E+00
   -0.17125E+07        -0.63328E+08         0.00000E+00
    0.00000E+00         0.00000E+00        -0.53575E+08
 
   -0.51855E+08        -0.75921E+06         0.00000E+00
   -0.75921E+06        -0.63495E+08         0.00000E+00
    0.00000E+00         0.00000E+00        -0.53345E+08
 
   -0.51298E+08         0.44187E+06         0.00000E+00
    0.44187E+06        -0.63680E+08         0.00000E+00
    0.00000E+00         0.00000E+00        -0.53158E+08
 
   -0.51019E+08         0.19789E+07         0.00000E+00
    0.19789E+07        -0.63826E+08         0.00000E+00
    0.00000E+00         0.00000E+00        -0.53036E+08
 
   -0.51264E+08         0.39127E+07         0.00000E+00
    0.39127E+07        -0.63797E+08         0.00000E+00
    0.00000E+00         0.00000E+00        -0.53010E+08
 
   -0.52378E+08         0.62074E+07         0.00000E+00
    0.62074E+07        -0.63382E+08         0.00000E+00
    0.00000E+00         0.00000E+00        -0.53112E+08
 
   -0.60941E+08        -0.12133E+07         0.00000E+00
   -0.12133E+07        -0.60140E+08         0.00000E+00
    0.00000E+00         0.00000E+00        -0.54509E+08
 
   -0.60914E+08        -0.31711E+07         0.00000E+00
   -0.31711E+07        -0.60626E+08         0.00000E+00
    0.00000E+00         0.00000E+00        -0.54490E+08
 
   -0.59858E+08        -0.43161E+07         0.00000E+00
   -0.43161E+07        -0.61272E+08         0.00000E+00
    0.00000E+00         0.00000E+00        -0.54212E+08
 
   -0.58411E+08        -0.47206E+07         0.00000E+00
   -0.47206E+07        -0.61790E+08         0.00000E+00
    0.00000E+00         0.00000E+00        -0.53787E+08
 
   -0.56969E+08        -0.46255E+07         0.00000E+00
   -0.46255E+07        -0.62069E+08         0.00000E+00
    0.00000E+00         0.00000E+00        -0.53306E+08
 
   -0.55681E+08        -0.42552E+07         0.00000E+00
   -0.42552E+07        -0.62140E+08         0.00000E+00
    0.00000E+00         0.00000E+00        -0.52826E+08
 
   -0.54558E+08        -0.37481E+07         0.00000E+00
   -0.37481E+07        -0.62083E+08         0.00000E+00
    0.00000E+00         0.00000E+00        -0.52372E+08
 
   -0.53556E+08        -0.31668E+07         0.00000E+00
   -0.31668E+07        -0.61974E+08         0.00000E+00
    0.00000E+00         0.00000E+00        -0.51950E+08
 
   -0.52625E+08        -0.25233E+07         0.00000E+00
   -0.25233E+07        -0.61872E+08         0.00000E+00
    0.00000E+00         0.00000E+00        -0.51559E+08
 
   -0.51720E+08        -0.17912E+07         0.00000E+00
   -0.17912E+07        -0.61826E+08         0.00000E+00
    0.00000E+00         0.00000E+00        -0.51195E+08
 
   -0.50819E+08        -0.90550E+06         0.00000E+00
   -0.90550E+06        -0.61871E+08         0.00000E+00
    0.00000E+00         0.00000E+00        -0.50858E+08
 
   -0.49945E+08         0.24513E+06         0.00000E+00
    0.24513E+06        -0.62023E+08         0.00000E+00
    0.00000E+00         0.00000E+00        -0.50557E+08
 
   -0.49222E+08         0.18204E+07         0.00000E+00
    0.18204E+07        -0.62243E+08         0.00000E+00
    0.00000E+00         0.00000E+00        -0.50315E+08
 
   -0.48946E+08         0.39903E+07         0.00000E+00
    0.39903E+07        -0.62388E+08         0.00000E+00
    0.00000E+00         0.00000E+00        -0.50178E+08
 
   -0.49619E+08         0.68225E+07         0.00000E+00
    0.68225E+07        -0.62163E+08         0.00000E+00
    0.00000E+00         0.00000E+00        -0.50206E+08
 
   -0.63511E+08        -0.15581E+07         0.00000E+00
   -0.15581E+07        -0.60191E+08         0.00000E+00
    0.00000E+00         0.00000E+00        -0.53228E+08
 
   -0.62526E+08        -0.38513E+07         0.00000E+00
   -0.38513E+07        -0.60762E+08         0.00000E+00
    0.00000E+00         0.00000E+00        -0.52947E+08
 
   -0.60485E+08        -0.48672E+07         0.00000E+00
   -0.48672E+07        -0.61335E+08         0.00000E+00
    0.00000E+00         0.00000E+00        -0.52326E+08
 
   -0.58377E+08        -0.49472E+07         0.00000E+00
   -0.49472E+07        -0.61529E+08         0.00000E+00
    0.00000E+00         0.00000E+00        -0.51574E+08
 
   -0.56601E+08        -0.45746E+07         0.00000E+00
   -0.45746E+07        -0.61353E+08         0.00000E+00
    0.00000E+00         0.00000E+00        -0.50831E+08
 
   -0.55174E+08        -0.40431E+07         0.00000E+00
   -0.40431E+07        -0.60970E+08         0.00000E+00
    0.00000E+00         0.00000E+00        -0.50155E+08
 
   -0.53994E+08        -0.34724E+07         0.00000E+00
   -0.34724E+07        -0.60511E+08         0.00000E+00
    0.00000E+00         0.00000E+00        -0.49552E+08
 
   -0.52961E+08        -0.28985E+07         0.00000E+00
   -0.28985E+07        -0.60061E+08         0.00000E+00
    0.00000E+00         0.00000E+00        -0.49010E+08
 
   -0.51983E+08        -0.23154E+07         0.00000E+00
   -0.23154E+07        -0.59675E+08         0.00000E+00
    0.00000E+00         0.00000E+00        -0.48513E+08
 
   -0.50983E+08        -0.16868E+07         0.00000E+00
   -0.16868E+07        -0.59398E+08         0.00000E+00
    0.00000E+00         0.00000E+00        -0.48044E+08
 
   -0.49894E+08        -0.94188E+06         0.00000E+00
   -0.94188E+06        -0.59271E+08         0.00000E+00
    0.00000E+00         0.00000E+00        -0.47592E+08
 
   -0.48675E+08         0.48159E+05         0.00000E+00
    0.48159E+05        -0.59337E+08         0.00000E+00
    0.00000E+00         0.00000E+00        -0.47153E+08
 
   -0.47374E+08         0.15141E+07         0.00000E+00
    0.15141E+07        -0.59621E+08         0.00000E+00
    0.00000E+00         0.00000E+00        -0.46750E+08
 
   -0.46279E+08         0.37952E+07         0.00000E+00
    0.37952E+07        -0.60017E+08         0.00000E+00
    0.00000E+00         0.00000E+00        -0.46440E+08
 
   -0.46088E+08         0.71891E+07         0.00000E+00
    0.71891E+07        -0.60156E+08         0.00000E+00
    0.00000E+00         0.00000E+00        -0.46327E+08
 
   -0.66720E+08        -0.20384E+07         0.00000E+00
   -0.20384E+07        -0.60277E+08         0.00000E+00
    0.00000E+00         0.00000E+00        -0.51440E+08
 
   -0.64072E+08        -0.45402E+07         0.00000E+00
   -0.45402E+07        -0.60936E+08         0.00000E+00
    0.00000E+00         0.00000E+00        -0.50662E+08
 
   -0.60680E+08        -0.50095E+07         0.00000E+00
   -0.50095E+07        -0.61088E+08         0.00000E+00
    0.00000E+00         0.00000E+00        -0.49454E+08
 
   -0.57981E+08        -0.45701E+07         0.00000E+00
   -0.45701E+07        -0.60490E+08         0.00000E+00
    0.00000E+00         0.00000E+00        -0.48248E+08
 
   -0.56047E+08        -0.39513E+07         0.00000E+00
   -0.39513E+07        -0.59583E+08         0.00000E+00
    0.00000E+00         0.00000E+00        -0.47215E+08
 
   -0.54602E+08        -0.33490E+07         0.00000E+00
   -0.33490E+07        -0.58618E+08         0.00000E+00
    0.00000E+00         0.00000E+00        -0.46346E+08
 
   -0.53445E+08        -0.28038E+07         0.00000E+00
   -0.28038E+07        -0.57707E+08         0.00000E+00
    0.00000E+00         0.00000E+00        -0.45610E+08
 
   -0.52432E+08        -0.23096E+07         0.00000E+00
   -0.23096E+07        -0.56903E+08         0.00000E+00
    0.00000E+00         0.00000E+00        -0.44967E+08
 
   -0.51449E+08        -0.18424E+07         0.00000E+00
   -0.18424E+07        -0.56232E+08         0.00000E+00
    0.00000E+00         0.00000E+00        -0.44383E+08
 
   -0.50393E+08        -0.13649E+07         0.00000E+00
   -0.13649E+07        -0.55716E+08         0.00000E+00
    0.00000E+00         0.00000E+00        -0.43828E+08
 
   -0.49159E+08        -0.81583E+06         0.00000E+00
   -0.81583E+06        -0.55389E+08         0.00000E+00
    0.00000E+00         0.00000E+00        -0.43274E+08
 
   -0.47629E+08        -0.83206E+05         0.00000E+00
   -0.83206E+05        -0.55310E+08         0.00000E+00
    0.00000E+00         0.00000E+00        -0.42699E+08
 
   -0.45680E+08         0.10672E+07         0.00000E+00
    0.10672E+07        -0.55571E+08         0.00000E+00
    0.00000E+00         0.00000E+00        -0.42097E+08
 
   -0.43408E+08         0.31764E+07         0.00000E+00
    0.31764E+07        -0.56273E+08         0.00000E+00
    0.00000E+00         0.00000E+00        -0.41533E+08
 
   -0.41650E+08         0.70327E+07         0.00000E+00
    0.70327E+07        -0.57040E+08         0.00000E+00
    0.00000E+00         0.00000E+00        -0.41172E+08
 
   -0.70669E+08        -0.28801E+07         0.00000E+00
   -0.28801E+07        -0.60728E+08         0.00000E+00
    0.00000E+00         0.00000E+00        -0.48718E+08
 
   -0.64902E+08        -0.46545E+07         0.00000E+00
   -0.46545E+07        -0.60858E+08         0.00000E+00
    0.00000E+00         0.00000E+00        -0.46749E+08
 
   -0.60159E+08        -0.39901E+07         0.00000E+00
   -0.39901E+07        -0.59268E+08         0.00000E+00
    0.00000E+00         0.00000E+00        -0.44562E+08
 
   -0.57340E+08        -0.32361E+07         0.00000E+00
   -0.32361E+07        -0.57379E+08         0.00000E+00
    0.00000E+00         0.00000E+00        -0.42918E+08
 
   -0.55458E+08        -0.26331E+07         0.00000E+00
   -0.26331E+07        -0.55636E+08         0.00000E+00
    0.00000E+00         0.00000E+00        -0.41660E+08
 
   -0.54094E+08        -0.21554E+07         0.00000E+00
   -0.21554E+07        -0.54124E+08         0.00000E+00
    0.00000E+00         0.00000E+00        -0.40673E+08
 
   -0.53006E+08        -0.17668E+07         0.00000E+00
   -0.17668E+07        -0.52841E+08         0.00000E+00
    0.00000E+00         0.00000E+00        -0.39868E+08
 
   -0.52037E+08        -0.14365E+07         0.00000E+00
   -0.14365E+07        -0.51770E+08         0.00000E+00
    0.00000E+00         0.00000E+00        -0.39182E+08
 
   -0.51068E+08        -0.11375E+07         0.00000E+00
   -0.11375E+07        -0.50894E+08         0.00000E+00
    0.00000E+00         0.00000E+00        -0.38566E+08
 
   -0.49987E+08        -0.84191E+06         0.00000E+00
   -0.84191E+06        -0.50206E+08         0.00000E+00
    0.00000E+00         0.00000E+00        -0.37977E+08
 
   -0.48664E+08        -0.51088E+06         0.00000E+00
   -0.51088E+06        -0.49723E+08         0.00000E+00
    0.00000E+00         0.00000E+00        -0.37376E+08
 
   -0.46913E+08        -0.75074E+05         0.00000E+00
   -0.75074E+05        -0.49494E+08         0.00000E+00
    0.00000E+00         0.00000E+00        -0.36721E+08
 
   -0.44452E+08         0.61828E+06         0.00000E+00
    0.61828E+06        -0.49642E+08         0.00000E+00
    0.00000E+00         0.00000E+00        -0.35969E+08
 
   -0.40757E+08         0.20191E+07         0.00000E+00
    0.20191E+07        -0.50445E+08         0.00000E+00
    0.00000E+00         0.00000E+00        -0.35074E+08
 
   -0.36268E+08         0.58067E+07         0.00000E+00
    0.58067E+07        -0.52296E+08         0.00000E+00
    0.00000E+00         0.00000E+00        -0.34304E+08
 
   -0.74576E+08        -0.30953E+07         0.00000E+00
   -0.30953E+07        -0.58171E+08         0.00000E+00
    0.00000E+00         0.00000E+00        -0.39775E+08
 
   -0.64042E+08        -0.20896E+07         0.00000E+00
   -0.20896E+07        -0.54343E+08         0.00000E+00
    0.00000E+00         0.00000E+00        -0.36312E+08
 
   -0.59524E+08        -0.13856E+07         0.00000E+00
   -0.13856E+07        -0.51116E+08         0.00000E+00
    0.00000E+00         0.00000E+00        -0.34198E+08
 
   -0.56857E+08        -0.10554E+07         0.00000E+00
   -0.10554E+07        -0.48632E+08         0.00000E+00
    0.00000E+00         0.00000E+00        -0.32788E+08
 
   -0.55094E+08        -0.83518E+06         0.00000E+00
   -0.83518E+06        -0.46672E+08         0.00000E+00
    0.00000E+00         0.00000E+00        -0.31771E+08
 
   -0.53808E+08        -0.67448E+06         0.00000E+00
   -0.67448E+06        -0.45094E+08         0.00000E+00
    0.00000E+00         0.00000E+00        -0.30995E+08
 
   -0.52769E+08        -0.54727E+06         0.00000E+00
   -0.54727E+06        -0.43812E+08         0.00000E+00
    0.00000E+00         0.00000E+00        -0.30372E+08
 
   -0.51830E+08        -0.43947E+06         0.00000E+00
   -0.43947E+06        -0.42771E+08         0.00000E+00
    0.00000E+00         0.00000E+00        -0.29844E+08
 
   -0.50872E+08        -0.34091E+06         0.00000E+00
   -0.34091E+06        -0.41941E+08         0.00000E+00
    0.00000E+00         0.00000E+00        -0.29371E+08
 
   -0.49782E+08        -0.24192E+06         0.00000E+00
   -0.24192E+06        -0.41309E+08         0.00000E+00
    0.00000E+00         0.00000E+00        -0.28916E+08
 
   -0.48415E+08        -0.12977E+06         0.00000E+00
   -0.12977E+06        -0.40886E+08         0.00000E+00
    0.00000E+00         0.00000E+00        -0.28445E+08
 
   -0.46557E+08         0.17292E+05         0.00000E+00
    0.17292E+05        -0.40717E+08         0.00000E+00
    0.00000E+00         0.00000E+00        -0.27917E+08
 
   -0.43818E+08         0.25158E+06         0.00000E+00
    0.25158E+06        -0.40921E+08         0.00000E+00
    0.00000E+00         0.00000E+00        -0.27268E+08
 
   -0.39376E+08         0.69385E+06         0.00000E+00
    0.69385E+06        -0.41806E+08         0.00000E+00
    0.00000E+00         0.00000E+00        -0.26387E+08
 
   -0.30337E+08         0.24388E+07         0.00000E+00
    0.24388E+07        -0.44518E+08         0.00000E+00
    0.00000E+00         0.00000E+00        -0.24978E+08
 
SCALARS stresss double 
LOOKUP_TABLE default
  -58583888.7960177     
  -59152467.9939893     
  -59489177.5236143     
  -59735574.8246522     
  -59934496.9939713     
  -60105708.5795129     
  -60259191.7409198     
  -60400608.7345488     
  -60533683.6057827     
  -60661570.5491094     
  -60787975.9740868     
  -60918633.8791823     
  -61064523.1470084     
  -61249103.3613626     
  -61563907.6940108     
  -58388106.8252203     
  -58659188.1280436     
  -58914660.7416897     
  -59123416.9154508     
  -59302863.9571688     
  -59462493.8867242     
  -59608230.8831280     
  -59743719.4654316     
  -59871487.3507679     
  -59993702.6785400     
  -60112804.9343038     
  -60232258.6862338     
  -60356991.8648495     
  -60496877.1634823     
  -60612199.5030323     
  -58343495.8607172     
  -58434449.1749197     
  -58584651.0411945     
  -58744342.5407354     
  -58897404.7630914     
  -59041978.6225835     
  -59178298.6426950     
  -59307072.6384161     
  -59428989.2569011     
  -59544692.2807091     
  -59654788.3550730     
  -59759528.8603317     
  -59858020.9246532     
  -59938922.8895975     
  -59978280.1973159     
  -58326529.3596471     
  -58340890.8690799     
  -58425755.9417046     
  -58543018.4169731     
  -58671491.6553707     
  -58801381.7717628     
  -58928514.8105811     
  -59050836.2237038     
  -59167168.4718782     
  -59276590.2810936     
  -59377949.7671736     
  -59469159.7107954     
  -59545046.1434131     
  -59595500.2329700     
  -59603123.0151774     
  -58307321.5302599     
  -58304405.1812562     
  -58361594.8575458     
  -58454699.9306474     
  -58566213.6078283     
  -58685197.1119731     
  -58805247.4596202     
  -58922531.3597116     
  -59034460.2091586     
  -59138899.9634469     
  -59233534.9048831     
  -59315057.6605857     
  -59378322.7811127     
  -59415551.5368462     
  -59416975.5017276     
  -58274223.7699824     
  -58284622.8940866     
  -58339613.0862048     
  -58425503.2807547     
  -58529988.6366626     
  -58643729.3640477     
  -58760191.7591823     
  -58874853.2258068     
  -58984385.7668552     
  -59085987.2531290     
  -59176818.7708109     
  -59253514.5533397     
  -59311811.0644268     
  -59346643.5484523     
  -59353088.6263417     
  -58224019.0667042     
  -58261390.3194565     
  -58329393.9299793     
  -58420664.1663053     
  -58527148.9039060     
  -58641735.8850236     
  -58758753.3311431     
  -58873833.5122625     
  -58983527.0257423     
  -59084879.0737963     
  -59175055.6108688     
  -59251070.1579011     
  -59309715.8822485     
  -59347854.6679571     
  -59363253.4623639     
  -58157406.5185288     
  -58227121.7305139     
  -58316643.6112261     
  -58421828.9770136     
  -58537455.0788289     
  -58658371.3876903     
  -58780062.5845485     
  -58898769.3195721     
  -59011361.0224499     
  -59115114.8454147     
  -59207502.7939978     
  -59286064.7950660     
  -59348443.6011480     
  -59392661.4100605     
  -59417673.1269715     
  -58076701.6671311     
  -58180944.7043642     
  -58296803.1614275     
  -58421524.2648258     
  -58551576.1030206     
  -58683295.7816689     
  -58813292.5149311     
  -58938602.5787228     
  -59056669.9951486     
  -59165241.4804963     
  -59262253.2222601     
  -59345772.7714502     
  -59414047.7632993     
  -59465692.5770070     
  -59500001.0413774     
  -57984738.7250004     
  -58124998.1764221     
  -58270264.7392499     
  -58418297.0643715     
  -58566557.2778466     
  -58712483.0292050     
  -58853692.1627189     
  -58988074.1480888     
  -59113782.8293125     
  -59229172.1842676     
  -59332722.1968346     
  -59422996.7765307     
  -59498664.0574118     
  -59558589.9381112     
  -59601984.6299539     
  -57884530.2452365     
  -58062536.1898871     
  -58239547.0849108     
  -58413532.6315511     
  -58582625.2051854     
  -58745146.7603927     
  -58899643.7123349     
  -59044885.7563233     
  -59179821.0642032     
  -59303502.7242393     
  -59415010.4436921     
  -59513391.1248441     
  -59597634.7624338     
  -59666689.2305366     
  -59719500.4722350     
  -57779276.3999048     
  -57997161.8892177     
  -58207909.1182015     
  -58409711.4274810     
  -58601306.5946658     
  -58781849.0000747     
  -58950814.0340891     
  -59107904.7806982     
  -59252949.0330009     
  -59385788.6790667     
  -59506171.0095157     
  -59613653.0666079     
  -59707527.1494979     
  -59786769.5589845     
  -59850007.7921670     
  -57672483.3905318     
  -57932610.5255822     
  -58178771.3422155     
  -58409558.8639908     
  -58624419.5440253     
  -58823421.2498705     
  -59007057.2738246     
  -59176069.9005412     
  -59331283.6901751     
  -59473445.2519066     
  -59603070.7094697     
  -59720303.9535578     
  -59824788.7520405     
  -59915556.9241521     
  -59990934.5911945     
  -57568082.0594680     
  -57872733.1670071     
  -58155497.7669386     
  -58415637.9287028     
  -58653524.6937581     
  -58870324.8074811     
  -59067721.7926450     
  -59247665.0106962     
  -59412140.3212040     
  -59562956.9179716     
  -59701546.1201899     
  -59828769.2899622     
  -59944733.9763998     
  -60048620.3140959     
  -60138524.1111129     
  -57470509.9096965     
  -57821513.9863387     
  -58141290.9895015     
  -58430108.7077848     
  -58689564.2292659     
  -58922195.0273651     
  -59131123.6400162     
  -59319737.6006375     
  -59491401.3798735     
  -59649193.0138312     
  -59795655.8522147     
  -59932556.2613189     
  -60060641.5340035     
  -60179398.5415610     
  -60286822.1894466     
  -57384748.3003900     
  -57783055.0157289     
  -58139084.5294006     
  -58454510.7722749     
  -58732536.4547597     
  -58977421.4725555     
  -59194048.2128477     
  -59387534.0496913     
  -59562890.5055997     
  -59724718.2032637     
  -59876920.0399560     
  -60022413.9632130     
  -60162831.8275158     
  -60298201.2075026     
  -60426620.7817572     
  -57316314.3637786     
  -57761507.1440955     
  -58151383.6389104     
  -58489498.3053958     
  -58781125.1961136     
  -59032682.3717906     
  -59251204.2773574     
  -59443884.9353722     
  -59617693.8816386     
  -59779046.5672423     
  -59933497.6014356     
  -60085422.1355889     
  -60237658.4775068     
  -60391101.7833722     
  -60544260.6039811     
  -57271208.3786533     
  -57760941.2849324     
  -58180031.2827428     
  -58534487.7493554     
  -58832233.5621215     
  -59082381.2784133     
  -59294584.0364025     
  -59478504.3542789     
  -59643404.3085750     
  -59797823.7921120     
  -59949289.8804283     
  -60103994.7126260     
  -60266391.8900545     
  -60438688.7664992     
  -60620247.7577109     
  -57255818.6217533     
  -57785154.3371950     
  -58225875.9063806     
  -58587176.5032001     
  -58880369.9393743     
  -59117933.6986578     
  -59312686.6048527     
  -59477176.4908818     
  -59623278.8908222     
  -59761943.3969611     
  -59902985.5305451     
  -60054813.9321445     
  -60224003.8048500     
  -60414672.1970009     
  -60627669.8041639     
  -57276789.4397470     
  -57837395.8920850     
  -58288296.7828830     
  -58642861.8149888     
  -58916802.0128068     
  -59126822.8572523     
  -59289541.8496024     
  -59420792.9987647     
  -59535302.8010137     
  -59646614.6349841     
  -59767080.8378492     
  -59907734.1649281     
  -60077885.2067563     
  -60284363.0120232     
  -60530412.6130805     
  -57340864.4550862     
  -57919980.5989353     
  -58364494.3813138     
  -58693422.1338868     
  -58928322.7609091     
  -59091279.2126891     
  -59203421.8779874     
  -59284172.6930043     
  -59351136.8008372     
  -59420400.1578004     
  -59506921.7870727     
  -59624712.5365824     
  -59786546.3727642     
  -60003050.9961049     
  -60281177.6842209     
  -57454722.8719446     
  -58033705.4256766     
  -58448354.2648007     
  -58725691.8055909     
  -58895336.4463086     
  -58986320.0041389     
  -59025036.0943398     
  -59034530.5285111     
  -59034885.3970299     
  -59044222.1731341     
  -59079812.7923953     
  -59158832.7432968     
  -59298354.4715426     
  -59514297.8822718     
  -59819268.6803964     
  -57624828.3414220     
  -58176887.2087252     
  -58528488.7062461     
  -58718701.4316928     
  -58788722.7873503     
  -58776680.7433003     
  -58714851.1953055     
  -58629345.6991314     
  -58541532.5394313     
  -58470272.5960205     
  -58434205.5044575     
  -58453480.1748577     
  -58550358.6884367     
  -58748126.4792367     
  -59068034.6139919     
  -57857280.7705908     
  -58343600.7310636     
  -58584604.3469398     
  -58638729.9997747     
  -58564472.3747118     
  -58411823.6995558     
  -58218925.3859533     
  -58013164.8926844     
  -57814692.0950582     
  -57640594.4623874     
  -57508866.2749856     
  -57441684.0212618     
  -57467228.5505512     
  -57619022.8814839     
  -57931688.5596207     
  -58157628.3690570     
  -58520044.3022205     
  -58580290.4223601     
  -58429959.5309447     
  -58154192.9828217     
  -57817639.1505702     
  -57462213.6646864     
  -57112456.9011219     
  -56782855.7175390     
  -56484636.1551902     
  -56231602.2912521     
  -56045465.1296627     
  -55960317.7352893     
  -56023558.1094483     
  -56290928.0638504     
  -58530039.6778726     
  -58676463.7748047     
  -58447348.4375731     
  -57995844.8377883     
  -57447921.1265331     
  -56882394.1158789     
  -56337536.1581515     
  -55826628.7871102     
  -55352113.5453785     
  -54913909.2528345     
  -54516029.9408920     
  -54174624.8351645     
  -53926647.4878481     
  -53837493.2604044     
  -53996181.3425668     
  -58976530.9438921     
  -58744849.7574603     
  -58048618.9548313     
  -57159860.5982833     
  -56261768.8397097     
  -55433057.9094243     
  -54685840.4740894     
  -54010501.4843695     
  -53390267.9431554     
  -52808233.2235812     
  -52252207.3531668     
  -51721746.3806723     
  -51248024.6862072     
  -50911622.3265606     
  -50856890.9936875     
  -59479078.9344526     
  -58556627.1771177     
  -57073893.0976593     
  -55572952.5887182     
  -54281564.8278550     
  -53188552.2055955     
  -52254084.7275209     
  -51433988.8217873     
  -50687789.3771797     
  -49978890.1920925     
  -49274037.0695662     
  -48545985.1419786     
  -47782628.1864695     
  -47071337.4719801     
  -46620742.4780013     
  -60038530.1622637     
  -57502865.1253380     
  -54662922.8704221     
  -52545791.3104726     
  -50918044.1215371     
  -49630239.6148035     
  -48571671.0067867     
  -47662988.5822874     
  -46842493.5202501     
  -46056984.3486198     
  -45254350.4870095     
  -44376159.4198240     
  -43354329.1912787     
  -42092152.7968494     
  -40956029.3778853     
  -57507157.8085899     
  -51565751.5601489     
  -48279088.6516683     
  -46092326.8677101     
  -44512358.6308638     
  -43299034.8249017     
  -42317663.7158278     
  -41481702.1302730     
  -40727889.8286254     
  -40002162.7942749     
  -39248718.9275689     
  -38396911.0035587     
  -37335994.9022320     
  -35856409.3101093     
  -33277866.7523095     
SCALARS 2waySource double 
LOOKUP_TABLE default
  0.000000000000000E+000
  0.000000000000000E+000
  0.000000000000000E+000
  0.000000000000000E+000
  0.000000000000000E+000
  0.000000000000000E+000
  0.000000000000000E+000
  0.000000000000000E+000
  0.000000000000000E+000
  0.000000000000000E+000
  0.000000000000000E+000
  0.000000000000000E+000
  0.000000000000000E+000
  0.000000000000000E+000
  0.000000000000000E+000
  0.000000000000000E+000
  0.000000000000000E+000
  0.000000000000000E+000
  0.000000000000000E+000
  0.000000000000000E+000
  0.000000000000000E+000
  0.000000000000000E+000
  0.000000000000000E+000
  0.000000000000000E+000
  0.000000000000000E+000
  0.000000000000000E+000
  0.000000000000000E+000
  0.000000000000000E+000
  0.000000000000000E+000
  0.000000000000000E+000
  0.000000000000000E+000
  0.000000000000000E+000
  0.000000000000000E+000
  0.000000000000000E+000
  0.000000000000000E+000
  0.000000000000000E+000
  0.000000000000000E+000
  0.000000000000000E+000
  0.000000000000000E+000
  0.000000000000000E+000
  0.000000000000000E+000
  0.000000000000000E+000
  0.000000000000000E+000
  0.000000000000000E+000
  0.000000000000000E+000
  0.000000000000000E+000
  0.000000000000000E+000
  0.000000000000000E+000
  0.000000000000000E+000
  0.000000000000000E+000
  0.000000000000000E+000
  0.000000000000000E+000
  0.000000000000000E+000
  0.000000000000000E+000
  0.000000000000000E+000
  0.000000000000000E+000
  0.000000000000000E+000
  0.000000000000000E+000
  0.000000000000000E+000
  0.000000000000000E+000
  0.000000000000000E+000
  0.000000000000000E+000
  0.000000000000000E+000
  0.000000000000000E+000
  0.000000000000000E+000
  0.000000000000000E+000
  0.000000000000000E+000
  0.000000000000000E+000
  0.000000000000000E+000
  0.000000000000000E+000
  0.000000000000000E+000
  0.000000000000000E+000
  0.000000000000000E+000
  0.000000000000000E+000
  0.000000000000000E+000
  0.000000000000000E+000
  0.000000000000000E+000
  0.000000000000000E+000
  0.000000000000000E+000
  0.000000000000000E+000
  0.000000000000000E+000
  0.000000000000000E+000
  0.000000000000000E+000
  0.000000000000000E+000
  0.000000000000000E+000
  0.000000000000000E+000
  0.000000000000000E+000
  0.000000000000000E+000
  0.000000000000000E+000
  0.000000000000000E+000
  0.000000000000000E+000
  0.000000000000000E+000
  0.000000000000000E+000
  0.000000000000000E+000
  0.000000000000000E+000
  0.000000000000000E+000
  0.000000000000000E+000
  0.000000000000000E+000
  0.000000000000000E+000
  0.000000000000000E+000
  0.000000000000000E+000
  0.000000000000000E+000
  0.000000000000000E+000
  0.000000000000000E+000
  0.000000000000000E+000
  0.000000000000000E+000
  0.000000000000000E+000
  0.000000000000000E+000
  0.000000000000000E+000
  0.000000000000000E+000
  0.000000000000000E+000
  0.000000000000000E+000
  0.000000000000000E+000
  0.000000000000000E+000
  0.000000000000000E+000
  0.000000000000000E+000
  0.000000000000000E+000
  0.000000000000000E+000
  0.000000000000000E+000
  0.000000000000000E+000
  0.000000000000000E+000
  0.000000000000000E+000
  0.000000000000000E+000
  0.000000000000000E+000
  0.000000000000000E+000
  0.000000000000000E+000
  0.000000000000000E+000
  0.000000000000000E+000
  0.000000000000000E+000
  0.000000000000000E+000
  0.000000000000000E+000
  0.000000000000000E+000
  0.000000000000000E+000
  0.000000000000000E+000
  0.000000000000000E+000
  0.000000000000000E+000
  0.000000000000000E+000
  0.000000000000000E+000
  0.000000000000000E+000
  0.000000000000000E+000
  0.000000000000000E+000
  0.000000000000000E+000
  0.000000000000000E+000
  0.000000000000000E+000
  0.000000000000000E+000
  0.000000000000000E+000
  0.000000000000000E+000
  0.000000000000000E+000
  0.000000000000000E+000
  0.000000000000000E+000
  0.000000000000000E+000
  0.000000000000000E+000
  0.000000000000000E+000
  0.000000000000000E+000
  0.000000000000000E+000
  0.000000000000000E+000
  0.000000000000000E+000
  0.000000000000000E+000
  0.000000000000000E+000
  0.000000000000000E+000
  0.000000000000000E+000
  0.000000000000000E+000
  0.000000000000000E+000
  0.000000000000000E+000
  0.000000000000000E+000
  0.000000000000000E+000
  0.000000000000000E+000
  0.000000000000000E+000
  0.000000000000000E+000
  0.000000000000000E+000
  0.000000000000000E+000
  0.000000000000000E+000
  0.000000000000000E+000
  0.000000000000000E+000
  0.000000000000000E+000
  0.000000000000000E+000
  0.000000000000000E+000
  0.000000000000000E+000
  0.000000000000000E+000
  0.000000000000000E+000
  0.000000000000000E+000
  0.000000000000000E+000
  0.000000000000000E+000
  0.000000000000000E+000
  0.000000000000000E+000
  0.000000000000000E+000
  0.000000000000000E+000
  0.000000000000000E+000
  0.000000000000000E+000
  0.000000000000000E+000
  0.000000000000000E+000
  0.000000000000000E+000
  0.000000000000000E+000
  0.000000000000000E+000
  0.000000000000000E+000
  0.000000000000000E+000
  0.000000000000000E+000
  0.000000000000000E+000
  0.000000000000000E+000
  0.000000000000000E+000
  0.000000000000000E+000
  0.000000000000000E+000
  0.000000000000000E+000
  0.000000000000000E+000
  0.000000000000000E+000
  0.000000000000000E+000
  0.000000000000000E+000
  0.000000000000000E+000
  0.000000000000000E+000
  0.000000000000000E+000
  0.000000000000000E+000
  0.000000000000000E+000
  0.000000000000000E+000
  0.000000000000000E+000
  0.000000000000000E+000
  0.000000000000000E+000
  0.000000000000000E+000
  0.000000000000000E+000
  0.000000000000000E+000
  0.000000000000000E+000
  0.000000000000000E+000
  0.000000000000000E+000
  0.000000000000000E+000
  0.000000000000000E+000
  0.000000000000000E+000
  0.000000000000000E+000
  0.000000000000000E+000
  0.000000000000000E+000
  0.000000000000000E+000
  0.000000000000000E+000
  0.000000000000000E+000
  0.000000000000000E+000
  0.000000000000000E+000
  0.000000000000000E+000
  0.000000000000000E+000
  0.000000000000000E+000
  0.000000000000000E+000
  0.000000000000000E+000
  0.000000000000000E+000
  0.000000000000000E+000
  0.000000000000000E+000
  0.000000000000000E+000
  0.000000000000000E+000
  0.000000000000000E+000
  0.000000000000000E+000
  0.000000000000000E+000
  0.000000000000000E+000
  0.000000000000000E+000
  0.000000000000000E+000
  0.000000000000000E+000
  0.000000000000000E+000
  0.000000000000000E+000
  0.000000000000000E+000
  0.000000000000000E+000
  0.000000000000000E+000
  0.000000000000000E+000
  0.000000000000000E+000
  0.000000000000000E+000
  0.000000000000000E+000
  0.000000000000000E+000
  0.000000000000000E+000
  0.000000000000000E+000
  0.000000000000000E+000
  0.000000000000000E+000
  0.000000000000000E+000
  0.000000000000000E+000
  0.000000000000000E+000
  0.000000000000000E+000
  0.000000000000000E+000
  0.000000000000000E+000
  0.000000000000000E+000
  0.000000000000000E+000
  0.000000000000000E+000
  0.000000000000000E+000
  0.000000000000000E+000
  0.000000000000000E+000
  0.000000000000000E+000
  0.000000000000000E+000
  0.000000000000000E+000
  0.000000000000000E+000
  0.000000000000000E+000
  0.000000000000000E+000
  0.000000000000000E+000
  0.000000000000000E+000
  0.000000000000000E+000
  0.000000000000000E+000
  0.000000000000000E+000
  0.000000000000000E+000
  0.000000000000000E+000
  0.000000000000000E+000
  0.000000000000000E+000
  0.000000000000000E+000
  0.000000000000000E+000
  0.000000000000000E+000
  0.000000000000000E+000
  0.000000000000000E+000
  0.000000000000000E+000
  0.000000000000000E+000
  0.000000000000000E+000
  0.000000000000000E+000
  0.000000000000000E+000
  0.000000000000000E+000
  0.000000000000000E+000
  0.000000000000000E+000
  0.000000000000000E+000
  0.000000000000000E+000
  0.000000000000000E+000
  0.000000000000000E+000
  0.000000000000000E+000
  0.000000000000000E+000
  0.000000000000000E+000
  0.000000000000000E+000
  0.000000000000000E+000
  0.000000000000000E+000
  0.000000000000000E+000
  0.000000000000000E+000
  0.000000000000000E+000
  0.000000000000000E+000
  0.000000000000000E+000
  0.000000000000000E+000
  0.000000000000000E+000
  0.000000000000000E+000
  0.000000000000000E+000
  0.000000000000000E+000
  0.000000000000000E+000
  0.000000000000000E+000
  0.000000000000000E+000
  0.000000000000000E+000
  0.000000000000000E+000
  0.000000000000000E+000
  0.000000000000000E+000
  0.000000000000000E+000
  0.000000000000000E+000
  0.000000000000000E+000
  0.000000000000000E+000
  0.000000000000000E+000
  0.000000000000000E+000
  0.000000000000000E+000
  0.000000000000000E+000
  0.000000000000000E+000
  0.000000000000000E+000
  0.000000000000000E+000
  0.000000000000000E+000
  0.000000000000000E+000
  0.000000000000000E+000
  0.000000000000000E+000
  0.000000000000000E+000
  0.000000000000000E+000
  0.000000000000000E+000
  0.000000000000000E+000
  0.000000000000000E+000
  0.000000000000000E+000
  0.000000000000000E+000
  0.000000000000000E+000
  0.000000000000000E+000
  0.000000000000000E+000
  0.000000000000000E+000
  0.000000000000000E+000
  0.000000000000000E+000
  0.000000000000000E+000
  0.000000000000000E+000
  0.000000000000000E+000
  0.000000000000000E+000
  0.000000000000000E+000
  0.000000000000000E+000
  0.000000000000000E+000
  0.000000000000000E+000
  0.000000000000000E+000
  0.000000000000000E+000
  0.000000000000000E+000
  0.000000000000000E+000
  0.000000000000000E+000
  0.000000000000000E+000
  0.000000000000000E+000
  0.000000000000000E+000
  0.000000000000000E+000
  0.000000000000000E+000
  0.000000000000000E+000
  0.000000000000000E+000
  0.000000000000000E+000
  0.000000000000000E+000
  0.000000000000000E+000
  0.000000000000000E+000
  0.000000000000000E+000
  0.000000000000000E+000
  0.000000000000000E+000
  0.000000000000000E+000
  0.000000000000000E+000
  0.000000000000000E+000
  0.000000000000000E+000
  0.000000000000000E+000
  0.000000000000000E+000
  0.000000000000000E+000
  0.000000000000000E+000
  0.000000000000000E+000
  0.000000000000000E+000
  0.000000000000000E+000
  0.000000000000000E+000
  0.000000000000000E+000
  0.000000000000000E+000
  0.000000000000000E+000
  0.000000000000000E+000
  0.000000000000000E+000
  0.000000000000000E+000
  0.000000000000000E+000
  0.000000000000000E+000
  0.000000000000000E+000
  0.000000000000000E+000
  0.000000000000000E+000
  0.000000000000000E+000
  0.000000000000000E+000
  0.000000000000000E+000
  0.000000000000000E+000
  0.000000000000000E+000
  0.000000000000000E+000
  0.000000000000000E+000
  0.000000000000000E+000
  0.000000000000000E+000
  0.000000000000000E+000
  0.000000000000000E+000
  0.000000000000000E+000
  0.000000000000000E+000
  0.000000000000000E+000
  0.000000000000000E+000
  0.000000000000000E+000
  0.000000000000000E+000
  0.000000000000000E+000
  0.000000000000000E+000
  0.000000000000000E+000
  0.000000000000000E+000
  0.000000000000000E+000
  0.000000000000000E+000
  0.000000000000000E+000
  0.000000000000000E+000
  0.000000000000000E+000
  0.000000000000000E+000
  0.000000000000000E+000
  0.000000000000000E+000
  0.000000000000000E+000
  0.000000000000000E+000
  0.000000000000000E+000
  0.000000000000000E+000
  0.000000000000000E+000
  0.000000000000000E+000
  0.000000000000000E+000
  0.000000000000000E+000
  0.000000000000000E+000
  0.000000000000000E+000
  0.000000000000000E+000
  0.000000000000000E+000
SCALARS elementIsPlast double 
LOOKUP_TABLE default
  0.000000000000000E+000
  0.000000000000000E+000
  0.000000000000000E+000
  0.000000000000000E+000
  0.000000000000000E+000
  0.000000000000000E+000
  0.000000000000000E+000
  0.000000000000000E+000
  0.000000000000000E+000
  0.000000000000000E+000
  0.000000000000000E+000
  0.000000000000000E+000
  0.000000000000000E+000
  0.000000000000000E+000
  0.000000000000000E+000
  0.000000000000000E+000
  0.000000000000000E+000
  0.000000000000000E+000
  0.000000000000000E+000
  0.000000000000000E+000
  0.000000000000000E+000
  0.000000000000000E+000
  0.000000000000000E+000
  0.000000000000000E+000
  0.000000000000000E+000
  0.000000000000000E+000
  0.000000000000000E+000
  0.000000000000000E+000
  0.000000000000000E+000
  0.000000000000000E+000
  0.000000000000000E+000
  0.000000000000000E+000
  0.000000000000000E+000
  0.000000000000000E+000
  0.000000000000000E+000
  0.000000000000000E+000
  0.000000000000000E+000
  0.000000000000000E+000
  0.000000000000000E+000
  0.000000000000000E+000
  0.000000000000000E+000
  0.000000000000000E+000
  0.000000000000000E+000
  0.000000000000000E+000
  0.000000000000000E+000
  0.000000000000000E+000
  0.000000000000000E+000
  0.000000000000000E+000
  0.000000000000000E+000
  0.000000000000000E+000
  0.000000000000000E+000
  0.000000000000000E+000
  0.000000000000000E+000
  0.000000000000000E+000
  0.000000000000000E+000
  0.000000000000000E+000
  0.000000000000000E+000
  0.000000000000000E+000
  0.000000000000000E+000
  0.000000000000000E+000
  0.000000000000000E+000
  0.000000000000000E+000
  0.000000000000000E+000
  0.000000000000000E+000
  0.000000000000000E+000
  0.000000000000000E+000
  0.000000000000000E+000
  0.000000000000000E+000
  0.000000000000000E+000
  0.000000000000000E+000
  0.000000000000000E+000
  0.000000000000000E+000
  0.000000000000000E+000
  0.000000000000000E+000
  0.000000000000000E+000
  0.000000000000000E+000
  0.000000000000000E+000
  0.000000000000000E+000
  0.000000000000000E+000
  0.000000000000000E+000
  0.000000000000000E+000
  0.000000000000000E+000
  0.000000000000000E+000
  0.000000000000000E+000
  0.000000000000000E+000
  0.000000000000000E+000
  0.000000000000000E+000
  0.000000000000000E+000
  0.000000000000000E+000
  0.000000000000000E+000
  0.000000000000000E+000
  0.000000000000000E+000
  0.000000000000000E+000
  0.000000000000000E+000
  0.000000000000000E+000
  0.000000000000000E+000
  0.000000000000000E+000
  0.000000000000000E+000
  0.000000000000000E+000
  0.000000000000000E+000
  0.000000000000000E+000
  0.000000000000000E+000
  0.000000000000000E+000
  0.000000000000000E+000
  0.000000000000000E+000
  0.000000000000000E+000
  0.000000000000000E+000
  0.000000000000000E+000
  0.000000000000000E+000
  0.000000000000000E+000
  0.000000000000000E+000
  0.000000000000000E+000
  0.000000000000000E+000
  0.000000000000000E+000
  0.000000000000000E+000
  0.000000000000000E+000
  0.000000000000000E+000
  0.000000000000000E+000
  0.000000000000000E+000
  0.000000000000000E+000
  0.000000000000000E+000
  0.000000000000000E+000
  0.000000000000000E+000
  0.000000000000000E+000
  0.000000000000000E+000
  0.000000000000000E+000
  0.000000000000000E+000
  0.000000000000000E+000
  0.000000000000000E+000
  0.000000000000000E+000
  0.000000000000000E+000
  0.000000000000000E+000
  0.000000000000000E+000
  0.000000000000000E+000
  0.000000000000000E+000
  0.000000000000000E+000
  0.000000000000000E+000
  0.000000000000000E+000
  0.000000000000000E+000
  0.000000000000000E+000
  0.000000000000000E+000
  0.000000000000000E+000
  0.000000000000000E+000
  0.000000000000000E+000
  0.000000000000000E+000
  0.000000000000000E+000
  0.000000000000000E+000
  0.000000000000000E+000
  0.000000000000000E+000
  0.000000000000000E+000
  0.000000000000000E+000
  0.000000000000000E+000
  0.000000000000000E+000
  0.000000000000000E+000
  0.000000000000000E+000
  0.000000000000000E+000
  0.000000000000000E+000
  0.000000000000000E+000
  0.000000000000000E+000
  0.000000000000000E+000
  0.000000000000000E+000
  0.000000000000000E+000
  0.000000000000000E+000
  0.000000000000000E+000
  0.000000000000000E+000
  0.000000000000000E+000
  0.000000000000000E+000
  0.000000000000000E+000
  0.000000000000000E+000
  0.000000000000000E+000
  0.000000000000000E+000
  0.000000000000000E+000
  0.000000000000000E+000
  0.000000000000000E+000
  0.000000000000000E+000
  0.000000000000000E+000
  0.000000000000000E+000
  0.000000000000000E+000
  0.000000000000000E+000
  0.000000000000000E+000
  0.000000000000000E+000
  0.000000000000000E+000
  0.000000000000000E+000
  0.000000000000000E+000
  0.000000000000000E+000
  0.000000000000000E+000
  0.000000000000000E+000
  0.000000000000000E+000
  0.000000000000000E+000
  0.000000000000000E+000
  0.000000000000000E+000
  0.000000000000000E+000
  0.000000000000000E+000
  0.000000000000000E+000
  0.000000000000000E+000
  0.000000000000000E+000
  0.000000000000000E+000
  0.000000000000000E+000
  0.000000000000000E+000
  0.000000000000000E+000
  0.000000000000000E+000
  0.000000000000000E+000
  0.000000000000000E+000
  0.000000000000000E+000
  0.000000000000000E+000
  0.000000000000000E+000
  0.000000000000000E+000
  0.000000000000000E+000
  0.000000000000000E+000
  0.000000000000000E+000
  0.000000000000000E+000
  0.000000000000000E+000
  0.000000000000000E+000
  0.000000000000000E+000
  0.000000000000000E+000
  0.000000000000000E+000
  0.000000000000000E+000
  0.000000000000000E+000
  0.000000000000000E+000
  0.000000000000000E+000
  0.000000000000000E+000
  0.000000000000000E+000
  0.000000000000000E+000
  0.000000000000000E+000
  0.000000000000000E+000
  0.000000000000000E+000
  0.000000000000000E+000
  0.000000000000000E+000
  0.000000000000000E+000
  0.000000000000000E+000
  0.000000000000000E+000
  0.000000000000000E+000
  0.000000000000000E+000
  0.000000000000000E+000
  0.000000000000000E+000
  0.000000000000000E+000
  0.000000000000000E+000
  0.000000000000000E+000
  0.000000000000000E+000
  0.000000000000000E+000
  0.000000000000000E+000
  0.000000000000000E+000
  0.000000000000000E+000
  0.000000000000000E+000
  0.000000000000000E+000
  0.000000000000000E+000
  0.000000000000000E+000
  0.000000000000000E+000
  0.000000000000000E+000
  0.000000000000000E+000
  0.000000000000000E+000
  0.000000000000000E+000
  0.000000000000000E+000
  0.000000000000000E+000
  0.000000000000000E+000
  0.000000000000000E+000
  0.000000000000000E+000
  0.000000000000000E+000
  0.000000000000000E+000
  0.000000000000000E+000
  0.000000000000000E+000
  0.000000000000000E+000
  0.000000000000000E+000
  0.000000000000000E+000
  0.000000000000000E+000
  0.000000000000000E+000
  0.000000000000000E+000
  0.000000000000000E+000
  0.000000000000000E+000
  0.000000000000000E+000
  0.000000000000000E+000
  0.000000000000000E+000
  0.000000000000000E+000
  0.000000000000000E+000
  0.000000000000000E+000
  0.000000000000000E+000
  0.000000000000000E+000
  0.000000000000000E+000
  0.000000000000000E+000
  0.000000000000000E+000
  0.000000000000000E+000
  0.000000000000000E+000
  0.000000000000000E+000
  0.000000000000000E+000
  0.000000000000000E+000
  0.000000000000000E+000
  0.000000000000000E+000
  0.000000000000000E+000
  0.000000000000000E+000
  0.000000000000000E+000
  0.000000000000000E+000
  0.000000000000000E+000
  0.000000000000000E+000
  0.000000000000000E+000
  0.000000000000000E+000
  0.000000000000000E+000
  0.000000000000000E+000
  0.000000000000000E+000
  0.000000000000000E+000
  0.000000000000000E+000
  0.000000000000000E+000
  0.000000000000000E+000
  0.000000000000000E+000
  0.000000000000000E+000
  0.000000000000000E+000
  0.000000000000000E+000
  0.000000000000000E+000
  0.000000000000000E+000
  0.000000000000000E+000
  0.000000000000000E+000
  0.000000000000000E+000
  0.000000000000000E+000
  0.000000000000000E+000
  0.000000000000000E+000
  0.000000000000000E+000
  0.000000000000000E+000
  0.000000000000000E+000
  0.000000000000000E+000
  0.000000000000000E+000
  0.000000000000000E+000
  0.000000000000000E+000
  0.000000000000000E+000
  0.000000000000000E+000
  0.000000000000000E+000
  0.000000000000000E+000
  0.000000000000000E+000
  0.000000000000000E+000
  0.000000000000000E+000
  0.000000000000000E+000
  0.000000000000000E+000
  0.000000000000000E+000
  0.000000000000000E+000
  0.000000000000000E+000
  0.000000000000000E+000
  0.000000000000000E+000
  0.000000000000000E+000
  0.000000000000000E+000
  0.000000000000000E+000
  0.000000000000000E+000
  0.000000000000000E+000
  0.000000000000000E+000
  0.000000000000000E+000
  0.000000000000000E+000
  0.000000000000000E+000
  0.000000000000000E+000
  0.000000000000000E+000
  0.000000000000000E+000
  0.000000000000000E+000
  0.000000000000000E+000
  0.000000000000000E+000
  0.000000000000000E+000
  0.000000000000000E+000
  0.000000000000000E+000
  0.000000000000000E+000
  0.000000000000000E+000
  0.000000000000000E+000
  0.000000000000000E+000
  0.000000000000000E+000
  0.000000000000000E+000
  0.000000000000000E+000
  0.000000000000000E+000
  0.000000000000000E+000
  0.000000000000000E+000
  0.000000000000000E+000
  0.000000000000000E+000
  0.000000000000000E+000
  0.000000000000000E+000
  0.000000000000000E+000
  0.000000000000000E+000
  0.000000000000000E+000
  0.000000000000000E+000
  0.000000000000000E+000
  0.000000000000000E+000
  0.000000000000000E+000
  0.000000000000000E+000
  0.000000000000000E+000
  0.000000000000000E+000
  0.000000000000000E+000
  0.000000000000000E+000
  0.000000000000000E+000
  0.000000000000000E+000
  0.000000000000000E+000
  0.000000000000000E+000
  0.000000000000000E+000
  0.000000000000000E+000
  0.000000000000000E+000
  0.000000000000000E+000
  0.000000000000000E+000
  0.000000000000000E+000
  0.000000000000000E+000
  0.000000000000000E+000
  0.000000000000000E+000
  0.000000000000000E+000
  0.000000000000000E+000
  0.000000000000000E+000
  0.000000000000000E+000
  0.000000000000000E+000
  0.000000000000000E+000
  0.000000000000000E+000
  0.000000000000000E+000
  0.000000000000000E+000
  0.000000000000000E+000
  0.000000000000000E+000
  0.000000000000000E+000
  0.000000000000000E+000
  0.000000000000000E+000
  0.000000000000000E+000
  0.000000000000000E+000
  0.000000000000000E+000
  0.000000000000000E+000
  0.000000000000000E+000
  0.000000000000000E+000
  0.000000000000000E+000
  0.000000000000000E+000
  0.000000000000000E+000
  0.000000000000000E+000
  0.000000000000000E+000
  0.000000000000000E+000
  0.000000000000000E+000
  0.000000000000000E+000
  0.000000000000000E+000
  0.000000000000000E+000
  0.000000000000000E+000
  0.000000000000000E+000
  0.000000000000000E+000
  0.000000000000000E+000
  0.000000000000000E+000
  0.000000000000000E+000
  0.000000000000000E+000
  0.000000000000000E+000
  0.000000000000000E+000
  0.000000000000000E+000
  0.000000000000000E+000
  0.000000000000000E+000
  0.000000000000000E+000
  0.000000000000000E+000
  0.000000000000000E+000
  0.000000000000000E+000
  0.000000000000000E+000
  0.000000000000000E+000
  0.000000000000000E+000
  0.000000000000000E+000
  0.000000000000000E+000
  0.000000000000000E+000
  0.000000000000000E+000
  0.000000000000000E+000
  0.000000000000000E+000
  0.000000000000000E+000
  0.000000000000000E+000
  0.000000000000000E+000
SCALARS poroL double 
LOOKUP_TABLE default
  0.271436632884238     
  0.268911671906216     
  0.267439940470474     
  0.266370962529806     
  0.265511575695837     
  0.264773688576955     
  0.264113186945459     
  0.263505175195070     
  0.262933323740671     
  0.262383814850060     
  0.261840393651427     
  0.261277805734395     
  0.260647281432258     
  0.259843406447976     
  0.258447113374528     
  0.266577981399990     
  0.265348097996094     
  0.264192159408265     
  0.263253124493532     
  0.262448588673953     
  0.261734195361713     
  0.261082597681259     
  0.260477099935734     
  0.259906175834042     
  0.259359947610897     
  0.258827258431873     
  0.258292126976810     
  0.257731436285538     
  0.257098208806427     
  0.256572964967319     
  0.262779695868887     
  0.262358769854303     
  0.261667701221282     
  0.260936250474352     
  0.260237446768787     
  0.259578618259953     
  0.258957990701355     
  0.258371943187477     
  0.257817096470184     
  0.257290318794485     
  0.256788597459617     
  0.256310382775628     
  0.255859094242575     
  0.255486219212941     
  0.255302773490519     
  0.260344219029288     
  0.260272972000997     
  0.259880387221161     
  0.259341013456086     
  0.258751864662272     
  0.258157299749267     
  0.257575924061453     
  0.257016781914288     
  0.256485009944996     
  0.255984614175160     
  0.255520640584970     
  0.255102373519792     
  0.254753285214366     
  0.254519802334470     
  0.254481724417439     
  0.258996664196535     
  0.259006643936862     
  0.258743478116611     
  0.258317152571773     
  0.257807565695606     
  0.257264515986121     
  0.256716991837878     
  0.256182257724498     
  0.255671937062225     
  0.255195606763670     
  0.254763686319534     
  0.254391150411849     
  0.254101457663934     
  0.253930176597544     
  0.253921797486166     
  0.258389654714280     
  0.258341417036783     
  0.258091107553593     
  0.257700689991763     
  0.257226057559040     
  0.256709627491021     
  0.256181007719422     
  0.255660639127712     
  0.255163536470695     
  0.254702338121259     
  0.254289868621272     
  0.253941380476809     
  0.253676253113232     
  0.253517529108056     
  0.253487530280503     
  0.258237800318795     
  0.258069003236690     
  0.257761726020921     
  0.257349218324195     
  0.256867908543903     
  0.256349982325526     
  0.255821086106543     
  0.255300946963858     
  0.254805130943924     
  0.254346970569672     
  0.253939263778237     
  0.253595516433272     
  0.253330250774402     
  0.253157683783428     
  0.253087917445547     
  0.258348145686762     
  0.258034263925523     
  0.257631067924587     
  0.257157203573426     
  0.256636209189951     
  0.256091311210214     
  0.255542872988053     
  0.255007846339275     
  0.254500346844230     
  0.254032653526714     
  0.253616170884011     
  0.253262002097533     
  0.252980789774707     
  0.252781463094448     
  0.252668737751424     
  0.258602510289844     
  0.258133590247385     
  0.257612504279145     
  0.257051557681014     
  0.256466586882559     
  0.255874045462093     
  0.255289184408942     
  0.254725347915805     
  0.254194054396442     
  0.253705464210224     
  0.253268884741403     
  0.252893027938708     
  0.252585787573570     
  0.252353396700149     
  0.252199020718771     
  0.258929590716097     
  0.258298907549762     
  0.257646020456464     
  0.256980829646705     
  0.256314615745842     
  0.255658822499539     
  0.255024130630919     
  0.254420035047339     
  0.253854863724325     
  0.253336053031530     
  0.252870469129299     
  0.252464587908435     
  0.252124397924889     
  0.251854978279729     
  0.251659843224262     
  0.259281951691550     
  0.258481750022901     
  0.257686564517414     
  0.256905201073973     
  0.256145826069439     
  0.255415849993290     
  0.254721758802794     
  0.254069097873649     
  0.253462648064744     
  0.252906731160799     
  0.252405539690967     
  0.251963387202354     
  0.251584806770157     
  0.251274482997397     
  0.251037078806304     
  0.259620763177593     
  0.258641505560889     
  0.257695115193036     
  0.256789182743282     
  0.255929021710007     
  0.255118241240771     
  0.254359150331067     
  0.253653138154151     
  0.253001092520253     
  0.252403853579215     
  0.251862664420315     
  0.251379572073127     
  0.250957745315479     
  0.250601702327096     
  0.250317471240482     
  0.259906496778249     
  0.258737614787495     
  0.257632497614993     
  0.256596636158131     
  0.255631986890354     
  0.254737997614383     
  0.253912437143308     
  0.253152118677064     
  0.252453573703317     
  0.251813699963026     
  0.251230384336832     
  0.250703091506000     
  0.250233409013017     
  0.249825543328910     
  0.249486761820249     
  0.260093182234625     
  0.258724411975264     
  0.257455089506588     
  0.256287271382677     
  0.255218545665744     
  0.254243390760119     
  0.253354331985624     
  0.252542949444213     
  0.251800784741969     
  0.251120183177168     
  0.250495097780898     
  0.249921873384489     
  0.249400020952790     
  0.248932981282241     
  0.248528858406992     
  0.260124481144874     
  0.258547448521837     
  0.257111614780396     
  0.255813939353288     
  0.254646262628182     
  0.253596942309374     
  0.252652274480463     
  0.251797731669005     
  0.251019060125010     
  0.250303284335977     
  0.249639668208624     
  0.249020678027458     
  0.248442980363702     
  0.247908486629260     
  0.247425423388203     
  0.259930578515878     
  0.258140552494460     
  0.256540490076372     
  0.255120297315319     
  0.253864387517149     
  0.252753573349994     
  0.251766712363732     
  0.250882123178840     
  0.250078814366747     
  0.249337590526459     
  0.248642114186330     
  0.247980003577156     
  0.247344032541440     
  0.246733469101881     
  0.246155544242439     
  0.259425394189154     
  0.257423209199677     
  0.255667416006114     
  0.254138616832720     
  0.252811846119995     
  0.251658721284281     
  0.250649287735421     
  0.249753557842059     
  0.248942790632627     
  0.248190603632826     
  0.247474038617329     
  0.246774712222569     
  0.246080167580928     
  0.245385504986299     
  0.244695311062567     
  0.258503866087149     
  0.256298030099011     
  0.254403033465380     
  0.252787606436244     
  0.251415179804368     
  0.250246331325440     
  0.249240820537939     
  0.248359185037008     
  0.247563956815619     
  0.246820634596650     
  0.246098600093774     
  0.245372184663095     
  0.244622076396750     
  0.243837208916571     
  0.243017197573096     
  0.257039109993214     
  0.254648123038950     
  0.252640500017133     
  0.250970149531113     
  0.249586364797204     
  0.248436662735796     
  0.247469019349641     
  0.246633437246436     
  0.245882931232067     
  0.245174142784765     
  0.244467872678475     
  0.243729848398448     
  0.242932022106904     
  0.242054631576637     
  0.241089157593962     
  0.254879151565960     
  0.252334102297490     
  0.250252790879698     
  0.248570822352775     
  0.247220413638354     
  0.246133822794585     
  0.245245820761117     
  0.244495101905088     
  0.243824784719362     
  0.243182341439242     
  0.242519398996111     
  0.241791882510018     
  0.240960942817407     
  0.239995026782836     
  0.238873319306682     
  0.251842652664570     
  0.249190279761739     
  0.247089390110181     
  0.245452953015640     
  0.244192569674130     
  0.243222846058513     
  0.242464151406191     
  0.241843653356930     
  0.241294934136202     
  0.240756749499662     
  0.240171595491198     
  0.239484757337057     
  0.238644469123703     
  0.237603721127297     
  0.236324077534315     
  0.247712562874184     
  0.245019219952015     
  0.242971784780643     
  0.241454786130742     
  0.240354720528673     
  0.239565931949850     
  0.238993672400562     
  0.238554339723950     
  0.238173560662365     
  0.237783071201393     
  0.237317358556116     
  0.236710957245142     
  0.235897255260171     
  0.234809587193843     
  0.233385224074955     
  0.242225755909329     
  0.239583219910364     
  0.237686727283371     
  0.236383962586315     
  0.235530293233878     
  0.234997032692841     
  0.234674584667990     
  0.234470997564382     
  0.234307440610930     
  0.234112218547500     
  0.233814623087127     
  0.233339632042619     
  0.232604452811519     
  0.231518166499714     
  0.229985463864537     
  0.235055105435322     
  0.232590061127213     
  0.230975417647344     
  0.230008816489329     
  0.229506126973203     
  0.229313072831227     
  0.229307540178513     
  0.229394510069136     
  0.229497030047140     
  0.229546220296217     
  0.229471520536644     
  0.229191734205120     
  0.228608045417077     
  0.227600562427855     
  0.226031143999201     
  0.225776705554763     
  0.223668034571155     
  0.222514891868049     
  0.222043477667694     
  0.222018037029505     
  0.222257847588437     
  0.222635390150952     
  0.223062533525393     
  0.223474507030140     
  0.223814744442317     
  0.224021526830753     
  0.224014944071232     
  0.223683311492708     
  0.222874392915978     
  0.221393934074685     
  0.213807543430471     
  0.212317882497494     
  0.211884192510645     
  0.212119869090187     
  0.212721612272453     
  0.213489239791400     
  0.214306409842559     
  0.215110894126711     
  0.215863877797837     
  0.216533274064299     
  0.217079789848657     
  0.217438024280946     
  0.217496003532468     
  0.217068081844395     
  0.215889292399912     
  0.198262474465876     
  0.197817583416684     
  0.198493990690710     
  0.199726494968030     
  0.201127449695610     
  0.202500926271648     
  0.203793902786096     
  0.204993340893197     
  0.206101628410278     
  0.207123801125413     
  0.208058562218234     
  0.208885096365111     
  0.209513488350779     
  0.209751631888564     
  0.209233508484363     
  0.177647626033421     
  0.178949193304512     
  0.181417951112312     
  0.184073704820426     
  0.186397452738997     
  0.188421065777598     
  0.190199498071200     
  0.191793177469033     
  0.193256325373672     
  0.194640054301092     
  0.195996420662951     
  0.197376812628936     
  0.198827617659945     
  0.200156250412862     
  0.200964701389935     
  0.148119577717963     
  0.153211112648356     
  0.159090378674872     
  0.163346516323366     
  0.166678009098023     
  0.169382320350884     
  0.171667276445294     
  0.173673552527501     
  0.175511248379220     
  0.177281346982728     
  0.179095985193512     
  0.181107263377126     
  0.183535806784931     
  0.186838506307667     
  0.190131680185235     
  9.040997546706755E-002
  0.112717716317492     
  0.123268651036056     
  0.130263255847024     
  0.135331316384659     
  0.139267165769236     
  0.142489142786654     
  0.145262905585132     
  0.147783556984407     
  0.150223023763405     
  0.152769246391308     
  0.155678393902568     
  0.159391828683273     
  0.164775583779636     
  0.175304759672845     
