# vtk DataFile Version 3.0
vtk output
ASCII
DATASET UNSTRUCTURED_GRID
POINTS       496 double 
  0.00000000E+00  3.00000000E+02  0.00000000E+00
  0.00000000E+00  2.80000000E+02  0.00000000E+00
  0.00000000E+00  2.60000000E+02  0.00000000E+00
  0.00000000E+00  2.40000000E+02  0.00000000E+00
  0.00000000E+00  2.20000000E+02  0.00000000E+00
  0.00000000E+00  2.00000000E+02  0.00000000E+00
  0.00000000E+00  1.80000000E+02  0.00000000E+00
  0.00000000E+00  1.60000000E+02  0.00000000E+00
  0.00000000E+00  1.40000000E+02  0.00000000E+00
  0.00000000E+00  1.20000000E+02  0.00000000E+00
  0.00000000E+00  1.00000000E+02  0.00000000E+00
  0.00000000E+00  8.00000000E+01  0.00000000E+00
  0.00000000E+00  6.00000000E+01  0.00000000E+00
  0.00000000E+00  4.00000000E+01  0.00000000E+00
  0.00000000E+00  2.00000000E+01  0.00000000E+00
  0.00000000E+00  4.99600361E-14  0.00000000E+00
  2.00000000E+01  3.00000000E+02  0.00000000E+00
  2.00000000E+01  2.80000000E+02  0.00000000E+00
  2.00000000E+01  2.60000000E+02  0.00000000E+00
  2.00000000E+01  2.40000000E+02  0.00000000E+00
  2.00000000E+01  2.20000000E+02  0.00000000E+00
  2.00000000E+01  2.00000000E+02  0.00000000E+00
  2.00000000E+01  1.80000000E+02  0.00000000E+00
  2.00000000E+01  1.60000000E+02  0.00000000E+00
  2.00000000E+01  1.40000000E+02  0.00000000E+00
  2.00000000E+01  1.20000000E+02  0.00000000E+00
  2.00000000E+01  1.00000000E+02  0.00000000E+00
  2.00000000E+01  8.00000000E+01  0.00000000E+00
  2.00000000E+01  6.00000000E+01  0.00000000E+00
  2.00000000E+01  4.00000000E+01  0.00000000E+00
  2.00000000E+01  2.00000000E+01  0.00000000E+00
  2.00000000E+01  4.99600361E-14  0.00000000E+00
  4.00000000E+01  3.00000000E+02  0.00000000E+00
  4.00000000E+01  2.80000000E+02  0.00000000E+00
  4.00000000E+01  2.60000000E+02  0.00000000E+00
  4.00000000E+01  2.40000000E+02  0.00000000E+00
  4.00000000E+01  2.20000000E+02  0.00000000E+00
  4.00000000E+01  2.00000000E+02  0.00000000E+00
  4.00000000E+01  1.80000000E+02  0.00000000E+00
  4.00000000E+01  1.60000000E+02  0.00000000E+00
  4.00000000E+01  1.40000000E+02  0.00000000E+00
  4.00000000E+01  1.20000000E+02  0.00000000E+00
  4.00000000E+01  1.00000000E+02  0.00000000E+00
  4.00000000E+01  8.00000000E+01  0.00000000E+00
  4.00000000E+01  6.00000000E+01  0.00000000E+00
  4.00000000E+01  4.00000000E+01  0.00000000E+00
  4.00000000E+01  2.00000000E+01  0.00000000E+00
  4.00000000E+01  4.99600361E-14  0.00000000E+00
  6.00000000E+01  3.00000000E+02  0.00000000E+00
  6.00000000E+01  2.80000000E+02  0.00000000E+00
  6.00000000E+01  2.60000000E+02  0.00000000E+00
  6.00000000E+01  2.40000000E+02  0.00000000E+00
  6.00000000E+01  2.20000000E+02  0.00000000E+00
  6.00000000E+01  2.00000000E+02  0.00000000E+00
  6.00000000E+01  1.80000000E+02  0.00000000E+00
  6.00000000E+01  1.60000000E+02  0.00000000E+00
  6.00000000E+01  1.40000000E+02  0.00000000E+00
  6.00000000E+01  1.20000000E+02  0.00000000E+00
  6.00000000E+01  1.00000000E+02  0.00000000E+00
  6.00000000E+01  8.00000000E+01  0.00000000E+00
  6.00000000E+01  6.00000000E+01  0.00000000E+00
  6.00000000E+01  4.00000000E+01  0.00000000E+00
  6.00000000E+01  2.00000000E+01  0.00000000E+00
  6.00000000E+01  4.99600361E-14  0.00000000E+00
  8.00000000E+01  3.00000000E+02  0.00000000E+00
  8.00000000E+01  2.80000000E+02  0.00000000E+00
  8.00000000E+01  2.60000000E+02  0.00000000E+00
  8.00000000E+01  2.40000000E+02  0.00000000E+00
  8.00000000E+01  2.20000000E+02  0.00000000E+00
  8.00000000E+01  2.00000000E+02  0.00000000E+00
  8.00000000E+01  1.80000000E+02  0.00000000E+00
  8.00000000E+01  1.60000000E+02  0.00000000E+00
  8.00000000E+01  1.40000000E+02  0.00000000E+00
  8.00000000E+01  1.20000000E+02  0.00000000E+00
  8.00000000E+01  1.00000000E+02  0.00000000E+00
  8.00000000E+01  8.00000000E+01  0.00000000E+00
  8.00000000E+01  6.00000000E+01  0.00000000E+00
  8.00000000E+01  4.00000000E+01  0.00000000E+00
  8.00000000E+01  2.00000000E+01  0.00000000E+00
  8.00000000E+01  4.99600361E-14  0.00000000E+00
  1.00000000E+02  3.00000000E+02  0.00000000E+00
  1.00000000E+02  2.80000000E+02  0.00000000E+00
  1.00000000E+02  2.60000000E+02  0.00000000E+00
  1.00000000E+02  2.40000000E+02  0.00000000E+00
  1.00000000E+02  2.20000000E+02  0.00000000E+00
  1.00000000E+02  2.00000000E+02  0.00000000E+00
  1.00000000E+02  1.80000000E+02  0.00000000E+00
  1.00000000E+02  1.60000000E+02  0.00000000E+00
  1.00000000E+02  1.40000000E+02  0.00000000E+00
  1.00000000E+02  1.20000000E+02  0.00000000E+00
  1.00000000E+02  1.00000000E+02  0.00000000E+00
  1.00000000E+02  8.00000000E+01  0.00000000E+00
  1.00000000E+02  6.00000000E+01  0.00000000E+00
  1.00000000E+02  4.00000000E+01  0.00000000E+00
  1.00000000E+02  2.00000000E+01  0.00000000E+00
  1.00000000E+02  4.99600361E-14  0.00000000E+00
  1.20000000E+02  3.00000000E+02  0.00000000E+00
  1.20000000E+02  2.80000000E+02  0.00000000E+00
  1.20000000E+02  2.60000000E+02  0.00000000E+00
  1.20000000E+02  2.40000000E+02  0.00000000E+00
  1.20000000E+02  2.20000000E+02  0.00000000E+00
  1.20000000E+02  2.00000000E+02  0.00000000E+00
  1.20000000E+02  1.80000000E+02  0.00000000E+00
  1.20000000E+02  1.60000000E+02  0.00000000E+00
  1.20000000E+02  1.40000000E+02  0.00000000E+00
  1.20000000E+02  1.20000000E+02  0.00000000E+00
  1.20000000E+02  1.00000000E+02  0.00000000E+00
  1.20000000E+02  8.00000000E+01  0.00000000E+00
  1.20000000E+02  6.00000000E+01  0.00000000E+00
  1.20000000E+02  4.00000000E+01  0.00000000E+00
  1.20000000E+02  2.00000000E+01  0.00000000E+00
  1.20000000E+02  4.99600361E-14  0.00000000E+00
  1.40000000E+02  3.00000000E+02  0.00000000E+00
  1.40000000E+02  2.80000000E+02  0.00000000E+00
  1.40000000E+02  2.60000000E+02  0.00000000E+00
  1.40000000E+02  2.40000000E+02  0.00000000E+00
  1.40000000E+02  2.20000000E+02  0.00000000E+00
  1.40000000E+02  2.00000000E+02  0.00000000E+00
  1.40000000E+02  1.80000000E+02  0.00000000E+00
  1.40000000E+02  1.60000000E+02  0.00000000E+00
  1.40000000E+02  1.40000000E+02  0.00000000E+00
  1.40000000E+02  1.20000000E+02  0.00000000E+00
  1.40000000E+02  1.00000000E+02  0.00000000E+00
  1.40000000E+02  8.00000000E+01  0.00000000E+00
  1.40000000E+02  6.00000000E+01  0.00000000E+00
  1.40000000E+02  4.00000000E+01  0.00000000E+00
  1.40000000E+02  2.00000000E+01  0.00000000E+00
  1.40000000E+02  4.99600361E-14  0.00000000E+00
  1.60000000E+02  3.00000000E+02  0.00000000E+00
  1.60000000E+02  2.80000000E+02  0.00000000E+00
  1.60000000E+02  2.60000000E+02  0.00000000E+00
  1.60000000E+02  2.40000000E+02  0.00000000E+00
  1.60000000E+02  2.20000000E+02  0.00000000E+00
  1.60000000E+02  2.00000000E+02  0.00000000E+00
  1.60000000E+02  1.80000000E+02  0.00000000E+00
  1.60000000E+02  1.60000000E+02  0.00000000E+00
  1.60000000E+02  1.40000000E+02  0.00000000E+00
  1.60000000E+02  1.20000000E+02  0.00000000E+00
  1.60000000E+02  1.00000000E+02  0.00000000E+00
  1.60000000E+02  8.00000000E+01  0.00000000E+00
  1.60000000E+02  6.00000000E+01  0.00000000E+00
  1.60000000E+02  4.00000000E+01  0.00000000E+00
  1.60000000E+02  2.00000000E+01  0.00000000E+00
  1.60000000E+02  4.99600361E-14  0.00000000E+00
  1.80000000E+02  3.00000000E+02  0.00000000E+00
  1.80000000E+02  2.80000000E+02  0.00000000E+00
  1.80000000E+02  2.60000000E+02  0.00000000E+00
  1.80000000E+02  2.40000000E+02  0.00000000E+00
  1.80000000E+02  2.20000000E+02  0.00000000E+00
  1.80000000E+02  2.00000000E+02  0.00000000E+00
  1.80000000E+02  1.80000000E+02  0.00000000E+00
  1.80000000E+02  1.60000000E+02  0.00000000E+00
  1.80000000E+02  1.40000000E+02  0.00000000E+00
  1.80000000E+02  1.20000000E+02  0.00000000E+00
  1.80000000E+02  1.00000000E+02  0.00000000E+00
  1.80000000E+02  8.00000000E+01  0.00000000E+00
  1.80000000E+02  6.00000000E+01  0.00000000E+00
  1.80000000E+02  4.00000000E+01  0.00000000E+00
  1.80000000E+02  2.00000000E+01  0.00000000E+00
  1.80000000E+02  4.99600361E-14  0.00000000E+00
  2.00000000E+02  3.00000000E+02  0.00000000E+00
  2.00000000E+02  2.80000000E+02  0.00000000E+00
  2.00000000E+02  2.60000000E+02  0.00000000E+00
  2.00000000E+02  2.40000000E+02  0.00000000E+00
  2.00000000E+02  2.20000000E+02  0.00000000E+00
  2.00000000E+02  2.00000000E+02  0.00000000E+00
  2.00000000E+02  1.80000000E+02  0.00000000E+00
  2.00000000E+02  1.60000000E+02  0.00000000E+00
  2.00000000E+02  1.40000000E+02  0.00000000E+00
  2.00000000E+02  1.20000000E+02  0.00000000E+00
  2.00000000E+02  1.00000000E+02  0.00000000E+00
  2.00000000E+02  8.00000000E+01  0.00000000E+00
  2.00000000E+02  6.00000000E+01  0.00000000E+00
  2.00000000E+02  4.00000000E+01  0.00000000E+00
  2.00000000E+02  2.00000000E+01  0.00000000E+00
  2.00000000E+02  4.99600361E-14  0.00000000E+00
  2.20000000E+02  3.00000000E+02  0.00000000E+00
  2.20000000E+02  2.80000000E+02  0.00000000E+00
  2.20000000E+02  2.60000000E+02  0.00000000E+00
  2.20000000E+02  2.40000000E+02  0.00000000E+00
  2.20000000E+02  2.20000000E+02  0.00000000E+00
  2.20000000E+02  2.00000000E+02  0.00000000E+00
  2.20000000E+02  1.80000000E+02  0.00000000E+00
  2.20000000E+02  1.60000000E+02  0.00000000E+00
  2.20000000E+02  1.40000000E+02  0.00000000E+00
  2.20000000E+02  1.20000000E+02  0.00000000E+00
  2.20000000E+02  1.00000000E+02  0.00000000E+00
  2.20000000E+02  8.00000000E+01  0.00000000E+00
  2.20000000E+02  6.00000000E+01  0.00000000E+00
  2.20000000E+02  4.00000000E+01  0.00000000E+00
  2.20000000E+02  2.00000000E+01  0.00000000E+00
  2.20000000E+02  4.99600361E-14  0.00000000E+00
  2.40000000E+02  3.00000000E+02  0.00000000E+00
  2.40000000E+02  2.80000000E+02  0.00000000E+00
  2.40000000E+02  2.60000000E+02  0.00000000E+00
  2.40000000E+02  2.40000000E+02  0.00000000E+00
  2.40000000E+02  2.20000000E+02  0.00000000E+00
  2.40000000E+02  2.00000000E+02  0.00000000E+00
  2.40000000E+02  1.80000000E+02  0.00000000E+00
  2.40000000E+02  1.60000000E+02  0.00000000E+00
  2.40000000E+02  1.40000000E+02  0.00000000E+00
  2.40000000E+02  1.20000000E+02  0.00000000E+00
  2.40000000E+02  1.00000000E+02  0.00000000E+00
  2.40000000E+02  8.00000000E+01  0.00000000E+00
  2.40000000E+02  6.00000000E+01  0.00000000E+00
  2.40000000E+02  4.00000000E+01  0.00000000E+00
  2.40000000E+02  2.00000000E+01  0.00000000E+00
  2.40000000E+02  4.99600361E-14  0.00000000E+00
  2.60000000E+02  3.00000000E+02  0.00000000E+00
  2.60000000E+02  2.80000000E+02  0.00000000E+00
  2.60000000E+02  2.60000000E+02  0.00000000E+00
  2.60000000E+02  2.40000000E+02  0.00000000E+00
  2.60000000E+02  2.20000000E+02  0.00000000E+00
  2.60000000E+02  2.00000000E+02  0.00000000E+00
  2.60000000E+02  1.80000000E+02  0.00000000E+00
  2.60000000E+02  1.60000000E+02  0.00000000E+00
  2.60000000E+02  1.40000000E+02  0.00000000E+00
  2.60000000E+02  1.20000000E+02  0.00000000E+00
  2.60000000E+02  1.00000000E+02  0.00000000E+00
  2.60000000E+02  8.00000000E+01  0.00000000E+00
  2.60000000E+02  6.00000000E+01  0.00000000E+00
  2.60000000E+02  4.00000000E+01  0.00000000E+00
  2.60000000E+02  2.00000000E+01  0.00000000E+00
  2.60000000E+02  4.99600361E-14  0.00000000E+00
  2.80000000E+02  3.00000000E+02  0.00000000E+00
  2.80000000E+02  2.80000000E+02  0.00000000E+00
  2.80000000E+02  2.60000000E+02  0.00000000E+00
  2.80000000E+02  2.40000000E+02  0.00000000E+00
  2.80000000E+02  2.20000000E+02  0.00000000E+00
  2.80000000E+02  2.00000000E+02  0.00000000E+00
  2.80000000E+02  1.80000000E+02  0.00000000E+00
  2.80000000E+02  1.60000000E+02  0.00000000E+00
  2.80000000E+02  1.40000000E+02  0.00000000E+00
  2.80000000E+02  1.20000000E+02  0.00000000E+00
  2.80000000E+02  1.00000000E+02  0.00000000E+00
  2.80000000E+02  8.00000000E+01  0.00000000E+00
  2.80000000E+02  6.00000000E+01  0.00000000E+00
  2.80000000E+02  4.00000000E+01  0.00000000E+00
  2.80000000E+02  2.00000000E+01  0.00000000E+00
  2.80000000E+02  4.99600361E-14  0.00000000E+00
  3.00000000E+02  3.00000000E+02  0.00000000E+00
  3.00000000E+02  2.80000000E+02  0.00000000E+00
  3.00000000E+02  2.60000000E+02  0.00000000E+00
  3.00000000E+02  2.40000000E+02  0.00000000E+00
  3.00000000E+02  2.20000000E+02  0.00000000E+00
  3.00000000E+02  2.00000000E+02  0.00000000E+00
  3.00000000E+02  1.80000000E+02  0.00000000E+00
  3.00000000E+02  1.60000000E+02  0.00000000E+00
  3.00000000E+02  1.40000000E+02  0.00000000E+00
  3.00000000E+02  1.20000000E+02  0.00000000E+00
  3.00000000E+02  1.00000000E+02  0.00000000E+00
  3.00000000E+02  8.00000000E+01  0.00000000E+00
  3.00000000E+02  6.00000000E+01  0.00000000E+00
  3.00000000E+02  4.00000000E+01  0.00000000E+00
  3.00000000E+02  2.00000000E+01  0.00000000E+00
  3.00000000E+02  4.99600361E-14  0.00000000E+00
  3.20000000E+02  3.00000000E+02  0.00000000E+00
  3.20000000E+02  2.80000000E+02  0.00000000E+00
  3.20000000E+02  2.60000000E+02  0.00000000E+00
  3.20000000E+02  2.40000000E+02  0.00000000E+00
  3.20000000E+02  2.20000000E+02  0.00000000E+00
  3.20000000E+02  2.00000000E+02  0.00000000E+00
  3.20000000E+02  1.80000000E+02  0.00000000E+00
  3.20000000E+02  1.60000000E+02  0.00000000E+00
  3.20000000E+02  1.40000000E+02  0.00000000E+00
  3.20000000E+02  1.20000000E+02  0.00000000E+00
  3.20000000E+02  1.00000000E+02  0.00000000E+00
  3.20000000E+02  8.00000000E+01  0.00000000E+00
  3.20000000E+02  6.00000000E+01  0.00000000E+00
  3.20000000E+02  4.00000000E+01  0.00000000E+00
  3.20000000E+02  2.00000000E+01  0.00000000E+00
  3.20000000E+02  4.99600361E-14  0.00000000E+00
  3.40000000E+02  3.00000000E+02  0.00000000E+00
  3.40000000E+02  2.80000000E+02  0.00000000E+00
  3.40000000E+02  2.60000000E+02  0.00000000E+00
  3.40000000E+02  2.40000000E+02  0.00000000E+00
  3.40000000E+02  2.20000000E+02  0.00000000E+00
  3.40000000E+02  2.00000000E+02  0.00000000E+00
  3.40000000E+02  1.80000000E+02  0.00000000E+00
  3.40000000E+02  1.60000000E+02  0.00000000E+00
  3.40000000E+02  1.40000000E+02  0.00000000E+00
  3.40000000E+02  1.20000000E+02  0.00000000E+00
  3.40000000E+02  1.00000000E+02  0.00000000E+00
  3.40000000E+02  8.00000000E+01  0.00000000E+00
  3.40000000E+02  6.00000000E+01  0.00000000E+00
  3.40000000E+02  4.00000000E+01  0.00000000E+00
  3.40000000E+02  2.00000000E+01  0.00000000E+00
  3.40000000E+02  4.99600361E-14  0.00000000E+00
  3.60000000E+02  3.00000000E+02  0.00000000E+00
  3.60000000E+02  2.80000000E+02  0.00000000E+00
  3.60000000E+02  2.60000000E+02  0.00000000E+00
  3.60000000E+02  2.40000000E+02  0.00000000E+00
  3.60000000E+02  2.20000000E+02  0.00000000E+00
  3.60000000E+02  2.00000000E+02  0.00000000E+00
  3.60000000E+02  1.80000000E+02  0.00000000E+00
  3.60000000E+02  1.60000000E+02  0.00000000E+00
  3.60000000E+02  1.40000000E+02  0.00000000E+00
  3.60000000E+02  1.20000000E+02  0.00000000E+00
  3.60000000E+02  1.00000000E+02  0.00000000E+00
  3.60000000E+02  8.00000000E+01  0.00000000E+00
  3.60000000E+02  6.00000000E+01  0.00000000E+00
  3.60000000E+02  4.00000000E+01  0.00000000E+00
  3.60000000E+02  2.00000000E+01  0.00000000E+00
  3.60000000E+02  4.99600361E-14  0.00000000E+00
  3.80000000E+02  3.00000000E+02  0.00000000E+00
  3.80000000E+02  2.80000000E+02  0.00000000E+00
  3.80000000E+02  2.60000000E+02  0.00000000E+00
  3.80000000E+02  2.40000000E+02  0.00000000E+00
  3.80000000E+02  2.20000000E+02  0.00000000E+00
  3.80000000E+02  2.00000000E+02  0.00000000E+00
  3.80000000E+02  1.80000000E+02  0.00000000E+00
  3.80000000E+02  1.60000000E+02  0.00000000E+00
  3.80000000E+02  1.40000000E+02  0.00000000E+00
  3.80000000E+02  1.20000000E+02  0.00000000E+00
  3.80000000E+02  1.00000000E+02  0.00000000E+00
  3.80000000E+02  8.00000000E+01  0.00000000E+00
  3.80000000E+02  6.00000000E+01  0.00000000E+00
  3.80000000E+02  4.00000000E+01  0.00000000E+00
  3.80000000E+02  2.00000000E+01  0.00000000E+00
  3.80000000E+02  4.99600361E-14  0.00000000E+00
  4.00000000E+02  3.00000000E+02  0.00000000E+00
  4.00000000E+02  2.80000000E+02  0.00000000E+00
  4.00000000E+02  2.60000000E+02  0.00000000E+00
  4.00000000E+02  2.40000000E+02  0.00000000E+00
  4.00000000E+02  2.20000000E+02  0.00000000E+00
  4.00000000E+02  2.00000000E+02  0.00000000E+00
  4.00000000E+02  1.80000000E+02  0.00000000E+00
  4.00000000E+02  1.60000000E+02  0.00000000E+00
  4.00000000E+02  1.40000000E+02  0.00000000E+00
  4.00000000E+02  1.20000000E+02  0.00000000E+00
  4.00000000E+02  1.00000000E+02  0.00000000E+00
  4.00000000E+02  8.00000000E+01  0.00000000E+00
  4.00000000E+02  6.00000000E+01  0.00000000E+00
  4.00000000E+02  4.00000000E+01  0.00000000E+00
  4.00000000E+02  2.00000000E+01  0.00000000E+00
  4.00000000E+02  4.99600361E-14  0.00000000E+00
  4.20000000E+02  3.00000000E+02  0.00000000E+00
  4.20000000E+02  2.80000000E+02  0.00000000E+00
  4.20000000E+02  2.60000000E+02  0.00000000E+00
  4.20000000E+02  2.40000000E+02  0.00000000E+00
  4.20000000E+02  2.20000000E+02  0.00000000E+00
  4.20000000E+02  2.00000000E+02  0.00000000E+00
  4.20000000E+02  1.80000000E+02  0.00000000E+00
  4.20000000E+02  1.60000000E+02  0.00000000E+00
  4.20000000E+02  1.40000000E+02  0.00000000E+00
  4.20000000E+02  1.20000000E+02  0.00000000E+00
  4.20000000E+02  1.00000000E+02  0.00000000E+00
  4.20000000E+02  8.00000000E+01  0.00000000E+00
  4.20000000E+02  6.00000000E+01  0.00000000E+00
  4.20000000E+02  4.00000000E+01  0.00000000E+00
  4.20000000E+02  2.00000000E+01  0.00000000E+00
  4.20000000E+02  4.99600361E-14  0.00000000E+00
  4.40000000E+02  3.00000000E+02  0.00000000E+00
  4.40000000E+02  2.80000000E+02  0.00000000E+00
  4.40000000E+02  2.60000000E+02  0.00000000E+00
  4.40000000E+02  2.40000000E+02  0.00000000E+00
  4.40000000E+02  2.20000000E+02  0.00000000E+00
  4.40000000E+02  2.00000000E+02  0.00000000E+00
  4.40000000E+02  1.80000000E+02  0.00000000E+00
  4.40000000E+02  1.60000000E+02  0.00000000E+00
  4.40000000E+02  1.40000000E+02  0.00000000E+00
  4.40000000E+02  1.20000000E+02  0.00000000E+00
  4.40000000E+02  1.00000000E+02  0.00000000E+00
  4.40000000E+02  8.00000000E+01  0.00000000E+00
  4.40000000E+02  6.00000000E+01  0.00000000E+00
  4.40000000E+02  4.00000000E+01  0.00000000E+00
  4.40000000E+02  2.00000000E+01  0.00000000E+00
  4.40000000E+02  4.99600361E-14  0.00000000E+00
  4.60000000E+02  3.00000000E+02  0.00000000E+00
  4.60000000E+02  2.80000000E+02  0.00000000E+00
  4.60000000E+02  2.60000000E+02  0.00000000E+00
  4.60000000E+02  2.40000000E+02  0.00000000E+00
  4.60000000E+02  2.20000000E+02  0.00000000E+00
  4.60000000E+02  2.00000000E+02  0.00000000E+00
  4.60000000E+02  1.80000000E+02  0.00000000E+00
  4.60000000E+02  1.60000000E+02  0.00000000E+00
  4.60000000E+02  1.40000000E+02  0.00000000E+00
  4.60000000E+02  1.20000000E+02  0.00000000E+00
  4.60000000E+02  1.00000000E+02  0.00000000E+00
  4.60000000E+02  8.00000000E+01  0.00000000E+00
  4.60000000E+02  6.00000000E+01  0.00000000E+00
  4.60000000E+02  4.00000000E+01  0.00000000E+00
  4.60000000E+02  2.00000000E+01  0.00000000E+00
  4.60000000E+02  4.99600361E-14  0.00000000E+00
  4.80000000E+02  3.00000000E+02  0.00000000E+00
  4.80000000E+02  2.80000000E+02  0.00000000E+00
  4.80000000E+02  2.60000000E+02  0.00000000E+00
  4.80000000E+02  2.40000000E+02  0.00000000E+00
  4.80000000E+02  2.20000000E+02  0.00000000E+00
  4.80000000E+02  2.00000000E+02  0.00000000E+00
  4.80000000E+02  1.80000000E+02  0.00000000E+00
  4.80000000E+02  1.60000000E+02  0.00000000E+00
  4.80000000E+02  1.40000000E+02  0.00000000E+00
  4.80000000E+02  1.20000000E+02  0.00000000E+00
  4.80000000E+02  1.00000000E+02  0.00000000E+00
  4.80000000E+02  8.00000000E+01  0.00000000E+00
  4.80000000E+02  6.00000000E+01  0.00000000E+00
  4.80000000E+02  4.00000000E+01  0.00000000E+00
  4.80000000E+02  2.00000000E+01  0.00000000E+00
  4.80000000E+02  4.99600361E-14  0.00000000E+00
  5.00000000E+02  3.00000000E+02  0.00000000E+00
  5.00000000E+02  2.80000000E+02  0.00000000E+00
  5.00000000E+02  2.60000000E+02  0.00000000E+00
  5.00000000E+02  2.40000000E+02  0.00000000E+00
  5.00000000E+02  2.20000000E+02  0.00000000E+00
  5.00000000E+02  2.00000000E+02  0.00000000E+00
  5.00000000E+02  1.80000000E+02  0.00000000E+00
  5.00000000E+02  1.60000000E+02  0.00000000E+00
  5.00000000E+02  1.40000000E+02  0.00000000E+00
  5.00000000E+02  1.20000000E+02  0.00000000E+00
  5.00000000E+02  1.00000000E+02  0.00000000E+00
  5.00000000E+02  8.00000000E+01  0.00000000E+00
  5.00000000E+02  6.00000000E+01  0.00000000E+00
  5.00000000E+02  4.00000000E+01  0.00000000E+00
  5.00000000E+02  2.00000000E+01  0.00000000E+00
  5.00000000E+02  4.99600361E-14  0.00000000E+00
  5.20000000E+02  3.00000000E+02  0.00000000E+00
  5.20000000E+02  2.80000000E+02  0.00000000E+00
  5.20000000E+02  2.60000000E+02  0.00000000E+00
  5.20000000E+02  2.40000000E+02  0.00000000E+00
  5.20000000E+02  2.20000000E+02  0.00000000E+00
  5.20000000E+02  2.00000000E+02  0.00000000E+00
  5.20000000E+02  1.80000000E+02  0.00000000E+00
  5.20000000E+02  1.60000000E+02  0.00000000E+00
  5.20000000E+02  1.40000000E+02  0.00000000E+00
  5.20000000E+02  1.20000000E+02  0.00000000E+00
  5.20000000E+02  1.00000000E+02  0.00000000E+00
  5.20000000E+02  8.00000000E+01  0.00000000E+00
  5.20000000E+02  6.00000000E+01  0.00000000E+00
  5.20000000E+02  4.00000000E+01  0.00000000E+00
  5.20000000E+02  2.00000000E+01  0.00000000E+00
  5.20000000E+02  4.99600361E-14  0.00000000E+00
  5.40000000E+02  3.00000000E+02  0.00000000E+00
  5.40000000E+02  2.80000000E+02  0.00000000E+00
  5.40000000E+02  2.60000000E+02  0.00000000E+00
  5.40000000E+02  2.40000000E+02  0.00000000E+00
  5.40000000E+02  2.20000000E+02  0.00000000E+00
  5.40000000E+02  2.00000000E+02  0.00000000E+00
  5.40000000E+02  1.80000000E+02  0.00000000E+00
  5.40000000E+02  1.60000000E+02  0.00000000E+00
  5.40000000E+02  1.40000000E+02  0.00000000E+00
  5.40000000E+02  1.20000000E+02  0.00000000E+00
  5.40000000E+02  1.00000000E+02  0.00000000E+00
  5.40000000E+02  8.00000000E+01  0.00000000E+00
  5.40000000E+02  6.00000000E+01  0.00000000E+00
  5.40000000E+02  4.00000000E+01  0.00000000E+00
  5.40000000E+02  2.00000000E+01  0.00000000E+00
  5.40000000E+02  4.99600361E-14  0.00000000E+00
  5.60000000E+02  3.00000000E+02  0.00000000E+00
  5.60000000E+02  2.80000000E+02  0.00000000E+00
  5.60000000E+02  2.60000000E+02  0.00000000E+00
  5.60000000E+02  2.40000000E+02  0.00000000E+00
  5.60000000E+02  2.20000000E+02  0.00000000E+00
  5.60000000E+02  2.00000000E+02  0.00000000E+00
  5.60000000E+02  1.80000000E+02  0.00000000E+00
  5.60000000E+02  1.60000000E+02  0.00000000E+00
  5.60000000E+02  1.40000000E+02  0.00000000E+00
  5.60000000E+02  1.20000000E+02  0.00000000E+00
  5.60000000E+02  1.00000000E+02  0.00000000E+00
  5.60000000E+02  8.00000000E+01  0.00000000E+00
  5.60000000E+02  6.00000000E+01  0.00000000E+00
  5.60000000E+02  4.00000000E+01  0.00000000E+00
  5.60000000E+02  2.00000000E+01  0.00000000E+00
  5.60000000E+02  4.99600361E-14  0.00000000E+00
  5.80000000E+02  3.00000000E+02  0.00000000E+00
  5.80000000E+02  2.80000000E+02  0.00000000E+00
  5.80000000E+02  2.60000000E+02  0.00000000E+00
  5.80000000E+02  2.40000000E+02  0.00000000E+00
  5.80000000E+02  2.20000000E+02  0.00000000E+00
  5.80000000E+02  2.00000000E+02  0.00000000E+00
  5.80000000E+02  1.80000000E+02  0.00000000E+00
  5.80000000E+02  1.60000000E+02  0.00000000E+00
  5.80000000E+02  1.40000000E+02  0.00000000E+00
  5.80000000E+02  1.20000000E+02  0.00000000E+00
  5.80000000E+02  1.00000000E+02  0.00000000E+00
  5.80000000E+02  8.00000000E+01  0.00000000E+00
  5.80000000E+02  6.00000000E+01  0.00000000E+00
  5.80000000E+02  4.00000000E+01  0.00000000E+00
  5.80000000E+02  2.00000000E+01  0.00000000E+00
  5.80000000E+02  4.99600361E-14  0.00000000E+00
  6.00000000E+02  3.00000000E+02  0.00000000E+00
  6.00000000E+02  2.80000000E+02  0.00000000E+00
  6.00000000E+02  2.60000000E+02  0.00000000E+00
  6.00000000E+02  2.40000000E+02  0.00000000E+00
  6.00000000E+02  2.20000000E+02  0.00000000E+00
  6.00000000E+02  2.00000000E+02  0.00000000E+00
  6.00000000E+02  1.80000000E+02  0.00000000E+00
  6.00000000E+02  1.60000000E+02  0.00000000E+00
  6.00000000E+02  1.40000000E+02  0.00000000E+00
  6.00000000E+02  1.20000000E+02  0.00000000E+00
  6.00000000E+02  1.00000000E+02  0.00000000E+00
  6.00000000E+02  8.00000000E+01  0.00000000E+00
  6.00000000E+02  6.00000000E+01  0.00000000E+00
  6.00000000E+02  4.00000000E+01  0.00000000E+00
  6.00000000E+02  2.00000000E+01  0.00000000E+00
  6.00000000E+02  4.99600361E-14  0.00000000E+00
CELLS       450      2250
         4           0           1          17          16
         4           1           2          18          17
         4           2           3          19          18
         4           3           4          20          19
         4           4           5          21          20
         4           5           6          22          21
         4           6           7          23          22
         4           7           8          24          23
         4           8           9          25          24
         4           9          10          26          25
         4          10          11          27          26
         4          11          12          28          27
         4          12          13          29          28
         4          13          14          30          29
         4          14          15          31          30
         4          16          17          33          32
         4          17          18          34          33
         4          18          19          35          34
         4          19          20          36          35
         4          20          21          37          36
         4          21          22          38          37
         4          22          23          39          38
         4          23          24          40          39
         4          24          25          41          40
         4          25          26          42          41
         4          26          27          43          42
         4          27          28          44          43
         4          28          29          45          44
         4          29          30          46          45
         4          30          31          47          46
         4          32          33          49          48
         4          33          34          50          49
         4          34          35          51          50
         4          35          36          52          51
         4          36          37          53          52
         4          37          38          54          53
         4          38          39          55          54
         4          39          40          56          55
         4          40          41          57          56
         4          41          42          58          57
         4          42          43          59          58
         4          43          44          60          59
         4          44          45          61          60
         4          45          46          62          61
         4          46          47          63          62
         4          48          49          65          64
         4          49          50          66          65
         4          50          51          67          66
         4          51          52          68          67
         4          52          53          69          68
         4          53          54          70          69
         4          54          55          71          70
         4          55          56          72          71
         4          56          57          73          72
         4          57          58          74          73
         4          58          59          75          74
         4          59          60          76          75
         4          60          61          77          76
         4          61          62          78          77
         4          62          63          79          78
         4          64          65          81          80
         4          65          66          82          81
         4          66          67          83          82
         4          67          68          84          83
         4          68          69          85          84
         4          69          70          86          85
         4          70          71          87          86
         4          71          72          88          87
         4          72          73          89          88
         4          73          74          90          89
         4          74          75          91          90
         4          75          76          92          91
         4          76          77          93          92
         4          77          78          94          93
         4          78          79          95          94
         4          80          81          97          96
         4          81          82          98          97
         4          82          83          99          98
         4          83          84         100          99
         4          84          85         101         100
         4          85          86         102         101
         4          86          87         103         102
         4          87          88         104         103
         4          88          89         105         104
         4          89          90         106         105
         4          90          91         107         106
         4          91          92         108         107
         4          92          93         109         108
         4          93          94         110         109
         4          94          95         111         110
         4          96          97         113         112
         4          97          98         114         113
         4          98          99         115         114
         4          99         100         116         115
         4         100         101         117         116
         4         101         102         118         117
         4         102         103         119         118
         4         103         104         120         119
         4         104         105         121         120
         4         105         106         122         121
         4         106         107         123         122
         4         107         108         124         123
         4         108         109         125         124
         4         109         110         126         125
         4         110         111         127         126
         4         112         113         129         128
         4         113         114         130         129
         4         114         115         131         130
         4         115         116         132         131
         4         116         117         133         132
         4         117         118         134         133
         4         118         119         135         134
         4         119         120         136         135
         4         120         121         137         136
         4         121         122         138         137
         4         122         123         139         138
         4         123         124         140         139
         4         124         125         141         140
         4         125         126         142         141
         4         126         127         143         142
         4         128         129         145         144
         4         129         130         146         145
         4         130         131         147         146
         4         131         132         148         147
         4         132         133         149         148
         4         133         134         150         149
         4         134         135         151         150
         4         135         136         152         151
         4         136         137         153         152
         4         137         138         154         153
         4         138         139         155         154
         4         139         140         156         155
         4         140         141         157         156
         4         141         142         158         157
         4         142         143         159         158
         4         144         145         161         160
         4         145         146         162         161
         4         146         147         163         162
         4         147         148         164         163
         4         148         149         165         164
         4         149         150         166         165
         4         150         151         167         166
         4         151         152         168         167
         4         152         153         169         168
         4         153         154         170         169
         4         154         155         171         170
         4         155         156         172         171
         4         156         157         173         172
         4         157         158         174         173
         4         158         159         175         174
         4         160         161         177         176
         4         161         162         178         177
         4         162         163         179         178
         4         163         164         180         179
         4         164         165         181         180
         4         165         166         182         181
         4         166         167         183         182
         4         167         168         184         183
         4         168         169         185         184
         4         169         170         186         185
         4         170         171         187         186
         4         171         172         188         187
         4         172         173         189         188
         4         173         174         190         189
         4         174         175         191         190
         4         176         177         193         192
         4         177         178         194         193
         4         178         179         195         194
         4         179         180         196         195
         4         180         181         197         196
         4         181         182         198         197
         4         182         183         199         198
         4         183         184         200         199
         4         184         185         201         200
         4         185         186         202         201
         4         186         187         203         202
         4         187         188         204         203
         4         188         189         205         204
         4         189         190         206         205
         4         190         191         207         206
         4         192         193         209         208
         4         193         194         210         209
         4         194         195         211         210
         4         195         196         212         211
         4         196         197         213         212
         4         197         198         214         213
         4         198         199         215         214
         4         199         200         216         215
         4         200         201         217         216
         4         201         202         218         217
         4         202         203         219         218
         4         203         204         220         219
         4         204         205         221         220
         4         205         206         222         221
         4         206         207         223         222
         4         208         209         225         224
         4         209         210         226         225
         4         210         211         227         226
         4         211         212         228         227
         4         212         213         229         228
         4         213         214         230         229
         4         214         215         231         230
         4         215         216         232         231
         4         216         217         233         232
         4         217         218         234         233
         4         218         219         235         234
         4         219         220         236         235
         4         220         221         237         236
         4         221         222         238         237
         4         222         223         239         238
         4         224         225         241         240
         4         225         226         242         241
         4         226         227         243         242
         4         227         228         244         243
         4         228         229         245         244
         4         229         230         246         245
         4         230         231         247         246
         4         231         232         248         247
         4         232         233         249         248
         4         233         234         250         249
         4         234         235         251         250
         4         235         236         252         251
         4         236         237         253         252
         4         237         238         254         253
         4         238         239         255         254
         4         240         241         257         256
         4         241         242         258         257
         4         242         243         259         258
         4         243         244         260         259
         4         244         245         261         260
         4         245         246         262         261
         4         246         247         263         262
         4         247         248         264         263
         4         248         249         265         264
         4         249         250         266         265
         4         250         251         267         266
         4         251         252         268         267
         4         252         253         269         268
         4         253         254         270         269
         4         254         255         271         270
         4         256         257         273         272
         4         257         258         274         273
         4         258         259         275         274
         4         259         260         276         275
         4         260         261         277         276
         4         261         262         278         277
         4         262         263         279         278
         4         263         264         280         279
         4         264         265         281         280
         4         265         266         282         281
         4         266         267         283         282
         4         267         268         284         283
         4         268         269         285         284
         4         269         270         286         285
         4         270         271         287         286
         4         272         273         289         288
         4         273         274         290         289
         4         274         275         291         290
         4         275         276         292         291
         4         276         277         293         292
         4         277         278         294         293
         4         278         279         295         294
         4         279         280         296         295
         4         280         281         297         296
         4         281         282         298         297
         4         282         283         299         298
         4         283         284         300         299
         4         284         285         301         300
         4         285         286         302         301
         4         286         287         303         302
         4         288         289         305         304
         4         289         290         306         305
         4         290         291         307         306
         4         291         292         308         307
         4         292         293         309         308
         4         293         294         310         309
         4         294         295         311         310
         4         295         296         312         311
         4         296         297         313         312
         4         297         298         314         313
         4         298         299         315         314
         4         299         300         316         315
         4         300         301         317         316
         4         301         302         318         317
         4         302         303         319         318
         4         304         305         321         320
         4         305         306         322         321
         4         306         307         323         322
         4         307         308         324         323
         4         308         309         325         324
         4         309         310         326         325
         4         310         311         327         326
         4         311         312         328         327
         4         312         313         329         328
         4         313         314         330         329
         4         314         315         331         330
         4         315         316         332         331
         4         316         317         333         332
         4         317         318         334         333
         4         318         319         335         334
         4         320         321         337         336
         4         321         322         338         337
         4         322         323         339         338
         4         323         324         340         339
         4         324         325         341         340
         4         325         326         342         341
         4         326         327         343         342
         4         327         328         344         343
         4         328         329         345         344
         4         329         330         346         345
         4         330         331         347         346
         4         331         332         348         347
         4         332         333         349         348
         4         333         334         350         349
         4         334         335         351         350
         4         336         337         353         352
         4         337         338         354         353
         4         338         339         355         354
         4         339         340         356         355
         4         340         341         357         356
         4         341         342         358         357
         4         342         343         359         358
         4         343         344         360         359
         4         344         345         361         360
         4         345         346         362         361
         4         346         347         363         362
         4         347         348         364         363
         4         348         349         365         364
         4         349         350         366         365
         4         350         351         367         366
         4         352         353         369         368
         4         353         354         370         369
         4         354         355         371         370
         4         355         356         372         371
         4         356         357         373         372
         4         357         358         374         373
         4         358         359         375         374
         4         359         360         376         375
         4         360         361         377         376
         4         361         362         378         377
         4         362         363         379         378
         4         363         364         380         379
         4         364         365         381         380
         4         365         366         382         381
         4         366         367         383         382
         4         368         369         385         384
         4         369         370         386         385
         4         370         371         387         386
         4         371         372         388         387
         4         372         373         389         388
         4         373         374         390         389
         4         374         375         391         390
         4         375         376         392         391
         4         376         377         393         392
         4         377         378         394         393
         4         378         379         395         394
         4         379         380         396         395
         4         380         381         397         396
         4         381         382         398         397
         4         382         383         399         398
         4         384         385         401         400
         4         385         386         402         401
         4         386         387         403         402
         4         387         388         404         403
         4         388         389         405         404
         4         389         390         406         405
         4         390         391         407         406
         4         391         392         408         407
         4         392         393         409         408
         4         393         394         410         409
         4         394         395         411         410
         4         395         396         412         411
         4         396         397         413         412
         4         397         398         414         413
         4         398         399         415         414
         4         400         401         417         416
         4         401         402         418         417
         4         402         403         419         418
         4         403         404         420         419
         4         404         405         421         420
         4         405         406         422         421
         4         406         407         423         422
         4         407         408         424         423
         4         408         409         425         424
         4         409         410         426         425
         4         410         411         427         426
         4         411         412         428         427
         4         412         413         429         428
         4         413         414         430         429
         4         414         415         431         430
         4         416         417         433         432
         4         417         418         434         433
         4         418         419         435         434
         4         419         420         436         435
         4         420         421         437         436
         4         421         422         438         437
         4         422         423         439         438
         4         423         424         440         439
         4         424         425         441         440
         4         425         426         442         441
         4         426         427         443         442
         4         427         428         444         443
         4         428         429         445         444
         4         429         430         446         445
         4         430         431         447         446
         4         432         433         449         448
         4         433         434         450         449
         4         434         435         451         450
         4         435         436         452         451
         4         436         437         453         452
         4         437         438         454         453
         4         438         439         455         454
         4         439         440         456         455
         4         440         441         457         456
         4         441         442         458         457
         4         442         443         459         458
         4         443         444         460         459
         4         444         445         461         460
         4         445         446         462         461
         4         446         447         463         462
         4         448         449         465         464
         4         449         450         466         465
         4         450         451         467         466
         4         451         452         468         467
         4         452         453         469         468
         4         453         454         470         469
         4         454         455         471         470
         4         455         456         472         471
         4         456         457         473         472
         4         457         458         474         473
         4         458         459         475         474
         4         459         460         476         475
         4         460         461         477         476
         4         461         462         478         477
         4         462         463         479         478
         4         464         465         481         480
         4         465         466         482         481
         4         466         467         483         482
         4         467         468         484         483
         4         468         469         485         484
         4         469         470         486         485
         4         470         471         487         486
         4         471         472         488         487
         4         472         473         489         488
         4         473         474         490         489
         4         474         475         491         490
         4         475         476         492         491
         4         476         477         493         492
         4         477         478         494         493
         4         478         479         495         494
CELL_TYPES        450
9
9
9
9
9
9
9
9
9
9
9
9
9
9
9
9
9
9
9
9
9
9
9
9
9
9
9
9
9
9
9
9
9
9
9
9
9
9
9
9
9
9
9
9
9
9
9
9
9
9
9
9
9
9
9
9
9
9
9
9
9
9
9
9
9
9
9
9
9
9
9
9
9
9
9
9
9
9
9
9
9
9
9
9
9
9
9
9
9
9
9
9
9
9
9
9
9
9
9
9
9
9
9
9
9
9
9
9
9
9
9
9
9
9
9
9
9
9
9
9
9
9
9
9
9
9
9
9
9
9
9
9
9
9
9
9
9
9
9
9
9
9
9
9
9
9
9
9
9
9
9
9
9
9
9
9
9
9
9
9
9
9
9
9
9
9
9
9
9
9
9
9
9
9
9
9
9
9
9
9
9
9
9
9
9
9
9
9
9
9
9
9
9
9
9
9
9
9
9
9
9
9
9
9
9
9
9
9
9
9
9
9
9
9
9
9
9
9
9
9
9
9
9
9
9
9
9
9
9
9
9
9
9
9
9
9
9
9
9
9
9
9
9
9
9
9
9
9
9
9
9
9
9
9
9
9
9
9
9
9
9
9
9
9
9
9
9
9
9
9
9
9
9
9
9
9
9
9
9
9
9
9
9
9
9
9
9
9
9
9
9
9
9
9
9
9
9
9
9
9
9
9
9
9
9
9
9
9
9
9
9
9
9
9
9
9
9
9
9
9
9
9
9
9
9
9
9
9
9
9
9
9
9
9
9
9
9
9
9
9
9
9
9
9
9
9
9
9
9
9
9
9
9
9
9
9
9
9
9
9
9
9
9
9
9
9
9
9
9
9
9
9
9
9
9
9
9
9
9
9
9
9
9
9
9
9
9
9
9
9
9
9
9
9
9
9
9
9
9
9
9
9
9
9
9
9
9
9
9
9
9
9
9
9
9
9
9
9
9
9
9
9
9
9
9
9
9
9
9
9
9
9
9
9
9
9
9
9
9
9
9
9
9
9
9
9
9
9
9
9
POINT_DATA       496
SCALARS p double 
LOOKUP_TABLE default
   63777917.5164761     
   63788529.5232644     
   63806916.4969854     
   63820884.9440683     
   63832686.5407778     
   63843061.1171333     
   63852516.5534867     
   63861335.7305236     
   63869689.9570653     
   63877703.4828834     
   63885504.9856945     
   63893277.5360000     
   63901343.1300566     
   63910161.0163091     
   63921551.7733207     
   63928339.0932417     
   62312126.1831954     
   62310154.9914721     
   62308846.7767058     
   62310562.0746293     
   62312698.2523759     
   62314911.6566296     
   62317072.2710915     
   62319152.0255726     
   62321144.0276859     
   62323046.3637062     
   62324855.4015136     
   62326556.9337119     
   62328073.5434019     
   62329233.5135074     
   62328205.0003273     
   62326699.7767901     
   61286030.6910872     
   61284112.0680695     
   61280338.8352176     
   61277333.5348259     
   61275350.7293819     
   61273859.1433508     
   61272628.7328447     
   61271538.2671736     
   61270523.2840726     
   61269539.6912523     
   61268541.7411106     
   61267456.0500050     
   61266153.9353900     
   61264299.4199736     
   61262196.3298034     
   61261223.4328092     
   60653856.5964544     
   60652959.1520544     
   60650703.0026192     
   60648016.2523703     
   60645532.3297760     
   60643340.9166100     
   60641355.9913035     
   60639512.8346785     
   60637768.2404958     
   60636090.9116427     
   60634449.6233565     
   60632805.6420960     
   60631108.8721290     
   60629437.5511738     
   60628145.1764440     
   60627655.6391334     
   60306379.7627667     
   60306023.2288921     
   60304969.6510623     
   60303430.3091570     
   60301738.9322008     
   60300078.3606101     
   60298496.8830315     
   60296992.9842547     
   60295557.9178889     
   60294183.1962243     
   60292861.7367269     
   60291591.2945910     
   60290400.5188550     
   60289388.6572262     
   60288723.1476525     
   60288501.0735195     
   60132385.1481262     
   60132235.7175766     
   60131765.0499658     
   60131009.4776625     
   60130094.8941578     
   60129128.7414856     
   60128168.3782726     
   60127236.3190935     
   60126340.4257258     
   60125484.5817160     
   60124673.5331979     
   60123919.4227355     
   60123251.8900014     
   60122724.4113357     
   60122397.5165742     
   60122291.1411582     
   60050749.1476545     
   60050683.5174603     
   60050479.9629942     
   60050147.8699935     
   60049727.6650793     
   60049263.5387657     
   60048786.9902828     
   60048315.6755426     
   60047858.8509205     
   60047422.5157539     
   60047013.0175458     
   60046640.2380643     
   60046320.3210383     
   60046074.9613382     
   60045924.0163307     
   60045874.1666801     
   60012911.3534832     
   60012890.8886261     
   60012828.2327868     
   60012724.4944625     
   60012587.6135448     
   60012429.1367201     
   60012259.4931725     
   60012086.1547860     
   60011914.2395747     
   60011747.8514336     
   60011591.2581307     
   60011449.7673985     
   60011330.0524679     
   60011239.3384408     
   60011183.3332955     
   60011164.5434748     
   59993186.4667803     
   59993198.4561092     
   59993228.8212677     
   59993266.2794385     
   59993301.5184816     
   59993329.0966911     
   59993346.8533603     
   59993354.8728196     
   59993354.6981756     
   59993348.7572460     
   59993339.8600923     
   59993330.7216775     
   59993323.4858322     
   59993319.2356879     
   59993317.6628202     
   59993317.4150140     
   59978739.2610520     
   59978781.0144742     
   59978891.0202826     
   59979039.5378547     
   59979201.4651391     
   59979359.0088411     
   59979501.8578696     
   59979625.9829765     
   59979731.8214821     
   59979822.2917666     
   59979900.9133875     
   59979970.2346454     
   59980030.7232191     
   59980080.2425134     
   59980114.2242985     
   59980126.6289260     
   59962817.4141469     
   59962892.6918239     
   59963088.5031854     
   59963348.2056333     
   59963626.6606313     
   59963893.0456387     
   59964130.4950872     
   59964333.6864406     
   59964505.3297180     
   59964652.3094742     
   59964782.0449554     
   59964899.4946190     
   59965005.1238640     
   59965094.0599189     
   59965156.5519019     
   59965179.7078659     
   59940938.5031028     
   59941056.0575608     
   59941356.1156451     
   59941741.5631067     
   59942138.9556851     
   59942501.2774937     
   59942806.0411921     
   59943050.3725610     
   59943244.5306412     
   59943405.0271323     
   59943548.2324008     
   59943685.1386296     
   59943817.7965639     
   59943937.8193401     
   59944027.2003766     
   59944061.4594465     
   59908883.7550753     
   59909055.5466048     
   59909483.3654129     
   59910008.5570780     
   59910517.1495310     
   59910941.8317119     
   59911256.8809630     
   59911468.7188778     
   59911604.3994965     
   59911699.8059492     
   59911788.8454269     
   59911894.5906862     
   59912023.1353262     
   59912160.8456605     
   59912275.5809781     
   59912322.1671181     
   59861591.2397637     
   59861829.1454728     
   59862401.7791797     
   59863058.2416596     
   59863627.9829063     
   59864020.1322228     
   59864212.2923148     
   59864233.2259992     
   59864143.0867515     
   59864013.8233536     
   59863911.4944494     
   59863881.6800366     
   59863939.0207064     
   59864062.0249327     
   59864194.3973390     
   59864253.9244036     
   59792424.0482786     
   59792733.4230200     
   59793440.4285299     
   59794159.8410181     
   59794645.8221734     
   59794784.6873330     
   59794572.3414318     
   59794083.6877953     
   59793439.7362486     
   59792776.1483765     
   59792215.2786572     
   59791842.8628997     
   59791690.4930629     
   59791725.6639865     
   59791851.9546576     
   59791922.1202263     
   59692556.6738444     
   59692924.2605028     
   59693689.8665658     
   59694280.0636355     
   59694355.8921759     
   59693791.5438327     
   59692631.4564898     
   59691037.8834305     
   59689237.8453449     
   59687474.4946785     
   59685964.7257199     
   59684863.3038597     
   59684234.1556069     
   59684031.3388409     
   59684094.5917303     
   59684165.8664085     
   59550368.5696619     
   59550741.1307204     
   59551359.3434354     
   59551398.6611876     
   59550418.1747459     
   59548311.3084980     
   59545227.3391360     
   59541483.8118575     
   59537483.6645360     
   59533643.2957652     
   59530331.6902556     
   59527817.9348193     
   59526225.6344854     
   59525497.1524644     
   59525376.4180826     
   59525423.7010297     
   59350800.8129498     
   59351049.3107650     
   59351077.5599090     
   59349747.2408022     
   59346532.1883660     
   59341415.8245395     
   59334751.3356440     
   59327118.5021478     
   59319198.5643202     
   59311673.7297837     
   59305146.2605288     
   59300067.0511051     
   59296666.3293177     
   59294888.3502992     
   59294344.5742296     
   59294311.2673777     
   59074652.9044828     
   59074514.7178927     
   59073105.4937136     
   59068932.4161731     
   59061457.8148151     
   59050897.3430135     
   59037975.0548823     
   59023693.6649999     
   59009152.8853318     
   58995420.0478195     
   58983435.4374264     
   58973925.8860369     
   58967305.6928444     
   58963561.7207881     
   58962144.6148315     
   58961913.0203810     
   58697787.5315394     
   58696775.1756456     
   58692414.7737626     
   58682884.9323627     
   58667825.6869393     
   58647952.7802234     
   58624632.8283290     
   58599520.9740483     
   58574310.2180976     
   58550586.5916475     
   58529745.3530443     
   58512908.9238614     
   58500797.7628324     
   58493537.0873875     
   58490428.6290651     
   58489766.5125323     
   58190174.4505713     
   58187431.5369361     
   58177535.6803082     
   58158517.7573130     
   58130607.2966697     
   58095504.3031259     
   58055646.3294403     
   58013648.3688292     
   57971982.9260691     
   57932864.4645015     
   57898237.9783749     
   57869752.0006259     
   57848615.5913253     
   57835290.4473497     
   57829048.0108138     
   57827514.8964702     
   57514633.4338086     
   57508702.6320582     
   57488979.8947994     
   57453858.1731782     
   57404988.0871272     
   57345904.4864477     
   57280768.1385637     
   57213527.0199373     
   57147566.2512189     
   57085730.4165234     
   57030511.7211136     
   56984184.6433499     
   56948701.5551484     
   56925235.9055519     
   56913379.6234248     
   56910166.7391181     
   56625009.5832444     
   56613442.6966751     
   56576855.4553146     
   56515193.5058633     
   56433147.8492899     
   56337547.1494304     
   56235219.3446879     
   56131813.7564728     
   56031566.6800664     
   55937689.5682444     
   55852984.6075658     
   55780332.2078323     
   55722748.8309265     
   55682779.7339192     
   55661141.1831764     
   55654803.7329041     
   55463280.5762183     
   55441942.1241246     
   55376918.7307885     
   55272324.3273805     
   55138996.0957335     
   54989488.2721569     
   54834533.5406829     
   54681631.5743730     
   54535342.3377287     
   54398466.6280077     
   54273430.1889061     
   54163413.1762911     
   54072821.0690101     
   54006645.8630471     
   53968352.9946026     
   53956367.8771581     
   53954625.1913346     
   53916348.3355102     
   53803498.1509481     
   53630072.0806040     
   53418992.5661478     
   53192394.6033990     
   52966151.4856487     
   52748998.0578988     
   52544370.6607910     
   52353056.9270902     
   52175707.4884935     
   52014925.0083280     
   51876621.5683787     
   51769807.0822533     
   51703716.9513242     
   51681755.3462418     
   51998419.7161836     
   51930158.2797034     
   51735760.2607277     
   51451977.7053273     
   51125221.9659768     
   50792568.6724943     
   50474989.5683667     
   50179858.0647142     
   49906534.6712934     
   49651205.8686881     
   49410447.7684952     
   49184422.5682903     
   48979858.1247675     
   48811629.8000224     
   48699953.5777248     
   48660672.6459604     
   49450447.2581903     
   49326483.0014723     
   48988263.4531165     
   48526494.4613893     
   48032349.5412774     
   47562429.6749545     
   47137217.0067860     
   46756052.1823359     
   46409722.1922777     
   46086583.5071913     
   45776275.5474221     
   45473172.0794065     
   45182037.4814680     
   44924270.1124107     
   44739167.1909412     
   44670270.6337330     
   46083567.2557465     
   45845845.9823131     
   45239385.7506994     
   44489058.3497199     
   43769178.0024558     
   43142579.3623069     
   42607569.6130413     
   42145661.4174093     
   41734203.3417862     
   41351198.0249474     
   40977085.0211718     
   40596974.3195681     
   40205619.1035872     
   39826254.6166820     
   39526336.8660418     
   39407152.4117854     
   41481308.6788605     
   40977766.3249921     
   39808103.9471417     
   38623959.2723695     
   37668119.1466318     
   36906908.9098263     
   36293288.2478413     
   35782148.7138385     
   35335828.3682440     
   34922444.9903095     
   34514002.5809133     
   34085362.1436869     
   33617096.7681579     
   33101768.1697756     
   32634744.2158313     
   32436339.5198074     
   34752922.2177708     
   33100518.9159065     
   30812296.7810785     
   29334797.4797791     
   28292626.6724446     
   27531966.4902742     
   26950070.0894946     
   26481883.5567887     
   26082069.6404455     
   25716136.9246957     
   25354829.2491363     
   24970603.8517098     
   24534876.1552247     
   24023630.9772158     
   23389254.6052634     
   23053759.9114297     
   10350000.0000000     
   10350000.0000000     
   10350000.0000000     
   10350000.0000000     
   10350000.0000000     
   10350000.0000000     
   10350000.0000000     
   10350000.0000000     
   10350000.0000000     
   10350000.0000000     
   10350000.0000000     
   10350000.0000000     
   10350000.0000000     
   10350000.0000000     
   10350000.0000000     
   10350000.0000000     
VECTORS u double 
    0.00000E+00         0.82459E+00         0.00000E+00
    0.00000E+00         0.76756E+00         0.00000E+00
    0.00000E+00         0.72183E+00         0.00000E+00
    0.00000E+00         0.68566E+00         0.00000E+00
    0.00000E+00         0.65405E+00         0.00000E+00
    0.00000E+00         0.62344E+00         0.00000E+00
    0.00000E+00         0.59123E+00         0.00000E+00
    0.00000E+00         0.55557E+00         0.00000E+00
    0.00000E+00         0.51514E+00         0.00000E+00
    0.00000E+00         0.46903E+00         0.00000E+00
    0.00000E+00         0.41654E+00         0.00000E+00
    0.00000E+00         0.35705E+00         0.00000E+00
    0.00000E+00         0.28978E+00         0.00000E+00
    0.00000E+00         0.21314E+00         0.00000E+00
    0.00000E+00         0.12315E+00         0.00000E+00
    0.00000E+00         0.00000E+00         0.00000E+00
    0.39286E+00         0.74904E+00         0.00000E+00
    0.32830E+00         0.72526E+00         0.00000E+00
    0.30300E+00         0.69517E+00         0.00000E+00
    0.28522E+00         0.66696E+00         0.00000E+00
    0.26931E+00         0.64009E+00         0.00000E+00
    0.25356E+00         0.61250E+00         0.00000E+00
    0.23755E+00         0.58233E+00         0.00000E+00
    0.22123E+00         0.54809E+00         0.00000E+00
    0.20467E+00         0.50867E+00         0.00000E+00
    0.18791E+00         0.46326E+00         0.00000E+00
    0.17085E+00         0.41119E+00         0.00000E+00
    0.15311E+00         0.35183E+00         0.00000E+00
    0.13373E+00         0.28433E+00         0.00000E+00
    0.11024E+00         0.20701E+00         0.00000E+00
    0.76136E-01         0.11557E+00         0.00000E+00
    0.00000E+00         0.00000E+00         0.00000E+00
    0.70685E+00         0.62121E+00         0.00000E+00
    0.61048E+00         0.62866E+00         0.00000E+00
    0.55719E+00         0.62637E+00         0.00000E+00
    0.51904E+00         0.61624E+00         0.00000E+00
    0.48517E+00         0.60111E+00         0.00000E+00
    0.45222E+00         0.58144E+00         0.00000E+00
    0.41913E+00         0.55679E+00         0.00000E+00
    0.38569E+00         0.52652E+00         0.00000E+00
    0.35196E+00         0.48999E+00         0.00000E+00
    0.31794E+00         0.44665E+00         0.00000E+00
    0.28345E+00         0.39596E+00         0.00000E+00
    0.24777E+00         0.33733E+00         0.00000E+00
    0.20918E+00         0.26987E+00         0.00000E+00
    0.16371E+00         0.19205E+00         0.00000E+00
    0.10105E+00         0.10139E+00         0.00000E+00
    0.00000E+00         0.00000E+00         0.00000E+00
    0.96439E+00         0.49003E+00         0.00000E+00
    0.85861E+00         0.51733E+00         0.00000E+00
    0.78346E+00         0.53642E+00         0.00000E+00
    0.72370E+00         0.54471E+00         0.00000E+00
    0.66998E+00         0.54348E+00         0.00000E+00
    0.61813E+00         0.53407E+00         0.00000E+00
    0.56664E+00         0.51706E+00         0.00000E+00
    0.51508E+00         0.49256E+00         0.00000E+00
    0.46342E+00         0.46046E+00         0.00000E+00
    0.41162E+00         0.42053E+00         0.00000E+00
    0.35940E+00         0.37244E+00         0.00000E+00
    0.30587E+00         0.31576E+00         0.00000E+00
    0.24904E+00         0.24987E+00         0.00000E+00
    0.18468E+00         0.17414E+00         0.00000E+00
    0.10515E+00         0.89192E-01         0.00000E+00
    0.00000E+00         0.00000E+00         0.00000E+00
    0.11906E+01         0.36927E+00         0.00000E+00
    0.10841E+01         0.40815E+00         0.00000E+00
    0.99360E+00         0.44072E+00         0.00000E+00
    0.91385E+00         0.46282E+00         0.00000E+00
    0.83960E+00         0.47393E+00         0.00000E+00
    0.76768E+00         0.47473E+00         0.00000E+00
    0.69665E+00         0.46601E+00         0.00000E+00
    0.62603E+00         0.44826E+00         0.00000E+00
    0.55575E+00         0.42171E+00         0.00000E+00
    0.48574E+00         0.38642E+00         0.00000E+00
    0.41568E+00         0.34234E+00         0.00000E+00
    0.34474E+00         0.28930E+00         0.00000E+00
    0.27115E+00         0.22721E+00         0.00000E+00
    0.19185E+00         0.15650E+00         0.00000E+00
    0.10264E+00         0.79101E-01         0.00000E+00
    0.00000E+00         0.00000E+00         0.00000E+00
    0.14035E+01         0.25940E+00         0.00000E+00
    0.12976E+01         0.30492E+00         0.00000E+00
    0.11953E+01         0.34541E+00         0.00000E+00
    0.10977E+01         0.37672E+00         0.00000E+00
    0.10033E+01         0.39725E+00         0.00000E+00
    0.91090E+00         0.40690E+00         0.00000E+00
    0.81964E+00         0.40612E+00         0.00000E+00
    0.72931E+00         0.39541E+00         0.00000E+00
    0.63990E+00         0.37516E+00         0.00000E+00
    0.55139E+00         0.34563E+00         0.00000E+00
    0.46359E+00         0.30698E+00         0.00000E+00
    0.37587E+00         0.25936E+00         0.00000E+00
    0.28709E+00         0.20318E+00         0.00000E+00
    0.19561E+00         0.13943E+00         0.00000E+00
    0.99872E-01         0.70385E-01         0.00000E+00
    0.00000E+00         0.00000E+00         0.00000E+00
    0.16145E+01         0.15601E+00         0.00000E+00
    0.15069E+01         0.20571E+00         0.00000E+00
    0.13938E+01         0.25095E+00         0.00000E+00
    0.12796E+01         0.28822E+00         0.00000E+00
    0.11658E+01         0.31560E+00         0.00000E+00
    0.10530E+01         0.33246E+00         0.00000E+00
    0.94125E+00         0.33886E+00         0.00000E+00
    0.83087E+00         0.33515E+00         0.00000E+00
    0.72208E+00         0.32172E+00         0.00000E+00
    0.61503E+00         0.29890E+00         0.00000E+00
    0.50969E+00         0.26701E+00         0.00000E+00
    0.40583E+00         0.22644E+00         0.00000E+00
    0.30298E+00         0.17782E+00         0.00000E+00
    0.20071E+00         0.12238E+00         0.00000E+00
    0.99151E-01         0.62140E-01         0.00000E+00
    0.00000E+00         0.00000E+00         0.00000E+00
    0.18302E+01         0.53558E-01         0.00000E+00
    0.17174E+01         0.10646E+00         0.00000E+00
    0.15927E+01         0.15497E+00         0.00000E+00
    0.14622E+01         0.19634E+00         0.00000E+00
    0.13293E+01         0.22882E+00         0.00000E+00
    0.11962E+01         0.25159E+00         0.00000E+00
    0.10641E+01         0.26448E+00         0.00000E+00
    0.93362E+00         0.26769E+00         0.00000E+00
    0.80546E+00         0.26152E+00         0.00000E+00
    0.67996E+00         0.24631E+00         0.00000E+00
    0.55737E+00         0.22241E+00         0.00000E+00
    0.43784E+00         0.19028E+00         0.00000E+00
    0.32153E+00         0.15061E+00         0.00000E+00
    0.20886E+00         0.10452E+00         0.00000E+00
    0.10092E+00         0.53647E-01         0.00000E+00
    0.00000E+00         0.00000E+00         0.00000E+00
    0.20545E+01        -0.53306E-01         0.00000E+00
    0.19325E+01         0.26061E-02         0.00000E+00
    0.17942E+01         0.53864E-01         0.00000E+00
    0.16467E+01         0.98488E-01         0.00000E+00
    0.14948E+01         0.13512E+00         0.00000E+00
    0.13416E+01         0.16305E+00         0.00000E+00
    0.11891E+01         0.18207E+00         0.00000E+00
    0.10388E+01         0.19229E+00         0.00000E+00
    0.89147E+00         0.19391E+00         0.00000E+00
    0.74778E+00         0.18723E+00         0.00000E+00
    0.60824E+00         0.17251E+00         0.00000E+00
    0.47332E+00         0.15016E+00         0.00000E+00
    0.34370E+00         0.12073E+00         0.00000E+00
    0.22037E+00         0.85081E-01         0.00000E+00
    0.10499E+00         0.44378E-01         0.00000E+00
    0.00000E+00         0.00000E+00         0.00000E+00
    0.22897E+01        -0.16955E+00         0.00000E+00
    0.21544E+01        -0.11047E+00         0.00000E+00
    0.20000E+01        -0.56478E-01         0.00000E+00
    0.18342E+01        -0.88285E-02         0.00000E+00
    0.16627E+01         0.31640E-01         0.00000E+00
    0.14893E+01         0.64513E-01         0.00000E+00
    0.13168E+01         0.89698E-01         0.00000E+00
    0.11469E+01         0.10729E+00         0.00000E+00
    0.98078E+00         0.11746E+00         0.00000E+00
    0.81926E+00         0.12036E+00         0.00000E+00
    0.66304E+00         0.11615E+00         0.00000E+00
    0.51288E+00         0.10501E+00         0.00000E+00
    0.36979E+00         0.87228E-01         0.00000E+00
    0.23518E+00         0.63300E-01         0.00000E+00
    0.11106E+00         0.33931E-01         0.00000E+00
    0.00000E+00         0.00000E+00         0.00000E+00
    0.25372E+01        -0.29997E+00         0.00000E+00
    0.23844E+01        -0.23741E+00         0.00000E+00
    0.22110E+01        -0.18045E+00         0.00000E+00
    0.20252E+01        -0.12963E+00         0.00000E+00
    0.18333E+01        -0.85206E-01         0.00000E+00
    0.16396E+01        -0.47169E-01         0.00000E+00
    0.14472E+01        -0.15386E-01         0.00000E+00
    0.12582E+01         0.10318E-01         0.00000E+00
    0.10738E+01         0.30069E-01         0.00000E+00
    0.89486E+00         0.43895E-01         0.00000E+00
    0.72228E+00         0.51732E-01         0.00000E+00
    0.55691E+00         0.53470E-01         0.00000E+00
    0.39999E+00         0.49028E-01         0.00000E+00
    0.25325E+00         0.38448E-01         0.00000E+00
    0.11899E+00         0.21957E-01         0.00000E+00
    0.00000E+00         0.00000E+00         0.00000E+00
    0.27979E+01        -0.44943E+00         0.00000E+00
    0.26232E+01        -0.38301E+00         0.00000E+00
    0.24276E+01        -0.32273E+00         0.00000E+00
    0.22198E+01        -0.26838E+00         0.00000E+00
    0.20065E+01        -0.21956E+00         0.00000E+00
    0.17923E+01        -0.17577E+00         0.00000E+00
    0.15804E+01        -0.13657E+00         0.00000E+00
    0.13728E+01        -0.10165E+00         0.00000E+00
    0.11708E+01        -0.70910E-01         0.00000E+00
    0.97508E+00        -0.44474E-01         0.00000E+00
    0.78648E+00        -0.22684E-01         0.00000E+00
    0.60590E+00        -0.60274E-02         0.00000E+00
    0.43468E+00         0.49493E-02         0.00000E+00
    0.27478E+00         0.97630E-02         0.00000E+00
    0.12882E+00         0.81133E-02         0.00000E+00
    0.00000E+00         0.00000E+00         0.00000E+00
    0.30718E+01        -0.62304E+00         0.00000E+00
    0.28706E+01        -0.55234E+00         0.00000E+00
    0.26495E+01        -0.48830E+00         0.00000E+00
    0.24177E+01        -0.42990E+00         0.00000E+00
    0.21820E+01        -0.37600E+00         0.00000E+00
    0.19472E+01        -0.32555E+00         0.00000E+00
    0.17163E+01        -0.27775E+00         0.00000E+00
    0.14909E+01        -0.23212E+00         0.00000E+00
    0.12722E+01        -0.18858E+00         0.00000E+00
    0.10605E+01        -0.14743E+00         0.00000E+00
    0.85638E+00        -0.10934E+00         0.00000E+00
    0.66058E+00        -0.75268E-01         0.00000E+00
    0.47449E+00        -0.46313E-01         0.00000E+00
    0.30024E+00        -0.23574E-01         0.00000E+00
    0.14082E+00        -0.79632E-02         0.00000E+00
    0.00000E+00         0.00000E+00         0.00000E+00
    0.33587E+01        -0.82632E+00         0.00000E+00
    0.31259E+01        -0.75086E+00         0.00000E+00
    0.28759E+01        -0.68255E+00         0.00000E+00
    0.26181E+01        -0.61942E+00         0.00000E+00
    0.23593E+01        -0.55953E+00         0.00000E+00
    0.21040E+01        -0.50121E+00         0.00000E+00
    0.18548E+01        -0.44326E+00         0.00000E+00
    0.16129E+01        -0.38501E+00         0.00000E+00
    0.13786E+01        -0.32639E+00         0.00000E+00
    0.11520E+01        -0.26795E+00         0.00000E+00
    0.93294E+00        -0.21073E+00         0.00000E+00
    0.72201E+00        -0.15622E+00         0.00000E+00
    0.52042E+00        -0.10619E+00         0.00000E+00
    0.33043E+00        -0.62456E-01         0.00000E+00
    0.15545E+00        -0.26670E-01         0.00000E+00
    0.00000E+00         0.00000E+00         0.00000E+00
    0.36574E+01        -0.10652E+01         0.00000E+00
    0.33878E+01        -0.98446E+00         0.00000E+00
    0.31053E+01        -0.91124E+00         0.00000E+00
    0.28196E+01        -0.84253E+00         0.00000E+00
    0.25372E+01        -0.77548E+00         0.00000E+00
    0.22619E+01        -0.70776E+00         0.00000E+00
    0.19956E+01        -0.63771E+00         0.00000E+00
    0.17387E+01        -0.56449E+00         0.00000E+00
    0.14906E+01        -0.48808E+00         0.00000E+00
    0.12504E+01        -0.40925E+00         0.00000E+00
    0.10174E+01        -0.32953E+00         0.00000E+00
    0.79155E+00        -0.25101E+00         0.00000E+00
    0.57381E+00        -0.17622E+00         0.00000E+00
    0.36647E+00        -0.10785E+00         0.00000E+00
    0.17339E+00        -0.48444E-01         0.00000E+00
    0.00000E+00         0.00000E+00         0.00000E+00
    0.39655E+01        -0.13462E+01         0.00000E+00
    0.36536E+01        -0.12594E+01         0.00000E+00
    0.33353E+01        -0.11805E+01         0.00000E+00
    0.30201E+01        -0.11051E+01         0.00000E+00
    0.27140E+01        -0.10295E+01         0.00000E+00
    0.24198E+01        -0.95042E+00         0.00000E+00
    0.21383E+01        -0.86592E+00         0.00000E+00
    0.18685E+01        -0.77493E+00         0.00000E+00
    0.16087E+01        -0.67749E+00         0.00000E+00
    0.13568E+01        -0.57468E+00         0.00000E+00
    0.11111E+01        -0.46853E+00         0.00000E+00
    0.87081E+00        -0.36186E+00         0.00000E+00
    0.63629E+00        -0.25805E+00         0.00000E+00
    0.40977E+00        -0.16081E+00         0.00000E+00
    0.19552E+00        -0.73764E-01         0.00000E+00
    0.00000E+00         0.00000E+00         0.00000E+00
    0.42797E+01        -0.16761E+01         0.00000E+00
    0.39197E+01        -0.15825E+01         0.00000E+00
    0.35624E+01        -0.14968E+01         0.00000E+00
    0.32167E+01        -0.14133E+01         0.00000E+00
    0.28874E+01        -0.13272E+01         0.00000E+00
    0.25761E+01        -0.12345E+01         0.00000E+00
    0.22819E+01        -0.11327E+01         0.00000E+00
    0.20021E+01        -0.10207E+01         0.00000E+00
    0.17334E+01        -0.89846E+00         0.00000E+00
    0.14723E+01        -0.76757E+00         0.00000E+00
    0.12157E+01        -0.63057E+00         0.00000E+00
    0.96162E+00        -0.49104E+00         0.00000E+00
    0.70974E+00        -0.35337E+00         0.00000E+00
    0.46198E+00        -0.22243E+00         0.00000E+00
    0.22290E+00        -0.10315E+00         0.00000E+00
    0.00000E+00         0.00000E+00         0.00000E+00
    0.45949E+01        -0.20622E+01         0.00000E+00
    0.41812E+01        -0.19605E+01         0.00000E+00
    0.37821E+01        -0.18666E+01         0.00000E+00
    0.34054E+01        -0.17733E+01         0.00000E+00
    0.30543E+01        -0.16744E+01         0.00000E+00
    0.27286E+01        -0.15652E+01         0.00000E+00
    0.24250E+01        -0.14427E+01         0.00000E+00
    0.21390E+01        -0.13058E+01         0.00000E+00
    0.18651E+01        -0.11546E+01         0.00000E+00
    0.15978E+01        -0.99106E+00         0.00000E+00
    0.13325E+01        -0.81831E+00         0.00000E+00
    0.10658E+01        -0.64078E+00         0.00000E+00
    0.79615E+00        -0.46389E+00         0.00000E+00
    0.52492E+00        -0.29385E+00         0.00000E+00
    0.25671E+00        -0.13716E+00         0.00000E+00
    0.00000E+00         0.00000E+00         0.00000E+00
    0.49043E+01        -0.25118E+01         0.00000E+00
    0.44314E+01        -0.24004E+01         0.00000E+00
    0.39882E+01        -0.22965E+01         0.00000E+00
    0.35810E+01        -0.21910E+01         0.00000E+00
    0.32107E+01        -0.20763E+01         0.00000E+00
    0.28741E+01        -0.19471E+01         0.00000E+00
    0.25656E+01        -0.18001E+01         0.00000E+00
    0.22779E+01        -0.16339E+01         0.00000E+00
    0.20032E+01        -0.14490E+01         0.00000E+00
    0.17337E+01        -0.12478E+01         0.00000E+00
    0.14626E+01        -0.10341E+01         0.00000E+00
    0.11848E+01        -0.81308E+00         0.00000E+00
    0.89736E+00        -0.59124E+00         0.00000E+00
    0.60041E+00        -0.37624E+00         0.00000E+00
    0.29824E+00        -0.17638E+00         0.00000E+00
    0.00000E+00         0.00000E+00         0.00000E+00
    0.51990E+01        -0.30324E+01         0.00000E+00
    0.46617E+01        -0.29092E+01         0.00000E+00
    0.41732E+01        -0.27928E+01         0.00000E+00
    0.37371E+01        -0.26719E+01         0.00000E+00
    0.33512E+01        -0.25378E+01         0.00000E+00
    0.30088E+01        -0.23843E+01         0.00000E+00
    0.27008E+01        -0.22079E+01         0.00000E+00
    0.24170E+01        -0.20074E+01         0.00000E+00
    0.21466E+01        -0.17838E+01         0.00000E+00
    0.18794E+01        -0.15398E+01         0.00000E+00
    0.16062E+01        -0.12798E+01         0.00000E+00
    0.13197E+01        -0.10096E+01         0.00000E+00
    0.10148E+01        -0.73688E+00         0.00000E+00
    0.69005E+00        -0.47072E+00         0.00000E+00
    0.34869E+00        -0.22145E+00         0.00000E+00
    0.00000E+00         0.00000E+00         0.00000E+00
    0.54672E+01        -0.36310E+01         0.00000E+00
    0.48613E+01        -0.34932E+01         0.00000E+00
    0.43275E+01        -0.33609E+01         0.00000E+00
    0.38658E+01        -0.32206E+01         0.00000E+00
    0.34694E+01        -0.30621E+01         0.00000E+00
    0.31274E+01        -0.28790E+01         0.00000E+00
    0.28265E+01        -0.26677E+01         0.00000E+00
    0.25529E+01        -0.24275E+01         0.00000E+00
    0.22928E+01        -0.21598E+01         0.00000E+00
    0.20332E+01        -0.18677E+01         0.00000E+00
    0.17623E+01        -0.15561E+01         0.00000E+00
    0.14701E+01        -0.12313E+01         0.00000E+00
    0.11489E+01        -0.90194E+00         0.00000E+00
    0.79484E+00        -0.57833E+00         0.00000E+00
    0.40907E+00        -0.27302E+00         0.00000E+00
    0.00000E+00         0.00000E+00         0.00000E+00
    0.56942E+01        -0.43139E+01         0.00000E+00
    0.50167E+01        -0.41579E+01         0.00000E+00
    0.44396E+01        -0.40052E+01         0.00000E+00
    0.39574E+01        -0.38399E+01         0.00000E+00
    0.35575E+01        -0.36510E+01         0.00000E+00
    0.32235E+01        -0.34316E+01         0.00000E+00
    0.29372E+01        -0.31789E+01         0.00000E+00
    0.26808E+01        -0.28928E+01         0.00000E+00
    0.24373E+01        -0.25754E+01         0.00000E+00
    0.21910E+01        -0.22303E+01         0.00000E+00
    0.19274E+01        -0.18624E+01         0.00000E+00
    0.16336E+01        -0.14784E+01         0.00000E+00
    0.12986E+01        -0.10871E+01         0.00000E+00
    0.91471E+00        -0.69997E+00         0.00000E+00
    0.47986E+00        -0.33176E+00         0.00000E+00
    0.00000E+00         0.00000E+00         0.00000E+00
    0.58618E+01        -0.50866E+01         0.00000E+00
    0.51115E+01        -0.49073E+01         0.00000E+00
    0.44954E+01        -0.47281E+01         0.00000E+00
    0.40005E+01        -0.45308E+01         0.00000E+00
    0.36062E+01        -0.43032E+01         0.00000E+00
    0.32891E+01        -0.40393E+01         0.00000E+00
    0.30255E+01        -0.37373E+01         0.00000E+00
    0.27934E+01        -0.33986E+01         0.00000E+00
    0.25729E+01        -0.30262E+01         0.00000E+00
    0.23459E+01        -0.26238E+01         0.00000E+00
    0.20952E+01        -0.21962E+01         0.00000E+00
    0.18049E+01        -0.17496E+01         0.00000E+00
    0.14600E+01        -0.12922E+01         0.00000E+00
    0.10477E+01        -0.83633E+00         0.00000E+00
    0.56068E+00        -0.39841E+00         0.00000E+00
    0.00000E+00         0.00000E+00         0.00000E+00
    0.59472E+01        -0.59525E+01         0.00000E+00
    0.51258E+01        -0.57433E+01         0.00000E+00
    0.44786E+01        -0.55296E+01         0.00000E+00
    0.39818E+01        -0.52904E+01         0.00000E+00
    0.36045E+01        -0.50136E+01         0.00000E+00
    0.33144E+01        -0.46948E+01         0.00000E+00
    0.30816E+01        -0.43346E+01         0.00000E+00
    0.28804E+01        -0.39362E+01         0.00000E+00
    0.26886E+01        -0.35038E+01         0.00000E+00
    0.24863E+01        -0.30412E+01         0.00000E+00
    0.22545E+01        -0.25522E+01         0.00000E+00
    0.19741E+01        -0.20416E+01         0.00000E+00
    0.16254E+01        -0.15163E+01         0.00000E+00
    0.11892E+01        -0.98771E+00         0.00000E+00
    0.64972E+00        -0.47372E+00         0.00000E+00
    0.00000E+00         0.00000E+00         0.00000E+00
    0.59224E+01        -0.69127E+01         0.00000E+00
    0.50355E+01        -0.66649E+01         0.00000E+00
    0.43699E+01        -0.64056E+01         0.00000E+00
    0.38865E+01        -0.61114E+01         0.00000E+00
    0.35399E+01        -0.57714E+01         0.00000E+00
    0.32871E+01        -0.53848E+01         0.00000E+00
    0.30924E+01        -0.49561E+01         0.00000E+00
    0.29271E+01        -0.44912E+01         0.00000E+00
    0.27681E+01        -0.39950E+01         0.00000E+00
    0.25949E+01        -0.34711E+01         0.00000E+00
    0.23876E+01        -0.29217E+01         0.00000E+00
    0.21246E+01        -0.23489E+01         0.00000E+00
    0.17812E+01        -0.17567E+01         0.00000E+00
    0.13298E+01        -0.11539E+01         0.00000E+00
    0.74288E+00        -0.55850E+00         0.00000E+00
    0.00000E+00         0.00000E+00         0.00000E+00
    0.57526E+01        -0.79649E+01         0.00000E+00
    0.48114E+01        -0.76665E+01         0.00000E+00
    0.41473E+01        -0.73463E+01         0.00000E+00
    0.36977E+01        -0.69787E+01         0.00000E+00
    0.33972E+01        -0.65573E+01         0.00000E+00
    0.31913E+01        -0.60879E+01         0.00000E+00
    0.30395E+01        -0.55801E+01         0.00000E+00
    0.29124E+01        -0.50425E+01         0.00000E+00
    0.27877E+01        -0.44808E+01         0.00000E+00
    0.26461E+01        -0.38972E+01         0.00000E+00
    0.24681E+01        -0.32917E+01         0.00000E+00
    0.22309E+01        -0.26624E+01         0.00000E+00
    0.19052E+01        -0.20086E+01         0.00000E+00
    0.14537E+01        -0.13340E+01         0.00000E+00
    0.83247E+00        -0.65361E+00         0.00000E+00
    0.00000E+00         0.00000E+00         0.00000E+00
    0.53931E+01        -0.91015E+01         0.00000E+00
    0.44184E+01        -0.87361E+01         0.00000E+00
    0.37862E+01        -0.83326E+01         0.00000E+00
    0.33964E+01        -0.78660E+01         0.00000E+00
    0.31576E+01        -0.73403E+01         0.00000E+00
    0.30047E+01        -0.67718E+01         0.00000E+00
    0.28962E+01        -0.61759E+01         0.00000E+00
    0.28054E+01        -0.55626E+01         0.00000E+00
    0.27133E+01        -0.49365E+01         0.00000E+00
    0.26034E+01        -0.42982E+01         0.00000E+00
    0.24581E+01        -0.36442E+01         0.00000E+00
    0.22552E+01        -0.29686E+01         0.00000E+00
    0.19630E+01        -0.22639E+01         0.00000E+00
    0.15344E+01        -0.15253E+01         0.00000E+00
    0.90489E+00        -0.75986E+00         0.00000E+00
    0.00000E+00         0.00000E+00         0.00000E+00
    0.47846E+01        -0.10308E+02         0.00000E+00
    0.38131E+01        -0.98501E+01         0.00000E+00
    0.32595E+01        -0.93288E+01         0.00000E+00
    0.29600E+01        -0.87275E+01         0.00000E+00
    0.27928E+01        -0.80720E+01         0.00000E+00
    0.26914E+01        -0.73919E+01         0.00000E+00
    0.26208E+01        -0.67045E+01         0.00000E+00
    0.25606E+01        -0.60177E+01         0.00000E+00
    0.24963E+01        -0.53332E+01         0.00000E+00
    0.24155E+01        -0.46483E+01         0.00000E+00
    0.23042E+01        -0.39566E+01         0.00000E+00
    0.21430E+01        -0.32481E+01         0.00000E+00
    0.19019E+01        -0.25089E+01         0.00000E+00
    0.15287E+01        -0.17217E+01         0.00000E+00
    0.93606E+00        -0.87763E+00         0.00000E+00
    0.00000E+00         0.00000E+00         0.00000E+00
    0.38412E+01        -0.11554E+02         0.00000E+00
    0.29426E+01        -0.10964E+02         0.00000E+00
    0.25381E+01        -0.10265E+02         0.00000E+00
    0.23504E+01        -0.94830E+01         0.00000E+00
    0.22496E+01        -0.86826E+01         0.00000E+00
    0.21890E+01        -0.78924E+01         0.00000E+00
    0.21460E+01        -0.71218E+01         0.00000E+00
    0.21077E+01        -0.63722E+01         0.00000E+00
    0.20651E+01        -0.56403E+01         0.00000E+00
    0.20099E+01        -0.49201E+01         0.00000E+00
    0.19323E+01        -0.42026E+01         0.00000E+00
    0.18181E+01        -0.34753E+01         0.00000E+00
    0.16436E+01        -0.27200E+01         0.00000E+00
    0.13644E+01        -0.19096E+01         0.00000E+00
    0.88120E+00        -0.10049E+01         0.00000E+00
    0.00000E+00         0.00000E+00         0.00000E+00
    0.24124E+01        -0.12804E+02         0.00000E+00
    0.17547E+01        -0.11965E+02         0.00000E+00
    0.15635E+01        -0.10982E+02         0.00000E+00
    0.14681E+01        -0.10010E+02         0.00000E+00
    0.14146E+01        -0.90881E+01         0.00000E+00
    0.13805E+01        -0.82149E+01         0.00000E+00
    0.13551E+01        -0.73859E+01         0.00000E+00
    0.13322E+01        -0.65941E+01         0.00000E+00
    0.13071E+01        -0.58317E+01         0.00000E+00
    0.12755E+01        -0.50896E+01         0.00000E+00
    0.12322E+01        -0.43574E+01         0.00000E+00
    0.11694E+01        -0.36218E+01         0.00000E+00
    0.10739E+01        -0.28636E+01         0.00000E+00
    0.91962E+00        -0.20534E+01         0.00000E+00
    0.64675E+00        -0.11339E+01         0.00000E+00
    0.00000E+00         0.00000E+00         0.00000E+00
    0.00000E+00        -0.13767E+02         0.00000E+00
    0.00000E+00        -0.12407E+02         0.00000E+00
    0.00000E+00        -0.11235E+02         0.00000E+00
    0.00000E+00        -0.10187E+02         0.00000E+00
    0.00000E+00        -0.92199E+01         0.00000E+00
    0.00000E+00        -0.83185E+01         0.00000E+00
    0.00000E+00        -0.74701E+01         0.00000E+00
    0.00000E+00        -0.66646E+01         0.00000E+00
    0.00000E+00        -0.58922E+01         0.00000E+00
    0.00000E+00        -0.51430E+01         0.00000E+00
    0.00000E+00        -0.44060E+01         0.00000E+00
    0.00000E+00        -0.36678E+01         0.00000E+00
    0.00000E+00        -0.29096E+01         0.00000E+00
    0.00000E+00        -0.21021E+01         0.00000E+00
    0.00000E+00        -0.11921E+01         0.00000E+00
    0.00000E+00         0.00000E+00         0.00000E+00
CELL_DATA        450
VECTORS vDarcy double 
    0.99411E-06         0.29176E-08         0.00000E+00
    0.98606E-06         0.56580E-08         0.00000E+00
    0.98588E-06         0.51397E-08         0.00000E+00
    0.98521E-06         0.45314E-08         0.00000E+00
    0.98462E-06         0.40662E-08         0.00000E+00
    0.98404E-06         0.37311E-08         0.00000E+00
    0.98349E-06         0.34829E-08         0.00000E+00
    0.98297E-06         0.32905E-08         0.00000E+00
    0.98247E-06         0.31394E-08         0.00000E+00
    0.98201E-06         0.30294E-08         0.00000E+00
    0.98157E-06         0.29736E-08         0.00000E+00
    0.98116E-06         0.29942E-08         0.00000E+00
    0.98074E-06         0.31024E-08         0.00000E+00
    0.98080E-06         0.32018E-08         0.00000E+00
    0.97618E-06         0.16139E-08         0.00000E+00
    0.66584E-06        -0.12621E-08         0.00000E+00
    0.66108E-06        -0.16350E-08         0.00000E+00
    0.65779E-06        -0.41157E-09         0.00000E+00
    0.65599E-06         0.48590E-10         0.00000E+00
    0.65443E-06         0.22728E-09         0.00000E+00
    0.65303E-06         0.29127E-09         0.00000E+00
    0.65173E-06         0.30819E-09         0.00000E+00
    0.65050E-06         0.30290E-09         0.00000E+00
    0.64934E-06         0.28353E-09         0.00000E+00
    0.64823E-06         0.24920E-09         0.00000E+00
    0.64716E-06         0.18840E-09         0.00000E+00
    0.64610E-06         0.65339E-10         0.00000E+00
    0.64501E-06        -0.21063E-09         0.00000E+00
    0.64306E-06        -0.94503E-09         0.00000E+00
    0.64087E-06        -0.74510E-09         0.00000E+00
    0.39836E-06        -0.88798E-09         0.00000E+00
    0.39668E-06        -0.18970E-08         0.00000E+00
    0.39416E-06        -0.17821E-08         0.00000E+00
    0.39205E-06        -0.13908E-08         0.00000E+00
    0.39030E-06        -0.11406E-08         0.00000E+00
    0.38872E-06        -0.99056E-09         0.00000E+00
    0.38726E-06        -0.89929E-09         0.00000E+00
    0.38588E-06        -0.84193E-09         0.00000E+00
    0.38457E-06        -0.80816E-09         0.00000E+00
    0.38332E-06        -0.79813E-09         0.00000E+00
    0.38211E-06        -0.82210E-09         0.00000E+00
    0.38091E-06        -0.89967E-09         0.00000E+00
    0.37960E-06        -0.10539E-08         0.00000E+00
    0.37821E-06        -0.10121E-08         0.00000E+00
    0.37741E-06        -0.43542E-09         0.00000E+00
    0.21548E-06        -0.38911E-09         0.00000E+00
    0.21490E-06        -0.10269E-08         0.00000E+00
    0.21356E-06        -0.13074E-08         0.00000E+00
    0.21207E-06        -0.12863E-08         0.00000E+00
    0.21068E-06        -0.11812E-08         0.00000E+00
    0.20938E-06        -0.10884E-08         0.00000E+00
    0.20817E-06        -0.10166E-08         0.00000E+00
    0.20701E-06        -0.96130E-09         0.00000E+00
    0.20592E-06        -0.91866E-09         0.00000E+00
    0.20488E-06        -0.88808E-09         0.00000E+00
    0.20388E-06        -0.87023E-09         0.00000E+00
    0.20291E-06        -0.85921E-09         0.00000E+00
    0.20198E-06        -0.79611E-09         0.00000E+00
    0.20122E-06        -0.57981E-09         0.00000E+00
    0.20090E-06        -0.21068E-09         0.00000E+00
    0.10713E-06        -0.15585E-09         0.00000E+00
    0.10687E-06        -0.46944E-09         0.00000E+00
    0.10621E-06        -0.70523E-09         0.00000E+00
    0.10536E-06        -0.79801E-09         0.00000E+00
    0.10447E-06        -0.80099E-09         0.00000E+00
    0.10360E-06        -0.77161E-09         0.00000E+00
    0.10277E-06        -0.73609E-09         0.00000E+00
    0.10197E-06        -0.70120E-09         0.00000E+00
    0.10122E-06        -0.66812E-09         0.00000E+00
    0.10050E-06        -0.63617E-09         0.00000E+00
    0.99827E-07        -0.60175E-09         0.00000E+00
    0.99202E-07        -0.55059E-09         0.00000E+00
    0.98656E-07        -0.45494E-09         0.00000E+00
    0.98260E-07        -0.29284E-09         0.00000E+00
    0.98095E-07        -0.96890E-10         0.00000E+00
    0.50155E-07        -0.66097E-10         0.00000E+00
    0.49997E-07        -0.20701E-09         0.00000E+00
    0.49665E-07        -0.33315E-09         0.00000E+00
    0.49213E-07        -0.40743E-09         0.00000E+00
    0.48709E-07        -0.43479E-09         0.00000E+00
    0.48195E-07        -0.43488E-09         0.00000E+00
    0.47693E-07        -0.42280E-09         0.00000E+00
    0.47210E-07        -0.40573E-09         0.00000E+00
    0.46752E-07        -0.38591E-09         0.00000E+00
    0.46322E-07        -0.36307E-09         0.00000E+00
    0.45924E-07        -0.33401E-09         0.00000E+00
    0.45567E-07        -0.29178E-09         0.00000E+00
    0.45273E-07        -0.22782E-09         0.00000E+00
    0.45067E-07        -0.14064E-09         0.00000E+00
    0.44970E-07        -0.45951E-10         0.00000E+00
    0.23258E-07        -0.26476E-10         0.00000E+00
    0.23151E-07        -0.81689E-10         0.00000E+00
    0.22967E-07        -0.13333E-09         0.00000E+00
    0.22723E-07        -0.16977E-09         0.00000E+00
    0.22447E-07        -0.18893E-09         0.00000E+00
    0.22160E-07        -0.19519E-09         0.00000E+00
    0.21875E-07        -0.19382E-09         0.00000E+00
    0.21601E-07        -0.18818E-09         0.00000E+00
    0.21342E-07        -0.17961E-09         0.00000E+00
    0.21101E-07        -0.16801E-09         0.00000E+00
    0.20881E-07        -0.15208E-09         0.00000E+00
    0.20689E-07        -0.12960E-09         0.00000E+00
    0.20534E-07        -0.98830E-10         0.00000E+00
    0.20425E-07        -0.60752E-10         0.00000E+00
    0.20368E-07        -0.20130E-10         0.00000E+00
    0.12146E-07        -0.26117E-11         0.00000E+00
    0.12067E-07        -0.99168E-11         0.00000E+00
    0.11947E-07        -0.20275E-10         0.00000E+00
    0.11799E-07        -0.30954E-10         0.00000E+00
    0.11635E-07        -0.39675E-10         0.00000E+00
    0.11465E-07        -0.45811E-10         0.00000E+00
    0.11298E-07        -0.49618E-10         0.00000E+00
    0.11139E-07        -0.51405E-10         0.00000E+00
    0.10990E-07        -0.51243E-10         0.00000E+00
    0.10853E-07        -0.49004E-10         0.00000E+00
    0.10729E-07        -0.44436E-10         0.00000E+00
    0.10623E-07        -0.37329E-10         0.00000E+00
    0.10536E-07        -0.27850E-10         0.00000E+00
    0.10474E-07        -0.16852E-10         0.00000E+00
    0.10439E-07        -0.55647E-11         0.00000E+00
    0.89198E-08         0.16608E-10         0.00000E+00
    0.88448E-08         0.43176E-10         0.00000E+00
    0.87424E-08         0.56919E-10         0.00000E+00
    0.86244E-08         0.60029E-10         0.00000E+00
    0.85004E-08         0.56060E-10         0.00000E+00
    0.83779E-08         0.48374E-10         0.00000E+00
    0.82614E-08         0.39592E-10         0.00000E+00
    0.81532E-08         0.31497E-10         0.00000E+00
    0.80540E-08         0.25076E-10         0.00000E+00
    0.79641E-08         0.20593E-10         0.00000E+00
    0.78836E-08         0.17704E-10         0.00000E+00
    0.78134E-08         0.15611E-10         0.00000E+00
    0.77553E-08         0.13232E-10         0.00000E+00
    0.77116E-08         0.94517E-11         0.00000E+00
    0.76851E-08         0.35397E-11         0.00000E+00
    0.98616E-08         0.36281E-10         0.00000E+00
    0.97662E-08         0.94244E-10         0.00000E+00
    0.96464E-08         0.12504E-09         0.00000E+00
    0.95179E-08         0.13406E-09         0.00000E+00
    0.93916E-08         0.12826E-09         0.00000E+00
    0.92742E-08         0.11437E-09         0.00000E+00
    0.91688E-08         0.97871E-10         0.00000E+00
    0.90754E-08         0.82515E-10         0.00000E+00
    0.89925E-08         0.70247E-10         0.00000E+00
    0.89182E-08         0.61349E-10         0.00000E+00
    0.88510E-08         0.54758E-10         0.00000E+00
    0.87906E-08         0.48520E-10         0.00000E+00
    0.87379E-08         0.40311E-10         0.00000E+00
    0.86957E-08         0.28016E-10         0.00000E+00
    0.86676E-08         0.10307E-10         0.00000E+00
    0.13598E-07         0.59980E-10         0.00000E+00
    0.13453E-07         0.15311E-09         0.00000E+00
    0.13284E-07         0.19775E-09         0.00000E+00
    0.13115E-07         0.20568E-09         0.00000E+00
    0.12959E-07         0.19000E-09         0.00000E+00
    0.12823E-07         0.16277E-09         0.00000E+00
    0.12710E-07         0.13350E-09         0.00000E+00
    0.12615E-07         0.10847E-09         0.00000E+00
    0.12535E-07         0.90667E-10         0.00000E+00
    0.12463E-07         0.80072E-10         0.00000E+00
    0.12395E-07         0.74276E-10         0.00000E+00
    0.12331E-07         0.69298E-10         0.00000E+00
    0.12271E-07         0.60554E-10         0.00000E+00
    0.12218E-07         0.43883E-10         0.00000E+00
    0.12180E-07         0.16552E-10         0.00000E+00
    0.19988E-07         0.90288E-10         0.00000E+00
    0.19755E-07         0.22512E-09         0.00000E+00
    0.19504E-07         0.27924E-09         0.00000E+00
    0.19267E-07         0.27552E-09         0.00000E+00
    0.19064E-07         0.23746E-09         0.00000E+00
    0.18901E-07         0.18563E-09         0.00000E+00
    0.18776E-07         0.13567E-09         0.00000E+00
    0.18682E-07         0.97465E-10         0.00000E+00
    0.18606E-07         0.75165E-10         0.00000E+00
    0.18538E-07         0.67840E-10         0.00000E+00
    0.18471E-07         0.70526E-10         0.00000E+00
    0.18398E-07         0.75577E-10         0.00000E+00
    0.18322E-07         0.74281E-10         0.00000E+00
    0.18249E-07         0.58633E-10         0.00000E+00
    0.18190E-07         0.23162E-10         0.00000E+00
    0.29575E-07         0.12819E-09         0.00000E+00
    0.29202E-07         0.30978E-09         0.00000E+00
    0.28827E-07         0.36226E-09         0.00000E+00
    0.28499E-07         0.32748E-09         0.00000E+00
    0.28240E-07         0.24589E-09         0.00000E+00
    0.28056E-07         0.15144E-09         0.00000E+00
    0.27937E-07         0.68974E-10         0.00000E+00
    0.27864E-07         0.13400E-10         0.00000E+00
    0.27816E-07        -0.98981E-11         0.00000E+00
    0.27773E-07        -0.38622E-11         0.00000E+00
    0.27717E-07         0.21948E-10         0.00000E+00
    0.27641E-07         0.53467E-10         0.00000E+00
    0.27545E-07         0.74664E-10         0.00000E+00
    0.27440E-07         0.70499E-10         0.00000E+00
    0.27346E-07         0.30179E-10         0.00000E+00
    0.43347E-07         0.17158E-09         0.00000E+00
    0.42757E-07         0.39632E-09         0.00000E+00
    0.42212E-07         0.42128E-09         0.00000E+00
    0.41773E-07         0.31985E-09         0.00000E+00
    0.41469E-07         0.15932E-09         0.00000E+00
    0.41295E-07        -0.60023E-11         0.00000E+00
    0.41228E-07        -0.13794E-09         0.00000E+00
    0.41230E-07        -0.21488E-09         0.00000E+00
    0.41264E-07        -0.23049E-09         0.00000E+00
    0.41290E-07        -0.19158E-09         0.00000E+00
    0.41280E-07        -0.11552E-09         0.00000E+00
    0.41218E-07        -0.27146E-10         0.00000E+00
    0.41103E-07         0.44966E-10         0.00000E+00
    0.40951E-07         0.73215E-10         0.00000E+00
    0.40798E-07         0.36573E-10         0.00000E+00
    0.62642E-07         0.21238E-09         0.00000E+00
    0.61734E-07         0.45555E-09         0.00000E+00
    0.60964E-07         0.39994E-09         0.00000E+00
    0.60414E-07         0.16956E-09         0.00000E+00
    0.60105E-07        -0.12705E-09         0.00000E+00
    0.60016E-07        -0.40588E-09         0.00000E+00
    0.60095E-07        -0.61044E-09         0.00000E+00
    0.60278E-07        -0.71083E-09         0.00000E+00
    0.60493E-07        -0.70076E-09         0.00000E+00
    0.60677E-07        -0.59390E-09         0.00000E+00
    0.60780E-07        -0.42011E-09         0.00000E+00
    0.60770E-07        -0.22148E-09         0.00000E+00
    0.60645E-07        -0.47255E-10         0.00000E+00
    0.60428E-07         0.53162E-10         0.00000E+00
    0.60177E-07         0.39494E-10         0.00000E+00
    0.89106E-07         0.23192E-09         0.00000E+00
    0.87742E-07         0.42676E-09         0.00000E+00
    0.86700E-07         0.19136E-09         0.00000E+00
    0.86070E-07        -0.27147E-09         0.00000E+00
    0.85855E-07        -0.79241E-09         0.00000E+00
    0.85997E-07        -0.12461E-08         0.00000E+00
    0.86397E-07        -0.15528E-08         0.00000E+00
    0.86942E-07        -0.16736E-08         0.00000E+00
    0.87514E-07        -0.16048E-08         0.00000E+00
    0.88010E-07        -0.13712E-08         0.00000E+00
    0.88344E-07        -0.10214E-08         0.00000E+00
    0.88463E-07        -0.62375E-09         0.00000E+00
    0.88352E-07        -0.25994E-09         0.00000E+00
    0.88046E-07        -0.15953E-10         0.00000E+00
    0.87632E-07         0.32727E-10         0.00000E+00
    0.12463E-06         0.19387E-09         0.00000E+00
    0.12264E-06         0.19822E-09         0.00000E+00
    0.12130E-06        -0.38961E-09         0.00000E+00
    0.12069E-06        -0.12486E-08         0.00000E+00
    0.12077E-06        -0.21235E-08         0.00000E+00
    0.12140E-06        -0.28354E-08         0.00000E+00
    0.12241E-06        -0.32778E-08         0.00000E+00
    0.12361E-06        -0.34057E-08         0.00000E+00
    0.12483E-06        -0.32224E-08         0.00000E+00
    0.12589E-06        -0.27700E-08         0.00000E+00
    0.12665E-06        -0.21232E-08         0.00000E+00
    0.12703E-06        -0.13869E-08         0.00000E+00
    0.12699E-06        -0.69168E-09         0.00000E+00
    0.12656E-06        -0.18218E-09         0.00000E+00
    0.12588E-06         0.38070E-11         0.00000E+00
    0.17125E-06         0.34181E-10         0.00000E+00
    0.16845E-06        -0.41951E-09         0.00000E+00
    0.16684E-06        -0.16432E-08         0.00000E+00
    0.16647E-06        -0.31446E-08         0.00000E+00
    0.16718E-06        -0.45533E-08         0.00000E+00
    0.16872E-06        -0.56270E-08         0.00000E+00
    0.17080E-06        -0.62363E-08         0.00000E+00
    0.17313E-06        -0.63387E-08         0.00000E+00
    0.17542E-06        -0.59540E-08         0.00000E+00
    0.17742E-06        -0.51484E-08         0.00000E+00
    0.17894E-06        -0.40294E-08         0.00000E+00
    0.17980E-06        -0.27487E-08         0.00000E+00
    0.17993E-06        -0.15038E-08         0.00000E+00
    0.17936E-06        -0.53005E-09         0.00000E+00
    0.17826E-06        -0.71051E-10         0.00000E+00
    0.23101E-06        -0.35221E-09         0.00000E+00
    0.22719E-06        -0.17283E-08         0.00000E+00
    0.22548E-06        -0.40296E-08         0.00000E+00
    0.22575E-06        -0.65244E-08         0.00000E+00
    0.22766E-06        -0.86979E-08         0.00000E+00
    0.23077E-06        -0.10246E-07         0.00000E+00
    0.23461E-06        -0.11035E-07         0.00000E+00
    0.23871E-06        -0.11047E-07         0.00000E+00
    0.24270E-06        -0.10334E-07         0.00000E+00
    0.24622E-06        -0.89950E-08         0.00000E+00
    0.24895E-06        -0.71704E-08         0.00000E+00
    0.25065E-06        -0.50619E-08         0.00000E+00
    0.25115E-06        -0.29511E-08         0.00000E+00
    0.25042E-06        -0.12034E-08         0.00000E+00
    0.24866E-06        -0.23545E-09         0.00000E+00
    0.30566E-06        -0.11287E-08         0.00000E+00
    0.30071E-06        -0.41856E-08         0.00000E+00
    0.29925E-06        -0.82204E-08         0.00000E+00
    0.30088E-06        -0.12179E-07         0.00000E+00
    0.30489E-06        -0.15382E-07         0.00000E+00
    0.31053E-06        -0.17494E-07         0.00000E+00
    0.31706E-06        -0.18425E-07         0.00000E+00
    0.32385E-06        -0.18228E-07         0.00000E+00
    0.33037E-06        -0.17017E-07         0.00000E+00
    0.33617E-06        -0.14926E-07         0.00000E+00
    0.34080E-06        -0.12118E-07         0.00000E+00
    0.34388E-06        -0.88264E-08         0.00000E+00
    0.34508E-06        -0.54209E-08         0.00000E+00
    0.34424E-06        -0.24393E-08         0.00000E+00
    0.34152E-06        -0.56640E-09         0.00000E+00
    0.39641E-06        -0.25389E-08         0.00000E+00
    0.39038E-06        -0.84566E-08         0.00000E+00
    0.38992E-06        -0.15152E-07         0.00000E+00
    0.39405E-06        -0.21153E-07         0.00000E+00
    0.40150E-06        -0.25634E-07         0.00000E+00
    0.41100E-06        -0.28306E-07         0.00000E+00
    0.42147E-06        -0.29233E-07         0.00000E+00
    0.43209E-06        -0.28626E-07         0.00000E+00
    0.44219E-06        -0.26706E-07         0.00000E+00
    0.45124E-06        -0.23641E-07         0.00000E+00
    0.45869E-06        -0.19572E-07         0.00000E+00
    0.46395E-06        -0.14712E-07         0.00000E+00
    0.46641E-06        -0.94806E-08         0.00000E+00
    0.46563E-06        -0.46159E-08         0.00000E+00
    0.46158E-06        -0.11951E-08         0.00000E+00
    0.50347E-06        -0.49356E-08         0.00000E+00
    0.49678E-06        -0.15477E-07         0.00000E+00
    0.49866E-06        -0.26077E-07         0.00000E+00
    0.50712E-06        -0.34750E-07         0.00000E+00
    0.51992E-06        -0.40614E-07         0.00000E+00
    0.53504E-06        -0.43624E-07         0.00000E+00
    0.55098E-06        -0.44199E-07         0.00000E+00
    0.56672E-06        -0.42860E-07         0.00000E+00
    0.58159E-06        -0.40000E-07         0.00000E+00
    0.59505E-06        -0.35802E-07         0.00000E+00
    0.60647E-06        -0.30301E-07         0.00000E+00
    0.61503E-06        -0.23557E-07         0.00000E+00
    0.61969E-06        -0.15925E-07         0.00000E+00
    0.61944E-06        -0.83168E-08         0.00000E+00
    0.61370E-06        -0.23373E-08         0.00000E+00
    0.62556E-06        -0.88222E-08         0.00000E+00
    0.61932E-06        -0.26537E-07         0.00000E+00
    0.62590E-06        -0.42598E-07         0.00000E+00
    0.64149E-06        -0.54457E-07         0.00000E+00
    0.66227E-06        -0.61436E-07         0.00000E+00
    0.68519E-06        -0.64134E-07         0.00000E+00
    0.70827E-06        -0.63677E-07         0.00000E+00
    0.73045E-06        -0.61120E-07         0.00000E+00
    0.75124E-06        -0.57108E-07         0.00000E+00
    0.77029E-06        -0.51803E-07         0.00000E+00
    0.78704E-06        -0.44977E-07         0.00000E+00
    0.80043E-06        -0.36305E-07         0.00000E+00
    0.80877E-06        -0.25810E-07         0.00000E+00
    0.81003E-06        -0.14410E-07         0.00000E+00
    0.80250E-06        -0.43359E-08         0.00000E+00
    0.75928E-06        -0.14918E-07         0.00000E+00
    0.75590E-06        -0.43386E-07         0.00000E+00
    0.77115E-06        -0.66672E-07         0.00000E+00
    0.79805E-06        -0.81748E-07         0.00000E+00
    0.83030E-06        -0.88789E-07         0.00000E+00
    0.86347E-06        -0.89798E-07         0.00000E+00
    0.89526E-06        -0.87160E-07         0.00000E+00
    0.92490E-06        -0.82720E-07         0.00000E+00
    0.95243E-06        -0.77440E-07         0.00000E+00
    0.97806E-06        -0.71383E-07         0.00000E+00
    0.10015E-05        -0.63872E-07         0.00000E+00
    0.10217E-05        -0.53826E-07         0.00000E+00
    0.10360E-05        -0.40427E-07         0.00000E+00
    0.10407E-05        -0.24133E-07         0.00000E+00
    0.10320E-05        -0.77178E-08         0.00000E+00
    0.89832E-06        -0.24276E-07         0.00000E+00
    0.90254E-06        -0.68404E-07         0.00000E+00
    0.93313E-06        -0.10048E-06         0.00000E+00
    0.97745E-06        -0.11756E-06         0.00000E+00
    0.10254E-05        -0.12218E-06         0.00000E+00
    0.10711E-05        -0.11909E-06         0.00000E+00
    0.11126E-05        -0.11263E-06         0.00000E+00
    0.11500E-05        -0.10556E-06         0.00000E+00
    0.11845E-05        -0.99074E-07         0.00000E+00
    0.12170E-05        -0.93076E-07         0.00000E+00
    0.12483E-05        -0.86290E-07         0.00000E+00
    0.12774E-05        -0.76472E-07         0.00000E+00
    0.13010E-05        -0.61115E-07         0.00000E+00
    0.13129E-05        -0.39147E-07         0.00000E+00
    0.13052E-05        -0.13267E-07         0.00000E+00
    0.10323E-05        -0.38520E-07         0.00000E+00
    0.10533E-05        -0.10484E-06         0.00000E+00
    0.11103E-05        -0.14592E-06         0.00000E+00
    0.11806E-05        -0.16103E-06         0.00000E+00
    0.12485E-05        -0.15847E-06         0.00000E+00
    0.13079E-05        -0.14792E-06         0.00000E+00
    0.13588E-05        -0.13591E-06         0.00000E+00
    0.14032E-05        -0.12564E-06         0.00000E+00
    0.14438E-05        -0.11827E-06         0.00000E+00
    0.14827E-05        -0.11350E-06         0.00000E+00
    0.15220E-05        -0.10963E-06         0.00000E+00
    0.15618E-05        -0.10310E-06         0.00000E+00
    0.15990E-05        -0.88634E-07         0.00000E+00
    0.16245E-05        -0.61431E-07         0.00000E+00
    0.16234E-05        -0.22086E-07         0.00000E+00
    0.11450E-05        -0.60481E-07         0.00000E+00
    0.12007E-05        -0.15689E-06         0.00000E+00
    0.13029E-05        -0.20282E-06         0.00000E+00
    0.14093E-05        -0.20612E-06         0.00000E+00
    0.14991E-05        -0.18931E-06         0.00000E+00
    0.15706E-05        -0.16851E-06         0.00000E+00
    0.16288E-05        -0.15024E-06         0.00000E+00
    0.16784E-05        -0.13696E-06         0.00000E+00
    0.17232E-05        -0.12930E-06         0.00000E+00
    0.17667E-05        -0.12682E-06         0.00000E+00
    0.18121E-05        -0.12796E-06         0.00000E+00
    0.18627E-05        -0.12903E-06         0.00000E+00
    0.19179E-05        -0.12129E-06         0.00000E+00
    0.19672E-05        -0.92539E-07         0.00000E+00
    0.19851E-05        -0.35639E-07         0.00000E+00
    0.12109E-05        -0.94781E-07         0.00000E+00
    0.13387E-05        -0.23085E-06         0.00000E+00
    0.15174E-05        -0.25986E-06         0.00000E+00
    0.16652E-05        -0.23320E-06         0.00000E+00
    0.17701E-05        -0.19913E-06         0.00000E+00
    0.18487E-05        -0.16920E-06         0.00000E+00
    0.19108E-05        -0.14666E-06         0.00000E+00
    0.19629E-05        -0.13193E-06         0.00000E+00
    0.20097E-05        -0.12477E-06         0.00000E+00
    0.20550E-05        -0.12474E-06         0.00000E+00
    0.21032E-05        -0.13110E-06         0.00000E+00
    0.21597E-05        -0.14171E-06         0.00000E+00
    0.22334E-05        -0.15010E-06         0.00000E+00
    0.23201E-05        -0.13068E-06         0.00000E+00
    0.23828E-05        -0.54589E-07         0.00000E+00
    0.11837E-05        -0.17473E-06         0.00000E+00
    0.14869E-05        -0.30472E-06         0.00000E+00
    0.17703E-05        -0.25769E-06         0.00000E+00
    0.19298E-05        -0.20658E-06         0.00000E+00
    0.20383E-05        -0.16544E-06         0.00000E+00
    0.21175E-05        -0.13524E-06         0.00000E+00
    0.21800E-05        -0.11451E-06         0.00000E+00
    0.22325E-05        -0.10181E-06         0.00000E+00
    0.22793E-05        -0.96225E-07         0.00000E+00
    0.23241E-05        -0.97411E-07         0.00000E+00
    0.23709E-05        -0.10546E-06         0.00000E+00
    0.24261E-05        -0.12052E-06         0.00000E+00
    0.25010E-05        -0.14138E-06         0.00000E+00
    0.26353E-05        -0.15841E-06         0.00000E+00
    0.27935E-05        -0.80066E-07         0.00000E+00
    0.10436E-05        -0.36570E-07         0.00000E+00
    0.17176E-05        -0.90953E-07         0.00000E+00
    0.19788E-05        -0.74117E-07         0.00000E+00
    0.21351E-05        -0.60258E-07         0.00000E+00
    0.22389E-05        -0.48485E-07         0.00000E+00
    0.23159E-05        -0.39892E-07         0.00000E+00
    0.23775E-05        -0.34007E-07         0.00000E+00
    0.24296E-05        -0.30486E-07         0.00000E+00
    0.24760E-05        -0.29135E-07         0.00000E+00
    0.25194E-05        -0.29972E-07         0.00000E+00
    0.25633E-05        -0.33245E-07         0.00000E+00
    0.26130E-05        -0.39526E-07         0.00000E+00
    0.26810E-05        -0.49200E-07         0.00000E+00
    0.27942E-05        -0.66358E-07         0.00000E+00
    0.31470E-05        -0.41013E-07         0.00000E+00
POINT_DATA        496
VECTORS vDarcyNodal double 
    0.98986E-06         0.71664E-08         0.00000E+00
    0.98895E-06         0.96746E-08         0.00000E+00
    0.98723E-06         0.10669E-07         0.00000E+00
    0.98598E-06         0.84145E-08         0.00000E+00
    0.98517E-06         0.71881E-08         0.00000E+00
    0.98447E-06         0.63883E-08         0.00000E+00
    0.98386E-06         0.58554E-08         0.00000E+00
    0.98329E-06         0.54752E-08         0.00000E+00
    0.98276E-06         0.51940E-08         0.00000E+00
    0.98226E-06         0.49963E-08         0.00000E+00
    0.98178E-06         0.48987E-08         0.00000E+00
    0.98129E-06         0.49598E-08         0.00000E+00
    0.98078E-06         0.52620E-08         0.00000E+00
    0.98004E-06         0.62613E-08         0.00000E+00
    0.97914E-06         0.55933E-08         0.00000E+00
    0.97871E-06         0.41475E-08         0.00000E+00
    0.82786E-06        -0.13052E-08         0.00000E+00
    0.82600E-06        -0.10797E-08         0.00000E+00
    0.82315E-06         0.12752E-09         0.00000E+00
    0.82149E-06         0.12403E-08         0.00000E+00
    0.82022E-06         0.13916E-08         0.00000E+00
    0.81913E-06         0.13912E-08         0.00000E+00
    0.81814E-06         0.13415E-08         0.00000E+00
    0.81722E-06         0.12818E-08         0.00000E+00
    0.81635E-06         0.12202E-08         0.00000E+00
    0.81553E-06         0.11577E-08         0.00000E+00
    0.81474E-06         0.10903E-08         0.00000E+00
    0.81396E-06         0.99524E-09         0.00000E+00
    0.81316E-06         0.82417E-09         0.00000E+00
    0.81219E-06         0.42142E-10         0.00000E+00
    0.81068E-06        -0.77032E-09         0.00000E+00
    0.80971E-06        -0.91247E-09         0.00000E+00
    0.53227E-06        -0.12275E-08         0.00000E+00
    0.53033E-06        -0.18144E-08         0.00000E+00
    0.52716E-06        -0.21505E-08         0.00000E+00
    0.52498E-06        -0.15727E-08         0.00000E+00
    0.52321E-06        -0.10886E-08         0.00000E+00
    0.52164E-06        -0.84796E-09         0.00000E+00
    0.52020E-06        -0.71916E-09         0.00000E+00
    0.51885E-06        -0.64916E-09         0.00000E+00
    0.51758E-06        -0.61330E-09         0.00000E+00
    0.51637E-06        -0.60534E-09         0.00000E+00
    0.51521E-06        -0.63376E-09         0.00000E+00
    0.51408E-06        -0.72320E-09         0.00000E+00
    0.51293E-06        -0.95202E-09         0.00000E+00
    0.51166E-06        -0.11891E-08         0.00000E+00
    0.50999E-06        -0.92184E-09         0.00000E+00
    0.50899E-06        -0.58219E-09         0.00000E+00
    0.30716E-06        -0.56146E-09         0.00000E+00
    0.30644E-06        -0.98565E-09         0.00000E+00
    0.30473E-06        -0.15411E-08         0.00000E+00
    0.30287E-06        -0.16055E-08         0.00000E+00
    0.30124E-06        -0.14446E-08         0.00000E+00
    0.29976E-06        -0.12839E-08         0.00000E+00
    0.29838E-06        -0.11710E-08         0.00000E+00
    0.29708E-06        -0.10923E-08         0.00000E+00
    0.29585E-06        -0.10370E-08         0.00000E+00
    0.29467E-06        -0.10013E-08         0.00000E+00
    0.29356E-06        -0.98716E-09         0.00000E+00
    0.29247E-06        -0.99996E-09         0.00000E+00
    0.29140E-06        -0.10047E-08         0.00000E+00
    0.29030E-06        -0.88170E-09         0.00000E+00
    0.28939E-06        -0.52931E-09         0.00000E+00
    0.28905E-06        -0.29068E-09         0.00000E+00
    0.16142E-06        -0.22045E-09         0.00000E+00
    0.16117E-06        -0.43591E-09         0.00000E+00
    0.16040E-06        -0.80031E-09         0.00000E+00
    0.15927E-06        -0.99414E-09         0.00000E+00
    0.15812E-06        -0.10273E-08         0.00000E+00
    0.15702E-06        -0.98913E-09         0.00000E+00
    0.15597E-06        -0.93696E-09         0.00000E+00
    0.15497E-06        -0.88839E-09         0.00000E+00
    0.15403E-06        -0.84556E-09         0.00000E+00
    0.15313E-06        -0.80794E-09         0.00000E+00
    0.15228E-06        -0.77364E-09         0.00000E+00
    0.15147E-06        -0.73204E-09         0.00000E+00
    0.15070E-06        -0.65320E-09         0.00000E+00
    0.15002E-06        -0.49637E-09         0.00000E+00
    0.14958E-06        -0.26236E-09         0.00000E+00
    0.14944E-06        -0.13126E-09         0.00000E+00
    0.78685E-07        -0.91955E-10         0.00000E+00
    0.78579E-07        -0.19071E-09         0.00000E+00
    0.78212E-07        -0.37654E-09         0.00000E+00
    0.77617E-07        -0.51143E-09         0.00000E+00
    0.76932E-07        -0.57378E-09         0.00000E+00
    0.76236E-07        -0.58525E-09         0.00000E+00
    0.75558E-07        -0.57232E-09         0.00000E+00
    0.74906E-07        -0.55033E-09         0.00000E+00
    0.74284E-07        -0.52508E-09         0.00000E+00
    0.73695E-07        -0.49758E-09         0.00000E+00
    0.73142E-07        -0.46543E-09         0.00000E+00
    0.72628E-07        -0.42134E-09         0.00000E+00
    0.72166E-07        -0.35320E-09         0.00000E+00
    0.71795E-07        -0.25203E-09         0.00000E+00
    0.71573E-07        -0.12767E-09         0.00000E+00
    0.71508E-07        -0.62669E-10         0.00000E+00
    0.36726E-07        -0.40354E-10         0.00000E+00
    0.36661E-07        -0.82657E-10         0.00000E+00
    0.36463E-07        -0.16414E-09         0.00000E+00
    0.36151E-07        -0.22982E-09         0.00000E+00
    0.35775E-07        -0.26912E-09         0.00000E+00
    0.35376E-07        -0.28505E-09         0.00000E+00
    0.34978E-07        -0.28594E-09         0.00000E+00
    0.34592E-07        -0.27872E-09         0.00000E+00
    0.34224E-07        -0.26704E-09         0.00000E+00
    0.33876E-07        -0.25184E-09         0.00000E+00
    0.33553E-07        -0.23204E-09         0.00000E+00
    0.33260E-07        -0.20479E-09         0.00000E+00
    0.33007E-07        -0.16666E-09         0.00000E+00
    0.32812E-07        -0.11661E-09         0.00000E+00
    0.32694E-07        -0.59009E-10         0.00000E+00
    0.32656E-07        -0.29282E-10         0.00000E+00
    0.17714E-07        -0.12600E-10         0.00000E+00
    0.17667E-07        -0.25534E-10         0.00000E+00
    0.17543E-07        -0.50968E-10         0.00000E+00
    0.17366E-07        -0.73434E-10         0.00000E+00
    0.17154E-07        -0.89762E-10         0.00000E+00
    0.16927E-07        -0.99266E-10         0.00000E+00
    0.16698E-07        -0.10328E-09         0.00000E+00
    0.16477E-07        -0.10347E-09         0.00000E+00
    0.16266E-07        -0.10093E-09         0.00000E+00
    0.16069E-07        -0.95952E-10         0.00000E+00
    0.15888E-07        -0.88213E-10         0.00000E+00
    0.15727E-07        -0.77037E-10         0.00000E+00
    0.15590E-07        -0.61887E-10         0.00000E+00
    0.15485E-07        -0.43056E-10         0.00000E+00
    0.15419E-07        -0.21918E-10         0.00000E+00
    0.15396E-07        -0.11003E-10         0.00000E+00
    0.10543E-07         0.73995E-11         0.00000E+00
    0.10503E-07         0.13032E-10         0.00000E+00
    0.10406E-07         0.20794E-10         0.00000E+00
    0.10282E-07         0.22192E-10         0.00000E+00
    0.10141E-07         0.19085E-10         0.00000E+00
    0.99941E-08         0.13707E-10         0.00000E+00
    0.98494E-08         0.77568E-11         0.00000E+00
    0.97114E-08         0.23527E-11         0.00000E+00
    0.95824E-08        -0.18166E-11         0.00000E+00
    0.94635E-08        -0.43956E-11         0.00000E+00
    0.93556E-08        -0.53232E-11         0.00000E+00
    0.92599E-08        -0.48165E-11         0.00000E+00
    0.91789E-08        -0.33688E-11         0.00000E+00
    0.91155E-08        -0.17039E-11         0.00000E+00
    0.90731E-08        -0.53182E-12         0.00000E+00
    0.90574E-08        -0.14459E-12         0.00000E+00
    0.94005E-08         0.25847E-10         0.00000E+00
    0.93559E-08         0.46792E-10         0.00000E+00
    0.92542E-08         0.79341E-10         0.00000E+00
    0.91343E-08         0.94769E-10         0.00000E+00
    0.90081E-08         0.96984E-10         0.00000E+00
    0.88845E-08         0.90681E-10         0.00000E+00
    0.87686E-08         0.80146E-10         0.00000E+00
    0.86629E-08         0.68663E-10         0.00000E+00
    0.85673E-08         0.58313E-10         0.00000E+00
    0.84811E-08         0.49987E-10         0.00000E+00
    0.84033E-08         0.43543E-10         0.00000E+00
    0.83336E-08         0.38058E-10         0.00000E+00
    0.82728E-08         0.32146E-10         0.00000E+00
    0.82230E-08         0.24335E-10         0.00000E+00
    0.81870E-08         0.13493E-10         0.00000E+00
    0.81729E-08         0.72072E-11         0.00000E+00
    0.11741E-07         0.46752E-10         0.00000E+00
    0.11678E-07         0.83778E-10         0.00000E+00
    0.11541E-07         0.13998E-09         0.00000E+00
    0.11391E-07         0.16433E-09         0.00000E+00
    0.11243E-07         0.16530E-09         0.00000E+00
    0.11109E-07         0.15190E-09         0.00000E+00
    0.10991E-07         0.13203E-09         0.00000E+00
    0.10890E-07         0.11165E-09         0.00000E+00
    0.10803E-07         0.94380E-10         0.00000E+00
    0.10727E-07         0.81541E-10         0.00000E+00
    0.10657E-07         0.72495E-10         0.00000E+00
    0.10592E-07         0.65151E-10         0.00000E+00
    0.10532E-07         0.56619E-10         0.00000E+00
    0.10480E-07         0.43935E-10         0.00000E+00
    0.10438E-07         0.24796E-10         0.00000E+00
    0.10420E-07         0.13387E-10         0.00000E+00
    0.16808E-07         0.73247E-10         0.00000E+00
    0.16709E-07         0.12935E-09         0.00000E+00
    0.16501E-07         0.21090E-09         0.00000E+00
    0.16290E-07         0.23906E-09         0.00000E+00
    0.16096E-07         0.23031E-09         0.00000E+00
    0.15931E-07         0.20079E-09         0.00000E+00
    0.15797E-07         0.16416E-09         0.00000E+00
    0.15692E-07         0.13025E-09         0.00000E+00
    0.15608E-07         0.10471E-09         0.00000E+00
    0.15536E-07         0.89156E-10         0.00000E+00
    0.15469E-07         0.81807E-10         0.00000E+00
    0.15401E-07         0.78367E-10         0.00000E+00
    0.15332E-07         0.73168E-10         0.00000E+00
    0.15265E-07         0.60437E-10         0.00000E+00
    0.15207E-07         0.35596E-10         0.00000E+00
    0.15181E-07         0.19692E-10         0.00000E+00
    0.24800E-07         0.10736E-09         0.00000E+00
    0.24642E-07         0.18607E-09         0.00000E+00
    0.24322E-07         0.29342E-09         0.00000E+00
    0.24016E-07         0.31559E-09         0.00000E+00
    0.23757E-07         0.28256E-09         0.00000E+00
    0.23555E-07         0.22220E-09         0.00000E+00
    0.23409E-07         0.15710E-09         0.00000E+00
    0.23310E-07         0.10290E-09         0.00000E+00
    0.23242E-07         0.67966E-10         0.00000E+00
    0.23187E-07         0.53900E-10         0.00000E+00
    0.23130E-07         0.56593E-10         0.00000E+00
    0.23063E-07         0.67734E-10         0.00000E+00
    0.22982E-07         0.76647E-10         0.00000E+00
    0.22892E-07         0.72409E-10         0.00000E+00
    0.22805E-07         0.46144E-10         0.00000E+00
    0.22764E-07         0.26596E-10         0.00000E+00
    0.36482E-07         0.14903E-09         0.00000E+00
    0.36231E-07         0.25184E-09         0.00000E+00
    0.35743E-07         0.37846E-09         0.00000E+00
    0.35311E-07         0.37395E-09         0.00000E+00
    0.34976E-07         0.29067E-09         0.00000E+00
    0.34747E-07         0.17511E-09         0.00000E+00
    0.34616E-07         0.63445E-10         0.00000E+00
    0.34559E-07        -0.20266E-10         0.00000E+00
    0.34545E-07        -0.64138E-10         0.00000E+00
    0.34544E-07        -0.67334E-10         0.00000E+00
    0.34528E-07        -0.38240E-10         0.00000E+00
    0.34478E-07         0.78465E-11         0.00000E+00
    0.34389E-07         0.51534E-10         0.00000E+00
    0.34268E-07         0.72714E-10         0.00000E+00
    0.34135E-07         0.54475E-10         0.00000E+00
    0.34068E-07         0.33716E-10         0.00000E+00
    0.53015E-07         0.19405E-09         0.00000E+00
    0.52625E-07         0.31586E-09         0.00000E+00
    0.51897E-07         0.43883E-09         0.00000E+00
    0.51308E-07         0.36694E-09         0.00000E+00
    0.50906E-07         0.18852E-09         0.00000E+00
    0.50692E-07        -0.21406E-10         0.00000E+00
    0.50640E-07        -0.20666E-09         0.00000E+00
    0.50702E-07        -0.33158E-09         0.00000E+00
    0.50823E-07        -0.38015E-09         0.00000E+00
    0.50948E-07        -0.35370E-09         0.00000E+00
    0.51031E-07        -0.26800E-09         0.00000E+00
    0.51040E-07        -0.14991E-09         0.00000E+00
    0.50960E-07        -0.33398E-10         0.00000E+00
    0.50800E-07         0.45540E-10         0.00000E+00
    0.50594E-07         0.55273E-10         0.00000E+00
    0.50486E-07         0.39379E-10         0.00000E+00
    0.75884E-07         0.23050E-09         0.00000E+00
    0.75294E-07         0.35172E-09         0.00000E+00
    0.74240E-07         0.41630E-09         0.00000E+00
    0.73478E-07         0.20264E-09         0.00000E+00
    0.73054E-07        -0.14515E-09         0.00000E+00
    0.72949E-07        -0.50982E-09         0.00000E+00
    0.73100E-07        -0.80726E-09         0.00000E+00
    0.73422E-07        -0.98687E-09         0.00000E+00
    0.73821E-07        -0.10285E-08         0.00000E+00
    0.74206E-07        -0.93828E-09         0.00000E+00
    0.74497E-07        -0.74378E-09         0.00000E+00
    0.74640E-07        -0.49005E-09         0.00000E+00
    0.74605E-07        -0.23437E-09         0.00000E+00
    0.74404E-07        -0.39241E-10         0.00000E+00
    0.74086E-07         0.37436E-10         0.00000E+00
    0.73908E-07         0.39576E-10         0.00000E+00
    0.10685E-06         0.23304E-09         0.00000E+00
    0.10598E-06         0.30662E-09         0.00000E+00
    0.10451E-06         0.20201E-09         0.00000E+00
    0.10359E-06        -0.28110E-09         0.00000E+00
    0.10325E-06        -0.91521E-09         0.00000E+00
    0.10344E-06        -0.15234E-08         0.00000E+00
    0.10401E-06        -0.19851E-08         0.00000E+00
    0.10484E-06        -0.22324E-08         0.00000E+00
    0.10575E-06        -0.22429E-08         0.00000E+00
    0.10661E-06        -0.20314E-08         0.00000E+00
    0.10730E-06        -0.16436E-08         0.00000E+00
    0.10771E-06        -0.11513E-08         0.00000E+00
    0.10779E-06        -0.64688E-09         0.00000E+00
    0.10755E-06        -0.23548E-09         0.00000E+00
    0.10707E-06        -0.20338E-10         0.00000E+00
    0.10677E-06         0.25931E-10         0.00000E+00
    0.14786E-06         0.15457E-09         0.00000E+00
    0.14663E-06         0.85906E-10         0.00000E+00
    0.14465E-06        -0.39072E-09         0.00000E+00
    0.14366E-06        -0.13506E-08         0.00000E+00
    0.14364E-06        -0.24464E-08         0.00000E+00
    0.14442E-06        -0.34216E-08         0.00000E+00
    0.14579E-06        -0.41122E-08         0.00000E+00
    0.14749E-06        -0.44346E-08         0.00000E+00
    0.14930E-06        -0.43695E-08         0.00000E+00
    0.15098E-06        -0.39471E-08         0.00000E+00
    0.15235E-06        -0.32381E-08         0.00000E+00
    0.15324E-06        -0.23503E-08         0.00000E+00
    0.15358E-06        -0.14261E-08         0.00000E+00
    0.15333E-06        -0.63546E-09         0.00000E+00
    0.15258E-06        -0.15704E-09         0.00000E+00
    0.15211E-06        -0.18006E-10         0.00000E+00
    0.20094E-06        -0.85121E-10         0.00000E+00
    0.19924E-06        -0.46767E-09         0.00000E+00
    0.19671E-06        -0.16617E-08         0.00000E+00
    0.19588E-06        -0.34181E-08         0.00000E+00
    0.19657E-06        -0.52242E-08         0.00000E+00
    0.19846E-06        -0.67256E-08         0.00000E+00
    0.20118E-06        -0.77152E-08         0.00000E+00
    0.20434E-06        -0.81045E-08         0.00000E+00
    0.20757E-06        -0.78898E-08         0.00000E+00
    0.21058E-06        -0.71262E-08         0.00000E+00
    0.21306E-06        -0.59159E-08         0.00000E+00
    0.21480E-06        -0.44098E-08         0.00000E+00
    0.21560E-06        -0.28143E-08         0.00000E+00
    0.21541E-06        -0.13918E-08         0.00000E+00
    0.21430E-06        -0.44151E-09         0.00000E+00
    0.21354E-06        -0.12313E-09         0.00000E+00
    0.26794E-06        -0.61418E-09         0.00000E+00
    0.26571E-06        -0.16003E-08         0.00000E+00
    0.26271E-06        -0.40665E-08         0.00000E+00
    0.26246E-06        -0.70875E-08         0.00000E+00
    0.26452E-06        -0.99343E-08         0.00000E+00
    0.26832E-06        -0.12145E-07         0.00000E+00
    0.27321E-06        -0.13489E-07         0.00000E+00
    0.27861E-06        -0.13903E-07         0.00000E+00
    0.28404E-06        -0.13423E-07         0.00000E+00
    0.28906E-06        -0.12144E-07         0.00000E+00
    0.29329E-06        -0.10202E-07         0.00000E+00
    0.29638E-06        -0.77859E-08         0.00000E+00
    0.29802E-06        -0.51736E-08         0.00000E+00
    0.29804E-06        -0.27482E-08         0.00000E+00
    0.29644E-06        -0.99135E-09         0.00000E+00
    0.29526E-06        -0.34527E-09         0.00000E+00
    0.35031E-06        -0.16273E-08         0.00000E+00
    0.34755E-06        -0.36791E-08         0.00000E+00
    0.34436E-06        -0.82648E-08         0.00000E+00
    0.34548E-06        -0.13199E-07         0.00000E+00
    0.34999E-06        -0.17488E-07         0.00000E+00
    0.35683E-06        -0.20579E-07         0.00000E+00
    0.36502E-06        -0.22276E-07         0.00000E+00
    0.37373E-06        -0.22604E-07         0.00000E+00
    0.38232E-06        -0.21690E-07         0.00000E+00
    0.39026E-06        -0.19685E-07         0.00000E+00
    0.39706E-06        -0.16749E-07         0.00000E+00
    0.40225E-06        -0.13086E-07         0.00000E+00
    0.40531E-06        -0.90230E-08         0.00000E+00
    0.40583E-06        -0.50816E-08         0.00000E+00
    0.40364E-06        -0.20011E-08         0.00000E+00
    0.40187E-06        -0.78163E-09         0.00000E+00
    0.44868E-06        -0.34089E-08         0.00000E+00
    0.44553E-06        -0.72305E-08         0.00000E+00
    0.44288E-06        -0.15172E-07         0.00000E+00
    0.44671E-06        -0.22864E-07         0.00000E+00
    0.45526E-06        -0.29015E-07         0.00000E+00
    0.46677E-06        -0.33061E-07         0.00000E+00
    0.47972E-06        -0.34969E-07         0.00000E+00
    0.49302E-06        -0.34982E-07         0.00000E+00
    0.50591E-06        -0.33398E-07         0.00000E+00
    0.51784E-06        -0.30451E-07         0.00000E+00
    0.52826E-06        -0.26289E-07         0.00000E+00
    0.53655E-06        -0.21060E-07         0.00000E+00
    0.54191E-06        -0.15070E-07         0.00000E+00
    0.54352E-06        -0.89529E-08         0.00000E+00
    0.54076E-06        -0.37816E-08         0.00000E+00
    0.53823E-06        -0.15954E-08         0.00000E+00
    0.56241E-06        -0.63639E-08         0.00000E+00
    0.55932E-06        -0.12988E-07         0.00000E+00
    0.55864E-06        -0.26012E-07         0.00000E+00
    0.56739E-06        -0.37468E-07         0.00000E+00
    0.58237E-06        -0.45793E-07         0.00000E+00
    0.60068E-06        -0.50614E-07         0.00000E+00
    0.62016E-06        -0.52319E-07         0.00000E+00
    0.63946E-06        -0.51588E-07         0.00000E+00
    0.65785E-06        -0.49026E-07         0.00000E+00
    0.67488E-06        -0.44971E-07         0.00000E+00
    0.69011E-06        -0.39493E-07         0.00000E+00
    0.70280E-06        -0.32538E-07         0.00000E+00
    0.71178E-06        -0.24219E-07         0.00000E+00
    0.71551E-06        -0.15164E-07         0.00000E+00
    0.71250E-06        -0.68132E-08         0.00000E+00
    0.70915E-06        -0.30507E-08         0.00000E+00
    0.68899E-06        -0.11061E-07         0.00000E+00
    0.68696E-06        -0.21951E-07         0.00000E+00
    0.69096E-06        -0.42362E-07         0.00000E+00
    0.70817E-06        -0.58620E-07         0.00000E+00
    0.73295E-06        -0.69064E-07         0.00000E+00
    0.76076E-06        -0.73949E-07         0.00000E+00
    0.78867E-06        -0.74565E-07         0.00000E+00
    0.81529E-06        -0.72376E-07         0.00000E+00
    0.84017E-06        -0.68462E-07         0.00000E+00
    0.86330E-06        -0.63286E-07         0.00000E+00
    0.88451E-06        -0.56718E-07         0.00000E+00
    0.90314E-06        -0.48269E-07         0.00000E+00
    0.91757E-06        -0.37528E-07         0.00000E+00
    0.92524E-06        -0.24808E-07         0.00000E+00
    0.92303E-06        -0.11811E-07         0.00000E+00
    0.91906E-06        -0.55610E-08         0.00000E+00
    0.82326E-06        -0.18300E-07         0.00000E+00
    0.82432E-06        -0.35475E-07         0.00000E+00
    0.83794E-06        -0.66177E-07         0.00000E+00
    0.86920E-06        -0.87971E-07         0.00000E+00
    0.90839E-06        -0.99618E-07         0.00000E+00
    0.94871E-06        -0.10292E-06         0.00000E+00
    0.98673E-06        -0.10087E-06         0.00000E+00
    0.10215E-05        -0.96160E-07         0.00000E+00
    0.10534E-05        -0.90505E-07         0.00000E+00
    0.10831E-05        -0.84463E-07         0.00000E+00
    0.11112E-05        -0.77569E-07         0.00000E+00
    0.11374E-05        -0.68580E-07         0.00000E+00
    0.11597E-05        -0.56033E-07         0.00000E+00
    0.11743E-05        -0.39265E-07         0.00000E+00
    0.11753E-05        -0.19792E-07         0.00000E+00
    0.11716E-05        -0.97506E-08         0.00000E+00
    0.95633E-06        -0.29233E-07         0.00000E+00
    0.96450E-06        -0.55388E-07         0.00000E+00
    0.99666E-06        -0.99727E-07         0.00000E+00
    0.10506E-05        -0.12671E-06         0.00000E+00
    0.11099E-05        -0.13694E-06         0.00000E+00
    0.11654E-05        -0.13557E-06         0.00000E+00
    0.12144E-05        -0.12849E-06         0.00000E+00
    0.12573E-05        -0.11999E-06         0.00000E+00
    0.12958E-05        -0.11231E-06         0.00000E+00
    0.13319E-05        -0.10601E-06         0.00000E+00
    0.13670E-05        -0.10022E-06         0.00000E+00
    0.14018E-05        -0.92713E-07         0.00000E+00
    0.14349E-05        -0.80277E-07         0.00000E+00
    0.14611E-05        -0.60046E-07         0.00000E+00
    0.14704E-05        -0.32119E-07         0.00000E+00
    0.14692E-05        -0.16530E-07         0.00000E+00
    0.10736E-05        -0.45570E-07         0.00000E+00
    0.10972E-05        -0.84157E-07         0.00000E+00
    0.11642E-05        -0.14519E-06         0.00000E+00
    0.12538E-05        -0.17424E-06         0.00000E+00
    0.13386E-05        -0.17737E-06         0.00000E+00
    0.14099E-05        -0.16661E-06         0.00000E+00
    0.14688E-05        -0.15191E-06         0.00000E+00
    0.15186E-05        -0.13867E-06         0.00000E+00
    0.15626E-05        -0.12903E-06         0.00000E+00
    0.16037E-05        -0.12332E-06         0.00000E+00
    0.16448E-05        -0.12049E-06         0.00000E+00
    0.16880E-05        -0.11758E-06         0.00000E+00
    0.17341E-05        -0.10915E-06         0.00000E+00
    0.17783E-05        -0.88168E-07         0.00000E+00
    0.18054E-05        -0.50377E-07         0.00000E+00
    0.18120E-05        -0.27122E-07         0.00000E+00
    0.11515E-05        -0.70148E-07         0.00000E+00
    0.12076E-05        -0.12485E-06         0.00000E+00
    0.13427E-05        -0.20294E-06         0.00000E+00
    0.14826E-05        -0.22437E-06         0.00000E+00
    0.15921E-05        -0.21024E-06         0.00000E+00
    0.16760E-05        -0.18539E-06         0.00000E+00
    0.17420E-05        -0.16232E-06         0.00000E+00
    0.17964E-05        -0.14479E-06         0.00000E+00
    0.18439E-05        -0.13389E-06         0.00000E+00
    0.18882E-05        -0.12955E-06         0.00000E+00
    0.19330E-05        -0.13088E-06         0.00000E+00
    0.19821E-05        -0.13566E-06         0.00000E+00
    0.20398E-05        -0.13719E-06         0.00000E+00
    0.21086E-05        -0.12210E-06         0.00000E+00
    0.21706E-05        -0.75698E-07         0.00000E+00
    0.21955E-05        -0.43070E-07         0.00000E+00
    0.11338E-05        -0.10519E-06         0.00000E+00
    0.12939E-05        -0.18015E-06         0.00000E+00
    0.15496E-05        -0.26441E-06         0.00000E+00
    0.17319E-05        -0.25278E-06         0.00000E+00
    0.18565E-05        -0.21191E-06         0.00000E+00
    0.19465E-05        -0.17589E-06         0.00000E+00
    0.20156E-05        -0.14831E-06         0.00000E+00
    0.20722E-05        -0.12958E-06         0.00000E+00
    0.21213E-05        -0.11908E-06         0.00000E+00
    0.21669E-05        -0.11630E-06         0.00000E+00
    0.22127E-05        -0.12095E-06         0.00000E+00
    0.22634E-05        -0.13236E-06         0.00000E+00
    0.23266E-05        -0.14853E-06         0.00000E+00
    0.24149E-05        -0.15208E-06         0.00000E+00
    0.25375E-05        -0.10530E-06         0.00000E+00
    0.26052E-05        -0.63857E-07         0.00000E+00
    0.10854E-05        -0.17049E-06         0.00000E+00
    0.13702E-05        -0.23154E-06         0.00000E+00
    0.17517E-05        -0.25488E-06         0.00000E+00
    0.19549E-05        -0.19259E-06         0.00000E+00
    0.20848E-05        -0.14959E-06         0.00000E+00
    0.21764E-05        -0.11845E-06         0.00000E+00
    0.22466E-05        -0.97235E-07         0.00000E+00
    0.23042E-05        -0.83672E-07         0.00000E+00
    0.23541E-05        -0.76455E-07         0.00000E+00
    0.24000E-05        -0.75007E-07         0.00000E+00
    0.24452E-05        -0.79395E-07         0.00000E+00
    0.24945E-05        -0.90357E-07         0.00000E+00
    0.25567E-05        -0.10861E-06         0.00000E+00
    0.26510E-05        -0.13860E-06         0.00000E+00
    0.28371E-05        -0.12446E-06         0.00000E+00
    0.29600E-05        -0.91325E-07         0.00000E+00
    0.10801E-05         0.00000E+00         0.00000E+00
    0.14078E-05         0.00000E+00         0.00000E+00
    0.18398E-05        -0.57814E-20         0.00000E+00
    0.20500E-05         0.76163E-21         0.00000E+00
    0.21811E-05         0.59234E-20         0.00000E+00
    0.22731E-05         0.00000E+00         0.00000E+00
    0.23438E-05         0.00000E+00         0.00000E+00
    0.24018E-05        -0.69238E-20         0.00000E+00
    0.24521E-05        -0.68350E-20         0.00000E+00
    0.24981E-05         0.72429E-20         0.00000E+00
    0.25430E-05         0.71464E-20         0.00000E+00
    0.25913E-05        -0.76034E-20         0.00000E+00
    0.26518E-05         0.33168E-21         0.00000E+00
    0.27462E-05         0.74039E-20         0.00000E+00
    0.29579E-05         0.12177E-21         0.00000E+00
    0.31059E-05         0.00000E+00         0.00000E+00
CELL_DATA        450
TENSORS stressef double 
    0.82374E+07        -0.22203E+06         0.00000E+00
   -0.22203E+06         0.29012E+07         0.00000E+00
    0.00000E+00         0.00000E+00         0.22277E+07
 
    0.72251E+07        -0.18189E+06         0.00000E+00
   -0.18189E+06         0.25961E+07         0.00000E+00
    0.00000E+00         0.00000E+00         0.19642E+07
 
    0.67146E+07        -0.11488E+06         0.00000E+00
   -0.11488E+06         0.23492E+07         0.00000E+00
    0.00000E+00         0.00000E+00         0.18128E+07
 
    0.63239E+07        -0.69797E+05         0.00000E+00
   -0.69797E+05         0.21902E+07         0.00000E+00
    0.00000E+00         0.00000E+00         0.17028E+07
 
    0.59713E+07        -0.38161E+05         0.00000E+00
   -0.38161E+05         0.20991E+07         0.00000E+00
    0.00000E+00         0.00000E+00         0.16141E+07
 
    0.56300E+07        -0.15959E+05         0.00000E+00
   -0.15959E+05         0.20573E+07         0.00000E+00
    0.00000E+00         0.00000E+00         0.15375E+07
 
    0.52917E+07        -0.26567E+03         0.00000E+00
   -0.26567E+03         0.20510E+07         0.00000E+00
    0.00000E+00         0.00000E+00         0.14685E+07
 
    0.49540E+07         0.10866E+05         0.00000E+00
    0.10866E+05         0.20701E+07         0.00000E+00
    0.00000E+00         0.00000E+00         0.14048E+07
 
    0.46163E+07         0.18827E+05         0.00000E+00
    0.18827E+05         0.21075E+07         0.00000E+00
    0.00000E+00         0.00000E+00         0.13448E+07
 
    0.42767E+07         0.24750E+05         0.00000E+00
    0.24750E+05         0.21584E+07         0.00000E+00
    0.00000E+00         0.00000E+00         0.12870E+07
 
    0.39296E+07         0.29890E+05         0.00000E+00
    0.29890E+05         0.22203E+07         0.00000E+00
    0.00000E+00         0.00000E+00         0.12300E+07
 
    0.35614E+07         0.36316E+05         0.00000E+00
    0.36316E+05         0.22942E+07         0.00000E+00
    0.00000E+00         0.00000E+00         0.11711E+07
 
    0.31384E+07         0.49589E+05         0.00000E+00
    0.49589E+05         0.23884E+07         0.00000E+00
    0.00000E+00         0.00000E+00         0.11054E+07
 
    0.25748E+07         0.84960E+05         0.00000E+00
    0.84960E+05         0.25336E+07         0.00000E+00
    0.00000E+00         0.00000E+00         0.10217E+07
 
    0.15091E+07         0.28564E+06         0.00000E+00
    0.28564E+06         0.28639E+07         0.00000E+00
    0.00000E+00         0.00000E+00         0.87459E+06
 
    0.66695E+07        -0.26461E+06         0.00000E+00
   -0.26461E+06         0.18375E+07         0.00000E+00
    0.00000E+00         0.00000E+00         0.17014E+07
 
    0.60496E+07        -0.36171E+06         0.00000E+00
   -0.36171E+06         0.18496E+07         0.00000E+00
    0.00000E+00         0.00000E+00         0.15798E+07
 
    0.55288E+07        -0.26493E+06         0.00000E+00
   -0.26493E+06         0.17816E+07         0.00000E+00
    0.00000E+00         0.00000E+00         0.14621E+07
 
    0.51132E+07        -0.16633E+06         0.00000E+00
   -0.16633E+06         0.17159E+07         0.00000E+00
    0.00000E+00         0.00000E+00         0.13658E+07
 
    0.47371E+07        -0.88877E+05         0.00000E+00
   -0.88877E+05         0.16766E+07         0.00000E+00
    0.00000E+00         0.00000E+00         0.12827E+07
 
    0.43771E+07        -0.31190E+05         0.00000E+00
   -0.31190E+05         0.16653E+07         0.00000E+00
    0.00000E+00         0.00000E+00         0.12085E+07
 
    0.40241E+07         0.11043E+05         0.00000E+00
    0.11043E+05         0.16780E+07         0.00000E+00
    0.00000E+00         0.00000E+00         0.11404E+07
 
    0.36747E+07         0.41828E+05         0.00000E+00
    0.41828E+05         0.17097E+07         0.00000E+00
    0.00000E+00         0.00000E+00         0.10769E+07
 
    0.33278E+07         0.64515E+05         0.00000E+00
    0.64515E+05         0.17565E+07         0.00000E+00
    0.00000E+00         0.00000E+00         0.10169E+07
 
    0.29813E+07         0.82212E+05         0.00000E+00
    0.82212E+05         0.18157E+07         0.00000E+00
    0.00000E+00         0.00000E+00         0.95940E+06
 
    0.26306E+07         0.98726E+05         0.00000E+00
    0.98726E+05         0.18866E+07         0.00000E+00
    0.00000E+00         0.00000E+00         0.90344E+06
 
    0.22650E+07         0.12083E+06         0.00000E+00
    0.12083E+06         0.19721E+07         0.00000E+00
    0.00000E+00         0.00000E+00         0.84742E+06
 
    0.18634E+07         0.16470E+06         0.00000E+00
    0.16470E+06         0.20819E+07         0.00000E+00
    0.00000E+00         0.00000E+00         0.78905E+06
 
    0.13767E+07         0.28181E+06         0.00000E+00
    0.28181E+06         0.22411E+07         0.00000E+00
    0.00000E+00         0.00000E+00         0.72356E+06
 
    0.87944E+06         0.67919E+06         0.00000E+00
    0.67919E+06         0.24798E+07         0.00000E+00
    0.00000E+00         0.00000E+00         0.67185E+06
 
    0.55219E+07        -0.16814E+06         0.00000E+00
   -0.16814E+06         0.10186E+07         0.00000E+00
    0.00000E+00         0.00000E+00         0.13081E+07
 
    0.52243E+07        -0.30349E+06         0.00000E+00
   -0.30349E+06         0.11310E+07         0.00000E+00
    0.00000E+00         0.00000E+00         0.12711E+07
 
    0.47932E+07        -0.26490E+06         0.00000E+00
   -0.26490E+06         0.12176E+07         0.00000E+00
    0.00000E+00         0.00000E+00         0.12022E+07
 
    0.43730E+07        -0.17325E+06         0.00000E+00
   -0.17325E+06         0.12636E+07         0.00000E+00
    0.00000E+00         0.00000E+00         0.11273E+07
 
    0.39777E+07        -0.84138E+05         0.00000E+00
   -0.84138E+05         0.12974E+07         0.00000E+00
    0.00000E+00         0.00000E+00         0.10550E+07
 
    0.35982E+07        -0.10453E+05         0.00000E+00
   -0.10453E+05         0.13335E+07         0.00000E+00
    0.00000E+00         0.00000E+00         0.98634E+06
 
    0.32288E+07         0.47121E+05         0.00000E+00
    0.47121E+05         0.13777E+07         0.00000E+00
    0.00000E+00         0.00000E+00         0.92129E+06
 
    0.28667E+07         0.91285E+05         0.00000E+00
    0.91285E+05         0.14315E+07         0.00000E+00
    0.00000E+00         0.00000E+00         0.85965E+06
 
    0.25107E+07         0.12565E+06         0.00000E+00
    0.12565E+06         0.14951E+07         0.00000E+00
    0.00000E+00         0.00000E+00         0.80116E+06
 
    0.21593E+07         0.15449E+06         0.00000E+00
    0.15449E+06         0.15687E+07         0.00000E+00
    0.00000E+00         0.00000E+00         0.74560E+06
 
    0.18100E+07         0.18382E+06         0.00000E+00
    0.18382E+06         0.16537E+07         0.00000E+00
    0.00000E+00         0.00000E+00         0.69274E+06
 
    0.14590E+07         0.22443E+06         0.00000E+00
    0.22443E+06         0.17538E+07         0.00000E+00
    0.00000E+00         0.00000E+00         0.64254E+06
 
    0.11025E+07         0.29965E+06         0.00000E+00
    0.29965E+06         0.18751E+07         0.00000E+00
    0.00000E+00         0.00000E+00         0.59550E+06
 
    0.76645E+06         0.46703E+06         0.00000E+00
    0.46703E+06         0.20209E+07         0.00000E+00
    0.00000E+00         0.00000E+00         0.55747E+06
 
    0.57498E+06         0.80833E+06         0.00000E+00
    0.80833E+06         0.21290E+07         0.00000E+00
    0.00000E+00         0.00000E+00         0.54079E+06
 
    0.48349E+07        -0.73916E+05         0.00000E+00
   -0.73916E+05         0.51937E+06         0.00000E+00
    0.00000E+00         0.00000E+00         0.10708E+07
 
    0.46971E+07        -0.16339E+06         0.00000E+00
   -0.16339E+06         0.63614E+06         0.00000E+00
    0.00000E+00         0.00000E+00         0.10667E+07
 
    0.43632E+07        -0.15866E+06         0.00000E+00
   -0.15866E+06         0.77421E+06         0.00000E+00
    0.00000E+00         0.00000E+00         0.10275E+07
 
    0.39699E+07        -0.97808E+05         0.00000E+00
   -0.97808E+05         0.88963E+06         0.00000E+00
    0.00000E+00         0.00000E+00         0.97190E+06
 
    0.35702E+07        -0.21338E+05         0.00000E+00
   -0.21338E+05         0.98212E+06         0.00000E+00
    0.00000E+00         0.00000E+00         0.91046E+06
 
    0.31777E+07         0.50591E+05         0.00000E+00
    0.50591E+05         0.10625E+07         0.00000E+00
    0.00000E+00         0.00000E+00         0.84804E+06
 
    0.27948E+07         0.11175E+06         0.00000E+00
    0.11175E+06         0.11389E+07         0.00000E+00
    0.00000E+00         0.00000E+00         0.78674E+06
 
    0.24217E+07         0.16199E+06         0.00000E+00
    0.16199E+06         0.12164E+07         0.00000E+00
    0.00000E+00         0.00000E+00         0.72761E+06
 
    0.20583E+07         0.20392E+06         0.00000E+00
    0.20392E+06         0.12981E+07         0.00000E+00
    0.00000E+00         0.00000E+00         0.67128E+06
 
    0.17048E+07         0.24193E+06         0.00000E+00
    0.24193E+06         0.13863E+07         0.00000E+00
    0.00000E+00         0.00000E+00         0.61823E+06
 
    0.13619E+07         0.28296E+06         0.00000E+00
    0.28296E+06         0.14834E+07         0.00000E+00
    0.00000E+00         0.00000E+00         0.56908E+06
 
    0.10330E+07         0.33881E+06         0.00000E+00
    0.33881E+06         0.15913E+07         0.00000E+00
    0.00000E+00         0.00000E+00         0.52486E+06
 
    0.73220E+06         0.43060E+06         0.00000E+00
    0.43060E+06         0.17085E+07         0.00000E+00
    0.00000E+00         0.00000E+00         0.48815E+06
 
    0.50278E+06         0.58756E+06         0.00000E+00
    0.58756E+06         0.18168E+07         0.00000E+00
    0.00000E+00         0.00000E+00         0.46392E+06
 
    0.43961E+06         0.82375E+06         0.00000E+00
    0.82375E+06         0.18630E+07         0.00000E+00
    0.00000E+00         0.00000E+00         0.46051E+06
 
    0.45032E+07        -0.32775E+04         0.00000E+00
   -0.32775E+04         0.24665E+06         0.00000E+00
    0.00000E+00         0.00000E+00         0.94998E+06
 
    0.44103E+07        -0.23886E+05         0.00000E+00
   -0.23886E+05         0.34155E+06         0.00000E+00
    0.00000E+00         0.00000E+00         0.95037E+06
 
    0.41354E+07        -0.16696E+05         0.00000E+00
   -0.16696E+05         0.47743E+06         0.00000E+00
    0.00000E+00         0.00000E+00         0.92257E+06
 
    0.37738E+07         0.24226E+05         0.00000E+00
    0.24226E+05         0.61393E+06         0.00000E+00
    0.00000E+00         0.00000E+00         0.87754E+06
 
    0.33814E+07         0.82658E+05         0.00000E+00
    0.82658E+05         0.73639E+06         0.00000E+00
    0.00000E+00         0.00000E+00         0.82355E+06
 
    0.29843E+07         0.14401E+06         0.00000E+00
    0.14401E+06         0.84508E+06         0.00000E+00
    0.00000E+00         0.00000E+00         0.76588E+06
 
    0.25932E+07         0.20086E+06         0.00000E+00
    0.20086E+06         0.94485E+06         0.00000E+00
    0.00000E+00         0.00000E+00         0.70761E+06
 
    0.22125E+07         0.25125E+06         0.00000E+00
    0.25125E+06         0.10406E+07         0.00000E+00
    0.00000E+00         0.00000E+00         0.65061E+06
 
    0.18445E+07         0.29654E+06         0.00000E+00
    0.29654E+06         0.11362E+07         0.00000E+00
    0.00000E+00         0.00000E+00         0.59616E+06
 
    0.14917E+07         0.34042E+06         0.00000E+00
    0.34042E+06         0.12348E+07         0.00000E+00
    0.00000E+00         0.00000E+00         0.54529E+06
 
    0.11578E+07         0.38901E+06         0.00000E+00
    0.38901E+06         0.13379E+07         0.00000E+00
    0.00000E+00         0.00000E+00         0.49913E+06
 
    0.85156E+06         0.45166E+06         0.00000E+00
    0.45166E+06         0.14449E+07         0.00000E+00
    0.00000E+00         0.00000E+00         0.45929E+06
 
    0.59236E+06         0.54031E+06         0.00000E+00
    0.54031E+06         0.15487E+07         0.00000E+00
    0.00000E+00         0.00000E+00         0.42822E+06
 
    0.41777E+06         0.66321E+06         0.00000E+00
    0.66321E+06         0.16299E+07         0.00000E+00
    0.00000E+00         0.00000E+00         0.40954E+06
 
    0.38448E+06         0.80749E+06         0.00000E+00
    0.80749E+06         0.16533E+07         0.00000E+00
    0.00000E+00         0.00000E+00         0.40755E+06
 
    0.44059E+07         0.45114E+05         0.00000E+00
    0.45114E+05         0.10965E+06         0.00000E+00
    0.00000E+00         0.00000E+00         0.90310E+06
 
    0.42934E+07         0.90368E+05         0.00000E+00
    0.90368E+05         0.18030E+06         0.00000E+00
    0.00000E+00         0.00000E+00         0.89475E+06
 
    0.40370E+07         0.12048E+06         0.00000E+00
    0.12048E+06         0.29489E+06         0.00000E+00
    0.00000E+00         0.00000E+00         0.86638E+06
 
    0.36943E+07         0.15827E+06         0.00000E+00
    0.15827E+06         0.42449E+06         0.00000E+00
    0.00000E+00         0.00000E+00         0.82377E+06
 
    0.33108E+07         0.20497E+06         0.00000E+00
    0.20497E+06         0.55161E+06         0.00000E+00
    0.00000E+00         0.00000E+00         0.77248E+06
 
    0.29142E+07         0.25533E+06         0.00000E+00
    0.25533E+06         0.67006E+06         0.00000E+00
    0.00000E+00         0.00000E+00         0.71685E+06
 
    0.25197E+07         0.30494E+06         0.00000E+00
    0.30494E+06         0.78014E+06         0.00000E+00
    0.00000E+00         0.00000E+00         0.65996E+06
 
    0.21352E+07         0.35209E+06         0.00000E+00
    0.35209E+06         0.88463E+06         0.00000E+00
    0.00000E+00         0.00000E+00         0.60397E+06
 
    0.17656E+07         0.39744E+06         0.00000E+00
    0.39744E+06         0.98665E+06         0.00000E+00
    0.00000E+00         0.00000E+00         0.55046E+06
 
    0.14152E+07         0.44356E+06         0.00000E+00
    0.44356E+06         0.10886E+07         0.00000E+00
    0.00000E+00         0.00000E+00         0.50076E+06
 
    0.10900E+07         0.49456E+06         0.00000E+00
    0.49456E+06         0.11911E+07         0.00000E+00
    0.00000E+00         0.00000E+00         0.45624E+06
 
    0.80051E+06         0.55558E+06         0.00000E+00
    0.55558E+06         0.12918E+07         0.00000E+00
    0.00000E+00         0.00000E+00         0.41846E+06
 
    0.56436E+06         0.63057E+06         0.00000E+00
    0.63057E+06         0.13827E+07         0.00000E+00
    0.00000E+00         0.00000E+00         0.38940E+06
 
    0.40783E+06         0.71667E+06         0.00000E+00
    0.71667E+06         0.14487E+07         0.00000E+00
    0.00000E+00         0.00000E+00         0.37130E+06
 
    0.36011E+06         0.79491E+06         0.00000E+00
    0.79491E+06         0.14705E+07         0.00000E+00
    0.00000E+00         0.00000E+00         0.36612E+06
 
    0.44509E+07         0.77779E+05         0.00000E+00
    0.77779E+05         0.43980E+05         0.00000E+00
    0.00000E+00         0.00000E+00         0.89897E+06
 
    0.42878E+07         0.17735E+06         0.00000E+00
    0.17735E+06         0.95342E+05         0.00000E+00
    0.00000E+00         0.00000E+00         0.87663E+06
 
    0.40191E+07         0.23708E+06         0.00000E+00
    0.23708E+06         0.18560E+06         0.00000E+00
    0.00000E+00         0.00000E+00         0.84095E+06
 
    0.36784E+07         0.28310E+06         0.00000E+00
    0.28310E+06         0.29609E+06         0.00000E+00
    0.00000E+00         0.00000E+00         0.79490E+06
 
    0.32982E+07         0.32629E+06         0.00000E+00
    0.32629E+06         0.41183E+06         0.00000E+00
    0.00000E+00         0.00000E+00         0.74200E+06
 
    0.29027E+07         0.36940E+06         0.00000E+00
    0.36940E+06         0.52468E+06         0.00000E+00
    0.00000E+00         0.00000E+00         0.68547E+06
 
    0.25076E+07         0.41245E+06         0.00000E+00
    0.41245E+06         0.63211E+06         0.00000E+00
    0.00000E+00         0.00000E+00         0.62794E+06
 
    0.21224E+07         0.45542E+06         0.00000E+00
    0.45542E+06         0.73477E+06         0.00000E+00
    0.00000E+00         0.00000E+00         0.57144E+06
 
    0.17535E+07         0.49903E+06         0.00000E+00
    0.49903E+06         0.83447E+06         0.00000E+00
    0.00000E+00         0.00000E+00         0.51759E+06
 
    0.14063E+07         0.54472E+06         0.00000E+00
    0.54472E+06         0.93268E+06         0.00000E+00
    0.00000E+00         0.00000E+00         0.46779E+06
 
    0.10875E+07         0.59433E+06         0.00000E+00
    0.59433E+06         0.10293E+07         0.00000E+00
    0.00000E+00         0.00000E+00         0.42336E+06
 
    0.80699E+06         0.64912E+06         0.00000E+00
    0.64912E+06         0.11214E+07         0.00000E+00
    0.00000E+00         0.00000E+00         0.38567E+06
 
    0.57855E+06         0.70781E+06         0.00000E+00
    0.70781E+06         0.12023E+07         0.00000E+00
    0.00000E+00         0.00000E+00         0.35617E+06
 
    0.41881E+06         0.76314E+06         0.00000E+00
    0.76314E+06         0.12621E+07         0.00000E+00
    0.00000E+00         0.00000E+00         0.33619E+06
 
    0.34132E+06         0.79825E+06         0.00000E+00
    0.79825E+06         0.12914E+07         0.00000E+00
    0.00000E+00         0.00000E+00         0.32655E+06
 
    0.45802E+07         0.10046E+06         0.00000E+00
    0.10046E+06         0.11552E+05         0.00000E+00
    0.00000E+00         0.00000E+00         0.91835E+06
 
    0.43523E+07         0.24180E+06         0.00000E+00
    0.24180E+06         0.48843E+05         0.00000E+00
    0.00000E+00         0.00000E+00         0.88023E+06
 
    0.40513E+07         0.32954E+06         0.00000E+00
    0.32954E+06         0.11702E+06         0.00000E+00
    0.00000E+00         0.00000E+00         0.83366E+06
 
    0.36972E+07         0.38838E+06         0.00000E+00
    0.38838E+06         0.20443E+06         0.00000E+00
    0.00000E+00         0.00000E+00         0.78033E+06
 
    0.33124E+07         0.43366E+06         0.00000E+00
    0.43366E+06         0.30002E+06         0.00000E+00
    0.00000E+00         0.00000E+00         0.72249E+06
 
    0.29158E+07         0.47361E+06         0.00000E+00
    0.47361E+06         0.39644E+06         0.00000E+00
    0.00000E+00         0.00000E+00         0.66245E+06
 
    0.25209E+07         0.51233E+06         0.00000E+00
    0.51233E+06         0.49042E+06         0.00000E+00
    0.00000E+00         0.00000E+00         0.60227E+06
 
    0.21369E+07         0.55195E+06         0.00000E+00
    0.55195E+06         0.58151E+06         0.00000E+00
    0.00000E+00         0.00000E+00         0.54368E+06
 
    0.17701E+07         0.59367E+06         0.00000E+00
    0.59367E+06         0.67065E+06         0.00000E+00
    0.00000E+00         0.00000E+00         0.48815E+06
 
    0.14260E+07         0.63812E+06         0.00000E+00
    0.63812E+06         0.75868E+06         0.00000E+00
    0.00000E+00         0.00000E+00         0.43693E+06
 
    0.11107E+07         0.68513E+06         0.00000E+00
    0.68513E+06         0.84525E+06         0.00000E+00
    0.00000E+00         0.00000E+00         0.39120E+06
 
    0.83251E+06         0.73311E+06         0.00000E+00
    0.73311E+06         0.92788E+06         0.00000E+00
    0.00000E+00         0.00000E+00         0.35208E+06
 
    0.60131E+06         0.77780E+06         0.00000E+00
    0.77780E+06         0.10018E+07         0.00000E+00
    0.00000E+00         0.00000E+00         0.32062E+06
 
    0.42748E+06         0.81086E+06         0.00000E+00
    0.81086E+06         0.10608E+07         0.00000E+00
    0.00000E+00         0.00000E+00         0.29766E+06
 
    0.31745E+06         0.81934E+06         0.00000E+00
    0.81934E+06         0.11005E+07         0.00000E+00
    0.00000E+00         0.00000E+00         0.28358E+06
 
    0.47595E+07         0.11672E+06         0.00000E+00
    0.11672E+06        -0.79605E+04         0.00000E+00
    0.00000E+00         0.00000E+00         0.95031E+06
 
    0.44599E+07         0.28850E+06         0.00000E+00
    0.28850E+06         0.18612E+05         0.00000E+00
    0.00000E+00         0.00000E+00         0.89570E+06
 
    0.41139E+07         0.39854E+06         0.00000E+00
    0.39854E+06         0.67284E+05         0.00000E+00
    0.00000E+00         0.00000E+00         0.83624E+06
 
    0.37350E+07         0.46961E+06         0.00000E+00
    0.46961E+06         0.13062E+06         0.00000E+00
    0.00000E+00         0.00000E+00         0.77312E+06
 
    0.33383E+07         0.51905E+06         0.00000E+00
    0.51905E+06         0.20122E+06         0.00000E+00
    0.00000E+00         0.00000E+00         0.70791E+06
 
    0.29375E+07         0.55853E+06         0.00000E+00
    0.55853E+06         0.27385E+06         0.00000E+00
    0.00000E+00         0.00000E+00         0.64226E+06
 
    0.25425E+07         0.59527E+06         0.00000E+00
    0.59527E+06         0.34597E+06         0.00000E+00
    0.00000E+00         0.00000E+00         0.57770E+06
 
    0.21607E+07         0.63332E+06         0.00000E+00
    0.63332E+06         0.41730E+06         0.00000E+00
    0.00000E+00         0.00000E+00         0.51560E+06
 
    0.17970E+07         0.67452E+06         0.00000E+00
    0.67452E+06         0.48869E+06         0.00000E+00
    0.00000E+00         0.00000E+00         0.45713E+06
 
    0.14556E+07         0.71891E+06         0.00000E+00
    0.71891E+06         0.56103E+06         0.00000E+00
    0.00000E+00         0.00000E+00         0.40333E+06
 
    0.11415E+07         0.76481E+06         0.00000E+00
    0.76481E+06         0.63429E+06         0.00000E+00
    0.00000E+00         0.00000E+00         0.35516E+06
 
    0.86057E+06         0.80860E+06         0.00000E+00
    0.80860E+06         0.70689E+06         0.00000E+00
    0.00000E+00         0.00000E+00         0.31349E+06
 
    0.61997E+06         0.84435E+06         0.00000E+00
    0.84435E+06         0.77562E+06         0.00000E+00
    0.00000E+00         0.00000E+00         0.27912E+06
 
    0.42666E+06         0.86367E+06         0.00000E+00
    0.86367E+06         0.83658E+06         0.00000E+00
    0.00000E+00         0.00000E+00         0.25265E+06
 
    0.28499E+06         0.85666E+06         0.00000E+00
    0.85666E+06         0.88697E+06         0.00000E+00
    0.00000E+00         0.00000E+00         0.23439E+06
 
    0.49678E+07         0.12820E+06         0.00000E+00
    0.12820E+06        -0.25112E+05         0.00000E+00
    0.00000E+00         0.00000E+00         0.98854E+06
 
    0.45917E+07         0.32030E+06         0.00000E+00
    0.32030E+06        -0.78434E+04         0.00000E+00
    0.00000E+00         0.00000E+00         0.91678E+06
 
    0.41928E+07         0.44505E+06         0.00000E+00
    0.44505E+06         0.22513E+05         0.00000E+00
    0.00000E+00         0.00000E+00         0.84306E+06
 
    0.37814E+07         0.52451E+06         0.00000E+00
    0.52451E+06         0.60994E+05         0.00000E+00
    0.00000E+00         0.00000E+00         0.76848E+06
 
    0.33676E+07         0.57722E+06         0.00000E+00
    0.57722E+06         0.10327E+06         0.00000E+00
    0.00000E+00         0.00000E+00         0.69418E+06
 
    0.29601E+07         0.61712E+06         0.00000E+00
    0.61712E+06         0.14661E+06         0.00000E+00
    0.00000E+00         0.00000E+00         0.62134E+06
 
    0.25650E+07         0.65365E+06         0.00000E+00
    0.65365E+06         0.19022E+06         0.00000E+00
    0.00000E+00         0.00000E+00         0.55105E+06
 
    0.21863E+07         0.69237E+06         0.00000E+00
    0.69237E+06         0.23494E+06         0.00000E+00
    0.00000E+00         0.00000E+00         0.48426E+06
 
    0.18267E+07         0.73562E+06         0.00000E+00
    0.73562E+06         0.28241E+06         0.00000E+00
    0.00000E+00         0.00000E+00         0.42182E+06
 
    0.14882E+07         0.78298E+06         0.00000E+00
    0.78298E+06         0.33429E+06         0.00000E+00
    0.00000E+00         0.00000E+00         0.36449E+06
 
    0.11735E+07         0.83155E+06         0.00000E+00
    0.83155E+06         0.39136E+06         0.00000E+00
    0.00000E+00         0.00000E+00         0.31298E+06
 
    0.88654E+06         0.87614E+06         0.00000E+00
    0.87614E+06         0.45310E+06         0.00000E+00
    0.00000E+00         0.00000E+00         0.26793E+06
 
    0.63228E+06         0.90955E+06         0.00000E+00
    0.90955E+06         0.51753E+06         0.00000E+00
    0.00000E+00         0.00000E+00         0.22996E+06
 
    0.41628E+06         0.92319E+06         0.00000E+00
    0.92319E+06         0.58178E+06         0.00000E+00
    0.00000E+00         0.00000E+00         0.19961E+06
 
    0.24334E+06         0.90863E+06         0.00000E+00
    0.90863E+06         0.64300E+06         0.00000E+00
    0.00000E+00         0.00000E+00         0.17727E+06
 
    0.51900E+07         0.13531E+06         0.00000E+00
    0.13531E+06        -0.45987E+05         0.00000E+00
    0.00000E+00         0.00000E+00         0.10288E+07
 
    0.47329E+07         0.33798E+06         0.00000E+00
    0.33798E+06        -0.38064E+05         0.00000E+00
    0.00000E+00         0.00000E+00         0.93896E+06
 
    0.42759E+07         0.46891E+06         0.00000E+00
    0.46891E+06        -0.26474E+05         0.00000E+00
    0.00000E+00         0.00000E+00         0.84989E+06
 
    0.38276E+07         0.55093E+06         0.00000E+00
    0.55093E+06        -0.14497E+05         0.00000E+00
    0.00000E+00         0.00000E+00         0.76261E+06
 
    0.33940E+07         0.60395E+06         0.00000E+00
    0.60395E+06        -0.38580E+04         0.00000E+00
    0.00000E+00         0.00000E+00         0.67802E+06
 
    0.29791E+07         0.64365E+06         0.00000E+00
    0.64365E+06         0.53735E+04         0.00000E+00
    0.00000E+00         0.00000E+00         0.59689E+06
 
    0.25847E+07         0.68110E+06         0.00000E+00
    0.68110E+06         0.14703E+05         0.00000E+00
    0.00000E+00         0.00000E+00         0.51988E+06
 
    0.22110E+07         0.72292E+06         0.00000E+00
    0.72292E+06         0.26809E+05         0.00000E+00
    0.00000E+00         0.00000E+00         0.44757E+06
 
    0.18572E+07         0.77175E+06         0.00000E+00
    0.77175E+06         0.44900E+05         0.00000E+00
    0.00000E+00         0.00000E+00         0.38041E+06
 
    0.15223E+07         0.82663E+06         0.00000E+00
    0.82663E+06         0.71960E+05         0.00000E+00
    0.00000E+00         0.00000E+00         0.31886E+06
 
    0.12066E+07         0.88351E+06         0.00000E+00
    0.88351E+06         0.11005E+06         0.00000E+00
    0.00000E+00         0.00000E+00         0.26333E+06
 
    0.91151E+06         0.93568E+06         0.00000E+00
    0.93568E+06         0.15980E+06         0.00000E+00
    0.00000E+00         0.00000E+00         0.21426E+06
 
    0.64053E+06         0.97447E+06         0.00000E+00
    0.97447E+06         0.22020E+06         0.00000E+00
    0.00000E+00         0.00000E+00         0.17215E+06
 
    0.39879E+06         0.99040E+06         0.00000E+00
    0.99040E+06         0.28866E+06         0.00000E+00
    0.00000E+00         0.00000E+00         0.13749E+06
 
    0.19278E+06         0.97484E+06         0.00000E+00
    0.97484E+06         0.36143E+06         0.00000E+00
    0.00000E+00         0.00000E+00         0.11084E+06
 
    0.54123E+07         0.13766E+06         0.00000E+00
    0.13766E+06        -0.75209E+05         0.00000E+00
    0.00000E+00         0.00000E+00         0.10674E+07
 
    0.48693E+07         0.34072E+06         0.00000E+00
    0.34072E+06        -0.77668E+05         0.00000E+00
    0.00000E+00         0.00000E+00         0.95833E+06
 
    0.43511E+07         0.46850E+06         0.00000E+00
    0.46850E+06        -0.86692E+05         0.00000E+00
    0.00000E+00         0.00000E+00         0.85289E+06
 
    0.38641E+07         0.54599E+06         0.00000E+00
    0.54599E+06        -0.10403E+06         0.00000E+00
    0.00000E+00         0.00000E+00         0.75202E+06
 
    0.34106E+07         0.59499E+06         0.00000E+00
    0.59499E+06        -0.12895E+06         0.00000E+00
    0.00000E+00         0.00000E+00         0.65634E+06
 
    0.29899E+07         0.63281E+06         0.00000E+00
    0.63281E+06        -0.15876E+06         0.00000E+00
    0.00000E+00         0.00000E+00         0.56624E+06
 
    0.25991E+07         0.67182E+06         0.00000E+00
    0.67182E+06        -0.18927E+06         0.00000E+00
    0.00000E+00         0.00000E+00         0.48196E+06
 
    0.22336E+07         0.71937E+06         0.00000E+00
    0.71937E+06        -0.21541E+06         0.00000E+00
    0.00000E+00         0.00000E+00         0.40364E+06
 
    0.18886E+07         0.77808E+06         0.00000E+00
    0.77808E+06        -0.23188E+06         0.00000E+00
    0.00000E+00         0.00000E+00         0.33134E+06
 
    0.15595E+07         0.84632E+06         0.00000E+00
    0.84632E+06        -0.23383E+06         0.00000E+00
    0.00000E+00         0.00000E+00         0.26514E+06
 
    0.12433E+07         0.91869E+06         0.00000E+00
    0.91869E+06        -0.21759E+06         0.00000E+00
    0.00000E+00         0.00000E+00         0.20514E+06
 
    0.93906E+06         0.98672E+06         0.00000E+00
    0.98672E+06        -0.18119E+06         0.00000E+00
    0.00000E+00         0.00000E+00         0.15157E+06
 
    0.64870E+06         0.10398E+07         0.00000E+00
    0.10398E+07        -0.12483E+06         0.00000E+00
    0.00000E+00         0.00000E+00         0.10477E+06
 
    0.37740E+06         0.10665E+07         0.00000E+00
    0.10665E+07        -0.51082E+05         0.00000E+00
    0.00000E+00         0.00000E+00         0.65263E+05
 
    0.13372E+06         0.10565E+07         0.00000E+00
    0.10565E+07         0.34994E+05         0.00000E+00
    0.00000E+00         0.00000E+00         0.33743E+05
 
    0.56195E+07         0.13443E+06         0.00000E+00
    0.13443E+06        -0.11759E+06         0.00000E+00
    0.00000E+00         0.00000E+00         0.11004E+07
 
    0.49859E+07         0.32654E+06         0.00000E+00
    0.32654E+06        -0.13215E+06         0.00000E+00
    0.00000E+00         0.00000E+00         0.97075E+06
 
    0.44050E+07         0.44091E+06         0.00000E+00
    0.44091E+06        -0.16474E+06         0.00000E+00
    0.00000E+00         0.00000E+00         0.84805E+06
 
    0.38802E+07         0.50585E+06         0.00000E+00
    0.50585E+06        -0.21532E+06         0.00000E+00
    0.00000E+00         0.00000E+00         0.73297E+06
 
    0.34096E+07         0.54558E+06         0.00000E+00
    0.54558E+06        -0.28056E+06         0.00000E+00
    0.00000E+00         0.00000E+00         0.62580E+06
 
    0.29873E+07         0.57920E+06         0.00000E+00
    0.57920E+06        -0.35479E+06         0.00000E+00
    0.00000E+00         0.00000E+00         0.52649E+06
 
    0.26050E+07         0.62018E+06         0.00000E+00
    0.62018E+06        -0.43087E+06         0.00000E+00
    0.00000E+00         0.00000E+00         0.43482E+06
 
    0.22530E+07         0.67631E+06         0.00000E+00
    0.67631E+06        -0.50091E+06         0.00000E+00
    0.00000E+00         0.00000E+00         0.35042E+06
 
    0.19216E+07         0.74995E+06         0.00000E+00
    0.74995E+06        -0.55708E+06         0.00000E+00
    0.00000E+00         0.00000E+00         0.27291E+06
 
    0.16019E+07         0.83849E+06         0.00000E+00
    0.83849E+06        -0.59228E+06         0.00000E+00
    0.00000E+00         0.00000E+00         0.20193E+06
 
    0.12872E+07         0.93491E+06         0.00000E+00
    0.93491E+06        -0.60088E+06         0.00000E+00
    0.00000E+00         0.00000E+00         0.13725E+06
 
    0.97351E+06         0.10286E+07         0.00000E+00
    0.10286E+07        -0.57941E+06         0.00000E+00
    0.00000E+00         0.00000E+00         0.78820E+05
 
    0.66121E+06         0.11062E+07         0.00000E+00
    0.11062E+07        -0.52711E+06         0.00000E+00
    0.00000E+00         0.00000E+00         0.26820E+05
 
    0.35529E+06         0.11534E+07         0.00000E+00
    0.11534E+07        -0.44656E+06         0.00000E+00
    0.00000E+00         0.00000E+00        -0.18256E+05
 
    0.66367E+05         0.11565E+07         0.00000E+00
    0.11565E+07        -0.34417E+06         0.00000E+00
    0.00000E+00         0.00000E+00        -0.55560E+05
 
    0.57933E+07         0.12447E+06         0.00000E+00
    0.12447E+06        -0.17910E+06         0.00000E+00
    0.00000E+00         0.00000E+00         0.11228E+07
 
    0.50651E+07         0.29262E+06         0.00000E+00
    0.29262E+06        -0.20798E+06         0.00000E+00
    0.00000E+00         0.00000E+00         0.97143E+06
 
    0.44218E+07         0.38219E+06         0.00000E+00
    0.38219E+06        -0.26793E+06         0.00000E+00
    0.00000E+00         0.00000E+00         0.83078E+06
 
    0.38628E+07         0.42571E+06         0.00000E+00
    0.42571E+06        -0.35662E+06         0.00000E+00
    0.00000E+00         0.00000E+00         0.70123E+06
 
    0.33807E+07         0.45035E+06         0.00000E+00
    0.45035E+06        -0.46774E+06         0.00000E+00
    0.00000E+00         0.00000E+00         0.58259E+06
 
    0.29639E+07         0.47712E+06         0.00000E+00
    0.47712E+06        -0.59237E+06         0.00000E+00
    0.00000E+00         0.00000E+00         0.47430E+06
 
    0.25978E+07         0.52047E+06         0.00000E+00
    0.52047E+06        -0.72005E+06         0.00000E+00
    0.00000E+00         0.00000E+00         0.37556E+06
 
    0.22671E+07         0.58840E+06         0.00000E+00
    0.58840E+06        -0.83978E+06         0.00000E+00
    0.00000E+00         0.00000E+00         0.28545E+06
 
    0.19562E+07         0.68271E+06         0.00000E+00
    0.68271E+06        -0.94087E+06         0.00000E+00
    0.00000E+00         0.00000E+00         0.20306E+06
 
    0.16513E+07         0.79954E+06         0.00000E+00
    0.79954E+06        -0.10137E+07         0.00000E+00
    0.00000E+00         0.00000E+00         0.12753E+06
 
    0.13414E+07         0.92989E+06         0.00000E+00
    0.92989E+06        -0.10503E+07         0.00000E+00
    0.00000E+00         0.00000E+00         0.58218E+05
 
    0.10191E+07         0.10605E+07         0.00000E+00
    0.10605E+07        -0.10454E+07         0.00000E+00
    0.00000E+00         0.00000E+00        -0.52770E+04
 
    0.68226E+06         0.11746E+07         0.00000E+00
    0.11746E+07        -0.99716E+06         0.00000E+00
    0.00000E+00         0.00000E+00        -0.62980E+05
 
    0.33540E+06         0.12537E+07         0.00000E+00
    0.12537E+07        -0.90776E+06         0.00000E+00
    0.00000E+00         0.00000E+00        -0.11447E+06
 
   -0.92889E+04         0.12794E+07         0.00000E+00
    0.12794E+07        -0.78476E+06         0.00000E+00
    0.00000E+00         0.00000E+00        -0.15881E+06
 
    0.59116E+07         0.10641E+06         0.00000E+00
    0.10641E+06        -0.26757E+06         0.00000E+00
    0.00000E+00         0.00000E+00         0.11288E+07
 
    0.50861E+07         0.23554E+06         0.00000E+00
    0.23554E+06        -0.31340E+06         0.00000E+00
    0.00000E+00         0.00000E+00         0.95454E+06
 
    0.43831E+07         0.28759E+06         0.00000E+00
    0.28759E+06        -0.40517E+06         0.00000E+00
    0.00000E+00         0.00000E+00         0.79559E+06
 
    0.37962E+07         0.30004E+06         0.00000E+00
    0.30004E+06        -0.53759E+06         0.00000E+00
    0.00000E+00         0.00000E+00         0.65173E+06
 
    0.33116E+07         0.30339E+06         0.00000E+00
    0.30339E+06        -0.70082E+06         0.00000E+00
    0.00000E+00         0.00000E+00         0.52215E+06
 
    0.29104E+07         0.32060E+06         0.00000E+00
    0.32060E+06        -0.88224E+06         0.00000E+00
    0.00000E+00         0.00000E+00         0.40563E+06
 
    0.25712E+07         0.36695E+06         0.00000E+00
    0.36695E+06        -0.10678E+07         0.00000E+00
    0.00000E+00         0.00000E+00         0.30070E+06
 
    0.22719E+07         0.45036E+06         0.00000E+00
    0.45036E+06        -0.12430E+07         0.00000E+00
    0.00000E+00         0.00000E+00         0.20576E+06
 
    0.19907E+07         0.57180E+06         0.00000E+00
    0.57180E+06        -0.13943E+07         0.00000E+00
    0.00000E+00         0.00000E+00         0.11927E+06
 
    0.17082E+07         0.72585E+06         0.00000E+00
    0.72585E+06        -0.15091E+07         0.00000E+00
    0.00000E+00         0.00000E+00         0.39810E+05
 
    0.14081E+07         0.90126E+06         0.00000E+00
    0.90126E+06        -0.15771E+07         0.00000E+00
    0.00000E+00         0.00000E+00        -0.33795E+05
 
    0.10789E+07         0.10816E+07         0.00000E+00
    0.10816E+07        -0.15907E+07         0.00000E+00
    0.00000E+00         0.00000E+00        -0.10235E+06
 
    0.71532E+06         0.12461E+07         0.00000E+00
    0.12461E+07        -0.15463E+07         0.00000E+00
    0.00000E+00         0.00000E+00        -0.16619E+06
 
    0.32018E+06         0.13711E+07         0.00000E+00
    0.13711E+07        -0.14455E+07         0.00000E+00
    0.00000E+00         0.00000E+00        -0.22506E+06
 
   -0.93577E+05         0.14316E+07         0.00000E+00
    0.14316E+07        -0.12964E+07         0.00000E+00
    0.00000E+00         0.00000E+00        -0.27800E+06
 
    0.59466E+07         0.78695E+05         0.00000E+00
    0.78695E+05        -0.39331E+06         0.00000E+00
    0.00000E+00         0.00000E+00         0.11107E+07
 
    0.50236E+07         0.15141E+06         0.00000E+00
    0.15141E+06        -0.45905E+06         0.00000E+00
    0.00000E+00         0.00000E+00         0.91290E+06
 
    0.42666E+07         0.15181E+06         0.00000E+00
    0.15181E+06        -0.58766E+06         0.00000E+00
    0.00000E+00         0.00000E+00         0.73579E+06
 
    0.36618E+07         0.12287E+06         0.00000E+00
    0.12287E+06        -0.76999E+06         0.00000E+00
    0.00000E+00         0.00000E+00         0.57836E+06
 
    0.31869E+07         0.98603E+05         0.00000E+00
    0.98603E+05        -0.99196E+06         0.00000E+00
    0.00000E+00         0.00000E+00         0.43899E+06
 
    0.28148E+07         0.10377E+06         0.00000E+00
    0.10377E+06        -0.12367E+07         0.00000E+00
    0.00000E+00         0.00000E+00         0.31561E+06
 
    0.25160E+07         0.15419E+06         0.00000E+00
    0.15419E+06        -0.14863E+07         0.00000E+00
    0.00000E+00         0.00000E+00         0.20595E+06
 
    0.22608E+07         0.25732E+06         0.00000E+00
    0.25732E+06        -0.17227E+07         0.00000E+00
    0.00000E+00         0.00000E+00         0.10763E+06
 
    0.20209E+07         0.41299E+06         0.00000E+00
    0.41299E+06        -0.19291E+07         0.00000E+00
    0.00000E+00         0.00000E+00         0.18353E+05
 
    0.17703E+07         0.61402E+06         0.00000E+00
    0.61402E+06        -0.20902E+07         0.00000E+00
    0.00000E+00         0.00000E+00        -0.63976E+05
 
    0.14871E+07         0.84670E+06         0.00000E+00
    0.84670E+06        -0.21928E+07         0.00000E+00
    0.00000E+00         0.00000E+00        -0.14115E+06
 
    0.11543E+07         0.10912E+07         0.00000E+00
    0.10912E+07        -0.22268E+07         0.00000E+00
    0.00000E+00         0.00000E+00        -0.21450E+06
 
    0.76243E+06         0.13222E+07         0.00000E+00
    0.13222E+07        -0.21864E+07         0.00000E+00
    0.00000E+00         0.00000E+00        -0.28479E+06
 
    0.31119E+06         0.15097E+07         0.00000E+00
    0.15097E+07        -0.20714E+07         0.00000E+00
    0.00000E+00         0.00000E+00        -0.35204E+06
 
   -0.18726E+06         0.16210E+07         0.00000E+00
    0.16210E+07        -0.18897E+07         0.00000E+00
    0.00000E+00         0.00000E+00        -0.41539E+06
 
    0.58650E+07         0.39641E+05         0.00000E+00
    0.39641E+05        -0.56976E+06         0.00000E+00
    0.00000E+00         0.00000E+00         0.10590E+07
 
    0.48472E+07         0.36058E+05         0.00000E+00
    0.36058E+05        -0.65867E+06         0.00000E+00
    0.00000E+00         0.00000E+00         0.83770E+06
 
    0.40459E+07        -0.30713E+05         0.00000E+00
   -0.30713E+05        -0.82959E+06         0.00000E+00
    0.00000E+00         0.00000E+00         0.64327E+06
 
    0.34370E+07        -0.11182E+06         0.00000E+00
   -0.11182E+06        -0.10684E+07         0.00000E+00
    0.00000E+00         0.00000E+00         0.47372E+06
 
    0.29879E+07        -0.16984E+06         0.00000E+00
   -0.16984E+06        -0.13558E+07         0.00000E+00
    0.00000E+00         0.00000E+00         0.32641E+06
 
    0.26615E+07        -0.17860E+06         0.00000E+00
   -0.17860E+06        -0.16701E+07         0.00000E+00
    0.00000E+00         0.00000E+00         0.19828E+06
 
    0.24194E+07        -0.12236E+06         0.00000E+00
   -0.12236E+06        -0.19892E+07         0.00000E+00
    0.00000E+00         0.00000E+00         0.86038E+05
 
    0.22237E+07         0.53643E+04         0.00000E+00
    0.53643E+04        -0.22916E+07         0.00000E+00
    0.00000E+00         0.00000E+00        -0.13582E+05
 
    0.20388E+07         0.20289E+06         0.00000E+00
    0.20289E+06        -0.25575E+07         0.00000E+00
    0.00000E+00         0.00000E+00        -0.10374E+06
 
    0.18319E+07         0.46118E+06         0.00000E+00
    0.46118E+06        -0.27686E+07         0.00000E+00
    0.00000E+00         0.00000E+00        -0.18735E+06
 
    0.15745E+07         0.76411E+06         0.00000E+00
    0.76411E+06        -0.29091E+07         0.00000E+00
    0.00000E+00         0.00000E+00        -0.26691E+06
 
    0.12436E+07         0.10886E+07         0.00000E+00
    0.10886E+07        -0.29657E+07         0.00000E+00
    0.00000E+00         0.00000E+00        -0.34442E+06
 
    0.82330E+06         0.14043E+07         0.00000E+00
    0.14043E+07        -0.29295E+07         0.00000E+00
    0.00000E+00         0.00000E+00        -0.42124E+06
 
    0.30849E+06         0.16745E+07         0.00000E+00
    0.16745E+07        -0.27976E+07         0.00000E+00
    0.00000E+00         0.00000E+00        -0.49782E+06
 
   -0.29178E+06         0.18567E+07         0.00000E+00
    0.18567E+07        -0.25761E+07         0.00000E+00
    0.00000E+00         0.00000E+00        -0.57358E+06
 
    0.56259E+07        -0.12558E+05         0.00000E+00
   -0.12558E+05        -0.81415E+06         0.00000E+00
    0.00000E+00         0.00000E+00         0.96235E+06
 
    0.45209E+07        -0.11489E+06         0.00000E+00
   -0.11489E+06        -0.92983E+06         0.00000E+00
    0.00000E+00         0.00000E+00         0.71822E+06
 
    0.36897E+07        -0.26555E+06         0.00000E+00
   -0.26555E+06        -0.11489E+07         0.00000E+00
    0.00000E+00         0.00000E+00         0.50816E+06
 
    0.30951E+07        -0.40964E+06         0.00000E+00
   -0.40964E+06        -0.14509E+07         0.00000E+00
    0.00000E+00         0.00000E+00         0.32885E+06
 
    0.26918E+07        -0.50676E+06         0.00000E+00
   -0.50676E+06        -0.18101E+07         0.00000E+00
    0.00000E+00         0.00000E+00         0.17635E+06
 
    0.24312E+07        -0.53023E+06         0.00000E+00
   -0.53023E+06        -0.21994E+07         0.00000E+00
    0.00000E+00         0.00000E+00         0.46362E+05
 
    0.22645E+07        -0.46538E+06         0.00000E+00
   -0.46538E+06        -0.25921E+07         0.00000E+00
    0.00000E+00         0.00000E+00        -0.65526E+05
 
    0.21454E+07        -0.30752E+06         0.00000E+00
   -0.30752E+06        -0.29637E+07         0.00000E+00
    0.00000E+00         0.00000E+00        -0.16366E+06
 
    0.20308E+07        -0.60256E+05         0.00000E+00
   -0.60256E+05        -0.32916E+07         0.00000E+00
    0.00000E+00         0.00000E+00        -0.25216E+06
 
    0.18812E+07         0.26555E+06         0.00000E+00
    0.26555E+06        -0.35555E+07         0.00000E+00
    0.00000E+00         0.00000E+00        -0.33485E+06
 
    0.16612E+07         0.65185E+06         0.00000E+00
    0.65185E+06        -0.37366E+07         0.00000E+00
    0.00000E+00         0.00000E+00        -0.41508E+06
 
    0.13399E+07         0.10727E+07         0.00000E+00
    0.10727E+07        -0.38183E+07         0.00000E+00
    0.00000E+00         0.00000E+00        -0.49568E+06
 
    0.89381E+06         0.14935E+07         0.00000E+00
    0.14935E+07        -0.37874E+07         0.00000E+00
    0.00000E+00         0.00000E+00        -0.57872E+06
 
    0.30976E+06         0.18699E+07         0.00000E+00
    0.18699E+07        -0.36366E+07         0.00000E+00
    0.00000E+00         0.00000E+00        -0.66538E+06
 
   -0.40954E+06         0.21489E+07         0.00000E+00
    0.21489E+07        -0.33684E+07         0.00000E+00
    0.00000E+00         0.00000E+00        -0.75559E+06
 
    0.51809E+07        -0.79789E+05         0.00000E+00
   -0.79789E+05        -0.11483E+07         0.00000E+00
    0.00000E+00         0.00000E+00         0.80653E+06
 
    0.40021E+07        -0.30586E+06         0.00000E+00
   -0.30586E+06        -0.12947E+07         0.00000E+00
    0.00000E+00         0.00000E+00         0.54148E+06
 
    0.31614E+07        -0.55792E+06         0.00000E+00
   -0.55792E+06        -0.15683E+07         0.00000E+00
    0.00000E+00         0.00000E+00         0.31861E+06
 
    0.26050E+07        -0.77512E+06         0.00000E+00
   -0.77512E+06        -0.19401E+07         0.00000E+00
    0.00000E+00         0.00000E+00         0.13298E+06
 
    0.22719E+07        -0.91506E+06         0.00000E+00
   -0.91506E+06        -0.23767E+07         0.00000E+00
    0.00000E+00         0.00000E+00        -0.20960E+05
 
    0.20997E+07        -0.95211E+06         0.00000E+00
   -0.95211E+06        -0.28444E+07         0.00000E+00
    0.00000E+00         0.00000E+00        -0.14895E+06
 
    0.20287E+07        -0.87435E+06         0.00000E+00
   -0.87435E+06        -0.33124E+07         0.00000E+00
    0.00000E+00         0.00000E+00        -0.25674E+06
 
    0.20041E+07        -0.68012E+06         0.00000E+00
   -0.68012E+06        -0.37533E+07         0.00000E+00
    0.00000E+00         0.00000E+00        -0.34983E+06
 
    0.19761E+07        -0.37545E+06         0.00000E+00
   -0.37545E+06        -0.41433E+07         0.00000E+00
    0.00000E+00         0.00000E+00        -0.43344E+06
 
    0.18988E+07         0.27284E+05         0.00000E+00
    0.27284E+05        -0.44607E+07         0.00000E+00
    0.00000E+00         0.00000E+00        -0.51237E+06
 
    0.17298E+07         0.50907E+06         0.00000E+00
    0.50907E+06        -0.46844E+07         0.00000E+00
    0.00000E+00         0.00000E+00        -0.59093E+06
 
    0.14296E+07         0.10426E+07         0.00000E+00
    0.10426E+07        -0.47942E+07         0.00000E+00
    0.00000E+00         0.00000E+00        -0.67291E+06
 
    0.96419E+06         0.15899E+07         0.00000E+00
    0.15899E+07        -0.47711E+07         0.00000E+00
    0.00000E+00         0.00000E+00        -0.76137E+06
 
    0.30898E+06         0.20999E+07         0.00000E+00
    0.20999E+07        -0.46011E+07         0.00000E+00
    0.00000E+00         0.00000E+00        -0.85843E+06
 
   -0.54447E+06         0.25078E+07         0.00000E+00
    0.25078E+07        -0.42802E+07         0.00000E+00
    0.00000E+00         0.00000E+00        -0.96493E+06
 
    0.44727E+07        -0.16403E+06         0.00000E+00
   -0.16403E+06        -0.15995E+07         0.00000E+00
    0.00000E+00         0.00000E+00         0.57465E+06
 
    0.32410E+07        -0.54124E+06         0.00000E+00
   -0.54124E+06        -0.17814E+07         0.00000E+00
    0.00000E+00         0.00000E+00         0.29193E+06
 
    0.24187E+07        -0.91237E+06         0.00000E+00
   -0.91237E+06        -0.21164E+07         0.00000E+00
    0.00000E+00         0.00000E+00         0.60467E+05
 
    0.19308E+07        -0.12109E+07         0.00000E+00
   -0.12109E+07        -0.25646E+07         0.00000E+00
    0.00000E+00         0.00000E+00        -0.12677E+06
 
    0.16964E+07        -0.13943E+07         0.00000E+00
   -0.13943E+07        -0.30825E+07         0.00000E+00
    0.00000E+00         0.00000E+00        -0.27721E+06
 
    0.16374E+07        -0.14408E+07         0.00000E+00
   -0.14408E+07        -0.36291E+07         0.00000E+00
    0.00000E+00         0.00000E+00        -0.39834E+06
 
    0.16826E+07        -0.13436E+07         0.00000E+00
   -0.13436E+07        -0.41695E+07         0.00000E+00
    0.00000E+00         0.00000E+00        -0.49738E+06
 
    0.17697E+07        -0.11061E+07         0.00000E+00
   -0.11061E+07        -0.46754E+07         0.00000E+00
    0.00000E+00         0.00000E+00        -0.58113E+06
 
    0.18438E+07        -0.73735E+06         0.00000E+00
   -0.73735E+06        -0.51233E+07         0.00000E+00
    0.00000E+00         0.00000E+00        -0.65590E+06
 
    0.18541E+07        -0.25049E+06         0.00000E+00
   -0.25049E+06        -0.54918E+07         0.00000E+00
    0.00000E+00         0.00000E+00        -0.72753E+06
 
    0.17519E+07         0.33628E+06         0.00000E+00
    0.33628E+06        -0.57588E+07         0.00000E+00
    0.00000E+00         0.00000E+00        -0.80137E+06
 
    0.14884E+07         0.99680E+06         0.00000E+00
    0.99680E+06        -0.59000E+07         0.00000E+00
    0.00000E+00         0.00000E+00        -0.88231E+06
 
    0.10164E+07         0.16923E+07         0.00000E+00
    0.16923E+07        -0.58894E+07         0.00000E+00
    0.00000E+00         0.00000E+00        -0.97461E+06
 
    0.29469E+06         0.23665E+07         0.00000E+00
    0.23665E+07        -0.57032E+07         0.00000E+00
    0.00000E+00         0.00000E+00        -0.10817E+07
 
   -0.70268E+06         0.29425E+07         0.00000E+00
    0.29425E+07        -0.53263E+07         0.00000E+00
    0.00000E+00         0.00000E+00        -0.12058E+07
 
    0.34336E+07        -0.26744E+06         0.00000E+00
   -0.26744E+06        -0.22016E+07         0.00000E+00
    0.00000E+00         0.00000E+00         0.24639E+06
 
    0.21799E+07        -0.82545E+06         0.00000E+00
   -0.82545E+06        -0.24248E+07         0.00000E+00
    0.00000E+00         0.00000E+00        -0.48978E+05
 
    0.14136E+07        -0.13323E+07         0.00000E+00
   -0.13323E+07        -0.28294E+07         0.00000E+00
    0.00000E+00         0.00000E+00        -0.28315E+06
 
    0.10318E+07        -0.17166E+07         0.00000E+00
   -0.17166E+07        -0.33602E+07         0.00000E+00
    0.00000E+00         0.00000E+00        -0.46569E+06
 
    0.92891E+06        -0.19391E+07         0.00000E+00
   -0.19391E+07        -0.39608E+07         0.00000E+00
    0.00000E+00         0.00000E+00        -0.60637E+06
 
    0.10084E+07        -0.19860E+07         0.00000E+00
   -0.19860E+07        -0.45818E+07         0.00000E+00
    0.00000E+00         0.00000E+00        -0.71467E+06
 
    0.11883E+07        -0.18600E+07         0.00000E+00
   -0.18600E+07        -0.51854E+07         0.00000E+00
    0.00000E+00         0.00000E+00        -0.79943E+06
 
    0.14009E+07        -0.15718E+07         0.00000E+00
   -0.15718E+07        -0.57448E+07         0.00000E+00
    0.00000E+00         0.00000E+00        -0.86878E+06
 
    0.15895E+07        -0.11343E+07         0.00000E+00
   -0.11343E+07        -0.62399E+07         0.00000E+00
    0.00000E+00         0.00000E+00        -0.93009E+06
 
    0.17016E+07        -0.56021E+06         0.00000E+00
   -0.56021E+06        -0.66526E+07         0.00000E+00
    0.00000E+00         0.00000E+00        -0.99020E+06
 
    0.16838E+07         0.13594E+06         0.00000E+00
    0.13594E+06        -0.69613E+07         0.00000E+00
    0.00000E+00         0.00000E+00        -0.10555E+07
 
    0.14779E+07         0.93321E+06         0.00000E+00
    0.93321E+06        -0.71382E+07         0.00000E+00
    0.00000E+00         0.00000E+00        -0.11321E+07
 
    0.10204E+07         0.17964E+07         0.00000E+00
    0.17964E+07        -0.71484E+07         0.00000E+00
    0.00000E+00         0.00000E+00        -0.12256E+07
 
    0.24755E+06         0.26676E+07         0.00000E+00
    0.26676E+07        -0.69540E+07         0.00000E+00
    0.00000E+00         0.00000E+00        -0.13413E+07
 
   -0.89338E+06         0.34591E+07         0.00000E+00
    0.34591E+07        -0.65231E+07         0.00000E+00
    0.00000E+00         0.00000E+00        -0.14833E+07
 
    0.19839E+07        -0.39255E+06         0.00000E+00
   -0.39255E+06        -0.29972E+07         0.00000E+00
    0.00000E+00         0.00000E+00        -0.20266E+06
 
    0.75204E+06        -0.11631E+07         0.00000E+00
   -0.11631E+07        -0.32694E+07         0.00000E+00
    0.00000E+00         0.00000E+00        -0.50346E+06
 
    0.91954E+05        -0.18194E+07         0.00000E+00
   -0.18194E+07        -0.37535E+07         0.00000E+00
    0.00000E+00         0.00000E+00        -0.73231E+06
 
   -0.13726E+06        -0.22873E+07         0.00000E+00
   -0.22873E+07        -0.43726E+07         0.00000E+00
    0.00000E+00         0.00000E+00        -0.90197E+06
 
   -0.72551E+05        -0.25363E+07         0.00000E+00
   -0.25363E+07        -0.50529E+07         0.00000E+00
    0.00000E+00         0.00000E+00        -0.10251E+07
 
    0.16910E+06        -0.25676E+07         0.00000E+00
   -0.25676E+07        -0.57362E+07         0.00000E+00
    0.00000E+00         0.00000E+00        -0.11134E+07
 
    0.49664E+06        -0.23994E+07         0.00000E+00
   -0.23994E+07        -0.63843E+07         0.00000E+00
    0.00000E+00         0.00000E+00        -0.11775E+07
 
    0.84186E+06        -0.20530E+07         0.00000E+00
   -0.20530E+07        -0.69757E+07         0.00000E+00
    0.00000E+00         0.00000E+00        -0.12268E+07
 
    0.11512E+07        -0.15458E+07         0.00000E+00
   -0.15458E+07        -0.74985E+07         0.00000E+00
    0.00000E+00         0.00000E+00        -0.12695E+07
 
    0.13756E+07        -0.88812E+06         0.00000E+00
   -0.88812E+06        -0.79416E+07         0.00000E+00
    0.00000E+00         0.00000E+00        -0.13132E+07
 
    0.14608E+07        -0.86634E+05         0.00000E+00
   -0.86634E+05        -0.82873E+07         0.00000E+00
    0.00000E+00         0.00000E+00        -0.13653E+07
 
    0.13397E+07         0.84891E+06         0.00000E+00
    0.84891E+06        -0.85050E+07         0.00000E+00
    0.00000E+00         0.00000E+00        -0.14331E+07
 
    0.92974E+06         0.18940E+07         0.00000E+00
    0.18940E+07        -0.85492E+07         0.00000E+00
    0.00000E+00         0.00000E+00        -0.15239E+07
 
    0.13701E+06         0.29955E+07         0.00000E+00
    0.29955E+07        -0.83628E+07         0.00000E+00
    0.00000E+00         0.00000E+00        -0.16452E+07
 
   -0.11302E+07         0.40579E+07         0.00000E+00
    0.40579E+07        -0.78886E+07         0.00000E+00
    0.00000E+00         0.00000E+00        -0.18038E+07
 
    0.28624E+05        -0.54267E+06         0.00000E+00
   -0.54267E+06        -0.40394E+07         0.00000E+00
    0.00000E+00         0.00000E+00        -0.80215E+06
 
   -0.11196E+07        -0.15592E+07         0.00000E+00
   -0.15592E+07        -0.43720E+07         0.00000E+00
    0.00000E+00         0.00000E+00        -0.10983E+07
 
   -0.16066E+07        -0.23729E+07         0.00000E+00
   -0.23729E+07        -0.49486E+07         0.00000E+00
    0.00000E+00         0.00000E+00        -0.13111E+07
 
   -0.16264E+07        -0.29105E+07         0.00000E+00
   -0.29105E+07        -0.56602E+07         0.00000E+00
    0.00000E+00         0.00000E+00        -0.14573E+07
 
   -0.13564E+07        -0.31608E+07         0.00000E+00
   -0.31608E+07        -0.64098E+07         0.00000E+00
    0.00000E+00         0.00000E+00        -0.15532E+07
 
   -0.93485E+06        -0.31514E+07         0.00000E+00
   -0.31514E+07        -0.71315E+07         0.00000E+00
    0.00000E+00         0.00000E+00        -0.16133E+07
 
   -0.45670E+06        -0.29234E+07         0.00000E+00
   -0.29234E+07        -0.77916E+07         0.00000E+00
    0.00000E+00         0.00000E+00        -0.16497E+07
 
    0.16849E+05        -0.25125E+07         0.00000E+00
   -0.25125E+07        -0.83804E+07         0.00000E+00
    0.00000E+00         0.00000E+00        -0.16727E+07
 
    0.44349E+06        -0.19403E+07         0.00000E+00
   -0.19403E+07        -0.88998E+07         0.00000E+00
    0.00000E+00         0.00000E+00        -0.16913E+07
 
    0.78440E+06        -0.12124E+07         0.00000E+00
   -0.12124E+07        -0.93510E+07         0.00000E+00
    0.00000E+00         0.00000E+00        -0.17133E+07
 
    0.99004E+06        -0.32213E+06         0.00000E+00
   -0.32213E+06        -0.97240E+07         0.00000E+00
    0.00000E+00         0.00000E+00        -0.17468E+07
 
    0.98787E+06         0.73998E+06         0.00000E+00
    0.73998E+06        -0.99884E+07         0.00000E+00
    0.00000E+00         0.00000E+00        -0.18001E+07
 
    0.67444E+06         0.19708E+07         0.00000E+00
    0.19708E+07        -0.10087E+08         0.00000E+00
    0.00000E+00         0.00000E+00        -0.18825E+07
 
   -0.83519E+05         0.33326E+07         0.00000E+00
    0.33326E+07        -0.99365E+07         0.00000E+00
    0.00000E+00         0.00000E+00        -0.20040E+07
 
   -0.14333E+07         0.47296E+07         0.00000E+00
    0.47296E+07        -0.94431E+07         0.00000E+00
    0.00000E+00         0.00000E+00        -0.21753E+07
 
   -0.25482E+07        -0.72269E+06         0.00000E+00
   -0.72269E+06        -0.53969E+07         0.00000E+00
    0.00000E+00         0.00000E+00        -0.15890E+07
 
   -0.35252E+07        -0.20200E+07         0.00000E+00
   -0.20200E+07        -0.58075E+07         0.00000E+00
    0.00000E+00         0.00000E+00        -0.18665E+07
 
   -0.37489E+07        -0.29870E+07         0.00000E+00
   -0.29870E+07        -0.64941E+07         0.00000E+00
    0.00000E+00         0.00000E+00        -0.20486E+07
 
   -0.34914E+07        -0.35613E+07         0.00000E+00
   -0.35613E+07        -0.72978E+07         0.00000E+00
    0.00000E+00         0.00000E+00        -0.21578E+07
 
   -0.29814E+07        -0.37700E+07         0.00000E+00
   -0.37700E+07        -0.80933E+07         0.00000E+00
    0.00000E+00         0.00000E+00        -0.22149E+07
 
   -0.23746E+07        -0.36837E+07         0.00000E+00
   -0.36837E+07        -0.88113E+07         0.00000E+00
    0.00000E+00         0.00000E+00        -0.22372E+07
 
   -0.17592E+07        -0.33754E+07         0.00000E+00
   -0.33754E+07        -0.94325E+07         0.00000E+00
    0.00000E+00         0.00000E+00        -0.22383E+07
 
   -0.11775E+07        -0.28972E+07         0.00000E+00
   -0.28972E+07        -0.99678E+07         0.00000E+00
    0.00000E+00         0.00000E+00        -0.22291E+07
 
   -0.65064E+06        -0.22733E+07         0.00000E+00
   -0.22733E+07        -0.10439E+08         0.00000E+00
    0.00000E+00         0.00000E+00        -0.22180E+07
 
   -0.19863E+06        -0.15012E+07         0.00000E+00
   -0.15012E+07        -0.10866E+08         0.00000E+00
    0.00000E+00         0.00000E+00        -0.22129E+07
 
    0.14179E+06        -0.55552E+06         0.00000E+00
   -0.55552E+06        -0.11250E+08         0.00000E+00
    0.00000E+00         0.00000E+00        -0.22216E+07
 
    0.29925E+06         0.60193E+06         0.00000E+00
    0.60193E+06        -0.11566E+08         0.00000E+00
    0.00000E+00         0.00000E+00        -0.22534E+07
 
    0.15105E+06         0.20042E+07         0.00000E+00
    0.20042E+07        -0.11747E+08         0.00000E+00
    0.00000E+00         0.00000E+00        -0.23191E+07
 
   -0.48427E+06         0.36472E+07         0.00000E+00
    0.36472E+07        -0.11678E+08         0.00000E+00
    0.00000E+00         0.00000E+00        -0.24324E+07
 
   -0.18322E+07         0.54493E+07         0.00000E+00
    0.54493E+07        -0.11210E+08         0.00000E+00
    0.00000E+00         0.00000E+00        -0.26085E+07
 
   -0.58936E+07        -0.94054E+06         0.00000E+00
   -0.94054E+06        -0.71618E+07         0.00000E+00
    0.00000E+00         0.00000E+00        -0.26111E+07
 
   -0.65717E+07        -0.25528E+07         0.00000E+00
   -0.25528E+07        -0.76787E+07         0.00000E+00
    0.00000E+00         0.00000E+00        -0.28501E+07
 
   -0.64097E+07        -0.36459E+07         0.00000E+00
   -0.36459E+07        -0.84974E+07         0.00000E+00
    0.00000E+00         0.00000E+00        -0.29814E+07
 
   -0.57984E+07        -0.41923E+07         0.00000E+00
   -0.41923E+07        -0.93809E+07         0.00000E+00
    0.00000E+00         0.00000E+00        -0.30359E+07
 
   -0.50267E+07        -0.42932E+07         0.00000E+00
   -0.42932E+07        -0.10173E+08         0.00000E+00
    0.00000E+00         0.00000E+00        -0.30400E+07
 
   -0.42526E+07        -0.40852E+07         0.00000E+00
   -0.40852E+07        -0.10818E+08         0.00000E+00
    0.00000E+00         0.00000E+00        -0.30141E+07
 
   -0.35361E+07        -0.36789E+07         0.00000E+00
   -0.36789E+07        -0.11327E+08         0.00000E+00
    0.00000E+00         0.00000E+00        -0.29726E+07
 
   -0.28854E+07        -0.31392E+07         0.00000E+00
   -0.31392E+07        -0.11742E+08         0.00000E+00
    0.00000E+00         0.00000E+00        -0.29254E+07
 
   -0.22906E+07        -0.24883E+07         0.00000E+00
   -0.24883E+07        -0.12109E+08         0.00000E+00
    0.00000E+00         0.00000E+00        -0.28799E+07
 
   -0.17450E+07        -0.17120E+07         0.00000E+00
   -0.17120E+07        -0.12467E+08         0.00000E+00
    0.00000E+00         0.00000E+00        -0.28424E+07
 
   -0.12627E+07        -0.76359E+06         0.00000E+00
   -0.76359E+06        -0.12837E+08         0.00000E+00
    0.00000E+00         0.00000E+00        -0.28199E+07
 
   -0.90148E+06         0.43193E+06         0.00000E+00
    0.43193E+06        -0.13205E+08         0.00000E+00
    0.00000E+00         0.00000E+00        -0.28213E+07
 
   -0.79317E+06         0.19624E+07         0.00000E+00
    0.19624E+07        -0.13504E+08         0.00000E+00
    0.00000E+00         0.00000E+00        -0.28593E+07
 
   -0.11720E+07         0.38872E+07         0.00000E+00
    0.38872E+07        -0.13583E+08         0.00000E+00
    0.00000E+00         0.00000E+00        -0.29510E+07
 
   -0.23715E+07         0.61677E+07         0.00000E+00
    0.61677E+07        -0.13219E+08         0.00000E+00
    0.00000E+00         0.00000E+00        -0.31181E+07
 
   -0.10205E+08        -0.12100E+07         0.00000E+00
   -0.12100E+07        -0.94651E+07         0.00000E+00
    0.00000E+00         0.00000E+00        -0.39341E+07
 
   -0.10390E+08        -0.31648E+07         0.00000E+00
   -0.31648E+07        -0.10136E+08         0.00000E+00
    0.00000E+00         0.00000E+00        -0.41053E+07
 
   -0.96763E+07        -0.43088E+07         0.00000E+00
   -0.43088E+07        -0.11109E+08         0.00000E+00
    0.00000E+00         0.00000E+00        -0.41570E+07
 
   -0.86395E+07        -0.47127E+07         0.00000E+00
   -0.47127E+07        -0.12025E+08         0.00000E+00
    0.00000E+00         0.00000E+00        -0.41329E+07
 
   -0.76193E+07        -0.46174E+07         0.00000E+00
   -0.46174E+07        -0.12717E+08         0.00000E+00
    0.00000E+00         0.00000E+00        -0.40672E+07
 
   -0.67327E+07        -0.42474E+07         0.00000E+00
   -0.42474E+07        -0.13180E+08         0.00000E+00
    0.00000E+00         0.00000E+00        -0.39826E+07
 
   -0.59779E+07        -0.37414E+07         0.00000E+00
   -0.37414E+07        -0.13483E+08         0.00000E+00
    0.00000E+00         0.00000E+00        -0.38921E+07
 
   -0.53137E+07        -0.31622E+07         0.00000E+00
   -0.31622E+07        -0.13701E+08         0.00000E+00
    0.00000E+00         0.00000E+00        -0.38029E+07
 
   -0.46951E+07        -0.25216E+07         0.00000E+00
   -0.25216E+07        -0.13902E+08         0.00000E+00
    0.00000E+00         0.00000E+00        -0.37195E+07
 
   -0.40854E+07        -0.17930E+07         0.00000E+00
   -0.17930E+07        -0.14141E+08         0.00000E+00
    0.00000E+00         0.00000E+00        -0.36453E+07
 
   -0.34666E+07        -0.91136E+06         0.00000E+00
   -0.91136E+06        -0.14458E+08         0.00000E+00
    0.00000E+00         0.00000E+00        -0.35850E+07
 
   -0.28626E+07         0.23503E+06         0.00000E+00
    0.23503E+06        -0.14867E+08         0.00000E+00
    0.00000E+00         0.00000E+00        -0.35460E+07
 
   -0.23868E+07         0.18062E+07         0.00000E+00
    0.18062E+07        -0.15318E+08         0.00000E+00
    0.00000E+00         0.00000E+00        -0.35409E+07
 
   -0.23141E+07         0.39717E+07         0.00000E+00
    0.39717E+07        -0.15639E+08         0.00000E+00
    0.00000E+00         0.00000E+00        -0.35907E+07
 
   -0.31216E+07         0.67963E+07         0.00000E+00
    0.67963E+07        -0.15504E+08         0.00000E+00
    0.00000E+00         0.00000E+00        -0.37251E+07
 
   -0.15772E+08        -0.15578E+07         0.00000E+00
   -0.15578E+07        -0.12516E+08         0.00000E+00
    0.00000E+00         0.00000E+00        -0.56577E+07
 
   -0.15146E+08        -0.38522E+07         0.00000E+00
   -0.38522E+07        -0.13420E+08         0.00000E+00
    0.00000E+00         0.00000E+00        -0.57134E+07
 
   -0.13668E+08        -0.48680E+07         0.00000E+00
   -0.48680E+07        -0.14541E+08         0.00000E+00
    0.00000E+00         0.00000E+00        -0.56418E+07
 
   -0.12184E+08        -0.49467E+07         0.00000E+00
   -0.49467E+07        -0.15349E+08         0.00000E+00
    0.00000E+00         0.00000E+00        -0.55067E+07
 
   -0.11003E+08        -0.45726E+07         0.00000E+00
   -0.45726E+07        -0.15757E+08         0.00000E+00
    0.00000E+00         0.00000E+00        -0.53520E+07
 
   -0.10105E+08        -0.40405E+07         0.00000E+00
   -0.40405E+07        -0.15894E+08         0.00000E+00
    0.00000E+00         0.00000E+00        -0.51999E+07
 
   -0.93912E+07        -0.34701E+07         0.00000E+00
   -0.34701E+07        -0.15891E+08         0.00000E+00
    0.00000E+00         0.00000E+00        -0.50564E+07
 
   -0.87721E+07        -0.28976E+07         0.00000E+00
   -0.28976E+07        -0.15844E+08         0.00000E+00
    0.00000E+00         0.00000E+00        -0.49233E+07
 
   -0.81738E+07        -0.23166E+07         0.00000E+00
   -0.23166E+07        -0.15828E+08         0.00000E+00
    0.00000E+00         0.00000E+00        -0.48003E+07
 
   -0.75344E+07        -0.16910E+07         0.00000E+00
   -0.16910E+07        -0.15900E+08         0.00000E+00
    0.00000E+00         0.00000E+00        -0.46870E+07
 
   -0.68004E+07        -0.94939E+06         0.00000E+00
   -0.94939E+06        -0.16117E+08         0.00000E+00
    0.00000E+00         0.00000E+00        -0.45835E+07
 
   -0.59363E+07         0.37362E+05         0.00000E+00
    0.37362E+05        -0.16526E+08         0.00000E+00
    0.00000E+00         0.00000E+00        -0.44924E+07
 
   -0.49810E+07         0.15013E+07         0.00000E+00
    0.15013E+07        -0.17139E+08         0.00000E+00
    0.00000E+00         0.00000E+00        -0.44240E+07
 
   -0.41882E+07         0.37834E+07         0.00000E+00
    0.37834E+07        -0.17812E+08         0.00000E+00
    0.00000E+00         0.00000E+00        -0.44001E+07
 
   -0.42023E+07         0.71799E+07         0.00000E+00
    0.71799E+07        -0.18108E+08         0.00000E+00
    0.00000E+00         0.00000E+00        -0.44620E+07
 
   -0.23065E+08        -0.20429E+07         0.00000E+00
   -0.20429E+07        -0.16683E+08         0.00000E+00
    0.00000E+00         0.00000E+00        -0.79496E+07
 
   -0.21077E+08        -0.45506E+07         0.00000E+00
   -0.45506E+07        -0.17979E+08         0.00000E+00
    0.00000E+00         0.00000E+00        -0.78113E+07
 
   -0.18632E+08        -0.50188E+07         0.00000E+00
   -0.50188E+07        -0.19068E+08         0.00000E+00
    0.00000E+00         0.00000E+00        -0.75399E+07
 
   -0.16853E+08        -0.45760E+07         0.00000E+00
   -0.45760E+07        -0.19378E+08         0.00000E+00
    0.00000E+00         0.00000E+00        -0.72462E+07
 
   -0.15702E+08        -0.39544E+07         0.00000E+00
   -0.39544E+07        -0.19242E+08         0.00000E+00
    0.00000E+00         0.00000E+00        -0.69887E+07
 
   -0.14907E+08        -0.33506E+07         0.00000E+00
   -0.33506E+07        -0.18914E+08         0.00000E+00
    0.00000E+00         0.00000E+00        -0.67642E+07
 
   -0.14297E+08        -0.28051E+07         0.00000E+00
   -0.28051E+07        -0.18537E+08         0.00000E+00
    0.00000E+00         0.00000E+00        -0.65669E+07
 
   -0.13757E+08        -0.23116E+07         0.00000E+00
   -0.23116E+07        -0.18193E+08         0.00000E+00
    0.00000E+00         0.00000E+00        -0.63900E+07
 
   -0.13201E+08        -0.18459E+07         0.00000E+00
   -0.18459E+07        -0.17937E+08         0.00000E+00
    0.00000E+00         0.00000E+00        -0.62277E+07
 
   -0.12554E+08        -0.13705E+07         0.00000E+00
   -0.13705E+07        -0.17818E+08         0.00000E+00
    0.00000E+00         0.00000E+00        -0.60743E+07
 
   -0.11732E+08        -0.82412E+06         0.00000E+00
   -0.82412E+06        -0.17889E+08         0.00000E+00
    0.00000E+00         0.00000E+00        -0.59241E+07
 
   -0.10632E+08        -0.94156E+05         0.00000E+00
   -0.94156E+05        -0.18226E+08         0.00000E+00
    0.00000E+00         0.00000E+00        -0.57716E+07
 
   -0.91334E+07         0.10551E+07         0.00000E+00
    0.10551E+07        -0.18925E+08         0.00000E+00
    0.00000E+00         0.00000E+00        -0.56117E+07
 
   -0.72931E+07         0.31694E+07         0.00000E+00
    0.31694E+07        -0.20040E+08         0.00000E+00
    0.00000E+00         0.00000E+00        -0.54667E+07
 
   -0.58387E+07         0.70418E+07         0.00000E+00
    0.70418E+07        -0.21069E+08         0.00000E+00
    0.00000E+00         0.00000E+00        -0.53815E+07
 
   -0.33047E+08        -0.28930E+07         0.00000E+00
   -0.28930E+07        -0.23156E+08         0.00000E+00
    0.00000E+00         0.00000E+00        -0.11241E+08
 
   -0.28700E+08        -0.46734E+07         0.00000E+00
   -0.46734E+07        -0.24697E+08         0.00000E+00
    0.00000E+00         0.00000E+00        -0.10680E+08
 
   -0.25501E+08        -0.40031E+07         0.00000E+00
   -0.40031E+07        -0.24637E+08         0.00000E+00
    0.00000E+00         0.00000E+00        -0.10028E+08
 
   -0.23866E+08        -0.32444E+07         0.00000E+00
   -0.32444E+07        -0.23912E+08         0.00000E+00
    0.00000E+00         0.00000E+00        -0.95557E+07
 
   -0.22883E+08        -0.26384E+07         0.00000E+00
   -0.26384E+07        -0.23048E+08         0.00000E+00
    0.00000E+00         0.00000E+00        -0.91862E+07
 
   -0.22216E+08        -0.21592E+07         0.00000E+00
   -0.21592E+07        -0.22216E+08         0.00000E+00
    0.00000E+00         0.00000E+00        -0.88864E+07
 
   -0.21688E+08        -0.17700E+07         0.00000E+00
   -0.17700E+07        -0.21478E+08         0.00000E+00
    0.00000E+00         0.00000E+00        -0.86331E+07
 
   -0.21191E+08        -0.14398E+07         0.00000E+00
   -0.14398E+07        -0.20863E+08         0.00000E+00
    0.00000E+00         0.00000E+00        -0.84109E+07
 
   -0.20644E+08        -0.11416E+07         0.00000E+00
   -0.11416E+07        -0.20393E+08         0.00000E+00
    0.00000E+00         0.00000E+00        -0.82074E+07
 
   -0.19965E+08        -0.84722E+06         0.00000E+00
   -0.84722E+06        -0.20092E+08         0.00000E+00
    0.00000E+00         0.00000E+00        -0.80114E+07
 
   -0.19051E+08        -0.51782E+06         0.00000E+00
   -0.51782E+06        -0.20002E+08         0.00000E+00
    0.00000E+00         0.00000E+00        -0.78106E+07
 
   -0.17741E+08        -0.83753E+05         0.00000E+00
   -0.83753E+05        -0.20199E+08         0.00000E+00
    0.00000E+00         0.00000E+00        -0.75882E+07
 
   -0.15773E+08         0.60870E+06         0.00000E+00
    0.60870E+06        -0.20825E+08         0.00000E+00
    0.00000E+00         0.00000E+00        -0.73197E+07
 
   -0.12614E+08         0.20136E+07         0.00000E+00
    0.20136E+07        -0.22157E+08         0.00000E+00
    0.00000E+00         0.00000E+00        -0.69542E+07
 
   -0.85460E+07         0.58289E+07         0.00000E+00
    0.58289E+07        -0.24415E+08         0.00000E+00
    0.00000E+00         0.00000E+00        -0.65922E+07
 
   -0.52413E+08        -0.31138E+07         0.00000E+00
   -0.31138E+07        -0.36022E+08         0.00000E+00
    0.00000E+00         0.00000E+00        -0.17687E+08
 
   -0.42855E+08        -0.21007E+07         0.00000E+00
   -0.21007E+07        -0.33160E+08         0.00000E+00
    0.00000E+00         0.00000E+00        -0.15203E+08
 
   -0.39295E+08        -0.13920E+07         0.00000E+00
   -0.13920E+07        -0.30860E+08         0.00000E+00
    0.00000E+00         0.00000E+00        -0.14031E+08
 
   -0.37278E+08        -0.10597E+07         0.00000E+00
   -0.10597E+07        -0.28997E+08         0.00000E+00
    0.00000E+00         0.00000E+00        -0.13255E+08
 
   -0.35986E+08        -0.83827E+06         0.00000E+00
   -0.83827E+06        -0.27482E+08         0.00000E+00
    0.00000E+00         0.00000E+00        -0.12694E+08
 
   -0.35054E+08        -0.67688E+06         0.00000E+00
   -0.67688E+06        -0.26235E+08         0.00000E+00
    0.00000E+00         0.00000E+00        -0.12258E+08
 
   -0.34295E+08        -0.54933E+06         0.00000E+00
   -0.54933E+06        -0.25213E+08         0.00000E+00
    0.00000E+00         0.00000E+00        -0.11901E+08
 
   -0.33589E+08        -0.44146E+06         0.00000E+00
   -0.44146E+06        -0.24386E+08         0.00000E+00
    0.00000E+00         0.00000E+00        -0.11595E+08
 
   -0.32838E+08        -0.34303E+06         0.00000E+00
   -0.34303E+06        -0.23743E+08         0.00000E+00
    0.00000E+00         0.00000E+00        -0.11316E+08
 
   -0.31945E+08        -0.24432E+06         0.00000E+00
   -0.24432E+06        -0.23289E+08         0.00000E+00
    0.00000E+00         0.00000E+00        -0.11047E+08
 
   -0.30778E+08        -0.13255E+06         0.00000E+00
   -0.13255E+06        -0.23048E+08         0.00000E+00
    0.00000E+00         0.00000E+00        -0.10765E+08
 
   -0.29137E+08         0.14145E+05         0.00000E+00
    0.14145E+05        -0.23079E+08         0.00000E+00
    0.00000E+00         0.00000E+00        -0.10443E+08
 
   -0.26644E+08         0.24843E+06         0.00000E+00
    0.24843E+06        -0.23513E+08         0.00000E+00
    0.00000E+00         0.00000E+00        -0.10031E+08
 
   -0.22486E+08         0.69181E+06         0.00000E+00
    0.69181E+06        -0.24679E+08         0.00000E+00
    0.00000E+00         0.00000E+00        -0.94331E+07
 
   -0.13647E+08         0.24523E+07         0.00000E+00
    0.24523E+07        -0.27640E+08         0.00000E+00
    0.00000E+00         0.00000E+00        -0.82574E+07
 
TENSORS stresstot double 
   -0.54810E+08        -0.22203E+06         0.00000E+00
   -0.22203E+06        -0.60146E+08         0.00000E+00
    0.00000E+00         0.00000E+00        -0.60819E+08
 
   -0.55828E+08        -0.18189E+06         0.00000E+00
   -0.18189E+06        -0.60458E+08         0.00000E+00
    0.00000E+00         0.00000E+00        -0.61089E+08
 
   -0.56347E+08        -0.11488E+06         0.00000E+00
   -0.11488E+06        -0.60713E+08         0.00000E+00
    0.00000E+00         0.00000E+00        -0.61249E+08
 
   -0.56745E+08        -0.69797E+05         0.00000E+00
   -0.69797E+05        -0.60879E+08         0.00000E+00
    0.00000E+00         0.00000E+00        -0.61366E+08
 
   -0.57105E+08        -0.38161E+05         0.00000E+00
   -0.38161E+05        -0.60977E+08         0.00000E+00
    0.00000E+00         0.00000E+00        -0.61462E+08
 
   -0.57452E+08        -0.15959E+05         0.00000E+00
   -0.15959E+05        -0.61025E+08         0.00000E+00
    0.00000E+00         0.00000E+00        -0.61544E+08
 
   -0.57796E+08        -0.26567E+03         0.00000E+00
   -0.26567E+03        -0.61036E+08         0.00000E+00
    0.00000E+00         0.00000E+00        -0.61619E+08
 
   -0.58139E+08         0.10866E+05         0.00000E+00
    0.10866E+05        -0.61023E+08         0.00000E+00
    0.00000E+00         0.00000E+00        -0.61688E+08
 
   -0.58482E+08         0.18827E+05         0.00000E+00
    0.18827E+05        -0.60990E+08         0.00000E+00
    0.00000E+00         0.00000E+00        -0.61753E+08
 
   -0.58826E+08         0.24750E+05         0.00000E+00
    0.24750E+05        -0.60944E+08         0.00000E+00
    0.00000E+00         0.00000E+00        -0.61816E+08
 
   -0.59178E+08         0.29890E+05         0.00000E+00
    0.29890E+05        -0.60887E+08         0.00000E+00
    0.00000E+00         0.00000E+00        -0.61878E+08
 
   -0.59551E+08         0.36316E+05         0.00000E+00
    0.36316E+05        -0.60818E+08         0.00000E+00
    0.00000E+00         0.00000E+00        -0.61941E+08
 
   -0.59979E+08         0.49589E+05         0.00000E+00
    0.49589E+05        -0.60729E+08         0.00000E+00
    0.00000E+00         0.00000E+00        -0.62012E+08
 
   -0.60547E+08         0.84960E+05         0.00000E+00
    0.84960E+05        -0.60589E+08         0.00000E+00
    0.00000E+00         0.00000E+00        -0.62101E+08
 
   -0.61617E+08         0.28564E+06         0.00000E+00
    0.28564E+06        -0.60262E+08         0.00000E+00
    0.00000E+00         0.00000E+00        -0.62252E+08
 
   -0.55129E+08        -0.26461E+06         0.00000E+00
   -0.26461E+06        -0.59961E+08         0.00000E+00
    0.00000E+00         0.00000E+00        -0.60097E+08
 
   -0.55746E+08        -0.36171E+06         0.00000E+00
   -0.36171E+06        -0.59946E+08         0.00000E+00
    0.00000E+00         0.00000E+00        -0.60216E+08
 
   -0.56265E+08        -0.26493E+06         0.00000E+00
   -0.26493E+06        -0.60013E+08         0.00000E+00
    0.00000E+00         0.00000E+00        -0.60332E+08
 
   -0.56681E+08        -0.16633E+06         0.00000E+00
   -0.16633E+06        -0.60078E+08         0.00000E+00
    0.00000E+00         0.00000E+00        -0.60428E+08
 
   -0.57057E+08        -0.88877E+05         0.00000E+00
   -0.88877E+05        -0.60118E+08         0.00000E+00
    0.00000E+00         0.00000E+00        -0.60511E+08
 
   -0.57417E+08        -0.31190E+05         0.00000E+00
   -0.31190E+05        -0.60129E+08         0.00000E+00
    0.00000E+00         0.00000E+00        -0.60586E+08
 
   -0.57771E+08         0.11043E+05         0.00000E+00
    0.11043E+05        -0.60117E+08         0.00000E+00
    0.00000E+00         0.00000E+00        -0.60655E+08
 
   -0.58121E+08         0.41828E+05         0.00000E+00
    0.41828E+05        -0.60086E+08         0.00000E+00
    0.00000E+00         0.00000E+00        -0.60719E+08
 
   -0.58468E+08         0.64515E+05         0.00000E+00
    0.64515E+05        -0.60040E+08         0.00000E+00
    0.00000E+00         0.00000E+00        -0.60779E+08
 
   -0.58815E+08         0.82212E+05         0.00000E+00
    0.82212E+05        -0.59981E+08         0.00000E+00
    0.00000E+00         0.00000E+00        -0.60837E+08
 
   -0.59166E+08         0.98726E+05         0.00000E+00
    0.98726E+05        -0.59910E+08         0.00000E+00
    0.00000E+00         0.00000E+00        -0.60893E+08
 
   -0.59532E+08         0.12083E+06         0.00000E+00
    0.12083E+06        -0.59825E+08         0.00000E+00
    0.00000E+00         0.00000E+00        -0.60950E+08
 
   -0.59934E+08         0.16470E+06         0.00000E+00
    0.16470E+06        -0.59715E+08         0.00000E+00
    0.00000E+00         0.00000E+00        -0.61008E+08
 
   -0.60419E+08         0.28181E+06         0.00000E+00
    0.28181E+06        -0.59555E+08         0.00000E+00
    0.00000E+00         0.00000E+00        -0.61072E+08
 
   -0.60915E+08         0.67919E+06         0.00000E+00
    0.67919E+06        -0.59315E+08         0.00000E+00
    0.00000E+00         0.00000E+00        -0.61123E+08
 
   -0.55447E+08        -0.16814E+06         0.00000E+00
   -0.16814E+06        -0.59951E+08         0.00000E+00
    0.00000E+00         0.00000E+00        -0.59661E+08
 
   -0.55743E+08        -0.30349E+06         0.00000E+00
   -0.30349E+06        -0.59836E+08         0.00000E+00
    0.00000E+00         0.00000E+00        -0.59696E+08
 
   -0.56171E+08        -0.26490E+06         0.00000E+00
   -0.26490E+06        -0.59747E+08         0.00000E+00
    0.00000E+00         0.00000E+00        -0.59762E+08
 
   -0.56589E+08        -0.17325E+06         0.00000E+00
   -0.17325E+06        -0.59698E+08         0.00000E+00
    0.00000E+00         0.00000E+00        -0.59834E+08
 
   -0.56982E+08        -0.84138E+05         0.00000E+00
   -0.84138E+05        -0.59662E+08         0.00000E+00
    0.00000E+00         0.00000E+00        -0.59905E+08
 
   -0.57360E+08        -0.10453E+05         0.00000E+00
   -0.10453E+05        -0.59624E+08         0.00000E+00
    0.00000E+00         0.00000E+00        -0.59971E+08
 
   -0.57727E+08         0.47121E+05         0.00000E+00
    0.47121E+05        -0.59579E+08         0.00000E+00
    0.00000E+00         0.00000E+00        -0.60035E+08
 
   -0.58088E+08         0.91285E+05         0.00000E+00
    0.91285E+05        -0.59523E+08         0.00000E+00
    0.00000E+00         0.00000E+00        -0.60095E+08
 
   -0.58443E+08         0.12565E+06         0.00000E+00
    0.12565E+06        -0.59458E+08         0.00000E+00
    0.00000E+00         0.00000E+00        -0.60152E+08
 
   -0.58793E+08         0.15449E+06         0.00000E+00
    0.15449E+06        -0.59383E+08         0.00000E+00
    0.00000E+00         0.00000E+00        -0.60207E+08
 
   -0.59141E+08         0.18382E+06         0.00000E+00
    0.18382E+06        -0.59297E+08         0.00000E+00
    0.00000E+00         0.00000E+00        -0.60258E+08
 
   -0.59490E+08         0.22443E+06         0.00000E+00
    0.22443E+06        -0.59196E+08         0.00000E+00
    0.00000E+00         0.00000E+00        -0.60307E+08
 
   -0.59845E+08         0.29965E+06         0.00000E+00
    0.29965E+06        -0.59073E+08         0.00000E+00
    0.00000E+00         0.00000E+00        -0.60352E+08
 
   -0.60180E+08         0.46703E+06         0.00000E+00
    0.46703E+06        -0.58925E+08         0.00000E+00
    0.00000E+00         0.00000E+00        -0.60389E+08
 
   -0.60370E+08         0.80833E+06         0.00000E+00
    0.80833E+06        -0.58816E+08         0.00000E+00
    0.00000E+00         0.00000E+00        -0.60404E+08
 
   -0.55645E+08        -0.73916E+05         0.00000E+00
   -0.73916E+05        -0.59960E+08         0.00000E+00
    0.00000E+00         0.00000E+00        -0.59409E+08
 
   -0.55782E+08        -0.16339E+06         0.00000E+00
   -0.16339E+06        -0.59843E+08         0.00000E+00
    0.00000E+00         0.00000E+00        -0.59412E+08
 
   -0.56114E+08        -0.15866E+06         0.00000E+00
   -0.15866E+06        -0.59703E+08         0.00000E+00
    0.00000E+00         0.00000E+00        -0.59449E+08
 
   -0.56505E+08        -0.97808E+05         0.00000E+00
   -0.97808E+05        -0.59585E+08         0.00000E+00
    0.00000E+00         0.00000E+00        -0.59503E+08
 
   -0.56902E+08        -0.21338E+05         0.00000E+00
   -0.21338E+05        -0.59491E+08         0.00000E+00
    0.00000E+00         0.00000E+00        -0.59562E+08
 
   -0.57293E+08         0.50591E+05         0.00000E+00
    0.50591E+05        -0.59408E+08         0.00000E+00
    0.00000E+00         0.00000E+00        -0.59623E+08
 
   -0.57674E+08         0.11175E+06         0.00000E+00
    0.11175E+06        -0.59330E+08         0.00000E+00
    0.00000E+00         0.00000E+00        -0.59682E+08
 
   -0.58046E+08         0.16199E+06         0.00000E+00
    0.16199E+06        -0.59251E+08         0.00000E+00
    0.00000E+00         0.00000E+00        -0.59740E+08
 
   -0.58408E+08         0.20392E+06         0.00000E+00
    0.20392E+06        -0.59168E+08         0.00000E+00
    0.00000E+00         0.00000E+00        -0.59795E+08
 
   -0.58760E+08         0.24193E+06         0.00000E+00
    0.24193E+06        -0.59078E+08         0.00000E+00
    0.00000E+00         0.00000E+00        -0.59846E+08
 
   -0.59101E+08         0.28296E+06         0.00000E+00
    0.28296E+06        -0.58979E+08         0.00000E+00
    0.00000E+00         0.00000E+00        -0.59894E+08
 
   -0.59428E+08         0.33881E+06         0.00000E+00
    0.33881E+06        -0.58870E+08         0.00000E+00
    0.00000E+00         0.00000E+00        -0.59937E+08
 
   -0.59728E+08         0.43060E+06         0.00000E+00
    0.43060E+06        -0.58752E+08         0.00000E+00
    0.00000E+00         0.00000E+00        -0.59972E+08
 
   -0.59956E+08         0.58756E+06         0.00000E+00
    0.58756E+06        -0.58642E+08         0.00000E+00
    0.00000E+00         0.00000E+00        -0.59995E+08
 
   -0.60019E+08         0.82375E+06         0.00000E+00
    0.82375E+06        -0.58595E+08         0.00000E+00
    0.00000E+00         0.00000E+00        -0.59998E+08
 
   -0.55716E+08        -0.32775E+04         0.00000E+00
   -0.32775E+04        -0.59973E+08         0.00000E+00
    0.00000E+00         0.00000E+00        -0.59269E+08
 
   -0.55808E+08        -0.23886E+05         0.00000E+00
   -0.23886E+05        -0.59877E+08         0.00000E+00
    0.00000E+00         0.00000E+00        -0.59268E+08
 
   -0.56082E+08        -0.16696E+05         0.00000E+00
   -0.16696E+05        -0.59740E+08         0.00000E+00
    0.00000E+00         0.00000E+00        -0.59295E+08
 
   -0.56443E+08         0.24226E+05         0.00000E+00
    0.24226E+05        -0.59603E+08         0.00000E+00
    0.00000E+00         0.00000E+00        -0.59339E+08
 
   -0.56834E+08         0.82658E+05         0.00000E+00
    0.82658E+05        -0.59479E+08         0.00000E+00
    0.00000E+00         0.00000E+00        -0.59392E+08
 
   -0.57230E+08         0.14401E+06         0.00000E+00
    0.14401E+06        -0.59369E+08         0.00000E+00
    0.00000E+00         0.00000E+00        -0.59448E+08
 
   -0.57620E+08         0.20086E+06         0.00000E+00
    0.20086E+06        -0.59268E+08         0.00000E+00
    0.00000E+00         0.00000E+00        -0.59505E+08
 
   -0.57999E+08         0.25125E+06         0.00000E+00
    0.25125E+06        -0.59171E+08         0.00000E+00
    0.00000E+00         0.00000E+00        -0.59561E+08
 
   -0.58366E+08         0.29654E+06         0.00000E+00
    0.29654E+06        -0.59074E+08         0.00000E+00
    0.00000E+00         0.00000E+00        -0.59614E+08
 
   -0.58718E+08         0.34042E+06         0.00000E+00
    0.34042E+06        -0.58975E+08         0.00000E+00
    0.00000E+00         0.00000E+00        -0.59664E+08
 
   -0.59050E+08         0.38901E+06         0.00000E+00
    0.38901E+06        -0.58870E+08         0.00000E+00
    0.00000E+00         0.00000E+00        -0.59709E+08
 
   -0.59356E+08         0.45166E+06         0.00000E+00
    0.45166E+06        -0.58762E+08         0.00000E+00
    0.00000E+00         0.00000E+00        -0.59748E+08
 
   -0.59614E+08         0.54031E+06         0.00000E+00
    0.54031E+06        -0.58658E+08         0.00000E+00
    0.00000E+00         0.00000E+00        -0.59778E+08
 
   -0.59788E+08         0.66321E+06         0.00000E+00
    0.66321E+06        -0.58576E+08         0.00000E+00
    0.00000E+00         0.00000E+00        -0.59796E+08
 
   -0.59821E+08         0.80749E+06         0.00000E+00
    0.80749E+06        -0.58552E+08         0.00000E+00
    0.00000E+00         0.00000E+00        -0.59798E+08
 
   -0.55686E+08         0.45114E+05         0.00000E+00
    0.45114E+05        -0.59982E+08         0.00000E+00
    0.00000E+00         0.00000E+00        -0.59188E+08
 
   -0.55798E+08         0.90368E+05         0.00000E+00
    0.90368E+05        -0.59911E+08         0.00000E+00
    0.00000E+00         0.00000E+00        -0.59197E+08
 
   -0.56054E+08         0.12048E+06         0.00000E+00
    0.12048E+06        -0.59796E+08         0.00000E+00
    0.00000E+00         0.00000E+00        -0.59224E+08
 
   -0.56396E+08         0.15827E+06         0.00000E+00
    0.15827E+06        -0.59666E+08         0.00000E+00
    0.00000E+00         0.00000E+00        -0.59266E+08
 
   -0.56779E+08         0.20497E+06         0.00000E+00
    0.20497E+06        -0.59538E+08         0.00000E+00
    0.00000E+00         0.00000E+00        -0.59317E+08
 
   -0.57175E+08         0.25533E+06         0.00000E+00
    0.25533E+06        -0.59419E+08         0.00000E+00
    0.00000E+00         0.00000E+00        -0.59372E+08
 
   -0.57568E+08         0.30494E+06         0.00000E+00
    0.30494E+06        -0.59308E+08         0.00000E+00
    0.00000E+00         0.00000E+00        -0.59428E+08
 
   -0.57952E+08         0.35209E+06         0.00000E+00
    0.35209E+06        -0.59203E+08         0.00000E+00
    0.00000E+00         0.00000E+00        -0.59483E+08
 
   -0.58321E+08         0.39744E+06         0.00000E+00
    0.39744E+06        -0.59100E+08         0.00000E+00
    0.00000E+00         0.00000E+00        -0.59536E+08
 
   -0.58671E+08         0.44356E+06         0.00000E+00
    0.44356E+06        -0.58998E+08         0.00000E+00
    0.00000E+00         0.00000E+00        -0.59585E+08
 
   -0.58996E+08         0.49456E+06         0.00000E+00
    0.49456E+06        -0.58894E+08         0.00000E+00
    0.00000E+00         0.00000E+00        -0.59629E+08
 
   -0.59285E+08         0.55558E+06         0.00000E+00
    0.55558E+06        -0.58793E+08         0.00000E+00
    0.00000E+00         0.00000E+00        -0.59667E+08
 
   -0.59520E+08         0.63057E+06         0.00000E+00
    0.63057E+06        -0.58702E+08         0.00000E+00
    0.00000E+00         0.00000E+00        -0.59695E+08
 
   -0.59676E+08         0.71667E+06         0.00000E+00
    0.71667E+06        -0.58636E+08         0.00000E+00
    0.00000E+00         0.00000E+00        -0.59713E+08
 
   -0.59724E+08         0.79491E+06         0.00000E+00
    0.79491E+06        -0.58614E+08         0.00000E+00
    0.00000E+00         0.00000E+00        -0.59718E+08
 
   -0.55581E+08         0.77779E+05         0.00000E+00
    0.77779E+05        -0.59988E+08         0.00000E+00
    0.00000E+00         0.00000E+00        -0.59133E+08
 
   -0.55744E+08         0.17735E+06         0.00000E+00
    0.17735E+06        -0.59936E+08         0.00000E+00
    0.00000E+00         0.00000E+00        -0.59155E+08
 
   -0.56012E+08         0.23708E+06         0.00000E+00
    0.23708E+06        -0.59846E+08         0.00000E+00
    0.00000E+00         0.00000E+00        -0.59191E+08
 
   -0.56353E+08         0.28310E+06         0.00000E+00
    0.28310E+06        -0.59735E+08         0.00000E+00
    0.00000E+00         0.00000E+00        -0.59236E+08
 
   -0.56733E+08         0.32629E+06         0.00000E+00
    0.32629E+06        -0.59619E+08         0.00000E+00
    0.00000E+00         0.00000E+00        -0.59289E+08
 
   -0.57128E+08         0.36940E+06         0.00000E+00
    0.36940E+06        -0.59506E+08         0.00000E+00
    0.00000E+00         0.00000E+00        -0.59345E+08
 
   -0.57523E+08         0.41245E+06         0.00000E+00
    0.41245E+06        -0.59398E+08         0.00000E+00
    0.00000E+00         0.00000E+00        -0.59402E+08
 
   -0.57908E+08         0.45542E+06         0.00000E+00
    0.45542E+06        -0.59295E+08         0.00000E+00
    0.00000E+00         0.00000E+00        -0.59459E+08
 
   -0.58276E+08         0.49903E+06         0.00000E+00
    0.49903E+06        -0.59195E+08         0.00000E+00
    0.00000E+00         0.00000E+00        -0.59512E+08
 
   -0.58623E+08         0.54472E+06         0.00000E+00
    0.54472E+06        -0.59097E+08         0.00000E+00
    0.00000E+00         0.00000E+00        -0.59562E+08
 
   -0.58942E+08         0.59433E+06         0.00000E+00
    0.59433E+06        -0.59000E+08         0.00000E+00
    0.00000E+00         0.00000E+00        -0.59606E+08
 
   -0.59222E+08         0.64912E+06         0.00000E+00
    0.64912E+06        -0.58908E+08         0.00000E+00
    0.00000E+00         0.00000E+00        -0.59643E+08
 
   -0.59450E+08         0.70781E+06         0.00000E+00
    0.70781E+06        -0.58826E+08         0.00000E+00
    0.00000E+00         0.00000E+00        -0.59673E+08
 
   -0.59610E+08         0.76314E+06         0.00000E+00
    0.76314E+06        -0.58766E+08         0.00000E+00
    0.00000E+00         0.00000E+00        -0.59692E+08
 
   -0.59687E+08         0.79825E+06         0.00000E+00
    0.79825E+06        -0.58737E+08         0.00000E+00
    0.00000E+00         0.00000E+00        -0.59702E+08
 
   -0.55423E+08         0.10046E+06         0.00000E+00
    0.10046E+06        -0.59991E+08         0.00000E+00
    0.00000E+00         0.00000E+00        -0.59085E+08
 
   -0.55651E+08         0.24180E+06         0.00000E+00
    0.24180E+06        -0.59954E+08         0.00000E+00
    0.00000E+00         0.00000E+00        -0.59123E+08
 
   -0.55952E+08         0.32954E+06         0.00000E+00
    0.32954E+06        -0.59886E+08         0.00000E+00
    0.00000E+00         0.00000E+00        -0.59169E+08
 
   -0.56306E+08         0.38838E+06         0.00000E+00
    0.38838E+06        -0.59799E+08         0.00000E+00
    0.00000E+00         0.00000E+00        -0.59223E+08
 
   -0.56690E+08         0.43366E+06         0.00000E+00
    0.43366E+06        -0.59703E+08         0.00000E+00
    0.00000E+00         0.00000E+00        -0.59280E+08
 
   -0.57087E+08         0.47361E+06         0.00000E+00
    0.47361E+06        -0.59606E+08         0.00000E+00
    0.00000E+00         0.00000E+00        -0.59340E+08
 
   -0.57482E+08         0.51233E+06         0.00000E+00
    0.51233E+06        -0.59512E+08         0.00000E+00
    0.00000E+00         0.00000E+00        -0.59400E+08
 
   -0.57866E+08         0.55195E+06         0.00000E+00
    0.55195E+06        -0.59421E+08         0.00000E+00
    0.00000E+00         0.00000E+00        -0.59459E+08
 
   -0.58233E+08         0.59367E+06         0.00000E+00
    0.59367E+06        -0.59332E+08         0.00000E+00
    0.00000E+00         0.00000E+00        -0.59514E+08
 
   -0.58577E+08         0.63812E+06         0.00000E+00
    0.63812E+06        -0.59244E+08         0.00000E+00
    0.00000E+00         0.00000E+00        -0.59566E+08
 
   -0.58892E+08         0.68513E+06         0.00000E+00
    0.68513E+06        -0.59157E+08         0.00000E+00
    0.00000E+00         0.00000E+00        -0.59611E+08
 
   -0.59170E+08         0.73311E+06         0.00000E+00
    0.73311E+06        -0.59074E+08         0.00000E+00
    0.00000E+00         0.00000E+00        -0.59650E+08
 
   -0.59401E+08         0.77780E+06         0.00000E+00
    0.77780E+06        -0.59001E+08         0.00000E+00
    0.00000E+00         0.00000E+00        -0.59682E+08
 
   -0.59575E+08         0.81086E+06         0.00000E+00
    0.81086E+06        -0.58941E+08         0.00000E+00
    0.00000E+00         0.00000E+00        -0.59705E+08
 
   -0.59685E+08         0.81934E+06         0.00000E+00
    0.81934E+06        -0.58902E+08         0.00000E+00
    0.00000E+00         0.00000E+00        -0.59719E+08
 
   -0.55226E+08         0.11672E+06         0.00000E+00
    0.11672E+06        -0.59994E+08         0.00000E+00
    0.00000E+00         0.00000E+00        -0.59036E+08
 
   -0.55526E+08         0.28850E+06         0.00000E+00
    0.28850E+06        -0.59967E+08         0.00000E+00
    0.00000E+00         0.00000E+00        -0.59090E+08
 
   -0.55872E+08         0.39854E+06         0.00000E+00
    0.39854E+06        -0.59919E+08         0.00000E+00
    0.00000E+00         0.00000E+00        -0.59150E+08
 
   -0.56251E+08         0.46961E+06         0.00000E+00
    0.46961E+06        -0.59856E+08         0.00000E+00
    0.00000E+00         0.00000E+00        -0.59213E+08
 
   -0.56648E+08         0.51905E+06         0.00000E+00
    0.51905E+06        -0.59785E+08         0.00000E+00
    0.00000E+00         0.00000E+00        -0.59278E+08
 
   -0.57049E+08         0.55853E+06         0.00000E+00
    0.55853E+06        -0.59713E+08         0.00000E+00
    0.00000E+00         0.00000E+00        -0.59344E+08
 
   -0.57444E+08         0.59527E+06         0.00000E+00
    0.59527E+06        -0.59640E+08         0.00000E+00
    0.00000E+00         0.00000E+00        -0.59409E+08
 
   -0.57826E+08         0.63332E+06         0.00000E+00
    0.63332E+06        -0.59569E+08         0.00000E+00
    0.00000E+00         0.00000E+00        -0.59471E+08
 
   -0.58190E+08         0.67452E+06         0.00000E+00
    0.67452E+06        -0.59498E+08         0.00000E+00
    0.00000E+00         0.00000E+00        -0.59529E+08
 
   -0.58531E+08         0.71891E+06         0.00000E+00
    0.71891E+06        -0.59426E+08         0.00000E+00
    0.00000E+00         0.00000E+00        -0.59583E+08
 
   -0.58845E+08         0.76481E+06         0.00000E+00
    0.76481E+06        -0.59352E+08         0.00000E+00
    0.00000E+00         0.00000E+00        -0.59631E+08
 
   -0.59126E+08         0.80860E+06         0.00000E+00
    0.80860E+06        -0.59280E+08         0.00000E+00
    0.00000E+00         0.00000E+00        -0.59673E+08
 
   -0.59367E+08         0.84435E+06         0.00000E+00
    0.84435E+06        -0.59211E+08         0.00000E+00
    0.00000E+00         0.00000E+00        -0.59708E+08
 
   -0.59560E+08         0.86367E+06         0.00000E+00
    0.86367E+06        -0.59150E+08         0.00000E+00
    0.00000E+00         0.00000E+00        -0.59734E+08
 
   -0.59702E+08         0.85666E+06         0.00000E+00
    0.85666E+06        -0.59100E+08         0.00000E+00
    0.00000E+00         0.00000E+00        -0.59752E+08
 
   -0.55003E+08         0.12820E+06         0.00000E+00
    0.12820E+06        -0.59996E+08         0.00000E+00
    0.00000E+00         0.00000E+00        -0.58982E+08
 
   -0.55379E+08         0.32030E+06         0.00000E+00
    0.32030E+06        -0.59979E+08         0.00000E+00
    0.00000E+00         0.00000E+00        -0.59054E+08
 
   -0.55778E+08         0.44505E+06         0.00000E+00
    0.44505E+06        -0.59949E+08         0.00000E+00
    0.00000E+00         0.00000E+00        -0.59128E+08
 
   -0.56190E+08         0.52451E+06         0.00000E+00
    0.52451E+06        -0.59910E+08         0.00000E+00
    0.00000E+00         0.00000E+00        -0.59203E+08
 
   -0.56604E+08         0.57722E+06         0.00000E+00
    0.57722E+06        -0.59868E+08         0.00000E+00
    0.00000E+00         0.00000E+00        -0.59277E+08
 
   -0.57012E+08         0.61712E+06         0.00000E+00
    0.61712E+06        -0.59825E+08         0.00000E+00
    0.00000E+00         0.00000E+00        -0.59350E+08
 
   -0.57407E+08         0.65365E+06         0.00000E+00
    0.65365E+06        -0.59782E+08         0.00000E+00
    0.00000E+00         0.00000E+00        -0.59421E+08
 
   -0.57786E+08         0.69237E+06         0.00000E+00
    0.69237E+06        -0.59737E+08         0.00000E+00
    0.00000E+00         0.00000E+00        -0.59488E+08
 
   -0.58145E+08         0.73562E+06         0.00000E+00
    0.73562E+06        -0.59690E+08         0.00000E+00
    0.00000E+00         0.00000E+00        -0.59550E+08
 
   -0.58484E+08         0.78298E+06         0.00000E+00
    0.78298E+06        -0.59638E+08         0.00000E+00
    0.00000E+00         0.00000E+00        -0.59608E+08
 
   -0.58799E+08         0.83155E+06         0.00000E+00
    0.83155E+06        -0.59581E+08         0.00000E+00
    0.00000E+00         0.00000E+00        -0.59659E+08
 
   -0.59086E+08         0.87614E+06         0.00000E+00
    0.87614E+06        -0.59519E+08         0.00000E+00
    0.00000E+00         0.00000E+00        -0.59705E+08
 
   -0.59340E+08         0.90955E+06         0.00000E+00
    0.90955E+06        -0.59455E+08         0.00000E+00
    0.00000E+00         0.00000E+00        -0.59743E+08
 
   -0.59556E+08         0.92319E+06         0.00000E+00
    0.92319E+06        -0.59391E+08         0.00000E+00
    0.00000E+00         0.00000E+00        -0.59773E+08
 
   -0.59729E+08         0.90863E+06         0.00000E+00
    0.90863E+06        -0.59330E+08         0.00000E+00
    0.00000E+00         0.00000E+00        -0.59795E+08
 
   -0.54762E+08         0.13531E+06         0.00000E+00
    0.13531E+06        -0.59998E+08         0.00000E+00
    0.00000E+00         0.00000E+00        -0.58923E+08
 
   -0.55219E+08         0.33798E+06         0.00000E+00
    0.33798E+06        -0.59990E+08         0.00000E+00
    0.00000E+00         0.00000E+00        -0.59013E+08
 
   -0.55676E+08         0.46891E+06         0.00000E+00
    0.46891E+06        -0.59979E+08         0.00000E+00
    0.00000E+00         0.00000E+00        -0.59102E+08
 
   -0.56125E+08         0.55093E+06         0.00000E+00
    0.55093E+06        -0.59967E+08         0.00000E+00
    0.00000E+00         0.00000E+00        -0.59190E+08
 
   -0.56559E+08         0.60395E+06         0.00000E+00
    0.60395E+06        -0.59957E+08         0.00000E+00
    0.00000E+00         0.00000E+00        -0.59275E+08
 
   -0.56974E+08         0.64365E+06         0.00000E+00
    0.64365E+06        -0.59948E+08         0.00000E+00
    0.00000E+00         0.00000E+00        -0.59356E+08
 
   -0.57369E+08         0.68110E+06         0.00000E+00
    0.68110E+06        -0.59939E+08         0.00000E+00
    0.00000E+00         0.00000E+00        -0.59434E+08
 
   -0.57743E+08         0.72292E+06         0.00000E+00
    0.72292E+06        -0.59927E+08         0.00000E+00
    0.00000E+00         0.00000E+00        -0.59506E+08
 
   -0.58097E+08         0.77175E+06         0.00000E+00
    0.77175E+06        -0.59909E+08         0.00000E+00
    0.00000E+00         0.00000E+00        -0.59574E+08
 
   -0.58432E+08         0.82663E+06         0.00000E+00
    0.82663E+06        -0.59882E+08         0.00000E+00
    0.00000E+00         0.00000E+00        -0.59635E+08
 
   -0.58748E+08         0.88351E+06         0.00000E+00
    0.88351E+06        -0.59844E+08         0.00000E+00
    0.00000E+00         0.00000E+00        -0.59691E+08
 
   -0.59043E+08         0.93568E+06         0.00000E+00
    0.93568E+06        -0.59795E+08         0.00000E+00
    0.00000E+00         0.00000E+00        -0.59740E+08
 
   -0.59314E+08         0.97447E+06         0.00000E+00
    0.97447E+06        -0.59734E+08         0.00000E+00
    0.00000E+00         0.00000E+00        -0.59782E+08
 
   -0.59556E+08         0.99040E+06         0.00000E+00
    0.99040E+06        -0.59666E+08         0.00000E+00
    0.00000E+00         0.00000E+00        -0.59817E+08
 
   -0.59762E+08         0.97484E+06         0.00000E+00
    0.97484E+06        -0.59593E+08         0.00000E+00
    0.00000E+00         0.00000E+00        -0.59844E+08
 
   -0.54513E+08         0.13766E+06         0.00000E+00
    0.13766E+06        -0.60000E+08         0.00000E+00
    0.00000E+00         0.00000E+00        -0.58858E+08
 
   -0.55056E+08         0.34072E+06         0.00000E+00
    0.34072E+06        -0.60003E+08         0.00000E+00
    0.00000E+00         0.00000E+00        -0.58967E+08
 
   -0.55575E+08         0.46850E+06         0.00000E+00
    0.46850E+06        -0.60012E+08         0.00000E+00
    0.00000E+00         0.00000E+00        -0.59073E+08
 
   -0.56062E+08         0.54599E+06         0.00000E+00
    0.54599E+06        -0.60030E+08         0.00000E+00
    0.00000E+00         0.00000E+00        -0.59174E+08
 
   -0.56516E+08         0.59499E+06         0.00000E+00
    0.59499E+06        -0.60055E+08         0.00000E+00
    0.00000E+00         0.00000E+00        -0.59270E+08
 
   -0.56937E+08         0.63281E+06         0.00000E+00
    0.63281E+06        -0.60086E+08         0.00000E+00
    0.00000E+00         0.00000E+00        -0.59361E+08
 
   -0.57328E+08         0.67182E+06         0.00000E+00
    0.67182E+06        -0.60116E+08         0.00000E+00
    0.00000E+00         0.00000E+00        -0.59445E+08
 
   -0.57694E+08         0.71937E+06         0.00000E+00
    0.71937E+06        -0.60143E+08         0.00000E+00
    0.00000E+00         0.00000E+00        -0.59524E+08
 
   -0.58039E+08         0.77808E+06         0.00000E+00
    0.77808E+06        -0.60159E+08         0.00000E+00
    0.00000E+00         0.00000E+00        -0.59596E+08
 
   -0.58368E+08         0.84632E+06         0.00000E+00
    0.84632E+06        -0.60161E+08         0.00000E+00
    0.00000E+00         0.00000E+00        -0.59662E+08
 
   -0.58684E+08         0.91869E+06         0.00000E+00
    0.91869E+06        -0.60145E+08         0.00000E+00
    0.00000E+00         0.00000E+00        -0.59723E+08
 
   -0.58989E+08         0.98672E+06         0.00000E+00
    0.98672E+06        -0.60109E+08         0.00000E+00
    0.00000E+00         0.00000E+00        -0.59776E+08
 
   -0.59279E+08         0.10398E+07         0.00000E+00
    0.10398E+07        -0.60053E+08         0.00000E+00
    0.00000E+00         0.00000E+00        -0.59823E+08
 
   -0.59551E+08         0.10665E+07         0.00000E+00
    0.10665E+07        -0.59979E+08         0.00000E+00
    0.00000E+00         0.00000E+00        -0.59863E+08
 
   -0.59794E+08         0.10565E+07         0.00000E+00
    0.10565E+07        -0.59893E+08         0.00000E+00
    0.00000E+00         0.00000E+00        -0.59894E+08
 
   -0.54266E+08         0.13443E+06         0.00000E+00
    0.13443E+06        -0.60003E+08         0.00000E+00
    0.00000E+00         0.00000E+00        -0.58785E+08
 
   -0.54900E+08         0.32654E+06         0.00000E+00
    0.32654E+06        -0.60018E+08         0.00000E+00
    0.00000E+00         0.00000E+00        -0.58915E+08
 
   -0.55481E+08         0.44091E+06         0.00000E+00
    0.44091E+06        -0.60051E+08         0.00000E+00
    0.00000E+00         0.00000E+00        -0.59038E+08
 
   -0.56007E+08         0.50585E+06         0.00000E+00
    0.50585E+06        -0.60102E+08         0.00000E+00
    0.00000E+00         0.00000E+00        -0.59154E+08
 
   -0.56478E+08         0.54558E+06         0.00000E+00
    0.54558E+06        -0.60168E+08         0.00000E+00
    0.00000E+00         0.00000E+00        -0.59261E+08
 
   -0.56900E+08         0.57920E+06         0.00000E+00
    0.57920E+06        -0.60242E+08         0.00000E+00
    0.00000E+00         0.00000E+00        -0.59361E+08
 
   -0.57283E+08         0.62018E+06         0.00000E+00
    0.62018E+06        -0.60319E+08         0.00000E+00
    0.00000E+00         0.00000E+00        -0.59453E+08
 
   -0.57635E+08         0.67631E+06         0.00000E+00
    0.67631E+06        -0.60389E+08         0.00000E+00
    0.00000E+00         0.00000E+00        -0.59537E+08
 
   -0.57966E+08         0.74995E+06         0.00000E+00
    0.74995E+06        -0.60445E+08         0.00000E+00
    0.00000E+00         0.00000E+00        -0.59615E+08
 
   -0.58286E+08         0.83849E+06         0.00000E+00
    0.83849E+06        -0.60480E+08         0.00000E+00
    0.00000E+00         0.00000E+00        -0.59686E+08
 
   -0.58601E+08         0.93491E+06         0.00000E+00
    0.93491E+06        -0.60489E+08         0.00000E+00
    0.00000E+00         0.00000E+00        -0.59751E+08
 
   -0.58914E+08         0.10286E+07         0.00000E+00
    0.10286E+07        -0.60467E+08         0.00000E+00
    0.00000E+00         0.00000E+00        -0.59809E+08
 
   -0.59227E+08         0.11062E+07         0.00000E+00
    0.11062E+07        -0.60415E+08         0.00000E+00
    0.00000E+00         0.00000E+00        -0.59861E+08
 
   -0.59533E+08         0.11534E+07         0.00000E+00
    0.11534E+07        -0.60335E+08         0.00000E+00
    0.00000E+00         0.00000E+00        -0.59906E+08
 
   -0.59822E+08         0.11565E+07         0.00000E+00
    0.11565E+07        -0.60232E+08         0.00000E+00
    0.00000E+00         0.00000E+00        -0.59944E+08
 
   -0.54034E+08         0.12447E+06         0.00000E+00
    0.12447E+06        -0.60006E+08         0.00000E+00
    0.00000E+00         0.00000E+00        -0.58704E+08
 
   -0.54762E+08         0.29262E+06         0.00000E+00
    0.29262E+06        -0.60036E+08         0.00000E+00
    0.00000E+00         0.00000E+00        -0.58856E+08
 
   -0.55406E+08         0.38219E+06         0.00000E+00
    0.38219E+06        -0.60096E+08         0.00000E+00
    0.00000E+00         0.00000E+00        -0.58997E+08
 
   -0.55966E+08         0.42571E+06         0.00000E+00
    0.42571E+06        -0.60185E+08         0.00000E+00
    0.00000E+00         0.00000E+00        -0.59128E+08
 
   -0.56449E+08         0.45035E+06         0.00000E+00
    0.45035E+06        -0.60297E+08         0.00000E+00
    0.00000E+00         0.00000E+00        -0.59247E+08
 
   -0.56866E+08         0.47712E+06         0.00000E+00
    0.47712E+06        -0.60422E+08         0.00000E+00
    0.00000E+00         0.00000E+00        -0.59355E+08
 
   -0.57231E+08         0.52047E+06         0.00000E+00
    0.52047E+06        -0.60549E+08         0.00000E+00
    0.00000E+00         0.00000E+00        -0.59454E+08
 
   -0.57562E+08         0.58840E+06         0.00000E+00
    0.58840E+06        -0.60669E+08         0.00000E+00
    0.00000E+00         0.00000E+00        -0.59544E+08
 
   -0.57872E+08         0.68271E+06         0.00000E+00
    0.68271E+06        -0.60769E+08         0.00000E+00
    0.00000E+00         0.00000E+00        -0.59626E+08
 
   -0.58177E+08         0.79954E+06         0.00000E+00
    0.79954E+06        -0.60842E+08         0.00000E+00
    0.00000E+00         0.00000E+00        -0.59701E+08
 
   -0.58487E+08         0.92989E+06         0.00000E+00
    0.92989E+06        -0.60878E+08         0.00000E+00
    0.00000E+00         0.00000E+00        -0.59770E+08
 
   -0.58809E+08         0.10605E+07         0.00000E+00
    0.10605E+07        -0.60873E+08         0.00000E+00
    0.00000E+00         0.00000E+00        -0.59833E+08
 
   -0.59146E+08         0.11746E+07         0.00000E+00
    0.11746E+07        -0.60825E+08         0.00000E+00
    0.00000E+00         0.00000E+00        -0.59891E+08
 
   -0.59493E+08         0.12537E+07         0.00000E+00
    0.12537E+07        -0.60736E+08         0.00000E+00
    0.00000E+00         0.00000E+00        -0.59942E+08
 
   -0.59837E+08         0.12794E+07         0.00000E+00
    0.12794E+07        -0.60613E+08         0.00000E+00
    0.00000E+00         0.00000E+00        -0.59987E+08
 
   -0.53831E+08         0.10641E+06         0.00000E+00
    0.10641E+06        -0.60010E+08         0.00000E+00
    0.00000E+00         0.00000E+00        -0.58614E+08
 
   -0.54657E+08         0.23554E+06         0.00000E+00
    0.23554E+06        -0.60057E+08         0.00000E+00
    0.00000E+00         0.00000E+00        -0.58789E+08
 
   -0.55361E+08         0.28759E+06         0.00000E+00
    0.28759E+06        -0.60149E+08         0.00000E+00
    0.00000E+00         0.00000E+00        -0.58948E+08
 
   -0.55948E+08         0.30004E+06         0.00000E+00
    0.30004E+06        -0.60282E+08         0.00000E+00
    0.00000E+00         0.00000E+00        -0.59093E+08
 
   -0.56433E+08         0.30339E+06         0.00000E+00
    0.30339E+06        -0.60445E+08         0.00000E+00
    0.00000E+00         0.00000E+00        -0.59222E+08
 
   -0.56834E+08         0.32060E+06         0.00000E+00
    0.32060E+06        -0.60626E+08         0.00000E+00
    0.00000E+00         0.00000E+00        -0.59338E+08
 
   -0.57172E+08         0.36695E+06         0.00000E+00
    0.36695E+06        -0.60811E+08         0.00000E+00
    0.00000E+00         0.00000E+00        -0.59442E+08
 
   -0.57470E+08         0.45036E+06         0.00000E+00
    0.45036E+06        -0.60985E+08         0.00000E+00
    0.00000E+00         0.00000E+00        -0.59536E+08
 
   -0.57750E+08         0.57180E+06         0.00000E+00
    0.57180E+06        -0.61135E+08         0.00000E+00
    0.00000E+00         0.00000E+00        -0.59621E+08
 
   -0.58031E+08         0.72585E+06         0.00000E+00
    0.72585E+06        -0.61249E+08         0.00000E+00
    0.00000E+00         0.00000E+00        -0.59700E+08
 
   -0.58331E+08         0.90126E+06         0.00000E+00
    0.90126E+06        -0.61316E+08         0.00000E+00
    0.00000E+00         0.00000E+00        -0.59773E+08
 
   -0.58659E+08         0.10816E+07         0.00000E+00
    0.10816E+07        -0.61329E+08         0.00000E+00
    0.00000E+00         0.00000E+00        -0.59841E+08
 
   -0.59023E+08         0.12461E+07         0.00000E+00
    0.12461E+07        -0.61284E+08         0.00000E+00
    0.00000E+00         0.00000E+00        -0.59904E+08
 
   -0.59418E+08         0.13711E+07         0.00000E+00
    0.13711E+07        -0.61183E+08         0.00000E+00
    0.00000E+00         0.00000E+00        -0.59963E+08
 
   -0.59832E+08         0.14316E+07         0.00000E+00
    0.14316E+07        -0.61034E+08         0.00000E+00
    0.00000E+00         0.00000E+00        -0.60016E+08
 
   -0.53675E+08         0.78695E+05         0.00000E+00
    0.78695E+05        -0.60015E+08         0.00000E+00
    0.00000E+00         0.00000E+00        -0.58511E+08
 
   -0.54599E+08         0.15141E+06         0.00000E+00
    0.15141E+06        -0.60081E+08         0.00000E+00
    0.00000E+00         0.00000E+00        -0.58709E+08
 
   -0.55356E+08         0.15181E+06         0.00000E+00
    0.15181E+06        -0.60210E+08         0.00000E+00
    0.00000E+00         0.00000E+00        -0.58887E+08
 
   -0.55961E+08         0.12287E+06         0.00000E+00
    0.12287E+06        -0.60393E+08         0.00000E+00
    0.00000E+00         0.00000E+00        -0.59044E+08
 
   -0.56435E+08         0.98603E+05         0.00000E+00
    0.98603E+05        -0.60614E+08         0.00000E+00
    0.00000E+00         0.00000E+00        -0.59183E+08
 
   -0.56805E+08         0.10377E+06         0.00000E+00
    0.10377E+06        -0.60857E+08         0.00000E+00
    0.00000E+00         0.00000E+00        -0.59304E+08
 
   -0.57102E+08         0.15419E+06         0.00000E+00
    0.15419E+06        -0.61104E+08         0.00000E+00
    0.00000E+00         0.00000E+00        -0.59412E+08
 
   -0.57354E+08         0.25732E+06         0.00000E+00
    0.25732E+06        -0.61338E+08         0.00000E+00
    0.00000E+00         0.00000E+00        -0.59507E+08
 
   -0.57591E+08         0.41299E+06         0.00000E+00
    0.41299E+06        -0.61541E+08         0.00000E+00
    0.00000E+00         0.00000E+00        -0.59594E+08
 
   -0.57839E+08         0.61402E+06         0.00000E+00
    0.61402E+06        -0.61700E+08         0.00000E+00
    0.00000E+00         0.00000E+00        -0.59673E+08
 
   -0.58120E+08         0.84670E+06         0.00000E+00
    0.84670E+06        -0.61800E+08         0.00000E+00
    0.00000E+00         0.00000E+00        -0.59748E+08
 
   -0.58451E+08         0.10912E+07         0.00000E+00
    0.10912E+07        -0.61833E+08         0.00000E+00
    0.00000E+00         0.00000E+00        -0.59820E+08
 
   -0.58843E+08         0.13222E+07         0.00000E+00
    0.13222E+07        -0.61791E+08         0.00000E+00
    0.00000E+00         0.00000E+00        -0.59890E+08
 
   -0.59294E+08         0.15097E+07         0.00000E+00
    0.15097E+07        -0.61676E+08         0.00000E+00
    0.00000E+00         0.00000E+00        -0.59957E+08
 
   -0.59792E+08         0.16210E+07         0.00000E+00
    0.16210E+07        -0.61494E+08         0.00000E+00
    0.00000E+00         0.00000E+00        -0.60020E+08
 
   -0.53586E+08         0.39641E+05         0.00000E+00
    0.39641E+05        -0.60021E+08         0.00000E+00
    0.00000E+00         0.00000E+00        -0.58392E+08
 
   -0.54604E+08         0.36058E+05         0.00000E+00
    0.36058E+05        -0.60110E+08         0.00000E+00
    0.00000E+00         0.00000E+00        -0.58613E+08
 
   -0.55405E+08        -0.30713E+05         0.00000E+00
   -0.30713E+05        -0.60280E+08         0.00000E+00
    0.00000E+00         0.00000E+00        -0.58808E+08
 
   -0.56013E+08        -0.11182E+06         0.00000E+00
   -0.11182E+06        -0.60518E+08         0.00000E+00
    0.00000E+00         0.00000E+00        -0.58976E+08
 
   -0.56459E+08        -0.16984E+06         0.00000E+00
   -0.16984E+06        -0.60802E+08         0.00000E+00
    0.00000E+00         0.00000E+00        -0.59120E+08
 
   -0.56781E+08        -0.17860E+06         0.00000E+00
   -0.17860E+06        -0.61113E+08         0.00000E+00
    0.00000E+00         0.00000E+00        -0.59244E+08
 
   -0.57018E+08        -0.12236E+06         0.00000E+00
   -0.12236E+06        -0.61426E+08         0.00000E+00
    0.00000E+00         0.00000E+00        -0.59351E+08
 
   -0.57208E+08         0.53643E+04         0.00000E+00
    0.53643E+04        -0.61723E+08         0.00000E+00
    0.00000E+00         0.00000E+00        -0.59445E+08
 
   -0.57387E+08         0.20289E+06         0.00000E+00
    0.20289E+06        -0.61983E+08         0.00000E+00
    0.00000E+00         0.00000E+00        -0.59529E+08
 
   -0.57588E+08         0.46118E+06         0.00000E+00
    0.46118E+06        -0.62189E+08         0.00000E+00
    0.00000E+00         0.00000E+00        -0.59608E+08
 
   -0.57841E+08         0.76411E+06         0.00000E+00
    0.76411E+06        -0.62325E+08         0.00000E+00
    0.00000E+00         0.00000E+00        -0.59683E+08
 
   -0.58169E+08         0.10886E+07         0.00000E+00
    0.10886E+07        -0.62378E+08         0.00000E+00
    0.00000E+00         0.00000E+00        -0.59757E+08
 
   -0.58588E+08         0.14043E+07         0.00000E+00
    0.14043E+07        -0.62340E+08         0.00000E+00
    0.00000E+00         0.00000E+00        -0.59832E+08
 
   -0.59102E+08         0.16745E+07         0.00000E+00
    0.16745E+07        -0.62208E+08         0.00000E+00
    0.00000E+00         0.00000E+00        -0.59908E+08
 
   -0.59702E+08         0.18567E+07         0.00000E+00
    0.18567E+07        -0.61986E+08         0.00000E+00
    0.00000E+00         0.00000E+00        -0.59983E+08
 
   -0.53587E+08        -0.12558E+05         0.00000E+00
   -0.12558E+05        -0.60027E+08         0.00000E+00
    0.00000E+00         0.00000E+00        -0.58250E+08
 
   -0.54692E+08        -0.11489E+06         0.00000E+00
   -0.11489E+06        -0.60142E+08         0.00000E+00
    0.00000E+00         0.00000E+00        -0.58494E+08
 
   -0.55521E+08        -0.26555E+06         0.00000E+00
   -0.26555E+06        -0.60360E+08         0.00000E+00
    0.00000E+00         0.00000E+00        -0.58703E+08
 
   -0.56112E+08        -0.40964E+06         0.00000E+00
   -0.40964E+06        -0.60658E+08         0.00000E+00
    0.00000E+00         0.00000E+00        -0.58878E+08
 
   -0.56508E+08        -0.50676E+06         0.00000E+00
   -0.50676E+06        -0.61010E+08         0.00000E+00
    0.00000E+00         0.00000E+00        -0.59024E+08
 
   -0.56760E+08        -0.53023E+06         0.00000E+00
   -0.53023E+06        -0.61391E+08         0.00000E+00
    0.00000E+00         0.00000E+00        -0.59145E+08
 
   -0.56916E+08        -0.46538E+06         0.00000E+00
   -0.46538E+06        -0.61773E+08         0.00000E+00
    0.00000E+00         0.00000E+00        -0.59246E+08
 
   -0.57024E+08        -0.30752E+06         0.00000E+00
   -0.30752E+06        -0.62133E+08         0.00000E+00
    0.00000E+00         0.00000E+00        -0.59333E+08
 
   -0.57128E+08        -0.60256E+05         0.00000E+00
   -0.60256E+05        -0.62450E+08         0.00000E+00
    0.00000E+00         0.00000E+00        -0.59411E+08
 
   -0.57268E+08         0.26555E+06         0.00000E+00
    0.26555E+06        -0.62704E+08         0.00000E+00
    0.00000E+00         0.00000E+00        -0.59484E+08
 
   -0.57479E+08         0.65185E+06         0.00000E+00
    0.65185E+06        -0.62877E+08         0.00000E+00
    0.00000E+00         0.00000E+00        -0.59556E+08
 
   -0.57795E+08         0.10727E+07         0.00000E+00
    0.10727E+07        -0.62953E+08         0.00000E+00
    0.00000E+00         0.00000E+00        -0.59630E+08
 
   -0.58237E+08         0.14935E+07         0.00000E+00
    0.14935E+07        -0.62918E+08         0.00000E+00
    0.00000E+00         0.00000E+00        -0.59709E+08
 
   -0.58819E+08         0.18699E+07         0.00000E+00
    0.18699E+07        -0.62765E+08         0.00000E+00
    0.00000E+00         0.00000E+00        -0.59794E+08
 
   -0.59538E+08         0.21489E+07         0.00000E+00
    0.21489E+07        -0.62497E+08         0.00000E+00
    0.00000E+00         0.00000E+00        -0.59884E+08
 
   -0.53705E+08        -0.79789E+05         0.00000E+00
   -0.79789E+05        -0.60034E+08         0.00000E+00
    0.00000E+00         0.00000E+00        -0.58079E+08
 
   -0.54882E+08        -0.30586E+06         0.00000E+00
   -0.30586E+06        -0.60179E+08         0.00000E+00
    0.00000E+00         0.00000E+00        -0.58343E+08
 
   -0.55718E+08        -0.55792E+06         0.00000E+00
   -0.55792E+06        -0.60448E+08         0.00000E+00
    0.00000E+00         0.00000E+00        -0.58561E+08
 
   -0.56265E+08        -0.77512E+06         0.00000E+00
   -0.77512E+06        -0.60810E+08         0.00000E+00
    0.00000E+00         0.00000E+00        -0.58737E+08
 
   -0.56585E+08        -0.91506E+06         0.00000E+00
   -0.91506E+06        -0.61234E+08         0.00000E+00
    0.00000E+00         0.00000E+00        -0.58878E+08
 
   -0.56741E+08        -0.95211E+06         0.00000E+00
   -0.95211E+06        -0.61685E+08         0.00000E+00
    0.00000E+00         0.00000E+00        -0.58989E+08
 
   -0.56793E+08        -0.87435E+06         0.00000E+00
   -0.87435E+06        -0.62134E+08         0.00000E+00
    0.00000E+00         0.00000E+00        -0.59078E+08
 
   -0.56798E+08        -0.68012E+06         0.00000E+00
   -0.68012E+06        -0.62555E+08         0.00000E+00
    0.00000E+00         0.00000E+00        -0.59152E+08
 
   -0.56806E+08        -0.37545E+06         0.00000E+00
   -0.37545E+06        -0.62926E+08         0.00000E+00
    0.00000E+00         0.00000E+00        -0.59216E+08
 
   -0.56866E+08         0.27284E+05         0.00000E+00
    0.27284E+05        -0.63225E+08         0.00000E+00
    0.00000E+00         0.00000E+00        -0.59277E+08
 
   -0.57020E+08         0.50907E+06         0.00000E+00
    0.50907E+06        -0.63434E+08         0.00000E+00
    0.00000E+00         0.00000E+00        -0.59341E+08
 
   -0.57309E+08         0.10426E+07         0.00000E+00
    0.10426E+07        -0.63533E+08         0.00000E+00
    0.00000E+00         0.00000E+00        -0.59412E+08
 
   -0.57767E+08         0.15899E+07         0.00000E+00
    0.15899E+07        -0.63502E+08         0.00000E+00
    0.00000E+00         0.00000E+00        -0.59493E+08
 
   -0.58418E+08         0.20999E+07         0.00000E+00
    0.20999E+07        -0.63329E+08         0.00000E+00
    0.00000E+00         0.00000E+00        -0.59586E+08
 
   -0.59271E+08         0.25078E+07         0.00000E+00
    0.25078E+07        -0.63006E+08         0.00000E+00
    0.00000E+00         0.00000E+00        -0.59691E+08
 
   -0.53970E+08        -0.16403E+06         0.00000E+00
   -0.16403E+06        -0.60042E+08         0.00000E+00
    0.00000E+00         0.00000E+00        -0.57868E+08
 
   -0.55198E+08        -0.54124E+06         0.00000E+00
   -0.54124E+06        -0.60220E+08         0.00000E+00
    0.00000E+00         0.00000E+00        -0.58147E+08
 
   -0.56009E+08        -0.91237E+06         0.00000E+00
   -0.91237E+06        -0.60544E+08         0.00000E+00
    0.00000E+00         0.00000E+00        -0.58367E+08
 
   -0.56479E+08        -0.12109E+07         0.00000E+00
   -0.12109E+07        -0.60975E+08         0.00000E+00
    0.00000E+00         0.00000E+00        -0.58537E+08
 
   -0.56689E+08        -0.13943E+07         0.00000E+00
   -0.13943E+07        -0.61468E+08         0.00000E+00
    0.00000E+00         0.00000E+00        -0.58663E+08
 
   -0.56719E+08        -0.14408E+07         0.00000E+00
   -0.14408E+07        -0.61985E+08         0.00000E+00
    0.00000E+00         0.00000E+00        -0.58754E+08
 
   -0.56641E+08        -0.13436E+07         0.00000E+00
   -0.13436E+07        -0.62493E+08         0.00000E+00
    0.00000E+00         0.00000E+00        -0.58821E+08
 
   -0.56520E+08        -0.11061E+07         0.00000E+00
   -0.11061E+07        -0.62965E+08         0.00000E+00
    0.00000E+00         0.00000E+00        -0.58871E+08
 
   -0.56414E+08        -0.73735E+06         0.00000E+00
   -0.73735E+06        -0.63381E+08         0.00000E+00
    0.00000E+00         0.00000E+00        -0.58913E+08
 
   -0.56374E+08        -0.25049E+06         0.00000E+00
   -0.25049E+06        -0.63720E+08         0.00000E+00
    0.00000E+00         0.00000E+00        -0.58955E+08
 
   -0.56451E+08         0.33628E+06         0.00000E+00
    0.33628E+06        -0.63961E+08         0.00000E+00
    0.00000E+00         0.00000E+00        -0.59004E+08
 
   -0.56695E+08         0.99680E+06         0.00000E+00
    0.99680E+06        -0.64083E+08         0.00000E+00
    0.00000E+00         0.00000E+00        -0.59065E+08
 
   -0.57153E+08         0.16923E+07         0.00000E+00
    0.16923E+07        -0.64059E+08         0.00000E+00
    0.00000E+00         0.00000E+00        -0.59144E+08
 
   -0.57867E+08         0.23665E+07         0.00000E+00
    0.23665E+07        -0.63865E+08         0.00000E+00
    0.00000E+00         0.00000E+00        -0.59244E+08
 
   -0.58862E+08         0.29425E+07         0.00000E+00
    0.29425E+07        -0.63486E+08         0.00000E+00
    0.00000E+00         0.00000E+00        -0.59365E+08
 
   -0.54417E+08        -0.26744E+06         0.00000E+00
   -0.26744E+06        -0.60052E+08         0.00000E+00
    0.00000E+00         0.00000E+00        -0.57604E+08
 
   -0.55661E+08        -0.82545E+06         0.00000E+00
   -0.82545E+06        -0.60265E+08         0.00000E+00
    0.00000E+00         0.00000E+00        -0.57890E+08
 
   -0.56406E+08        -0.13323E+07         0.00000E+00
   -0.13323E+07        -0.60649E+08         0.00000E+00
    0.00000E+00         0.00000E+00        -0.58103E+08
 
   -0.56755E+08        -0.17166E+07         0.00000E+00
   -0.17166E+07        -0.61147E+08         0.00000E+00
    0.00000E+00         0.00000E+00        -0.58253E+08
 
   -0.56815E+08        -0.19391E+07         0.00000E+00
   -0.19391E+07        -0.61705E+08         0.00000E+00
    0.00000E+00         0.00000E+00        -0.58351E+08
 
   -0.56686E+08        -0.19860E+07         0.00000E+00
   -0.19860E+07        -0.62276E+08         0.00000E+00
    0.00000E+00         0.00000E+00        -0.58409E+08
 
   -0.56453E+08        -0.18600E+07         0.00000E+00
   -0.18600E+07        -0.62826E+08         0.00000E+00
    0.00000E+00         0.00000E+00        -0.58440E+08
 
   -0.56186E+08        -0.15718E+07         0.00000E+00
   -0.15718E+07        -0.63332E+08         0.00000E+00
    0.00000E+00         0.00000E+00        -0.58455E+08
 
   -0.55945E+08        -0.11343E+07         0.00000E+00
   -0.11343E+07        -0.63774E+08         0.00000E+00
    0.00000E+00         0.00000E+00        -0.58465E+08
 
   -0.55785E+08        -0.56021E+06         0.00000E+00
   -0.56021E+06        -0.64139E+08         0.00000E+00
    0.00000E+00         0.00000E+00        -0.58477E+08
 
   -0.55762E+08         0.13594E+06         0.00000E+00
    0.13594E+06        -0.64407E+08         0.00000E+00
    0.00000E+00         0.00000E+00        -0.58501E+08
 
   -0.55935E+08         0.93321E+06         0.00000E+00
    0.93321E+06        -0.64551E+08         0.00000E+00
    0.00000E+00         0.00000E+00        -0.58545E+08
 
   -0.56369E+08         0.17964E+07         0.00000E+00
    0.17964E+07        -0.64538E+08         0.00000E+00
    0.00000E+00         0.00000E+00        -0.58615E+08
 
   -0.57128E+08         0.26676E+07         0.00000E+00
    0.26676E+07        -0.64330E+08         0.00000E+00
    0.00000E+00         0.00000E+00        -0.58717E+08
 
   -0.58263E+08         0.34591E+07         0.00000E+00
    0.34591E+07        -0.63893E+08         0.00000E+00
    0.00000E+00         0.00000E+00        -0.58853E+08
 
   -0.55082E+08        -0.39255E+06         0.00000E+00
   -0.39255E+06        -0.60063E+08         0.00000E+00
    0.00000E+00         0.00000E+00        -0.57268E+08
 
   -0.56295E+08        -0.11631E+07         0.00000E+00
   -0.11631E+07        -0.60316E+08         0.00000E+00
    0.00000E+00         0.00000E+00        -0.57550E+08
 
   -0.56917E+08        -0.18194E+07         0.00000E+00
   -0.18194E+07        -0.60762E+08         0.00000E+00
    0.00000E+00         0.00000E+00        -0.57741E+08
 
   -0.57089E+08        -0.22873E+07         0.00000E+00
   -0.22873E+07        -0.61324E+08         0.00000E+00
    0.00000E+00         0.00000E+00        -0.57854E+08
 
   -0.56953E+08        -0.25363E+07         0.00000E+00
   -0.25363E+07        -0.61933E+08         0.00000E+00
    0.00000E+00         0.00000E+00        -0.57905E+08
 
   -0.56631E+08        -0.25676E+07         0.00000E+00
   -0.25676E+07        -0.62536E+08         0.00000E+00
    0.00000E+00         0.00000E+00        -0.57913E+08
 
   -0.56219E+08        -0.23994E+07         0.00000E+00
   -0.23994E+07        -0.63100E+08         0.00000E+00
    0.00000E+00         0.00000E+00        -0.57893E+08
 
   -0.55789E+08        -0.20530E+07         0.00000E+00
   -0.20530E+07        -0.63607E+08         0.00000E+00
    0.00000E+00         0.00000E+00        -0.57858E+08
 
   -0.55399E+08        -0.15458E+07         0.00000E+00
   -0.15458E+07        -0.64049E+08         0.00000E+00
    0.00000E+00         0.00000E+00        -0.57820E+08
 
   -0.55101E+08        -0.88812E+06         0.00000E+00
   -0.88812E+06        -0.64418E+08         0.00000E+00
    0.00000E+00         0.00000E+00        -0.57790E+08
 
   -0.54951E+08        -0.86634E+05         0.00000E+00
   -0.86634E+05        -0.64699E+08         0.00000E+00
    0.00000E+00         0.00000E+00        -0.57777E+08
 
   -0.55019E+08         0.84891E+06         0.00000E+00
    0.84891E+06        -0.64864E+08         0.00000E+00
    0.00000E+00         0.00000E+00        -0.57792E+08
 
   -0.55390E+08         0.18940E+07         0.00000E+00
    0.18940E+07        -0.64869E+08         0.00000E+00
    0.00000E+00         0.00000E+00        -0.57844E+08
 
   -0.56159E+08         0.29955E+07         0.00000E+00
    0.29955E+07        -0.64658E+08         0.00000E+00
    0.00000E+00         0.00000E+00        -0.57941E+08
 
   -0.57415E+08         0.40579E+07         0.00000E+00
    0.40579E+07        -0.64173E+08         0.00000E+00
    0.00000E+00         0.00000E+00        -0.58089E+08
 
   -0.56007E+08        -0.54267E+06         0.00000E+00
   -0.54267E+06        -0.60075E+08         0.00000E+00
    0.00000E+00         0.00000E+00        -0.56838E+08
 
   -0.57122E+08        -0.15592E+07         0.00000E+00
   -0.15592E+07        -0.60374E+08         0.00000E+00
    0.00000E+00         0.00000E+00        -0.57101E+08
 
   -0.57542E+08        -0.23729E+07         0.00000E+00
   -0.23729E+07        -0.60884E+08         0.00000E+00
    0.00000E+00         0.00000E+00        -0.57246E+08
 
   -0.57466E+08        -0.29105E+07         0.00000E+00
   -0.29105E+07        -0.61500E+08         0.00000E+00
    0.00000E+00         0.00000E+00        -0.57297E+08
 
   -0.57081E+08        -0.31608E+07         0.00000E+00
   -0.31608E+07        -0.62135E+08         0.00000E+00
    0.00000E+00         0.00000E+00        -0.57278E+08
 
   -0.56534E+08        -0.31514E+07         0.00000E+00
   -0.31514E+07        -0.62731E+08         0.00000E+00
    0.00000E+00         0.00000E+00        -0.57212E+08
 
   -0.55927E+08        -0.29234E+07         0.00000E+00
   -0.29234E+07        -0.63262E+08         0.00000E+00
    0.00000E+00         0.00000E+00        -0.57120E+08
 
   -0.55328E+08        -0.25125E+07         0.00000E+00
   -0.25125E+07        -0.63726E+08         0.00000E+00
    0.00000E+00         0.00000E+00        -0.57018E+08
 
   -0.54782E+08        -0.19403E+07         0.00000E+00
   -0.19403E+07        -0.64126E+08         0.00000E+00
    0.00000E+00         0.00000E+00        -0.56917E+08
 
   -0.54331E+08        -0.12124E+07         0.00000E+00
   -0.12124E+07        -0.64467E+08         0.00000E+00
    0.00000E+00         0.00000E+00        -0.56829E+08
 
   -0.54028E+08        -0.32213E+06         0.00000E+00
   -0.32213E+06        -0.64742E+08         0.00000E+00
    0.00000E+00         0.00000E+00        -0.56764E+08
 
   -0.53947E+08         0.73998E+06         0.00000E+00
    0.73998E+06        -0.64923E+08         0.00000E+00
    0.00000E+00         0.00000E+00        -0.56735E+08
 
   -0.54197E+08         0.19708E+07         0.00000E+00
    0.19708E+07        -0.64958E+08         0.00000E+00
    0.00000E+00         0.00000E+00        -0.56754E+08
 
   -0.54913E+08         0.33326E+07         0.00000E+00
    0.33326E+07        -0.64766E+08         0.00000E+00
    0.00000E+00         0.00000E+00        -0.56834E+08
 
   -0.56243E+08         0.47296E+07         0.00000E+00
    0.47296E+07        -0.64253E+08         0.00000E+00
    0.00000E+00         0.00000E+00        -0.56985E+08
 
   -0.57242E+08        -0.72269E+06         0.00000E+00
   -0.72269E+06        -0.60091E+08         0.00000E+00
    0.00000E+00         0.00000E+00        -0.56283E+08
 
   -0.58160E+08        -0.20200E+07         0.00000E+00
   -0.20200E+07        -0.60442E+08         0.00000E+00
    0.00000E+00         0.00000E+00        -0.56501E+08
 
   -0.58270E+08        -0.29870E+07         0.00000E+00
   -0.29870E+07        -0.61015E+08         0.00000E+00
    0.00000E+00         0.00000E+00        -0.56569E+08
 
   -0.57856E+08        -0.35613E+07         0.00000E+00
   -0.35613E+07        -0.61663E+08         0.00000E+00
    0.00000E+00         0.00000E+00        -0.56523E+08
 
   -0.57166E+08        -0.37700E+07         0.00000E+00
   -0.37700E+07        -0.62278E+08         0.00000E+00
    0.00000E+00         0.00000E+00        -0.56400E+08
 
   -0.56370E+08        -0.36837E+07         0.00000E+00
   -0.36837E+07        -0.62807E+08         0.00000E+00
    0.00000E+00         0.00000E+00        -0.56233E+08
 
   -0.55567E+08        -0.33754E+07         0.00000E+00
   -0.33754E+07        -0.63240E+08         0.00000E+00
    0.00000E+00         0.00000E+00        -0.56046E+08
 
   -0.54805E+08        -0.28972E+07         0.00000E+00
   -0.28972E+07        -0.63595E+08         0.00000E+00
    0.00000E+00         0.00000E+00        -0.55857E+08
 
   -0.54108E+08        -0.22733E+07         0.00000E+00
   -0.22733E+07        -0.63897E+08         0.00000E+00
    0.00000E+00         0.00000E+00        -0.55676E+08
 
   -0.53499E+08        -0.15012E+07         0.00000E+00
   -0.15012E+07        -0.64166E+08         0.00000E+00
    0.00000E+00         0.00000E+00        -0.55513E+08
 
   -0.53015E+08        -0.55552E+06         0.00000E+00
   -0.55552E+06        -0.64407E+08         0.00000E+00
    0.00000E+00         0.00000E+00        -0.55378E+08
 
   -0.52733E+08         0.60193E+06         0.00000E+00
    0.60193E+06        -0.64598E+08         0.00000E+00
    0.00000E+00         0.00000E+00        -0.55285E+08
 
   -0.52780E+08         0.20042E+07         0.00000E+00
    0.20042E+07        -0.64678E+08         0.00000E+00
    0.00000E+00         0.00000E+00        -0.55251E+08
 
   -0.53346E+08         0.36472E+07         0.00000E+00
    0.36472E+07        -0.64540E+08         0.00000E+00
    0.00000E+00         0.00000E+00        -0.55295E+08
 
   -0.54660E+08         0.54493E+07         0.00000E+00
    0.54493E+07        -0.64038E+08         0.00000E+00
    0.00000E+00         0.00000E+00        -0.55436E+08
 
   -0.58843E+08        -0.94054E+06         0.00000E+00
   -0.94054E+06        -0.60112E+08         0.00000E+00
    0.00000E+00         0.00000E+00        -0.55561E+08
 
   -0.59418E+08        -0.25528E+07         0.00000E+00
   -0.25528E+07        -0.60525E+08         0.00000E+00
    0.00000E+00         0.00000E+00        -0.55697E+08
 
   -0.59065E+08        -0.36459E+07         0.00000E+00
   -0.36459E+07        -0.61153E+08         0.00000E+00
    0.00000E+00         0.00000E+00        -0.55637E+08
 
   -0.58205E+08        -0.41923E+07         0.00000E+00
   -0.41923E+07        -0.61787E+08         0.00000E+00
    0.00000E+00         0.00000E+00        -0.55442E+08
 
   -0.57159E+08        -0.42932E+07         0.00000E+00
   -0.42932E+07        -0.62305E+08         0.00000E+00
    0.00000E+00         0.00000E+00        -0.55172E+08
 
   -0.56109E+08        -0.40852E+07         0.00000E+00
   -0.40852E+07        -0.62674E+08         0.00000E+00
    0.00000E+00         0.00000E+00        -0.54871E+08
 
   -0.55129E+08        -0.36789E+07         0.00000E+00
   -0.36789E+07        -0.62919E+08         0.00000E+00
    0.00000E+00         0.00000E+00        -0.54565E+08
 
   -0.54230E+08        -0.31392E+07         0.00000E+00
   -0.31392E+07        -0.63087E+08         0.00000E+00
    0.00000E+00         0.00000E+00        -0.54270E+08
 
   -0.53404E+08        -0.24883E+07         0.00000E+00
   -0.24883E+07        -0.63223E+08         0.00000E+00
    0.00000E+00         0.00000E+00        -0.53994E+08
 
   -0.52643E+08        -0.17120E+07         0.00000E+00
   -0.17120E+07        -0.63365E+08         0.00000E+00
    0.00000E+00         0.00000E+00        -0.53740E+08
 
   -0.51959E+08        -0.76359E+06         0.00000E+00
   -0.76359E+06        -0.63533E+08         0.00000E+00
    0.00000E+00         0.00000E+00        -0.53516E+08
 
   -0.51415E+08         0.43193E+06         0.00000E+00
    0.43193E+06        -0.63719E+08         0.00000E+00
    0.00000E+00         0.00000E+00        -0.53335E+08
 
   -0.51153E+08         0.19624E+07         0.00000E+00
    0.19624E+07        -0.63863E+08         0.00000E+00
    0.00000E+00         0.00000E+00        -0.53219E+08
 
   -0.51418E+08         0.38872E+07         0.00000E+00
    0.38872E+07        -0.63829E+08         0.00000E+00
    0.00000E+00         0.00000E+00        -0.53197E+08
 
   -0.52558E+08         0.61677E+07         0.00000E+00
    0.61677E+07        -0.63406E+08         0.00000E+00
    0.00000E+00         0.00000E+00        -0.53305E+08
 
   -0.60882E+08        -0.12100E+07         0.00000E+00
   -0.12100E+07        -0.60141E+08         0.00000E+00
    0.00000E+00         0.00000E+00        -0.54610E+08
 
   -0.60885E+08        -0.31648E+07         0.00000E+00
   -0.31648E+07        -0.60632E+08         0.00000E+00
    0.00000E+00         0.00000E+00        -0.54600E+08
 
   -0.59852E+08        -0.43088E+07         0.00000E+00
   -0.43088E+07        -0.61284E+08         0.00000E+00
    0.00000E+00         0.00000E+00        -0.54333E+08
 
   -0.58424E+08        -0.47127E+07         0.00000E+00
   -0.47127E+07        -0.61809E+08         0.00000E+00
    0.00000E+00         0.00000E+00        -0.53917E+08
 
   -0.56997E+08        -0.46174E+07         0.00000E+00
   -0.46174E+07        -0.62095E+08         0.00000E+00
    0.00000E+00         0.00000E+00        -0.53445E+08
 
   -0.55725E+08        -0.42474E+07         0.00000E+00
   -0.42474E+07        -0.62172E+08         0.00000E+00
    0.00000E+00         0.00000E+00        -0.52974E+08
 
   -0.54615E+08        -0.37414E+07         0.00000E+00
   -0.37414E+07        -0.62120E+08         0.00000E+00
    0.00000E+00         0.00000E+00        -0.52529E+08
 
   -0.53627E+08        -0.31622E+07         0.00000E+00
   -0.31622E+07        -0.62014E+08         0.00000E+00
    0.00000E+00         0.00000E+00        -0.52116E+08
 
   -0.52709E+08        -0.25216E+07         0.00000E+00
   -0.25216E+07        -0.61916E+08         0.00000E+00
    0.00000E+00         0.00000E+00        -0.51733E+08
 
   -0.51817E+08        -0.17930E+07         0.00000E+00
   -0.17930E+07        -0.61872E+08         0.00000E+00
    0.00000E+00         0.00000E+00        -0.51376E+08
 
   -0.50928E+08        -0.91136E+06         0.00000E+00
   -0.91136E+06        -0.61920E+08         0.00000E+00
    0.00000E+00         0.00000E+00        -0.51046E+08
 
   -0.50067E+08         0.23503E+06         0.00000E+00
    0.23503E+06        -0.62072E+08         0.00000E+00
    0.00000E+00         0.00000E+00        -0.50751E+08
 
   -0.49361E+08         0.18062E+07         0.00000E+00
    0.18062E+07        -0.62292E+08         0.00000E+00
    0.00000E+00         0.00000E+00        -0.50515E+08
 
   -0.49108E+08         0.39717E+07         0.00000E+00
    0.39717E+07        -0.62433E+08         0.00000E+00
    0.00000E+00         0.00000E+00        -0.50384E+08
 
   -0.49814E+08         0.67963E+07         0.00000E+00
    0.67963E+07        -0.62197E+08         0.00000E+00
    0.00000E+00         0.00000E+00        -0.50418E+08
 
   -0.63449E+08        -0.15578E+07         0.00000E+00
   -0.15578E+07        -0.60193E+08         0.00000E+00
    0.00000E+00         0.00000E+00        -0.53334E+08
 
   -0.62496E+08        -0.38522E+07         0.00000E+00
   -0.38522E+07        -0.60770E+08         0.00000E+00
    0.00000E+00         0.00000E+00        -0.53063E+08
 
   -0.60479E+08        -0.48680E+07         0.00000E+00
   -0.48680E+07        -0.61352E+08         0.00000E+00
    0.00000E+00         0.00000E+00        -0.52453E+08
 
   -0.58388E+08        -0.49467E+07         0.00000E+00
   -0.49467E+07        -0.61554E+08         0.00000E+00
    0.00000E+00         0.00000E+00        -0.51711E+08
 
   -0.56629E+08        -0.45726E+07         0.00000E+00
   -0.45726E+07        -0.61384E+08         0.00000E+00
    0.00000E+00         0.00000E+00        -0.50979E+08
 
   -0.55217E+08        -0.40405E+07         0.00000E+00
   -0.40405E+07        -0.61007E+08         0.00000E+00
    0.00000E+00         0.00000E+00        -0.50312E+08
 
   -0.54053E+08        -0.34701E+07         0.00000E+00
   -0.34701E+07        -0.60553E+08         0.00000E+00
    0.00000E+00         0.00000E+00        -0.49718E+08
 
   -0.53033E+08        -0.28976E+07         0.00000E+00
   -0.28976E+07        -0.60106E+08         0.00000E+00
    0.00000E+00         0.00000E+00        -0.49185E+08
 
   -0.52069E+08        -0.23166E+07         0.00000E+00
   -0.23166E+07        -0.59723E+08         0.00000E+00
    0.00000E+00         0.00000E+00        -0.48696E+08
 
   -0.51082E+08        -0.16910E+07         0.00000E+00
   -0.16910E+07        -0.59448E+08         0.00000E+00
    0.00000E+00         0.00000E+00        -0.48235E+08
 
   -0.50006E+08        -0.94939E+06         0.00000E+00
   -0.94939E+06        -0.59323E+08         0.00000E+00
    0.00000E+00         0.00000E+00        -0.47789E+08
 
   -0.48801E+08         0.37362E+05         0.00000E+00
    0.37362E+05        -0.59390E+08         0.00000E+00
    0.00000E+00         0.00000E+00        -0.47357E+08
 
   -0.47516E+08         0.15013E+07         0.00000E+00
    0.15013E+07        -0.59674E+08         0.00000E+00
    0.00000E+00         0.00000E+00        -0.46959E+08
 
   -0.46442E+08         0.37834E+07         0.00000E+00
    0.37834E+07        -0.60066E+08         0.00000E+00
    0.00000E+00         0.00000E+00        -0.46654E+08
 
   -0.46288E+08         0.71799E+07         0.00000E+00
    0.71799E+07        -0.60194E+08         0.00000E+00
    0.00000E+00         0.00000E+00        -0.46548E+08
 
   -0.66662E+08        -0.20429E+07         0.00000E+00
   -0.20429E+07        -0.60280E+08         0.00000E+00
    0.00000E+00         0.00000E+00        -0.51547E+08
 
   -0.64045E+08        -0.45506E+07         0.00000E+00
   -0.45506E+07        -0.60947E+08         0.00000E+00
    0.00000E+00         0.00000E+00        -0.50779E+08
 
   -0.60672E+08        -0.50188E+07         0.00000E+00
   -0.50188E+07        -0.61108E+08         0.00000E+00
    0.00000E+00         0.00000E+00        -0.49580E+08
 
   -0.57990E+08        -0.45760E+07         0.00000E+00
   -0.45760E+07        -0.60516E+08         0.00000E+00
    0.00000E+00         0.00000E+00        -0.48384E+08
 
   -0.56073E+08        -0.39544E+07         0.00000E+00
   -0.39544E+07        -0.59614E+08         0.00000E+00
    0.00000E+00         0.00000E+00        -0.47360E+08
 
   -0.54645E+08        -0.33506E+07         0.00000E+00
   -0.33506E+07        -0.58652E+08         0.00000E+00
    0.00000E+00         0.00000E+00        -0.46502E+08
 
   -0.53505E+08        -0.28051E+07         0.00000E+00
   -0.28051E+07        -0.57744E+08         0.00000E+00
    0.00000E+00         0.00000E+00        -0.45774E+08
 
   -0.52506E+08        -0.23116E+07         0.00000E+00
   -0.23116E+07        -0.56943E+08         0.00000E+00
    0.00000E+00         0.00000E+00        -0.45139E+08
 
   -0.51537E+08        -0.18459E+07         0.00000E+00
   -0.18459E+07        -0.56273E+08         0.00000E+00
    0.00000E+00         0.00000E+00        -0.44564E+08
 
   -0.50495E+08        -0.13705E+07         0.00000E+00
   -0.13705E+07        -0.55759E+08         0.00000E+00
    0.00000E+00         0.00000E+00        -0.44015E+08
 
   -0.49275E+08        -0.82412E+06         0.00000E+00
   -0.82412E+06        -0.55432E+08         0.00000E+00
    0.00000E+00         0.00000E+00        -0.43467E+08
 
   -0.47758E+08        -0.94156E+05         0.00000E+00
   -0.94156E+05        -0.55352E+08         0.00000E+00
    0.00000E+00         0.00000E+00        -0.42898E+08
 
   -0.45821E+08         0.10551E+07         0.00000E+00
    0.10551E+07        -0.55613E+08         0.00000E+00
    0.00000E+00         0.00000E+00        -0.42299E+08
 
   -0.43565E+08         0.31694E+07         0.00000E+00
    0.31694E+07        -0.56312E+08         0.00000E+00
    0.00000E+00         0.00000E+00        -0.41739E+08
 
   -0.41840E+08         0.70418E+07         0.00000E+00
    0.70418E+07        -0.57070E+08         0.00000E+00
    0.00000E+00         0.00000E+00        -0.41383E+08
 
   -0.70625E+08        -0.28930E+07         0.00000E+00
   -0.28930E+07        -0.60734E+08         0.00000E+00
    0.00000E+00         0.00000E+00        -0.48819E+08
 
   -0.64875E+08        -0.46734E+07         0.00000E+00
   -0.46734E+07        -0.60872E+08         0.00000E+00
    0.00000E+00         0.00000E+00        -0.46854E+08
 
   -0.60146E+08        -0.40031E+07         0.00000E+00
   -0.40031E+07        -0.59282E+08         0.00000E+00
    0.00000E+00         0.00000E+00        -0.44672E+08
 
   -0.57346E+08        -0.32444E+07         0.00000E+00
   -0.32444E+07        -0.57392E+08         0.00000E+00
    0.00000E+00         0.00000E+00        -0.43036E+08
 
   -0.55483E+08        -0.26384E+07         0.00000E+00
   -0.26384E+07        -0.55648E+08         0.00000E+00
    0.00000E+00         0.00000E+00        -0.41786E+08
 
   -0.54137E+08        -0.21592E+07         0.00000E+00
   -0.21592E+07        -0.54137E+08         0.00000E+00
    0.00000E+00         0.00000E+00        -0.40807E+08
 
   -0.53065E+08        -0.17700E+07         0.00000E+00
   -0.17700E+07        -0.52855E+08         0.00000E+00
    0.00000E+00         0.00000E+00        -0.40010E+08
 
   -0.52111E+08        -0.14398E+07         0.00000E+00
   -0.14398E+07        -0.51784E+08         0.00000E+00
    0.00000E+00         0.00000E+00        -0.39331E+08
 
   -0.51158E+08        -0.11416E+07         0.00000E+00
   -0.11416E+07        -0.50907E+08         0.00000E+00
    0.00000E+00         0.00000E+00        -0.38721E+08
 
   -0.50092E+08        -0.84722E+06         0.00000E+00
   -0.84722E+06        -0.50219E+08         0.00000E+00
    0.00000E+00         0.00000E+00        -0.38138E+08
 
   -0.48782E+08        -0.51782E+06         0.00000E+00
   -0.51782E+06        -0.49734E+08         0.00000E+00
    0.00000E+00         0.00000E+00        -0.37542E+08
 
   -0.47043E+08        -0.83753E+05         0.00000E+00
   -0.83753E+05        -0.49501E+08         0.00000E+00
    0.00000E+00         0.00000E+00        -0.36890E+08
 
   -0.44593E+08         0.60870E+06         0.00000E+00
    0.60870E+06        -0.49644E+08         0.00000E+00
    0.00000E+00         0.00000E+00        -0.36139E+08
 
   -0.40902E+08         0.20136E+07         0.00000E+00
    0.20136E+07        -0.50444E+08         0.00000E+00
    0.00000E+00         0.00000E+00        -0.35242E+08
 
   -0.36425E+08         0.58289E+07         0.00000E+00
    0.58289E+07        -0.52293E+08         0.00000E+00
    0.00000E+00         0.00000E+00        -0.34471E+08
 
   -0.74551E+08        -0.31138E+07         0.00000E+00
   -0.31138E+07        -0.58161E+08         0.00000E+00
    0.00000E+00         0.00000E+00        -0.39825E+08
 
   -0.64008E+08        -0.21007E+07         0.00000E+00
   -0.21007E+07        -0.54313E+08         0.00000E+00
    0.00000E+00         0.00000E+00        -0.36356E+08
 
   -0.59506E+08        -0.13920E+07         0.00000E+00
   -0.13920E+07        -0.51072E+08         0.00000E+00
    0.00000E+00         0.00000E+00        -0.34243E+08
 
   -0.56860E+08        -0.10597E+07         0.00000E+00
   -0.10597E+07        -0.48579E+08         0.00000E+00
    0.00000E+00         0.00000E+00        -0.32837E+08
 
   -0.55117E+08        -0.83827E+06         0.00000E+00
   -0.83827E+06        -0.46613E+08         0.00000E+00
    0.00000E+00         0.00000E+00        -0.31825E+08
 
   -0.53849E+08        -0.67688E+06         0.00000E+00
   -0.67688E+06        -0.45031E+08         0.00000E+00
    0.00000E+00         0.00000E+00        -0.31053E+08
 
   -0.52828E+08        -0.54933E+06         0.00000E+00
   -0.54933E+06        -0.43746E+08         0.00000E+00
    0.00000E+00         0.00000E+00        -0.30434E+08
 
   -0.51905E+08        -0.44146E+06         0.00000E+00
   -0.44146E+06        -0.42702E+08         0.00000E+00
    0.00000E+00         0.00000E+00        -0.29911E+08
 
   -0.50963E+08        -0.34303E+06         0.00000E+00
   -0.34303E+06        -0.41868E+08         0.00000E+00
    0.00000E+00         0.00000E+00        -0.29441E+08
 
   -0.49887E+08        -0.24432E+06         0.00000E+00
   -0.24432E+06        -0.41232E+08         0.00000E+00
    0.00000E+00         0.00000E+00        -0.28989E+08
 
   -0.48534E+08        -0.13255E+06         0.00000E+00
   -0.13255E+06        -0.40804E+08         0.00000E+00
    0.00000E+00         0.00000E+00        -0.28522E+08
 
   -0.46688E+08         0.14145E+05         0.00000E+00
    0.14145E+05        -0.40630E+08         0.00000E+00
    0.00000E+00         0.00000E+00        -0.27995E+08
 
   -0.43959E+08         0.24843E+06         0.00000E+00
    0.24843E+06        -0.40828E+08         0.00000E+00
    0.00000E+00         0.00000E+00        -0.27346E+08
 
   -0.39514E+08         0.69181E+06         0.00000E+00
    0.69181E+06        -0.41708E+08         0.00000E+00
    0.00000E+00         0.00000E+00        -0.26461E+08
 
   -0.30433E+08         0.24523E+07         0.00000E+00
    0.24523E+07        -0.44426E+08         0.00000E+00
    0.00000E+00         0.00000E+00        -0.25043E+08
 
SCALARS stresss double 
LOOKUP_TABLE default
  -58591747.0079267     
  -59125135.7079734     
  -59436252.1903246     
  -59663567.3727278     
  -59847681.9433664     
  -60006953.7900164     
  -60150441.7958329     
  -60283164.9534768     
  -60408356.2232475     
  -60528742.1842531     
  -60647588.6599712     
  -60770088.1906017     
  -60906447.7027208     
  -61078891.6980497     
  -61377021.0870442     
  -58395302.0534064     
  -58636174.2897501     
  -58870116.9147821     
  -59062383.7413305     
  -59228744.7221909     
  -59377636.7100143     
  -59514274.9652836     
  -59641794.1082954     
  -59762324.2459300     
  -59877686.2870867     
  -59989969.9249674     
  -60102229.9998371     
  -60218842.5120724     
  -60348865.9041642     
  -60450872.3600064     
  -58353053.8695742     
  -58424903.8020692     
  -58559776.3400157     
  -58706920.8801852     
  -58849486.3796418     
  -58985119.0619230     
  -59113669.0411201     
  -59235538.6686212     
  -59351162.7200157     
  -59460960.8913112     
  -59565326.9742367     
  -59664295.2245720     
  -59756744.9657264     
  -59831075.1613738     
  -59863223.9496840     
  -58338113.4090422     
  -58345350.1212153     
  -58421813.7351991     
  -58530872.5964671     
  -58651751.8933259     
  -58774735.6679206     
  -58895611.0909452     
  -59012239.7371438     
  -59123349.7481076     
  -59227932.4197332     
  -59324769.9046666     
  -59411754.7006074     
  -59483789.0269676     
  -59531085.7696824     
  -59537232.0279285     
  -58319300.9080093     
  -58318001.6976139     
  -58372650.5312056     
  -58461495.4934612     
  -58568155.5368974     
  -58682212.6254337     
  -58797504.7756410     
  -58910307.2279041     
  -59018081.2497981     
  -59118729.3576781     
  -59209996.8732022     
  -59288709.3864909     
  -59350010.2520866     
  -59386733.5344832     
  -59390377.9207393     
  -58285310.6477420     
  -58301793.0731621     
  -58358098.2716095     
  -58442712.8419208     
  -58544600.8833645     
  -58655138.5154763     
  -58768198.2905994     
  -58879496.7752847     
  -58985862.1148027     
  -59084621.1278746     
  -59173083.2928106     
  -59248103.0932591     
  -59305782.9366277     
  -59341679.7283981     
  -59351880.1531380     
  -58233859.9886858     
  -58278462.6582424     
  -58349647.7408422     
  -58441497.0954208     
  -58547000.0603197     
  -58659735.3681538     
  -58774479.4320410     
  -58887161.8185220     
  -58994546.8820542     
  -59093860.4425809     
  -59182458.5143529     
  -59257596.2986961     
  -59316405.6846445     
  -59356225.0006023     
  -59375432.8758775     
  -58166346.5548311     
  -58242568.0347081     
  -58335682.6065318     
  -58442314.5198272     
  -58557938.7014330     
  -58677949.0184233     
  -58798229.8734399     
  -58915314.2771056     
  -59026296.5782466     
  -59128646.8941696     
  -59220029.0597762     
  -59298200.1328795     
  -59361063.7146035     
  -59406943.7357734     
  -59435084.5120796     
  -58085360.4077897     
  -58194619.5153077     
  -58313635.8524369     
  -58439967.5877848     
  -58570475.6030720     
  -58701864.4819474     
  -58831049.7495478     
  -58955313.6313918     
  -59072301.1143293     
  -59179933.8399535     
  -59276314.3006101     
  -59359679.9697048     
  -59428453.4740578     
  -59481409.9710339     
  -59517936.1235359     
  -57993720.9746223     
  -58137360.6983690     
  -58284965.8485672     
  -58434353.2818982     
  -58583161.1429627     
  -58729038.6002720     
  -58869807.2883799     
  -59003537.0156392     
  -59128537.9885499     
  -59243302.4053597     
  -59346436.7395948     
  -59436622.1740350     
  -59512628.8250810     
  -59573389.3969773     
  -59618108.4850914     
  -57894301.8175716     
  -58074174.8065569     
  -58252601.3802720     
  -58427485.7831863     
  -58596998.7500725     
  -58759554.4965336     
  -58913810.9977877     
  -59058649.6778396     
  -59193122.4252210     
  -59316375.6996718     
  -59427571.4263715     
  -59525824.7398484     
  -59610172.0619520     
  -59679571.1856053     
  -59732920.7649160     
  -57790138.5017665     
  -58008586.6956014     
  -58219872.5474143     
  -58422064.6397181     
  -58613854.3071338     
  -58794402.2579869     
  -58963219.8727219     
  -59120059.2469718     
  -59264799.7601178     
  -59397331.1286032     
  -59517440.0586315     
  -59624709.4749141     
  -59718436.9867682     
  -59797574.5002692     
  -59860686.2122656     
  -57684586.5953374     
  -57944199.4624349     
  -58190144.6651212     
  -58420855.7661648     
  -58635677.4038588     
  -58834621.8835628     
  -59018158.9561131     
  -59187026.5156399     
  -59342053.7384714     
  -59483993.1389040     
  -59613361.7789077     
  -59730293.7756131     
  -59834406.7338332     
  -59924684.8292134     
  -59999382.4343725     
  -57581449.5254790     
  -57884744.8060550     
  -58166708.5191425     
  -58426413.8818966     
  -58664089.1397007     
  -58880799.2023980     
  -59078157.6174175     
  -59258065.7009439     
  -59422474.0478224     
  -59573161.4801356     
  -59711527.1195830     
  -59838392.5727344     
  -59953813.4450432     
  -60056902.9209954     
  -60145675.3046442     
  -57485059.5409712     
  -57834120.9130316     
  -58152718.5285709     
  -58440900.5924298     
  -58700087.3265952     
  -58932678.2852928     
  -59141689.9402248     
  -59330427.2219596     
  -59502187.0584490     
  -59659987.2410108     
  -59806311.3401612     
  -59942860.7104006     
  -60070308.1964447     
  -60188054.7659805     
  -60293999.2268125     
  -57400312.7039569     
  -57796378.5364171     
  -58151095.2980212     
  -58465885.2968439     
  -58743744.8641987     
  -58988767.5591005     
  -59205702.2935996     
  -59399557.7343579     
  -59575253.2496323     
  -59737306.0516293     
  -59889537.3274323     
  -60034779.0640185     
  -60174568.4612886     
  -60308827.3995051     
  -60435538.3991340     
  -57332660.2398241     
  -57775646.8854362     
  -58164362.1656041     
  -58502078.6746671     
  -58793839.7004672     
  -59045875.7736177     
  -59265068.6274097     
  -59458485.7448990     
  -59632987.7366587     
  -59794890.5565472     
  -59949651.1976725     
  -60101542.4657752     
  -60253290.2884688     
  -60405663.8787160     
  -60557031.1384576     
  -57288057.1437201     
  -57775998.1597879     
  -58194401.0103499     
  -58548968.8806271     
  -58847376.5462608     
  -59098535.8437092     
  -59311936.5040912     
  -59497105.3131253     
  -59663187.0190930     
  -59818613.7158770     
  -59970805.8266626     
  -60125842.2784720     
  -60288050.1582795     
  -60459491.6076058     
  -60639361.5487225     
  -57272869.5089106     
  -57801246.9394935     
  -58242107.6373625     
  -58604324.0465976     
  -58898953.8474761     
  -59138269.9566677     
  -59334926.5545442     
  -59501335.9979724     
  -59649257.3561169     
  -59789533.0102134     
  -59931871.0336052     
  -60084563.1553594     
  -60254049.4344246     
  -60444285.6249204     
  -60655928.4189049     
  -57293745.7438055     
  -57854670.9889806     
  -58306904.3514035     
  -58663492.9905663     
  -58939895.1406713     
  -59152618.7454554     
  -59318126.0864671     
  -59452126.4484911     
  -59569241.0873463     
  -59682917.0141337     
  -59805408.3817638     
  -59947636.8334986     
  -60118777.4230664     
  -60325487.9135552     
  -60570796.1054940     
  -57357463.1656035     
  -57938618.7937567     
  -58386018.2607695     
  -58718368.0863511     
  -58956990.9635062     
  -59123791.8948641     
  -59239767.4416433     
  -59324237.0186727     
  -59394722.9845634     
  -59467237.2358684     
  -59556661.9094571     
  -59676915.0054661     
  -59840646.5738951     
  -60058313.0399301     
  -60336631.6564679     
  -57470767.6841156     
  -58053923.2270420     
  -58473334.1282451     
  -58755741.6792898     
  -58930560.2766412     
  -59026678.1296270     
  -59070389.6516669     
  -59084672.0898819     
  -59089558.2804608     
  -59103129.6012220     
  -59142615.8676646     
  -59225133.8325094     
  -59367660.9636848     
  -59585961.9259505     
  -59892402.3344752     
  -57640226.0024117     
  -58198936.1656321     
  -58557424.5548911     
  -58754526.4678378     
  -58831287.9026502     
  -58825745.7089287     
  -58770125.2795539     
  -58690513.9303093     
  -58608272.7785266     
  -58542265.9087969     
  -58511138.5549899     
  -58535033.8138006     
  -58636172.5874517     
  -58837727.7466038     
  -59160723.8037906     
  -57872080.9058185     
  -58367762.0035649     
  -58617900.6002193     
  -58680779.0044160     
  -58614823.9785752     
  -58470012.4805610     
  -58284497.2320199     
  -58085691.1277875     
  -57893780.8294465     
  -57725902.8077171     
  -57600112.3720232     
  -57538652.1730545     
  -57569750.0303960     
  -57726905.8483797     
  -58044569.7894391     
  -58172067.5586179     
  -58546610.0857532     
  -58618163.3588564     
  -58478298.8666324     
  -58212226.6904940     
  -57884684.5588472     
  -57537666.8507037     
  -57195782.7728457     
  -56873589.4610972     
  -56582397.0965083     
  -56336120.3096034     
  -56156617.1112835     
  -56078158.4842695     
  -56148289.7392370     
  -56422734.7552767     
  -58544588.3774953     
  -58705678.6367851     
  -58489638.7651978     
  -58049870.4040748     
  -57512639.1003895     
  -56956977.2551698     
  -56421284.5858976     
  -55918924.5709352     
  -55452417.1739855     
  -55021773.1925095     
  -54631131.7858337     
  -54296848.2453195     
  -54056208.2686118     
  -53975062.3018590     
  -54142785.2752659     
  -58991947.8969321     
  -58776715.4043864     
  -58094342.6448505     
  -57217691.5503132     
  -56330622.1360438     
  -55512151.9936822     
  -54774467.1855720     
  -54107998.2763955     
  -53496022.8952577     
  -52921693.7015499     
  -52372898.1135090     
  -51849338.2597695     
  -51382630.6779906     
  -51054233.6974491     
  -51009750.7680910     
  -59496378.0475059     
  -58590287.2830389     
  -57119989.3881277     
  -55629971.4763035     
  -54349079.1600130     
  -53266041.6356287     
  -52340932.9470136     
  -51529534.3125390     
  -50791363.6471154     
  -50089814.9127647     
  -49391588.5570744     
  -48669377.7738985     
  -47911121.0989550     
  -47205581.0512301     
  -46764191.5259368     
  -60059310.0363362     
  -57533685.7284277     
  -54699994.7236539     
  -52591188.2557768     
  -50972349.5520677     
  -49693353.4037092     
  -48643144.2297498     
  -47742226.8573978     
  -46928829.6561161     
  -46149661.1871340     
  -45352422.3220342     
  -44478302.9546549     
  -43458647.1247544     
  -42195844.8070334     
  -41062886.6945563     
  -57512385.2496106     
  -51559154.8848378     
  -48273714.9588285     
  -46091942.0853484     
  -44518151.8664707     
  -43311194.3488742     
  -42335974.6881992     
  -41505780.2371196     
  -40757261.5272520     
  -40036254.8663851     
  -39286762.7305642     
  -38437720.1485593     
  -37377475.1336251     
  -35894399.9748579     
  -33300614.0608688     
SCALARS 2waySource double 
LOOKUP_TABLE default
  0.000000000000000E+000
  0.000000000000000E+000
  0.000000000000000E+000
  0.000000000000000E+000
  0.000000000000000E+000
  0.000000000000000E+000
  0.000000000000000E+000
  0.000000000000000E+000
  0.000000000000000E+000
  0.000000000000000E+000
  0.000000000000000E+000
  0.000000000000000E+000
  0.000000000000000E+000
  0.000000000000000E+000
  0.000000000000000E+000
  0.000000000000000E+000
  0.000000000000000E+000
  0.000000000000000E+000
  0.000000000000000E+000
  0.000000000000000E+000
  0.000000000000000E+000
  0.000000000000000E+000
  0.000000000000000E+000
  0.000000000000000E+000
  0.000000000000000E+000
  0.000000000000000E+000
  0.000000000000000E+000
  0.000000000000000E+000
  0.000000000000000E+000
  0.000000000000000E+000
  0.000000000000000E+000
  0.000000000000000E+000
  0.000000000000000E+000
  0.000000000000000E+000
  0.000000000000000E+000
  0.000000000000000E+000
  0.000000000000000E+000
  0.000000000000000E+000
  0.000000000000000E+000
  0.000000000000000E+000
  0.000000000000000E+000
  0.000000000000000E+000
  0.000000000000000E+000
  0.000000000000000E+000
  0.000000000000000E+000
  0.000000000000000E+000
  0.000000000000000E+000
  0.000000000000000E+000
  0.000000000000000E+000
  0.000000000000000E+000
  0.000000000000000E+000
  0.000000000000000E+000
  0.000000000000000E+000
  0.000000000000000E+000
  0.000000000000000E+000
  0.000000000000000E+000
  0.000000000000000E+000
  0.000000000000000E+000
  0.000000000000000E+000
  0.000000000000000E+000
  0.000000000000000E+000
  0.000000000000000E+000
  0.000000000000000E+000
  0.000000000000000E+000
  0.000000000000000E+000
  0.000000000000000E+000
  0.000000000000000E+000
  0.000000000000000E+000
  0.000000000000000E+000
  0.000000000000000E+000
  0.000000000000000E+000
  0.000000000000000E+000
  0.000000000000000E+000
  0.000000000000000E+000
  0.000000000000000E+000
  0.000000000000000E+000
  0.000000000000000E+000
  0.000000000000000E+000
  0.000000000000000E+000
  0.000000000000000E+000
  0.000000000000000E+000
  0.000000000000000E+000
  0.000000000000000E+000
  0.000000000000000E+000
  0.000000000000000E+000
  0.000000000000000E+000
  0.000000000000000E+000
  0.000000000000000E+000
  0.000000000000000E+000
  0.000000000000000E+000
  0.000000000000000E+000
  0.000000000000000E+000
  0.000000000000000E+000
  0.000000000000000E+000
  0.000000000000000E+000
  0.000000000000000E+000
  0.000000000000000E+000
  0.000000000000000E+000
  0.000000000000000E+000
  0.000000000000000E+000
  0.000000000000000E+000
  0.000000000000000E+000
  0.000000000000000E+000
  0.000000000000000E+000
  0.000000000000000E+000
  0.000000000000000E+000
  0.000000000000000E+000
  0.000000000000000E+000
  0.000000000000000E+000
  0.000000000000000E+000
  0.000000000000000E+000
  0.000000000000000E+000
  0.000000000000000E+000
  0.000000000000000E+000
  0.000000000000000E+000
  0.000000000000000E+000
  0.000000000000000E+000
  0.000000000000000E+000
  0.000000000000000E+000
  0.000000000000000E+000
  0.000000000000000E+000
  0.000000000000000E+000
  0.000000000000000E+000
  0.000000000000000E+000
  0.000000000000000E+000
  0.000000000000000E+000
  0.000000000000000E+000
  0.000000000000000E+000
  0.000000000000000E+000
  0.000000000000000E+000
  0.000000000000000E+000
  0.000000000000000E+000
  0.000000000000000E+000
  0.000000000000000E+000
  0.000000000000000E+000
  0.000000000000000E+000
  0.000000000000000E+000
  0.000000000000000E+000
  0.000000000000000E+000
  0.000000000000000E+000
  0.000000000000000E+000
  0.000000000000000E+000
  0.000000000000000E+000
  0.000000000000000E+000
  0.000000000000000E+000
  0.000000000000000E+000
  0.000000000000000E+000
  0.000000000000000E+000
  0.000000000000000E+000
  0.000000000000000E+000
  0.000000000000000E+000
  0.000000000000000E+000
  0.000000000000000E+000
  0.000000000000000E+000
  0.000000000000000E+000
  0.000000000000000E+000
  0.000000000000000E+000
  0.000000000000000E+000
  0.000000000000000E+000
  0.000000000000000E+000
  0.000000000000000E+000
  0.000000000000000E+000
  0.000000000000000E+000
  0.000000000000000E+000
  0.000000000000000E+000
  0.000000000000000E+000
  0.000000000000000E+000
  0.000000000000000E+000
  0.000000000000000E+000
  0.000000000000000E+000
  0.000000000000000E+000
  0.000000000000000E+000
  0.000000000000000E+000
  0.000000000000000E+000
  0.000000000000000E+000
  0.000000000000000E+000
  0.000000000000000E+000
  0.000000000000000E+000
  0.000000000000000E+000
  0.000000000000000E+000
  0.000000000000000E+000
  0.000000000000000E+000
  0.000000000000000E+000
  0.000000000000000E+000
  0.000000000000000E+000
  0.000000000000000E+000
  0.000000000000000E+000
  0.000000000000000E+000
  0.000000000000000E+000
  0.000000000000000E+000
  0.000000000000000E+000
  0.000000000000000E+000
  0.000000000000000E+000
  0.000000000000000E+000
  0.000000000000000E+000
  0.000000000000000E+000
  0.000000000000000E+000
  0.000000000000000E+000
  0.000000000000000E+000
  0.000000000000000E+000
  0.000000000000000E+000
  0.000000000000000E+000
  0.000000000000000E+000
  0.000000000000000E+000
  0.000000000000000E+000
  0.000000000000000E+000
  0.000000000000000E+000
  0.000000000000000E+000
  0.000000000000000E+000
  0.000000000000000E+000
  0.000000000000000E+000
  0.000000000000000E+000
  0.000000000000000E+000
  0.000000000000000E+000
  0.000000000000000E+000
  0.000000000000000E+000
  0.000000000000000E+000
  0.000000000000000E+000
  0.000000000000000E+000
  0.000000000000000E+000
  0.000000000000000E+000
  0.000000000000000E+000
  0.000000000000000E+000
  0.000000000000000E+000
  0.000000000000000E+000
  0.000000000000000E+000
  0.000000000000000E+000
  0.000000000000000E+000
  0.000000000000000E+000
  0.000000000000000E+000
  0.000000000000000E+000
  0.000000000000000E+000
  0.000000000000000E+000
  0.000000000000000E+000
  0.000000000000000E+000
  0.000000000000000E+000
  0.000000000000000E+000
  0.000000000000000E+000
  0.000000000000000E+000
  0.000000000000000E+000
  0.000000000000000E+000
  0.000000000000000E+000
  0.000000000000000E+000
  0.000000000000000E+000
  0.000000000000000E+000
  0.000000000000000E+000
  0.000000000000000E+000
  0.000000000000000E+000
  0.000000000000000E+000
  0.000000000000000E+000
  0.000000000000000E+000
  0.000000000000000E+000
  0.000000000000000E+000
  0.000000000000000E+000
  0.000000000000000E+000
  0.000000000000000E+000
  0.000000000000000E+000
  0.000000000000000E+000
  0.000000000000000E+000
  0.000000000000000E+000
  0.000000000000000E+000
  0.000000000000000E+000
  0.000000000000000E+000
  0.000000000000000E+000
  0.000000000000000E+000
  0.000000000000000E+000
  0.000000000000000E+000
  0.000000000000000E+000
  0.000000000000000E+000
  0.000000000000000E+000
  0.000000000000000E+000
  0.000000000000000E+000
  0.000000000000000E+000
  0.000000000000000E+000
  0.000000000000000E+000
  0.000000000000000E+000
  0.000000000000000E+000
  0.000000000000000E+000
  0.000000000000000E+000
  0.000000000000000E+000
  0.000000000000000E+000
  0.000000000000000E+000
  0.000000000000000E+000
  0.000000000000000E+000
  0.000000000000000E+000
  0.000000000000000E+000
  0.000000000000000E+000
  0.000000000000000E+000
  0.000000000000000E+000
  0.000000000000000E+000
  0.000000000000000E+000
  0.000000000000000E+000
  0.000000000000000E+000
  0.000000000000000E+000
  0.000000000000000E+000
  0.000000000000000E+000
  0.000000000000000E+000
  0.000000000000000E+000
  0.000000000000000E+000
  0.000000000000000E+000
  0.000000000000000E+000
  0.000000000000000E+000
  0.000000000000000E+000
  0.000000000000000E+000
  0.000000000000000E+000
  0.000000000000000E+000
  0.000000000000000E+000
  0.000000000000000E+000
  0.000000000000000E+000
  0.000000000000000E+000
  0.000000000000000E+000
  0.000000000000000E+000
  0.000000000000000E+000
  0.000000000000000E+000
  0.000000000000000E+000
  0.000000000000000E+000
  0.000000000000000E+000
  0.000000000000000E+000
  0.000000000000000E+000
  0.000000000000000E+000
  0.000000000000000E+000
  0.000000000000000E+000
  0.000000000000000E+000
  0.000000000000000E+000
  0.000000000000000E+000
  0.000000000000000E+000
  0.000000000000000E+000
  0.000000000000000E+000
  0.000000000000000E+000
  0.000000000000000E+000
  0.000000000000000E+000
  0.000000000000000E+000
  0.000000000000000E+000
  0.000000000000000E+000
  0.000000000000000E+000
  0.000000000000000E+000
  0.000000000000000E+000
  0.000000000000000E+000
  0.000000000000000E+000
  0.000000000000000E+000
  0.000000000000000E+000
  0.000000000000000E+000
  0.000000000000000E+000
  0.000000000000000E+000
  0.000000000000000E+000
  0.000000000000000E+000
  0.000000000000000E+000
  0.000000000000000E+000
  0.000000000000000E+000
  0.000000000000000E+000
  0.000000000000000E+000
  0.000000000000000E+000
  0.000000000000000E+000
  0.000000000000000E+000
  0.000000000000000E+000
  0.000000000000000E+000
  0.000000000000000E+000
  0.000000000000000E+000
  0.000000000000000E+000
  0.000000000000000E+000
  0.000000000000000E+000
  0.000000000000000E+000
  0.000000000000000E+000
  0.000000000000000E+000
  0.000000000000000E+000
  0.000000000000000E+000
  0.000000000000000E+000
  0.000000000000000E+000
  0.000000000000000E+000
  0.000000000000000E+000
  0.000000000000000E+000
  0.000000000000000E+000
  0.000000000000000E+000
  0.000000000000000E+000
  0.000000000000000E+000
  0.000000000000000E+000
  0.000000000000000E+000
  0.000000000000000E+000
  0.000000000000000E+000
  0.000000000000000E+000
  0.000000000000000E+000
  0.000000000000000E+000
  0.000000000000000E+000
  0.000000000000000E+000
  0.000000000000000E+000
  0.000000000000000E+000
  0.000000000000000E+000
  0.000000000000000E+000
  0.000000000000000E+000
  0.000000000000000E+000
  0.000000000000000E+000
  0.000000000000000E+000
  0.000000000000000E+000
  0.000000000000000E+000
  0.000000000000000E+000
  0.000000000000000E+000
  0.000000000000000E+000
  0.000000000000000E+000
  0.000000000000000E+000
  0.000000000000000E+000
  0.000000000000000E+000
  0.000000000000000E+000
  0.000000000000000E+000
  0.000000000000000E+000
  0.000000000000000E+000
  0.000000000000000E+000
  0.000000000000000E+000
  0.000000000000000E+000
  0.000000000000000E+000
  0.000000000000000E+000
  0.000000000000000E+000
  0.000000000000000E+000
  0.000000000000000E+000
  0.000000000000000E+000
  0.000000000000000E+000
  0.000000000000000E+000
  0.000000000000000E+000
  0.000000000000000E+000
  0.000000000000000E+000
  0.000000000000000E+000
  0.000000000000000E+000
  0.000000000000000E+000
  0.000000000000000E+000
  0.000000000000000E+000
  0.000000000000000E+000
  0.000000000000000E+000
  0.000000000000000E+000
  0.000000000000000E+000
  0.000000000000000E+000
  0.000000000000000E+000
  0.000000000000000E+000
  0.000000000000000E+000
  0.000000000000000E+000
  0.000000000000000E+000
  0.000000000000000E+000
  0.000000000000000E+000
  0.000000000000000E+000
  0.000000000000000E+000
  0.000000000000000E+000
  0.000000000000000E+000
  0.000000000000000E+000
  0.000000000000000E+000
  0.000000000000000E+000
  0.000000000000000E+000
  0.000000000000000E+000
  0.000000000000000E+000
  0.000000000000000E+000
  0.000000000000000E+000
  0.000000000000000E+000
  0.000000000000000E+000
SCALARS elementIsPlast double 
LOOKUP_TABLE default
  0.000000000000000E+000
  0.000000000000000E+000
  0.000000000000000E+000
  0.000000000000000E+000
  0.000000000000000E+000
  0.000000000000000E+000
  0.000000000000000E+000
  0.000000000000000E+000
  0.000000000000000E+000
  0.000000000000000E+000
  0.000000000000000E+000
  0.000000000000000E+000
  0.000000000000000E+000
  0.000000000000000E+000
  0.000000000000000E+000
  0.000000000000000E+000
  0.000000000000000E+000
  0.000000000000000E+000
  0.000000000000000E+000
  0.000000000000000E+000
  0.000000000000000E+000
  0.000000000000000E+000
  0.000000000000000E+000
  0.000000000000000E+000
  0.000000000000000E+000
  0.000000000000000E+000
  0.000000000000000E+000
  0.000000000000000E+000
  0.000000000000000E+000
  0.000000000000000E+000
  0.000000000000000E+000
  0.000000000000000E+000
  0.000000000000000E+000
  0.000000000000000E+000
  0.000000000000000E+000
  0.000000000000000E+000
  0.000000000000000E+000
  0.000000000000000E+000
  0.000000000000000E+000
  0.000000000000000E+000
  0.000000000000000E+000
  0.000000000000000E+000
  0.000000000000000E+000
  0.000000000000000E+000
  0.000000000000000E+000
  0.000000000000000E+000
  0.000000000000000E+000
  0.000000000000000E+000
  0.000000000000000E+000
  0.000000000000000E+000
  0.000000000000000E+000
  0.000000000000000E+000
  0.000000000000000E+000
  0.000000000000000E+000
  0.000000000000000E+000
  0.000000000000000E+000
  0.000000000000000E+000
  0.000000000000000E+000
  0.000000000000000E+000
  0.000000000000000E+000
  0.000000000000000E+000
  0.000000000000000E+000
  0.000000000000000E+000
  0.000000000000000E+000
  0.000000000000000E+000
  0.000000000000000E+000
  0.000000000000000E+000
  0.000000000000000E+000
  0.000000000000000E+000
  0.000000000000000E+000
  0.000000000000000E+000
  0.000000000000000E+000
  0.000000000000000E+000
  0.000000000000000E+000
  0.000000000000000E+000
  0.000000000000000E+000
  0.000000000000000E+000
  0.000000000000000E+000
  0.000000000000000E+000
  0.000000000000000E+000
  0.000000000000000E+000
  0.000000000000000E+000
  0.000000000000000E+000
  0.000000000000000E+000
  0.000000000000000E+000
  0.000000000000000E+000
  0.000000000000000E+000
  0.000000000000000E+000
  0.000000000000000E+000
  0.000000000000000E+000
  0.000000000000000E+000
  0.000000000000000E+000
  0.000000000000000E+000
  0.000000000000000E+000
  0.000000000000000E+000
  0.000000000000000E+000
  0.000000000000000E+000
  0.000000000000000E+000
  0.000000000000000E+000
  0.000000000000000E+000
  0.000000000000000E+000
  0.000000000000000E+000
  0.000000000000000E+000
  0.000000000000000E+000
  0.000000000000000E+000
  0.000000000000000E+000
  0.000000000000000E+000
  0.000000000000000E+000
  0.000000000000000E+000
  0.000000000000000E+000
  0.000000000000000E+000
  0.000000000000000E+000
  0.000000000000000E+000
  0.000000000000000E+000
  0.000000000000000E+000
  0.000000000000000E+000
  0.000000000000000E+000
  0.000000000000000E+000
  0.000000000000000E+000
  0.000000000000000E+000
  0.000000000000000E+000
  0.000000000000000E+000
  0.000000000000000E+000
  0.000000000000000E+000
  0.000000000000000E+000
  0.000000000000000E+000
  0.000000000000000E+000
  0.000000000000000E+000
  0.000000000000000E+000
  0.000000000000000E+000
  0.000000000000000E+000
  0.000000000000000E+000
  0.000000000000000E+000
  0.000000000000000E+000
  0.000000000000000E+000
  0.000000000000000E+000
  0.000000000000000E+000
  0.000000000000000E+000
  0.000000000000000E+000
  0.000000000000000E+000
  0.000000000000000E+000
  0.000000000000000E+000
  0.000000000000000E+000
  0.000000000000000E+000
  0.000000000000000E+000
  0.000000000000000E+000
  0.000000000000000E+000
  0.000000000000000E+000
  0.000000000000000E+000
  0.000000000000000E+000
  0.000000000000000E+000
  0.000000000000000E+000
  0.000000000000000E+000
  0.000000000000000E+000
  0.000000000000000E+000
  0.000000000000000E+000
  0.000000000000000E+000
  0.000000000000000E+000
  0.000000000000000E+000
  0.000000000000000E+000
  0.000000000000000E+000
  0.000000000000000E+000
  0.000000000000000E+000
  0.000000000000000E+000
  0.000000000000000E+000
  0.000000000000000E+000
  0.000000000000000E+000
  0.000000000000000E+000
  0.000000000000000E+000
  0.000000000000000E+000
  0.000000000000000E+000
  0.000000000000000E+000
  0.000000000000000E+000
  0.000000000000000E+000
  0.000000000000000E+000
  0.000000000000000E+000
  0.000000000000000E+000
  0.000000000000000E+000
  0.000000000000000E+000
  0.000000000000000E+000
  0.000000000000000E+000
  0.000000000000000E+000
  0.000000000000000E+000
  0.000000000000000E+000
  0.000000000000000E+000
  0.000000000000000E+000
  0.000000000000000E+000
  0.000000000000000E+000
  0.000000000000000E+000
  0.000000000000000E+000
  0.000000000000000E+000
  0.000000000000000E+000
  0.000000000000000E+000
  0.000000000000000E+000
  0.000000000000000E+000
  0.000000000000000E+000
  0.000000000000000E+000
  0.000000000000000E+000
  0.000000000000000E+000
  0.000000000000000E+000
  0.000000000000000E+000
  0.000000000000000E+000
  0.000000000000000E+000
  0.000000000000000E+000
  0.000000000000000E+000
  0.000000000000000E+000
  0.000000000000000E+000
  0.000000000000000E+000
  0.000000000000000E+000
  0.000000000000000E+000
  0.000000000000000E+000
  0.000000000000000E+000
  0.000000000000000E+000
  0.000000000000000E+000
  0.000000000000000E+000
  0.000000000000000E+000
  0.000000000000000E+000
  0.000000000000000E+000
  0.000000000000000E+000
  0.000000000000000E+000
  0.000000000000000E+000
  0.000000000000000E+000
  0.000000000000000E+000
  0.000000000000000E+000
  0.000000000000000E+000
  0.000000000000000E+000
  0.000000000000000E+000
  0.000000000000000E+000
  0.000000000000000E+000
  0.000000000000000E+000
  0.000000000000000E+000
  0.000000000000000E+000
  0.000000000000000E+000
  0.000000000000000E+000
  0.000000000000000E+000
  0.000000000000000E+000
  0.000000000000000E+000
  0.000000000000000E+000
  0.000000000000000E+000
  0.000000000000000E+000
  0.000000000000000E+000
  0.000000000000000E+000
  0.000000000000000E+000
  0.000000000000000E+000
  0.000000000000000E+000
  0.000000000000000E+000
  0.000000000000000E+000
  0.000000000000000E+000
  0.000000000000000E+000
  0.000000000000000E+000
  0.000000000000000E+000
  0.000000000000000E+000
  0.000000000000000E+000
  0.000000000000000E+000
  0.000000000000000E+000
  0.000000000000000E+000
  0.000000000000000E+000
  0.000000000000000E+000
  0.000000000000000E+000
  0.000000000000000E+000
  0.000000000000000E+000
  0.000000000000000E+000
  0.000000000000000E+000
  0.000000000000000E+000
  0.000000000000000E+000
  0.000000000000000E+000
  0.000000000000000E+000
  0.000000000000000E+000
  0.000000000000000E+000
  0.000000000000000E+000
  0.000000000000000E+000
  0.000000000000000E+000
  0.000000000000000E+000
  0.000000000000000E+000
  0.000000000000000E+000
  0.000000000000000E+000
  0.000000000000000E+000
  0.000000000000000E+000
  0.000000000000000E+000
  0.000000000000000E+000
  0.000000000000000E+000
  0.000000000000000E+000
  0.000000000000000E+000
  0.000000000000000E+000
  0.000000000000000E+000
  0.000000000000000E+000
  0.000000000000000E+000
  0.000000000000000E+000
  0.000000000000000E+000
  0.000000000000000E+000
  0.000000000000000E+000
  0.000000000000000E+000
  0.000000000000000E+000
  0.000000000000000E+000
  0.000000000000000E+000
  0.000000000000000E+000
  0.000000000000000E+000
  0.000000000000000E+000
  0.000000000000000E+000
  0.000000000000000E+000
  0.000000000000000E+000
  0.000000000000000E+000
  0.000000000000000E+000
  0.000000000000000E+000
  0.000000000000000E+000
  0.000000000000000E+000
  0.000000000000000E+000
  0.000000000000000E+000
  0.000000000000000E+000
  0.000000000000000E+000
  0.000000000000000E+000
  0.000000000000000E+000
  0.000000000000000E+000
  0.000000000000000E+000
  0.000000000000000E+000
  0.000000000000000E+000
  0.000000000000000E+000
  0.000000000000000E+000
  0.000000000000000E+000
  0.000000000000000E+000
  0.000000000000000E+000
  0.000000000000000E+000
  0.000000000000000E+000
  0.000000000000000E+000
  0.000000000000000E+000
  0.000000000000000E+000
  0.000000000000000E+000
  0.000000000000000E+000
  0.000000000000000E+000
  0.000000000000000E+000
  0.000000000000000E+000
  0.000000000000000E+000
  0.000000000000000E+000
  0.000000000000000E+000
  0.000000000000000E+000
  0.000000000000000E+000
  0.000000000000000E+000
  0.000000000000000E+000
  0.000000000000000E+000
  0.000000000000000E+000
  0.000000000000000E+000
  0.000000000000000E+000
  0.000000000000000E+000
  0.000000000000000E+000
  0.000000000000000E+000
  0.000000000000000E+000
  0.000000000000000E+000
  0.000000000000000E+000
  0.000000000000000E+000
  0.000000000000000E+000
  0.000000000000000E+000
  0.000000000000000E+000
  0.000000000000000E+000
  0.000000000000000E+000
  0.000000000000000E+000
  0.000000000000000E+000
  0.000000000000000E+000
  0.000000000000000E+000
  0.000000000000000E+000
  0.000000000000000E+000
  0.000000000000000E+000
  0.000000000000000E+000
  0.000000000000000E+000
  0.000000000000000E+000
  0.000000000000000E+000
  0.000000000000000E+000
  0.000000000000000E+000
  0.000000000000000E+000
  0.000000000000000E+000
  0.000000000000000E+000
  0.000000000000000E+000
  0.000000000000000E+000
  0.000000000000000E+000
  0.000000000000000E+000
  0.000000000000000E+000
  0.000000000000000E+000
  0.000000000000000E+000
  0.000000000000000E+000
  0.000000000000000E+000
  0.000000000000000E+000
  0.000000000000000E+000
  0.000000000000000E+000
  0.000000000000000E+000
  0.000000000000000E+000
  0.000000000000000E+000
  0.000000000000000E+000
  0.000000000000000E+000
  0.000000000000000E+000
  0.000000000000000E+000
  0.000000000000000E+000
  0.000000000000000E+000
  0.000000000000000E+000
  0.000000000000000E+000
  0.000000000000000E+000
  0.000000000000000E+000
  0.000000000000000E+000
  0.000000000000000E+000
  0.000000000000000E+000
  0.000000000000000E+000
  0.000000000000000E+000
  0.000000000000000E+000
  0.000000000000000E+000
  0.000000000000000E+000
  0.000000000000000E+000
  0.000000000000000E+000
  0.000000000000000E+000
  0.000000000000000E+000
  0.000000000000000E+000
  0.000000000000000E+000
  0.000000000000000E+000
  0.000000000000000E+000
  0.000000000000000E+000
  0.000000000000000E+000
  0.000000000000000E+000
  0.000000000000000E+000
  0.000000000000000E+000
  0.000000000000000E+000
  0.000000000000000E+000
  0.000000000000000E+000
  0.000000000000000E+000
  0.000000000000000E+000
  0.000000000000000E+000
  0.000000000000000E+000
  0.000000000000000E+000
  0.000000000000000E+000
  0.000000000000000E+000
  0.000000000000000E+000
  0.000000000000000E+000
  0.000000000000000E+000
  0.000000000000000E+000
  0.000000000000000E+000
  0.000000000000000E+000
  0.000000000000000E+000
  0.000000000000000E+000
  0.000000000000000E+000
  0.000000000000000E+000
  0.000000000000000E+000
  0.000000000000000E+000
  0.000000000000000E+000
  0.000000000000000E+000
  0.000000000000000E+000
  0.000000000000000E+000
  0.000000000000000E+000
  0.000000000000000E+000
  0.000000000000000E+000
  0.000000000000000E+000
  0.000000000000000E+000
  0.000000000000000E+000
  0.000000000000000E+000
  0.000000000000000E+000
SCALARS poroL double 
LOOKUP_TABLE default
  0.270049457705539     
  0.267678143076101     
  0.266314976722477     
  0.265325382611058     
  0.264526708517633     
  0.263837214743060     
  0.263216848072011     
  0.262643494667807     
  0.262102928805645     
  0.261583159183883     
  0.261069820244165     
  0.260540010678359     
  0.259948397941441     
  0.259195282575174     
  0.257871300207441     
  0.265312617685223     
  0.264218599951523     
  0.263158690257531     
  0.262292210829127     
  0.261544571004597     
  0.260876415584342     
  0.260263702864992     
  0.259692078817738     
  0.259151825930872     
  0.258634642805390     
  0.258130971729781     
  0.257626735521055     
  0.257101439159481     
  0.256512029477824     
  0.256046689487168     
  0.261772835908040     
  0.261439560080894     
  0.260819447048092     
  0.260145867991315     
  0.259495154800620     
  0.258877047103469     
  0.258291654619210     
  0.257736836445928     
  0.257210430153326     
  0.256710375702382     
  0.256234688304574     
  0.255782886551499     
  0.255359522405231     
  0.255017250060887     
  0.254867115376886     
  0.259637610741998     
  0.259599911368488     
  0.259247347308714     
  0.258747130867340     
  0.258194143336630     
  0.257632370664857     
  0.257080653620673     
  0.256548482157335     
  0.256041476433049     
  0.255564087762645     
  0.255121707262867     
  0.254723748465897     
  0.254393326927953     
  0.254175270385488     
  0.254144609040664     
  0.258549797753490     
  0.258553360214171     
  0.258303143908403     
  0.257897828094250     
  0.257411971128473     
  0.256892899594373     
  0.256368484894849     
  0.255855511077265     
  0.255365396262658     
  0.254907571319297     
  0.254492190806248     
  0.254133616277747     
  0.253853940027706     
  0.253685837044213     
  0.253667951345441     
  0.258127912307331     
  0.258052740949767     
  0.257797385433450     
  0.257413894606611     
  0.256952287719284     
  0.256451642785264     
  0.255939678475893     
  0.255435734691412     
  0.254954115154269     
  0.254506872778805     
  0.254106152170339     
  0.253766184436153     
  0.253504644816853     
  0.253341702240985     
  0.253295087006715     
  0.258090769321541     
  0.257889660965010     
  0.257568538296477     
  0.257154099169072     
  0.256678008676935     
  0.256169272397117     
  0.255651471908822     
  0.255142968602578     
  0.254658350420649     
  0.254210124481608     
  0.253810217751694     
  0.253471024582207     
  0.253205509676546     
  0.253025711852870     
  0.252938966375805     
  0.258265151063884     
  0.257922108542452     
  0.257502982077057     
  0.257022949554946     
  0.256502379129669     
  0.255962014569532     
  0.255420393865426     
  0.254893134464050     
  0.254393326637624     
  0.253932370169002     
  0.253520794789218     
  0.253168712682840     
  0.252885576910767     
  0.252678945205544     
  0.252552225519572     
  0.258552771513164     
  0.258061323907266     
  0.257526117530233     
  0.256958055755996     
  0.256371199761473     
  0.255780338750094     
  0.255199334389939     
  0.254640414456122     
  0.254114184750272     
  0.253630011020513     
  0.253196445093283     
  0.252821427197374     
  0.252512057264899     
  0.252273840416333     
  0.252109522866529     
  0.258896889793383     
  0.258250986740826     
  0.257587566856773     
  0.256916278084374     
  0.256247615059449     
  0.255592071257142     
  0.254959408227461     
  0.254358304852818     
  0.253796379773022     
  0.253280441430413     
  0.252816781445382     
  0.252411343990233     
  0.252069656705340     
  0.251796498427064     
  0.251595411069205     
  0.259259309570892     
  0.258450655909736     
  0.257649019974793     
  0.256863526283850     
  0.256102185556554     
  0.255372001982437     
  0.254678961179646     
  0.254028102109003     
  0.253423732183092     
  0.252869745417185     
  0.252369957855759     
  0.251928372168568     
  0.251549312370864     
  0.251237422250256     
  0.250997584592418     
  0.259606802337187     
  0.258624929840670     
  0.257675986838034     
  0.256768166124844     
  0.255907017234122     
  0.255096134124340     
  0.254337665338045     
  0.253632772412901     
  0.252982099063092     
  0.252386257071058     
  0.251846301144195     
  0.251364155606743     
  0.250942965606045     
  0.250587366375938     
  0.250303684253714     
  0.259903389968763     
  0.258736718485297     
  0.257632419943201     
  0.256596762474830     
  0.255632197166054     
  0.254738436553331     
  0.253913352205415     
  0.253153761289636     
  0.252456151931873     
  0.251817371590258     
  0.251235283181839     
  0.250709383739841     
  0.250241377852704     
  0.249835697723564     
  0.249499955873892     
  0.260105627223947     
  0.258742853745980     
  0.257477004490545     
  0.256311065905192     
  0.255243312324062     
  0.254268691724174     
  0.253380029962605     
  0.252569091549646     
  0.251827536178871     
  0.251147804677331     
  0.250523960692425     
  0.249952506736489     
  0.249433183850330     
  0.248969750151551     
  0.248570711325306     
  0.260159200271981     
  0.258590842367304     
  0.257160283096149     
  0.255865569155444     
  0.254699382219026     
  0.253650700248906     
  0.252706261309279     
  0.251851851548103     
  0.251073452489709     
  0.250358291893813     
  0.249695845911803     
  0.249078836470555     
  0.248504254973933     
  0.247974420045955     
  0.247498042328994     
  0.259996007296265     
  0.258216100512501     
  0.256622140085582     
  0.255205275554915     
  0.253950884645265     
  0.252840502837999     
  0.251853517731080     
  0.250968638801205     
  0.250165179589520     
  0.249424213749890     
  0.248729681888041     
  0.248069527869285     
  0.247436928740774     
  0.246831651140985     
  0.246261520353305     
  0.259531358722901     
  0.257539344778471     
  0.255789400910783     
  0.254263504262237     
  0.252937733531065     
  0.251784478052515     
  0.250774344789040     
  0.249877759258674     
  0.249066304346242     
  0.248313886843913     
  0.247597852914271     
  0.246900182972455     
  0.246208880851778     
  0.245519632352738     
  0.244837747832750     
  0.258661137817611     
  0.256463973748520     
  0.254573416002848     
  0.252959643404854     
  0.251587146608902     
  0.250417258206147     
  0.249410266608973     
  0.248527085159836     
  0.247730534294744     
  0.246986373188557     
  0.246264270244503     
  0.245538920326093     
  0.244791499142648     
  0.244011594433441     
  0.243199675692171     
  0.257258783830658     
  0.254873300203421     
  0.252867520449882     
  0.251196780246887     
  0.249811358014473     
  0.248659425452249     
  0.247689380842093     
  0.246851500469412     
  0.246098995358232     
  0.245388687312719     
  0.244681597899192     
  0.243943771349654     
  0.243147630091923     
  0.242274095746439     
  0.241315606488839     
  0.255171833934404     
  0.252627407362071     
  0.250544202705399     
  0.248859096674897     
  0.247505098192307     
  0.246414918916709     
  0.245523562174126     
  0.244769826279715     
  0.244096877332297     
  0.243452237122413     
  0.242787637069958     
  0.242059217812732     
  0.241228522596208     
  0.240264646585445     
  0.239147770330269     
  0.252217475564830     
  0.249559196390210     
  0.247451670770336     
  0.245808811339994     
  0.244542670359264     
  0.243567987637886     
  0.242805085101472     
  0.242180998552784     
  0.241629158635067     
  0.241088195091670     
  0.240500543543841     
  0.239811542989658     
  0.238969664354269     
  0.237928414555847     
  0.236650280474449     
  0.248176057310490     
  0.245468823742014     
  0.243409244330697     
  0.241882248510587     
  0.240774264773947     
  0.239979317425699     
  0.239402240859618     
  0.238959008516689     
  0.238574859768486     
  0.238181197647129     
  0.237712243422853     
  0.237102360895622     
  0.236284924942157     
  0.235193524835054     
  0.233766117183313     
  0.242780617341943     
  0.240115091137421     
  0.238200543024755     
  0.236884250395281     
  0.236020781225511     
  0.235480531155149     
  0.235153034235251     
  0.234945585955829     
  0.234778720862434     
  0.234580195777228     
  0.234278806705715     
  0.233799077532465     
  0.233057843290483     
  0.231964009886871     
  0.230422491894264     
  0.235698856679403     
  0.233201116743001     
  0.231562612249949     
  0.230579427683727     
  0.230065647576029     
  0.229865332727099     
  0.229854991446839     
  0.229938525384597     
  0.230038127390310     
  0.230084181251833     
  0.230005404670667     
  0.229719818646014     
  0.229127757393743     
  0.228108511934922     
  0.226523403263017     
  0.226500191449293     
  0.224349240269361     
  0.223167236607454     
  0.222677202457967     
  0.222640304926797     
  0.222873286856335     
  0.223246745995540     
  0.223671209158729     
  0.224080911568908     
  0.224418433375075     
  0.224621149294593     
  0.224608028677709     
  0.224265942968137     
  0.223440942011174     
  0.221937054437662     
  0.214593049088765     
  0.213052694253864     
  0.212586933422241     
  0.212803632314881     
  0.213394765134788     
  0.214156707889662     
  0.214970850788439     
  0.215773527430240     
  0.216524924736447     
  0.217192097411979     
  0.217734764672814     
  0.218086109431736     
  0.218132082749749     
  0.217684117907871     
  0.216473788315708     
  0.199080870898743     
  0.198579756141313     
  0.199224060364964     
  0.200439603422788     
  0.201832054041422     
  0.203201336142655     
  0.204492210411945     
  0.205690351781755     
  0.206797317420818     
  0.207817413206350     
  0.208748403827724     
  0.209568006188071     
  0.210183615927459     
  0.210398980745814     
  0.209841914533904     
  0.178453348058375     
  0.179698696982115     
  0.182140618488347     
  0.184784232474209     
  0.187101777378815     
  0.189121952039313     
  0.190898053229585     
  0.192489667665012     
  0.193950497653929     
  0.195331154837069     
  0.196682953566673     
  0.198055983894332     
  0.199494536045181     
  0.200800127121336     
  0.201566282773433     
  0.148834685491208     
  0.153884435937334     
  0.159751575908973     
  0.163999093241632     
  0.167324000887270     
  0.170022422637925     
  0.172301665400084     
  0.174302150705941     
  0.176133806461634     
  0.177897365121084     
  0.179704497104473     
  0.181706567987679     
  0.184123131517776     
  0.187411771082446     
  0.190670370408370     
  9.081688765213949E-002
  0.113173220677338     
  0.123721263728736     
  0.130704612787184     
  0.135758483908940     
  0.139679416582306     
  0.142886561755172     
  0.145645936279851     
  0.148152805513150     
  0.150579190046828     
  0.153113179950913     
  0.156011424339285     
  0.159717182422683     
  0.165102196393428     
  0.175683128057370     
