# vtk DataFile Version 3.0
vtk output
ASCII
DATASET UNSTRUCTURED_GRID
POINTS       496 double 
  0.00000000E+00  3.00000000E+02  0.00000000E+00
  0.00000000E+00  2.80000000E+02  0.00000000E+00
  0.00000000E+00  2.60000000E+02  0.00000000E+00
  0.00000000E+00  2.40000000E+02  0.00000000E+00
  0.00000000E+00  2.20000000E+02  0.00000000E+00
  0.00000000E+00  2.00000000E+02  0.00000000E+00
  0.00000000E+00  1.80000000E+02  0.00000000E+00
  0.00000000E+00  1.60000000E+02  0.00000000E+00
  0.00000000E+00  1.40000000E+02  0.00000000E+00
  0.00000000E+00  1.20000000E+02  0.00000000E+00
  0.00000000E+00  1.00000000E+02  0.00000000E+00
  0.00000000E+00  8.00000000E+01  0.00000000E+00
  0.00000000E+00  6.00000000E+01  0.00000000E+00
  0.00000000E+00  4.00000000E+01  0.00000000E+00
  0.00000000E+00  2.00000000E+01  0.00000000E+00
  0.00000000E+00  4.99600361E-14  0.00000000E+00
  2.00000000E+01  3.00000000E+02  0.00000000E+00
  2.00000000E+01  2.80000000E+02  0.00000000E+00
  2.00000000E+01  2.60000000E+02  0.00000000E+00
  2.00000000E+01  2.40000000E+02  0.00000000E+00
  2.00000000E+01  2.20000000E+02  0.00000000E+00
  2.00000000E+01  2.00000000E+02  0.00000000E+00
  2.00000000E+01  1.80000000E+02  0.00000000E+00
  2.00000000E+01  1.60000000E+02  0.00000000E+00
  2.00000000E+01  1.40000000E+02  0.00000000E+00
  2.00000000E+01  1.20000000E+02  0.00000000E+00
  2.00000000E+01  1.00000000E+02  0.00000000E+00
  2.00000000E+01  8.00000000E+01  0.00000000E+00
  2.00000000E+01  6.00000000E+01  0.00000000E+00
  2.00000000E+01  4.00000000E+01  0.00000000E+00
  2.00000000E+01  2.00000000E+01  0.00000000E+00
  2.00000000E+01  4.99600361E-14  0.00000000E+00
  4.00000000E+01  3.00000000E+02  0.00000000E+00
  4.00000000E+01  2.80000000E+02  0.00000000E+00
  4.00000000E+01  2.60000000E+02  0.00000000E+00
  4.00000000E+01  2.40000000E+02  0.00000000E+00
  4.00000000E+01  2.20000000E+02  0.00000000E+00
  4.00000000E+01  2.00000000E+02  0.00000000E+00
  4.00000000E+01  1.80000000E+02  0.00000000E+00
  4.00000000E+01  1.60000000E+02  0.00000000E+00
  4.00000000E+01  1.40000000E+02  0.00000000E+00
  4.00000000E+01  1.20000000E+02  0.00000000E+00
  4.00000000E+01  1.00000000E+02  0.00000000E+00
  4.00000000E+01  8.00000000E+01  0.00000000E+00
  4.00000000E+01  6.00000000E+01  0.00000000E+00
  4.00000000E+01  4.00000000E+01  0.00000000E+00
  4.00000000E+01  2.00000000E+01  0.00000000E+00
  4.00000000E+01  4.99600361E-14  0.00000000E+00
  6.00000000E+01  3.00000000E+02  0.00000000E+00
  6.00000000E+01  2.80000000E+02  0.00000000E+00
  6.00000000E+01  2.60000000E+02  0.00000000E+00
  6.00000000E+01  2.40000000E+02  0.00000000E+00
  6.00000000E+01  2.20000000E+02  0.00000000E+00
  6.00000000E+01  2.00000000E+02  0.00000000E+00
  6.00000000E+01  1.80000000E+02  0.00000000E+00
  6.00000000E+01  1.60000000E+02  0.00000000E+00
  6.00000000E+01  1.40000000E+02  0.00000000E+00
  6.00000000E+01  1.20000000E+02  0.00000000E+00
  6.00000000E+01  1.00000000E+02  0.00000000E+00
  6.00000000E+01  8.00000000E+01  0.00000000E+00
  6.00000000E+01  6.00000000E+01  0.00000000E+00
  6.00000000E+01  4.00000000E+01  0.00000000E+00
  6.00000000E+01  2.00000000E+01  0.00000000E+00
  6.00000000E+01  4.99600361E-14  0.00000000E+00
  8.00000000E+01  3.00000000E+02  0.00000000E+00
  8.00000000E+01  2.80000000E+02  0.00000000E+00
  8.00000000E+01  2.60000000E+02  0.00000000E+00
  8.00000000E+01  2.40000000E+02  0.00000000E+00
  8.00000000E+01  2.20000000E+02  0.00000000E+00
  8.00000000E+01  2.00000000E+02  0.00000000E+00
  8.00000000E+01  1.80000000E+02  0.00000000E+00
  8.00000000E+01  1.60000000E+02  0.00000000E+00
  8.00000000E+01  1.40000000E+02  0.00000000E+00
  8.00000000E+01  1.20000000E+02  0.00000000E+00
  8.00000000E+01  1.00000000E+02  0.00000000E+00
  8.00000000E+01  8.00000000E+01  0.00000000E+00
  8.00000000E+01  6.00000000E+01  0.00000000E+00
  8.00000000E+01  4.00000000E+01  0.00000000E+00
  8.00000000E+01  2.00000000E+01  0.00000000E+00
  8.00000000E+01  4.99600361E-14  0.00000000E+00
  1.00000000E+02  3.00000000E+02  0.00000000E+00
  1.00000000E+02  2.80000000E+02  0.00000000E+00
  1.00000000E+02  2.60000000E+02  0.00000000E+00
  1.00000000E+02  2.40000000E+02  0.00000000E+00
  1.00000000E+02  2.20000000E+02  0.00000000E+00
  1.00000000E+02  2.00000000E+02  0.00000000E+00
  1.00000000E+02  1.80000000E+02  0.00000000E+00
  1.00000000E+02  1.60000000E+02  0.00000000E+00
  1.00000000E+02  1.40000000E+02  0.00000000E+00
  1.00000000E+02  1.20000000E+02  0.00000000E+00
  1.00000000E+02  1.00000000E+02  0.00000000E+00
  1.00000000E+02  8.00000000E+01  0.00000000E+00
  1.00000000E+02  6.00000000E+01  0.00000000E+00
  1.00000000E+02  4.00000000E+01  0.00000000E+00
  1.00000000E+02  2.00000000E+01  0.00000000E+00
  1.00000000E+02  4.99600361E-14  0.00000000E+00
  1.20000000E+02  3.00000000E+02  0.00000000E+00
  1.20000000E+02  2.80000000E+02  0.00000000E+00
  1.20000000E+02  2.60000000E+02  0.00000000E+00
  1.20000000E+02  2.40000000E+02  0.00000000E+00
  1.20000000E+02  2.20000000E+02  0.00000000E+00
  1.20000000E+02  2.00000000E+02  0.00000000E+00
  1.20000000E+02  1.80000000E+02  0.00000000E+00
  1.20000000E+02  1.60000000E+02  0.00000000E+00
  1.20000000E+02  1.40000000E+02  0.00000000E+00
  1.20000000E+02  1.20000000E+02  0.00000000E+00
  1.20000000E+02  1.00000000E+02  0.00000000E+00
  1.20000000E+02  8.00000000E+01  0.00000000E+00
  1.20000000E+02  6.00000000E+01  0.00000000E+00
  1.20000000E+02  4.00000000E+01  0.00000000E+00
  1.20000000E+02  2.00000000E+01  0.00000000E+00
  1.20000000E+02  4.99600361E-14  0.00000000E+00
  1.40000000E+02  3.00000000E+02  0.00000000E+00
  1.40000000E+02  2.80000000E+02  0.00000000E+00
  1.40000000E+02  2.60000000E+02  0.00000000E+00
  1.40000000E+02  2.40000000E+02  0.00000000E+00
  1.40000000E+02  2.20000000E+02  0.00000000E+00
  1.40000000E+02  2.00000000E+02  0.00000000E+00
  1.40000000E+02  1.80000000E+02  0.00000000E+00
  1.40000000E+02  1.60000000E+02  0.00000000E+00
  1.40000000E+02  1.40000000E+02  0.00000000E+00
  1.40000000E+02  1.20000000E+02  0.00000000E+00
  1.40000000E+02  1.00000000E+02  0.00000000E+00
  1.40000000E+02  8.00000000E+01  0.00000000E+00
  1.40000000E+02  6.00000000E+01  0.00000000E+00
  1.40000000E+02  4.00000000E+01  0.00000000E+00
  1.40000000E+02  2.00000000E+01  0.00000000E+00
  1.40000000E+02  4.99600361E-14  0.00000000E+00
  1.60000000E+02  3.00000000E+02  0.00000000E+00
  1.60000000E+02  2.80000000E+02  0.00000000E+00
  1.60000000E+02  2.60000000E+02  0.00000000E+00
  1.60000000E+02  2.40000000E+02  0.00000000E+00
  1.60000000E+02  2.20000000E+02  0.00000000E+00
  1.60000000E+02  2.00000000E+02  0.00000000E+00
  1.60000000E+02  1.80000000E+02  0.00000000E+00
  1.60000000E+02  1.60000000E+02  0.00000000E+00
  1.60000000E+02  1.40000000E+02  0.00000000E+00
  1.60000000E+02  1.20000000E+02  0.00000000E+00
  1.60000000E+02  1.00000000E+02  0.00000000E+00
  1.60000000E+02  8.00000000E+01  0.00000000E+00
  1.60000000E+02  6.00000000E+01  0.00000000E+00
  1.60000000E+02  4.00000000E+01  0.00000000E+00
  1.60000000E+02  2.00000000E+01  0.00000000E+00
  1.60000000E+02  4.99600361E-14  0.00000000E+00
  1.80000000E+02  3.00000000E+02  0.00000000E+00
  1.80000000E+02  2.80000000E+02  0.00000000E+00
  1.80000000E+02  2.60000000E+02  0.00000000E+00
  1.80000000E+02  2.40000000E+02  0.00000000E+00
  1.80000000E+02  2.20000000E+02  0.00000000E+00
  1.80000000E+02  2.00000000E+02  0.00000000E+00
  1.80000000E+02  1.80000000E+02  0.00000000E+00
  1.80000000E+02  1.60000000E+02  0.00000000E+00
  1.80000000E+02  1.40000000E+02  0.00000000E+00
  1.80000000E+02  1.20000000E+02  0.00000000E+00
  1.80000000E+02  1.00000000E+02  0.00000000E+00
  1.80000000E+02  8.00000000E+01  0.00000000E+00
  1.80000000E+02  6.00000000E+01  0.00000000E+00
  1.80000000E+02  4.00000000E+01  0.00000000E+00
  1.80000000E+02  2.00000000E+01  0.00000000E+00
  1.80000000E+02  4.99600361E-14  0.00000000E+00
  2.00000000E+02  3.00000000E+02  0.00000000E+00
  2.00000000E+02  2.80000000E+02  0.00000000E+00
  2.00000000E+02  2.60000000E+02  0.00000000E+00
  2.00000000E+02  2.40000000E+02  0.00000000E+00
  2.00000000E+02  2.20000000E+02  0.00000000E+00
  2.00000000E+02  2.00000000E+02  0.00000000E+00
  2.00000000E+02  1.80000000E+02  0.00000000E+00
  2.00000000E+02  1.60000000E+02  0.00000000E+00
  2.00000000E+02  1.40000000E+02  0.00000000E+00
  2.00000000E+02  1.20000000E+02  0.00000000E+00
  2.00000000E+02  1.00000000E+02  0.00000000E+00
  2.00000000E+02  8.00000000E+01  0.00000000E+00
  2.00000000E+02  6.00000000E+01  0.00000000E+00
  2.00000000E+02  4.00000000E+01  0.00000000E+00
  2.00000000E+02  2.00000000E+01  0.00000000E+00
  2.00000000E+02  4.99600361E-14  0.00000000E+00
  2.20000000E+02  3.00000000E+02  0.00000000E+00
  2.20000000E+02  2.80000000E+02  0.00000000E+00
  2.20000000E+02  2.60000000E+02  0.00000000E+00
  2.20000000E+02  2.40000000E+02  0.00000000E+00
  2.20000000E+02  2.20000000E+02  0.00000000E+00
  2.20000000E+02  2.00000000E+02  0.00000000E+00
  2.20000000E+02  1.80000000E+02  0.00000000E+00
  2.20000000E+02  1.60000000E+02  0.00000000E+00
  2.20000000E+02  1.40000000E+02  0.00000000E+00
  2.20000000E+02  1.20000000E+02  0.00000000E+00
  2.20000000E+02  1.00000000E+02  0.00000000E+00
  2.20000000E+02  8.00000000E+01  0.00000000E+00
  2.20000000E+02  6.00000000E+01  0.00000000E+00
  2.20000000E+02  4.00000000E+01  0.00000000E+00
  2.20000000E+02  2.00000000E+01  0.00000000E+00
  2.20000000E+02  4.99600361E-14  0.00000000E+00
  2.40000000E+02  3.00000000E+02  0.00000000E+00
  2.40000000E+02  2.80000000E+02  0.00000000E+00
  2.40000000E+02  2.60000000E+02  0.00000000E+00
  2.40000000E+02  2.40000000E+02  0.00000000E+00
  2.40000000E+02  2.20000000E+02  0.00000000E+00
  2.40000000E+02  2.00000000E+02  0.00000000E+00
  2.40000000E+02  1.80000000E+02  0.00000000E+00
  2.40000000E+02  1.60000000E+02  0.00000000E+00
  2.40000000E+02  1.40000000E+02  0.00000000E+00
  2.40000000E+02  1.20000000E+02  0.00000000E+00
  2.40000000E+02  1.00000000E+02  0.00000000E+00
  2.40000000E+02  8.00000000E+01  0.00000000E+00
  2.40000000E+02  6.00000000E+01  0.00000000E+00
  2.40000000E+02  4.00000000E+01  0.00000000E+00
  2.40000000E+02  2.00000000E+01  0.00000000E+00
  2.40000000E+02  4.99600361E-14  0.00000000E+00
  2.60000000E+02  3.00000000E+02  0.00000000E+00
  2.60000000E+02  2.80000000E+02  0.00000000E+00
  2.60000000E+02  2.60000000E+02  0.00000000E+00
  2.60000000E+02  2.40000000E+02  0.00000000E+00
  2.60000000E+02  2.20000000E+02  0.00000000E+00
  2.60000000E+02  2.00000000E+02  0.00000000E+00
  2.60000000E+02  1.80000000E+02  0.00000000E+00
  2.60000000E+02  1.60000000E+02  0.00000000E+00
  2.60000000E+02  1.40000000E+02  0.00000000E+00
  2.60000000E+02  1.20000000E+02  0.00000000E+00
  2.60000000E+02  1.00000000E+02  0.00000000E+00
  2.60000000E+02  8.00000000E+01  0.00000000E+00
  2.60000000E+02  6.00000000E+01  0.00000000E+00
  2.60000000E+02  4.00000000E+01  0.00000000E+00
  2.60000000E+02  2.00000000E+01  0.00000000E+00
  2.60000000E+02  4.99600361E-14  0.00000000E+00
  2.80000000E+02  3.00000000E+02  0.00000000E+00
  2.80000000E+02  2.80000000E+02  0.00000000E+00
  2.80000000E+02  2.60000000E+02  0.00000000E+00
  2.80000000E+02  2.40000000E+02  0.00000000E+00
  2.80000000E+02  2.20000000E+02  0.00000000E+00
  2.80000000E+02  2.00000000E+02  0.00000000E+00
  2.80000000E+02  1.80000000E+02  0.00000000E+00
  2.80000000E+02  1.60000000E+02  0.00000000E+00
  2.80000000E+02  1.40000000E+02  0.00000000E+00
  2.80000000E+02  1.20000000E+02  0.00000000E+00
  2.80000000E+02  1.00000000E+02  0.00000000E+00
  2.80000000E+02  8.00000000E+01  0.00000000E+00
  2.80000000E+02  6.00000000E+01  0.00000000E+00
  2.80000000E+02  4.00000000E+01  0.00000000E+00
  2.80000000E+02  2.00000000E+01  0.00000000E+00
  2.80000000E+02  4.99600361E-14  0.00000000E+00
  3.00000000E+02  3.00000000E+02  0.00000000E+00
  3.00000000E+02  2.80000000E+02  0.00000000E+00
  3.00000000E+02  2.60000000E+02  0.00000000E+00
  3.00000000E+02  2.40000000E+02  0.00000000E+00
  3.00000000E+02  2.20000000E+02  0.00000000E+00
  3.00000000E+02  2.00000000E+02  0.00000000E+00
  3.00000000E+02  1.80000000E+02  0.00000000E+00
  3.00000000E+02  1.60000000E+02  0.00000000E+00
  3.00000000E+02  1.40000000E+02  0.00000000E+00
  3.00000000E+02  1.20000000E+02  0.00000000E+00
  3.00000000E+02  1.00000000E+02  0.00000000E+00
  3.00000000E+02  8.00000000E+01  0.00000000E+00
  3.00000000E+02  6.00000000E+01  0.00000000E+00
  3.00000000E+02  4.00000000E+01  0.00000000E+00
  3.00000000E+02  2.00000000E+01  0.00000000E+00
  3.00000000E+02  4.99600361E-14  0.00000000E+00
  3.20000000E+02  3.00000000E+02  0.00000000E+00
  3.20000000E+02  2.80000000E+02  0.00000000E+00
  3.20000000E+02  2.60000000E+02  0.00000000E+00
  3.20000000E+02  2.40000000E+02  0.00000000E+00
  3.20000000E+02  2.20000000E+02  0.00000000E+00
  3.20000000E+02  2.00000000E+02  0.00000000E+00
  3.20000000E+02  1.80000000E+02  0.00000000E+00
  3.20000000E+02  1.60000000E+02  0.00000000E+00
  3.20000000E+02  1.40000000E+02  0.00000000E+00
  3.20000000E+02  1.20000000E+02  0.00000000E+00
  3.20000000E+02  1.00000000E+02  0.00000000E+00
  3.20000000E+02  8.00000000E+01  0.00000000E+00
  3.20000000E+02  6.00000000E+01  0.00000000E+00
  3.20000000E+02  4.00000000E+01  0.00000000E+00
  3.20000000E+02  2.00000000E+01  0.00000000E+00
  3.20000000E+02  4.99600361E-14  0.00000000E+00
  3.40000000E+02  3.00000000E+02  0.00000000E+00
  3.40000000E+02  2.80000000E+02  0.00000000E+00
  3.40000000E+02  2.60000000E+02  0.00000000E+00
  3.40000000E+02  2.40000000E+02  0.00000000E+00
  3.40000000E+02  2.20000000E+02  0.00000000E+00
  3.40000000E+02  2.00000000E+02  0.00000000E+00
  3.40000000E+02  1.80000000E+02  0.00000000E+00
  3.40000000E+02  1.60000000E+02  0.00000000E+00
  3.40000000E+02  1.40000000E+02  0.00000000E+00
  3.40000000E+02  1.20000000E+02  0.00000000E+00
  3.40000000E+02  1.00000000E+02  0.00000000E+00
  3.40000000E+02  8.00000000E+01  0.00000000E+00
  3.40000000E+02  6.00000000E+01  0.00000000E+00
  3.40000000E+02  4.00000000E+01  0.00000000E+00
  3.40000000E+02  2.00000000E+01  0.00000000E+00
  3.40000000E+02  4.99600361E-14  0.00000000E+00
  3.60000000E+02  3.00000000E+02  0.00000000E+00
  3.60000000E+02  2.80000000E+02  0.00000000E+00
  3.60000000E+02  2.60000000E+02  0.00000000E+00
  3.60000000E+02  2.40000000E+02  0.00000000E+00
  3.60000000E+02  2.20000000E+02  0.00000000E+00
  3.60000000E+02  2.00000000E+02  0.00000000E+00
  3.60000000E+02  1.80000000E+02  0.00000000E+00
  3.60000000E+02  1.60000000E+02  0.00000000E+00
  3.60000000E+02  1.40000000E+02  0.00000000E+00
  3.60000000E+02  1.20000000E+02  0.00000000E+00
  3.60000000E+02  1.00000000E+02  0.00000000E+00
  3.60000000E+02  8.00000000E+01  0.00000000E+00
  3.60000000E+02  6.00000000E+01  0.00000000E+00
  3.60000000E+02  4.00000000E+01  0.00000000E+00
  3.60000000E+02  2.00000000E+01  0.00000000E+00
  3.60000000E+02  4.99600361E-14  0.00000000E+00
  3.80000000E+02  3.00000000E+02  0.00000000E+00
  3.80000000E+02  2.80000000E+02  0.00000000E+00
  3.80000000E+02  2.60000000E+02  0.00000000E+00
  3.80000000E+02  2.40000000E+02  0.00000000E+00
  3.80000000E+02  2.20000000E+02  0.00000000E+00
  3.80000000E+02  2.00000000E+02  0.00000000E+00
  3.80000000E+02  1.80000000E+02  0.00000000E+00
  3.80000000E+02  1.60000000E+02  0.00000000E+00
  3.80000000E+02  1.40000000E+02  0.00000000E+00
  3.80000000E+02  1.20000000E+02  0.00000000E+00
  3.80000000E+02  1.00000000E+02  0.00000000E+00
  3.80000000E+02  8.00000000E+01  0.00000000E+00
  3.80000000E+02  6.00000000E+01  0.00000000E+00
  3.80000000E+02  4.00000000E+01  0.00000000E+00
  3.80000000E+02  2.00000000E+01  0.00000000E+00
  3.80000000E+02  4.99600361E-14  0.00000000E+00
  4.00000000E+02  3.00000000E+02  0.00000000E+00
  4.00000000E+02  2.80000000E+02  0.00000000E+00
  4.00000000E+02  2.60000000E+02  0.00000000E+00
  4.00000000E+02  2.40000000E+02  0.00000000E+00
  4.00000000E+02  2.20000000E+02  0.00000000E+00
  4.00000000E+02  2.00000000E+02  0.00000000E+00
  4.00000000E+02  1.80000000E+02  0.00000000E+00
  4.00000000E+02  1.60000000E+02  0.00000000E+00
  4.00000000E+02  1.40000000E+02  0.00000000E+00
  4.00000000E+02  1.20000000E+02  0.00000000E+00
  4.00000000E+02  1.00000000E+02  0.00000000E+00
  4.00000000E+02  8.00000000E+01  0.00000000E+00
  4.00000000E+02  6.00000000E+01  0.00000000E+00
  4.00000000E+02  4.00000000E+01  0.00000000E+00
  4.00000000E+02  2.00000000E+01  0.00000000E+00
  4.00000000E+02  4.99600361E-14  0.00000000E+00
  4.20000000E+02  3.00000000E+02  0.00000000E+00
  4.20000000E+02  2.80000000E+02  0.00000000E+00
  4.20000000E+02  2.60000000E+02  0.00000000E+00
  4.20000000E+02  2.40000000E+02  0.00000000E+00
  4.20000000E+02  2.20000000E+02  0.00000000E+00
  4.20000000E+02  2.00000000E+02  0.00000000E+00
  4.20000000E+02  1.80000000E+02  0.00000000E+00
  4.20000000E+02  1.60000000E+02  0.00000000E+00
  4.20000000E+02  1.40000000E+02  0.00000000E+00
  4.20000000E+02  1.20000000E+02  0.00000000E+00
  4.20000000E+02  1.00000000E+02  0.00000000E+00
  4.20000000E+02  8.00000000E+01  0.00000000E+00
  4.20000000E+02  6.00000000E+01  0.00000000E+00
  4.20000000E+02  4.00000000E+01  0.00000000E+00
  4.20000000E+02  2.00000000E+01  0.00000000E+00
  4.20000000E+02  4.99600361E-14  0.00000000E+00
  4.40000000E+02  3.00000000E+02  0.00000000E+00
  4.40000000E+02  2.80000000E+02  0.00000000E+00
  4.40000000E+02  2.60000000E+02  0.00000000E+00
  4.40000000E+02  2.40000000E+02  0.00000000E+00
  4.40000000E+02  2.20000000E+02  0.00000000E+00
  4.40000000E+02  2.00000000E+02  0.00000000E+00
  4.40000000E+02  1.80000000E+02  0.00000000E+00
  4.40000000E+02  1.60000000E+02  0.00000000E+00
  4.40000000E+02  1.40000000E+02  0.00000000E+00
  4.40000000E+02  1.20000000E+02  0.00000000E+00
  4.40000000E+02  1.00000000E+02  0.00000000E+00
  4.40000000E+02  8.00000000E+01  0.00000000E+00
  4.40000000E+02  6.00000000E+01  0.00000000E+00
  4.40000000E+02  4.00000000E+01  0.00000000E+00
  4.40000000E+02  2.00000000E+01  0.00000000E+00
  4.40000000E+02  4.99600361E-14  0.00000000E+00
  4.60000000E+02  3.00000000E+02  0.00000000E+00
  4.60000000E+02  2.80000000E+02  0.00000000E+00
  4.60000000E+02  2.60000000E+02  0.00000000E+00
  4.60000000E+02  2.40000000E+02  0.00000000E+00
  4.60000000E+02  2.20000000E+02  0.00000000E+00
  4.60000000E+02  2.00000000E+02  0.00000000E+00
  4.60000000E+02  1.80000000E+02  0.00000000E+00
  4.60000000E+02  1.60000000E+02  0.00000000E+00
  4.60000000E+02  1.40000000E+02  0.00000000E+00
  4.60000000E+02  1.20000000E+02  0.00000000E+00
  4.60000000E+02  1.00000000E+02  0.00000000E+00
  4.60000000E+02  8.00000000E+01  0.00000000E+00
  4.60000000E+02  6.00000000E+01  0.00000000E+00
  4.60000000E+02  4.00000000E+01  0.00000000E+00
  4.60000000E+02  2.00000000E+01  0.00000000E+00
  4.60000000E+02  4.99600361E-14  0.00000000E+00
  4.80000000E+02  3.00000000E+02  0.00000000E+00
  4.80000000E+02  2.80000000E+02  0.00000000E+00
  4.80000000E+02  2.60000000E+02  0.00000000E+00
  4.80000000E+02  2.40000000E+02  0.00000000E+00
  4.80000000E+02  2.20000000E+02  0.00000000E+00
  4.80000000E+02  2.00000000E+02  0.00000000E+00
  4.80000000E+02  1.80000000E+02  0.00000000E+00
  4.80000000E+02  1.60000000E+02  0.00000000E+00
  4.80000000E+02  1.40000000E+02  0.00000000E+00
  4.80000000E+02  1.20000000E+02  0.00000000E+00
  4.80000000E+02  1.00000000E+02  0.00000000E+00
  4.80000000E+02  8.00000000E+01  0.00000000E+00
  4.80000000E+02  6.00000000E+01  0.00000000E+00
  4.80000000E+02  4.00000000E+01  0.00000000E+00
  4.80000000E+02  2.00000000E+01  0.00000000E+00
  4.80000000E+02  4.99600361E-14  0.00000000E+00
  5.00000000E+02  3.00000000E+02  0.00000000E+00
  5.00000000E+02  2.80000000E+02  0.00000000E+00
  5.00000000E+02  2.60000000E+02  0.00000000E+00
  5.00000000E+02  2.40000000E+02  0.00000000E+00
  5.00000000E+02  2.20000000E+02  0.00000000E+00
  5.00000000E+02  2.00000000E+02  0.00000000E+00
  5.00000000E+02  1.80000000E+02  0.00000000E+00
  5.00000000E+02  1.60000000E+02  0.00000000E+00
  5.00000000E+02  1.40000000E+02  0.00000000E+00
  5.00000000E+02  1.20000000E+02  0.00000000E+00
  5.00000000E+02  1.00000000E+02  0.00000000E+00
  5.00000000E+02  8.00000000E+01  0.00000000E+00
  5.00000000E+02  6.00000000E+01  0.00000000E+00
  5.00000000E+02  4.00000000E+01  0.00000000E+00
  5.00000000E+02  2.00000000E+01  0.00000000E+00
  5.00000000E+02  4.99600361E-14  0.00000000E+00
  5.20000000E+02  3.00000000E+02  0.00000000E+00
  5.20000000E+02  2.80000000E+02  0.00000000E+00
  5.20000000E+02  2.60000000E+02  0.00000000E+00
  5.20000000E+02  2.40000000E+02  0.00000000E+00
  5.20000000E+02  2.20000000E+02  0.00000000E+00
  5.20000000E+02  2.00000000E+02  0.00000000E+00
  5.20000000E+02  1.80000000E+02  0.00000000E+00
  5.20000000E+02  1.60000000E+02  0.00000000E+00
  5.20000000E+02  1.40000000E+02  0.00000000E+00
  5.20000000E+02  1.20000000E+02  0.00000000E+00
  5.20000000E+02  1.00000000E+02  0.00000000E+00
  5.20000000E+02  8.00000000E+01  0.00000000E+00
  5.20000000E+02  6.00000000E+01  0.00000000E+00
  5.20000000E+02  4.00000000E+01  0.00000000E+00
  5.20000000E+02  2.00000000E+01  0.00000000E+00
  5.20000000E+02  4.99600361E-14  0.00000000E+00
  5.40000000E+02  3.00000000E+02  0.00000000E+00
  5.40000000E+02  2.80000000E+02  0.00000000E+00
  5.40000000E+02  2.60000000E+02  0.00000000E+00
  5.40000000E+02  2.40000000E+02  0.00000000E+00
  5.40000000E+02  2.20000000E+02  0.00000000E+00
  5.40000000E+02  2.00000000E+02  0.00000000E+00
  5.40000000E+02  1.80000000E+02  0.00000000E+00
  5.40000000E+02  1.60000000E+02  0.00000000E+00
  5.40000000E+02  1.40000000E+02  0.00000000E+00
  5.40000000E+02  1.20000000E+02  0.00000000E+00
  5.40000000E+02  1.00000000E+02  0.00000000E+00
  5.40000000E+02  8.00000000E+01  0.00000000E+00
  5.40000000E+02  6.00000000E+01  0.00000000E+00
  5.40000000E+02  4.00000000E+01  0.00000000E+00
  5.40000000E+02  2.00000000E+01  0.00000000E+00
  5.40000000E+02  4.99600361E-14  0.00000000E+00
  5.60000000E+02  3.00000000E+02  0.00000000E+00
  5.60000000E+02  2.80000000E+02  0.00000000E+00
  5.60000000E+02  2.60000000E+02  0.00000000E+00
  5.60000000E+02  2.40000000E+02  0.00000000E+00
  5.60000000E+02  2.20000000E+02  0.00000000E+00
  5.60000000E+02  2.00000000E+02  0.00000000E+00
  5.60000000E+02  1.80000000E+02  0.00000000E+00
  5.60000000E+02  1.60000000E+02  0.00000000E+00
  5.60000000E+02  1.40000000E+02  0.00000000E+00
  5.60000000E+02  1.20000000E+02  0.00000000E+00
  5.60000000E+02  1.00000000E+02  0.00000000E+00
  5.60000000E+02  8.00000000E+01  0.00000000E+00
  5.60000000E+02  6.00000000E+01  0.00000000E+00
  5.60000000E+02  4.00000000E+01  0.00000000E+00
  5.60000000E+02  2.00000000E+01  0.00000000E+00
  5.60000000E+02  4.99600361E-14  0.00000000E+00
  5.80000000E+02  3.00000000E+02  0.00000000E+00
  5.80000000E+02  2.80000000E+02  0.00000000E+00
  5.80000000E+02  2.60000000E+02  0.00000000E+00
  5.80000000E+02  2.40000000E+02  0.00000000E+00
  5.80000000E+02  2.20000000E+02  0.00000000E+00
  5.80000000E+02  2.00000000E+02  0.00000000E+00
  5.80000000E+02  1.80000000E+02  0.00000000E+00
  5.80000000E+02  1.60000000E+02  0.00000000E+00
  5.80000000E+02  1.40000000E+02  0.00000000E+00
  5.80000000E+02  1.20000000E+02  0.00000000E+00
  5.80000000E+02  1.00000000E+02  0.00000000E+00
  5.80000000E+02  8.00000000E+01  0.00000000E+00
  5.80000000E+02  6.00000000E+01  0.00000000E+00
  5.80000000E+02  4.00000000E+01  0.00000000E+00
  5.80000000E+02  2.00000000E+01  0.00000000E+00
  5.80000000E+02  4.99600361E-14  0.00000000E+00
  6.00000000E+02  3.00000000E+02  0.00000000E+00
  6.00000000E+02  2.80000000E+02  0.00000000E+00
  6.00000000E+02  2.60000000E+02  0.00000000E+00
  6.00000000E+02  2.40000000E+02  0.00000000E+00
  6.00000000E+02  2.20000000E+02  0.00000000E+00
  6.00000000E+02  2.00000000E+02  0.00000000E+00
  6.00000000E+02  1.80000000E+02  0.00000000E+00
  6.00000000E+02  1.60000000E+02  0.00000000E+00
  6.00000000E+02  1.40000000E+02  0.00000000E+00
  6.00000000E+02  1.20000000E+02  0.00000000E+00
  6.00000000E+02  1.00000000E+02  0.00000000E+00
  6.00000000E+02  8.00000000E+01  0.00000000E+00
  6.00000000E+02  6.00000000E+01  0.00000000E+00
  6.00000000E+02  4.00000000E+01  0.00000000E+00
  6.00000000E+02  2.00000000E+01  0.00000000E+00
  6.00000000E+02  4.99600361E-14  0.00000000E+00
CELLS       450      2250
         4           0           1          17          16
         4           1           2          18          17
         4           2           3          19          18
         4           3           4          20          19
         4           4           5          21          20
         4           5           6          22          21
         4           6           7          23          22
         4           7           8          24          23
         4           8           9          25          24
         4           9          10          26          25
         4          10          11          27          26
         4          11          12          28          27
         4          12          13          29          28
         4          13          14          30          29
         4          14          15          31          30
         4          16          17          33          32
         4          17          18          34          33
         4          18          19          35          34
         4          19          20          36          35
         4          20          21          37          36
         4          21          22          38          37
         4          22          23          39          38
         4          23          24          40          39
         4          24          25          41          40
         4          25          26          42          41
         4          26          27          43          42
         4          27          28          44          43
         4          28          29          45          44
         4          29          30          46          45
         4          30          31          47          46
         4          32          33          49          48
         4          33          34          50          49
         4          34          35          51          50
         4          35          36          52          51
         4          36          37          53          52
         4          37          38          54          53
         4          38          39          55          54
         4          39          40          56          55
         4          40          41          57          56
         4          41          42          58          57
         4          42          43          59          58
         4          43          44          60          59
         4          44          45          61          60
         4          45          46          62          61
         4          46          47          63          62
         4          48          49          65          64
         4          49          50          66          65
         4          50          51          67          66
         4          51          52          68          67
         4          52          53          69          68
         4          53          54          70          69
         4          54          55          71          70
         4          55          56          72          71
         4          56          57          73          72
         4          57          58          74          73
         4          58          59          75          74
         4          59          60          76          75
         4          60          61          77          76
         4          61          62          78          77
         4          62          63          79          78
         4          64          65          81          80
         4          65          66          82          81
         4          66          67          83          82
         4          67          68          84          83
         4          68          69          85          84
         4          69          70          86          85
         4          70          71          87          86
         4          71          72          88          87
         4          72          73          89          88
         4          73          74          90          89
         4          74          75          91          90
         4          75          76          92          91
         4          76          77          93          92
         4          77          78          94          93
         4          78          79          95          94
         4          80          81          97          96
         4          81          82          98          97
         4          82          83          99          98
         4          83          84         100          99
         4          84          85         101         100
         4          85          86         102         101
         4          86          87         103         102
         4          87          88         104         103
         4          88          89         105         104
         4          89          90         106         105
         4          90          91         107         106
         4          91          92         108         107
         4          92          93         109         108
         4          93          94         110         109
         4          94          95         111         110
         4          96          97         113         112
         4          97          98         114         113
         4          98          99         115         114
         4          99         100         116         115
         4         100         101         117         116
         4         101         102         118         117
         4         102         103         119         118
         4         103         104         120         119
         4         104         105         121         120
         4         105         106         122         121
         4         106         107         123         122
         4         107         108         124         123
         4         108         109         125         124
         4         109         110         126         125
         4         110         111         127         126
         4         112         113         129         128
         4         113         114         130         129
         4         114         115         131         130
         4         115         116         132         131
         4         116         117         133         132
         4         117         118         134         133
         4         118         119         135         134
         4         119         120         136         135
         4         120         121         137         136
         4         121         122         138         137
         4         122         123         139         138
         4         123         124         140         139
         4         124         125         141         140
         4         125         126         142         141
         4         126         127         143         142
         4         128         129         145         144
         4         129         130         146         145
         4         130         131         147         146
         4         131         132         148         147
         4         132         133         149         148
         4         133         134         150         149
         4         134         135         151         150
         4         135         136         152         151
         4         136         137         153         152
         4         137         138         154         153
         4         138         139         155         154
         4         139         140         156         155
         4         140         141         157         156
         4         141         142         158         157
         4         142         143         159         158
         4         144         145         161         160
         4         145         146         162         161
         4         146         147         163         162
         4         147         148         164         163
         4         148         149         165         164
         4         149         150         166         165
         4         150         151         167         166
         4         151         152         168         167
         4         152         153         169         168
         4         153         154         170         169
         4         154         155         171         170
         4         155         156         172         171
         4         156         157         173         172
         4         157         158         174         173
         4         158         159         175         174
         4         160         161         177         176
         4         161         162         178         177
         4         162         163         179         178
         4         163         164         180         179
         4         164         165         181         180
         4         165         166         182         181
         4         166         167         183         182
         4         167         168         184         183
         4         168         169         185         184
         4         169         170         186         185
         4         170         171         187         186
         4         171         172         188         187
         4         172         173         189         188
         4         173         174         190         189
         4         174         175         191         190
         4         176         177         193         192
         4         177         178         194         193
         4         178         179         195         194
         4         179         180         196         195
         4         180         181         197         196
         4         181         182         198         197
         4         182         183         199         198
         4         183         184         200         199
         4         184         185         201         200
         4         185         186         202         201
         4         186         187         203         202
         4         187         188         204         203
         4         188         189         205         204
         4         189         190         206         205
         4         190         191         207         206
         4         192         193         209         208
         4         193         194         210         209
         4         194         195         211         210
         4         195         196         212         211
         4         196         197         213         212
         4         197         198         214         213
         4         198         199         215         214
         4         199         200         216         215
         4         200         201         217         216
         4         201         202         218         217
         4         202         203         219         218
         4         203         204         220         219
         4         204         205         221         220
         4         205         206         222         221
         4         206         207         223         222
         4         208         209         225         224
         4         209         210         226         225
         4         210         211         227         226
         4         211         212         228         227
         4         212         213         229         228
         4         213         214         230         229
         4         214         215         231         230
         4         215         216         232         231
         4         216         217         233         232
         4         217         218         234         233
         4         218         219         235         234
         4         219         220         236         235
         4         220         221         237         236
         4         221         222         238         237
         4         222         223         239         238
         4         224         225         241         240
         4         225         226         242         241
         4         226         227         243         242
         4         227         228         244         243
         4         228         229         245         244
         4         229         230         246         245
         4         230         231         247         246
         4         231         232         248         247
         4         232         233         249         248
         4         233         234         250         249
         4         234         235         251         250
         4         235         236         252         251
         4         236         237         253         252
         4         237         238         254         253
         4         238         239         255         254
         4         240         241         257         256
         4         241         242         258         257
         4         242         243         259         258
         4         243         244         260         259
         4         244         245         261         260
         4         245         246         262         261
         4         246         247         263         262
         4         247         248         264         263
         4         248         249         265         264
         4         249         250         266         265
         4         250         251         267         266
         4         251         252         268         267
         4         252         253         269         268
         4         253         254         270         269
         4         254         255         271         270
         4         256         257         273         272
         4         257         258         274         273
         4         258         259         275         274
         4         259         260         276         275
         4         260         261         277         276
         4         261         262         278         277
         4         262         263         279         278
         4         263         264         280         279
         4         264         265         281         280
         4         265         266         282         281
         4         266         267         283         282
         4         267         268         284         283
         4         268         269         285         284
         4         269         270         286         285
         4         270         271         287         286
         4         272         273         289         288
         4         273         274         290         289
         4         274         275         291         290
         4         275         276         292         291
         4         276         277         293         292
         4         277         278         294         293
         4         278         279         295         294
         4         279         280         296         295
         4         280         281         297         296
         4         281         282         298         297
         4         282         283         299         298
         4         283         284         300         299
         4         284         285         301         300
         4         285         286         302         301
         4         286         287         303         302
         4         288         289         305         304
         4         289         290         306         305
         4         290         291         307         306
         4         291         292         308         307
         4         292         293         309         308
         4         293         294         310         309
         4         294         295         311         310
         4         295         296         312         311
         4         296         297         313         312
         4         297         298         314         313
         4         298         299         315         314
         4         299         300         316         315
         4         300         301         317         316
         4         301         302         318         317
         4         302         303         319         318
         4         304         305         321         320
         4         305         306         322         321
         4         306         307         323         322
         4         307         308         324         323
         4         308         309         325         324
         4         309         310         326         325
         4         310         311         327         326
         4         311         312         328         327
         4         312         313         329         328
         4         313         314         330         329
         4         314         315         331         330
         4         315         316         332         331
         4         316         317         333         332
         4         317         318         334         333
         4         318         319         335         334
         4         320         321         337         336
         4         321         322         338         337
         4         322         323         339         338
         4         323         324         340         339
         4         324         325         341         340
         4         325         326         342         341
         4         326         327         343         342
         4         327         328         344         343
         4         328         329         345         344
         4         329         330         346         345
         4         330         331         347         346
         4         331         332         348         347
         4         332         333         349         348
         4         333         334         350         349
         4         334         335         351         350
         4         336         337         353         352
         4         337         338         354         353
         4         338         339         355         354
         4         339         340         356         355
         4         340         341         357         356
         4         341         342         358         357
         4         342         343         359         358
         4         343         344         360         359
         4         344         345         361         360
         4         345         346         362         361
         4         346         347         363         362
         4         347         348         364         363
         4         348         349         365         364
         4         349         350         366         365
         4         350         351         367         366
         4         352         353         369         368
         4         353         354         370         369
         4         354         355         371         370
         4         355         356         372         371
         4         356         357         373         372
         4         357         358         374         373
         4         358         359         375         374
         4         359         360         376         375
         4         360         361         377         376
         4         361         362         378         377
         4         362         363         379         378
         4         363         364         380         379
         4         364         365         381         380
         4         365         366         382         381
         4         366         367         383         382
         4         368         369         385         384
         4         369         370         386         385
         4         370         371         387         386
         4         371         372         388         387
         4         372         373         389         388
         4         373         374         390         389
         4         374         375         391         390
         4         375         376         392         391
         4         376         377         393         392
         4         377         378         394         393
         4         378         379         395         394
         4         379         380         396         395
         4         380         381         397         396
         4         381         382         398         397
         4         382         383         399         398
         4         384         385         401         400
         4         385         386         402         401
         4         386         387         403         402
         4         387         388         404         403
         4         388         389         405         404
         4         389         390         406         405
         4         390         391         407         406
         4         391         392         408         407
         4         392         393         409         408
         4         393         394         410         409
         4         394         395         411         410
         4         395         396         412         411
         4         396         397         413         412
         4         397         398         414         413
         4         398         399         415         414
         4         400         401         417         416
         4         401         402         418         417
         4         402         403         419         418
         4         403         404         420         419
         4         404         405         421         420
         4         405         406         422         421
         4         406         407         423         422
         4         407         408         424         423
         4         408         409         425         424
         4         409         410         426         425
         4         410         411         427         426
         4         411         412         428         427
         4         412         413         429         428
         4         413         414         430         429
         4         414         415         431         430
         4         416         417         433         432
         4         417         418         434         433
         4         418         419         435         434
         4         419         420         436         435
         4         420         421         437         436
         4         421         422         438         437
         4         422         423         439         438
         4         423         424         440         439
         4         424         425         441         440
         4         425         426         442         441
         4         426         427         443         442
         4         427         428         444         443
         4         428         429         445         444
         4         429         430         446         445
         4         430         431         447         446
         4         432         433         449         448
         4         433         434         450         449
         4         434         435         451         450
         4         435         436         452         451
         4         436         437         453         452
         4         437         438         454         453
         4         438         439         455         454
         4         439         440         456         455
         4         440         441         457         456
         4         441         442         458         457
         4         442         443         459         458
         4         443         444         460         459
         4         444         445         461         460
         4         445         446         462         461
         4         446         447         463         462
         4         448         449         465         464
         4         449         450         466         465
         4         450         451         467         466
         4         451         452         468         467
         4         452         453         469         468
         4         453         454         470         469
         4         454         455         471         470
         4         455         456         472         471
         4         456         457         473         472
         4         457         458         474         473
         4         458         459         475         474
         4         459         460         476         475
         4         460         461         477         476
         4         461         462         478         477
         4         462         463         479         478
         4         464         465         481         480
         4         465         466         482         481
         4         466         467         483         482
         4         467         468         484         483
         4         468         469         485         484
         4         469         470         486         485
         4         470         471         487         486
         4         471         472         488         487
         4         472         473         489         488
         4         473         474         490         489
         4         474         475         491         490
         4         475         476         492         491
         4         476         477         493         492
         4         477         478         494         493
         4         478         479         495         494
CELL_TYPES        450
9
9
9
9
9
9
9
9
9
9
9
9
9
9
9
9
9
9
9
9
9
9
9
9
9
9
9
9
9
9
9
9
9
9
9
9
9
9
9
9
9
9
9
9
9
9
9
9
9
9
9
9
9
9
9
9
9
9
9
9
9
9
9
9
9
9
9
9
9
9
9
9
9
9
9
9
9
9
9
9
9
9
9
9
9
9
9
9
9
9
9
9
9
9
9
9
9
9
9
9
9
9
9
9
9
9
9
9
9
9
9
9
9
9
9
9
9
9
9
9
9
9
9
9
9
9
9
9
9
9
9
9
9
9
9
9
9
9
9
9
9
9
9
9
9
9
9
9
9
9
9
9
9
9
9
9
9
9
9
9
9
9
9
9
9
9
9
9
9
9
9
9
9
9
9
9
9
9
9
9
9
9
9
9
9
9
9
9
9
9
9
9
9
9
9
9
9
9
9
9
9
9
9
9
9
9
9
9
9
9
9
9
9
9
9
9
9
9
9
9
9
9
9
9
9
9
9
9
9
9
9
9
9
9
9
9
9
9
9
9
9
9
9
9
9
9
9
9
9
9
9
9
9
9
9
9
9
9
9
9
9
9
9
9
9
9
9
9
9
9
9
9
9
9
9
9
9
9
9
9
9
9
9
9
9
9
9
9
9
9
9
9
9
9
9
9
9
9
9
9
9
9
9
9
9
9
9
9
9
9
9
9
9
9
9
9
9
9
9
9
9
9
9
9
9
9
9
9
9
9
9
9
9
9
9
9
9
9
9
9
9
9
9
9
9
9
9
9
9
9
9
9
9
9
9
9
9
9
9
9
9
9
9
9
9
9
9
9
9
9
9
9
9
9
9
9
9
9
9
9
9
9
9
9
9
9
9
9
9
9
9
9
9
9
9
9
9
9
9
9
9
9
9
9
9
9
9
9
9
9
9
9
9
9
9
9
9
9
9
9
9
9
9
9
9
9
9
9
9
9
9
9
9
9
9
9
9
9
9
9
9
9
9
9
9
9
9
9
9
9
POINT_DATA       496
SCALARS p double 
LOOKUP_TABLE default
   72390703.7460158     
   72429325.2810778     
   72523554.8944810     
   72644364.8859327     
   72783063.4275858     
   72933056.7324747     
   73089173.1227619     
   73247011.5818282     
   73402690.8625374     
   73552692.7402247     
   73693744.0255566     
   73822695.0400728     
   73936363.6425841     
   74031103.8524145     
   74102790.5875475     
   74132723.0777545     
   71201015.6272393     
   71221240.0335282     
   71280813.3793035     
   71371873.8346984     
   71484002.9680372     
   71610166.7292502     
   71744646.0902010     
   71882586.2983390     
   72019696.7071550     
   72152064.0429221     
   72275997.2799510     
   72387861.8025766     
   72483825.3677273     
   72559507.4768434     
   72607995.9217836     
   72624496.7025332     
   69997317.8184941     
   70011466.4404526     
   70054029.7933857     
   70123251.3231256     
   70213536.6011946     
   70318708.7114592     
   70433310.6121496     
   70552473.7221687     
   70671795.1919101     
   70787204.1349787     
   70894832.0633865     
   70990870.5009746     
   71071420.1082904     
   71132235.6919316     
   71169687.2290227     
   71182433.3926841     
   68797015.8081125     
   68808199.1408842     
   68841548.9721169     
   68896539.6605901     
   68970078.4387991     
   69057744.9024251     
   69154865.6321605     
   69256965.0981868     
   69359836.2398759     
   69459516.9000444     
   69552230.7829779     
   69634329.4684119     
   69702267.6672714     
   69752854.3482298     
   69783800.3652744     
   69794372.9609733     
   67609962.3694005     
   67619451.1364714     
   67647168.5402285     
   67692573.5135264     
   67753592.1221055     
   67827030.2574327     
   67909151.8737900     
   67996098.9572380     
   68084093.6394856     
   68169506.5438631     
   68248876.2344157     
   68318929.8819625     
   68376676.5301062     
   68419612.7960781     
   68446019.9462962     
   68455164.7589875     
   66442971.3648337     
   66451338.0161755     
   66475193.1812359     
   66513643.6611183     
   66564985.0539514     
   66626760.3005321     
   66696013.8514162     
   66769559.8883285     
   66844173.6604210     
   66916703.3041279     
   66984138.4294953     
   67043678.4763828     
   67092831.4977005     
   67129550.5764213     
   67152359.4977881     
   67160372.8282598     
   65300782.5336315     
   65308259.0671906     
   65329069.1595879     
   65361939.3416749     
   65405279.4924611     
   65457086.6483261     
   65515012.4935463     
   65576498.5803706     
   65638909.5170062     
   65699637.6878665     
   65756184.7284071     
   65806235.9989201     
   65847739.0202830     
   65878977.1993507     
   65898605.9887107     
   65905603.2032925     
   64186300.3202648     
   64192921.1136867     
   64210930.9600608     
   64238765.8151675     
   64274886.0574843     
   64317611.2954935     
   64365084.5377909     
   64415313.1429676     
   64466239.9458285     
   64515816.8892983     
   64562071.6821135     
   64603167.2183049     
   64637451.9505849     
   64663490.5638136     
   64680054.1861772     
   64686046.8900800     
   63100617.5901549     
   63106289.0238725     
   63121365.9126214     
   63144133.4845925     
   63173133.8602986     
   63206973.0471817     
   63244229.1152608     
   63283430.9924861     
   63323077.4149023     
   63361673.0905556     
   63397768.2799745     
   63429993.8054684     
   63457084.2716962     
   63477879.4648325     
   63491291.3058689     
   63496225.4854780     
   62042981.7707477     
   62047523.6289259     
   62059272.9659468     
   62076524.2823402     
   62097981.2873464     
   62122558.2136005     
   62149259.3433957     
   62177118.1264090     
   62205175.9868229     
   62232483.3977597     
   62258109.8760010     
   62281152.8456649     
   62300736.7305803     
   62315993.7838210     
   62326018.8396732     
   62329793.2486237     
   61010773.2897551     
   61013946.5296837     
   61021787.9869097     
   61032765.0645494     
   61045847.3839916     
   61060315.0253492     
   61075625.3085652     
   61091327.0210027     
   61107009.4330013     
   61122273.6632137     
   61136715.3601895     
   61149909.3008727     
   61161387.8446149     
   61170606.4383769     
   61176891.2903693     
   61179367.6044020     
   59999523.9104097     
   60001049.7079204     
   60004268.3733624     
   60007977.2827710     
   60011527.7352643     
   60014646.3902507     
   60017297.8350257     
   60019582.8835693     
   60021665.3948412     
   60023719.4317010     
   60025888.4827328     
   60028248.9965218     
   60030771.4635804     
   60033273.7970986     
   60035364.0345364     
   60036372.5231987     
   59002980.1155690     
   59002551.3079435     
   59000328.1384677     
   58995582.8727311     
   58988169.2211850     
   58978357.7218198     
   58966696.9731029     
   58953900.2680244     
   58940754.8823143     
   58928049.4077475     
   58916513.3744316     
   58906763.0913423     
   58899248.1994578     
   58894194.9043133     
   58891544.2057580     
   58890886.4866854     
   58013201.4830381     
   58010486.2348857     
   58001908.1272861     
   57987346.0479378     
   57967280.2843276     
   57942637.0803271     
   57914646.3659324     
   57884716.8705660     
   57854329.7527580     
   57824949.0325278     
   57797944.9618402     
   57774525.3718901     
   57755670.1930494     
   57742065.7717061     
   57734038.1267179     
   57731487.5046209     
   57020673.6849144     
   57015310.8803992     
   56999359.3549150     
   56973427.1022415     
   56938751.6545819     
   56897043.2316214     
   56850331.7985884     
   56800826.9350356     
   56750795.1630929     
   56702455.1753998     
   56657887.9944784     
   56618957.1154906     
   56587233.4812444     
   56563921.7184292     
   56549787.0979727     
   56545086.5565252     
   56014409.1908951     
   56005995.0020327     
   55981512.0314178     
   55942420.0582791     
   55890859.0796636     
   55829474.0300552     
   55761238.6138715     
   55689292.3788899     
   55616799.0274757     
   55546827.6253701     
   55482253.1267064     
   55425669.5148493     
   55379308.3813301     
   55344957.8859972     
   55323881.2130533     
   55316738.9308763     
   54982004.7983456     
   54970069.6369996     
   54935698.4106460     
   54881341.4063664     
   54810214.9426796     
   54726082.7845026     
   54633037.8203520     
   54535304.8115848     
   54437075.6164358     
   54342378.4013236     
   54254974.2626288     
   54178270.0097645     
   54115235.2886672     
   54068315.5470663     
   54039338.6451000     
   54029420.7897367     
   53909621.9544946     
   53893596.2213322     
   53847692.6938625     
   53775531.0460694     
   53681628.6497374     
   53571102.9219907     
   53449383.5338798     
   53321964.9911322     
   53194214.6239801     
   53071235.0261436     
   52957767.4240549     
   52858115.7175367     
   52776070.6909606     
   52714819.5090844     
   52676835.5684260     
   52663755.9806443     
   52781850.9231260     
   52761016.2063443     
   52701523.1372223     
   52608416.1479862     
   52487823.7178871     
   52346528.9127543     
   52191572.7619755     
   52029936.1438201     
   51868318.8027208     
   51713007.5993972     
   51569806.7572960     
   51443993.7404184     
   51340265.4882807     
   51262649.3907028     
   51214369.2216930     
   51197675.3548114     
   51581409.5995666     
   51554828.5703132     
   51479095.8606595     
   51361069.2015974     
   51208937.8078707     
   51031579.7205901     
   50837998.7885403     
   50636910.9735969     
   50436500.2251354     
   50244319.8221861     
   50067286.4044059     
   49911703.2332950     
   49783253.9029165     
   49686923.9943486     
   49626832.7985470     
   49605986.8412731     
   50288606.7178603     
   50255018.5519209     
   50159539.0885109     
   50011454.4722079     
   49821692.0204076     
   49601832.4475903     
   49363295.3644856     
   49116804.1805962     
   48872143.3500110     
   48638147.6955868     
   48422824.9903996     
   48233505.4197313     
   48076924.4872686     
   47959171.7857328     
   47885474.2952991     
   47859827.6936181     
   48880457.6690728     
   48838113.4226540     
   48718116.2925634     
   48533186.1303516     
   48298041.7848660     
   48027844.9392387     
   47737010.0054687     
   47438534.4871010     
   47143825.1424536     
   46862879.9098652     
   46604646.6368581     
   46377390.4428557     
   46188931.1696014     
   46046648.4486424     
   45957199.1836398     
   45925957.7115379     
   47329259.8312263     
   47275646.9144955     
   47124436.6406350     
   46893482.6543902     
   46602982.4457573     
   46272962.1602950     
   45921542.3463982     
   45564177.4399609     
   45213714.4920619     
   44880957.2470409     
   44575426.0461095     
   44306073.4862714     
   44081773.8703475     
   43911438.3749409     
   43803653.2469792     
   43765828.4077682     
   45600270.1245212     
   45531620.0520438     
   45339441.3821053     
   45049720.4138515     
   44690913.4655689     
   44289774.6704564     
   43868903.5164412     
   43446123.3793361     
   43035145.2738323     
   42646833.8488992     
   42290586.1750504     
   41975553.0082951     
   41711517.3630912     
   41509228.1804365     
   41379976.7147062     
   41334317.9352246     
   43647777.2784980     
   43558119.3909253     
   43310088.8645126     
   42943384.8816397     
   42499423.9947509     
   42014274.3711563     
   41515527.0632477     
   41022600.1575712     
   40548800.6744343     
   40103757.8454306     
   39695616.7267788     
   39332883.8824197     
   39025883.2502544     
   38787540.2873067     
   38633033.4415477     
   38577936.9173232     
   41408038.7618304     
   41287222.2234320     
   40959310.4863028     
   40488821.2333124     
   39938230.0132369     
   39355932.8762729     
   38773736.4299611     
   38210356.0462952     
   37676384.0378537     
   37178317.9827460     
   36721469.3402981     
   36312396.5491658     
   35961140.3213809     
   35683000.8431504     
   35498750.2164456     
   35432146.2834298     
   38785440.7240920     
   38614493.3479273     
   38165080.4187885     
   37550735.2465495     
   36868478.9205157     
   36180262.1815431     
   35517100.5053226     
   34891937.0799710     
   34309325.6427604     
   33770392.1015919     
   33275864.6906864     
   32828526.5953278     
   32436457.6959798     
   32116726.1497038     
   31897842.5918034     
   31817139.3432832     
   35621534.2250918     
   35359856.7034039     
   34711047.9715985     
   33894560.3201212     
   33062103.5440793     
   32276544.9274792     
   31552878.0858800     
   30891240.3154558     
   30286598.0889085     
   29732930.9863013     
   29225131.3691189     
   28760672.7228542     
   28342171.2835691     
   27985627.1192354     
   27728526.9393487     
   27630657.0046922     
   31610513.5779476     
   31155910.8299112     
   30140743.1750004     
   29068399.1535807     
   28118089.8640402     
   27287887.1255802     
   26561140.3731529     
   25918975.6262848     
   25345273.4538361     
   24826843.9965444     
   24353153.8233548     
   23916256.1934532     
   23512150.9075373     
   23143209.7935948     
   22852194.5908618     
   22736452.5891432     
   26013516.7396708     
   24867277.2090006     
   23262985.6332807     
   22114747.5811773     
   21224696.3040925     
   20512109.5582980     
   19922707.4234126     
   19422431.1842938     
   18988209.1198391     
   18603598.3137963     
   18256215.4970667     
   17936286.8316643     
   17635627.3062289     
   17349532.7700953     
   17066709.4682688     
   16932676.4554178     
   10000000.0000000     
   10000000.0000000     
   10000000.0000000     
   10000000.0000000     
   10000000.0000000     
   10000000.0000000     
   10000000.0000000     
   10000000.0000000     
   10000000.0000000     
   10000000.0000000     
   10000000.0000000     
   10000000.0000000     
   10000000.0000000     
  10000000.00000000     
   10000000.0000000     
   10000000.0000000     
VECTORS u double 
    0.00000E+00         0.53373E+01         0.00000E+00
    0.00000E+00         0.50514E+01         0.00000E+00
    0.00000E+00         0.47559E+01         0.00000E+00
    0.00000E+00         0.44572E+01         0.00000E+00
    0.00000E+00         0.41559E+01         0.00000E+00
    0.00000E+00         0.38511E+01         0.00000E+00
    0.00000E+00         0.35415E+01         0.00000E+00
    0.00000E+00         0.32250E+01         0.00000E+00
    0.00000E+00         0.28993E+01         0.00000E+00
    0.00000E+00         0.25616E+01         0.00000E+00
    0.00000E+00         0.22087E+01         0.00000E+00
    0.00000E+00         0.18366E+01         0.00000E+00
    0.00000E+00         0.14401E+01         0.00000E+00
    0.00000E+00         0.10121E+01         0.00000E+00
    0.00000E+00         0.54120E+00         0.00000E+00
    0.00000E+00         0.00000E+00         0.00000E+00
    0.10854E+01         0.52242E+01         0.00000E+00
    0.93699E+00         0.49663E+01         0.00000E+00
    0.84097E+00         0.46867E+01         0.00000E+00
    0.76672E+00         0.43984E+01         0.00000E+00
    0.70494E+00         0.41049E+01         0.00000E+00
    0.65081E+00         0.38064E+01         0.00000E+00
    0.60143E+00         0.35020E+01         0.00000E+00
    0.55477E+00         0.31901E+01         0.00000E+00
    0.50917E+00         0.28685E+01         0.00000E+00
    0.46314E+00         0.25345E+01         0.00000E+00
    0.41507E+00         0.21850E+01         0.00000E+00
    0.36300E+00         0.18160E+01         0.00000E+00
    0.30415E+00         0.14225E+01         0.00000E+00
    0.23386E+00         0.99742E+00         0.00000E+00
    0.14301E+00         0.52953E+00         0.00000E+00
    0.00000E+00         0.00000E+00         0.00000E+00
    0.20929E+01         0.49578E+01         0.00000E+00
    0.18240E+01         0.47358E+01         0.00000E+00
    0.16321E+01         0.44902E+01         0.00000E+00
    0.14824E+01         0.42286E+01         0.00000E+00
    0.13575E+01         0.39563E+01         0.00000E+00
    0.12479E+01         0.36755E+01         0.00000E+00
    0.11480E+01         0.33862E+01         0.00000E+00
    0.10538E+01         0.30875E+01         0.00000E+00
    0.96182E+00         0.27778E+01         0.00000E+00
    0.86920E+00         0.24548E+01         0.00000E+00
    0.77274E+00         0.21155E+01         0.00000E+00
    0.66865E+00         0.17563E+01         0.00000E+00
    0.55169E+00         0.13724E+01         0.00000E+00
    0.41365E+00         0.95727E+00         0.00000E+00
    0.23908E+00         0.50221E+00         0.00000E+00
    0.00000E+00         0.00000E+00         0.00000E+00
    0.30183E+01         0.45824E+01         0.00000E+00
    0.26538E+01         0.43964E+01         0.00000E+00
    0.23750E+01         0.41885E+01         0.00000E+00
    0.21512E+01         0.39615E+01         0.00000E+00
    0.19627E+01         0.37196E+01         0.00000E+00
    0.17968E+01         0.34651E+01         0.00000E+00
    0.16456E+01         0.31991E+01         0.00000E+00
    0.15030E+01         0.29215E+01         0.00000E+00
    0.13642E+01         0.26310E+01         0.00000E+00
    0.12248E+01         0.23260E+01         0.00000E+00
    0.10802E+01         0.20039E+01         0.00000E+00
    0.92513E+00         0.16614E+01         0.00000E+00
    0.75251E+00         0.12945E+01         0.00000E+00
    0.55219E+00         0.89813E+00         0.00000E+00
    0.30869E+00         0.46747E+00         0.00000E+00
    0.00000E+00         0.00000E+00         0.00000E+00
    0.38642E+01         0.41228E+01         0.00000E+00
    0.34225E+01         0.39726E+01         0.00000E+00
    0.30677E+01         0.38027E+01         0.00000E+00
    0.27744E+01         0.36134E+01         0.00000E+00
    0.25236E+01         0.34066E+01         0.00000E+00
    0.23017E+01         0.31844E+01         0.00000E+00
    0.20989E+01         0.29480E+01         0.00000E+00
    0.19078E+01         0.26977E+01         0.00000E+00
    0.17222E+01         0.24330E+01         0.00000E+00
    0.15364E+01         0.21525E+01         0.00000E+00
    0.13447E+01         0.18543E+01         0.00000E+00
    0.11405E+01         0.15357E+01         0.00000E+00
    0.91608E+00         0.11936E+01         0.00000E+00
    0.66087E+00         0.82484E+00         0.00000E+00
    0.36117E+00         0.42697E+00         0.00000E+00
    0.00000E+00         0.00000E+00         0.00000E+00
    0.46346E+01         0.35961E+01         0.00000E+00
    0.41292E+01         0.34815E+01         0.00000E+00
    0.37086E+01         0.33494E+01         0.00000E+00
    0.33519E+01         0.31983E+01         0.00000E+00
    0.30420E+01         0.30291E+01         0.00000E+00
    0.27655E+01         0.28428E+01         0.00000E+00
    0.25120E+01         0.26405E+01         0.00000E+00
    0.22729E+01         0.24228E+01         0.00000E+00
    0.20411E+01         0.21894E+01         0.00000E+00
    0.18099E+01         0.19394E+01         0.00000E+00
    0.15727E+01         0.16714E+01         0.00000E+00
    0.13223E+01         0.13836E+01         0.00000E+00
    0.10506E+01         0.10737E+01         0.00000E+00
    0.74765E+00         0.74004E+00         0.00000E+00
    0.40182E+00         0.38171E+00         0.00000E+00
    0.00000E+00         0.00000E+00         0.00000E+00
    0.53339E+01         0.30148E+01         0.00000E+00
    0.47754E+01         0.29356E+01         0.00000E+00
    0.42977E+01         0.28407E+01         0.00000E+00
    0.38838E+01         0.27281E+01         0.00000E+00
    0.35188E+01         0.25974E+01         0.00000E+00
    0.31903E+01         0.24492E+01         0.00000E+00
    0.28877E+01         0.22843E+01         0.00000E+00
    0.26021E+01         0.21031E+01         0.00000E+00
    0.23255E+01         0.19057E+01         0.00000E+00
    0.20507E+01         0.16915E+01         0.00000E+00
    0.17703E+01         0.14596E+01         0.00000E+00
    0.14770E+01         0.12088E+01         0.00000E+00
    0.11626E+01         0.93768E+00         0.00000E+00
    0.81821E+00         0.64547E+00         0.00000E+00
    0.43404E+00         0.33230E+00         0.00000E+00
    0.00000E+00         0.00000E+00         0.00000E+00
    0.59668E+01         0.23886E+01         0.00000E+00
    0.53633E+01         0.23444E+01         0.00000E+00
    0.48357E+01         0.22863E+01         0.00000E+00
    0.43704E+01         0.22118E+01         0.00000E+00
    0.39549E+01         0.21201E+01         0.00000E+00
    0.35777E+01         0.20114E+01         0.00000E+00
    0.32287E+01         0.18861E+01         0.00000E+00
    0.28987E+01         0.17446E+01         0.00000E+00
    0.25796E+01         0.15871E+01         0.00000E+00
    0.22634E+01         0.14133E+01         0.00000E+00
    0.19427E+01         0.12226E+01         0.00000E+00
    0.16099E+01         0.10143E+01         0.00000E+00
    0.12573E+01         0.78764E+00         0.00000E+00
    0.87673E+00         0.54239E+00         0.00000E+00
    0.46024E+00         0.27917E+00         0.00000E+00
    0.00000E+00         0.00000E+00         0.00000E+00
    0.65378E+01         0.17244E+01         0.00000E+00
    0.58955E+01         0.17150E+01         0.00000E+00
    0.53241E+01         0.16931E+01         0.00000E+00
    0.48128E+01         0.16564E+01         0.00000E+00
    0.43513E+01         0.16039E+01         0.00000E+00
    0.39292E+01         0.15355E+01         0.00000E+00
    0.35369E+01         0.14514E+01         0.00000E+00
    0.31655E+01         0.13522E+01         0.00000E+00
    0.28065E+01         0.12379E+01         0.00000E+00
    0.24520E+01         0.11084E+01         0.00000E+00
    0.20941E+01         0.96346E+00         0.00000E+00
    0.17254E+01         0.80255E+00         0.00000E+00
    0.13386E+01         0.62529E+00         0.00000E+00
    0.92638E+00         0.43173E+00         0.00000E+00
    0.48218E+00         0.22267E+00         0.00000E+00
    0.00000E+00         0.00000E+00         0.00000E+00
    0.70513E+01         0.10276E+01         0.00000E+00
    0.63749E+01         0.10525E+01         0.00000E+00
    0.57644E+01         0.10663E+01         0.00000E+00
    0.52120E+01         0.10671E+01         0.00000E+00
    0.47088E+01         0.10537E+01         0.00000E+00
    0.42459E+01         0.10262E+01         0.00000E+00
    0.38141E+01         0.98482E+00         0.00000E+00
    0.34048E+01         0.92988E+00         0.00000E+00
    0.30093E+01         0.86159E+00         0.00000E+00
    0.26197E+01         0.77992E+00         0.00000E+00
    0.22281E+01         0.68463E+00         0.00000E+00
    0.18271E+01         0.57536E+00         0.00000E+00
    0.14097E+01         0.45186E+00         0.00000E+00
    0.96960E+00         0.31419E+00         0.00000E+00
    0.50119E+00         0.16304E+00         0.00000E+00
    0.00000E+00         0.00000E+00         0.00000E+00
    0.75115E+01         0.30142E+00         0.00000E+00
    0.68040E+01         0.36030E+00         0.00000E+00
    0.61584E+01         0.40946E+00         0.00000E+00
    0.55691E+01         0.44725E+00         0.00000E+00
    0.50286E+01         0.47310E+00         0.00000E+00
    0.45290E+01         0.48705E+00         0.00000E+00
    0.40618E+01         0.48944E+00         0.00000E+00
    0.36184E+01         0.48064E+00         0.00000E+00
    0.31903E+01         0.46084E+00         0.00000E+00
    0.27693E+01         0.43000E+00         0.00000E+00
    0.23475E+01         0.38788E+00         0.00000E+00
    0.19177E+01         0.33408E+00         0.00000E+00
    0.14733E+01         0.26824E+00         0.00000E+00
    0.10084E+01         0.19024E+00         0.00000E+00
    0.51836E+00         0.10047E+00         0.00000E+00
    0.00000E+00         0.00000E+00         0.00000E+00
    0.79217E+01        -0.45218E+00         0.00000E+00
    0.71850E+01        -0.35956E+00         0.00000E+00
    0.65075E+01        -0.27550E+00         0.00000E+00
    0.58849E+01        -0.20087E+00         0.00000E+00
    0.53113E+01        -0.13578E+00         0.00000E+00
    0.47795E+01        -0.79847E-01         0.00000E+00
    0.42812E+01        -0.32586E-01         0.00000E+00
    0.38080E+01         0.64225E-02         0.00000E+00
    0.33514E+01         0.37370E-01         0.00000E+00
    0.29030E+01         0.60158E-01         0.00000E+00
    0.24549E+01         0.74408E-01         0.00000E+00
    0.19998E+01         0.79552E-01         0.00000E+00
    0.15313E+01         0.74967E-01         0.00000E+00
    0.10442E+01         0.60170E-01         0.00000E+00
    0.53454E+00         0.35031E-01         0.00000E+00
    0.00000E+00         0.00000E+00         0.00000E+00
    0.82845E+01        -0.12326E+01         0.00000E+00
    0.75197E+01        -0.11064E+01         0.00000E+00
    0.68125E+01        -0.98767E+00         0.00000E+00
    0.61602E+01        -0.87634E+00         0.00000E+00
    0.55576E+01        -0.77181E+00         0.00000E+00
    0.49978E+01        -0.67331E+00         0.00000E+00
    0.44730E+01        -0.58009E+00         0.00000E+00
    0.39747E+01        -0.49164E+00         0.00000E+00
    0.34940E+01        -0.40778E+00         0.00000E+00
    0.30225E+01        -0.32875E+00         0.00000E+00
    0.25520E+01        -0.25511E+00         0.00000E+00
    0.20751E+01        -0.18774E+00         0.00000E+00
    0.15856E+01        -0.12766E+00         0.00000E+00
    0.10785E+01        -0.75900E-01         0.00000E+00
    0.55048E+00        -0.33231E-01         0.00000E+00
    0.00000E+00         0.00000E+00         0.00000E+00
    0.86016E+01        -0.20401E+01         0.00000E+00
    0.78088E+01        -0.18805E+01         0.00000E+00
    0.70740E+01        -0.17272E+01         0.00000E+00
    0.63950E+01        -0.15791E+01         0.00000E+00
    0.57673E+01        -0.14348E+01         0.00000E+00
    0.51843E+01        -0.12930E+01         0.00000E+00
    0.46379E+01        -0.11526E+01         0.00000E+00
    0.41193E+01        -0.10131E+01         0.00000E+00
    0.36194E+01        -0.87419E+00         0.00000E+00
    0.31293E+01        -0.73634E+00         0.00000E+00
    0.26404E+01        -0.60040E+00         0.00000E+00
    0.21453E+01        -0.46763E+00         0.00000E+00
    0.16376E+01        -0.33960E+00         0.00000E+00
    0.11124E+01        -0.21797E+00         0.00000E+00
    0.56681E+00        -0.10435E+00         0.00000E+00
    0.00000E+00         0.00000E+00         0.00000E+00
    0.88734E+01        -0.28760E+01         0.00000E+00
    0.80524E+01        -0.26828E+01         0.00000E+00
    0.72914E+01        -0.24949E+01         0.00000E+00
    0.65889E+01        -0.23098E+01         0.00000E+00
    0.59403E+01        -0.21252E+01         0.00000E+00
    0.53387E+01        -0.19392E+01         0.00000E+00
    0.47758E+01        -0.17503E+01         0.00000E+00
    0.42422E+01        -0.15579E+01         0.00000E+00
    0.37282E+01        -0.13618E+01         0.00000E+00
    0.32243E+01        -0.11626E+01         0.00000E+00
    0.27214E+01        -0.96147E+00         0.00000E+00
    0.22117E+01        -0.76019E+00         0.00000E+00
    0.16884E+01        -0.56093E+00         0.00000E+00
    0.11468E+01        -0.36616E+00         0.00000E+00
    0.58411E+00        -0.17840E+00         0.00000E+00
    0.00000E+00         0.00000E+00         0.00000E+00
    0.90991E+01        -0.37420E+01         0.00000E+00
    0.82491E+01        -0.35151E+01         0.00000E+00
    0.74635E+01        -0.32922E+01         0.00000E+00
    0.67406E+01        -0.30696E+01         0.00000E+00
    0.60754E+01        -0.28438E+01         0.00000E+00
    0.54604E+01        -0.26125E+01         0.00000E+00
    0.48865E+01        -0.23736E+01         0.00000E+00
    0.43435E+01        -0.21265E+01         0.00000E+00
    0.38209E+01        -0.18709E+01         0.00000E+00
    0.33082E+01        -0.16077E+01         0.00000E+00
    0.27959E+01        -0.13385E+01         0.00000E+00
    0.22752E+01        -0.10656E+01         0.00000E+00
    0.17391E+01        -0.79185E+00         0.00000E+00
    0.11826E+01        -0.52063E+00         0.00000E+00
    0.60289E+00        -0.25549E+00         0.00000E+00
    0.00000E+00         0.00000E+00         0.00000E+00
    0.92765E+01        -0.46401E+01         0.00000E+00
    0.83967E+01        -0.43791E+01         0.00000E+00
    0.75881E+01        -0.41207E+01         0.00000E+00
    0.68481E+01        -0.38597E+01         0.00000E+00
    0.61710E+01        -0.35918E+01         0.00000E+00
    0.55481E+01        -0.33136E+01         0.00000E+00
    0.49691E+01        -0.30230E+01         0.00000E+00
    0.44226E+01        -0.27190E+01         0.00000E+00
    0.38972E+01        -0.24016E+01         0.00000E+00
    0.33812E+01        -0.20718E+01         0.00000E+00
    0.28641E+01        -0.17316E+01         0.00000E+00
    0.23364E+01        -0.13840E+01         0.00000E+00
    0.17904E+01        -0.10326E+01         0.00000E+00
    0.12205E+01        -0.68155E+00         0.00000E+00
    0.62359E+00        -0.33572E+00         0.00000E+00
    0.00000E+00         0.00000E+00         0.00000E+00
    0.94016E+01        -0.55726E+01         0.00000E+00
    0.84915E+01        -0.52766E+01         0.00000E+00
    0.76618E+01        -0.49818E+01         0.00000E+00
    0.69086E+01        -0.46813E+01         0.00000E+00
    0.62247E+01        -0.43698E+01         0.00000E+00
    0.55997E+01        -0.40430E+01         0.00000E+00
    0.50219E+01        -0.36987E+01         0.00000E+00
    0.44785E+01        -0.33355E+01         0.00000E+00
    0.39564E+01        -0.29537E+01         0.00000E+00
    0.34429E+01        -0.25547E+01         0.00000E+00
    0.29262E+01        -0.21408E+01         0.00000E+00
    0.23957E+01        -0.17155E+01         0.00000E+00
    0.18427E+01        -0.12831E+01         0.00000E+00
    0.12608E+01        -0.84906E+00         0.00000E+00
    0.64659E+00        -0.41920E+00         0.00000E+00
    0.00000E+00         0.00000E+00         0.00000E+00
    0.94689E+01        -0.65411E+01         0.00000E+00
    0.85285E+01        -0.62093E+01         0.00000E+00
    0.76802E+01        -0.58768E+01         0.00000E+00
    0.69182E+01        -0.55353E+01         0.00000E+00
    0.62332E+01        -0.51782E+01         0.00000E+00
    0.56127E+01        -0.48008E+01         0.00000E+00
    0.50430E+01        -0.44002E+01         0.00000E+00
    0.45095E+01        -0.39755E+01         0.00000E+00
    0.39973E+01        -0.35268E+01         0.00000E+00
    0.34924E+01        -0.30558E+01         0.00000E+00
    0.29815E+01        -0.25655E+01         0.00000E+00
    0.24527E+01        -0.20597E+01         0.00000E+00
    0.18960E+01        -0.15435E+01         0.00000E+00
    0.13040E+01        -0.10232E+01         0.00000E+00
    0.67212E+00        -0.50600E+00         0.00000E+00
    0.00000E+00         0.00000E+00         0.00000E+00
    0.94713E+01        -0.75471E+01         0.00000E+00
    0.85011E+01        -0.71780E+01         0.00000E+00
    0.76375E+01        -0.68062E+01         0.00000E+00
    0.68721E+01        -0.64216E+01         0.00000E+00
    0.61925E+01        -0.60165E+01         0.00000E+00
    0.55837E+01        -0.55857E+01         0.00000E+00
    0.50295E+01        -0.51263E+01         0.00000E+00
    0.45130E+01        -0.46372E+01         0.00000E+00
    0.40178E+01        -0.41190E+01         0.00000E+00
    0.35278E+01        -0.35737E+01         0.00000E+00
    0.30284E+01        -0.30045E+01         0.00000E+00
    0.25062E+01        -0.24158E+01         0.00000E+00
    0.19496E+01        -0.18132E+01         0.00000E+00
    0.13496E+01        -0.12038E+01         0.00000E+00
    0.70022E+00        -0.59610E+00         0.00000E+00
    0.00000E+00         0.00000E+00         0.00000E+00
    0.93994E+01        -0.85909E+01         0.00000E+00
    0.84013E+01        -0.81828E+01         0.00000E+00
    0.75269E+01        -0.77694E+01         0.00000E+00
    0.67644E+01        -0.73390E+01         0.00000E+00
    0.60978E+01        -0.68828E+01         0.00000E+00
    0.55086E+01        -0.63954E+01         0.00000E+00
    0.49777E+01        -0.58738E+01         0.00000E+00
    0.44859E+01        -0.53175E+01         0.00000E+00
    0.40146E+01        -0.47273E+01         0.00000E+00
    0.35462E+01        -0.41056E+01         0.00000E+00
    0.30644E+01        -0.34557E+01         0.00000E+00
    0.25542E+01        -0.27823E+01         0.00000E+00
    0.20020E+01        -0.20912E+01         0.00000E+00
    0.13968E+01        -0.13904E+01         0.00000E+00
    0.73060E+00        -0.68944E+00         0.00000E+00
    0.00000E+00         0.00000E+00         0.00000E+00
    0.92420E+01        -0.96720E+01         0.00000E+00
    0.82191E+01        -0.92224E+01         0.00000E+00
    0.73401E+01        -0.87645E+01         0.00000E+00
    0.65884E+01        -0.82847E+01         0.00000E+00
    0.59434E+01        -0.77735E+01         0.00000E+00
    0.53825E+01        -0.72254E+01         0.00000E+00
    0.48832E+01        -0.66380E+01         0.00000E+00
    0.44236E+01        -0.60114E+01         0.00000E+00
    0.39833E+01        -0.53469E+01         0.00000E+00
    0.35432E+01        -0.46472E+01         0.00000E+00
    0.30854E+01        -0.39156E+01         0.00000E+00
    0.25930E+01        -0.31566E+01         0.00000E+00
    0.20504E+01        -0.23761E+01         0.00000E+00
    0.14439E+01        -0.15823E+01         0.00000E+00
    0.76253E+00        -0.78580E+00         0.00000E+00
    0.00000E+00         0.00000E+00         0.00000E+00
    0.89858E+01        -0.10788E+02         0.00000E+00
    0.79431E+01        -0.10294E+02         0.00000E+00
    0.70674E+01        -0.97876E+01         0.00000E+00
    0.63363E+01        -0.92536E+01         0.00000E+00
    0.57228E+01        -0.86823E+01         0.00000E+00
    0.51996E+01        -0.80685E+01         0.00000E+00
    0.47402E+01        -0.74111E+01         0.00000E+00
    0.43202E+01        -0.67110E+01         0.00000E+00
    0.39177E+01        -0.59703E+01         0.00000E+00
    0.35123E+01        -0.51919E+01         0.00000E+00
    0.30848E+01        -0.43787E+01         0.00000E+00
    0.26168E+01        -0.35348E+01         0.00000E+00
    0.20901E+01        -0.26655E+01         0.00000E+00
    0.14877E+01        -0.17784E+01         0.00000E+00
    0.79457E+00        -0.88486E+00         0.00000E+00
    0.00000E+00         0.00000E+00         0.00000E+00
    0.86147E+01        -0.11935E+02         0.00000E+00
    0.75595E+01        -0.11392E+02         0.00000E+00
    0.66981E+01        -0.10832E+02         0.00000E+00
    0.59994E+01        -0.10238E+02         0.00000E+00
    0.54290E+01        -0.95997E+01         0.00000E+00
    0.49532E+01        -0.89141E+01         0.00000E+00
    0.45418E+01        -0.81818E+01         0.00000E+00
    0.41682E+01        -0.74052E+01         0.00000E+00
    0.38093E+01        -0.65872E+01         0.00000E+00
    0.34444E+01        -0.57306E+01         0.00000E+00
    0.30536E+01        -0.48378E+01         0.00000E+00
    0.26170E+01        -0.39116E+01         0.00000E+00
    0.21139E+01        -0.29558E+01         0.00000E+00
    0.15232E+01        -0.19770E+01         0.00000E+00
    0.82424E+00        -0.98614E+00         0.00000E+00
    0.00000E+00         0.00000E+00         0.00000E+00
    0.81095E+01        -0.13107E+02         0.00000E+00
    0.70526E+01        -0.12510E+02         0.00000E+00
    0.62197E+01        -0.11889E+02         0.00000E+00
    0.55684E+01        -0.11226E+02         0.00000E+00
    0.50538E+01        -0.10512E+02         0.00000E+00
    0.46354E+01        -0.97469E+01         0.00000E+00
    0.42790E+01        -0.89345E+01         0.00000E+00
    0.39571E+01        -0.80788E+01         0.00000E+00
    0.36465E+01        -0.71835E+01         0.00000E+00
    0.33269E+01        -0.62512E+01         0.00000E+00
    0.29786E+01        -0.52829E+01         0.00000E+00
    0.25809E+01        -0.42795E+01         0.00000E+00
    0.21109E+01        -0.32423E+01         0.00000E+00
    0.15424E+01        -0.21756E+01         0.00000E+00
    0.84756E+00        -0.10890E+01         0.00000E+00
    0.00000E+00         0.00000E+00         0.00000E+00
    0.74470E+01        -0.14294E+02         0.00000E+00
    0.64036E+01        -0.13635E+02         0.00000E+00
    0.56189E+01        -0.12943E+02         0.00000E+00
    0.50333E+01        -0.12199E+02         0.00000E+00
    0.45884E+01        -0.11399E+02         0.00000E+00
    0.42362E+01        -0.10546E+02         0.00000E+00
    0.39400E+01        -0.96482E+01         0.00000E+00
    0.36728E+01        -0.87122E+01         0.00000E+00
    0.34130E+01        -0.77418E+01         0.00000E+00
    0.31421E+01        -0.67384E+01         0.00000E+00
    0.28415E+01        -0.57014E+01         0.00000E+00
    0.24908E+01        -0.46290E+01         0.00000E+00
    0.20651E+01        -0.35189E+01         0.00000E+00
    0.15334E+01        -0.23714E+01         0.00000E+00
    0.85826E+00        -0.11927E+01         0.00000E+00
    0.00000E+00         0.00000E+00         0.00000E+00
    0.65979E+01        -0.15483E+02         0.00000E+00
    0.55902E+01        -0.14751E+02         0.00000E+00
    0.48808E+01        -0.13974E+02         0.00000E+00
    0.43832E+01        -0.13132E+02         0.00000E+00
    0.40215E+01        -0.12231E+02         0.00000E+00
    0.37415E+01        -0.11282E+02         0.00000E+00
    0.35076E+01        -0.10296E+02         0.00000E+00
    0.32954E+01        -0.92816E+01         0.00000E+00
    0.30869E+01        -0.82408E+01         0.00000E+00
    0.28663E+01        -0.71738E+01         0.00000E+00
    0.26177E+01        -0.60778E+01         0.00000E+00
    0.23220E+01        -0.49478E+01         0.00000E+00
    0.19540E+01        -0.37771E+01         0.00000E+00
    0.14783E+01        -0.25598E+01         0.00000E+00
    0.84658E+00        -0.12961E+01         0.00000E+00
    0.00000E+00         0.00000E+00         0.00000E+00
    0.55233E+01        -0.16654E+02         0.00000E+00
    0.45859E+01        -0.15833E+02         0.00000E+00
    0.39902E+01        -0.14946E+02         0.00000E+00
    0.36051E+01        -0.13985E+02         0.00000E+00
    0.33359E+01        -0.12969E+02         0.00000E+00
    0.31293E+01        -0.11919E+02         0.00000E+00
    0.29556E+01        -0.10847E+02         0.00000E+00
    0.27962E+01        -0.97598E+01         0.00000E+00
    0.26376E+01        -0.86573E+01         0.00000E+00
    0.24678E+01        -0.75373E+01         0.00000E+00
    0.22742E+01        -0.63945E+01         0.00000E+00
    0.20409E+01        -0.52209E+01         0.00000E+00
    0.17451E+01        -0.40055E+01         0.00000E+00
    0.13502E+01        -0.27347E+01         0.00000E+00
    0.79693E+00        -0.13978E+01         0.00000E+00
    0.00000E+00         0.00000E+00         0.00000E+00
    0.41656E+01        -0.17776E+02         0.00000E+00
    0.33585E+01        -0.16837E+02         0.00000E+00
    0.29306E+01        -0.15802E+02         0.00000E+00
    0.26761E+01        -0.14694E+02         0.00000E+00
    0.24986E+01        -0.13558E+02         0.00000E+00
    0.23605E+01        -0.12413E+02         0.00000E+00
    0.22424E+01        -0.11267E+02         0.00000E+00
    0.21325E+01        -0.10120E+02         0.00000E+00
    0.20220E+01        -0.89688E+01         0.00000E+00
    0.19033E+01        -0.78090E+01         0.00000E+00
    0.17676E+01        -0.66331E+01         0.00000E+00
    0.16035E+01        -0.54309E+01         0.00000E+00
    0.13936E+01        -0.41886E+01         0.00000E+00
    0.11077E+01        -0.28860E+01         0.00000E+00
    0.68297E+00        -0.14947E+01         0.00000E+00
    0.00000E+00         0.00000E+00         0.00000E+00
    0.24230E+01        -0.18803E+02         0.00000E+00
    0.18764E+01        -0.17668E+02         0.00000E+00
    0.16656E+01        -0.16421E+02         0.00000E+00
    0.15339E+01        -0.15169E+02         0.00000E+00
    0.14395E+01        -0.13936E+02         0.00000E+00
    0.13643E+01        -0.12722E+02         0.00000E+00
    0.12991E+01        -0.11525E+02         0.00000E+00
    0.12382E+01        -0.10339E+02         0.00000E+00
    0.11773E+01        -0.91574E+01         0.00000E+00
    0.11125E+01        -0.79735E+01         0.00000E+00
    0.10392E+01        -0.67784E+01         0.00000E+00
    0.95144E+00        -0.55610E+01         0.00000E+00
    0.83974E+00        -0.43066E+01         0.00000E+00
    0.68668E+00        -0.29930E+01         0.00000E+00
    0.45488E+00        -0.15809E+01         0.00000E+00
    0.00000E+00         0.00000E+00         0.00000E+00
    0.00000E+00        -0.19498E+02         0.00000E+00
    0.00000E+00        -0.18017E+02         0.00000E+00
    0.00000E+00        -0.16637E+02         0.00000E+00
    0.00000E+00        -0.15326E+02         0.00000E+00
    0.00000E+00        -0.14057E+02         0.00000E+00
    0.00000E+00        -0.12820E+02         0.00000E+00
    0.00000E+00        -0.11606E+02         0.00000E+00
    0.00000E+00        -0.10407E+02         0.00000E+00
    0.00000E+00        -0.92162E+01         0.00000E+00
    0.00000E+00        -0.80247E+01         0.00000E+00
    0.00000E+00        -0.68237E+01         0.00000E+00
    0.00000E+00        -0.56020E+01         0.00000E+00
    0.00000E+00        -0.43448E+01         0.00000E+00
    0.00000E+00        -0.30296E+01         0.00000E+00
    0.00000E+00        -0.16184E+01         0.00000E+00
    0.00000E+00         0.00000E+00         0.00000E+00
CELL_DATA        450
VECTORS vDarcy double 
    0.11585E-05         0.28433E-07         0.00000E+00
    0.11394E-05         0.71504E-07         0.00000E+00
    0.11357E-05         0.95669E-07         0.00000E+00
    0.11337E-05         0.11058E-06         0.00000E+00
    0.11327E-05         0.11930E-06         0.00000E+00
    0.11321E-05         0.12334E-06         0.00000E+00
    0.11318E-05         0.12358E-06         0.00000E+00
    0.11317E-05         0.12060E-06         0.00000E+00
    0.11316E-05         0.11479E-06         0.00000E+00
    0.11315E-05         0.10639E-06         0.00000E+00
    0.11314E-05         0.95514E-07         0.00000E+00
    0.11311E-05         0.82125E-07         0.00000E+00
    0.11305E-05         0.65887E-07         0.00000E+00
    0.11295E-05         0.45757E-07         0.00000E+00
    0.11199E-05         0.17316E-07         0.00000E+00
    0.11264E-05         0.16043E-07         0.00000E+00
    0.11020E-05         0.46193E-07         0.00000E+00
    0.10893E-05         0.70534E-07         0.00000E+00
    0.10831E-05         0.87029E-07         0.00000E+00
    0.10796E-05         0.97483E-07         0.00000E+00
    0.10776E-05         0.10312E-06         0.00000E+00
    0.10764E-05         0.10477E-06         0.00000E+00
    0.10757E-05         0.10300E-06         0.00000E+00
    0.10752E-05         0.98208E-07         0.00000E+00
    0.10748E-05         0.90631E-07         0.00000E+00
    0.10741E-05         0.80381E-07         0.00000E+00
    0.10729E-05         0.67412E-07         0.00000E+00
    0.10707E-05         0.51466E-07         0.00000E+00
    0.10654E-05         0.31950E-07         0.00000E+00
    0.10553E-05         0.10715E-07         0.00000E+00
    0.10790E-05         0.11372E-07         0.00000E+00
    0.10570E-05         0.33215E-07         0.00000E+00
    0.10420E-05         0.53063E-07         0.00000E+00
    0.10328E-05         0.68495E-07         0.00000E+00
    0.10272E-05         0.79093E-07         0.00000E+00
    0.10238E-05         0.85358E-07         0.00000E+00
    0.10217E-05         0.87829E-07         0.00000E+00
    0.10204E-05         0.86952E-07         0.00000E+00
    0.10195E-05         0.83070E-07         0.00000E+00
    0.10185E-05         0.76417E-07         0.00000E+00
    0.10173E-05         0.67139E-07         0.00000E+00
    0.10153E-05         0.55310E-07         0.00000E+00
    0.10118E-05         0.41009E-07         0.00000E+00
    0.10060E-05         0.24883E-07         0.00000E+00
    0.99776E-06         0.83875E-08         0.00000E+00
    0.10247E-05         0.89163E-08         0.00000E+00
    0.10062E-05         0.25784E-07         0.00000E+00
    0.99190E-06         0.41521E-07         0.00000E+00
    0.98183E-06         0.54582E-07         0.00000E+00
    0.97514E-06         0.64196E-07         0.00000E+00
    0.97083E-06         0.70268E-07         0.00000E+00
    0.96808E-06         0.73013E-07         0.00000E+00
    0.96628E-06         0.72707E-07         0.00000E+00
    0.96495E-06         0.69611E-07         0.00000E+00
    0.96367E-06         0.63945E-07         0.00000E+00
    0.96204E-06         0.55896E-07         0.00000E+00
    0.95962E-06         0.45668E-07         0.00000E+00
    0.95596E-06         0.33626E-07         0.00000E+00
    0.95080E-06         0.20416E-07         0.00000E+00
    0.94438E-06         0.69559E-08         0.00000E+00
    0.96758E-06         0.73987E-08         0.00000E+00
    0.95238E-06         0.20989E-07         0.00000E+00
    0.93980E-06         0.33522E-07         0.00000E+00
    0.93025E-06         0.44148E-07         0.00000E+00
    0.92346E-06         0.52269E-07         0.00000E+00
    0.91887E-06         0.57634E-07         0.00000E+00
    0.91584E-06         0.60248E-07         0.00000E+00
    0.91382E-06         0.60246E-07         0.00000E+00
    0.91233E-06         0.57806E-07         0.00000E+00
    0.91093E-06         0.53119E-07         0.00000E+00
    0.90922E-06         0.46390E-07         0.00000E+00
    0.90686E-06         0.37882E-07         0.00000E+00
    0.90358E-06         0.27963E-07         0.00000E+00
    0.89934E-06         0.17131E-07         0.00000E+00
    0.89443E-06         0.59289E-08         0.00000E+00
    0.91003E-06         0.63090E-08         0.00000E+00
    0.89774E-06         0.17516E-07         0.00000E+00
    0.88718E-06         0.27537E-07         0.00000E+00
    0.87882E-06         0.35999E-07         0.00000E+00
    0.87265E-06         0.42551E-07         0.00000E+00
    0.86835E-06         0.46981E-07         0.00000E+00
    0.86548E-06         0.49227E-07         0.00000E+00
    0.86359E-06         0.49340E-07         0.00000E+00
    0.86222E-06         0.47433E-07         0.00000E+00
    0.86098E-06         0.43658E-07         0.00000E+00
    0.85950E-06         0.38206E-07         0.00000E+00
    0.85752E-06         0.31315E-07         0.00000E+00
    0.85487E-06         0.23278E-07         0.00000E+00
    0.85156E-06         0.14430E-07         0.00000E+00
    0.84785E-06         0.50734E-08         0.00000E+00
    0.85392E-06         0.53986E-08         0.00000E+00
    0.84406E-06         0.14671E-07         0.00000E+00
    0.83550E-06         0.22629E-07         0.00000E+00
    0.82861E-06         0.29217E-07         0.00000E+00
    0.82348E-06         0.34295E-07         0.00000E+00
    0.81992E-06         0.37747E-07         0.00000E+00
    0.81760E-06         0.39521E-07         0.00000E+00
    0.81616E-06         0.39635E-07         0.00000E+00
    0.81521E-06         0.38159E-07         0.00000E+00
    0.81439E-06         0.35208E-07         0.00000E+00
    0.81340E-06         0.30928E-07         0.00000E+00
    0.81200E-06         0.25500E-07         0.00000E+00
    0.81007E-06         0.19127E-07         0.00000E+00
    0.80763E-06         0.12009E-07         0.00000E+00
    0.80485E-06         0.42882E-08         0.00000E+00
    0.80067E-06         0.45307E-08         0.00000E+00
    0.79280E-06         0.12054E-07         0.00000E+00
    0.78607E-06         0.18211E-07         0.00000E+00
    0.78074E-06         0.23148E-07         0.00000E+00
    0.77687E-06         0.26885E-07         0.00000E+00
    0.77432E-06         0.29401E-07         0.00000E+00
    0.77286E-06         0.30681E-07         0.00000E+00
    0.77215E-06         0.30741E-07         0.00000E+00
    0.77187E-06         0.29625E-07         0.00000E+00
    0.77170E-06         0.27411E-07         0.00000E+00
    0.77137E-06         0.24196E-07         0.00000E+00
    0.77068E-06         0.20098E-07         0.00000E+00
    0.76950E-06         0.15232E-07         0.00000E+00
    0.76784E-06         0.96936E-08         0.00000E+00
    0.76579E-06         0.35179E-08         0.00000E+00
    0.75145E-06         0.36263E-08         0.00000E+00
    0.74516E-06         0.94253E-08         0.00000E+00
    0.74003E-06         0.13906E-07         0.00000E+00
    0.73621E-06         0.17336E-07         0.00000E+00
    0.73369E-06         0.19846E-07         0.00000E+00
    0.73234E-06         0.21492E-07         0.00000E+00
    0.73192E-06         0.22298E-07         0.00000E+00
    0.73216E-06         0.22287E-07         0.00000E+00
    0.73275E-06         0.21490E-07         0.00000E+00
    0.73340E-06         0.19951E-07         0.00000E+00
    0.73386E-06         0.17723E-07         0.00000E+00
    0.73394E-06         0.14860E-07         0.00000E+00
    0.73351E-06         0.11407E-07         0.00000E+00
    0.73253E-06         0.73774E-08         0.00000E+00
    0.73106E-06         0.27304E-08         0.00000E+00
    0.70717E-06         0.26411E-08         0.00000E+00
    0.70208E-06         0.66412E-08         0.00000E+00
    0.69833E-06         0.94716E-08         0.00000E+00
    0.69592E-06         0.11468E-07         0.00000E+00
    0.69475E-06         0.12829E-07         0.00000E+00
    0.69467E-06         0.13664E-07         0.00000E+00
    0.69543E-06         0.14028E-07         0.00000E+00
    0.69676E-06         0.13955E-07         0.00000E+00
    0.69835E-06         0.13462E-07         0.00000E+00
    0.69994E-06         0.12567E-07         0.00000E+00
    0.70128E-06         0.11281E-07         0.00000E+00
    0.70217E-06         0.96059E-08         0.00000E+00
    0.70246E-06         0.75253E-08         0.00000E+00
    0.70210E-06         0.49907E-08         0.00000E+00
    0.70106E-06         0.19056E-08         0.00000E+00
    0.66850E-06         0.15519E-08         0.00000E+00
    0.66431E-06         0.36187E-08         0.00000E+00
    0.66171E-06         0.47583E-08         0.00000E+00
    0.66057E-06         0.53359E-08         0.00000E+00
    0.66073E-06         0.55864E-08         0.00000E+00
    0.66194E-06         0.56510E-08         0.00000E+00
    0.66395E-06         0.56065E-08         0.00000E+00
    0.66645E-06         0.54886E-08         0.00000E+00
    0.66915E-06         0.53063E-08         0.00000E+00
    0.67176E-06         0.50505E-08         0.00000E+00
    0.67403E-06         0.46962E-08         0.00000E+00
    0.67574E-06         0.42006E-08         0.00000E+00
    0.67673E-06         0.34974E-08         0.00000E+00
    0.67690E-06         0.24877E-08         0.00000E+00
    0.67619E-06         0.10315E-08         0.00000E+00
    0.63592E-06         0.34967E-09         0.00000E+00
    0.63236E-06         0.31437E-09         0.00000E+00
    0.63071E-06        -0.32417E-09         0.00000E+00
    0.63072E-06        -0.11969E-08         0.00000E+00
    0.63213E-06        -0.20541E-08         0.00000E+00
    0.63464E-06        -0.27398E-08         0.00000E+00
    0.63793E-06        -0.31686E-08         0.00000E+00
    0.64167E-06        -0.33070E-08         0.00000E+00
    0.64553E-06        -0.31590E-08         0.00000E+00
    0.64922E-06        -0.27579E-08         0.00000E+00
    0.65244E-06        -0.21612E-08         0.00000E+00
    0.65498E-06        -0.14514E-08         0.00000E+00
    0.65664E-06        -0.73772E-09         0.00000E+00
    0.65728E-06        -0.16137E-09         0.00000E+00
    0.65682E-06         0.10064E-09         0.00000E+00
    0.60968E-06        -0.96721E-09         0.00000E+00
    0.60654E-06        -0.32914E-08         0.00000E+00
    0.60567E-06        -0.58276E-08         0.00000E+00
    0.60673E-06        -0.82166E-08         0.00000E+00
    0.60934E-06        -0.10208E-07         0.00000E+00
    0.61313E-06        -0.11645E-07         0.00000E+00
    0.61773E-06        -0.12442E-07         0.00000E+00
    0.62274E-06        -0.12576E-07         0.00000E+00
    0.62782E-06        -0.12068E-07         0.00000E+00
    0.63262E-06        -0.10974E-07         0.00000E+00
    0.63684E-06        -0.93850E-08         0.00000E+00
    0.64020E-06        -0.74180E-08         0.00000E+00
    0.64249E-06        -0.52217E-08         0.00000E+00
    0.64355E-06        -0.29754E-08         0.00000E+00
    0.64324E-06        -0.89073E-09         0.00000E+00
    0.58982E-06        -0.23970E-08         0.00000E+00
    0.58695E-06        -0.72070E-08         0.00000E+00
    0.58675E-06        -0.11783E-07         0.00000E+00
    0.58877E-06        -0.15780E-07         0.00000E+00
    0.59255E-06        -0.18956E-07         0.00000E+00
    0.59763E-06        -0.21159E-07         0.00000E+00
    0.60357E-06        -0.22318E-07         0.00000E+00
    0.60991E-06        -0.22423E-07         0.00000E+00
    0.61626E-06        -0.21516E-07         0.00000E+00
    0.62221E-06        -0.19682E-07         0.00000E+00
    0.62743E-06        -0.17041E-07         0.00000E+00
    0.63162E-06        -0.13746E-07         0.00000E+00
    0.63453E-06        -0.99823E-08         0.00000E+00
    0.63595E-06        -0.59660E-08         0.00000E+00
    0.63573E-06        -0.19445E-08         0.00000E+00
    0.57621E-06        -0.39386E-08         0.00000E+00
    0.57349E-06        -0.11439E-07         0.00000E+00
    0.57390E-06        -0.18214E-07         0.00000E+00
    0.57686E-06        -0.23929E-07         0.00000E+00
    0.58182E-06        -0.28354E-07         0.00000E+00
    0.58824E-06        -0.31352E-07         0.00000E+00
    0.59557E-06        -0.32869E-07         0.00000E+00
    0.60330E-06        -0.32919E-07         0.00000E+00
    0.61097E-06        -0.31570E-07         0.00000E+00
    0.61813E-06        -0.28939E-07         0.00000E+00
    0.62440E-06        -0.25176E-07         0.00000E+00
    0.62943E-06        -0.20468E-07         0.00000E+00
    0.63293E-06        -0.15038E-07         0.00000E+00
    0.63467E-06        -0.91406E-08         0.00000E+00
    0.63448E-06        -0.30616E-08         0.00000E+00
    0.56853E-06        -0.55935E-08         0.00000E+00
    0.56592E-06        -0.15999E-07         0.00000E+00
    0.56691E-06        -0.25145E-07         0.00000E+00
    0.57086E-06        -0.32701E-07         0.00000E+00
    0.57707E-06        -0.38449E-07         0.00000E+00
    0.58491E-06        -0.42272E-07         0.00000E+00
    0.59372E-06        -0.44143E-07         0.00000E+00
    0.60294E-06        -0.44108E-07         0.00000E+00
    0.61201E-06        -0.42270E-07         0.00000E+00
    0.62045E-06        -0.38777E-07         0.00000E+00
    0.62782E-06        -0.33815E-07         0.00000E+00
    0.63372E-06        -0.27604E-07         0.00000E+00
    0.63782E-06        -0.20402E-07         0.00000E+00
    0.63985E-06        -0.12505E-07         0.00000E+00
    0.63960E-06        -0.42427E-08         0.00000E+00
    0.56628E-06        -0.73685E-08         0.00000E+00
    0.56378E-06        -0.20909E-07         0.00000E+00
    0.56545E-06        -0.32610E-07         0.00000E+00
    0.57049E-06        -0.42135E-07         0.00000E+00
    0.57809E-06        -0.49278E-07         0.00000E+00
    0.58748E-06        -0.53951E-07         0.00000E+00
    0.59793E-06        -0.56164E-07         0.00000E+00
    0.60875E-06        -0.56007E-07         0.00000E+00
    0.61934E-06        -0.53626E-07         0.00000E+00
    0.62915E-06        -0.49206E-07         0.00000E+00
    0.63769E-06        -0.42967E-07         0.00000E+00
    0.64452E-06        -0.35162E-07         0.00000E+00
    0.64924E-06        -0.26082E-07         0.00000E+00
    0.65154E-06        -0.16063E-07         0.00000E+00
    0.65117E-06        -0.54892E-08         0.00000E+00
    0.56881E-06        -0.92758E-08         0.00000E+00
    0.56651E-06        -0.26202E-07         0.00000E+00
    0.56901E-06        -0.40652E-07         0.00000E+00
    0.57535E-06        -0.52272E-07         0.00000E+00
    0.58457E-06        -0.60870E-07         0.00000E+00
    0.59573E-06        -0.66398E-07         0.00000E+00
    0.60799E-06        -0.68923E-07         0.00000E+00
    0.62058E-06        -0.68595E-07         0.00000E+00
    0.63283E-06        -0.65612E-07         0.00000E+00
    0.64413E-06        -0.60203E-07         0.00000E+00
    0.65395E-06        -0.52619E-07         0.00000E+00
    0.66177E-06        -0.43138E-07         0.00000E+00
    0.66717E-06        -0.32080E-07         0.00000E+00
    0.66974E-06        -0.19822E-07         0.00000E+00
    0.66919E-06        -0.68034E-08         0.00000E+00
    0.57530E-06        -0.11335E-07         0.00000E+00
    0.57338E-06        -0.31926E-07         0.00000E+00
    0.57700E-06        -0.49326E-07         0.00000E+00
    0.58496E-06        -0.63151E-07         0.00000E+00
    0.59611E-06        -0.73232E-07         0.00000E+00
    0.60933E-06        -0.79585E-07         0.00000E+00
    0.62364E-06        -0.82360E-07         0.00000E+00
    0.63820E-06        -0.81791E-07         0.00000E+00
    0.65227E-06        -0.78144E-07         0.00000E+00
    0.66519E-06        -0.71694E-07         0.00000E+00
    0.67640E-06        -0.62717E-07         0.00000E+00
    0.68533E-06        -0.51506E-07         0.00000E+00
    0.69148E-06        -0.38395E-07         0.00000E+00
    0.69437E-06        -0.23789E-07         0.00000E+00
    0.69361E-06        -0.81900E-08         0.00000E+00
    0.58477E-06        -0.13571E-07         0.00000E+00
    0.58356E-06        -0.38144E-07         0.00000E+00
    0.58871E-06        -0.58693E-07         0.00000E+00
    0.59876E-06        -0.74798E-07         0.00000E+00
    0.61227E-06        -0.86334E-07         0.00000E+00
    0.62791E-06        -0.93419E-07         0.00000E+00
    0.64457E-06        -0.96331E-07         0.00000E+00
    0.66130E-06        -0.95422E-07         0.00000E+00
    0.67734E-06        -0.91046E-07         0.00000E+00
    0.69202E-06        -0.83528E-07         0.00000E+00
    0.70476E-06        -0.73156E-07         0.00000E+00
    0.71494E-06        -0.60209E-07         0.00000E+00
    0.72198E-06        -0.45009E-07         0.00000E+00
    0.72528E-06        -0.27971E-07         0.00000E+00
    0.72430E-06        -0.96558E-08         0.00000E+00
    0.59610E-06        -0.16022E-07         0.00000E+00
    0.59607E-06        -0.44935E-07         0.00000E+00
    0.60338E-06        -0.68820E-07         0.00000E+00
    0.61616E-06        -0.87215E-07         0.00000E+00
    0.63260E-06        -0.10008E-06         0.00000E+00
    0.65111E-06        -0.10770E-06         0.00000E+00
    0.67040E-06        -0.11056E-06         0.00000E+00
    0.68950E-06        -0.10917E-06         0.00000E+00
    0.70764E-06        -0.10401E-06         0.00000E+00
    0.72420E-06        -0.95438E-07         0.00000E+00
    0.73860E-06        -0.83740E-07         0.00000E+00
    0.75022E-06        -0.69137E-07         0.00000E+00
    0.75836E-06        -0.51888E-07         0.00000E+00
    0.76224E-06        -0.32378E-07         0.00000E+00
    0.76114E-06        -0.11211E-07         0.00000E+00
    0.60798E-06        -0.18737E-07         0.00000E+00
    0.60984E-06        -0.52404E-07         0.00000E+00
    0.62022E-06        -0.79773E-07         0.00000E+00
    0.63661E-06        -0.10035E-06         0.00000E+00
    0.65671E-06        -0.11425E-06         0.00000E+00
    0.67858E-06        -0.12207E-06         0.00000E+00
    0.70080E-06        -0.12456E-06         0.00000E+00
    0.72238E-06        -0.12250E-06         0.00000E+00
    0.74266E-06        -0.11651E-06         0.00000E+00
    0.76115E-06        -0.10698E-06         0.00000E+00
    0.77734E-06        -0.94142E-07         0.00000E+00
    0.79061E-06        -0.78098E-07         0.00000E+00
    0.80014E-06        -0.58962E-07         0.00000E+00
    0.80494E-06        -0.37018E-07         0.00000E+00
    0.80394E-06        -0.12872E-07         0.00000E+00
    0.61888E-06        -0.21787E-07         0.00000E+00
    0.62372E-06        -0.60690E-07         0.00000E+00
    0.63844E-06        -0.91607E-07         0.00000E+00
    0.65965E-06        -0.11404E-06         0.00000E+00
    0.68430E-06        -0.12845E-06         0.00000E+00
    0.71006E-06        -0.13588E-06         0.00000E+00
    0.73539E-06        -0.13756E-06         0.00000E+00
    0.75943E-06        -0.13459E-06         0.00000E+00
    0.78175E-06        -0.12774E-06         0.00000E+00
    0.80208E-06        -0.11746E-06         0.00000E+00
    0.82012E-06        -0.10384E-06         0.00000E+00
    0.83529E-06        -0.86773E-07         0.00000E+00
    0.84667E-06        -0.66106E-07         0.00000E+00
    0.85293E-06        -0.41894E-07         0.00000E+00
    0.85249E-06        -0.14658E-07         0.00000E+00
    0.62700E-06        -0.25283E-07         0.00000E+00
    0.63643E-06        -0.69991E-07         0.00000E+00
    0.65740E-06        -0.10434E-06         0.00000E+00
    0.68505E-06        -0.12796E-06         0.00000E+00
    0.71532E-06        -0.14192E-06         0.00000E+00
    0.74541E-06        -0.14809E-06         0.00000E+00
    0.77384E-06        -0.14834E-06         0.00000E+00
    0.80007E-06        -0.14418E-06         0.00000E+00
    0.82407E-06        -0.13654E-06         0.00000E+00
    0.84597E-06        -0.12586E-06         0.00000E+00
    0.86579E-06        -0.11204E-06         0.00000E+00
    0.88312E-06        -0.94645E-07         0.00000E+00
    0.89697E-06        -0.73092E-07         0.00000E+00
    0.90558E-06        -0.46989E-07         0.00000E+00
    0.90660E-06        -0.16598E-07         0.00000E+00
    0.63016E-06        -0.29405E-07         0.00000E+00
    0.64670E-06        -0.80590E-07         0.00000E+00
    0.67671E-06        -0.11790E-06         0.00000E+00
    0.71298E-06        -0.14137E-06         0.00000E+00
    0.75000E-06        -0.15338E-06         0.00000E+00
    0.78463E-06        -0.15706E-06         0.00000E+00
    0.81578E-06        -0.15515E-06         0.00000E+00
    0.84355E-06        -0.14954E-06         0.00000E+00
    0.86855E-06        -0.14128E-06         0.00000E+00
    0.89147E-06        -0.13071E-06         0.00000E+00
    0.91281E-06        -0.11752E-06         0.00000E+00
    0.93252E-06        -0.10087E-06         0.00000E+00
    0.94966E-06        -0.79504E-07         0.00000E+00
    0.96200E-06        -0.52235E-07         0.00000E+00
    0.96607E-06        -0.18721E-07         0.00000E+00
    0.62557E-06        -0.34468E-07         0.00000E+00
    0.65329E-06        -0.92889E-07         0.00000E+00
    0.69663E-06        -0.13184E-06         0.00000E+00
    0.74431E-06        -0.15274E-06         0.00000E+00
    0.78895E-06        -0.16050E-06         0.00000E+00
    0.82772E-06        -0.16025E-06         0.00000E+00
    0.86064E-06        -0.15557E-06         0.00000E+00
    0.88889E-06        -0.14846E-06         0.00000E+00
    0.91387E-06        -0.13988E-06         0.00000E+00
    0.93692E-06        -0.13006E-06         0.00000E+00
    0.95919E-06        -0.11855E-06         0.00000E+00
    0.98129E-06        -0.10407E-06         0.00000E+00
    0.10027E-05        -0.84541E-07         0.00000E+00
    0.10208E-05        -0.57418E-07         0.00000E+00
    0.10307E-05        -0.21040E-07         0.00000E+00
    0.60942E-06        -0.41077E-07         0.00000E+00
    0.65549E-06        -0.10731E-06         0.00000E+00
    0.71884E-06        -0.14466E-06         0.00000E+00
    0.78091E-06        -0.15851E-06         0.00000E+00
    0.83287E-06        -0.15920E-06         0.00000E+00
    0.87420E-06        -0.15409E-06         0.00000E+00
    0.90731E-06        -0.14658E-06         0.00000E+00
    0.93464E-06        -0.13830E-06         0.00000E+00
    0.95837E-06        -0.12991E-06         0.00000E+00
    0.98042E-06        -0.12150E-06         0.00000E+00
    0.10026E-05        -0.11260E-06         0.00000E+00
    0.10266E-05        -0.10195E-06         0.00000E+00
    0.10530E-05        -0.86576E-07         0.00000E+00
    0.10798E-05        -0.61923E-07         0.00000E+00
    0.11001E-05        -0.23510E-07         0.00000E+00
    0.57617E-06        -0.50237E-07         0.00000E+00
    0.65447E-06        -0.12412E-06         0.00000E+00
    0.74828E-06        -0.15042E-06         0.00000E+00
    0.82531E-06        -0.15059E-06         0.00000E+00
    0.88106E-06        -0.14332E-06         0.00000E+00
    0.92232E-06        -0.13404E-06         0.00000E+00
    0.95370E-06        -0.12479E-06         0.00000E+00
    0.97870E-06        -0.11633E-06         0.00000E+00
    0.10000E-05        -0.10887E-06         0.00000E+00
    0.10199E-05        -0.10238E-06         0.00000E+00
    0.10407E-05        -0.96542E-07         0.00000E+00
    0.10649E-05        -0.90548E-07         0.00000E+00
    0.10962E-05        -0.82223E-07         0.00000E+00
    0.11351E-05        -0.64016E-07         0.00000E+00
    0.11736E-05        -0.25658E-07         0.00000E+00
    0.51599E-06        -0.69497E-07         0.00000E+00
    0.66182E-06        -0.13167E-06         0.00000E+00
    0.79402E-06        -0.12748E-06         0.00000E+00
    0.87463E-06        -0.11624E-06         0.00000E+00
    0.92947E-06        -0.10491E-06         0.00000E+00
    0.96788E-06        -0.94965E-07         0.00000E+00
    0.99603E-06        -0.86632E-07         0.00000E+00
    0.10178E-05        -0.79813E-07         0.00000E+00
    0.10361E-05        -0.74372E-07         0.00000E+00
    0.10532E-05        -0.70190E-07         0.00000E+00
    0.10716E-05        -0.67153E-07         0.00000E+00
    0.10943E-05        -0.65049E-07         0.00000E+00
    0.11261E-05        -0.63204E-07         0.00000E+00
    0.11792E-05        -0.58439E-07         0.00000E+00
    0.12488E-05        -0.26914E-07         0.00000E+00
    0.43257E-06        -0.16056E-07         0.00000E+00
    0.70987E-06        -0.40485E-07         0.00000E+00
    0.83729E-06        -0.37884E-07         0.00000E+00
    0.91630E-06        -0.34943E-07         0.00000E+00
    0.96747E-06        -0.31716E-07         0.00000E+00
    0.10025E-05        -0.28914E-07         0.00000E+00
    0.10275E-05        -0.26571E-07         0.00000E+00
    0.10464E-05        -0.24680E-07         0.00000E+00
    0.10620E-05        -0.23220E-07         0.00000E+00
    0.10767E-05        -0.22185E-07         0.00000E+00
    0.10929E-05        -0.21593E-07         0.00000E+00
    0.11135E-05        -0.21500E-07         0.00000E+00
    0.11441E-05        -0.21843E-07         0.00000E+00
    0.11945E-05        -0.23434E-07         0.00000E+00
    0.13175E-05        -0.12614E-07         0.00000E+00
POINT_DATA        496
VECTORS vDarcyNodal double 
    0.11496E-05         0.37322E-07         0.00000E+00
    0.11454E-05         0.62469E-07         0.00000E+00
    0.11389E-05         0.98359E-07         0.00000E+00
    0.11356E-05         0.11570E-06         0.00000E+00
    0.11339E-05         0.12595E-06         0.00000E+00
    0.11330E-05         0.13106E-06         0.00000E+00
    0.11324E-05         0.13221E-06         0.00000E+00
    0.11321E-05         0.13007E-06         0.00000E+00
    0.11319E-05         0.12510E-06         0.00000E+00
    0.11317E-05         0.11761E-06         0.00000E+00
    0.11315E-05         0.10778E-06         0.00000E+00
    0.11312E-05         0.95676E-07         0.00000E+00
    0.11306E-05         0.81158E-07         0.00000E+00
    0.11292E-05         0.63922E-07         0.00000E+00
    0.11266E-05         0.38457E-07         0.00000E+00
    0.11249E-05         0.22325E-07         0.00000E+00
    0.11366E-05         0.19211E-07         0.00000E+00
    0.11286E-05         0.36925E-07         0.00000E+00
    0.11168E-05         0.67915E-07         0.00000E+00
    0.11110E-05         0.89418E-07         0.00000E+00
    0.11078E-05         0.10266E-06         0.00000E+00
    0.11059E-05         0.11021E-06         0.00000E+00
    0.11048E-05         0.11330E-06         0.00000E+00
    0.11042E-05         0.11270E-06         0.00000E+00
    0.11038E-05         0.10891E-06         0.00000E+00
    0.11034E-05         0.10227E-06         0.00000E+00
    0.11031E-05         0.92941E-07         0.00000E+00
    0.11024E-05         0.80931E-07         0.00000E+00
    0.11013E-05         0.66019E-07         0.00000E+00
    0.10990E-05         0.47142E-07         0.00000E+00
    0.10941E-05         0.24344E-07         0.00000E+00
    0.10908E-05         0.12199E-07         0.00000E+00
    0.11006E-05         0.12955E-07         0.00000E+00
    0.10892E-05         0.25414E-07         0.00000E+00
    0.10716E-05         0.48953E-07         0.00000E+00
    0.10616E-05         0.68300E-07         0.00000E+00
    0.10558E-05         0.82011E-07         0.00000E+00
    0.10522E-05         0.90552E-07         0.00000E+00
    0.10501E-05         0.94754E-07         0.00000E+00
    0.10488E-05         0.95241E-07         0.00000E+00
    0.10479E-05         0.92469E-07         0.00000E+00
    0.10472E-05         0.86747E-07         0.00000E+00
    0.10464E-05         0.78253E-07         0.00000E+00
    0.10451E-05         0.67047E-07         0.00000E+00
    0.10430E-05         0.53042E-07         0.00000E+00
    0.10392E-05         0.36433E-07         0.00000E+00
    0.10322E-05         0.18402E-07         0.00000E+00
    0.10276E-05         0.92545E-08         0.00000E+00
    0.10508E-05         0.98439E-08         0.00000E+00
    0.10406E-05         0.19258E-07         0.00000E+00
    0.10234E-05         0.37454E-07         0.00000E+00
    0.10116E-05         0.53406E-07         0.00000E+00
    0.10040E-05         0.65733E-07         0.00000E+00
    0.99922E-06         0.74059E-07         0.00000E+00
    0.99618E-06         0.78595E-07         0.00000E+00
    0.99425E-06         0.79702E-07         0.00000E+00
    0.99294E-06         0.77715E-07         0.00000E+00
    0.99185E-06         0.72901E-07         0.00000E+00
    0.99063E-06         0.65459E-07         0.00000E+00
    0.98889E-06         0.55548E-07         0.00000E+00
    0.98614E-06         0.43401E-07         0.00000E+00
    0.98178E-06         0.29542E-07         0.00000E+00
    0.97541E-06         0.14903E-07         0.00000E+00
    0.97171E-06         0.75326E-08         0.00000E+00
    0.99556E-06         0.80245E-08         0.00000E+00
    0.98704E-06         0.15504E-07         0.00000E+00
    0.97187E-06         0.29957E-07         0.00000E+00
    0.96041E-06         0.42828E-07         0.00000E+00
    0.95235E-06         0.53190E-07         0.00000E+00
    0.94693E-06         0.60556E-07         0.00000E+00
    0.94338E-06         0.64840E-07         0.00000E+00
    0.94107E-06         0.66171E-07         0.00000E+00
    0.93948E-06         0.64753E-07         0.00000E+00
    0.93817E-06         0.60797E-07         0.00000E+00
    0.93674E-06         0.54512E-07         0.00000E+00
    0.93480E-06         0.46129E-07         0.00000E+00
    0.93196E-06         0.35978E-07         0.00000E+00
    0.92794E-06         0.24551E-07         0.00000E+00
    0.92273E-06         0.12489E-07         0.00000E+00
    0.91985E-06         0.63860E-08         0.00000E+00
    0.93840E-06         0.67986E-08         0.00000E+00
    0.93145E-06         0.12931E-07         0.00000E+00
    0.91873E-06         0.24640E-07         0.00000E+00
    0.90854E-06         0.34955E-07         0.00000E+00
    0.90095E-06         0.43358E-07         0.00000E+00
    0.89562E-06         0.49486E-07         0.00000E+00
    0.89205E-06         0.53185E-07         0.00000E+00
    0.88970E-06         0.54466E-07         0.00000E+00
    0.88810E-06         0.53437E-07         0.00000E+00
    0.88680E-06         0.50254E-07         0.00000E+00
    0.88543E-06         0.45108E-07         0.00000E+00
    0.88362E-06         0.38234E-07         0.00000E+00
    0.88112E-06         0.29932E-07         0.00000E+00
    0.87777E-06         0.20582E-07         0.00000E+00
    0.87369E-06         0.10586E-07         0.00000E+00
    0.87151E-06         0.54774E-08         0.00000E+00
    0.88163E-06         0.58405E-08         0.00000E+00
    0.87604E-06         0.10933E-07         0.00000E+00
    0.86567E-06         0.20485E-07         0.00000E+00
    0.85711E-06         0.28679E-07         0.00000E+00
    0.85056E-06         0.35309E-07         0.00000E+00
    0.84587E-06         0.40173E-07         0.00000E+00
    0.84273E-06         0.43155E-07         0.00000E+00
    0.84070E-06         0.44233E-07         0.00000E+00
    0.83938E-06         0.43461E-07         0.00000E+00
    0.83838E-06         0.40951E-07         0.00000E+00
    0.83732E-06         0.36855E-07         0.00000E+00
    0.83593E-06         0.31366E-07         0.00000E+00
    0.83398E-06         0.24716E-07         0.00000E+00
    0.83141E-06         0.17160E-07         0.00000E+00
    0.82833E-06         0.89311E-08         0.00000E+00
    0.82669E-06         0.46748E-08         0.00000E+00
    0.82695E-06         0.49757E-08         0.00000E+00
    0.82250E-06         0.91715E-08         0.00000E+00
    0.81421E-06         0.16880E-07         0.00000E+00
    0.80736E-06         0.23257E-07         0.00000E+00
    0.80212E-06         0.28312E-07         0.00000E+00
    0.79843E-06         0.31989E-07         0.00000E+00
    0.79606E-06         0.34238E-07         0.00000E+00
    0.79467E-06         0.35048E-07         0.00000E+00
    0.79392E-06         0.34451E-07         0.00000E+00
    0.79346E-06         0.32523E-07         0.00000E+00
    0.79295E-06         0.29372E-07         0.00000E+00
    0.79216E-06         0.25134E-07         0.00000E+00
    0.79090E-06         0.19963E-07         0.00000E+00
    0.78911E-06         0.14008E-07         0.00000E+00
    0.78687E-06         0.73800E-08         0.00000E+00
    0.78566E-06         0.39076E-08         0.00000E+00
    0.77569E-06         0.41041E-08         0.00000E+00
    0.77215E-06         0.74469E-08         0.00000E+00
    0.76564E-06         0.13447E-07         0.00000E+00
    0.76041E-06         0.18189E-07         0.00000E+00
    0.75659E-06         0.21826E-07         0.00000E+00
    0.75410E-06         0.24413E-07         0.00000E+00
    0.75275E-06         0.25965E-07         0.00000E+00
    0.75225E-06         0.26495E-07         0.00000E+00
    0.75230E-06         0.26030E-07         0.00000E+00
    0.75258E-06         0.24618E-07         0.00000E+00
    0.75281E-06         0.22325E-07         0.00000E+00
    0.75274E-06         0.19232E-07         0.00000E+00
    0.75223E-06         0.15420E-07         0.00000E+00
    0.75119E-06         0.10951E-07         0.00000E+00
    0.74965E-06         0.58472E-08         0.00000E+00
    0.74878E-06         0.31356E-08         0.00000E+00
    0.72887E-06         0.31674E-08         0.00000E+00
    0.72606E-06         0.56392E-08         0.00000E+00
    0.72102E-06         0.99470E-08         0.00000E+00
    0.71728E-06         0.13140E-07         0.00000E+00
    0.71487E-06         0.15461E-07         0.00000E+00
    0.71367E-06         0.17041E-07         0.00000E+00
    0.71348E-06         0.17946E-07         0.00000E+00
    0.71405E-06         0.18211E-07         0.00000E+00
    0.71507E-06         0.17864E-07         0.00000E+00
    0.71626E-06         0.16931E-07         0.00000E+00
    0.71734E-06         0.15442E-07         0.00000E+00
    0.71809E-06         0.13427E-07         0.00000E+00
    0.71834E-06         0.10905E-07         0.00000E+00
    0.71800E-06         0.78708E-08         0.00000E+00
    0.71705E-06         0.42786E-08         0.00000E+00
    0.71644E-06         0.23341E-08         0.00000E+00
    0.68733E-06         0.21343E-08         0.00000E+00
    0.68506E-06         0.36790E-08         0.00000E+00
    0.68120E-06         0.62318E-08         0.00000E+00
    0.67879E-06         0.78902E-08         0.00000E+00
    0.67772E-06         0.89452E-08         0.00000E+00
    0.67783E-06         0.95730E-08         0.00000E+00
    0.67890E-06         0.98736E-08         0.00000E+00
    0.68063E-06         0.98997E-08         0.00000E+00
    0.68275E-06         0.96762E-08         0.00000E+00
    0.68496E-06         0.92123E-08         0.00000E+00
    0.68698E-06         0.85058E-08         0.00000E+00
    0.68859E-06         0.75422E-08         0.00000E+00
    0.68961E-06         0.62893E-08         0.00000E+00
    0.68991E-06         0.46875E-08         0.00000E+00
    0.68945E-06         0.26389E-08         0.00000E+00
    0.68904E-06         0.14879E-08         0.00000E+00
    0.65163E-06         0.99027E-09         0.00000E+00
    0.64976E-06         0.15299E-08         0.00000E+00
    0.64683E-06         0.22157E-08         0.00000E+00
    0.64557E-06         0.23004E-08         0.00000E+00
    0.64576E-06         0.20934E-08         0.00000E+00
    0.64717E-06         0.17942E-08         0.00000E+00
    0.64952E-06         0.15208E-08         0.00000E+00
    0.65249E-06         0.13335E-08         0.00000E+00
    0.65578E-06         0.12522E-08         0.00000E+00
    0.65908E-06         0.12683E-08         0.00000E+00
    0.66210E-06         0.13506E-08         0.00000E+00
    0.66460E-06         0.14466E-08         0.00000E+00
    0.66637E-06         0.14802E-08         0.00000E+00
    0.66728E-06         0.13465E-08         0.00000E+00
    0.66722E-06         0.90526E-09         0.00000E+00
    0.66696E-06         0.58784E-09         0.00000E+00
    0.62214E-06        -0.26860E-09         0.00000E+00
    0.62054E-06        -0.82406E-09         0.00000E+00
    0.61834E-06        -0.21481E-08         0.00000E+00
    0.61807E-06        -0.37151E-08         0.00000E+00
    0.61943E-06        -0.52160E-08         0.00000E+00
    0.62211E-06        -0.64444E-08         0.00000E+00
    0.62576E-06        -0.72773E-08         0.00000E+00
    0.63002E-06        -0.76555E-08         0.00000E+00
    0.63454E-06        -0.75692E-08         0.00000E+00
    0.63898E-06        -0.70464E-08         0.00000E+00
    0.64304E-06        -0.61458E-08         0.00000E+00
    0.64644E-06        -0.49545E-08         0.00000E+00
    0.64896E-06        -0.35871E-08         0.00000E+00
    0.65042E-06        -0.21887E-08         0.00000E+00
    0.65069E-06        -0.93653E-09         0.00000E+00
    0.65053E-06        -0.37131E-09         0.00000E+00
    0.59900E-06        -0.16410E-08         0.00000E+00
    0.59759E-06        -0.33876E-08         0.00000E+00
    0.59594E-06        -0.68834E-08         0.00000E+00
    0.59655E-06        -0.10208E-07         0.00000E+00
    0.59903E-06        -0.13063E-07         0.00000E+00
    0.60296E-06        -0.15245E-07         0.00000E+00
    0.60792E-06        -0.16637E-07         0.00000E+00
    0.61350E-06        -0.17188E-07         0.00000E+00
    0.61929E-06        -0.16905E-07         0.00000E+00
    0.62493E-06        -0.15837E-07         0.00000E+00
    0.63006E-06        -0.14071E-07         0.00000E+00
    0.63438E-06        -0.11728E-07         0.00000E+00
    0.63763E-06        -0.89573E-08         0.00000E+00
    0.63960E-06        -0.59420E-08         0.00000E+00
    0.64013E-06        -0.28950E-08         0.00000E+00
    0.64004E-06        -0.13921E-08         0.00000E+00
    0.58219E-06        -0.31244E-08         0.00000E+00
    0.58089E-06        -0.61620E-08         0.00000E+00
    0.57967E-06        -0.12004E-07         0.00000E+00
    0.58109E-06        -0.17214E-07         0.00000E+00
    0.58465E-06        -0.21502E-07         0.00000E+00
    0.58984E-06        -0.24679E-07         0.00000E+00
    0.59615E-06        -0.26639E-07         0.00000E+00
    0.60310E-06        -0.27350E-07         0.00000E+00
    0.61023E-06        -0.26837E-07         0.00000E+00
    0.61711E-06        -0.25177E-07         0.00000E+00
    0.62335E-06        -0.22487E-07         0.00000E+00
    0.62861E-06        -0.18920E-07         0.00000E+00
    0.63259E-06        -0.14661E-07         0.00000E+00
    0.63504E-06        -0.99288E-08         0.00000E+00
    0.63577E-06        -0.49750E-08         0.00000E+00
    0.63571E-06        -0.24757E-08         0.00000E+00
    0.57145E-06        -0.47183E-08         0.00000E+00
    0.57022E-06        -0.91501E-08         0.00000E+00
    0.56938E-06        -0.17525E-07         0.00000E+00
    0.57160E-06        -0.24759E-07         0.00000E+00
    0.57627E-06        -0.30576E-07         0.00000E+00
    0.58277E-06        -0.34799E-07         0.00000E+00
    0.59051E-06        -0.37342E-07         0.00000E+00
    0.59891E-06        -0.38197E-07         0.00000E+00
    0.60745E-06        -0.37419E-07         0.00000E+00
    0.61564E-06        -0.35115E-07         0.00000E+00
    0.62304E-06        -0.31434E-07         0.00000E+00
    0.62927E-06        -0.26560E-07         0.00000E+00
    0.63398E-06        -0.20717E-07         0.00000E+00
    0.63689E-06        -0.14159E-07         0.00000E+00
    0.63776E-06        -0.71798E-08         0.00000E+00
    0.63770E-06        -0.36227E-08         0.00000E+00
    0.56638E-06        -0.64259E-08         0.00000E+00
    0.56522E-06        -0.12361E-07         0.00000E+00
    0.56476E-06        -0.23466E-07         0.00000E+00
    0.56784E-06        -0.32877E-07         0.00000E+00
    0.57371E-06        -0.40323E-07         0.00000E+00
    0.58164E-06        -0.45645E-07         0.00000E+00
    0.59091E-06        -0.48783E-07         0.00000E+00
    0.60087E-06        -0.49765E-07         0.00000E+00
    0.61092E-06        -0.48681E-07         0.00000E+00
    0.62052E-06        -0.45675E-07         0.00000E+00
    0.62916E-06        -0.40930E-07         0.00000E+00
    0.63641E-06        -0.34665E-07         0.00000E+00
    0.64188E-06        -0.27137E-07         0.00000E+00
    0.64524E-06        -0.18641E-07         0.00000E+00
    0.64622E-06        -0.95121E-08         0.00000E+00
    0.64611E-06        -0.48337E-08         0.00000E+00
    0.56640E-06        -0.82560E-08         0.00000E+00
    0.56532E-06        -0.15812E-07         0.00000E+00
    0.56535E-06        -0.29859E-07         0.00000E+00
    0.56943E-06        -0.41604E-07         0.00000E+00
    0.57668E-06        -0.50778E-07         0.00000E+00
    0.58620E-06        -0.57242E-07         0.00000E+00
    0.59719E-06        -0.60977E-07         0.00000E+00
    0.60887E-06        -0.62056E-07         0.00000E+00
    0.62057E-06        -0.60619E-07         0.00000E+00
    0.63167E-06        -0.56851E-07         0.00000E+00
    0.64165E-06        -0.50973E-07         0.00000E+00
    0.65000E-06        -0.43236E-07         0.00000E+00
    0.65628E-06        -0.33927E-07         0.00000E+00
    0.66010E-06        -0.23379E-07         0.00000E+00
    0.66115E-06        -0.11975E-07         0.00000E+00
    0.66097E-06        -0.61107E-08         0.00000E+00
    0.57076E-06        -0.10223E-07         0.00000E+00
    0.56984E-06        -0.19530E-07         0.00000E+00
    0.57054E-06        -0.36745E-07         0.00000E+00
    0.57587E-06        -0.50983E-07         0.00000E+00
    0.58477E-06        -0.61969E-07         0.00000E+00
    0.59617E-06        -0.69597E-07         0.00000E+00
    0.60909E-06        -0.73906E-07         0.00000E+00
    0.62269E-06        -0.75034E-07         0.00000E+00
    0.63619E-06        -0.73185E-07         0.00000E+00
    0.64895E-06        -0.68596E-07         0.00000E+00
    0.66037E-06        -0.61526E-07         0.00000E+00
    0.66992E-06        -0.52250E-07         0.00000E+00
    0.67709E-06        -0.41080E-07         0.00000E+00
    0.68143E-06        -0.28377E-07         0.00000E+00
    0.68253E-06        -0.14574E-07         0.00000E+00
    0.68227E-06        -0.74567E-08         0.00000E+00
    0.57856E-06        -0.12350E-07         0.00000E+00
    0.57793E-06        -0.23551E-07         0.00000E+00
    0.57961E-06        -0.44179E-07         0.00000E+00
    0.58659E-06        -0.61058E-07         0.00000E+00
    0.59753E-06        -0.73909E-07         0.00000E+00
    0.61115E-06        -0.82680E-07         0.00000E+00
    0.62631E-06        -0.87496E-07         0.00000E+00
    0.64205E-06        -0.88592E-07         0.00000E+00
    0.65753E-06        -0.86260E-07         0.00000E+00
    0.67208E-06        -0.80798E-07         0.00000E+00
    0.68508E-06        -0.72499E-07         0.00000E+00
    0.69595E-06        -0.61653E-07         0.00000E+00
    0.70413E-06        -0.48572E-07         0.00000E+00
    0.70908E-06        -0.33634E-07         0.00000E+00
    0.71027E-06        -0.17316E-07         0.00000E+00
    0.70991E-06        -0.88773E-08         0.00000E+00
    0.58872E-06        -0.14663E-07         0.00000E+00
    0.58860E-06        -0.27923E-07         0.00000E+00
    0.59175E-06        -0.52223E-07         0.00000E+00
    0.60093E-06        -0.71865E-07         0.00000E+00
    0.61445E-06        -0.86576E-07         0.00000E+00
    0.63076E-06        -0.96393E-07         0.00000E+00
    0.64851E-06        -0.10158E-06         0.00000E+00
    0.66662E-06        -0.10252E-06         0.00000E+00
    0.68424E-06        -0.99613E-07         0.00000E+00
    0.70070E-06        -0.93243E-07         0.00000E+00
    0.71540E-06        -0.83724E-07         0.00000E+00
    0.72775E-06        -0.71332E-07         0.00000E+00
    0.73711E-06        -0.56352E-07         0.00000E+00
    0.74282E-06        -0.39143E-07         0.00000E+00
    0.74421E-06        -0.20207E-07         0.00000E+00
    0.74377E-06        -0.10381E-07         0.00000E+00
    0.60002E-06        -0.17203E-07         0.00000E+00
    0.60072E-06        -0.32707E-07         0.00000E+00
    0.60605E-06        -0.60950E-07         0.00000E+00
    0.61823E-06        -0.83422E-07         0.00000E+00
    0.63507E-06        -0.99883E-07         0.00000E+00
    0.65463E-06        -0.11053E-06         0.00000E+00
    0.67533E-06        -0.11584E-06         0.00000E+00
    0.69602E-06        -0.11642E-06         0.00000E+00
    0.71589E-06        -0.11284E-06         0.00000E+00
    0.73434E-06        -0.10556E-06         0.00000E+00
    0.75083E-06        -0.94904E-07         0.00000E+00
    0.76480E-06        -0.81092E-07         0.00000E+00
    0.77558E-06        -0.64324E-07         0.00000E+00
    0.78233E-06        -0.44884E-07         0.00000E+00
    0.78413E-06        -0.23260E-07         0.00000E+00
    0.78370E-06        -0.11979E-07         0.00000E+00
    0.61099E-06        -0.20022E-07         0.00000E+00
    0.61301E-06        -0.37982E-07         0.00000E+00
    0.62158E-06        -0.70438E-07         0.00000E+00
    0.63788E-06        -0.95707E-07         0.00000E+00
    0.65899E-06        -0.11364E-06         0.00000E+00
    0.68245E-06        -0.12471E-06         0.00000E+00
    0.70646E-06        -0.12975E-06         0.00000E+00
    0.72986E-06        -0.12969E-06         0.00000E+00
    0.75196E-06        -0.12531E-06         0.00000E+00
    0.77234E-06        -0.11716E-06         0.00000E+00
    0.79064E-06        -0.10556E-06         0.00000E+00
    0.80640E-06        -0.90609E-07         0.00000E+00
    0.81890E-06        -0.72320E-07         0.00000E+00
    0.82710E-06        -0.50813E-07         0.00000E+00
    0.82973E-06        -0.26485E-07         0.00000E+00
    0.82951E-06        -0.13691E-07         0.00000E+00
    0.61992E-06        -0.23197E-07         0.00000E+00
    0.62399E-06        -0.43859E-07         0.00000E+00
    0.63738E-06        -0.80774E-07         0.00000E+00
    0.65939E-06        -0.10862E-06         0.00000E+00
    0.68599E-06        -0.12746E-06         0.00000E+00
    0.71407E-06        -0.13826E-06         0.00000E+00
    0.74164E-06        -0.14243E-06         0.00000E+00
    0.76767E-06        -0.14132E-06         0.00000E+00
    0.79178E-06        -0.13601E-06         0.00000E+00
    0.81387E-06        -0.12715E-06         0.00000E+00
    0.83387E-06        -0.11497E-06         0.00000E+00
    0.85153E-06        -0.99367E-07         0.00000E+00
    0.86615E-06        -0.80061E-07         0.00000E+00
    0.87645E-06        -0.56845E-07         0.00000E+00
    0.88066E-06        -0.29893E-07         0.00000E+00
    0.88101E-06        -0.15539E-07         0.00000E+00
    0.62473E-06        -0.26845E-07         0.00000E+00
    0.63199E-06        -0.50493E-07         0.00000E+00
    0.65261E-06        -0.92036E-07         0.00000E+00
    0.68257E-06        -0.12190E-06         0.00000E+00
    0.71617E-06        -0.14064E-06         0.00000E+00
    0.74952E-06        -0.15009E-06         0.00000E+00
    0.78065E-06        -0.15252E-06         0.00000E+00
    0.80895E-06        -0.14988E-06         0.00000E+00
    0.83454E-06        -0.14355E-06         0.00000E+00
    0.85785E-06        -0.13423E-06         0.00000E+00
    0.87925E-06        -0.12203E-06         0.00000E+00
    0.89882E-06        -0.10656E-06         0.00000E+00
    0.91602E-06        -0.87077E-07         0.00000E+00
    0.92939E-06        -0.62818E-07         0.00000E+00
    0.93642E-06        -0.33481E-07         0.00000E+00
    0.93800E-06        -0.17552E-07         0.00000E+00
    0.62273E-06        -0.31152E-07         0.00000E+00
    0.63507E-06        -0.58110E-07         0.00000E+00
    0.66673E-06        -0.10425E-06         0.00000E+00
    0.70781E-06        -0.13496E-06         0.00000E+00
    0.75009E-06        -0.15185E-06         0.00000E+00
    0.78902E-06        -0.15837E-06         0.00000E+00
    0.82322E-06        -0.15800E-06         0.00000E+00
    0.85298E-06        -0.15336E-06         0.00000E+00
    0.87920E-06        -0.14601E-06         0.00000E+00
    0.90294E-06        -0.13664E-06         0.00000E+00
    0.92514E-06        -0.12520E-06         0.00000E+00
    0.94641E-06        -0.11096E-06         0.00000E+00
    0.96666E-06        -0.92576E-07         0.00000E+00
    0.98441E-06        -0.68399E-07         0.00000E+00
    0.99632E-06        -0.37206E-07         0.00000E+00
    0.10003E-05        -0.19759E-07         0.00000E+00
    0.61023E-06        -0.36426E-07         0.00000E+00
    0.63108E-06        -0.67021E-07         0.00000E+00
    0.68008E-06        -0.11719E-06         0.00000E+00
    0.73664E-06        -0.14634E-06         0.00000E+00
    0.78880E-06        -0.15860E-06         0.00000E+00
    0.83262E-06        -0.16015E-06         0.00000E+00
    0.86869E-06        -0.15603E-06         0.00000E+00
    0.89867E-06        -0.14919E-06         0.00000E+00
    0.92438E-06        -0.14105E-06         0.00000E+00
    0.94752E-06        -0.13216E-06         0.00000E+00
    0.96961E-06        -0.12236E-06         0.00000E+00
    0.99199E-06        -0.11068E-06         0.00000E+00
    0.10155E-05        -0.95174E-07         0.00000E+00
    0.10393E-05        -0.72897E-07         0.00000E+00
    0.10593E-05        -0.40902E-07         0.00000E+00
    0.10675E-05        -0.22152E-07         0.00000E+00
    0.58172E-06        -0.43199E-07         0.00000E+00
    0.61772E-06        -0.77493E-07         0.00000E+00
    0.69577E-06        -0.12968E-06         0.00000E+00
    0.77212E-06        -0.15250E-06         0.00000E+00
    0.83284E-06        -0.15599E-06         0.00000E+00
    0.87948E-06        -0.15091E-06         0.00000E+00
    0.91556E-06        -0.14299E-06         0.00000E+00
    0.94428E-06        -0.13441E-06         0.00000E+00
    0.96827E-06        -0.12609E-06         0.00000E+00
    0.98971E-06        -0.11829E-06         0.00000E+00
    0.10106E-05        -0.11081E-06         0.00000E+00
    0.10330E-05        -0.10290E-06         0.00000E+00
    0.10591E-05        -0.92377E-07         0.00000E+00
    0.10903E-05        -0.74764E-07         0.00000E+00
    0.11233E-05        -0.44058E-07         0.00000E+00
    0.11391E-05        -0.24641E-07         0.00000E+00
    0.52430E-06        -0.51620E-07         0.00000E+00
    0.59876E-06        -0.89184E-07         0.00000E+00
    0.72270E-06        -0.13685E-06         0.00000E+00
    0.81520E-06        -0.14363E-06         0.00000E+00
    0.88016E-06        -0.13520E-06         0.00000E+00
    0.92658E-06        -0.12485E-06         0.00000E+00
    0.96073E-06        -0.11488E-06         0.00000E+00
    0.98693E-06        -0.10611E-06         0.00000E+00
    0.10083E-05        -0.98705E-07         0.00000E+00
    0.10272E-05        -0.92623E-07         0.00000E+00
    0.10461E-05        -0.87732E-07         0.00000E+00
    0.10673E-05        -0.83671E-07         0.00000E+00
    0.10942E-05        -0.79597E-07         0.00000E+00
    0.11317E-05        -0.70519E-07         0.00000E+00
    0.11839E-05        -0.45000E-07         0.00000E+00
    0.12133E-05        -0.26374E-07         0.00000E+00
    0.46729E-06        -0.65817E-07         0.00000E+00
    0.58627E-06        -0.93471E-07         0.00000E+00
    0.75642E-06        -0.11246E-06         0.00000E+00
    0.85687E-06        -0.97482E-07         0.00000E+00
    0.92221E-06        -0.85666E-07         0.00000E+00
    0.96660E-06        -0.75806E-07         0.00000E+00
    0.99809E-06        -0.67975E-07         0.00000E+00
    0.10215E-05        -0.61786E-07         0.00000E+00
    0.10402E-05        -0.56980E-07         0.00000E+00
    0.10567E-05        -0.53388E-07         0.00000E+00
    0.10733E-05        -0.50931E-07         0.00000E+00
    0.10929E-05        -0.49615E-07         0.00000E+00
    0.11192E-05        -0.49349E-07         0.00000E+00
    0.11596E-05        -0.50842E-07         0.00000E+00
    0.12316E-05        -0.39646E-07         0.00000E+00
    0.12778E-05        -0.27057E-07         0.00000E+00
    0.44863E-06         0.00000E+00         0.00000E+00
    0.58344E-06         0.00000E+00         0.00000E+00
    0.77228E-06        -0.24966E-20         0.00000E+00
    0.87532E-06         0.43040E-21         0.00000E+00
    0.94027E-06         0.25594E-20         0.00000E+00
    0.98357E-06         0.00000E+00         0.00000E+00
    0.10138E-05         0.00000E+00         0.00000E+00
    0.10360E-05        -0.30437E-20         0.00000E+00
    0.10535E-05        -0.29113E-20         0.00000E+00
    0.10689E-05         0.31226E-20         0.00000E+00
    0.10845E-05         0.30482E-20         0.00000E+00
    0.11032E-05        -0.33299E-20         0.00000E+00
    0.11290E-05         0.11954E-21         0.00000E+00
    0.11701E-05         0.33038E-20         0.00000E+00
    0.12506E-05         0.19291E-21         0.00000E+00
    0.13049E-05         0.00000E+00         0.00000E+00
CELL_DATA        450
TENSORS stressef double 
    0.23981E+08        -0.20749E+06         0.00000E+00
   -0.20749E+06         0.11660E+08         0.00000E+00
    0.00000E+00         0.00000E+00         0.71283E+07
 
    0.21353E+08        -0.24269E+06         0.00000E+00
   -0.24269E+06         0.11329E+08         0.00000E+00
    0.00000E+00         0.00000E+00         0.65364E+07
 
    0.19494E+08        -0.22378E+06         0.00000E+00
   -0.22378E+06         0.10988E+08         0.00000E+00
    0.00000E+00         0.00000E+00         0.60963E+07
 
    0.18004E+08        -0.19987E+06         0.00000E+00
   -0.19987E+06         0.10698E+08         0.00000E+00
    0.00000E+00         0.00000E+00         0.57403E+07
 
    0.16739E+08        -0.17313E+06         0.00000E+00
   -0.17313E+06         0.10468E+08         0.00000E+00
    0.00000E+00         0.00000E+00         0.54416E+07
 
    0.15619E+08        -0.14489E+06         0.00000E+00
   -0.14489E+06         0.10301E+08         0.00000E+00
    0.00000E+00         0.00000E+00         0.51841E+07
 
    0.14592E+08        -0.11523E+06         0.00000E+00
   -0.11523E+06         0.10194E+08         0.00000E+00
    0.00000E+00         0.00000E+00         0.49574E+07
 
    0.13620E+08        -0.83731E+05         0.00000E+00
   -0.83731E+05         0.10148E+08         0.00000E+00
    0.00000E+00         0.00000E+00         0.47536E+07
 
    0.12669E+08        -0.49593E+05         0.00000E+00
   -0.49593E+05         0.10164E+08         0.00000E+00
    0.00000E+00         0.00000E+00         0.45666E+07
 
    0.11709E+08        -0.11550E+05         0.00000E+00
   -0.11550E+05         0.10244E+08         0.00000E+00
    0.00000E+00         0.00000E+00         0.43906E+07
 
    0.10704E+08         0.32505E+05         0.00000E+00
    0.32505E+05         0.10395E+08         0.00000E+00
    0.00000E+00         0.00000E+00         0.42198E+07
 
    0.96072E+07         0.86415E+05         0.00000E+00
    0.86415E+05         0.10631E+08         0.00000E+00
    0.00000E+00         0.00000E+00         0.40476E+07
 
    0.83478E+07         0.15866E+06         0.00000E+00
    0.15866E+06         0.10974E+08         0.00000E+00
    0.00000E+00         0.00000E+00         0.38644E+07
 
    0.67951E+07         0.26895E+06         0.00000E+00
    0.26895E+06         0.11478E+08         0.00000E+00
    0.00000E+00         0.00000E+00         0.36545E+07
 
    0.45632E+07         0.54724E+06         0.00000E+00
    0.54724E+06         0.12294E+08         0.00000E+00
    0.00000E+00         0.00000E+00         0.33715E+07
 
    0.22383E+08        -0.33194E+06         0.00000E+00
   -0.33194E+06         0.10594E+08         0.00000E+00
    0.00000E+00         0.00000E+00         0.65955E+07
 
    0.20105E+08        -0.57969E+06         0.00000E+00
   -0.57969E+06         0.10497E+08         0.00000E+00
    0.00000E+00         0.00000E+00         0.61204E+07
 
    0.18270E+08        -0.59361E+06         0.00000E+00
   -0.59361E+06         0.10296E+08         0.00000E+00
    0.00000E+00         0.00000E+00         0.57133E+07
 
    0.16774E+08        -0.54872E+06         0.00000E+00
   -0.54872E+06         0.10087E+08         0.00000E+00
    0.00000E+00         0.00000E+00         0.53723E+07
 
    0.15494E+08        -0.48283E+06         0.00000E+00
   -0.48283E+06         0.99080E+07         0.00000E+00
    0.00000E+00         0.00000E+00         0.50803E+07
 
    0.14357E+08        -0.40659E+06         0.00000E+00
   -0.40659E+06         0.97732E+07         0.00000E+00
    0.00000E+00         0.00000E+00         0.48260E+07
 
    0.13314E+08        -0.32301E+06         0.00000E+00
   -0.32301E+06         0.96889E+07         0.00000E+00
    0.00000E+00         0.00000E+00         0.46005E+07
 
    0.12328E+08        -0.23204E+06         0.00000E+00
   -0.23204E+06         0.96584E+07         0.00000E+00
    0.00000E+00         0.00000E+00         0.43972E+07
 
    0.11366E+08        -0.13189E+06         0.00000E+00
   -0.13189E+06         0.96853E+07         0.00000E+00
    0.00000E+00         0.00000E+00         0.42103E+07
 
    0.10399E+08        -0.19038E+05         0.00000E+00
   -0.19038E+05         0.97742E+07         0.00000E+00
    0.00000E+00         0.00000E+00         0.40346E+07
 
    0.93927E+07         0.11271E+06         0.00000E+00
    0.11271E+06         0.99330E+07         0.00000E+00
    0.00000E+00         0.00000E+00         0.38651E+07
 
    0.83060E+07         0.27494E+06         0.00000E+00
    0.27494E+06         0.10175E+08         0.00000E+00
    0.00000E+00         0.00000E+00         0.36962E+07
 
    0.70820E+07         0.49178E+06         0.00000E+00
    0.49178E+06         0.10523E+08         0.00000E+00
    0.00000E+00         0.00000E+00         0.35210E+07
 
    0.56289E+07         0.82480E+06         0.00000E+00
    0.82480E+06         0.11021E+08         0.00000E+00
    0.00000E+00         0.00000E+00         0.33300E+07
 
    0.39335E+07         0.14782E+07         0.00000E+00
    0.14782E+07         0.11731E+08         0.00000E+00
    0.00000E+00         0.00000E+00         0.31328E+07
 
    0.20636E+08        -0.33927E+06         0.00000E+00
   -0.33927E+06         0.94084E+07         0.00000E+00
    0.00000E+00         0.00000E+00         0.60089E+07
 
    0.18735E+08        -0.71011E+06         0.00000E+00
   -0.71011E+06         0.94082E+07         0.00000E+00
    0.00000E+00         0.00000E+00         0.56287E+07
 
    0.17043E+08        -0.81386E+06         0.00000E+00
   -0.81386E+06         0.93501E+07         0.00000E+00
    0.00000E+00         0.00000E+00         0.52786E+07
 
    0.15584E+08        -0.79226E+06         0.00000E+00
   -0.79226E+06         0.92525E+07         0.00000E+00
    0.00000E+00         0.00000E+00         0.49673E+07
 
    0.14310E+08        -0.71540E+06         0.00000E+00
   -0.71540E+06         0.91537E+07         0.00000E+00
    0.00000E+00         0.00000E+00         0.46928E+07
 
    0.13170E+08        -0.60948E+06         0.00000E+00
   -0.60948E+06         0.90764E+07         0.00000E+00
    0.00000E+00         0.00000E+00         0.44492E+07
 
    0.12121E+08        -0.48423E+06         0.00000E+00
   -0.48423E+06         0.90337E+07         0.00000E+00
    0.00000E+00         0.00000E+00         0.42309E+07
 
    0.11130E+08        -0.34212E+06         0.00000E+00
   -0.34212E+06         0.90339E+07         0.00000E+00
    0.00000E+00         0.00000E+00         0.40327E+07
 
    0.10167E+08        -0.18162E+06         0.00000E+00
   -0.18162E+06         0.90839E+07         0.00000E+00
    0.00000E+00         0.00000E+00         0.38501E+07
 
    0.92050E+07         0.22126E+04         0.00000E+00
    0.22126E+04         0.91906E+07         0.00000E+00
    0.00000E+00         0.00000E+00         0.36791E+07
 
    0.82154E+07         0.21890E+06         0.00000E+00
    0.21890E+06         0.93629E+07         0.00000E+00
    0.00000E+00         0.00000E+00         0.35157E+07
 
    0.71669E+07         0.48615E+06         0.00000E+00
    0.48615E+06         0.96133E+07         0.00000E+00
    0.00000E+00         0.00000E+00         0.33560E+07
 
    0.60248E+07         0.83869E+06         0.00000E+00
    0.83869E+06         0.99590E+07         0.00000E+00
    0.00000E+00         0.00000E+00         0.31968E+07
 
    0.47731E+07         0.13507E+07         0.00000E+00
    0.13507E+07         0.10419E+08         0.00000E+00
    0.00000E+00         0.00000E+00         0.30385E+07
 
    0.34669E+07         0.21376E+07         0.00000E+00
    0.21376E+07         0.10968E+08         0.00000E+00
    0.00000E+00         0.00000E+00         0.28869E+07
 
    0.18873E+08        -0.32173E+06         0.00000E+00
   -0.32173E+06         0.82197E+07         0.00000E+00
    0.00000E+00         0.00000E+00         0.54185E+07
 
    0.17286E+08        -0.73275E+06         0.00000E+00
   -0.73275E+06         0.82574E+07         0.00000E+00
    0.00000E+00         0.00000E+00         0.51087E+07
 
    0.15776E+08        -0.90371E+06         0.00000E+00
   -0.90371E+06         0.82805E+07         0.00000E+00
    0.00000E+00         0.00000E+00         0.48114E+07
 
    0.14404E+08        -0.92419E+06         0.00000E+00
   -0.92419E+06         0.82756E+07         0.00000E+00
    0.00000E+00         0.00000E+00         0.45358E+07
 
    0.13167E+08        -0.85839E+06         0.00000E+00
   -0.85839E+06         0.82569E+07         0.00000E+00
    0.00000E+00         0.00000E+00         0.42848E+07
 
    0.12043E+08        -0.74108E+06         0.00000E+00
   -0.74108E+06         0.82434E+07         0.00000E+00
    0.00000E+00         0.00000E+00         0.40572E+07
 
    0.11002E+08        -0.58817E+06         0.00000E+00
   -0.58817E+06         0.82498E+07         0.00000E+00
    0.00000E+00         0.00000E+00         0.38503E+07
 
    0.10018E+08        -0.40547E+06         0.00000E+00
   -0.40547E+06         0.82875E+07         0.00000E+00
    0.00000E+00         0.00000E+00         0.36611E+07
 
    0.90661E+07        -0.19270E+06         0.00000E+00
   -0.19270E+06         0.83657E+07         0.00000E+00
    0.00000E+00         0.00000E+00         0.34864E+07
 
    0.81233E+07         0.55368E+05         0.00000E+00
    0.55368E+05         0.84930E+07         0.00000E+00
    0.00000E+00         0.00000E+00         0.33233E+07
 
    0.71679E+07         0.34980E+06         0.00000E+00
    0.34980E+06         0.86782E+07         0.00000E+00
    0.00000E+00         0.00000E+00         0.31692E+07
 
    0.61803E+07         0.71053E+06         0.00000E+00
    0.71053E+06         0.89304E+07         0.00000E+00
    0.00000E+00         0.00000E+00         0.30222E+07
 
    0.51503E+07         0.11725E+07         0.00000E+00
    0.11725E+07         0.92574E+07         0.00000E+00
    0.00000E+00         0.00000E+00         0.28815E+07
 
    0.40922E+07         0.17892E+07         0.00000E+00
    0.17892E+07         0.96535E+07         0.00000E+00
    0.00000E+00         0.00000E+00         0.27491E+07
 
    0.30677E+07         0.26223E+07         0.00000E+00
    0.26223E+07         0.10084E+08         0.00000E+00
    0.00000E+00         0.00000E+00         0.26303E+07
 
    0.17149E+08        -0.29488E+06         0.00000E+00
   -0.29488E+06         0.70445E+07         0.00000E+00
    0.00000E+00         0.00000E+00         0.48386E+07
 
    0.15814E+08        -0.70452E+06         0.00000E+00
   -0.70452E+06         0.70998E+07         0.00000E+00
    0.00000E+00         0.00000E+00         0.45827E+07
 
    0.14484E+08        -0.91020E+06         0.00000E+00
   -0.91020E+06         0.71667E+07         0.00000E+00
    0.00000E+00         0.00000E+00         0.43301E+07
 
    0.13221E+08        -0.96612E+06         0.00000E+00
   -0.96612E+06         0.72227E+07         0.00000E+00
    0.00000E+00         0.00000E+00         0.40888E+07
 
    0.12048E+08        -0.91968E+06         0.00000E+00
   -0.91968E+06         0.72669E+07         0.00000E+00
    0.00000E+00         0.00000E+00         0.38630E+07
 
    0.10961E+08        -0.80303E+06         0.00000E+00
   -0.80303E+06         0.73091E+07         0.00000E+00
    0.00000E+00         0.00000E+00         0.36540E+07
 
    0.99454E+07        -0.63423E+06         0.00000E+00
   -0.63423E+06         0.73613E+07         0.00000E+00
    0.00000E+00         0.00000E+00         0.34613E+07
 
    0.89832E+07        -0.42138E+06         0.00000E+00
   -0.42138E+06         0.74348E+07         0.00000E+00
    0.00000E+00         0.00000E+00         0.32836E+07
 
    0.80557E+07        -0.16566E+06         0.00000E+00
   -0.16566E+06         0.75396E+07         0.00000E+00
    0.00000E+00         0.00000E+00         0.31191E+07
 
    0.71456E+07         0.13734E+06         0.00000E+00
    0.13734E+06         0.76844E+07         0.00000E+00
    0.00000E+00         0.00000E+00         0.29660E+07
 
    0.62385E+07         0.49800E+06         0.00000E+00
    0.49800E+06         0.78769E+07         0.00000E+00
    0.00000E+00         0.00000E+00         0.28231E+07
 
    0.53257E+07         0.93422E+06         0.00000E+00
    0.93422E+06         0.81223E+07         0.00000E+00
    0.00000E+00         0.00000E+00         0.26896E+07
 
    0.44102E+07         0.14728E+07         0.00000E+00
    0.14728E+07         0.84198E+07         0.00000E+00
    0.00000E+00         0.00000E+00         0.25660E+07
 
    0.35164E+07         0.21478E+07         0.00000E+00
    0.21478E+07         0.87561E+07         0.00000E+00
    0.00000E+00         0.00000E+00         0.24545E+07
 
    0.26980E+07         0.29905E+07         0.00000E+00
    0.29905E+07         0.90983E+07         0.00000E+00
    0.00000E+00         0.00000E+00         0.23593E+07
 
    0.15489E+08        -0.26383E+06         0.00000E+00
   -0.26383E+06         0.58905E+07         0.00000E+00
    0.00000E+00         0.00000E+00         0.42758E+07
 
    0.14356E+08        -0.65063E+06         0.00000E+00
   -0.65063E+06         0.59536E+07         0.00000E+00
    0.00000E+00         0.00000E+00         0.40619E+07
 
    0.13187E+08        -0.86763E+06         0.00000E+00
   -0.86763E+06         0.60431E+07         0.00000E+00
    0.00000E+00         0.00000E+00         0.38461E+07
 
    0.12041E+08        -0.94612E+06         0.00000E+00
   -0.94612E+06         0.61349E+07         0.00000E+00
    0.00000E+00         0.00000E+00         0.36351E+07
 
    0.10947E+08        -0.91758E+06         0.00000E+00
   -0.91758E+06         0.62207E+07         0.00000E+00
    0.00000E+00         0.00000E+00         0.34335E+07
 
    0.99148E+07        -0.80683E+06         0.00000E+00
   -0.80683E+06         0.63033E+07         0.00000E+00
    0.00000E+00         0.00000E+00         0.32436E+07
 
    0.89410E+07        -0.63009E+06         0.00000E+00
   -0.63009E+06         0.63905E+07         0.00000E+00
    0.00000E+00         0.00000E+00         0.30663E+07
 
    0.80152E+07        -0.39586E+06         0.00000E+00
   -0.39586E+06         0.64918E+07         0.00000E+00
    0.00000E+00         0.00000E+00         0.29014E+07
 
    0.71253E+07        -0.10648E+06         0.00000E+00
   -0.10648E+06         0.66162E+07         0.00000E+00
    0.00000E+00         0.00000E+00         0.27483E+07
 
    0.62599E+07         0.24096E+06         0.00000E+00
    0.24096E+06         0.67718E+07         0.00000E+00
    0.00000E+00         0.00000E+00         0.26063E+07
 
    0.54110E+07         0.65442E+06         0.00000E+00
    0.65442E+06         0.69643E+07         0.00000E+00
    0.00000E+00         0.00000E+00         0.24751E+07
 
    0.45769E+07         0.11470E+07         0.00000E+00
    0.11470E+07         0.71958E+07         0.00000E+00
    0.00000E+00         0.00000E+00         0.23545E+07
 
    0.37672E+07         0.17364E+07         0.00000E+00
    0.17364E+07         0.74616E+07         0.00000E+00
    0.00000E+00         0.00000E+00         0.22458E+07
 
    0.30073E+07         0.24417E+07         0.00000E+00
    0.24417E+07         0.77466E+07         0.00000E+00
    0.00000E+00         0.00000E+00         0.21508E+07
 
    0.23414E+07         0.32769E+07         0.00000E+00
    0.32769E+07         0.80230E+07         0.00000E+00
    0.00000E+00         0.00000E+00         0.20729E+07
 
    0.13906E+08        -0.23128E+06         0.00000E+00
   -0.23128E+06         0.47619E+07         0.00000E+00
    0.00000E+00         0.00000E+00         0.37336E+07
 
    0.12935E+08        -0.58449E+06         0.00000E+00
   -0.58449E+06         0.48269E+07         0.00000E+00
    0.00000E+00         0.00000E+00         0.35523E+07
 
    0.11905E+08        -0.79818E+06         0.00000E+00
   -0.79818E+06         0.49254E+07         0.00000E+00
    0.00000E+00         0.00000E+00         0.33662E+07
 
    0.10871E+08        -0.88802E+06         0.00000E+00
   -0.88802E+06         0.50342E+07         0.00000E+00
    0.00000E+00         0.00000E+00         0.31810E+07
 
    0.98638E+07        -0.87258E+06         0.00000E+00
   -0.87258E+06         0.51423E+07         0.00000E+00
    0.00000E+00         0.00000E+00         0.30012E+07
 
    0.88992E+07        -0.76858E+06         0.00000E+00
   -0.76858E+06         0.52482E+07         0.00000E+00
    0.00000E+00         0.00000E+00         0.28295E+07
 
    0.79805E+07        -0.58836E+06         0.00000E+00
   -0.58836E+06         0.53562E+07         0.00000E+00
    0.00000E+00         0.00000E+00         0.26673E+07
 
    0.71042E+07        -0.33937E+06         0.00000E+00
   -0.33937E+06         0.54733E+07         0.00000E+00
    0.00000E+00         0.00000E+00         0.25155E+07
 
    0.62637E+07        -0.24522E+05         0.00000E+00
   -0.24522E+05         0.56073E+07         0.00000E+00
    0.00000E+00         0.00000E+00         0.23742E+07
 
    0.54525E+07         0.35732E+06         0.00000E+00
    0.35732E+06         0.57647E+07         0.00000E+00
    0.00000E+00         0.00000E+00         0.22434E+07
 
    0.46674E+07         0.81090E+06         0.00000E+00
    0.81090E+06         0.59498E+07         0.00000E+00
    0.00000E+00         0.00000E+00         0.21234E+07
 
    0.39109E+07         0.13440E+07         0.00000E+00
    0.13440E+07         0.61626E+07         0.00000E+00
    0.00000E+00         0.00000E+00         0.20147E+07
 
    0.31948E+07         0.19659E+07         0.00000E+00
    0.19659E+07         0.63973E+07         0.00000E+00
    0.00000E+00         0.00000E+00         0.19184E+07
 
    0.25424E+07         0.26852E+07         0.00000E+00
    0.26852E+07         0.66396E+07         0.00000E+00
    0.00000E+00         0.00000E+00         0.18364E+07
 
    0.19896E+07         0.35048E+07         0.00000E+00
    0.35048E+07         0.68669E+07         0.00000E+00
    0.00000E+00         0.00000E+00         0.17713E+07
 
    0.12407E+08        -0.19920E+06         0.00000E+00
   -0.19920E+06         0.36607E+07         0.00000E+00
    0.00000E+00         0.00000E+00         0.32135E+07
 
    0.11562E+08        -0.51461E+06         0.00000E+00
   -0.51461E+06         0.37232E+07         0.00000E+00
    0.00000E+00         0.00000E+00         0.30570E+07
 
    0.10651E+08        -0.71698E+06         0.00000E+00
   -0.71698E+06         0.38207E+07         0.00000E+00
    0.00000E+00         0.00000E+00         0.28943E+07
 
    0.97199E+07        -0.81049E+06         0.00000E+00
   -0.81049E+06         0.39321E+07         0.00000E+00
    0.00000E+00         0.00000E+00         0.27304E+07
 
    0.88008E+07        -0.80348E+06         0.00000E+00
   -0.80348E+06         0.40458E+07         0.00000E+00
    0.00000E+00         0.00000E+00         0.25693E+07
 
    0.79110E+07        -0.70522E+06         0.00000E+00
   -0.70522E+06         0.41585E+07         0.00000E+00
    0.00000E+00         0.00000E+00         0.24139E+07
 
    0.70577E+07        -0.52368E+06         0.00000E+00
   -0.52368E+06         0.42721E+07         0.00000E+00
    0.00000E+00         0.00000E+00         0.22660E+07
 
    0.62415E+07        -0.26448E+06         0.00000E+00
   -0.26448E+06         0.43918E+07         0.00000E+00
    0.00000E+00         0.00000E+00         0.21267E+07
 
    0.54598E+07         0.69372E+05         0.00000E+00
    0.69372E+05         0.45238E+07         0.00000E+00
    0.00000E+00         0.00000E+00         0.19967E+07
 
    0.47098E+07         0.47732E+06         0.00000E+00
    0.47732E+06         0.46734E+07         0.00000E+00
    0.00000E+00         0.00000E+00         0.18767E+07
 
    0.39912E+07         0.96083E+06         0.00000E+00
    0.96083E+06         0.48439E+07         0.00000E+00
    0.00000E+00         0.00000E+00         0.17670E+07
 
    0.33086E+07         0.15226E+07         0.00000E+00
    0.15226E+07         0.50345E+07         0.00000E+00
    0.00000E+00         0.00000E+00         0.16686E+07
 
    0.26738E+07         0.21654E+07         0.00000E+00
    0.21654E+07         0.52394E+07         0.00000E+00
    0.00000E+00         0.00000E+00         0.15827E+07
 
    0.21072E+07         0.28897E+07         0.00000E+00
    0.28897E+07         0.54464E+07         0.00000E+00
    0.00000E+00         0.00000E+00         0.15107E+07
 
    0.16377E+07         0.36913E+07         0.00000E+00
    0.36913E+07         0.56369E+07         0.00000E+00
    0.00000E+00         0.00000E+00         0.14549E+07
 
    0.10990E+08        -0.16927E+06         0.00000E+00
   -0.16927E+06         0.25872E+07         0.00000E+00
    0.00000E+00         0.00000E+00         0.27154E+07
 
    0.10241E+08        -0.44734E+06         0.00000E+00
   -0.44734E+06         0.26434E+07         0.00000E+00
    0.00000E+00         0.00000E+00         0.25769E+07
 
    0.94282E+07        -0.63530E+06         0.00000E+00
   -0.63530E+06         0.27318E+07         0.00000E+00
    0.00000E+00         0.00000E+00         0.24320E+07
 
    0.85913E+07        -0.72828E+06         0.00000E+00
   -0.72828E+06         0.28339E+07         0.00000E+00
    0.00000E+00         0.00000E+00         0.22851E+07
 
    0.77588E+07        -0.72643E+06         0.00000E+00
   -0.72643E+06         0.29391E+07         0.00000E+00
    0.00000E+00         0.00000E+00         0.21396E+07
 
    0.69479E+07        -0.63262E+06         0.00000E+00
   -0.63262E+06         0.30434E+07         0.00000E+00
    0.00000E+00         0.00000E+00         0.19983E+07
 
    0.61670E+07        -0.45065E+06         0.00000E+00
   -0.45065E+06         0.31480E+07         0.00000E+00
    0.00000E+00         0.00000E+00         0.18630E+07
 
    0.54190E+07        -0.18408E+06         0.00000E+00
   -0.18408E+06         0.32568E+07         0.00000E+00
    0.00000E+00         0.00000E+00         0.17352E+07
 
    0.47035E+07         0.16427E+06         0.00000E+00
    0.16427E+06         0.33751E+07         0.00000E+00
    0.00000E+00         0.00000E+00         0.16157E+07
 
    0.40196E+07         0.59237E+06         0.00000E+00
    0.59237E+06         0.35074E+07         0.00000E+00
    0.00000E+00         0.00000E+00         0.15054E+07
 
    0.33685E+07         0.10988E+07         0.00000E+00
    0.10988E+07         0.36565E+07         0.00000E+00
    0.00000E+00         0.00000E+00         0.14050E+07
 
    0.27554E+07         0.16818E+07         0.00000E+00
    0.16818E+07         0.38217E+07         0.00000E+00
    0.00000E+00         0.00000E+00         0.13154E+07
 
    0.21909E+07         0.23388E+07         0.00000E+00
    0.23388E+07         0.39980E+07         0.00000E+00
    0.00000E+00         0.00000E+00         0.12378E+07
 
    0.16922E+07         0.30643E+07         0.00000E+00
    0.30643E+07         0.41753E+07         0.00000E+00
    0.00000E+00         0.00000E+00         0.11735E+07
 
    0.12827E+07         0.38489E+07         0.00000E+00
    0.38489E+07         0.43385E+07         0.00000E+00
    0.00000E+00         0.00000E+00         0.11243E+07
 
    0.96481E+07        -0.14303E+06         0.00000E+00
   -0.14303E+06         0.15397E+07         0.00000E+00
    0.00000E+00         0.00000E+00         0.22375E+07
 
    0.89705E+07        -0.38786E+06         0.00000E+00
   -0.38786E+06         0.15860E+07         0.00000E+00
    0.00000E+00         0.00000E+00         0.21113E+07
 
    0.82381E+07        -0.56208E+06         0.00000E+00
   -0.56208E+06         0.16584E+07         0.00000E+00
    0.00000E+00         0.00000E+00         0.19793E+07
 
    0.74854E+07        -0.65336E+06         0.00000E+00
   -0.65336E+06         0.17411E+07         0.00000E+00
    0.00000E+00         0.00000E+00         0.18453E+07
 
    0.67365E+07        -0.65513E+06         0.00000E+00
   -0.65513E+06         0.18253E+07         0.00000E+00
    0.00000E+00         0.00000E+00         0.17124E+07
 
    0.60064E+07        -0.56490E+06         0.00000E+00
   -0.56490E+06         0.19078E+07         0.00000E+00
    0.00000E+00         0.00000E+00         0.15828E+07
 
    0.53030E+07        -0.38275E+06         0.00000E+00
   -0.38275E+06         0.19898E+07         0.00000E+00
    0.00000E+00         0.00000E+00         0.14586E+07
 
    0.46293E+07        -0.11031E+06         0.00000E+00
   -0.11031E+06         0.20749E+07         0.00000E+00
    0.00000E+00         0.00000E+00         0.13408E+07
 
    0.39854E+07         0.24990E+06         0.00000E+00
    0.24990E+06         0.21682E+07         0.00000E+00
    0.00000E+00         0.00000E+00         0.12307E+07
 
    0.33711E+07         0.69466E+06         0.00000E+00
    0.69466E+06         0.22742E+07         0.00000E+00
    0.00000E+00         0.00000E+00         0.11291E+07
 
    0.27877E+07         0.12200E+07         0.00000E+00
    0.12200E+07         0.23955E+07         0.00000E+00
    0.00000E+00         0.00000E+00         0.10366E+07
 
    0.22396E+07         0.18206E+07         0.00000E+00
    0.18206E+07         0.25322E+07         0.00000E+00
    0.00000E+00         0.00000E+00         0.95437E+06
 
    0.17359E+07         0.24893E+07         0.00000E+00
    0.24893E+07         0.26805E+07         0.00000E+00
    0.00000E+00         0.00000E+00         0.88327E+06
 
    0.12905E+07         0.32161E+07         0.00000E+00
    0.32161E+07         0.28323E+07         0.00000E+00
    0.00000E+00         0.00000E+00         0.82456E+06
 
    0.92268E+06         0.39874E+07         0.00000E+00
    0.39874E+07         0.29756E+07         0.00000E+00
    0.00000E+00         0.00000E+00         0.77965E+06
 
    0.83709E+07        -0.12191E+06         0.00000E+00
   -0.12191E+06         0.51455E+06         0.00000E+00
    0.00000E+00         0.00000E+00         0.17771E+07
 
    0.77423E+07        -0.34062E+06         0.00000E+00
   -0.34062E+06         0.54786E+06         0.00000E+00
    0.00000E+00         0.00000E+00         0.16580E+07
 
    0.70756E+07        -0.50477E+06         0.00000E+00
   -0.50477E+06         0.59791E+06         0.00000E+00
    0.00000E+00         0.00000E+00         0.15347E+07
 
    0.63984E+07        -0.59567E+06         0.00000E+00
   -0.59567E+06         0.65229E+06         0.00000E+00
    0.00000E+00         0.00000E+00         0.14101E+07
 
    0.57300E+07        -0.60117E+06         0.00000E+00
   -0.60117E+06         0.70457E+06         0.00000E+00
    0.00000E+00         0.00000E+00         0.12869E+07
 
    0.50818E+07        -0.51427E+06         0.00000E+00
   -0.51427E+06         0.75319E+06         0.00000E+00
    0.00000E+00         0.00000E+00         0.11670E+07
 
    0.44595E+07        -0.33193E+06         0.00000E+00
   -0.33193E+06         0.80024E+06         0.00000E+00
    0.00000E+00         0.00000E+00         0.10520E+07
 
    0.38648E+07        -0.54076E+05         0.00000E+00
   -0.54076E+05         0.85010E+06         0.00000E+00
    0.00000E+00         0.00000E+00         0.94298E+06
 
    0.32970E+07         0.31707E+06         0.00000E+00
    0.31707E+06         0.90806E+06         0.00000E+00
    0.00000E+00         0.00000E+00         0.84101E+06
 
    0.27550E+07         0.77727E+06         0.00000E+00
    0.77727E+06         0.97909E+06         0.00000E+00
    0.00000E+00         0.00000E+00         0.74681E+06
 
    0.22391E+07         0.13204E+07         0.00000E+00
    0.13204E+07         0.10666E+07         0.00000E+00
    0.00000E+00         0.00000E+00         0.66115E+06
 
    0.17523E+07         0.19381E+07         0.00000E+00
    0.19381E+07         0.11717E+07         0.00000E+00
    0.00000E+00         0.00000E+00         0.58480E+06
 
    0.13014E+07         0.26195E+07         0.00000E+00
    0.26195E+07         0.12919E+07         0.00000E+00
    0.00000E+00         0.00000E+00         0.51867E+06
 
    0.89751E+06         0.33507E+07         0.00000E+00
    0.33507E+07         0.14214E+07         0.00000E+00
    0.00000E+00         0.00000E+00         0.46379E+06
 
    0.55618E+06         0.41144E+07         0.00000E+00
    0.41144E+07         0.15505E+07         0.00000E+00
    0.00000E+00         0.00000E+00         0.42133E+06
 
    0.71422E+07        -0.10723E+06         0.00000E+00
   -0.10723E+06        -0.49343E+06         0.00000E+00
    0.00000E+00         0.00000E+00         0.13298E+07
 
    0.65448E+07        -0.30955E+06         0.00000E+00
   -0.30955E+06        -0.47617E+06         0.00000E+00
    0.00000E+00         0.00000E+00         0.12137E+07
 
    0.59315E+07        -0.46974E+06         0.00000E+00
   -0.46974E+06        -0.45421E+06         0.00000E+00
    0.00000E+00         0.00000E+00         0.10955E+07
 
    0.53231E+07        -0.56361E+06         0.00000E+00
   -0.56361E+06        -0.43617E+06         0.00000E+00
    0.00000E+00         0.00000E+00         0.97738E+06
 
    0.47327E+07        -0.57432E+06         0.00000E+00
   -0.57432E+06        -0.42550E+06         0.00000E+00
    0.00000E+00         0.00000E+00         0.86145E+06
 
    0.41675E+07        -0.49115E+06         0.00000E+00
   -0.49115E+06        -0.42147E+06         0.00000E+00
    0.00000E+00         0.00000E+00         0.74921E+06
 
    0.36296E+07        -0.30848E+06         0.00000E+00
   -0.30848E+06        -0.42028E+06         0.00000E+00
    0.00000E+00         0.00000E+00         0.64187E+06
 
    0.31181E+07        -0.24832E+05         0.00000E+00
   -0.24832E+05        -0.41630E+06         0.00000E+00
    0.00000E+00         0.00000E+00         0.54036E+06
 
    0.26302E+07         0.35776E+06         0.00000E+00
    0.35776E+06        -0.40313E+06         0.00000E+00
    0.00000E+00         0.00000E+00         0.44541E+06
 
    0.21629E+07         0.83418E+06         0.00000E+00
    0.83418E+06        -0.37480E+06         0.00000E+00
    0.00000E+00         0.00000E+00         0.35762E+06
 
    0.17146E+07         0.13964E+07         0.00000E+00
    0.13964E+07        -0.32670E+06         0.00000E+00
    0.00000E+00         0.00000E+00         0.27758E+06
 
    0.12862E+07         0.20335E+07         0.00000E+00
    0.20335E+07        -0.25646E+06         0.00000E+00
    0.00000E+00         0.00000E+00         0.20594E+06
 
    0.88173E+06         0.27313E+07         0.00000E+00
    0.27313E+07        -0.16465E+06         0.00000E+00
    0.00000E+00         0.00000E+00         0.14342E+06
 
    0.50954E+06         0.34725E+07         0.00000E+00
    0.34725E+07        -0.55220E+05         0.00000E+00
    0.00000E+00         0.00000E+00         0.90863E+05
 
    0.18207E+06         0.42365E+07         0.00000E+00
    0.42365E+07         0.64265E+05         0.00000E+00
    0.00000E+00         0.00000E+00         0.49267E+05
 
    0.59419E+07        -0.10019E+06         0.00000E+00
   -0.10019E+06        -0.14914E+07         0.00000E+00
    0.00000E+00         0.00000E+00         0.89011E+06
 
    0.53617E+07        -0.29810E+06         0.00000E+00
   -0.29810E+06        -0.14929E+07         0.00000E+00
    0.00000E+00         0.00000E+00         0.77376E+06
 
    0.47930E+07        -0.46243E+06         0.00000E+00
   -0.46243E+06        -0.15042E+07         0.00000E+00
    0.00000E+00         0.00000E+00         0.65776E+06
 
    0.42488E+07        -0.56426E+06         0.00000E+00
   -0.56426E+06        -0.15297E+07         0.00000E+00
    0.00000E+00         0.00000E+00         0.54381E+06
 
    0.37356E+07        -0.58277E+06         0.00000E+00
   -0.58277E+06        -0.15693E+07         0.00000E+00
    0.00000E+00         0.00000E+00         0.43327E+06
 
    0.32552E+07        -0.50425E+06         0.00000E+00
   -0.50425E+06        -0.16193E+07         0.00000E+00
    0.00000E+00         0.00000E+00         0.32718E+06
 
    0.28053E+07        -0.32100E+06         0.00000E+00
   -0.32100E+06        -0.16737E+07         0.00000E+00
    0.00000E+00         0.00000E+00         0.22631E+06
 
    0.23811E+07        -0.30518E+05         0.00000E+00
   -0.30518E+05        -0.17249E+07         0.00000E+00
    0.00000E+00         0.00000E+00         0.13124E+06
 
    0.19769E+07         0.36523E+06         0.00000E+00
    0.36523E+06        -0.17650E+07         0.00000E+00
    0.00000E+00         0.00000E+00         0.42387E+05
 
    0.15870E+07         0.86028E+06         0.00000E+00
    0.86028E+06        -0.17864E+07         0.00000E+00
    0.00000E+00         0.00000E+00        -0.39873E+05
 
    0.12071E+07         0.14449E+07         0.00000E+00
    0.14449E+07        -0.17830E+07         0.00000E+00
    0.00000E+00         0.00000E+00        -0.11519E+06
 
    0.83501E+06         0.21059E+07         0.00000E+00
    0.21059E+07        -0.17507E+07         0.00000E+00
    0.00000E+00         0.00000E+00        -0.18313E+06
 
    0.47214E+06         0.28262E+07         0.00000E+00
    0.28262E+07        -0.16881E+07         0.00000E+00
    0.00000E+00         0.00000E+00        -0.24319E+06
 
    0.12370E+06         0.35852E+07         0.00000E+00
    0.35852E+07        -0.15971E+07         0.00000E+00
    0.00000E+00         0.00000E+00        -0.29469E+06
 
   -0.20071E+06         0.43590E+07         0.00000E+00
    0.43590E+07        -0.14833E+07         0.00000E+00
    0.00000E+00         0.00000E+00        -0.33681E+06
 
    0.47461E+07        -0.10185E+06         0.00000E+00
   -0.10185E+06        -0.24879E+07         0.00000E+00
    0.00000E+00         0.00000E+00         0.45164E+06
 
    0.41735E+07        -0.30926E+06         0.00000E+00
   -0.30926E+06        -0.25108E+07         0.00000E+00
    0.00000E+00         0.00000E+00         0.33254E+06
 
    0.36440E+07        -0.48747E+06         0.00000E+00
   -0.48747E+06        -0.25601E+07         0.00000E+00
    0.00000E+00         0.00000E+00         0.21677E+06
 
    0.31621E+07        -0.60348E+06         0.00000E+00
   -0.60348E+06        -0.26356E+07         0.00000E+00
    0.00000E+00         0.00000E+00         0.10531E+06
 
    0.27272E+07        -0.63325E+06         0.00000E+00
   -0.63325E+06        -0.27330E+07         0.00000E+00
    0.00000E+00         0.00000E+00        -0.11494E+04
 
    0.23347E+07        -0.56064E+06         0.00000E+00
   -0.56064E+06        -0.28454E+07         0.00000E+00
    0.00000E+00         0.00000E+00        -0.10213E+06
 
    0.19770E+07        -0.37646E+06         0.00000E+00
   -0.37646E+06        -0.29637E+07         0.00000E+00
    0.00000E+00         0.00000E+00        -0.19734E+06
 
    0.16450E+07        -0.77533E+05         0.00000E+00
   -0.77533E+05        -0.30783E+07         0.00000E+00
    0.00000E+00         0.00000E+00        -0.28665E+06
 
    0.13290E+07         0.33404E+06         0.00000E+00
    0.33404E+06        -0.31789E+07         0.00000E+00
    0.00000E+00         0.00000E+00        -0.36999E+06
 
    0.10197E+07         0.85144E+06         0.00000E+00
    0.85144E+06        -0.32563E+07         0.00000E+00
    0.00000E+00         0.00000E+00        -0.44731E+06
 
    0.70957E+06         0.14635E+07         0.00000E+00
    0.14635E+07        -0.33023E+07         0.00000E+00
    0.00000E+00         0.00000E+00        -0.51855E+06
 
    0.39319E+06         0.21546E+07         0.00000E+00
    0.21546E+07        -0.33109E+07         0.00000E+00
    0.00000E+00         0.00000E+00        -0.58355E+06
 
    0.68498E+05         0.29054E+07         0.00000E+00
    0.29054E+07        -0.32786E+07         0.00000E+00
    0.00000E+00         0.00000E+00        -0.64202E+06
 
   -0.26254E+06         0.36919E+07         0.00000E+00
    0.36919E+07        -0.32050E+07         0.00000E+00
    0.00000E+00         0.00000E+00        -0.69352E+06
 
   -0.59321E+06         0.44869E+07         0.00000E+00
    0.44869E+07        -0.30937E+07         0.00000E+00
    0.00000E+00         0.00000E+00        -0.73737E+06
 
    0.35273E+07        -0.11314E+06         0.00000E+00
   -0.11314E+06        -0.34933E+07         0.00000E+00
    0.00000E+00         0.00000E+00         0.68096E+04
 
    0.29573E+07        -0.34555E+06         0.00000E+00
   -0.34555E+06        -0.35398E+07         0.00000E+00
    0.00000E+00         0.00000E+00        -0.11651E+06
 
    0.24654E+07        -0.54866E+06         0.00000E+00
   -0.54866E+06        -0.36314E+07         0.00000E+00
    0.00000E+00         0.00000E+00        -0.23319E+06
 
    0.20472E+07        -0.68603E+06         0.00000E+00
   -0.68603E+06        -0.37625E+07         0.00000E+00
    0.00000E+00         0.00000E+00        -0.34305E+06
 
    0.16940E+07        -0.73102E+06         0.00000E+00
   -0.73102E+06        -0.39243E+07         0.00000E+00
    0.00000E+00         0.00000E+00        -0.44606E+06
 
    0.13942E+07        -0.66575E+06         0.00000E+00
   -0.66575E+06        -0.41061E+07         0.00000E+00
    0.00000E+00         0.00000E+00        -0.54238E+06
 
    0.11343E+07        -0.48010E+06         0.00000E+00
   -0.48010E+06        -0.42955E+07         0.00000E+00
    0.00000E+00         0.00000E+00        -0.63226E+06
 
    0.89997E+06        -0.17065E+06         0.00000E+00
   -0.17065E+06        -0.44801E+07         0.00000E+00
    0.00000E+00         0.00000E+00        -0.71603E+06
 
    0.67720E+06         0.26014E+06         0.00000E+00
    0.26014E+06        -0.46475E+07         0.00000E+00
    0.00000E+00         0.00000E+00        -0.79405E+06
 
    0.45274E+06         0.80455E+06         0.00000E+00
    0.80455E+06        -0.47861E+07         0.00000E+00
    0.00000E+00         0.00000E+00        -0.86667E+06
 
    0.21506E+06         0.14500E+07         0.00000E+00
    0.14500E+07        -0.48858E+07         0.00000E+00
    0.00000E+00         0.00000E+00        -0.93415E+06
 
   -0.44993E+05         0.21791E+07         0.00000E+00
    0.21791E+07        -0.49382E+07         0.00000E+00
    0.00000E+00         0.00000E+00        -0.99664E+06
 
   -0.33332E+06         0.29698E+07         0.00000E+00
    0.29698E+07        -0.49374E+07         0.00000E+00
    0.00000E+00         0.00000E+00        -0.10542E+07
 
   -0.65168E+06         0.37953E+07         0.00000E+00
    0.37953E+07        -0.48806E+07         0.00000E+00
    0.00000E+00         0.00000E+00        -0.11065E+07
 
   -0.99660E+06         0.46246E+07         0.00000E+00
    0.46246E+07        -0.47688E+07         0.00000E+00
    0.00000E+00         0.00000E+00        -0.11531E+07
 
    0.22551E+07        -0.13479E+06         0.00000E+00
   -0.13479E+06        -0.45191E+07         0.00000E+00
    0.00000E+00         0.00000E+00        -0.45279E+06
 
    0.16875E+07        -0.40902E+06         0.00000E+00
   -0.40902E+06        -0.45914E+07         0.00000E+00
    0.00000E+00         0.00000E+00        -0.58078E+06
 
    0.12359E+07        -0.64899E+06         0.00000E+00
   -0.64899E+06        -0.47290E+07         0.00000E+00
    0.00000E+00         0.00000E+00        -0.69863E+06
 
    0.88599E+06        -0.81544E+06         0.00000E+00
   -0.81544E+06        -0.49206E+07         0.00000E+00
    0.00000E+00         0.00000E+00        -0.80693E+06
 
    0.62051E+06        -0.87981E+06         0.00000E+00
   -0.87981E+06        -0.51525E+07         0.00000E+00
    0.00000E+00         0.00000E+00        -0.90641E+06
 
    0.42013E+06        -0.82322E+06         0.00000E+00
   -0.82322E+06        -0.54094E+07         0.00000E+00
    0.00000E+00         0.00000E+00        -0.99786E+06
 
    0.26486E+06        -0.63526E+06         0.00000E+00
   -0.63526E+06        -0.56755E+07         0.00000E+00
    0.00000E+00         0.00000E+00        -0.10821E+07
 
    0.13492E+06        -0.31280E+06         0.00000E+00
   -0.31280E+06        -0.59353E+07         0.00000E+00
    0.00000E+00         0.00000E+00        -0.11601E+07
 
    0.11419E+05         0.14107E+06         0.00000E+00
    0.14107E+06        -0.61741E+07         0.00000E+00
    0.00000E+00         0.00000E+00        -0.12325E+07
 
   -0.12314E+06         0.71772E+06         0.00000E+00
    0.71772E+06        -0.63781E+07         0.00000E+00
    0.00000E+00         0.00000E+00        -0.13002E+07
 
   -0.28447E+06         0.14033E+07         0.00000E+00
    0.14033E+07        -0.65349E+07         0.00000E+00
    0.00000E+00         0.00000E+00        -0.13639E+07
 
   -0.48596E+06         0.21790E+07         0.00000E+00
    0.21790E+07        -0.66338E+07         0.00000E+00
    0.00000E+00         0.00000E+00        -0.14240E+07
 
   -0.73792E+06         0.30203E+07         0.00000E+00
    0.30203E+07        -0.66660E+07         0.00000E+00
    0.00000E+00         0.00000E+00        -0.14808E+07
 
   -0.10465E+07         0.38976E+07         0.00000E+00
    0.38976E+07        -0.66258E+07         0.00000E+00
    0.00000E+00         0.00000E+00        -0.15345E+07
 
   -0.14122E+07         0.47760E+07         0.00000E+00
    0.47760E+07        -0.65115E+07         0.00000E+00
    0.00000E+00         0.00000E+00        -0.15847E+07
 
    0.89643E+06        -0.16742E+06         0.00000E+00
   -0.16742E+06        -0.55785E+07         0.00000E+00
    0.00000E+00         0.00000E+00        -0.93641E+06
 
    0.33615E+06        -0.50122E+06         0.00000E+00
   -0.50122E+06        -0.56785E+07         0.00000E+00
    0.00000E+00         0.00000E+00        -0.10685E+07
 
   -0.68248E+05        -0.79056E+06         0.00000E+00
   -0.79056E+06        -0.58655E+07         0.00000E+00
    0.00000E+00         0.00000E+00        -0.11868E+07
 
   -0.34143E+06        -0.99393E+06         0.00000E+00
   -0.99393E+06        -0.61219E+07         0.00000E+00
    0.00000E+00         0.00000E+00        -0.12927E+07
 
   -0.51032E+06        -0.10816E+07         0.00000E+00
   -0.10816E+07        -0.64283E+07         0.00000E+00
    0.00000E+00         0.00000E+00        -0.13877E+07
 
   -0.60249E+06        -0.10346E+07         0.00000E+00
   -0.10346E+07        -0.67646E+07         0.00000E+00
    0.00000E+00         0.00000E+00        -0.14734E+07
 
   -0.64486E+06        -0.84310E+06         0.00000E+00
   -0.84310E+06        -0.71110E+07         0.00000E+00
    0.00000E+00         0.00000E+00        -0.15512E+07
 
   -0.66292E+06        -0.50476E+06         0.00000E+00
   -0.50476E+06        -0.74493E+07         0.00000E+00
    0.00000E+00         0.00000E+00        -0.16224E+07
 
   -0.68032E+06        -0.23719E+05         0.00000E+00
   -0.23719E+05        -0.77623E+07         0.00000E+00
    0.00000E+00         0.00000E+00        -0.16885E+07
 
   -0.71888E+06         0.59048E+06         0.00000E+00
    0.59048E+06        -0.80344E+07         0.00000E+00
    0.00000E+00         0.00000E+00        -0.17507E+07
 
   -0.79863E+06         0.13231E+07         0.00000E+00
    0.13231E+07        -0.82510E+07         0.00000E+00
    0.00000E+00         0.00000E+00        -0.18099E+07
 
   -0.93755E+06         0.21541E+07         0.00000E+00
    0.21541E+07        -0.83987E+07         0.00000E+00
    0.00000E+00         0.00000E+00        -0.18673E+07
 
   -0.11510E+07         0.30573E+07         0.00000E+00
    0.30573E+07        -0.84657E+07         0.00000E+00
    0.00000E+00         0.00000E+00        -0.19233E+07
 
   -0.14504E+07         0.40005E+07         0.00000E+00
    0.40005E+07        -0.84426E+07         0.00000E+00
    0.00000E+00         0.00000E+00        -0.19786E+07
 
   -0.18415E+07         0.49446E+07         0.00000E+00
    0.49446E+07        -0.83242E+07         0.00000E+00
    0.00000E+00         0.00000E+00        -0.20331E+07
 
   -0.58448E+06        -0.21146E+06         0.00000E+00
   -0.21146E+06        -0.66860E+07         0.00000E+00
    0.00000E+00         0.00000E+00        -0.14541E+07
 
   -0.11271E+07        -0.62322E+06         0.00000E+00
   -0.62322E+06        -0.68156E+07         0.00000E+00
    0.00000E+00         0.00000E+00        -0.15885E+07
 
   -0.14723E+07        -0.97455E+06         0.00000E+00
   -0.97455E+06        -0.70552E+07         0.00000E+00
    0.00000E+00         0.00000E+00        -0.17055E+07
 
   -0.16565E+07        -0.12223E+07         0.00000E+00
   -0.12223E+07        -0.73800E+07         0.00000E+00
    0.00000E+00         0.00000E+00        -0.18073E+07
 
   -0.17169E+07        -0.13365E+07         0.00000E+00
   -0.13365E+07        -0.77640E+07         0.00000E+00
    0.00000E+00         0.00000E+00        -0.18962E+07
 
   -0.16902E+07        -0.12991E+07         0.00000E+00
   -0.12991E+07        -0.81819E+07         0.00000E+00
    0.00000E+00         0.00000E+00        -0.19744E+07
 
   -0.16103E+07        -0.11020E+07         0.00000E+00
   -0.11020E+07        -0.86102E+07         0.00000E+00
    0.00000E+00         0.00000E+00        -0.20441E+07
 
   -0.15084E+07        -0.74462E+06         0.00000E+00
   -0.74462E+06        -0.90277E+07         0.00000E+00
    0.00000E+00         0.00000E+00        -0.21072E+07
 
   -0.14124E+07        -0.23242E+06         0.00000E+00
   -0.23242E+06        -0.94156E+07         0.00000E+00
    0.00000E+00         0.00000E+00        -0.21656E+07
 
   -0.13481E+07         0.42418E+06         0.00000E+00
    0.42418E+06        -0.97566E+07         0.00000E+00
    0.00000E+00         0.00000E+00        -0.22209E+07
 
   -0.13397E+07         0.12100E+07         0.00000E+00
    0.12100E+07        -0.10034E+08         0.00000E+00
    0.00000E+00         0.00000E+00        -0.22748E+07
 
   -0.14100E+07         0.21046E+07         0.00000E+00
    0.21046E+07        -0.10233E+08         0.00000E+00
    0.00000E+00         0.00000E+00        -0.23285E+07
 
   -0.15800E+07         0.30810E+07         0.00000E+00
    0.30810E+07        -0.10336E+08         0.00000E+00
    0.00000E+00         0.00000E+00        -0.23833E+07
 
   -0.18680E+07         0.41049E+07         0.00000E+00
    0.41049E+07        -0.10332E+08         0.00000E+00
    0.00000E+00         0.00000E+00        -0.24400E+07
 
   -0.22863E+07         0.51330E+07         0.00000E+00
    0.51330E+07        -0.10209E+08         0.00000E+00
    0.00000E+00         0.00000E+00        -0.24991E+07
 
   -0.22257E+07        -0.26723E+06         0.00000E+00
   -0.26723E+06        -0.78582E+07         0.00000E+00
    0.00000E+00         0.00000E+00        -0.20168E+07
 
   -0.27343E+07        -0.77561E+06         0.00000E+00
   -0.77561E+06        -0.80193E+07         0.00000E+00
    0.00000E+00         0.00000E+00        -0.21507E+07
 
   -0.30033E+07        -0.12011E+07         0.00000E+00
   -0.12011E+07        -0.83144E+07         0.00000E+00
    0.00000E+00         0.00000E+00        -0.22635E+07
 
   -0.30818E+07        -0.14995E+07         0.00000E+00
   -0.14995E+07        -0.87104E+07         0.00000E+00
    0.00000E+00         0.00000E+00        -0.23584E+07
 
   -0.30190E+07        -0.16419E+07         0.00000E+00
   -0.16419E+07        -0.91738E+07         0.00000E+00
    0.00000E+00         0.00000E+00        -0.24386E+07
 
   -0.28610E+07        -0.16127E+07         0.00000E+00
   -0.16127E+07        -0.96734E+07         0.00000E+00
    0.00000E+00         0.00000E+00        -0.25069E+07
 
   -0.26490E+07        -0.14070E+07         0.00000E+00
   -0.14070E+07        -0.10182E+08         0.00000E+00
    0.00000E+00         0.00000E+00        -0.25662E+07
 
   -0.24189E+07        -0.10270E+07         0.00000E+00
   -0.10270E+07        -0.10676E+08         0.00000E+00
    0.00000E+00         0.00000E+00        -0.26190E+07
 
   -0.22024E+07        -0.48016E+06         0.00000E+00
   -0.48016E+06        -0.11136E+08         0.00000E+00
    0.00000E+00         0.00000E+00        -0.26677E+07
 
   -0.20281E+07         0.22244E+06         0.00000E+00
    0.22244E+06        -0.11544E+08         0.00000E+00
    0.00000E+00         0.00000E+00        -0.27145E+07
 
   -0.19238E+07         0.10660E+07         0.00000E+00
    0.10660E+07        -0.11883E+08         0.00000E+00
    0.00000E+00         0.00000E+00        -0.27613E+07
 
   -0.19170E+07         0.20310E+07         0.00000E+00
    0.20310E+07        -0.12133E+08         0.00000E+00
    0.00000E+00         0.00000E+00        -0.28101E+07
 
   -0.20356E+07         0.30910E+07         0.00000E+00
    0.30910E+07        -0.12277E+08         0.00000E+00
    0.00000E+00         0.00000E+00        -0.28624E+07
 
   -0.23057E+07         0.42104E+07         0.00000E+00
    0.42104E+07        -0.12294E+08         0.00000E+00
    0.00000E+00         0.00000E+00        -0.29199E+07
 
   -0.27492E+07         0.53426E+07         0.00000E+00
    0.53426E+07        -0.12168E+08         0.00000E+00
    0.00000E+00         0.00000E+00        -0.29834E+07
 
   -0.40678E+07        -0.33500E+06         0.00000E+00
   -0.33500E+06        -0.91135E+07         0.00000E+00
    0.00000E+00         0.00000E+00        -0.26363E+07
 
   -0.45198E+07        -0.95862E+06         0.00000E+00
   -0.95862E+06        -0.93085E+07         0.00000E+00
    0.00000E+00         0.00000E+00        -0.27657E+07
 
   -0.46895E+07        -0.14694E+07         0.00000E+00
   -0.14694E+07        -0.96624E+07         0.00000E+00
    0.00000E+00         0.00000E+00        -0.28704E+07
 
   -0.46411E+07        -0.18227E+07         0.00000E+00
   -0.18227E+07        -0.10132E+08         0.00000E+00
    0.00000E+00         0.00000E+00        -0.29546E+07
 
   -0.44373E+07        -0.19922E+07         0.00000E+00
   -0.19922E+07        -0.10674E+08         0.00000E+00
    0.00000E+00         0.00000E+00        -0.30223E+07
 
   -0.41346E+07        -0.19674E+07         0.00000E+00
   -0.19674E+07        -0.11252E+08         0.00000E+00
    0.00000E+00         0.00000E+00        -0.30774E+07
 
   -0.37809E+07        -0.17484E+07         0.00000E+00
   -0.17484E+07        -0.11835E+08         0.00000E+00
    0.00000E+00         0.00000E+00        -0.31232E+07
 
   -0.34158E+07        -0.13421E+07         0.00000E+00
   -0.13421E+07        -0.12399E+08         0.00000E+00
    0.00000E+00         0.00000E+00        -0.31630E+07
 
   -0.30727E+07        -0.75819E+06         0.00000E+00
   -0.75819E+06        -0.12924E+08         0.00000E+00
    0.00000E+00         0.00000E+00        -0.31994E+07
 
   -0.27817E+07        -0.81607E+04         0.00000E+00
   -0.81607E+04        -0.13394E+08         0.00000E+00
    0.00000E+00         0.00000E+00        -0.32352E+07
 
   -0.25727E+07         0.89489E+06         0.00000E+00
    0.89489E+06        -0.13791E+08         0.00000E+00
    0.00000E+00         0.00000E+00        -0.32728E+07
 
   -0.24778E+07         0.19341E+07         0.00000E+00
    0.19341E+07        -0.14095E+08         0.00000E+00
    0.00000E+00         0.00000E+00        -0.33145E+07
 
   -0.25322E+07         0.30857E+07         0.00000E+00
    0.30857E+07        -0.14281E+08         0.00000E+00
    0.00000E+00         0.00000E+00        -0.33627E+07
 
   -0.27725E+07         0.43150E+07         0.00000E+00
    0.43150E+07        -0.14325E+08         0.00000E+00
    0.00000E+00         0.00000E+00        -0.34194E+07
 
   -0.32333E+07         0.55729E+07         0.00000E+00
    0.55729E+07        -0.14199E+08         0.00000E+00
    0.00000E+00         0.00000E+00        -0.34865E+07
 
   -0.61549E+07        -0.41508E+06         0.00000E+00
   -0.41508E+06        -0.10474E+08         0.00000E+00
    0.00000E+00         0.00000E+00        -0.33257E+07
 
   -0.65202E+07        -0.11723E+07         0.00000E+00
   -0.11723E+07        -0.10706E+08         0.00000E+00
    0.00000E+00         0.00000E+00        -0.34452E+07
 
   -0.65604E+07        -0.17774E+07         0.00000E+00
   -0.17774E+07        -0.11122E+08         0.00000E+00
    0.00000E+00         0.00000E+00        -0.35365E+07
 
   -0.63586E+07        -0.21860E+07         0.00000E+00
   -0.21860E+07        -0.11666E+08         0.00000E+00
    0.00000E+00         0.00000E+00        -0.36050E+07
 
   -0.59934E+07        -0.23776E+07         0.00000E+00
   -0.23776E+07        -0.12285E+08         0.00000E+00
    0.00000E+00         0.00000E+00        -0.36557E+07
 
   -0.55324E+07        -0.23497E+07         0.00000E+00
   -0.23497E+07        -0.12934E+08         0.00000E+00
    0.00000E+00         0.00000E+00        -0.36933E+07
 
   -0.50293E+07        -0.21109E+07         0.00000E+00
   -0.21109E+07        -0.13580E+08         0.00000E+00
    0.00000E+00         0.00000E+00        -0.37219E+07
 
   -0.45250E+07        -0.16742E+07         0.00000E+00
   -0.16742E+07        -0.14200E+08         0.00000E+00
    0.00000E+00         0.00000E+00        -0.37451E+07
 
   -0.40520E+07        -0.10528E+07         0.00000E+00
   -0.10528E+07        -0.14778E+08         0.00000E+00
    0.00000E+00         0.00000E+00        -0.37661E+07
 
   -0.36389E+07        -0.25741E+06         0.00000E+00
   -0.25741E+06        -0.15300E+08         0.00000E+00
    0.00000E+00         0.00000E+00        -0.37879E+07
 
   -0.33160E+07         0.70218E+06         0.00000E+00
    0.70218E+06        -0.15750E+08         0.00000E+00
    0.00000E+00         0.00000E+00        -0.38133E+07
 
   -0.31188E+07         0.18147E+07         0.00000E+00
    0.18147E+07        -0.16107E+08         0.00000E+00
    0.00000E+00         0.00000E+00        -0.38452E+07
 
   -0.30908E+07         0.30621E+07         0.00000E+00
    0.30621E+07        -0.16342E+08         0.00000E+00
    0.00000E+00         0.00000E+00        -0.38865E+07
 
   -0.32817E+07         0.44137E+07         0.00000E+00
    0.44137E+07        -0.16420E+08         0.00000E+00
    0.00000E+00         0.00000E+00        -0.39402E+07
 
   -0.37431E+07         0.58199E+07         0.00000E+00
    0.58199E+07        -0.16303E+08         0.00000E+00
    0.00000E+00         0.00000E+00        -0.40092E+07
 
   -0.85356E+07        -0.50805E+06         0.00000E+00
   -0.50805E+06        -0.11965E+08         0.00000E+00
    0.00000E+00         0.00000E+00        -0.41001E+07
 
   -0.87750E+07        -0.14166E+07         0.00000E+00
   -0.14166E+07        -0.12238E+08         0.00000E+00
    0.00000E+00         0.00000E+00        -0.42026E+07
 
   -0.86470E+07        -0.21215E+07         0.00000E+00
   -0.21215E+07        -0.12722E+08         0.00000E+00
    0.00000E+00         0.00000E+00        -0.42738E+07
 
   -0.82592E+07        -0.25805E+07         0.00000E+00
   -0.25805E+07        -0.13342E+08         0.00000E+00
    0.00000E+00         0.00000E+00        -0.43201E+07
 
   -0.77101E+07        -0.27827E+07         0.00000E+00
   -0.27827E+07        -0.14030E+08         0.00000E+00
    0.00000E+00         0.00000E+00        -0.43480E+07
 
   -0.70788E+07        -0.27393E+07         0.00000E+00
   -0.27393E+07        -0.14736E+08         0.00000E+00
    0.00000E+00         0.00000E+00        -0.43629E+07
 
   -0.64225E+07        -0.24713E+07         0.00000E+00
   -0.24713E+07        -0.15426E+08         0.00000E+00
    0.00000E+00         0.00000E+00        -0.43697E+07
 
   -0.57798E+07        -0.20007E+07         0.00000E+00
   -0.20007E+07        -0.16082E+08         0.00000E+00
    0.00000E+00         0.00000E+00        -0.43723E+07
 
   -0.51779E+07        -0.13440E+07         0.00000E+00
   -0.13440E+07        -0.16693E+08         0.00000E+00
    0.00000E+00         0.00000E+00        -0.43741E+07
 
   -0.46402E+07        -0.51063E+06         0.00000E+00
   -0.51063E+06        -0.17251E+08         0.00000E+00
    0.00000E+00         0.00000E+00        -0.43783E+07
 
   -0.41940E+07         0.49589E+06         0.00000E+00
    0.49589E+06        -0.17745E+08         0.00000E+00
    0.00000E+00         0.00000E+00        -0.43879E+07
 
   -0.38771E+07         0.16735E+07         0.00000E+00
    0.16735E+07        -0.18154E+08         0.00000E+00
    0.00000E+00         0.00000E+00        -0.44063E+07
 
   -0.37411E+07         0.30147E+07         0.00000E+00
    0.30147E+07        -0.18444E+08         0.00000E+00
    0.00000E+00         0.00000E+00        -0.44370E+07
 
   -0.38520E+07         0.44974E+07         0.00000E+00
    0.44974E+07        -0.18568E+08         0.00000E+00
    0.00000E+00         0.00000E+00        -0.44841E+07
 
   -0.42847E+07         0.60752E+07         0.00000E+00
    0.60752E+07        -0.18474E+08         0.00000E+00
    0.00000E+00         0.00000E+00        -0.45517E+07
 
   -0.11265E+08        -0.61512E+06         0.00000E+00
   -0.61512E+06        -0.13618E+08         0.00000E+00
    0.00000E+00         0.00000E+00        -0.49768E+07
 
   -0.11328E+08        -0.16921E+07         0.00000E+00
   -0.16921E+07        -0.13940E+08         0.00000E+00
    0.00000E+00         0.00000E+00        -0.50536E+07
 
   -0.10981E+08        -0.24964E+07         0.00000E+00
   -0.24964E+07        -0.14498E+08         0.00000E+00
    0.00000E+00         0.00000E+00        -0.50959E+07
 
   -0.10368E+08        -0.29914E+07         0.00000E+00
   -0.29914E+07        -0.15192E+08         0.00000E+00
    0.00000E+00         0.00000E+00        -0.51121E+07
 
   -0.96120E+07        -0.31837E+07         0.00000E+00
   -0.31837E+07        -0.15938E+08         0.00000E+00
    0.00000E+00         0.00000E+00        -0.51099E+07
 
   -0.88026E+07        -0.31059E+07         0.00000E+00
   -0.31059E+07        -0.16677E+08         0.00000E+00
    0.00000E+00         0.00000E+00        -0.50960E+07
 
   -0.79962E+07        -0.27972E+07         0.00000E+00
   -0.27972E+07        -0.17382E+08         0.00000E+00
    0.00000E+00         0.00000E+00        -0.50756E+07
 
   -0.72234E+07        -0.22902E+07         0.00000E+00
   -0.22902E+07        -0.18042E+08         0.00000E+00
    0.00000E+00         0.00000E+00        -0.50530E+07
 
   -0.65001E+07        -0.16051E+07         0.00000E+00
   -0.16051E+07        -0.18657E+08         0.00000E+00
    0.00000E+00         0.00000E+00        -0.50314E+07
 
   -0.58395E+07        -0.74800E+06         0.00000E+00
   -0.74800E+06        -0.19230E+08         0.00000E+00
    0.00000E+00         0.00000E+00        -0.50138E+07
 
   -0.52619E+07         0.28672E+06         0.00000E+00
    0.28672E+06        -0.19755E+08         0.00000E+00
    0.00000E+00         0.00000E+00        -0.50033E+07
 
   -0.48038E+07         0.15111E+07         0.00000E+00
    0.15111E+07        -0.20213E+08         0.00000E+00
    0.00000E+00         0.00000E+00        -0.50034E+07
 
   -0.45250E+07         0.29346E+07         0.00000E+00
    0.29346E+07        -0.20567E+08         0.00000E+00
    0.00000E+00         0.00000E+00        -0.50184E+07
 
   -0.45110E+07         0.45510E+07         0.00000E+00
    0.45510E+07        -0.20757E+08         0.00000E+00
    0.00000E+00         0.00000E+00        -0.50536E+07
 
   -0.48675E+07         0.63230E+07         0.00000E+00
    0.63230E+07        -0.20706E+08         0.00000E+00
    0.00000E+00         0.00000E+00        -0.51148E+07
 
   -0.14412E+08        -0.73869E+06         0.00000E+00
   -0.73869E+06        -0.15477E+08         0.00000E+00
    0.00000E+00         0.00000E+00        -0.59778E+07
 
   -0.14228E+08        -0.19999E+07         0.00000E+00
   -0.19999E+07        -0.15859E+08         0.00000E+00
    0.00000E+00         0.00000E+00        -0.60174E+07
 
   -0.13597E+08        -0.28933E+07         0.00000E+00
   -0.28933E+07        -0.16500E+08         0.00000E+00
    0.00000E+00         0.00000E+00        -0.60195E+07
 
   -0.12713E+08        -0.33954E+07         0.00000E+00
   -0.33954E+07        -0.17263E+08         0.00000E+00
    0.00000E+00         0.00000E+00        -0.59950E+07
 
   -0.11728E+08        -0.35448E+07         0.00000E+00
   -0.35448E+07        -0.18041E+08         0.00000E+00
    0.00000E+00         0.00000E+00        -0.59539E+07
 
   -0.10742E+08        -0.34069E+07         0.00000E+00
   -0.34069E+07        -0.18777E+08         0.00000E+00
    0.00000E+00         0.00000E+00        -0.59038E+07
 
   -0.97993E+07        -0.30446E+07         0.00000E+00
   -0.30446E+07        -0.19453E+08         0.00000E+00
    0.00000E+00         0.00000E+00        -0.58505E+07
 
   -0.89144E+07        -0.25022E+07         0.00000E+00
   -0.25022E+07        -0.20075E+08         0.00000E+00
    0.00000E+00         0.00000E+00        -0.57978E+07
 
   -0.80855E+07        -0.18020E+07         0.00000E+00
   -0.18020E+07        -0.20656E+08         0.00000E+00
    0.00000E+00         0.00000E+00        -0.57483E+07
 
   -0.73094E+07        -0.94441E+06         0.00000E+00
   -0.94441E+06        -0.21213E+08         0.00000E+00
    0.00000E+00         0.00000E+00        -0.57045E+07
 
   -0.65941E+07         0.88400E+05         0.00000E+00
    0.88400E+05        -0.21749E+08         0.00000E+00
    0.00000E+00         0.00000E+00        -0.56687E+07
 
   -0.59701E+07         0.13277E+07         0.00000E+00
    0.13277E+07        -0.22253E+08         0.00000E+00
    0.00000E+00         0.00000E+00        -0.56446E+07
 
   -0.55024E+07         0.28082E+07         0.00000E+00
    0.28082E+07        -0.22683E+08         0.00000E+00
    0.00000E+00         0.00000E+00        -0.56370E+07
 
   -0.52984E+07         0.45506E+07         0.00000E+00
    0.45506E+07        -0.22965E+08         0.00000E+00
    0.00000E+00         0.00000E+00        -0.56526E+07
 
   -0.55053E+07         0.65371E+07         0.00000E+00
    0.65371E+07        -0.22993E+08         0.00000E+00
    0.00000E+00         0.00000E+00        -0.56996E+07
 
   -0.18061E+08        -0.88340E+06         0.00000E+00
   -0.88340E+06        -0.17598E+08         0.00000E+00
    0.00000E+00         0.00000E+00        -0.71318E+07
 
   -0.17534E+08        -0.23418E+07         0.00000E+00
   -0.23418E+07        -0.18059E+08         0.00000E+00
    0.00000E+00         0.00000E+00        -0.71186E+07
 
   -0.16532E+08        -0.32956E+07         0.00000E+00
   -0.32956E+07        -0.18794E+08         0.00000E+00
    0.00000E+00         0.00000E+00        -0.70651E+07
 
   -0.15324E+08        -0.37536E+07         0.00000E+00
   -0.37536E+07        -0.19608E+08         0.00000E+00
    0.00000E+00         0.00000E+00        -0.69864E+07
 
   -0.14101E+08        -0.38116E+07         0.00000E+00
   -0.38116E+07        -0.20376E+08         0.00000E+00
    0.00000E+00         0.00000E+00        -0.68953E+07
 
   -0.12953E+08        -0.35835E+07         0.00000E+00
   -0.35835E+07        -0.21051E+08         0.00000E+00
    0.00000E+00         0.00000E+00        -0.68008E+07
 
   -0.11902E+08        -0.31582E+07         0.00000E+00
   -0.31582E+07        -0.21639E+08         0.00000E+00
    0.00000E+00         0.00000E+00        -0.67083E+07
 
   -0.10935E+08        -0.25888E+07         0.00000E+00
   -0.25888E+07        -0.22168E+08         0.00000E+00
    0.00000E+00         0.00000E+00        -0.66206E+07
 
   -0.10024E+08        -0.18952E+07         0.00000E+00
   -0.18952E+07        -0.22670E+08         0.00000E+00
    0.00000E+00         0.00000E+00        -0.65388E+07
 
   -0.91460E+07        -0.10702E+07         0.00000E+00
   -0.10702E+07        -0.23174E+08         0.00000E+00
    0.00000E+00         0.00000E+00        -0.64639E+07
 
   -0.82902E+07        -0.81922E+05         0.00000E+00
   -0.81922E+05        -0.23696E+08         0.00000E+00
    0.00000E+00         0.00000E+00        -0.63973E+07
 
   -0.74735E+07         0.11239E+07         0.00000E+00
    0.11239E+07        -0.24236E+08         0.00000E+00
    0.00000E+00         0.00000E+00        -0.63418E+07
 
   -0.67584E+07         0.26166E+07         0.00000E+00
    0.26166E+07        -0.24754E+08         0.00000E+00
    0.00000E+00         0.00000E+00        -0.63026E+07
 
   -0.62734E+07         0.44604E+07         0.00000E+00
    0.44604E+07        -0.25165E+08         0.00000E+00
    0.00000E+00         0.00000E+00        -0.62877E+07
 
   -0.62192E+07         0.66756E+07         0.00000E+00
    0.66756E+07        -0.25323E+08         0.00000E+00
    0.00000E+00         0.00000E+00        -0.63084E+07
 
   -0.22334E+08        -0.10581E+07         0.00000E+00
   -0.10581E+07        -0.20068E+08         0.00000E+00
    0.00000E+00         0.00000E+00        -0.84803E+07
 
   -0.21320E+08        -0.27188E+07         0.00000E+00
   -0.27188E+07        -0.20638E+08         0.00000E+00
    0.00000E+00         0.00000E+00        -0.83915E+07
 
   -0.19828E+08        -0.36683E+07         0.00000E+00
   -0.36683E+07        -0.21473E+08         0.00000E+00
    0.00000E+00         0.00000E+00        -0.82601E+07
 
   -0.18250E+08        -0.39966E+07         0.00000E+00
   -0.39966E+07        -0.22292E+08         0.00000E+00
    0.00000E+00         0.00000E+00        -0.81086E+07
 
   -0.16800E+08        -0.39022E+07         0.00000E+00
   -0.39022E+07        -0.22970E+08         0.00000E+00
    0.00000E+00         0.00000E+00        -0.79540E+07
 
   -0.15531E+08        -0.35595E+07         0.00000E+00
   -0.35595E+07        -0.23498E+08         0.00000E+00
    0.00000E+00         0.00000E+00        -0.78059E+07
 
   -0.14416E+08        -0.30756E+07         0.00000E+00
   -0.30756E+07        -0.23925E+08         0.00000E+00
    0.00000E+00         0.00000E+00        -0.76682E+07
 
   -0.13403E+08        -0.25003E+07         0.00000E+00
   -0.25003E+07        -0.24302E+08         0.00000E+00
    0.00000E+00         0.00000E+00        -0.75409E+07
 
   -0.12438E+08        -0.18453E+07         0.00000E+00
   -0.18453E+07        -0.24676E+08         0.00000E+00
    0.00000E+00         0.00000E+00        -0.74228E+07
 
   -0.11475E+08        -0.10943E+07         0.00000E+00
   -0.10943E+07        -0.25086E+08         0.00000E+00
    0.00000E+00         0.00000E+00        -0.73123E+07
 
   -0.10482E+08        -0.20350E+06         0.00000E+00
   -0.20350E+06        -0.25563E+08         0.00000E+00
    0.00000E+00         0.00000E+00        -0.72089E+07
 
   -0.94473E+07         0.90297E+06         0.00000E+00
    0.90297E+06        -0.26120E+08         0.00000E+00
    0.00000E+00         0.00000E+00        -0.71135E+07
 
   -0.84160E+07         0.23367E+07         0.00000E+00
    0.23367E+07        -0.26737E+08         0.00000E+00
    0.00000E+00         0.00000E+00        -0.70306E+07
 
   -0.75260E+07         0.42288E+07         0.00000E+00
    0.42288E+07        -0.27323E+08         0.00000E+00
    0.00000E+00         0.00000E+00        -0.69698E+07
 
   -0.70432E+07         0.66726E+07         0.00000E+00
    0.66726E+07        -0.27686E+08         0.00000E+00
    0.00000E+00         0.00000E+00        -0.69459E+07
 
   -0.27414E+08        -0.12809E+07         0.00000E+00
   -0.12809E+07        -0.23029E+08         0.00000E+00
    0.00000E+00         0.00000E+00        -0.10088E+08
 
   -0.25678E+08        -0.31208E+07         0.00000E+00
   -0.31208E+07        -0.23755E+08         0.00000E+00
    0.00000E+00         0.00000E+00        -0.98865E+07
 
   -0.23549E+08        -0.39273E+07         0.00000E+00
   -0.39273E+07        -0.24665E+08         0.00000E+00
    0.00000E+00         0.00000E+00        -0.96427E+07
 
   -0.21590E+08        -0.39983E+07         0.00000E+00
   -0.39983E+07        -0.25373E+08         0.00000E+00
    0.00000E+00         0.00000E+00        -0.93925E+07
 
   -0.19974E+08        -0.37000E+07         0.00000E+00
   -0.37000E+07        -0.25818E+08         0.00000E+00
    0.00000E+00         0.00000E+00        -0.91583E+07
 
   -0.18650E+08        -0.32501E+07         0.00000E+00
   -0.32501E+07        -0.26090E+08         0.00000E+00
    0.00000E+00         0.00000E+00        -0.89480E+07
 
   -0.17519E+08        -0.27398E+07         0.00000E+00
   -0.27398E+07        -0.26278E+08         0.00000E+00
    0.00000E+00         0.00000E+00        -0.87595E+07
 
   -0.16493E+08        -0.21983E+07         0.00000E+00
   -0.21983E+07        -0.26450E+08         0.00000E+00
    0.00000E+00         0.00000E+00        -0.85885E+07
 
   -0.15496E+08        -0.16234E+07         0.00000E+00
   -0.16234E+07        -0.26655E+08         0.00000E+00
    0.00000E+00         0.00000E+00        -0.84303E+07
 
   -0.14464E+08        -0.99107E+06         0.00000E+00
   -0.99107E+06        -0.26936E+08         0.00000E+00
    0.00000E+00         0.00000E+00        -0.82801E+07
 
   -0.13339E+08        -0.25308E+06         0.00000E+00
   -0.25308E+06        -0.27331E+08         0.00000E+00
    0.00000E+00         0.00000E+00        -0.81339E+07
 
   -0.12072E+08         0.67612E+06         0.00000E+00
    0.67612E+06        -0.27873E+08         0.00000E+00
    0.00000E+00         0.00000E+00        -0.79890E+07
 
   -0.10656E+08         0.19468E+07         0.00000E+00
    0.19468E+07        -0.28581E+08         0.00000E+00
    0.00000E+00         0.00000E+00        -0.78474E+07
 
   -0.91994E+07         0.37848E+07         0.00000E+00
    0.37848E+07        -0.29390E+08         0.00000E+00
    0.00000E+00         0.00000E+00        -0.77179E+07
 
   -0.80349E+07         0.64244E+07         0.00000E+00
    0.64244E+07        -0.30071E+08         0.00000E+00
    0.00000E+00         0.00000E+00        -0.76211E+07
 
   -0.33614E+08        -0.15899E+07         0.00000E+00
   -0.15899E+07        -0.26744E+08         0.00000E+00
    0.00000E+00         0.00000E+00        -0.12071E+08
 
   -0.30748E+08        -0.34837E+07         0.00000E+00
   -0.34837E+07        -0.27701E+08         0.00000E+00
    0.00000E+00         0.00000E+00        -0.11690E+08
 
   -0.27844E+08        -0.38536E+07         0.00000E+00
   -0.38536E+07        -0.28518E+08         0.00000E+00
    0.00000E+00         0.00000E+00        -0.11272E+08
 
   -0.25604E+08        -0.35449E+07         0.00000E+00
   -0.35449E+07        -0.28824E+08         0.00000E+00
    0.00000E+00         0.00000E+00        -0.10886E+08
 
   -0.23941E+08        -0.30756E+07         0.00000E+00
   -0.30756E+07        -0.28846E+08         0.00000E+00
    0.00000E+00         0.00000E+00        -0.10558E+08
 
   -0.22627E+08        -0.25912E+07         0.00000E+00
   -0.25912E+07        -0.28757E+08         0.00000E+00
    0.00000E+00         0.00000E+00        -0.10277E+08
 
   -0.21507E+08        -0.21252E+07         0.00000E+00
   -0.21252E+07        -0.28653E+08         0.00000E+00
    0.00000E+00         0.00000E+00        -0.10032E+08
 
   -0.20474E+08        -0.16760E+07         0.00000E+00
   -0.16760E+07        -0.28591E+08         0.00000E+00
    0.00000E+00         0.00000E+00        -0.98131E+07
 
   -0.19444E+08        -0.12279E+07         0.00000E+00
   -0.12279E+07        -0.28609E+08         0.00000E+00
    0.00000E+00         0.00000E+00        -0.96106E+07
 
   -0.18341E+08        -0.75450E+06         0.00000E+00
   -0.75450E+06        -0.28739E+08         0.00000E+00
    0.00000E+00         0.00000E+00        -0.94161E+07
 
   -0.17088E+08        -0.21364E+06         0.00000E+00
   -0.21364E+06        -0.29019E+08         0.00000E+00
    0.00000E+00         0.00000E+00        -0.92214E+07
 
   -0.15592E+08         0.46965E+06         0.00000E+00
    0.46965E+06        -0.29499E+08         0.00000E+00
    0.00000E+00         0.00000E+00        -0.90181E+07
 
   -0.13748E+08         0.14444E+07         0.00000E+00
    0.14444E+07        -0.30243E+08         0.00000E+00
    0.00000E+00         0.00000E+00        -0.87981E+07
 
   -0.11539E+08         0.30408E+07         0.00000E+00
    0.30408E+07        -0.31304E+08         0.00000E+00
    0.00000E+00         0.00000E+00        -0.85686E+07
 
   -0.93009E+07         0.57625E+07         0.00000E+00
    0.57625E+07        -0.32455E+08         0.00000E+00
    0.00000E+00         0.00000E+00        -0.83513E+07
 
   -0.41593E+08        -0.21011E+07         0.00000E+00
   -0.21011E+07        -0.32008E+08         0.00000E+00
    0.00000E+00         0.00000E+00        -0.14720E+08
 
   -0.36861E+08        -0.33826E+07         0.00000E+00
   -0.33826E+07        -0.32979E+08         0.00000E+00
    0.00000E+00         0.00000E+00        -0.13968E+08
 
   -0.33305E+08        -0.29516E+07         0.00000E+00
   -0.29516E+07        -0.32916E+08         0.00000E+00
    0.00000E+00         0.00000E+00        -0.13244E+08
 
   -0.31042E+08        -0.24224E+07         0.00000E+00
   -0.24224E+07        -0.32445E+08         0.00000E+00
    0.00000E+00         0.00000E+00        -0.12697E+08
 
   -0.29388E+08        -0.19748E+07         0.00000E+00
   -0.19748E+07        -0.31910E+08         0.00000E+00
    0.00000E+00         0.00000E+00        -0.12260E+08
 
   -0.28060E+08        -0.16002E+07         0.00000E+00
   -0.16002E+07        -0.31424E+08         0.00000E+00
    0.00000E+00         0.00000E+00        -0.11897E+08
 
   -0.26899E+08        -0.12771E+07         0.00000E+00
   -0.12771E+07        -0.31029E+08         0.00000E+00
    0.00000E+00         0.00000E+00        -0.11586E+08
 
   -0.25800E+08        -0.98527E+06         0.00000E+00
   -0.98527E+06        -0.30744E+08         0.00000E+00
    0.00000E+00         0.00000E+00        -0.11309E+08
 
   -0.24682E+08        -0.70627E+06         0.00000E+00
   -0.70627E+06        -0.30584E+08         0.00000E+00
    0.00000E+00         0.00000E+00        -0.11053E+08
 
   -0.23466E+08        -0.41985E+06         0.00000E+00
   -0.41985E+06        -0.30565E+08         0.00000E+00
    0.00000E+00         0.00000E+00        -0.10806E+08
 
   -0.22059E+08        -0.98408E+05         0.00000E+00
   -0.98408E+05        -0.30718E+08         0.00000E+00
    0.00000E+00         0.00000E+00        -0.10555E+08
 
   -0.20335E+08         0.30560E+06         0.00000E+00
    0.30560E+06        -0.31091E+08         0.00000E+00
    0.00000E+00         0.00000E+00        -0.10285E+08
 
   -0.18099E+08         0.89143E+06         0.00000E+00
    0.89143E+06        -0.31777E+08         0.00000E+00
    0.00000E+00         0.00000E+00        -0.99753E+07
 
   -0.14999E+08         0.19304E+07         0.00000E+00
    0.19304E+07        -0.32952E+08         0.00000E+00
    0.00000E+00         0.00000E+00        -0.95901E+07
 
   -0.11078E+08         0.43820E+07         0.00000E+00
    0.43820E+07        -0.34807E+08         0.00000E+00
    0.00000E+00         0.00000E+00        -0.91768E+07
 
   -0.55039E+08        -0.20722E+07         0.00000E+00
   -0.20722E+07        -0.41017E+08         0.00000E+00
    0.00000E+00         0.00000E+00        -0.19211E+08
 
   -0.46649E+08        -0.14740E+07         0.00000E+00
   -0.14740E+07        -0.39016E+08         0.00000E+00
    0.00000E+00         0.00000E+00        -0.17133E+08
 
   -0.42671E+08        -0.10048E+07         0.00000E+00
   -0.10048E+07        -0.37373E+08         0.00000E+00
    0.00000E+00         0.00000E+00        -0.16009E+08
 
   -0.39988E+08        -0.76803E+06         0.00000E+00
   -0.76803E+06        -0.36060E+08         0.00000E+00
    0.00000E+00         0.00000E+00        -0.15210E+08
 
   -0.37961E+08        -0.60230E+06         0.00000E+00
   -0.60230E+06        -0.35017E+08         0.00000E+00
    0.00000E+00         0.00000E+00        -0.14595E+08
 
   -0.36291E+08        -0.47544E+06         0.00000E+00
   -0.47544E+06        -0.34190E+08         0.00000E+00
    0.00000E+00         0.00000E+00        -0.14096E+08
 
   -0.34817E+08        -0.37015E+06         0.00000E+00
   -0.37015E+06        -0.33548E+08         0.00000E+00
    0.00000E+00         0.00000E+00        -0.13673E+08
 
   -0.33430E+08        -0.27671E+06         0.00000E+00
   -0.27671E+06        -0.33071E+08         0.00000E+00
    0.00000E+00         0.00000E+00        -0.13300E+08
 
   -0.32041E+08        -0.18784E+06         0.00000E+00
   -0.18784E+06        -0.32754E+08         0.00000E+00
    0.00000E+00         0.00000E+00        -0.12959E+08
 
   -0.30564E+08        -0.96537E+05         0.00000E+00
   -0.96537E+05        -0.32601E+08         0.00000E+00
    0.00000E+00         0.00000E+00        -0.12633E+08
 
   -0.28893E+08         0.63312E+04         0.00000E+00
    0.63312E+04        -0.32629E+08         0.00000E+00
    0.00000E+00         0.00000E+00        -0.12305E+08
 
   -0.26879E+08         0.13595E+06         0.00000E+00
    0.13595E+06        -0.32883E+08         0.00000E+00
    0.00000E+00         0.00000E+00        -0.11952E+08
 
   -0.24263E+08         0.32656E+06         0.00000E+00
    0.32656E+06        -0.33450E+08         0.00000E+00
    0.00000E+00         0.00000E+00        -0.11542E+08
 
   -0.20526E+08         0.65712E+06         0.00000E+00
    0.65712E+06        -0.34541E+08         0.00000E+00
    0.00000E+00         0.00000E+00        -0.11013E+08
 
   -0.13941E+08         0.17391E+07         0.00000E+00
    0.17391E+07        -0.36811E+08         0.00000E+00
    0.00000E+00         0.00000E+00        -0.10150E+08
 
TENSORS stresstot double 
   -0.47829E+08        -0.20749E+06         0.00000E+00
   -0.20749E+06        -0.60150E+08         0.00000E+00
    0.00000E+00         0.00000E+00        -0.64682E+08
 
   -0.50511E+08        -0.24269E+06         0.00000E+00
   -0.24269E+06        -0.60534E+08         0.00000E+00
    0.00000E+00         0.00000E+00        -0.65327E+08
 
   -0.52461E+08        -0.22378E+06         0.00000E+00
   -0.22378E+06        -0.60967E+08         0.00000E+00
    0.00000E+00         0.00000E+00        -0.65859E+08
 
   -0.54067E+08        -0.19987E+06         0.00000E+00
   -0.19987E+06        -0.61373E+08         0.00000E+00
    0.00000E+00         0.00000E+00        -0.66330E+08
 
   -0.55463E+08        -0.17313E+06         0.00000E+00
   -0.17313E+06        -0.61734E+08         0.00000E+00
    0.00000E+00         0.00000E+00        -0.66761E+08
 
   -0.56725E+08        -0.14489E+06         0.00000E+00
   -0.14489E+06        -0.62043E+08         0.00000E+00
    0.00000E+00         0.00000E+00        -0.67160E+08
 
   -0.57898E+08        -0.11523E+06         0.00000E+00
   -0.11523E+06        -0.62296E+08         0.00000E+00
    0.00000E+00         0.00000E+00        -0.67534E+08
 
   -0.59018E+08        -0.83731E+05         0.00000E+00
   -0.83731E+05        -0.62490E+08         0.00000E+00
    0.00000E+00         0.00000E+00        -0.67884E+08
 
   -0.60113E+08        -0.49593E+05         0.00000E+00
   -0.49593E+05        -0.62618E+08         0.00000E+00
    0.00000E+00         0.00000E+00        -0.68215E+08
 
   -0.61210E+08        -0.11550E+05         0.00000E+00
   -0.11550E+05        -0.62675E+08         0.00000E+00
    0.00000E+00         0.00000E+00        -0.68528E+08
 
   -0.62341E+08         0.32505E+05         0.00000E+00
    0.32505E+05        -0.62650E+08         0.00000E+00
    0.00000E+00         0.00000E+00        -0.68825E+08
 
   -0.63551E+08         0.86415E+05         0.00000E+00
    0.86415E+05        -0.62527E+08         0.00000E+00
    0.00000E+00         0.00000E+00        -0.69110E+08
 
   -0.64905E+08         0.15866E+06         0.00000E+00
    0.15866E+06        -0.62279E+08         0.00000E+00
    0.00000E+00         0.00000E+00        -0.69388E+08
 
   -0.66530E+08         0.26895E+06         0.00000E+00
    0.26895E+06        -0.61848E+08         0.00000E+00
    0.00000E+00         0.00000E+00        -0.69671E+08
 
   -0.68804E+08         0.54724E+06         0.00000E+00
    0.54724E+06        -0.61073E+08         0.00000E+00
    0.00000E+00         0.00000E+00        -0.69996E+08
 
   -0.48225E+08        -0.33194E+06         0.00000E+00
   -0.33194E+06        -0.60013E+08         0.00000E+00
    0.00000E+00         0.00000E+00        -0.64012E+08
 
   -0.50537E+08        -0.57969E+06         0.00000E+00
   -0.57969E+06        -0.60145E+08         0.00000E+00
    0.00000E+00         0.00000E+00        -0.64522E+08
 
   -0.52437E+08        -0.59361E+06         0.00000E+00
   -0.59361E+06        -0.60411E+08         0.00000E+00
    0.00000E+00         0.00000E+00        -0.64994E+08
 
   -0.54024E+08        -0.54872E+06         0.00000E+00
   -0.54872E+06        -0.60711E+08         0.00000E+00
    0.00000E+00         0.00000E+00        -0.65426E+08
 
   -0.55413E+08        -0.48283E+06         0.00000E+00
   -0.48283E+06        -0.60999E+08         0.00000E+00
    0.00000E+00         0.00000E+00        -0.65826E+08
 
   -0.56670E+08        -0.40659E+06         0.00000E+00
   -0.40659E+06        -0.61253E+08         0.00000E+00
    0.00000E+00         0.00000E+00        -0.66201E+08
 
   -0.57839E+08        -0.32301E+06         0.00000E+00
   -0.32301E+06        -0.61464E+08         0.00000E+00
    0.00000E+00         0.00000E+00        -0.66553E+08
 
   -0.58954E+08        -0.23204E+06         0.00000E+00
   -0.23204E+06        -0.61623E+08         0.00000E+00
    0.00000E+00         0.00000E+00        -0.66884E+08
 
   -0.60042E+08        -0.13189E+06         0.00000E+00
   -0.13189E+06        -0.61722E+08         0.00000E+00
    0.00000E+00         0.00000E+00        -0.67197E+08
 
   -0.61129E+08        -0.19038E+05         0.00000E+00
   -0.19038E+05        -0.61753E+08         0.00000E+00
    0.00000E+00         0.00000E+00        -0.67493E+08
 
   -0.62245E+08         0.11271E+06         0.00000E+00
    0.11271E+06        -0.61704E+08         0.00000E+00
    0.00000E+00         0.00000E+00        -0.67772E+08
 
   -0.63427E+08         0.27494E+06         0.00000E+00
    0.27494E+06        -0.61559E+08         0.00000E+00
    0.00000E+00         0.00000E+00        -0.68037E+08
 
   -0.64730E+08         0.49178E+06         0.00000E+00
    0.49178E+06        -0.61289E+08         0.00000E+00
    0.00000E+00         0.00000E+00        -0.68291E+08
 
   -0.66238E+08         0.82480E+06         0.00000E+00
    0.82480E+06        -0.60846E+08         0.00000E+00
    0.00000E+00         0.00000E+00        -0.68537E+08
 
   -0.67963E+08         0.14782E+07         0.00000E+00
    0.14782E+07        -0.60165E+08         0.00000E+00
    0.00000E+00         0.00000E+00        -0.68763E+08
 
   -0.48768E+08        -0.33927E+06         0.00000E+00
   -0.33927E+06        -0.59995E+08         0.00000E+00
    0.00000E+00         0.00000E+00        -0.63395E+08
 
   -0.50694E+08        -0.71011E+06         0.00000E+00
   -0.71011E+06        -0.60021E+08         0.00000E+00
    0.00000E+00         0.00000E+00        -0.63800E+08
 
   -0.52436E+08        -0.81386E+06         0.00000E+00
   -0.81386E+06        -0.60129E+08         0.00000E+00
    0.00000E+00         0.00000E+00        -0.64200E+08
 
   -0.53967E+08        -0.79226E+06         0.00000E+00
   -0.79226E+06        -0.60298E+08         0.00000E+00
    0.00000E+00         0.00000E+00        -0.64584E+08
 
   -0.55330E+08        -0.71540E+06         0.00000E+00
   -0.71540E+06        -0.60486E+08         0.00000E+00
    0.00000E+00         0.00000E+00        -0.64947E+08
 
   -0.56571E+08        -0.60948E+06         0.00000E+00
   -0.60948E+06        -0.60665E+08         0.00000E+00
    0.00000E+00         0.00000E+00        -0.65292E+08
 
   -0.57729E+08        -0.48423E+06         0.00000E+00
   -0.48423E+06        -0.60816E+08         0.00000E+00
    0.00000E+00         0.00000E+00        -0.65619E+08
 
   -0.58831E+08        -0.34212E+06         0.00000E+00
   -0.34212E+06        -0.60926E+08         0.00000E+00
    0.00000E+00         0.00000E+00        -0.65928E+08
 
   -0.59903E+08        -0.18162E+06         0.00000E+00
   -0.18162E+06        -0.60986E+08         0.00000E+00
    0.00000E+00         0.00000E+00        -0.66219E+08
 
   -0.60968E+08         0.22126E+04         0.00000E+00
    0.22126E+04        -0.60983E+08         0.00000E+00
    0.00000E+00         0.00000E+00        -0.66494E+08
 
   -0.62053E+08         0.21890E+06         0.00000E+00
    0.21890E+06        -0.60905E+08         0.00000E+00
    0.00000E+00         0.00000E+00        -0.66752E+08
 
   -0.63183E+08         0.48615E+06         0.00000E+00
    0.48615E+06        -0.60736E+08         0.00000E+00
    0.00000E+00         0.00000E+00        -0.66994E+08
 
   -0.64390E+08         0.83869E+06         0.00000E+00
    0.83869E+06        -0.60456E+08         0.00000E+00
    0.00000E+00         0.00000E+00        -0.67218E+08
 
   -0.65687E+08         0.13507E+07         0.00000E+00
    0.13507E+07        -0.60040E+08         0.00000E+00
    0.00000E+00         0.00000E+00        -0.67421E+08
 
   -0.67016E+08         0.21376E+07         0.00000E+00
    0.21376E+07        -0.59515E+08         0.00000E+00
    0.00000E+00         0.00000E+00        -0.67596E+08
 
   -0.49336E+08        -0.32173E+06         0.00000E+00
   -0.32173E+06        -0.59989E+08         0.00000E+00
    0.00000E+00         0.00000E+00        -0.62790E+08
 
   -0.50943E+08        -0.73275E+06         0.00000E+00
   -0.73275E+06        -0.59972E+08         0.00000E+00
    0.00000E+00         0.00000E+00        -0.63120E+08
 
   -0.52493E+08        -0.90371E+06         0.00000E+00
   -0.90371E+06        -0.59989E+08         0.00000E+00
    0.00000E+00         0.00000E+00        -0.63458E+08
 
   -0.53925E+08        -0.92419E+06         0.00000E+00
   -0.92419E+06        -0.60053E+08         0.00000E+00
    0.00000E+00         0.00000E+00        -0.63792E+08
 
   -0.55235E+08        -0.85839E+06         0.00000E+00
   -0.85839E+06        -0.60145E+08         0.00000E+00
    0.00000E+00         0.00000E+00        -0.64117E+08
 
   -0.56445E+08        -0.74108E+06         0.00000E+00
   -0.74108E+06        -0.60244E+08         0.00000E+00
    0.00000E+00         0.00000E+00        -0.64430E+08
 
   -0.57577E+08        -0.58817E+06         0.00000E+00
   -0.58817E+06        -0.60329E+08         0.00000E+00
    0.00000E+00         0.00000E+00        -0.64729E+08
 
   -0.58656E+08        -0.40547E+06         0.00000E+00
   -0.40547E+06        -0.60387E+08         0.00000E+00
    0.00000E+00         0.00000E+00        -0.65013E+08
 
   -0.59702E+08        -0.19270E+06         0.00000E+00
   -0.19270E+06        -0.60402E+08         0.00000E+00
    0.00000E+00         0.00000E+00        -0.65282E+08
 
   -0.60734E+08         0.55368E+05         0.00000E+00
    0.55368E+05        -0.60365E+08         0.00000E+00
    0.00000E+00         0.00000E+00        -0.65534E+08
 
   -0.61771E+08         0.34980E+06         0.00000E+00
    0.34980E+06        -0.60260E+08         0.00000E+00
    0.00000E+00         0.00000E+00        -0.65769E+08
 
   -0.62828E+08         0.71053E+06         0.00000E+00
    0.71053E+06        -0.60078E+08         0.00000E+00
    0.00000E+00         0.00000E+00        -0.65986E+08
 
   -0.63913E+08         0.11725E+07         0.00000E+00
    0.11725E+07        -0.59805E+08         0.00000E+00
    0.00000E+00         0.00000E+00        -0.66181E+08
 
   -0.65008E+08         0.17892E+07         0.00000E+00
    0.17892E+07        -0.59447E+08         0.00000E+00
    0.00000E+00         0.00000E+00        -0.66351E+08
 
   -0.66052E+08         0.26223E+07         0.00000E+00
    0.26223E+07        -0.59036E+08         0.00000E+00
    0.00000E+00         0.00000E+00        -0.66489E+08
 
   -0.49882E+08        -0.29488E+06         0.00000E+00
   -0.29488E+06        -0.59986E+08         0.00000E+00
    0.00000E+00         0.00000E+00        -0.62192E+08
 
   -0.51235E+08        -0.70452E+06         0.00000E+00
   -0.70452E+06        -0.59949E+08         0.00000E+00
    0.00000E+00         0.00000E+00        -0.62466E+08
 
   -0.52598E+08        -0.91020E+06         0.00000E+00
   -0.91020E+06        -0.59915E+08         0.00000E+00
    0.00000E+00         0.00000E+00        -0.62752E+08
 
   -0.53910E+08        -0.96612E+06         0.00000E+00
   -0.96612E+06        -0.59908E+08         0.00000E+00
    0.00000E+00         0.00000E+00        -0.63042E+08
 
   -0.55145E+08        -0.91968E+06         0.00000E+00
   -0.91968E+06        -0.59926E+08         0.00000E+00
    0.00000E+00         0.00000E+00        -0.63330E+08
 
   -0.56304E+08        -0.80303E+06         0.00000E+00
   -0.80303E+06        -0.59956E+08         0.00000E+00
    0.00000E+00         0.00000E+00        -0.63611E+08
 
   -0.57397E+08        -0.63423E+06         0.00000E+00
   -0.63423E+06        -0.59981E+08         0.00000E+00
    0.00000E+00         0.00000E+00        -0.63881E+08
 
   -0.58440E+08        -0.42138E+06         0.00000E+00
   -0.42138E+06        -0.59989E+08         0.00000E+00
    0.00000E+00         0.00000E+00        -0.64140E+08
 
   -0.59448E+08        -0.16566E+06         0.00000E+00
   -0.16566E+06        -0.59964E+08         0.00000E+00
    0.00000E+00         0.00000E+00        -0.64385E+08
 
   -0.60434E+08         0.13734E+06         0.00000E+00
    0.13734E+06        -0.59895E+08         0.00000E+00
    0.00000E+00         0.00000E+00        -0.64614E+08
 
   -0.61410E+08         0.49800E+06         0.00000E+00
    0.49800E+06        -0.59772E+08         0.00000E+00
    0.00000E+00         0.00000E+00        -0.64826E+08
 
   -0.62382E+08         0.93422E+06         0.00000E+00
    0.93422E+06        -0.59586E+08         0.00000E+00
    0.00000E+00         0.00000E+00        -0.65018E+08
 
   -0.63345E+08         0.14728E+07         0.00000E+00
    0.14728E+07        -0.59335E+08         0.00000E+00
    0.00000E+00         0.00000E+00        -0.65189E+08
 
   -0.64271E+08         0.21478E+07         0.00000E+00
    0.21478E+07        -0.59031E+08         0.00000E+00
    0.00000E+00         0.00000E+00        -0.65332E+08
 
   -0.65106E+08         0.29905E+07         0.00000E+00
    0.29905E+07        -0.58705E+08         0.00000E+00
    0.00000E+00         0.00000E+00        -0.65444E+08
 
   -0.50387E+08        -0.26383E+06         0.00000E+00
   -0.26383E+06        -0.59985E+08         0.00000E+00
    0.00000E+00         0.00000E+00        -0.61600E+08
 
   -0.51535E+08        -0.65063E+06         0.00000E+00
   -0.65063E+06        -0.59937E+08         0.00000E+00
    0.00000E+00         0.00000E+00        -0.61829E+08
 
   -0.52733E+08        -0.86763E+06         0.00000E+00
   -0.86763E+06        -0.59877E+08         0.00000E+00
    0.00000E+00         0.00000E+00        -0.62074E+08
 
   -0.53921E+08        -0.94612E+06         0.00000E+00
   -0.94612E+06        -0.59827E+08         0.00000E+00
    0.00000E+00         0.00000E+00        -0.62326E+08
 
   -0.55067E+08        -0.91758E+06         0.00000E+00
   -0.91758E+06        -0.59793E+08         0.00000E+00
    0.00000E+00         0.00000E+00        -0.62580E+08
 
   -0.56159E+08        -0.80683E+06         0.00000E+00
   -0.80683E+06        -0.59770E+08         0.00000E+00
    0.00000E+00         0.00000E+00        -0.62830E+08
 
   -0.57198E+08        -0.63009E+06         0.00000E+00
   -0.63009E+06        -0.59749E+08         0.00000E+00
    0.00000E+00         0.00000E+00        -0.63073E+08
 
   -0.58192E+08        -0.39586E+06         0.00000E+00
   -0.39586E+06        -0.59715E+08         0.00000E+00
    0.00000E+00         0.00000E+00        -0.63306E+08
 
   -0.59150E+08        -0.10648E+06         0.00000E+00
   -0.10648E+06        -0.59659E+08         0.00000E+00
    0.00000E+00         0.00000E+00        -0.63527E+08
 
   -0.60079E+08         0.24096E+06         0.00000E+00
    0.24096E+06        -0.59567E+08         0.00000E+00
    0.00000E+00         0.00000E+00        -0.63733E+08
 
   -0.60987E+08         0.65442E+06         0.00000E+00
    0.65442E+06        -0.59433E+08         0.00000E+00
    0.00000E+00         0.00000E+00        -0.63922E+08
 
   -0.61871E+08         0.11470E+07         0.00000E+00
    0.11470E+07        -0.59252E+08         0.00000E+00
    0.00000E+00         0.00000E+00        -0.64093E+08
 
   -0.62720E+08         0.17364E+07         0.00000E+00
    0.17364E+07        -0.59026E+08         0.00000E+00
    0.00000E+00         0.00000E+00        -0.64242E+08
 
   -0.63508E+08         0.24417E+07         0.00000E+00
    0.24417E+07        -0.58768E+08         0.00000E+00
    0.00000E+00         0.00000E+00        -0.64364E+08
 
   -0.64188E+08         0.32769E+07         0.00000E+00
    0.32769E+07        -0.58506E+08         0.00000E+00
    0.00000E+00         0.00000E+00        -0.64456E+08
 
   -0.50841E+08        -0.23128E+06         0.00000E+00
   -0.23128E+06        -0.59985E+08         0.00000E+00
    0.00000E+00         0.00000E+00        -0.61013E+08
 
   -0.51826E+08        -0.58449E+06         0.00000E+00
   -0.58449E+06        -0.59933E+08         0.00000E+00
    0.00000E+00         0.00000E+00        -0.61208E+08
 
   -0.52880E+08        -0.79818E+06         0.00000E+00
   -0.79818E+06        -0.59860E+08         0.00000E+00
    0.00000E+00         0.00000E+00        -0.61419E+08
 
   -0.53949E+08        -0.88802E+06         0.00000E+00
   -0.88802E+06        -0.59786E+08         0.00000E+00
    0.00000E+00         0.00000E+00        -0.61639E+08
 
   -0.55000E+08        -0.87258E+06         0.00000E+00
   -0.87258E+06        -0.59721E+08         0.00000E+00
    0.00000E+00         0.00000E+00        -0.61862E+08
 
   -0.56015E+08        -0.76858E+06         0.00000E+00
   -0.76858E+06        -0.59666E+08         0.00000E+00
    0.00000E+00         0.00000E+00        -0.62084E+08
 
   -0.56987E+08        -0.58836E+06         0.00000E+00
   -0.58836E+06        -0.59612E+08         0.00000E+00
    0.00000E+00         0.00000E+00        -0.62301E+08
 
   -0.57920E+08        -0.33937E+06         0.00000E+00
   -0.33937E+06        -0.59551E+08         0.00000E+00
    0.00000E+00         0.00000E+00        -0.62509E+08
 
   -0.58816E+08        -0.24522E+05         0.00000E+00
   -0.24522E+05        -0.59473E+08         0.00000E+00
    0.00000E+00         0.00000E+00        -0.62706E+08
 
   -0.59681E+08         0.35732E+06         0.00000E+00
    0.35732E+06        -0.59369E+08         0.00000E+00
    0.00000E+00         0.00000E+00        -0.62890E+08
 
   -0.60515E+08         0.81090E+06         0.00000E+00
    0.81090E+06        -0.59232E+08         0.00000E+00
    0.00000E+00         0.00000E+00        -0.63058E+08
 
   -0.61313E+08         0.13440E+07         0.00000E+00
    0.13440E+07        -0.59061E+08         0.00000E+00
    0.00000E+00         0.00000E+00        -0.63209E+08
 
   -0.62062E+08         0.19659E+07         0.00000E+00
    0.19659E+07        -0.58860E+08         0.00000E+00
    0.00000E+00         0.00000E+00        -0.63339E+08
 
   -0.62738E+08         0.26852E+07         0.00000E+00
    0.26852E+07        -0.58641E+08         0.00000E+00
    0.00000E+00         0.00000E+00        -0.63444E+08
 
   -0.63303E+08         0.35048E+07         0.00000E+00
    0.35048E+07        -0.58426E+08         0.00000E+00
    0.00000E+00         0.00000E+00        -0.63521E+08
 
   -0.51240E+08        -0.19920E+06         0.00000E+00
   -0.19920E+06        -0.59986E+08         0.00000E+00
    0.00000E+00         0.00000E+00        -0.60433E+08
 
   -0.52096E+08        -0.51461E+06         0.00000E+00
   -0.51461E+06        -0.59935E+08         0.00000E+00
    0.00000E+00         0.00000E+00        -0.60601E+08
 
   -0.53028E+08        -0.71698E+06         0.00000E+00
   -0.71698E+06        -0.59858E+08         0.00000E+00
    0.00000E+00         0.00000E+00        -0.60785E+08
 
   -0.53988E+08        -0.81049E+06         0.00000E+00
   -0.81049E+06        -0.59776E+08         0.00000E+00
    0.00000E+00         0.00000E+00        -0.60977E+08
 
   -0.54942E+08        -0.80348E+06         0.00000E+00
   -0.80348E+06        -0.59697E+08         0.00000E+00
    0.00000E+00         0.00000E+00        -0.61174E+08
 
   -0.55872E+08        -0.70522E+06         0.00000E+00
   -0.70522E+06        -0.59625E+08         0.00000E+00
    0.00000E+00         0.00000E+00        -0.61370E+08
 
   -0.56769E+08        -0.52368E+06         0.00000E+00
   -0.52368E+06        -0.59555E+08         0.00000E+00
    0.00000E+00         0.00000E+00        -0.61561E+08
 
   -0.57631E+08        -0.26448E+06         0.00000E+00
   -0.26448E+06        -0.59480E+08         0.00000E+00
    0.00000E+00         0.00000E+00        -0.61745E+08
 
   -0.58457E+08         0.69372E+05         0.00000E+00
    0.69372E+05        -0.59393E+08         0.00000E+00
    0.00000E+00         0.00000E+00        -0.61920E+08
 
   -0.59249E+08         0.47732E+06         0.00000E+00
    0.47732E+06        -0.59286E+08         0.00000E+00
    0.00000E+00         0.00000E+00        -0.62083E+08
 
   -0.60007E+08         0.96083E+06         0.00000E+00
    0.96083E+06        -0.59154E+08         0.00000E+00
    0.00000E+00         0.00000E+00        -0.62231E+08
 
   -0.60723E+08         0.15226E+07         0.00000E+00
    0.15226E+07        -0.58997E+08         0.00000E+00
    0.00000E+00         0.00000E+00        -0.62363E+08
 
   -0.61385E+08         0.21654E+07         0.00000E+00
    0.21654E+07        -0.58820E+08         0.00000E+00
    0.00000E+00         0.00000E+00        -0.62476E+08
 
   -0.61971E+08         0.28897E+07         0.00000E+00
    0.28897E+07        -0.58632E+08         0.00000E+00
    0.00000E+00         0.00000E+00        -0.62567E+08
 
   -0.62451E+08         0.36913E+07         0.00000E+00
    0.36913E+07        -0.58451E+08         0.00000E+00
    0.00000E+00         0.00000E+00        -0.62633E+08
 
   -0.51585E+08        -0.16927E+06         0.00000E+00
   -0.16927E+06        -0.59987E+08         0.00000E+00
    0.00000E+00         0.00000E+00        -0.59859E+08
 
   -0.52342E+08        -0.44734E+06         0.00000E+00
   -0.44734E+06        -0.59940E+08         0.00000E+00
    0.00000E+00         0.00000E+00        -0.60007E+08
 
   -0.53172E+08        -0.63530E+06         0.00000E+00
   -0.63530E+06        -0.59868E+08         0.00000E+00
    0.00000E+00         0.00000E+00        -0.60168E+08
 
   -0.54032E+08        -0.72828E+06         0.00000E+00
   -0.72828E+06        -0.59789E+08         0.00000E+00
    0.00000E+00         0.00000E+00        -0.60338E+08
 
   -0.54891E+08        -0.72643E+06         0.00000E+00
   -0.72643E+06        -0.59711E+08         0.00000E+00
    0.00000E+00         0.00000E+00        -0.60511E+08
 
   -0.55733E+08        -0.63262E+06         0.00000E+00
   -0.63262E+06        -0.59637E+08         0.00000E+00
    0.00000E+00         0.00000E+00        -0.60682E+08
 
   -0.56546E+08        -0.45065E+06         0.00000E+00
   -0.45065E+06        -0.59566E+08         0.00000E+00
    0.00000E+00         0.00000E+00        -0.60851E+08
 
   -0.57328E+08        -0.18408E+06         0.00000E+00
   -0.18408E+06        -0.59490E+08         0.00000E+00
    0.00000E+00         0.00000E+00        -0.61012E+08
 
   -0.58077E+08         0.16427E+06         0.00000E+00
    0.16427E+06        -0.59406E+08         0.00000E+00
    0.00000E+00         0.00000E+00        -0.61165E+08
 
   -0.58793E+08         0.59237E+06         0.00000E+00
    0.59237E+06        -0.59305E+08         0.00000E+00
    0.00000E+00         0.00000E+00        -0.61307E+08
 
   -0.59473E+08         0.10988E+07         0.00000E+00
    0.10988E+07        -0.59185E+08         0.00000E+00
    0.00000E+00         0.00000E+00        -0.61437E+08
 
   -0.60112E+08         0.16818E+07         0.00000E+00
    0.16818E+07        -0.59046E+08         0.00000E+00
    0.00000E+00         0.00000E+00        -0.61552E+08
 
   -0.60697E+08         0.23388E+07         0.00000E+00
    0.23388E+07        -0.58890E+08         0.00000E+00
    0.00000E+00         0.00000E+00        -0.61650E+08
 
   -0.61211E+08         0.30643E+07         0.00000E+00
    0.30643E+07        -0.58728E+08         0.00000E+00
    0.00000E+00         0.00000E+00        -0.61729E+08
 
   -0.61628E+08         0.38489E+07         0.00000E+00
    0.38489E+07        -0.58572E+08         0.00000E+00
    0.00000E+00         0.00000E+00        -0.61787E+08
 
   -0.51881E+08        -0.14303E+06         0.00000E+00
   -0.14303E+06        -0.59989E+08         0.00000E+00
    0.00000E+00         0.00000E+00        -0.59291E+08
 
   -0.52565E+08        -0.38786E+06         0.00000E+00
   -0.38786E+06        -0.59950E+08         0.00000E+00
    0.00000E+00         0.00000E+00        -0.59424E+08
 
   -0.53309E+08        -0.56208E+06         0.00000E+00
   -0.56208E+06        -0.59889E+08         0.00000E+00
    0.00000E+00         0.00000E+00        -0.59568E+08
 
   -0.54078E+08        -0.65336E+06         0.00000E+00
   -0.65336E+06        -0.59822E+08         0.00000E+00
    0.00000E+00         0.00000E+00        -0.59718E+08
 
   -0.54845E+08        -0.65513E+06         0.00000E+00
   -0.65513E+06        -0.59756E+08         0.00000E+00
    0.00000E+00         0.00000E+00        -0.59869E+08
 
   -0.55596E+08        -0.56490E+06         0.00000E+00
   -0.56490E+06        -0.59694E+08         0.00000E+00
    0.00000E+00         0.00000E+00        -0.60019E+08
 
   -0.56320E+08        -0.38275E+06         0.00000E+00
   -0.38275E+06        -0.59634E+08         0.00000E+00
    0.00000E+00         0.00000E+00        -0.60165E+08
 
   -0.57016E+08        -0.11031E+06         0.00000E+00
   -0.11031E+06        -0.59570E+08         0.00000E+00
    0.00000E+00         0.00000E+00        -0.60304E+08
 
   -0.57681E+08         0.24990E+06         0.00000E+00
    0.24990E+06        -0.59498E+08         0.00000E+00
    0.00000E+00         0.00000E+00        -0.60436E+08
 
   -0.58316E+08         0.69466E+06         0.00000E+00
    0.69466E+06        -0.59413E+08         0.00000E+00
    0.00000E+00         0.00000E+00        -0.60558E+08
 
   -0.58919E+08         0.12200E+07         0.00000E+00
    0.12200E+07        -0.59311E+08         0.00000E+00
    0.00000E+00         0.00000E+00        -0.60670E+08
 
   -0.59484E+08         0.18206E+07         0.00000E+00
    0.18206E+07        -0.59191E+08         0.00000E+00
    0.00000E+00         0.00000E+00        -0.60769E+08
 
   -0.60001E+08         0.24893E+07         0.00000E+00
    0.24893E+07        -0.59057E+08         0.00000E+00
    0.00000E+00         0.00000E+00        -0.60854E+08
 
   -0.60457E+08         0.32161E+07         0.00000E+00
    0.32161E+07        -0.58915E+08         0.00000E+00
    0.00000E+00         0.00000E+00        -0.60923E+08
 
   -0.60830E+08         0.39874E+07         0.00000E+00
    0.39874E+07        -0.58777E+08         0.00000E+00
    0.00000E+00         0.00000E+00        -0.60973E+08
 
   -0.52135E+08        -0.12191E+06         0.00000E+00
   -0.12191E+06        -0.59992E+08         0.00000E+00
    0.00000E+00         0.00000E+00        -0.58729E+08
 
   -0.52768E+08        -0.34062E+06         0.00000E+00
   -0.34062E+06        -0.59962E+08         0.00000E+00
    0.00000E+00         0.00000E+00        -0.58852E+08
 
   -0.53441E+08        -0.50477E+06         0.00000E+00
   -0.50477E+06        -0.59919E+08         0.00000E+00
    0.00000E+00         0.00000E+00        -0.58982E+08
 
   -0.54126E+08        -0.59567E+06         0.00000E+00
   -0.59567E+06        -0.59872E+08         0.00000E+00
    0.00000E+00         0.00000E+00        -0.59114E+08
 
   -0.54803E+08        -0.60117E+06         0.00000E+00
   -0.60117E+06        -0.59829E+08         0.00000E+00
    0.00000E+00         0.00000E+00        -0.59246E+08
 
   -0.55460E+08        -0.51427E+06         0.00000E+00
   -0.51427E+06        -0.59789E+08         0.00000E+00
    0.00000E+00         0.00000E+00        -0.59375E+08
 
   -0.56091E+08        -0.33193E+06         0.00000E+00
   -0.33193E+06        -0.59751E+08         0.00000E+00
    0.00000E+00         0.00000E+00        -0.59499E+08
 
   -0.56695E+08        -0.54076E+05         0.00000E+00
   -0.54076E+05        -0.59710E+08         0.00000E+00
    0.00000E+00         0.00000E+00        -0.59617E+08
 
   -0.57272E+08         0.31707E+06         0.00000E+00
    0.31707E+06        -0.59661E+08         0.00000E+00
    0.00000E+00         0.00000E+00        -0.59728E+08
 
   -0.57822E+08         0.77727E+06         0.00000E+00
    0.77727E+06        -0.59598E+08         0.00000E+00
    0.00000E+00         0.00000E+00        -0.59830E+08
 
   -0.58346E+08         0.13204E+07         0.00000E+00
    0.13204E+07        -0.59519E+08         0.00000E+00
    0.00000E+00         0.00000E+00        -0.59924E+08
 
   -0.58840E+08         0.19381E+07         0.00000E+00
    0.19381E+07        -0.59421E+08         0.00000E+00
    0.00000E+00         0.00000E+00        -0.60008E+08
 
   -0.59298E+08         0.26195E+07         0.00000E+00
    0.26195E+07        -0.59307E+08         0.00000E+00
    0.00000E+00         0.00000E+00        -0.60080E+08
 
   -0.59707E+08         0.33507E+07         0.00000E+00
    0.33507E+07        -0.59183E+08         0.00000E+00
    0.00000E+00         0.00000E+00        -0.60140E+08
 
   -0.60051E+08         0.41144E+07         0.00000E+00
    0.41144E+07        -0.59057E+08         0.00000E+00
    0.00000E+00         0.00000E+00        -0.60186E+08
 
   -0.52359E+08        -0.10723E+06         0.00000E+00
   -0.10723E+06        -0.59995E+08         0.00000E+00
    0.00000E+00         0.00000E+00        -0.58172E+08
 
   -0.52957E+08        -0.30955E+06         0.00000E+00
   -0.30955E+06        -0.59978E+08         0.00000E+00
    0.00000E+00         0.00000E+00        -0.58288E+08
 
   -0.53571E+08        -0.46974E+06         0.00000E+00
   -0.46974E+06        -0.59956E+08         0.00000E+00
    0.00000E+00         0.00000E+00        -0.58407E+08
 
   -0.54178E+08        -0.56361E+06         0.00000E+00
   -0.56361E+06        -0.59937E+08         0.00000E+00
    0.00000E+00         0.00000E+00        -0.58523E+08
 
   -0.54765E+08        -0.57432E+06         0.00000E+00
   -0.57432E+06        -0.59924E+08         0.00000E+00
    0.00000E+00         0.00000E+00        -0.58637E+08
 
   -0.55327E+08        -0.49115E+06         0.00000E+00
   -0.49115E+06        -0.59916E+08         0.00000E+00
    0.00000E+00         0.00000E+00        -0.58745E+08
 
   -0.55860E+08        -0.30848E+06         0.00000E+00
   -0.30848E+06        -0.59910E+08         0.00000E+00
    0.00000E+00         0.00000E+00        -0.58847E+08
 
   -0.56366E+08        -0.24832E+05         0.00000E+00
   -0.24832E+05        -0.59900E+08         0.00000E+00
    0.00000E+00         0.00000E+00        -0.58944E+08
 
   -0.56848E+08         0.35776E+06         0.00000E+00
    0.35776E+06        -0.59882E+08         0.00000E+00
    0.00000E+00         0.00000E+00        -0.59033E+08
 
   -0.57311E+08         0.83418E+06         0.00000E+00
    0.83418E+06        -0.59848E+08         0.00000E+00
    0.00000E+00         0.00000E+00        -0.59116E+08
 
   -0.57755E+08         0.13964E+07         0.00000E+00
    0.13964E+07        -0.59796E+08         0.00000E+00
    0.00000E+00         0.00000E+00        -0.59192E+08
 
   -0.58180E+08         0.20335E+07         0.00000E+00
    0.20335E+07        -0.59723E+08         0.00000E+00
    0.00000E+00         0.00000E+00        -0.59260E+08
 
   -0.58583E+08         0.27313E+07         0.00000E+00
    0.27313E+07        -0.59629E+08         0.00000E+00
    0.00000E+00         0.00000E+00        -0.59321E+08
 
   -0.58954E+08         0.34725E+07         0.00000E+00
    0.34725E+07        -0.59519E+08         0.00000E+00
    0.00000E+00         0.00000E+00        -0.59373E+08
 
   -0.59281E+08         0.42365E+07         0.00000E+00
    0.42365E+07        -0.59399E+08         0.00000E+00
    0.00000E+00         0.00000E+00        -0.59414E+08
 
   -0.52565E+08        -0.10019E+06         0.00000E+00
   -0.10019E+06        -0.59999E+08         0.00000E+00
    0.00000E+00         0.00000E+00        -0.57617E+08
 
   -0.53142E+08        -0.29810E+06         0.00000E+00
   -0.29810E+06        -0.59997E+08         0.00000E+00
    0.00000E+00         0.00000E+00        -0.57730E+08
 
   -0.53703E+08        -0.46243E+06         0.00000E+00
   -0.46243E+06        -0.60001E+08         0.00000E+00
    0.00000E+00         0.00000E+00        -0.57839E+08
 
   -0.54236E+08        -0.56426E+06         0.00000E+00
   -0.56426E+06        -0.60014E+08         0.00000E+00
    0.00000E+00         0.00000E+00        -0.57941E+08
 
   -0.54733E+08        -0.58277E+06         0.00000E+00
   -0.58277E+06        -0.60038E+08         0.00000E+00
    0.00000E+00         0.00000E+00        -0.58036E+08
 
   -0.55195E+08        -0.50425E+06         0.00000E+00
   -0.50425E+06        -0.60070E+08         0.00000E+00
    0.00000E+00         0.00000E+00        -0.58123E+08
 
   -0.55625E+08        -0.32100E+06         0.00000E+00
   -0.32100E+06        -0.60104E+08         0.00000E+00
    0.00000E+00         0.00000E+00        -0.58204E+08
 
   -0.56027E+08        -0.30518E+05         0.00000E+00
   -0.30518E+05        -0.60133E+08         0.00000E+00
    0.00000E+00         0.00000E+00        -0.58277E+08
 
   -0.56410E+08         0.36523E+06         0.00000E+00
    0.36523E+06        -0.60152E+08         0.00000E+00
    0.00000E+00         0.00000E+00        -0.58345E+08
 
   -0.56780E+08         0.86028E+06         0.00000E+00
    0.86028E+06        -0.60153E+08         0.00000E+00
    0.00000E+00         0.00000E+00        -0.58407E+08
 
   -0.57142E+08         0.14449E+07         0.00000E+00
    0.14449E+07        -0.60132E+08         0.00000E+00
    0.00000E+00         0.00000E+00        -0.58464E+08
 
   -0.57499E+08         0.21059E+07         0.00000E+00
    0.21059E+07        -0.60085E+08         0.00000E+00
    0.00000E+00         0.00000E+00        -0.58517E+08
 
   -0.57851E+08         0.28262E+07         0.00000E+00
    0.28262E+07        -0.60011E+08         0.00000E+00
    0.00000E+00         0.00000E+00        -0.58566E+08
 
   -0.58192E+08         0.35852E+07         0.00000E+00
    0.35852E+07        -0.59913E+08         0.00000E+00
    0.00000E+00         0.00000E+00        -0.58610E+08
 
   -0.58513E+08         0.43590E+07         0.00000E+00
    0.43590E+07        -0.59795E+08         0.00000E+00
    0.00000E+00         0.00000E+00        -0.58649E+08
 
   -0.52769E+08        -0.10185E+06         0.00000E+00
   -0.10185E+06        -0.60003E+08         0.00000E+00
    0.00000E+00         0.00000E+00        -0.57063E+08
 
   -0.53333E+08        -0.30926E+06         0.00000E+00
   -0.30926E+06        -0.60018E+08         0.00000E+00
    0.00000E+00         0.00000E+00        -0.57174E+08
 
   -0.53847E+08        -0.48747E+06         0.00000E+00
   -0.48747E+06        -0.60051E+08         0.00000E+00
    0.00000E+00         0.00000E+00        -0.57274E+08
 
   -0.54305E+08        -0.60348E+06         0.00000E+00
   -0.60348E+06        -0.60102E+08         0.00000E+00
    0.00000E+00         0.00000E+00        -0.57361E+08
 
   -0.54709E+08        -0.63325E+06         0.00000E+00
   -0.63325E+06        -0.60169E+08         0.00000E+00
    0.00000E+00         0.00000E+00        -0.57438E+08
 
   -0.55066E+08        -0.56064E+06         0.00000E+00
   -0.56064E+06        -0.60247E+08         0.00000E+00
    0.00000E+00         0.00000E+00        -0.57503E+08
 
   -0.55386E+08        -0.37646E+06         0.00000E+00
   -0.37646E+06        -0.60326E+08         0.00000E+00
    0.00000E+00         0.00000E+00        -0.57560E+08
 
   -0.55678E+08        -0.77533E+05         0.00000E+00
   -0.77533E+05        -0.60401E+08         0.00000E+00
    0.00000E+00         0.00000E+00        -0.57609E+08
 
   -0.55954E+08         0.33404E+06         0.00000E+00
    0.33404E+06        -0.60462E+08         0.00000E+00
    0.00000E+00         0.00000E+00        -0.57653E+08
 
   -0.56226E+08         0.85144E+06         0.00000E+00
    0.85144E+06        -0.60502E+08         0.00000E+00
    0.00000E+00         0.00000E+00        -0.57693E+08
 
   -0.56503E+08         0.14635E+07         0.00000E+00
    0.14635E+07        -0.60515E+08         0.00000E+00
    0.00000E+00         0.00000E+00        -0.57731E+08
 
   -0.56791E+08         0.21546E+07         0.00000E+00
    0.21546E+07        -0.60495E+08         0.00000E+00
    0.00000E+00         0.00000E+00        -0.57768E+08
 
   -0.57094E+08         0.29054E+07         0.00000E+00
    0.29054E+07        -0.60441E+08         0.00000E+00
    0.00000E+00         0.00000E+00        -0.57804E+08
 
   -0.57410E+08         0.36919E+07         0.00000E+00
    0.36919E+07        -0.60352E+08         0.00000E+00
    0.00000E+00         0.00000E+00        -0.57841E+08
 
   -0.57733E+08         0.44869E+07         0.00000E+00
    0.44869E+07        -0.60234E+08         0.00000E+00
    0.00000E+00         0.00000E+00        -0.57877E+08
 
   -0.52987E+08        -0.11314E+06         0.00000E+00
   -0.11314E+06        -0.60007E+08         0.00000E+00
    0.00000E+00         0.00000E+00        -0.56507E+08
 
   -0.53543E+08        -0.34555E+06         0.00000E+00
   -0.34555E+06        -0.60040E+08         0.00000E+00
    0.00000E+00         0.00000E+00        -0.56617E+08
 
   -0.54009E+08        -0.54866E+06         0.00000E+00
   -0.54866E+06        -0.60106E+08         0.00000E+00
    0.00000E+00         0.00000E+00        -0.56707E+08
 
   -0.54389E+08        -0.68603E+06         0.00000E+00
   -0.68603E+06        -0.60199E+08         0.00000E+00
    0.00000E+00         0.00000E+00        -0.56779E+08
 
   -0.54695E+08        -0.73102E+06         0.00000E+00
   -0.73102E+06        -0.60313E+08         0.00000E+00
    0.00000E+00         0.00000E+00        -0.56835E+08
 
   -0.54940E+08        -0.66575E+06         0.00000E+00
   -0.66575E+06        -0.60441E+08         0.00000E+00
    0.00000E+00         0.00000E+00        -0.56877E+08
 
   -0.55141E+08        -0.48010E+06         0.00000E+00
   -0.48010E+06        -0.60571E+08         0.00000E+00
    0.00000E+00         0.00000E+00        -0.56908E+08
 
   -0.55314E+08        -0.17065E+06         0.00000E+00
   -0.17065E+06        -0.60695E+08         0.00000E+00
    0.00000E+00         0.00000E+00        -0.56930E+08
 
   -0.55477E+08         0.26014E+06         0.00000E+00
    0.26014E+06        -0.60802E+08         0.00000E+00
    0.00000E+00         0.00000E+00        -0.56948E+08
 
   -0.55645E+08         0.80455E+06         0.00000E+00
    0.80455E+06        -0.60883E+08         0.00000E+00
    0.00000E+00         0.00000E+00        -0.56964E+08
 
   -0.55831E+08         0.14500E+07         0.00000E+00
    0.14500E+07        -0.60932E+08         0.00000E+00
    0.00000E+00         0.00000E+00        -0.56980E+08
 
   -0.56048E+08         0.21791E+07         0.00000E+00
    0.21791E+07        -0.60941E+08         0.00000E+00
    0.00000E+00         0.00000E+00        -0.56999E+08
 
   -0.56302E+08         0.29698E+07         0.00000E+00
    0.29698E+07        -0.60906E+08         0.00000E+00
    0.00000E+00         0.00000E+00        -0.57023E+08
 
   -0.56597E+08         0.37953E+07         0.00000E+00
    0.37953E+07        -0.60826E+08         0.00000E+00
    0.00000E+00         0.00000E+00        -0.57052E+08
 
   -0.56930E+08         0.46246E+07         0.00000E+00
    0.46246E+07        -0.60703E+08         0.00000E+00
    0.00000E+00         0.00000E+00        -0.57087E+08
 
   -0.53238E+08        -0.13479E+06         0.00000E+00
   -0.13479E+06        -0.60012E+08         0.00000E+00
    0.00000E+00         0.00000E+00        -0.55946E+08
 
   -0.53786E+08        -0.40902E+06         0.00000E+00
   -0.40902E+06        -0.60065E+08         0.00000E+00
    0.00000E+00         0.00000E+00        -0.56054E+08
 
   -0.54199E+08        -0.64899E+06         0.00000E+00
   -0.64899E+06        -0.60164E+08         0.00000E+00
    0.00000E+00         0.00000E+00        -0.56134E+08
 
   -0.54495E+08        -0.81544E+06         0.00000E+00
   -0.81544E+06        -0.60302E+08         0.00000E+00
    0.00000E+00         0.00000E+00        -0.56188E+08
 
   -0.54694E+08        -0.87981E+06         0.00000E+00
   -0.87981E+06        -0.60467E+08         0.00000E+00
    0.00000E+00         0.00000E+00        -0.56221E+08
 
   -0.54817E+08        -0.82322E+06         0.00000E+00
   -0.82322E+06        -0.60647E+08         0.00000E+00
    0.00000E+00         0.00000E+00        -0.56235E+08
 
   -0.54890E+08        -0.63526E+06         0.00000E+00
   -0.63526E+06        -0.60830E+08         0.00000E+00
    0.00000E+00         0.00000E+00        -0.56237E+08
 
   -0.54935E+08        -0.31280E+06         0.00000E+00
   -0.31280E+06        -0.61005E+08         0.00000E+00
    0.00000E+00         0.00000E+00        -0.56230E+08
 
   -0.54974E+08         0.14107E+06         0.00000E+00
    0.14107E+06        -0.61160E+08         0.00000E+00
    0.00000E+00         0.00000E+00        -0.56218E+08
 
   -0.55030E+08         0.71772E+06         0.00000E+00
    0.71772E+06        -0.61285E+08         0.00000E+00
    0.00000E+00         0.00000E+00        -0.56207E+08
 
   -0.55120E+08         0.14033E+07         0.00000E+00
    0.14033E+07        -0.61370E+08         0.00000E+00
    0.00000E+00         0.00000E+00        -0.56199E+08
 
   -0.55261E+08         0.21790E+07         0.00000E+00
    0.21790E+07        -0.61408E+08         0.00000E+00
    0.00000E+00         0.00000E+00        -0.56199E+08
 
   -0.55465E+08         0.30203E+07         0.00000E+00
    0.30203E+07        -0.61393E+08         0.00000E+00
    0.00000E+00         0.00000E+00        -0.56208E+08
 
   -0.55741E+08         0.38976E+07         0.00000E+00
    0.38976E+07        -0.61320E+08         0.00000E+00
    0.00000E+00         0.00000E+00        -0.56229E+08
 
   -0.56090E+08         0.47760E+07         0.00000E+00
    0.47760E+07        -0.61189E+08         0.00000E+00
    0.00000E+00         0.00000E+00        -0.56262E+08
 
   -0.53542E+08        -0.16742E+06         0.00000E+00
   -0.16742E+06        -0.60017E+08         0.00000E+00
    0.00000E+00         0.00000E+00        -0.55375E+08
 
   -0.54076E+08        -0.50122E+06         0.00000E+00
   -0.50122E+06        -0.60090E+08         0.00000E+00
    0.00000E+00         0.00000E+00        -0.55480E+08
 
   -0.54428E+08        -0.79056E+06         0.00000E+00
   -0.79056E+06        -0.60226E+08         0.00000E+00
    0.00000E+00         0.00000E+00        -0.55547E+08
 
   -0.54629E+08        -0.99393E+06         0.00000E+00
   -0.99393E+06        -0.60409E+08         0.00000E+00
    0.00000E+00         0.00000E+00        -0.55580E+08
 
   -0.54708E+08        -0.10816E+07         0.00000E+00
   -0.10816E+07        -0.60626E+08         0.00000E+00
    0.00000E+00         0.00000E+00        -0.55585E+08
 
   -0.54697E+08        -0.10346E+07         0.00000E+00
   -0.10346E+07        -0.60859E+08         0.00000E+00
    0.00000E+00         0.00000E+00        -0.55568E+08
 
   -0.54630E+08        -0.84310E+06         0.00000E+00
   -0.84310E+06        -0.61096E+08         0.00000E+00
    0.00000E+00         0.00000E+00        -0.55536E+08
 
   -0.54535E+08        -0.50476E+06         0.00000E+00
   -0.50476E+06        -0.61321E+08         0.00000E+00
    0.00000E+00         0.00000E+00        -0.55495E+08
 
   -0.54442E+08        -0.23719E+05         0.00000E+00
   -0.23719E+05        -0.61524E+08         0.00000E+00
    0.00000E+00         0.00000E+00        -0.55450E+08
 
   -0.54375E+08         0.59048E+06         0.00000E+00
    0.59048E+06        -0.61691E+08         0.00000E+00
    0.00000E+00         0.00000E+00        -0.55407E+08
 
   -0.54361E+08         0.13231E+07         0.00000E+00
    0.13231E+07        -0.61813E+08         0.00000E+00
    0.00000E+00         0.00000E+00        -0.55372E+08
 
   -0.54419E+08         0.21541E+07         0.00000E+00
    0.21541E+07        -0.61881E+08         0.00000E+00
    0.00000E+00         0.00000E+00        -0.55349E+08
 
   -0.54570E+08         0.30573E+07         0.00000E+00
    0.30573E+07        -0.61884E+08         0.00000E+00
    0.00000E+00         0.00000E+00        -0.55342E+08
 
   -0.54825E+08         0.40005E+07         0.00000E+00
    0.40005E+07        -0.61817E+08         0.00000E+00
    0.00000E+00         0.00000E+00        -0.55353E+08
 
   -0.55194E+08         0.49446E+07         0.00000E+00
    0.49446E+07        -0.61677E+08         0.00000E+00
    0.00000E+00         0.00000E+00        -0.55385E+08
 
   -0.53921E+08        -0.21146E+06         0.00000E+00
   -0.21146E+06        -0.60023E+08         0.00000E+00
    0.00000E+00         0.00000E+00        -0.54791E+08
 
   -0.54428E+08        -0.62322E+06         0.00000E+00
   -0.62322E+06        -0.60117E+08         0.00000E+00
    0.00000E+00         0.00000E+00        -0.54889E+08
 
   -0.54706E+08        -0.97455E+06         0.00000E+00
   -0.97455E+06        -0.60288E+08         0.00000E+00
    0.00000E+00         0.00000E+00        -0.54939E+08
 
   -0.54795E+08        -0.12223E+07         0.00000E+00
   -0.12223E+07        -0.60518E+08         0.00000E+00
    0.00000E+00         0.00000E+00        -0.54946E+08
 
   -0.54739E+08        -0.13365E+07         0.00000E+00
   -0.13365E+07        -0.60786E+08         0.00000E+00
    0.00000E+00         0.00000E+00        -0.54918E+08
 
   -0.54580E+08        -0.12991E+07         0.00000E+00
   -0.12991E+07        -0.61072E+08         0.00000E+00
    0.00000E+00         0.00000E+00        -0.54864E+08
 
   -0.54359E+08        -0.11020E+07         0.00000E+00
   -0.11020E+07        -0.61358E+08         0.00000E+00
    0.00000E+00         0.00000E+00        -0.54792E+08
 
   -0.54112E+08        -0.74462E+06         0.00000E+00
   -0.74462E+06        -0.61631E+08         0.00000E+00
    0.00000E+00         0.00000E+00        -0.54711E+08
 
   -0.53874E+08        -0.23242E+06         0.00000E+00
   -0.23242E+06        -0.61877E+08         0.00000E+00
    0.00000E+00         0.00000E+00        -0.54627E+08
 
   -0.53676E+08         0.42418E+06         0.00000E+00
    0.42418E+06        -0.62085E+08         0.00000E+00
    0.00000E+00         0.00000E+00        -0.54549E+08
 
   -0.53547E+08         0.12100E+07         0.00000E+00
    0.12100E+07        -0.62242E+08         0.00000E+00
    0.00000E+00         0.00000E+00        -0.54482E+08
 
   -0.53515E+08         0.21046E+07         0.00000E+00
    0.21046E+07        -0.62337E+08         0.00000E+00
    0.00000E+00         0.00000E+00        -0.54433E+08
 
   -0.53603E+08         0.30810E+07         0.00000E+00
    0.30810E+07        -0.62360E+08         0.00000E+00
    0.00000E+00         0.00000E+00        -0.54407E+08
 
   -0.53835E+08         0.41049E+07         0.00000E+00
    0.41049E+07        -0.62299E+08         0.00000E+00
    0.00000E+00         0.00000E+00        -0.54407E+08
 
   -0.54225E+08         0.51330E+07         0.00000E+00
    0.51330E+07        -0.62147E+08         0.00000E+00
    0.00000E+00         0.00000E+00        -0.54437E+08
 
   -0.54395E+08        -0.26723E+06         0.00000E+00
   -0.26723E+06        -0.60028E+08         0.00000E+00
    0.00000E+00         0.00000E+00        -0.54187E+08
 
   -0.54858E+08        -0.77561E+06         0.00000E+00
   -0.77561E+06        -0.60143E+08         0.00000E+00
    0.00000E+00         0.00000E+00        -0.54275E+08
 
   -0.55041E+08        -0.12011E+07         0.00000E+00
   -0.12011E+07        -0.60352E+08         0.00000E+00
    0.00000E+00         0.00000E+00        -0.54301E+08
 
   -0.54998E+08        -0.14995E+07         0.00000E+00
   -0.14995E+07        -0.60627E+08         0.00000E+00
    0.00000E+00         0.00000E+00        -0.54275E+08
 
   -0.54788E+08        -0.16419E+07         0.00000E+00
   -0.16419E+07        -0.60943E+08         0.00000E+00
    0.00000E+00         0.00000E+00        -0.54207E+08
 
   -0.54463E+08        -0.16127E+07         0.00000E+00
   -0.16127E+07        -0.61275E+08         0.00000E+00
    0.00000E+00         0.00000E+00        -0.54109E+08
 
   -0.54073E+08        -0.14070E+07         0.00000E+00
   -0.14070E+07        -0.61606E+08         0.00000E+00
    0.00000E+00         0.00000E+00        -0.53990E+08
 
   -0.53662E+08        -0.10270E+07         0.00000E+00
   -0.10270E+07        -0.61919E+08         0.00000E+00
    0.00000E+00         0.00000E+00        -0.53862E+08
 
   -0.53268E+08        -0.48016E+06         0.00000E+00
   -0.48016E+06        -0.62202E+08         0.00000E+00
    0.00000E+00         0.00000E+00        -0.53733E+08
 
   -0.52927E+08         0.22244E+06         0.00000E+00
    0.22244E+06        -0.62443E+08         0.00000E+00
    0.00000E+00         0.00000E+00        -0.53613E+08
 
   -0.52672E+08         0.10660E+07         0.00000E+00
    0.10660E+07        -0.62631E+08         0.00000E+00
    0.00000E+00         0.00000E+00        -0.53509E+08
 
   -0.52537E+08         0.20310E+07         0.00000E+00
    0.20310E+07        -0.62753E+08         0.00000E+00
    0.00000E+00         0.00000E+00        -0.53430E+08
 
   -0.52554E+08         0.30910E+07         0.00000E+00
    0.30910E+07        -0.62795E+08         0.00000E+00
    0.00000E+00         0.00000E+00        -0.53381E+08
 
   -0.52753E+08         0.42104E+07         0.00000E+00
    0.42104E+07        -0.62741E+08         0.00000E+00
    0.00000E+00         0.00000E+00        -0.53368E+08
 
   -0.53160E+08         0.53426E+07         0.00000E+00
    0.53426E+07        -0.62579E+08         0.00000E+00
    0.00000E+00         0.00000E+00        -0.53395E+08
 
   -0.54988E+08        -0.33500E+06         0.00000E+00
   -0.33500E+06        -0.60034E+08         0.00000E+00
    0.00000E+00         0.00000E+00        -0.53556E+08
 
   -0.55382E+08        -0.95862E+06         0.00000E+00
   -0.95862E+06        -0.60171E+08         0.00000E+00
    0.00000E+00         0.00000E+00        -0.53628E+08
 
   -0.55442E+08        -0.14694E+07         0.00000E+00
   -0.14694E+07        -0.60415E+08         0.00000E+00
    0.00000E+00         0.00000E+00        -0.53623E+08
 
   -0.55242E+08        -0.18227E+07         0.00000E+00
   -0.18227E+07        -0.60733E+08         0.00000E+00
    0.00000E+00         0.00000E+00        -0.53555E+08
 
   -0.54853E+08        -0.19922E+07         0.00000E+00
   -0.19922E+07        -0.61090E+08         0.00000E+00
    0.00000E+00         0.00000E+00        -0.53438E+08
 
   -0.54343E+08        -0.19674E+07         0.00000E+00
   -0.19674E+07        -0.61461E+08         0.00000E+00
    0.00000E+00         0.00000E+00        -0.53286E+08
 
   -0.53770E+08        -0.17484E+07         0.00000E+00
   -0.17484E+07        -0.61824E+08         0.00000E+00
    0.00000E+00         0.00000E+00        -0.53112E+08
 
   -0.53181E+08        -0.13421E+07         0.00000E+00
   -0.13421E+07        -0.62165E+08         0.00000E+00
    0.00000E+00         0.00000E+00        -0.52929E+08
 
   -0.52620E+08        -0.75819E+06         0.00000E+00
   -0.75819E+06        -0.62472E+08         0.00000E+00
    0.00000E+00         0.00000E+00        -0.52747E+08
 
   -0.52125E+08        -0.81607E+04         0.00000E+00
   -0.81607E+04        -0.62737E+08         0.00000E+00
    0.00000E+00         0.00000E+00        -0.52578E+08
 
   -0.51732E+08         0.89489E+06         0.00000E+00
    0.89489E+06        -0.62950E+08         0.00000E+00
    0.00000E+00         0.00000E+00        -0.52432E+08
 
   -0.51479E+08         0.19341E+07         0.00000E+00
    0.19341E+07        -0.63096E+08         0.00000E+00
    0.00000E+00         0.00000E+00        -0.52316E+08
 
   -0.51409E+08         0.30857E+07         0.00000E+00
    0.30857E+07        -0.63158E+08         0.00000E+00
    0.00000E+00         0.00000E+00        -0.52239E+08
 
   -0.51562E+08         0.43150E+07         0.00000E+00
    0.43150E+07        -0.63114E+08         0.00000E+00
    0.00000E+00         0.00000E+00        -0.52209E+08
 
   -0.51978E+08         0.55729E+07         0.00000E+00
    0.55729E+07        -0.62944E+08         0.00000E+00
    0.00000E+00         0.00000E+00        -0.52231E+08
 
   -0.55720E+08        -0.41508E+06         0.00000E+00
   -0.41508E+06        -0.60039E+08         0.00000E+00
    0.00000E+00         0.00000E+00        -0.52891E+08
 
   -0.56013E+08        -0.11723E+07         0.00000E+00
   -0.11723E+07        -0.60198E+08         0.00000E+00
    0.00000E+00         0.00000E+00        -0.52938E+08
 
   -0.55916E+08        -0.17774E+07         0.00000E+00
   -0.17774E+07        -0.60478E+08         0.00000E+00
    0.00000E+00         0.00000E+00        -0.52892E+08
 
   -0.55525E+08        -0.21860E+07         0.00000E+00
   -0.21860E+07        -0.60832E+08         0.00000E+00
    0.00000E+00         0.00000E+00        -0.52771E+08
 
   -0.54931E+08        -0.23776E+07         0.00000E+00
   -0.23776E+07        -0.61222E+08         0.00000E+00
    0.00000E+00         0.00000E+00        -0.52593E+08
 
   -0.54215E+08        -0.23497E+07         0.00000E+00
   -0.23497E+07        -0.61617E+08         0.00000E+00
    0.00000E+00         0.00000E+00        -0.52376E+08
 
   -0.53443E+08        -0.21109E+07         0.00000E+00
   -0.21109E+07        -0.61994E+08         0.00000E+00
    0.00000E+00         0.00000E+00        -0.52136E+08
 
   -0.52668E+08        -0.16742E+07         0.00000E+00
   -0.16742E+07        -0.62343E+08         0.00000E+00
    0.00000E+00         0.00000E+00        -0.51888E+08
 
   -0.51931E+08        -0.10528E+07         0.00000E+00
   -0.10528E+07        -0.62658E+08         0.00000E+00
    0.00000E+00         0.00000E+00        -0.51645E+08
 
   -0.51271E+08        -0.25741E+06         0.00000E+00
   -0.25741E+06        -0.62933E+08         0.00000E+00
    0.00000E+00         0.00000E+00        -0.51420E+08
 
   -0.50726E+08         0.70218E+06         0.00000E+00
    0.70218E+06        -0.63160E+08         0.00000E+00
    0.00000E+00         0.00000E+00        -0.51223E+08
 
   -0.50338E+08         0.18147E+07         0.00000E+00
    0.18147E+07        -0.63326E+08         0.00000E+00
    0.00000E+00         0.00000E+00        -0.51064E+08
 
   -0.50159E+08         0.30621E+07         0.00000E+00
    0.30621E+07        -0.63410E+08         0.00000E+00
    0.00000E+00         0.00000E+00        -0.50954E+08
 
   -0.50244E+08         0.44137E+07         0.00000E+00
    0.44137E+07        -0.63382E+08         0.00000E+00
    0.00000E+00         0.00000E+00        -0.50902E+08
 
   -0.50650E+08         0.58199E+07         0.00000E+00
    0.58199E+07        -0.63210E+08         0.00000E+00
    0.00000E+00         0.00000E+00        -0.50916E+08
 
   -0.56616E+08        -0.50805E+06         0.00000E+00
   -0.50805E+06        -0.60046E+08         0.00000E+00
    0.00000E+00         0.00000E+00        -0.52181E+08
 
   -0.56764E+08        -0.14166E+07         0.00000E+00
   -0.14166E+07        -0.60227E+08         0.00000E+00
    0.00000E+00         0.00000E+00        -0.52192E+08
 
   -0.56464E+08        -0.21215E+07         0.00000E+00
   -0.21215E+07        -0.60539E+08         0.00000E+00
    0.00000E+00         0.00000E+00        -0.52091E+08
 
   -0.55841E+08        -0.25805E+07         0.00000E+00
   -0.25805E+07        -0.60923E+08         0.00000E+00
    0.00000E+00         0.00000E+00        -0.51902E+08
 
   -0.55011E+08        -0.27827E+07         0.00000E+00
   -0.27827E+07        -0.61330E+08         0.00000E+00
    0.00000E+00         0.00000E+00        -0.51648E+08
 
   -0.54069E+08        -0.27393E+07         0.00000E+00
   -0.27393E+07        -0.61726E+08         0.00000E+00
    0.00000E+00         0.00000E+00        -0.51353E+08
 
   -0.53088E+08        -0.24713E+07         0.00000E+00
   -0.24713E+07        -0.62091E+08         0.00000E+00
    0.00000E+00         0.00000E+00        -0.51035E+08
 
   -0.52120E+08        -0.20007E+07         0.00000E+00
   -0.20007E+07        -0.62422E+08         0.00000E+00
    0.00000E+00         0.00000E+00        -0.50712E+08
 
   -0.51203E+08        -0.13440E+07         0.00000E+00
   -0.13440E+07        -0.62718E+08         0.00000E+00
    0.00000E+00         0.00000E+00        -0.50399E+08
 
   -0.50371E+08        -0.51063E+06         0.00000E+00
   -0.51063E+06        -0.62982E+08         0.00000E+00
    0.00000E+00         0.00000E+00        -0.50109E+08
 
   -0.49660E+08         0.49589E+06         0.00000E+00
    0.49589E+06        -0.63211E+08         0.00000E+00
    0.00000E+00         0.00000E+00        -0.49854E+08
 
   -0.49116E+08         0.16735E+07         0.00000E+00
    0.16735E+07        -0.63393E+08         0.00000E+00
    0.00000E+00         0.00000E+00        -0.49645E+08
 
   -0.48798E+08         0.30147E+07         0.00000E+00
    0.30147E+07        -0.63501E+08         0.00000E+00
    0.00000E+00         0.00000E+00        -0.49494E+08
 
   -0.48782E+08         0.44974E+07         0.00000E+00
    0.44974E+07        -0.63498E+08         0.00000E+00
    0.00000E+00         0.00000E+00        -0.49414E+08
 
   -0.49148E+08         0.60752E+07         0.00000E+00
    0.60752E+07        -0.63337E+08         0.00000E+00
    0.00000E+00         0.00000E+00        -0.49415E+08
 
   -0.57700E+08        -0.61512E+06         0.00000E+00
   -0.61512E+06        -0.60053E+08         0.00000E+00
    0.00000E+00         0.00000E+00        -0.51411E+08
 
   -0.57646E+08        -0.16921E+07         0.00000E+00
   -0.16921E+07        -0.60258E+08         0.00000E+00
    0.00000E+00         0.00000E+00        -0.51371E+08
 
   -0.57083E+08        -0.24964E+07         0.00000E+00
   -0.24964E+07        -0.60600E+08         0.00000E+00
    0.00000E+00         0.00000E+00        -0.51198E+08
 
   -0.56178E+08        -0.29914E+07         0.00000E+00
   -0.29914E+07        -0.61001E+08         0.00000E+00
    0.00000E+00         0.00000E+00        -0.50921E+08
 
   -0.55076E+08        -0.31837E+07         0.00000E+00
   -0.31837E+07        -0.61402E+08         0.00000E+00
    0.00000E+00         0.00000E+00        -0.50574E+08
 
   -0.53891E+08        -0.31059E+07         0.00000E+00
   -0.31059E+07        -0.61766E+08         0.00000E+00
    0.00000E+00         0.00000E+00        -0.50184E+08
 
   -0.52696E+08        -0.27972E+07         0.00000E+00
   -0.27972E+07        -0.62082E+08         0.00000E+00
    0.00000E+00         0.00000E+00        -0.49776E+08
 
   -0.51538E+08        -0.22902E+07         0.00000E+00
   -0.22902E+07        -0.62356E+08         0.00000E+00
    0.00000E+00         0.00000E+00        -0.49368E+08
 
   -0.50444E+08        -0.16051E+07         0.00000E+00
   -0.16051E+07        -0.62601E+08         0.00000E+00
    0.00000E+00         0.00000E+00        -0.48976E+08
 
   -0.49438E+08        -0.74800E+06         0.00000E+00
   -0.74800E+06        -0.62828E+08         0.00000E+00
    0.00000E+00         0.00000E+00        -0.48612E+08
 
   -0.48549E+08         0.28672E+06         0.00000E+00
    0.28672E+06        -0.63042E+08         0.00000E+00
    0.00000E+00         0.00000E+00        -0.48290E+08
 
   -0.47823E+08         0.15111E+07         0.00000E+00
    0.15111E+07        -0.63232E+08         0.00000E+00
    0.00000E+00         0.00000E+00        -0.48022E+08
 
   -0.47329E+08         0.29346E+07         0.00000E+00
    0.29346E+07        -0.63370E+08         0.00000E+00
    0.00000E+00         0.00000E+00        -0.47822E+08
 
   -0.47162E+08         0.45510E+07         0.00000E+00
    0.45510E+07        -0.63408E+08         0.00000E+00
    0.00000E+00         0.00000E+00        -0.47705E+08
 
   -0.47438E+08         0.63230E+07         0.00000E+00
    0.63230E+07        -0.63277E+08         0.00000E+00
    0.00000E+00         0.00000E+00        -0.47686E+08
 
   -0.58996E+08        -0.73869E+06         0.00000E+00
   -0.73869E+06        -0.60061E+08         0.00000E+00
    0.00000E+00         0.00000E+00        -0.50562E+08
 
   -0.58663E+08        -0.19999E+07         0.00000E+00
   -0.19999E+07        -0.60294E+08         0.00000E+00
    0.00000E+00         0.00000E+00        -0.50452E+08
 
   -0.57758E+08        -0.28933E+07         0.00000E+00
   -0.28933E+07        -0.60661E+08         0.00000E+00
    0.00000E+00         0.00000E+00        -0.50180E+08
 
   -0.56509E+08        -0.33954E+07         0.00000E+00
   -0.33954E+07        -0.61058E+08         0.00000E+00
    0.00000E+00         0.00000E+00        -0.49791E+08
 
   -0.55102E+08        -0.35448E+07         0.00000E+00
   -0.35448E+07        -0.61415E+08         0.00000E+00
    0.00000E+00         0.00000E+00        -0.49327E+08
 
   -0.53664E+08        -0.34069E+07         0.00000E+00
   -0.34069E+07        -0.61699E+08         0.00000E+00
    0.00000E+00         0.00000E+00        -0.48826E+08
 
   -0.52263E+08        -0.30446E+07         0.00000E+00
   -0.30446E+07        -0.61917E+08         0.00000E+00
    0.00000E+00         0.00000E+00        -0.48314E+08
 
   -0.50928E+08        -0.25022E+07         0.00000E+00
   -0.25022E+07        -0.62088E+08         0.00000E+00
    0.00000E+00         0.00000E+00        -0.47811E+08
 
   -0.49669E+08        -0.18020E+07         0.00000E+00
   -0.18020E+07        -0.62240E+08         0.00000E+00
    0.00000E+00         0.00000E+00        -0.47332E+08
 
   -0.48494E+08        -0.94441E+06         0.00000E+00
   -0.94441E+06        -0.62397E+08         0.00000E+00
    0.00000E+00         0.00000E+00        -0.46889E+08
 
   -0.47418E+08         0.88400E+05         0.00000E+00
    0.88400E+05        -0.62573E+08         0.00000E+00
    0.00000E+00         0.00000E+00        -0.46492E+08
 
   -0.46482E+08         0.13277E+07         0.00000E+00
    0.13277E+07        -0.62764E+08         0.00000E+00
    0.00000E+00         0.00000E+00        -0.46156E+08
 
   -0.45761E+08         0.28082E+07         0.00000E+00
    0.28082E+07        -0.62941E+08         0.00000E+00
    0.00000E+00         0.00000E+00        -0.45896E+08
 
   -0.45376E+08         0.45506E+07         0.00000E+00
    0.45506E+07        -0.63042E+08         0.00000E+00
    0.00000E+00         0.00000E+00        -0.45730E+08
 
   -0.45487E+08         0.65371E+07         0.00000E+00
    0.65371E+07        -0.62974E+08         0.00000E+00
    0.00000E+00         0.00000E+00        -0.45681E+08
 
   -0.60536E+08        -0.88340E+06         0.00000E+00
   -0.88340E+06        -0.60073E+08         0.00000E+00
    0.00000E+00         0.00000E+00        -0.49607E+08
 
   -0.59813E+08        -0.23418E+07         0.00000E+00
   -0.23418E+07        -0.60337E+08         0.00000E+00
    0.00000E+00         0.00000E+00        -0.49397E+08
 
   -0.58457E+08        -0.32956E+07         0.00000E+00
   -0.32956E+07        -0.60719E+08         0.00000E+00
    0.00000E+00         0.00000E+00        -0.48991E+08
 
   -0.56792E+08        -0.37536E+07         0.00000E+00
   -0.37536E+07        -0.61075E+08         0.00000E+00
    0.00000E+00         0.00000E+00        -0.48454E+08
 
   -0.55053E+08        -0.38116E+07         0.00000E+00
   -0.38116E+07        -0.61328E+08         0.00000E+00
    0.00000E+00         0.00000E+00        -0.47847E+08
 
   -0.53368E+08        -0.35835E+07         0.00000E+00
   -0.35835E+07        -0.61466E+08         0.00000E+00
    0.00000E+00         0.00000E+00        -0.47216E+08
 
   -0.51783E+08        -0.31582E+07         0.00000E+00
   -0.31582E+07        -0.61520E+08         0.00000E+00
    0.00000E+00         0.00000E+00        -0.46589E+08
 
   -0.50299E+08        -0.25888E+07         0.00000E+00
   -0.25888E+07        -0.61532E+08         0.00000E+00
    0.00000E+00         0.00000E+00        -0.45985E+08
 
   -0.48901E+08        -0.18952E+07         0.00000E+00
   -0.18952E+07        -0.61547E+08         0.00000E+00
    0.00000E+00         0.00000E+00        -0.45416E+08
 
   -0.47571E+08        -0.10702E+07         0.00000E+00
   -0.10702E+07        -0.61599E+08         0.00000E+00
    0.00000E+00         0.00000E+00        -0.44889E+08
 
   -0.46306E+08        -0.81922E+05         0.00000E+00
   -0.81922E+05        -0.61712E+08         0.00000E+00
    0.00000E+00         0.00000E+00        -0.44413E+08
 
   -0.45132E+08         0.11239E+07         0.00000E+00
    0.11239E+07        -0.61894E+08         0.00000E+00
    0.00000E+00         0.00000E+00        -0.44000E+08
 
   -0.44123E+08         0.26166E+07         0.00000E+00
    0.26166E+07        -0.62119E+08         0.00000E+00
    0.00000E+00         0.00000E+00        -0.43667E+08
 
   -0.43424E+08         0.44604E+07         0.00000E+00
    0.44604E+07        -0.62316E+08         0.00000E+00
    0.00000E+00         0.00000E+00        -0.43438E+08
 
   -0.43255E+08         0.66756E+07         0.00000E+00
    0.66756E+07        -0.62358E+08         0.00000E+00
    0.00000E+00         0.00000E+00        -0.43344E+08
 
   -0.62358E+08        -0.10581E+07         0.00000E+00
   -0.10581E+07        -0.60091E+08         0.00000E+00
    0.00000E+00         0.00000E+00        -0.48504E+08
 
   -0.61076E+08        -0.27188E+07         0.00000E+00
   -0.27188E+07        -0.60394E+08         0.00000E+00
    0.00000E+00         0.00000E+00        -0.48148E+08
 
   -0.59119E+08        -0.36683E+07         0.00000E+00
   -0.36683E+07        -0.60764E+08         0.00000E+00
    0.00000E+00         0.00000E+00        -0.47551E+08
 
   -0.56962E+08        -0.39966E+07         0.00000E+00
   -0.39966E+07        -0.61004E+08         0.00000E+00
    0.00000E+00         0.00000E+00        -0.46820E+08
 
   -0.54886E+08        -0.39022E+07         0.00000E+00
   -0.39022E+07        -0.61055E+08         0.00000E+00
    0.00000E+00         0.00000E+00        -0.46040E+08
 
   -0.52988E+08        -0.35595E+07         0.00000E+00
   -0.35595E+07        -0.60955E+08         0.00000E+00
    0.00000E+00         0.00000E+00        -0.45263E+08
 
   -0.51265E+08        -0.30756E+07         0.00000E+00
   -0.30756E+07        -0.60773E+08         0.00000E+00
    0.00000E+00         0.00000E+00        -0.44516E+08
 
   -0.49675E+08        -0.25003E+07         0.00000E+00
   -0.25003E+07        -0.60574E+08         0.00000E+00
    0.00000E+00         0.00000E+00        -0.43813E+08
 
   -0.48172E+08        -0.18453E+07         0.00000E+00
   -0.18453E+07        -0.60409E+08         0.00000E+00
    0.00000E+00         0.00000E+00        -0.43156E+08
 
   -0.46712E+08        -0.10943E+07         0.00000E+00
   -0.10943E+07        -0.60323E+08         0.00000E+00
    0.00000E+00         0.00000E+00        -0.42549E+08
 
   -0.45266E+08        -0.20350E+06         0.00000E+00
   -0.20350E+06        -0.60347E+08         0.00000E+00
    0.00000E+00         0.00000E+00        -0.41993E+08
 
   -0.43832E+08         0.90297E+06         0.00000E+00
    0.90297E+06        -0.60505E+08         0.00000E+00
    0.00000E+00         0.00000E+00        -0.41498E+08
 
   -0.42465E+08         0.23367E+07         0.00000E+00
    0.23367E+07        -0.60786E+08         0.00000E+00
    0.00000E+00         0.00000E+00        -0.41080E+08
 
   -0.41325E+08         0.42288E+07         0.00000E+00
    0.42288E+07        -0.61122E+08         0.00000E+00
    0.00000E+00         0.00000E+00        -0.40769E+08
 
   -0.40705E+08         0.66726E+07         0.00000E+00
    0.66726E+07        -0.61348E+08         0.00000E+00
    0.00000E+00         0.00000E+00        -0.40607E+08
 
   -0.64509E+08        -0.12809E+07         0.00000E+00
   -0.12809E+07        -0.60124E+08         0.00000E+00
    0.00000E+00         0.00000E+00        -0.47184E+08
 
   -0.62391E+08        -0.31208E+07         0.00000E+00
   -0.31208E+07        -0.60467E+08         0.00000E+00
    0.00000E+00         0.00000E+00        -0.46599E+08
 
   -0.59629E+08        -0.39273E+07         0.00000E+00
   -0.39273E+07        -0.60745E+08         0.00000E+00
    0.00000E+00         0.00000E+00        -0.45723E+08
 
   -0.56934E+08        -0.39983E+07         0.00000E+00
   -0.39983E+07        -0.60717E+08         0.00000E+00
    0.00000E+00         0.00000E+00        -0.44736E+08
 
   -0.54570E+08        -0.37000E+07         0.00000E+00
   -0.37000E+07        -0.60415E+08         0.00000E+00
    0.00000E+00         0.00000E+00        -0.43755E+08
 
   -0.52531E+08        -0.32501E+07         0.00000E+00
   -0.32501E+07        -0.59972E+08         0.00000E+00
    0.00000E+00         0.00000E+00        -0.42830E+08
 
   -0.50732E+08        -0.27398E+07         0.00000E+00
   -0.27398E+07        -0.59491E+08         0.00000E+00
    0.00000E+00         0.00000E+00        -0.41973E+08
 
   -0.49088E+08        -0.21983E+07         0.00000E+00
   -0.21983E+07        -0.59045E+08         0.00000E+00
    0.00000E+00         0.00000E+00        -0.41183E+08
 
   -0.47521E+08        -0.16234E+07         0.00000E+00
   -0.16234E+07        -0.58680E+08         0.00000E+00
    0.00000E+00         0.00000E+00        -0.40455E+08
 
   -0.45965E+08        -0.99107E+06         0.00000E+00
   -0.99107E+06        -0.58437E+08         0.00000E+00
    0.00000E+00         0.00000E+00        -0.39781E+08
 
   -0.44362E+08        -0.25308E+06         0.00000E+00
   -0.25308E+06        -0.58353E+08         0.00000E+00
    0.00000E+00         0.00000E+00        -0.39156E+08
 
   -0.42664E+08         0.67612E+06         0.00000E+00
    0.67612E+06        -0.58465E+08         0.00000E+00
    0.00000E+00         0.00000E+00        -0.38581E+08
 
   -0.40876E+08         0.19468E+07         0.00000E+00
    0.19468E+07        -0.58801E+08         0.00000E+00
    0.00000E+00         0.00000E+00        -0.38068E+08
 
   -0.39132E+08         0.37848E+07         0.00000E+00
    0.37848E+07        -0.59322E+08         0.00000E+00
    0.00000E+00         0.00000E+00        -0.37650E+08
 
   -0.37803E+08         0.64244E+07         0.00000E+00
    0.64244E+07        -0.59839E+08         0.00000E+00
    0.00000E+00         0.00000E+00        -0.37390E+08
 
   -0.67051E+08        -0.15899E+07         0.00000E+00
   -0.15899E+07        -0.60181E+08         0.00000E+00
    0.00000E+00         0.00000E+00        -0.45508E+08
 
   -0.63590E+08        -0.34837E+07         0.00000E+00
   -0.34837E+07        -0.60542E+08         0.00000E+00
    0.00000E+00         0.00000E+00        -0.44532E+08
 
   -0.59797E+08        -0.38536E+07         0.00000E+00
   -0.38536E+07        -0.60472E+08         0.00000E+00
    0.00000E+00         0.00000E+00        -0.43226E+08
 
   -0.56640E+08        -0.35449E+07         0.00000E+00
   -0.35449E+07        -0.59860E+08         0.00000E+00
    0.00000E+00         0.00000E+00        -0.41922E+08
 
   -0.54127E+08        -0.30756E+07         0.00000E+00
   -0.30756E+07        -0.59032E+08         0.00000E+00
    0.00000E+00         0.00000E+00        -0.40744E+08
 
   -0.52046E+08        -0.25912E+07         0.00000E+00
   -0.25912E+07        -0.58177E+08         0.00000E+00
    0.00000E+00         0.00000E+00        -0.39696E+08
 
   -0.50238E+08        -0.21252E+07         0.00000E+00
   -0.21252E+07        -0.57384E+08         0.00000E+00
    0.00000E+00         0.00000E+00        -0.38763E+08
 
   -0.48585E+08        -0.16760E+07         0.00000E+00
   -0.16760E+07        -0.56702E+08         0.00000E+00
    0.00000E+00         0.00000E+00        -0.37924E+08
 
   -0.46992E+08        -0.12279E+07         0.00000E+00
   -0.12279E+07        -0.56157E+08         0.00000E+00
    0.00000E+00         0.00000E+00        -0.37158E+08
 
   -0.45376E+08        -0.75450E+06         0.00000E+00
   -0.75450E+06        -0.55774E+08         0.00000E+00
    0.00000E+00         0.00000E+00        -0.36451E+08
 
   -0.43651E+08        -0.21364E+06         0.00000E+00
   -0.21364E+06        -0.55583E+08         0.00000E+00
    0.00000E+00         0.00000E+00        -0.35785E+08
 
   -0.41724E+08         0.46965E+06         0.00000E+00
    0.46965E+06        -0.55632E+08         0.00000E+00
    0.00000E+00         0.00000E+00        -0.35151E+08
 
   -0.39494E+08         0.14444E+07         0.00000E+00
    0.14444E+07        -0.55989E+08         0.00000E+00
    0.00000E+00         0.00000E+00        -0.34544E+08
 
   -0.36966E+08         0.30408E+07         0.00000E+00
    0.30408E+07        -0.56731E+08         0.00000E+00
    0.00000E+00         0.00000E+00        -0.33996E+08
 
   -0.34538E+08         0.57625E+07         0.00000E+00
    0.57625E+07        -0.57692E+08         0.00000E+00
    0.00000E+00         0.00000E+00        -0.33588E+08
 
   -0.70005E+08        -0.21011E+07         0.00000E+00
   -0.21011E+07        -0.60419E+08         0.00000E+00
    0.00000E+00         0.00000E+00        -0.43132E+08
 
   -0.64218E+08        -0.33826E+07         0.00000E+00
   -0.33826E+07        -0.60336E+08         0.00000E+00
    0.00000E+00         0.00000E+00        -0.41325E+08
 
   -0.59452E+08        -0.29516E+07         0.00000E+00
   -0.29516E+07        -0.59063E+08         0.00000E+00
    0.00000E+00         0.00000E+00        -0.39391E+08
 
   -0.56174E+08        -0.24224E+07         0.00000E+00
   -0.24224E+07        -0.57577E+08         0.00000E+00
    0.00000E+00         0.00000E+00        -0.37829E+08
 
   -0.53673E+08        -0.19748E+07         0.00000E+00
   -0.19748E+07        -0.56196E+08         0.00000E+00
    0.00000E+00         0.00000E+00        -0.36545E+08
 
   -0.51631E+08        -0.16002E+07         0.00000E+00
   -0.16002E+07        -0.54995E+08         0.00000E+00
    0.00000E+00         0.00000E+00        -0.35468E+08
 
   -0.49855E+08        -0.12771E+07         0.00000E+00
   -0.12771E+07        -0.53986E+08         0.00000E+00
    0.00000E+00         0.00000E+00        -0.34542E+08
 
   -0.48219E+08        -0.98527E+06         0.00000E+00
   -0.98527E+06        -0.53163E+08         0.00000E+00
    0.00000E+00         0.00000E+00        -0.33728E+08
 
   -0.46623E+08        -0.70627E+06         0.00000E+00
   -0.70627E+06        -0.52525E+08         0.00000E+00
    0.00000E+00         0.00000E+00        -0.32994E+08
 
   -0.44976E+08        -0.41985E+06         0.00000E+00
   -0.41985E+06        -0.52075E+08         0.00000E+00
    0.00000E+00         0.00000E+00        -0.32316E+08
 
   -0.43175E+08        -0.98408E+05         0.00000E+00
   -0.98408E+05        -0.51834E+08         0.00000E+00
    0.00000E+00         0.00000E+00        -0.31671E+08
 
   -0.41085E+08         0.30560E+06         0.00000E+00
    0.30560E+06        -0.51842E+08         0.00000E+00
    0.00000E+00         0.00000E+00        -0.31035E+08
 
   -0.38509E+08         0.89143E+06         0.00000E+00
    0.89143E+06        -0.52187E+08         0.00000E+00
    0.00000E+00         0.00000E+00        -0.30385E+08
 
   -0.35102E+08         0.19304E+07         0.00000E+00
    0.19304E+07        -0.53055E+08         0.00000E+00
    0.00000E+00         0.00000E+00        -0.29693E+08
 
   -0.30975E+08         0.43820E+07         0.00000E+00
    0.43820E+07        -0.54704E+08         0.00000E+00
    0.00000E+00         0.00000E+00        -0.29074E+08
 
   -0.72759E+08        -0.20722E+07         0.00000E+00
   -0.20722E+07        -0.58737E+08         0.00000E+00
    0.00000E+00         0.00000E+00        -0.36931E+08
 
   -0.63682E+08        -0.14740E+07         0.00000E+00
   -0.14740E+07        -0.56049E+08         0.00000E+00
    0.00000E+00         0.00000E+00        -0.34166E+08
 
   -0.59015E+08        -0.10048E+07         0.00000E+00
   -0.10048E+07        -0.53718E+08         0.00000E+00
    0.00000E+00         0.00000E+00        -0.32353E+08
 
   -0.55823E+08        -0.76803E+06         0.00000E+00
   -0.76803E+06        -0.51895E+08         0.00000E+00
    0.00000E+00         0.00000E+00        -0.31044E+08
 
   -0.53395E+08        -0.60230E+06         0.00000E+00
   -0.60230E+06        -0.50451E+08         0.00000E+00
    0.00000E+00         0.00000E+00        -0.30030E+08
 
   -0.51400E+08        -0.47544E+06         0.00000E+00
   -0.47544E+06        -0.49299E+08         0.00000E+00
    0.00000E+00         0.00000E+00        -0.29205E+08
 
   -0.49653E+08        -0.37015E+06         0.00000E+00
   -0.37015E+06        -0.48384E+08         0.00000E+00
    0.00000E+00         0.00000E+00        -0.28509E+08
 
   -0.48032E+08        -0.27671E+06         0.00000E+00
   -0.27671E+06        -0.47674E+08         0.00000E+00
    0.00000E+00         0.00000E+00        -0.27903E+08
 
   -0.46439E+08        -0.18784E+06         0.00000E+00
   -0.18784E+06        -0.47152E+08         0.00000E+00
    0.00000E+00         0.00000E+00        -0.27357E+08
 
   -0.44779E+08        -0.96537E+05         0.00000E+00
   -0.96537E+05        -0.46816E+08         0.00000E+00
    0.00000E+00         0.00000E+00        -0.26848E+08
 
   -0.42941E+08         0.63312E+04         0.00000E+00
    0.63312E+04        -0.46678E+08         0.00000E+00
    0.00000E+00         0.00000E+00        -0.26353E+08
 
   -0.40772E+08         0.13595E+06         0.00000E+00
    0.13595E+06        -0.46776E+08         0.00000E+00
    0.00000E+00         0.00000E+00        -0.25845E+08
 
   -0.38009E+08         0.32656E+06         0.00000E+00
    0.32656E+06        -0.47196E+08         0.00000E+00
    0.00000E+00         0.00000E+00        -0.25289E+08
 
   -0.34131E+08         0.65712E+06         0.00000E+00
    0.65712E+06        -0.48145E+08         0.00000E+00
    0.00000E+00         0.00000E+00        -0.24618E+08
 
   -0.27441E+08         0.17391E+07         0.00000E+00
    0.17391E+07        -0.50311E+08         0.00000E+00
    0.00000E+00         0.00000E+00        -0.23650E+08
 
SCALARS stresss double 
LOOKUP_TABLE default
  -57553894.2961407     
  -58790942.8285616     
  -59762593.7615360     
  -60590140.2542080     
  -61319445.2690616     
  -61976112.2392026     
  -62576148.1958371     
  -63130738.4900528     
  -63648599.1107940     
  -64137480.7396610     
  -64605464.3842702     
  -65062579.3710852     
  -65523936.0103195     
  -66016266.8879619     
  -66624045.1592174     
  -57416728.2860064     
  -58401154.3941455     
  -59280809.6429983     
  -60053631.0597982     
  -60745923.0919365     
  -61374720.8254679     
  -61952167.3167937     
  -62487236.8851426     
  -62987131.3635911     
  -63458263.5939136     
  -63907103.8787251     
  -64341143.9194732     
  -64769678.4765548     
  -65207298.4099067     
  -65630483.9362124     
  -57385771.5773758     
  -58171452.2344451     
  -58921692.2127646     
  -59616256.9455739     
  -60254350.5330365     
  -60842657.9302330     
  -61387628.2085258     
  -61894892.2129574     
  -62369302.3906491     
  -62815209.5932032     
  -63236713.0694411     
  -63637635.5059367     
  -64021160.3750740     
  -64382639.7576297     
  -64708753.6563008     
  -57371559.0564706     
  -58011779.9498053     
  -58646659.8904797     
  -59256523.5782712     
  -59832516.2406183     
  -60372774.7837414     
  -60878577.8713624     
  -61352064.7151154     
  -61795510.9748696     
  -62211006.1666940     
  -62600183.6927866     
  -62963743.5617234     
  -63299772.4618238     
  -63602290.2815607     
  -63859144.9689927     
  -57353709.4783262     
  -57882905.6356538     
  -58421975.4014323     
  -58953674.8497176     
  -59467164.7133816     
  -59956756.1482804     
  -60420033.1951388     
  -60856289.7440051     
  -61265514.2960746     
  -61647778.1796095     
  -62002718.0126886     
  -62328832.8633991     
  -62622674.1386102     
  -62877889.3135034     
  -63084978.6640287     
  -57324217.2466724     
  -57767147.2355520     
  -58227838.8246654     
  -58691258.9966196     
  -59146528.5389540     
  -59586469.6342877     
  -60006674.2791794     
  -60404502.8936952     
  -60778246.4073412     
  -61126467.0322223     
  -61447425.4766592     
  -61738526.1749653     
  -61995758.1751341     
  -62213308.1943674     
  -62383472.9280123     
  -57279810.7922497     
  -57655624.1188860     
  -58052818.2256350     
  -58458125.3518984     
  -58861276.5686073     
  -59254763.9339244     
  -59633311.6365658     
  -59993226.2008118     
  -60331759.0680146     
  -60646536.8895697     
  -60935059.4526702     
  -61194252.9100274     
  -61420107.6389453     
  -61607455.5814528     
  -61749975.6721710     
  -57219468.7110702     
  -57543849.5059121     
  -57890256.0884457     
  -58246928.5978666     
  -58604473.5856410     
  -58955666.8734573     
  -59295092.5713244     
  -59618686.8172225     
  -59923256.7480566     
  -60206022.0290059     
  -60464202.3756690     
  -60694667.8440671     
  -60893674.1553776     
  -61056718.3747554     
  -61178544.0074853     
  -57143608.2250939     
  -57429809.5147036     
  -57736331.5884760     
  -58052841.4031050     
  -58370995.5616393     
  -58684235.8185410     
  -58987498.5734541     
  -59276863.9405341     
  -59549180.5858103     
  -59801698.8994950     
  -60031737.3714754     
  -60236402.0676877     
  -60412379.1162357     
  -60555819.4207178     
  -60662330.2652577     
  -57053715.3958738     
  -57313049.2512111     
  -57588985.4632718     
  -57872663.5403132     
  -58156958.5087672     
  -58436263.4658203     
  -58706230.3168717     
  -58963477.2213654     
  -59205281.2354145     
  -59429277.0721582     
  -59633181.2760167     
  -59814558.8479248     
  -59970647.4052684     
  -60098251.6733891     
  -60193716.5175187     
  -56952150.4530556     
  -57194182.1551973     
  -57447298.1477883     
  -57704234.8602759     
  -57959267.6422390     
  -58207986.0833086     
  -58447050.7657470     
  -58673934.1247833     
  -58886655.3707073     
  -59083522.6021008     
  -59262895.6146821     
  -59422981.9235379     
  -59561677.0295676     
  -59676457.9356589     
  -59764336.1439590     
  -56842021.2408428     
  -57074601.2658499     
  -57311109.3733616     
  -57546046.6821670     
  -57775283.8418219     
  -57995835.3618105     
  -58205625.9634660     
  -58403250.9235374     
  -58587736.6884577     
  -58758310.1303324     
  -58914185.2347920     
  -59054375.5301255     
  -59177539.7438893     
  -59281867.2426506     
  -59365008.7650575     
  -56727083.2795162     
  -56956290.7211255     
  -57180770.0752912     
  -57396975.2688776     
  -57602576.0726007     
  -57796234.0321837     
  -57977374.0143120     
  -58145955.1157377     
  -58302246.1429867     
  -58446611.1218086     
  -58579309.8324494     
  -58700317.7858411     
  -58809169.8071449     
  -58904831.6569827     
  -58985604.8414724     
  -56611646.5332654     
  -56841686.2657269     
  -57056964.8609938     
  -57256085.2406831     
  -57438726.8342226     
  -57605420.2842236     
  -57757318.4548126     
  -57895970.7524133     
  -58023106.2727820     
  -58140429.1283425     
  -58249427.2981849     
  -58351195.2117325     
  -58446270.4650238     
  -58534486.6404987     
  -58614846.8782898     
  -56500478.0473554     
  -56733555.3060133     
  -56940566.6619216     
  -57122465.6696969     
  -57281161.2294353     
  -57419281.5138292     
  -57539935.3879857     
  -57646482.9687779     
  -57742321.8520980     
  -57830690.0794072     
  -57914482.5916045     
  -57996075.8141297     
  -58077155.6269983     
  -58158547.1769657     
  -58240050.1560618     
  -56398693.5914033     
  -56634877.4078861     
  -56832496.6394745     
  -56995069.5955263     
  -57126972.8167300     
  -57233176.0002498     
  -57318979.6908618     
  -57389773.9297600     
  -57450825.6605778     
  -57507092.3524802     
  -57563051.5600947     
  -57622532.6213168     
  -57688537.9289604     
  -57763046.7577176     
  -57846803.3063555     
  -56311633.9082275     
  -56548711.2723623     
  -56733567.3730951     
  -56872530.3058770     
  -56972718.8913326     
  -57041718.0774863     
  -57087271.4208667     
  -57117018.3413767     
  -57138284.8850676     
  -57157918.7804957     
  -57182146.8115198     
  -57216427.1872215     
  -57265272.0420701     
  -57332024.3932442     
  -57418587.8041731     
  -56244723.6316149     
  -56478036.4473707     
  -56644287.4234935     
  -56752924.8831485     
  -56814152.4941631     
  -56838495.7230975     
  -56836417.0419098     
  -56818021.4498917     
  -56792860.2548963     
  -56769811.1081712     
  -56756992.4112523     
  -56761662.9661533     
  -56790062.6990655     
  -56847165.3070187     
  -56936335.5760991     
  -56203314.0898871     
  -56425557.5002981     
  -56564599.6696586     
  -56633445.2145225     
  -56645845.5117168     
  -56615676.3762915     
  -56556428.9166222     
  -56480874.5109888     
  -56400905.7215462     
  -56327506.4550193     
  -56270775.7505015     
  -56239921.4846579     
  -56243150.2454302     
  -56287403.6683987     
  -56377925.4367829     
  -56192515.1440478     
  -56393453.4214675     
  -56493510.7700994     
  -56509914.0571456     
  -56460631.6600364     
  -56363432.8885787     
  -56235187.4740795     
  -56091489.9834901     
  -55946590.1100919     
  -55813534.4850314     
  -55704388.2379868     
  -55630399.9422208     
  -55601992.6364612     
  -55628500.4947558     
  -55717621.5682403     
  -56217025.3019886     
  -56383041.1450870     
  -56428536.5188903     
  -56376038.9042163     
  -56248750.7467845     
  -56069079.8105919     
  -55857658.9231103     
  -55632958.1900828     
  -55411411.6352739     
  -55207871.8030106     
  -55036170.8071315     
  -54909577.2033776     
  -54840971.9000020     
  -54842616.4256528     
  -54925459.5462098     
  -56280971.3834147     
  -56394289.0214189     
  -56364819.6716311     
  -56222209.1490132     
  -55996489.3657342     
  -55715739.4463780     
  -55404730.6773217     
  -55084634.3323614     
  -54773557.2969336     
  -54487542.8172731     
  -54241682.9823243     
  -54051045.4420387     
  -53931165.4457481     
  -53897907.1973802     
  -53966584.8933762     
  -56387764.8854783     
  -56425038.1486150     
  -56293632.6264844     
  -56033469.1077040     
  -55683956.3947978     
  -55280239.6554705     
  -54851447.6779914     
  -54420811.8799917     
  -54007022.1512077     
  -53626132.8486660     
  -53293507.6703663     
  -53025453.4570979     
  -52840239.5736417     
  -52758179.3870463     
  -52800541.5721812     
  -56539952.8707858     
  -56469608.5616966     
  -56199652.7750862     
  -55785946.8383763     
  -55281344.0096864     
  -54729754.9790793     
  -54164315.0538252     
  -53608749.2114108     
  -53080321.8074243     
  -52593110.9735015     
  -52161061.9991323     
  -51800607.6593690     
  -51532543.7665780     
  -51382661.8489986     
  -51380485.4011601     
  -56738989.2795381     
  -56515971.2063910     
  -56055643.9487181     
  -55440254.6961983     
  -54742491.7902339     
  -54016416.0287052     
  -53297151.6746875     
  -52605650.0100282     
  -51954436.9693310     
  -51352658.4763002     
  -50810253.7216738     
  -50341721.0091306     
  -49969531.3656393     
  -49725977.4371593     
  -49652262.7445197     
  -56984427.0099479     
  -56539458.4432777     
  -55811094.8524647     
  -54928666.5740176     
  -53993651.6451321     
  -53068644.6935475     
  -52184707.6596708     
  -51353789.4975158     
  -50579116.1002953     
  -49861201.4688557     
  -49202348.5904104     
  -48611672.6478086     
  -48110613.1911912     
  -47738582.7221310     
  -47553200.8013708     
  -57272329.9099270     
  -56485642.9952344     
  -55365761.3354343     
  -54129016.7324781     
  -52913470.6699627     
  -51777613.9600724     
  -50732208.6850511     
  -49771833.4787603     
  -48885434.0206486     
  -48061337.2403755     
  -47290404.3975758     
  -46570047.4686553     
  -45915013.2415751     
  -45367932.8590570     
  -45010702.7389410     
  -57579849.9072203     
  -56221343.1308694     
  -54498460.0461734     
  -52807214.9972819     
  -51301166.0299327     
  -49973074.1274673     
  -48795222.1233905     
  -47736690.9589772     
  -46769062.5514129     
  -45866745.9122154     
  -45006596.4377799     
  -44169006.6856451     
  -43342074.1009398     
  -42564511.8546681     
  -41939486.5880056     
  -57852010.2566590     
  -55292783.3840210     
  -52635386.6622380     
  -50526451.9867674     
  -48804821.4454768     
  -47364741.3182575     
  -46127587.5961368     
  -45036498.3707474     
  -44047290.1014159     
  -43122462.7995071     
  -42226412.4539029     
  -41320640.3470576     
  -40360660.5737918     
  -39283140.2331398     
  -38250657.2720922     
  -56142351.4258220     
  -51298810.9224835     
  -48362111.9823188     
  -46254118.6855265     
  -44625153.7910883     
  -43301066.1298665     
  -42182099.8321460     
  -41203062.7744449     
  -40316045.5779211     
  -39480739.7936553     
  -38657197.4954103     
  -37797621.1209969     
  -36831256.6860348     
  -35630965.3663642     
  -33800567.5378162     
SCALARS 2waySource double 
LOOKUP_TABLE default
  2.521405833169011E-002
  2.987414669724994E-002
  3.488390127896138E-002
  3.955647044244523E-002
  4.376054146123812E-002
  4.748246922676547E-002
  5.076169812852593E-002
  5.365891848879042E-002
  5.624180019176830E-002
  5.857719150186933E-002
  6.072600255286320E-002
  6.273841980919995E-002
  6.464613250600372E-002
  6.645027363441422E-002
  6.800567169403737E-002
  2.521141521651400E-002
  3.121886441804471E-002
  3.659014504100402E-002
  4.141503818705250E-002
  4.566132475534813E-002
  4.937009268893314E-002
  5.260645658550769E-002
  5.544617195636547E-002
  5.796678484405719E-002
  6.024282737787715E-002
  6.234268512212050E-002
  6.432576970653850E-002
  6.623951939642948E-002
  6.810696056183967E-002
  6.994384832950169E-002
  2.460375443297937E-002
  3.159253463567002E-002
  3.744375471040980E-002
  4.244846456314490E-002
  4.674815551548124E-002
  5.044280232063589E-002
  5.363016563349164E-002
  5.640445593548034E-002
  5.885528817371753E-002
  6.106646426535974E-002
  6.311528023224616E-002
  6.507226023887072E-002
  6.700047616544746E-002
  6.895971136631129E-002
  7.101719058326002E-002
  2.378352606566219E-002
  3.133938882569153E-002
  3.752813418945983E-002
  4.267464969306588E-002
  4.699811372236061E-002
  5.065545635661300E-002
  5.377402866982527E-002
  5.646593296989658E-002
  5.883240056798700E-002
  6.096606041774063E-002
  6.295249642607297E-002
  6.487178625581393E-002
  6.680121928526292E-002
  6.882031181067794E-002
  7.102393572340557E-002
  2.282736748741973E-002
  3.062235783195886E-002
  3.694593578352314E-002
  4.212713152127865E-002
  4.641266221163873E-002
  4.998965431505997E-002
  5.300730414007258E-002
  5.559135464733193E-002
  5.785216803664159E-002
  5.988924891807278E-002
  6.179444319676097E-002
  6.365492086124079E-002
  6.555680631118518E-002
  6.759091346338998E-002
  6.986059946219178E-002
  2.177203978574894E-002
  2.951740136007249E-002
  3.577116772970082E-002
  4.085375217743810E-002
  4.501576933046692E-002
  4.845443577993266E-002
  5.132894902851623E-002
  5.377253751671540E-002
  5.590075715216611E-002
  5.781704687301880E-002
  5.961680135257214E-002
  6.139097359775259E-002
  6.323001579790224E-002
  6.522863153965998E-002
  6.749129877690813E-002
  2.064615365346758E-002
  2.807689961482591E-002
  3.406519054575070E-002
  3.891071865598268E-002
  4.285320539441015E-002
  4.608604449757759E-002
  4.876806215041126E-002
  5.103311020205413E-002
  5.299736747752343E-002
  5.476474832878002E-002
  5.643109690976632E-002
  5.808784191770427E-002
  5.982562858759850E-002
  6.173820440755373E-002
  6.392642030936539E-002
  1.947649723050227E-002
  2.635061872345403E-002
  3.189152881524117E-002
  3.636580751126804E-002
  3.999100831375084E-002
  4.294652577863407E-002
  4.538252239347403E-002
  4.742726347832589E-002
  4.919298196942742E-002
  5.078050272725444E-002
  5.228298825995510E-002
  5.378919533564041E-002
  5.538655448508720E-002
  5.716422035983312E-002
  5.921604798907833E-002
  1.828826597026097E-002
  2.439193237705613E-002
  2.932163011624157E-002
  3.330009006690514E-002
  3.651387228550668E-002
  3.912075117493444E-002
  4.125581204962115E-002
  4.303656592067347E-002
  4.456720492176890E-002
  4.594211974905837E-002
  4.724885317605311E-002
  4.857068621786820E-002
  4.998901808447756E-002
  5.158562048264839E-002
  5.344475481760430E-002
  1.710382894543825E-002
  2.225764147125112E-002
  2.643461027126589E-002
  2.980618022900730E-002
  3.252172391953930E-002
  3.471198106228955E-002
  3.649223006090483E-002
  3.796518533730225E-002
  3.922358784296837E-002
  4.035248038002043E-002
  4.143120224512906E-002
  4.253516431846849E-002
  4.373746070747578E-002
  4.511034178882230E-002
  4.672653812486368E-002
  1.594121424508462E-002
  2.000503978922993E-002
  2.331361470937705E-002
  2.598381394089160E-002
  2.812450976420820E-002
  2.983612297998483E-002
  3.121096820686365E-002
  3.233403298480837E-002
  3.328395519531206E-002
  3.413405080285971E-002
  3.495330990219947E-002
  3.580732170581348E-002
  3.675910688591855E-002
  3.786983456658977E-002
  3.919939377167216E-002
  1.481288059833421E-002
  1.768811196133089E-002
  2.004079794389548E-002
  2.193413515450295E-002
  2.343603163111876E-002
  2.461532791916630E-002
  2.553967964066525E-002
  2.627446861708665E-002
  2.688233241629275E-002
  2.742304317893177E-002
  2.795356040387278E-002
  2.852814330900432E-002
  2.919844370881938E-002
  3.001351710463625E-002
  3.101969617120770E-002
  1.372504131372097E-002
  1.535403646460185E-002
  1.669236797908048E-002
  1.775398556798097E-002
  1.856785472861528E-002
  1.917175179659553E-002
  1.960826610064588E-002
  1.992223488772305E-002
  2.015909303318673E-002
  2.036378613775539E-002
  2.058000726688999E-002
  2.084959212988420E-002
  2.121195471565194E-002
  2.170347232757312E-002
  2.235674168907833E-002
  1.267761275181106E-002
  1.304067777799977E-002
  1.333465244466207E-002
  1.353117563180378E-002
  1.362416547967795E-002
  1.362224164841984E-002
  1.354355360093718E-002
  1.341222772815872E-002
  1.325588125656083E-002
  1.310381464318403E-002
  1.298561029645676E-002
  1.292994673762293E-002
  1.296349103146996E-002
  1.310976379642844E-002
  1.338788505103627E-002
  1.166472067045633E-002
  1.077535043034633E-002
  1.002168141023528E-002
  9.341316325899542E-003
  8.698158663668935E-003
  8.074490095853169E-003
  7.465358512657729E-003
  6.874568320238986E-003
  6.311744707710955E-003
  5.790086242565539E-003
  5.324532053667914E-003
  4.930153218723838E-003
  4.620634124404374E-003
  4.406741034813240E-003
  4.294685745930163E-003
  1.067561770503929E-002
  8.574823940508330E-003
  6.794389411494347E-003
  5.246413265405485E-003
  3.870212157586015E-003
  2.624941618260540E-003
  1.484234774193359E-003
  4.322656579967272E-004
 -5.392395037828891E-004
 -1.433399957839835E-003
 -2.250234890662705E-003
 -2.988536443203352E-003
 -3.647666497297762E-003
 -4.229355513657362E-003
 -4.739579951851068E-003
  9.695839498352668E-003
  6.446335263584920E-003
  3.681261220464810E-003
  1.295137784037666E-003
 -7.921528629979224E-004
 -2.641488874978644E-003
 -4.298996328060189E-003
 -5.799405272715535E-003
 -7.168707973318272E-003
 -8.426436778946663E-003
 -9.587756842424182E-003
 -1.066547249726781E-002
 -1.167199020096986E-002
 -1.262126487944995E-002
 -1.353077194959535E-002
  8.708439372134847E-003
  4.389286592470591E-003
  7.001037194343904E-004
 -2.475466310997705E-003
 -5.232675194358325E-003
 -7.649955387141597E-003
 -9.791950183785206E-003
 -1.171179597845550E-002
 -1.345309553924637E-002
 -1.505185886729997E-002
 -1.653851734388170E-002
 -1.793999644442507E-002
 -1.928178117907508E-002
 -2.058991560913663E-002
 -2.189292321064167E-002
  7.695169291719787E-003
  2.397310831778841E-003
 -2.139384308789794E-003
 -6.037091700386747E-003
 -9.403272914551595E-003
 -1.233255076658765E-002
 -1.490764496001678E-002
 -1.720006397095125E-002
 -1.927108436094379E-002
 -2.117324193977847E-002
 -2.295227837099660E-002
 -2.464932877668263E-002
 -2.630310850767570E-002
 -2.795191416053822E-002
 -2.963534825812434E-002
  6.637496808012478E-003
  4.604554532623533E-004
 -4.832464864960363E-003
 -9.366199043447751E-003
 -1.325946635487613E-002
 -1.662342277973591E-002
 -1.955963573904542E-002
 -2.215858333768667E-002
 -2.449941886992051E-002
 -2.665110275216702E-002
 -2.867452159765645E-002
 -3.062502781141646E-002
 -3.255488812884542E-002
 -3.451529233299545E-002
 -3.655773812998532E-002
  5.517347891621916E-003
 -1.432652415882851E-003
 -7.375625991930924E-003
 -1.243874299092674E-002
 -1.675390610403472E-002
 -2.045168402292509E-002
 -2.365492851543525E-002
 -2.647433229962480E-002
 -2.900697878052829E-002
 -3.133760813561140E-002
 -3.354154409934792E-002
 -3.568810536980731E-002
 -3.784361454954234E-002
 -4.007348380411515E-002
 -4.244311450293398E-002
  4.317438271651765E-003
 -3.292635811967096E-003
 -9.761830975434670E-003
 -1.522272137535279E-002
 -1.982686564525993E-002
 -2.373097757118139E-002
 -2.708375206696565E-002
 -3.001763902464668E-002
 -3.264677499959750E-002
 -3.506966803983025E-002
 -3.737420437522390E-002
 -3.964283202858217E-002
 -4.195659114703865E-002
 -4.439740749512201E-002
 -4.704836138390970E-002
  3.020986216140934E-003
 -5.126882512023700E-003
 -1.197350837928010E-002
 -1.766639023202656E-002
 -2.239114360503359E-002
 -2.634333782006682E-002
 -2.970436664204339E-002
 -3.262904891396787E-002
 -3.524509567076391E-002
 -3.765996180973730E-002
 -3.997007380176917E-002
 -4.226906973171981E-002
 -4.465347067855471E-002
 -4.722530444674283E-002
 -5.009171458989224E-002
  1.610556557231565E-003
 -6.935884386869072E-003
 -1.397015082857845E-002
 -1.967720635421839E-002
 -2.430599650150841E-002
 -2.811280663330941E-002
 -3.131961951527876E-002
 -3.409997934214540E-002
 -3.658608380575923E-002
 -3.888461961439225E-002
 -4.109305199997198E-002
 -4.331246598589640E-002
 -4.565546398773265E-002
 -4.824953107795839E-002
 -5.123591978507031E-002
  6.525307315022614E-005
 -8.705709342115144E-003
 -1.566272833855553E-002
 -2.107974559685149E-002
 -2.532881488464728E-002
 -2.876052323110570E-002
 -3.163942154619576E-002
 -3.414262237993092E-002
 -3.638762921196149E-002
 -3.846390284649876E-002
 -4.045767658806407E-002
 -4.247033512577049E-002
 -4.463068060077406E-002
 -4.709849150927907E-002
 -5.006462415279894E-002
 -1.643034289018004E-003
 -1.039102141810419E-002
 -1.685131574395838E-002
 -2.152309154260924E-002
 -2.502119671930261E-002
 -2.782601770689590E-002
 -3.021892273163284E-002
 -3.233848032436128E-002
 -3.425751328196568E-002
 -3.602574588821909E-002
 -3.769937815685293E-002
 -3.936775700832254E-002
 -4.117071901676365E-002
 -4.331071219325425E-002
 -4.604698619067059E-002
 -3.573162982962645E-003
 -1.185303197984661E-002
 -1.705303493504304E-002
 -2.025782926694113E-002
 -2.255773285466555E-002
 -2.453161190515628E-002
 -2.634494009098825E-002
 -2.803594411684802E-002
 -2.959860974934293E-002
 -3.102088027045791E-002
 -3.230680387579936E-002
 -3.350273829453934E-002
 -3.475034019870500E-002
 -3.628902299761418E-002
 -3.848441932412663E-002
 -5.799291149401023E-003
 -1.268072299994836E-002
 -1.488376341495617E-002
 -1.553564899919953E-002
 -1.638545221676064E-002
 -1.749656919276244E-002
 -1.877419828039854E-002
 -2.009818655663741E-002
 -2.136643596026686E-002
 -2.249589796763037E-002
 -2.342252047735348E-002
 -2.411309907770936E-002
 -2.460765327712148E-002
 -2.523577620016283E-002
 -2.640999743456178E-002
 -9.504101213074632E-003
 -1.011103214809296E-002
 -5.333643316084559E-003
 -3.508625264438407E-003
 -3.234189968517875E-003
 -3.834074939075612E-003
 -4.875771279280279E-003
 -6.094428427309867E-003
 -7.310060704097447E-003
 -8.385219568978695E-003
 -9.197587600004154E-003
 -9.620465570664122E-003
 -9.519780177620571E-003
 -8.801085956974600E-003
 -8.533787528401011E-003
  8.243405811215247E-003
  2.530206015285936E-002
  2.933424479081680E-002
  2.956462165200862E-002
  2.825554615201355E-002
  2.626425395686255E-002
  2.400257972628944E-002
  2.169915928778992E-002
  1.950008622619515E-002
  1.751854575864402E-002
  1.586826622786484E-002
  1.469881708840541E-002
  1.425074865176671E-002
  1.499689988006980E-002
  1.771002000829347E-002
SCALARS elementIsPlast double 
LOOKUP_TABLE default
  0.000000000000000E+000
  0.000000000000000E+000
  0.000000000000000E+000
  0.000000000000000E+000
  0.000000000000000E+000
  0.000000000000000E+000
  0.000000000000000E+000
  0.000000000000000E+000
  0.000000000000000E+000
  0.000000000000000E+000
  0.000000000000000E+000
  0.000000000000000E+000
  0.000000000000000E+000
  0.000000000000000E+000
  0.000000000000000E+000
  0.000000000000000E+000
  0.000000000000000E+000
  0.000000000000000E+000
  0.000000000000000E+000
  0.000000000000000E+000
  0.000000000000000E+000
  0.000000000000000E+000
  0.000000000000000E+000
  0.000000000000000E+000
  0.000000000000000E+000
  0.000000000000000E+000
  0.000000000000000E+000
  0.000000000000000E+000
  0.000000000000000E+000
  0.000000000000000E+000
  0.000000000000000E+000
  0.000000000000000E+000
  0.000000000000000E+000
  0.000000000000000E+000
  0.000000000000000E+000
  0.000000000000000E+000
  0.000000000000000E+000
  0.000000000000000E+000
  0.000000000000000E+000
  0.000000000000000E+000
  0.000000000000000E+000
  0.000000000000000E+000
  0.000000000000000E+000
  0.000000000000000E+000
  0.000000000000000E+000
  0.000000000000000E+000
  0.000000000000000E+000
  0.000000000000000E+000
  0.000000000000000E+000
  0.000000000000000E+000
  0.000000000000000E+000
  0.000000000000000E+000
  0.000000000000000E+000
  0.000000000000000E+000
  0.000000000000000E+000
  0.000000000000000E+000
  0.000000000000000E+000
  0.000000000000000E+000
  0.000000000000000E+000
  0.000000000000000E+000
  0.000000000000000E+000
  0.000000000000000E+000
  0.000000000000000E+000
  0.000000000000000E+000
  0.000000000000000E+000
  0.000000000000000E+000
  0.000000000000000E+000
  0.000000000000000E+000
  0.000000000000000E+000
  0.000000000000000E+000
  0.000000000000000E+000
  0.000000000000000E+000
  0.000000000000000E+000
  0.000000000000000E+000
  0.000000000000000E+000
  0.000000000000000E+000
  0.000000000000000E+000
  0.000000000000000E+000
  0.000000000000000E+000
  0.000000000000000E+000
  0.000000000000000E+000
  0.000000000000000E+000
  0.000000000000000E+000
  0.000000000000000E+000
  0.000000000000000E+000
  0.000000000000000E+000
  0.000000000000000E+000
  0.000000000000000E+000
  0.000000000000000E+000
  0.000000000000000E+000
  0.000000000000000E+000
  0.000000000000000E+000
  0.000000000000000E+000
  0.000000000000000E+000
  0.000000000000000E+000
  0.000000000000000E+000
  0.000000000000000E+000
  0.000000000000000E+000
  0.000000000000000E+000
  0.000000000000000E+000
  0.000000000000000E+000
  0.000000000000000E+000
  0.000000000000000E+000
  0.000000000000000E+000
  0.000000000000000E+000
  0.000000000000000E+000
  0.000000000000000E+000
  0.000000000000000E+000
  0.000000000000000E+000
  0.000000000000000E+000
  0.000000000000000E+000
  0.000000000000000E+000
  0.000000000000000E+000
  0.000000000000000E+000
  0.000000000000000E+000
  0.000000000000000E+000
  0.000000000000000E+000
  0.000000000000000E+000
  0.000000000000000E+000
  0.000000000000000E+000
  0.000000000000000E+000
  0.000000000000000E+000
  0.000000000000000E+000
  0.000000000000000E+000
  0.000000000000000E+000
  0.000000000000000E+000
  0.000000000000000E+000
  0.000000000000000E+000
  0.000000000000000E+000
  0.000000000000000E+000
  0.000000000000000E+000
  0.000000000000000E+000
  0.000000000000000E+000
  0.000000000000000E+000
  0.000000000000000E+000
  0.000000000000000E+000
  0.000000000000000E+000
  0.000000000000000E+000
  0.000000000000000E+000
  0.000000000000000E+000
  0.000000000000000E+000
  0.000000000000000E+000
  0.000000000000000E+000
  0.000000000000000E+000
  0.000000000000000E+000
  0.000000000000000E+000
  0.000000000000000E+000
  0.000000000000000E+000
  0.000000000000000E+000
  0.000000000000000E+000
  0.000000000000000E+000
  0.000000000000000E+000
  0.000000000000000E+000
  0.000000000000000E+000
  0.000000000000000E+000
  0.000000000000000E+000
  0.000000000000000E+000
  0.000000000000000E+000
  0.000000000000000E+000
  0.000000000000000E+000
  0.000000000000000E+000
  0.000000000000000E+000
  0.000000000000000E+000
  0.000000000000000E+000
  0.000000000000000E+000
  0.000000000000000E+000
  0.000000000000000E+000
  0.000000000000000E+000
  0.000000000000000E+000
  0.000000000000000E+000
  0.000000000000000E+000
  0.000000000000000E+000
  0.000000000000000E+000
  0.000000000000000E+000
  0.000000000000000E+000
  0.000000000000000E+000
  0.000000000000000E+000
  0.000000000000000E+000
  0.000000000000000E+000
  0.000000000000000E+000
  0.000000000000000E+000
  0.000000000000000E+000
  0.000000000000000E+000
  0.000000000000000E+000
  0.000000000000000E+000
  0.000000000000000E+000
  0.000000000000000E+000
  0.000000000000000E+000
  0.000000000000000E+000
  0.000000000000000E+000
  0.000000000000000E+000
  0.000000000000000E+000
  0.000000000000000E+000
  0.000000000000000E+000
  0.000000000000000E+000
  0.000000000000000E+000
  0.000000000000000E+000
  0.000000000000000E+000
  0.000000000000000E+000
  0.000000000000000E+000
  0.000000000000000E+000
  0.000000000000000E+000
  0.000000000000000E+000
  0.000000000000000E+000
  0.000000000000000E+000
  0.000000000000000E+000
  0.000000000000000E+000
  0.000000000000000E+000
  0.000000000000000E+000
  0.000000000000000E+000
  0.000000000000000E+000
  0.000000000000000E+000
  0.000000000000000E+000
  0.000000000000000E+000
  0.000000000000000E+000
  0.000000000000000E+000
  0.000000000000000E+000
  0.000000000000000E+000
  0.000000000000000E+000
  0.000000000000000E+000
  0.000000000000000E+000
  0.000000000000000E+000
  0.000000000000000E+000
  0.000000000000000E+000
  0.000000000000000E+000
  0.000000000000000E+000
  0.000000000000000E+000
  0.000000000000000E+000
  0.000000000000000E+000
  0.000000000000000E+000
  0.000000000000000E+000
  0.000000000000000E+000
  0.000000000000000E+000
  0.000000000000000E+000
  0.000000000000000E+000
  0.000000000000000E+000
  0.000000000000000E+000
  0.000000000000000E+000
  0.000000000000000E+000
  0.000000000000000E+000
  0.000000000000000E+000
  0.000000000000000E+000
  0.000000000000000E+000
  0.000000000000000E+000
  0.000000000000000E+000
  0.000000000000000E+000
  0.000000000000000E+000
  0.000000000000000E+000
  0.000000000000000E+000
  0.000000000000000E+000
  0.000000000000000E+000
  0.000000000000000E+000
  0.000000000000000E+000
  0.000000000000000E+000
  0.000000000000000E+000
  0.000000000000000E+000
  0.000000000000000E+000
  0.000000000000000E+000
  0.000000000000000E+000
  0.000000000000000E+000
  0.000000000000000E+000
  0.000000000000000E+000
  0.000000000000000E+000
  0.000000000000000E+000
  0.000000000000000E+000
  0.000000000000000E+000
  0.000000000000000E+000
  0.000000000000000E+000
  0.000000000000000E+000
  0.000000000000000E+000
  0.000000000000000E+000
  0.000000000000000E+000
  0.000000000000000E+000
  0.000000000000000E+000
  0.000000000000000E+000
  0.000000000000000E+000
  0.000000000000000E+000
  0.000000000000000E+000
  0.000000000000000E+000
  0.000000000000000E+000
  0.000000000000000E+000
  0.000000000000000E+000
  0.000000000000000E+000
  0.000000000000000E+000
  0.000000000000000E+000
  0.000000000000000E+000
  0.000000000000000E+000
  0.000000000000000E+000
  0.000000000000000E+000
  0.000000000000000E+000
  0.000000000000000E+000
  0.000000000000000E+000
  0.000000000000000E+000
  0.000000000000000E+000
  0.000000000000000E+000
  0.000000000000000E+000
  0.000000000000000E+000
  0.000000000000000E+000
  0.000000000000000E+000
  0.000000000000000E+000
  0.000000000000000E+000
  0.000000000000000E+000
  0.000000000000000E+000
  0.000000000000000E+000
  0.000000000000000E+000
  0.000000000000000E+000
  0.000000000000000E+000
  0.000000000000000E+000
  0.000000000000000E+000
  0.000000000000000E+000
  0.000000000000000E+000
  0.000000000000000E+000
  0.000000000000000E+000
  0.000000000000000E+000
  0.000000000000000E+000
  0.000000000000000E+000
  0.000000000000000E+000
  0.000000000000000E+000
  0.000000000000000E+000
  0.000000000000000E+000
  0.000000000000000E+000
  0.000000000000000E+000
  0.000000000000000E+000
  0.000000000000000E+000
  0.000000000000000E+000
  0.000000000000000E+000
  0.000000000000000E+000
  0.000000000000000E+000
  0.000000000000000E+000
  0.000000000000000E+000
  0.000000000000000E+000
  0.000000000000000E+000
  0.000000000000000E+000
  0.000000000000000E+000
  0.000000000000000E+000
  0.000000000000000E+000
  0.000000000000000E+000
  0.000000000000000E+000
  0.000000000000000E+000
  0.000000000000000E+000
  0.000000000000000E+000
  0.000000000000000E+000
  0.000000000000000E+000
  0.000000000000000E+000
  0.000000000000000E+000
  0.000000000000000E+000
  0.000000000000000E+000
  0.000000000000000E+000
  0.000000000000000E+000
  0.000000000000000E+000
  0.000000000000000E+000
  0.000000000000000E+000
  0.000000000000000E+000
  0.000000000000000E+000
  0.000000000000000E+000
  0.000000000000000E+000
  0.000000000000000E+000
  0.000000000000000E+000
  0.000000000000000E+000
  0.000000000000000E+000
  0.000000000000000E+000
  0.000000000000000E+000
  0.000000000000000E+000
  0.000000000000000E+000
  0.000000000000000E+000
  0.000000000000000E+000
  0.000000000000000E+000
  0.000000000000000E+000
  0.000000000000000E+000
  0.000000000000000E+000
  0.000000000000000E+000
  0.000000000000000E+000
  0.000000000000000E+000
  0.000000000000000E+000
  0.000000000000000E+000
  0.000000000000000E+000
  0.000000000000000E+000
  0.000000000000000E+000
  0.000000000000000E+000
  0.000000000000000E+000
  0.000000000000000E+000
  0.000000000000000E+000
  0.000000000000000E+000
  0.000000000000000E+000
  0.000000000000000E+000
  0.000000000000000E+000
  0.000000000000000E+000
  0.000000000000000E+000
  0.000000000000000E+000
  0.000000000000000E+000
  0.000000000000000E+000
  0.000000000000000E+000
  0.000000000000000E+000
  0.000000000000000E+000
  0.000000000000000E+000
  0.000000000000000E+000
  0.000000000000000E+000
  0.000000000000000E+000
  0.000000000000000E+000
  0.000000000000000E+000
  0.000000000000000E+000
  0.000000000000000E+000
  0.000000000000000E+000
  0.000000000000000E+000
  0.000000000000000E+000
  0.000000000000000E+000
  0.000000000000000E+000
  0.000000000000000E+000
  0.000000000000000E+000
  0.000000000000000E+000
  0.000000000000000E+000
  0.000000000000000E+000
  0.000000000000000E+000
  0.000000000000000E+000
  0.000000000000000E+000
  0.000000000000000E+000
  0.000000000000000E+000
  0.000000000000000E+000
  0.000000000000000E+000
  0.000000000000000E+000
  0.000000000000000E+000
  0.000000000000000E+000
  0.000000000000000E+000
  0.000000000000000E+000
  0.000000000000000E+000
  0.000000000000000E+000
  0.000000000000000E+000
  0.000000000000000E+000
  0.000000000000000E+000
  0.000000000000000E+000
  0.000000000000000E+000
  0.000000000000000E+000
  0.000000000000000E+000
  0.000000000000000E+000
  0.000000000000000E+000
  0.000000000000000E+000
  0.000000000000000E+000
  0.000000000000000E+000
  0.000000000000000E+000
  0.000000000000000E+000
  0.000000000000000E+000
  0.000000000000000E+000
  0.000000000000000E+000
  0.000000000000000E+000
  0.000000000000000E+000
  0.000000000000000E+000
  0.000000000000000E+000
  0.000000000000000E+000
  0.000000000000000E+000
  0.000000000000000E+000
SCALARS poroL double 
LOOKUP_TABLE default
  0.314155045941211     
  0.308827557558412     
  0.304866510941805     
  0.301663087111850     
  0.298974072378739     
  0.296656667932612     
  0.294616177348504     
  0.292782660425854     
  0.291099341398371     
  0.289515147021262     
  0.287978245687461     
  0.286427981914698     
  0.284779438335578     
  0.282890871572584     
  0.280343303859343     
  0.309359642622650     
  0.305083298578849     
  0.301420070978335     
  0.298350408048846     
  0.295723062972469     
  0.293433942446337     
  0.291404890887644     
  0.289574804926377     
  0.287892513950427     
  0.286311673538782     
  0.284786289398487     
  0.283265577364385     
  0.281689309080895     
  0.279970261764949     
  0.278195512188821     
  0.304079777010745     
  0.300658114835192     
  0.297507176010430     
  0.294705675521590     
  0.292235499836949     
  0.290043247904420     
  0.288077990009383     
  0.286294189075351     
  0.284651285767239     
  0.283112063697146     
  0.281641086855235     
  0.280204388936352     
  0.278770903354856     
  0.277346520929432     
  0.275982189238095     
  0.298766941257609     
  0.295977903989290     
  0.293302590015111     
  0.290822525599678     
  0.288563178353075     
  0.286514905222198     
  0.284653116335417     
  0.282949826958615     
  0.281377273101764     
  0.279909369018841     
  0.278522835546199     
  0.277199382963466     
  0.275933861681189     
  0.274742267120840     
  0.273673125425006     
  0.293547495595273     
  0.291244219372933     
  0.288970761951677     
  0.286798856820810     
  0.284766672490557     
  0.282885923151306     
  0.281152028263995     
  0.279552363065634     
  0.278071472459049     
  0.276694125767647     
  0.275407844842940     
  0.274206383049125     
  0.273093971701598     
  0.272090483757891     
  0.271233252672119     
  0.288482292244534     
  0.286557179292230     
  0.284614551300575     
  0.282715913008068     
  0.280901497006887     
  0.279192619101254     
  0.277596686159062     
  0.276112521330264     
  0.274734743357564     
  0.273457145523634     
  0.272275602692389     
  0.271190927830103     
  0.270211823792372     
  0.269357043045401     
  0.268655931031752     
  0.283602647348996     
  0.281971019303105     
  0.280295611420695     
  0.278629415461593     
  0.277010976871753     
  0.275465206644392     
  0.274005994984464     
  0.272639563430791     
  0.271367763738934     
  0.270191008858082     
  0.269110849544198     
  0.268132280366481     
  0.267265631700532     
  0.266527718813771     
  0.265941708527023     
  0.278921784854160     
  0.277513122609917     
  0.276048443295992     
  0.274573605429336     
  0.273124048657631     
  0.271725134314635     
  0.270393648441109     
  0.269139978505706     
  0.267970502891903     
  0.266889897054158     
  0.265903215418584     
  0.265017654103509     
  0.264243860833094     
  0.263596572274379     
  0.263094372067371     
  0.274438351502491     
  0.273192115156621     
  0.271887966578046     
  0.270565458214927     
  0.269256247182104     
  0.267984336000934     
  0.266767048694202     
  0.265616515103294     
  0.264541398490149     
  0.263548643927100     
  0.262645084736358     
  0.261838779305492     
  0.261139950009236     
  0.260561393925240     
  0.260118258795940     
  0.270137909090069     
  0.269001625869950     
  0.267813709502491     
  0.266607771839097     
  0.265411226359621     
  0.264245542031083     
  0.263126959598371     
  0.262067561891996     
  0.261076544731532     
  0.260161533259597     
  0.259329807563494     
  0.258589320246288     
  0.257949402073360     
  0.257421066616019     
  0.257016855527117     
  0.265993778078740     
  0.264922364474223     
  0.263812306880994     
  0.262691325278657     
  0.261582174211637     
  0.260502932754201     
  0.259467583733322     
  0.258486829262442     
  0.257569052244919     
  0.256721319845613     
  0.255950327141787     
  0.255263188650368     
  0.254667997853575     
  0.254174091794964     
  0.253791982236254     
  0.261967772588280     
  0.260923516522331     
  0.259859184070622     
  0.258796454181194     
  0.257753011413886     
  0.256742864657077     
  0.255776845869090     
  0.254863262201424     
  0.254008647658120     
  0.253218546447194     
  0.252498257131593     
  0.251853470834201     
  0.251290745562505     
  0.250817771467492     
  0.250443398713692     
  0.258010996776293     
  0.256963874789591     
  0.255919845495915     
  0.254894287019505     
  0.253899407519414     
  0.252944577264003     
  0.252036772472925     
  0.251181116474551     
  0.250381485816326     
  0.249641138825477     
  0.248963320903420     
  0.248351802676422     
  0.247811312319940     
  0.247347830928135     
  0.246968729077629     
  0.254064721918948     
  0.252992859476401     
  0.251950953836956     
  0.250947772142151     
  0.249989655528214     
  0.249080849507022     
  0.248223904169731     
  0.247420133925774     
  0.246670117036732     
  0.245974210732236     
  0.245333057032330     
  0.244748055979088     
  0.244221785467375     
  0.243758349421935     
  0.243363638244262     
  0.250061286139923     
  0.248951450550301     
  0.247901258386563     
  0.246912544617976     
  0.245985418462954     
  0.245118581821172     
  0.244309691696248     
  0.243555754333055     
  0.242853538280815     
  0.242199996554866     
  0.241592692058245     
  0.241030223390945     
  0.240512648828884     
  0.240041904108539     
  0.239622204820953     
  0.245924917295492     
  0.244772986130746     
  0.243712358517413     
  0.242737626742994     
  0.241842332016229     
  0.241019270403755     
  0.240260824218907     
  0.239559298129765     
  0.238907250281831     
  0.238297822006871     
  0.237725080757767     
  0.237184396798012     
  0.236672873560622     
  0.236189844542890     
  0.235737437147512     
  0.241572351600545     
  0.240383738357565     
  0.239319243322634     
  0.238365919174013     
  0.237510422950277     
  0.236739326594627     
  0.236039431157667     
  0.235398047512329     
  0.234803234643564     
  0.234244014991189     
  0.233710607688894     
  0.233194730827798     
  0.232690021975935     
  0.232192613158787     
  0.231701874738117     
  0.236913089626192     
  0.235703142777938     
  0.234650514997562     
  0.233734412532722     
  0.232934283503932     
  0.232230180892987     
  0.231603087921064     
  0.231035142357347     
  0.230509751911739     
  0.230011643920983     
  0.229526928243584     
  0.229043267994156     
  0.228550248568112     
  0.228040014019560     
  0.227508205548825     
  0.231849080057277     
  0.230643512995015     
  0.229628168877435     
  0.228774024269408     
  0.228052924126264     
  0.227438096513531     
  0.226904540876625     
  0.226429189113983     
  0.225990839008662     
  0.225569944108609     
  0.225148398025086     
  0.224709471729564     
  0.224238053268844     
  0.223721305823159     
  0.223149807777842     
  0.226273528221403     
  0.225109001933726     
  0.224166754985400     
  0.223408934432689     
  0.222799204775852     
  0.222303596612753     
  0.221891041837263     
  0.221533448644802     
  0.221205344484121     
  0.220883246094009     
  0.220544987982870     
  0.220169260683619     
  0.219735591577474     
  0.219224951006767     
  0.218621089775248     
  0.220068357047748     
  0.218993450622214     
  0.218171668646581     
  0.217555246139839     
  0.217098709230585     
  0.216760371453718     
  0.216503134388362     
  0.216294408699809     
  0.216105268251424     
  0.215909138523251     
  0.215680394793983     
  0.215393248044190     
  0.215021261827642     
  0.214537781512041     
  0.213917448286663     
  0.213099541341764     
  0.212176551832756     
  0.211536185910343     
  0.211118713471726     
  0.210867858100623     
  0.210733451874125     
  0.210672634265847     
  0.210649428511148     
  0.210633041054148     
  0.210595455892129     
  0.210508905268147     
  0.210343735601036     
  0.210067146340607     
  0.209643224272767     
  0.209034586348473     
  0.205208954552920     
  0.204517366444172     
  0.204136619408175     
  0.203991125367346     
  0.204010908058247     
  0.204136252080672     
  0.204319325466442     
  0.204522902198378     
  0.204717132539129     
  0.204875430912741     
  0.204970309038544     
  0.204969741887065     
  0.204834624431031     
  0.204518026339988     
  0.203966811267948     
  0.196200222283201     
  0.195843439873151     
  0.195824527496985     
  0.196044612327594     
  0.196415136771085     
  0.196865642168107     
  0.197345380638957     
  0.197819881719472     
  0.198264906714512     
  0.198659894539922     
  0.198981690770517     
  0.199198832724908     
  0.199266993266624     
  0.199126522631503     
  0.198703738829681     
  0.185813350603600     
  0.185932213157060     
  0.186413908379757     
  0.187122446505415     
  0.187942630856292     
  0.188793032454044     
  0.189625314623116     
  0.190414983485547     
  0.191150701746033     
  0.191824593988809     
  0.192424020563463     
  0.192923597462535     
  0.193276869144477     
  0.193410716919790     
  0.193224417865751     
  0.173677172894676     
  0.174476806791257     
  0.175659513971981     
  0.177023049007237     
  0.178414334587420     
  0.179746509871273     
  0.180986086850725     
  0.182131950418919     
  0.183195199784242     
  0.184188893019887     
  0.185119970665566     
  0.185978309391947     
  0.186724231276131     
  0.187272237526651     
  0.187487209633163     
  0.159203506030908     
  0.161021394768378     
  0.163215675942236     
  0.165467287489023     
  0.167575195255488     
  0.169468371092427     
  0.171164861402228     
  0.172703238113562     
  0.174127199579089     
  0.175478841459471     
  0.176794650011145     
  0.178098593225998     
  0.179373545442461     
  0.180539115284346     
  0.181410274288784     
  0.141356967670908     
  0.144792459425991     
  0.148548524240058     
  0.152028579504280     
  0.154982456509129     
  0.157509423252501     
  0.159711264145613     
  0.161682239104649     
  0.163504820859931     
  0.165254961092265     
  0.167007431902369     
  0.168837127410437     
  0.170816720537699     
  0.172882949902414     
  0.174838620368526     
  0.117519074496131     
  0.124287756224997     
  0.130800995005848     
  0.135722640575299     
  0.139663934203867     
  0.142927989108341     
  0.145729267250421     
  0.148220007888922     
  0.150521610038147     
  0.152743705486826     
  0.155000795346169     
  0.157432479831985     
  0.160222613292575     
  0.163688971401544     
  0.167408579517238     
  7.710031177605650E-002
  9.580189654639079E-002
  0.105920445945831     
  0.113113340286059     
  0.118640714535292     
  0.123134371520025     
  0.126943831689013     
  0.130298187857147     
  0.133368578262195     
  0.136303961465772     
  0.139259176390476     
  0.142429108360644     
  0.146117649998708     
  0.150878928369521     
  0.158646755243974     
